     Program PWSCF v.6.7GPU starts on 24Aug2021 at 10:58:14

     R & G space division:  proc/nbgrp/npool/nimage =      72
     Reading input from /storage/home/hcoda1/3/ntian30/research/carbon/CH2_vib/ads_slab/CH2_a/out_0004/pw.inp
Warning: card &CELL ignored
Warning: card   CELL_DYNAMICS='IPI', ignored
Warning: card / ignored

     Current dimensions of program PWSCF are:
     Max number of different atomic species (ntypx) = 10
     Max number of k-points (npk) =  40000
     Max angular momentum in pseudopotentials (lmaxx) =  3
     Presently no symmetry can be used with electric field

     Message from routine cell_base_init:
     DEPRECATED: use true lattice parameter, not A to a.u. conversion factor

     IMPORTANT: XC functional enforced from input :
     Exchange-correlation= BEEF-VDW
                           (   1   4  43  14   2   0   0)
     Any further DFT definition will be discarded
     Please, verify this is what you really want

  @ DRIVER MODE: Connecting to
 qe_1139763_2641437.sched-torque.pace.gatech.edu5ga_50l3_scratch
  using UNIX socket
  @ DRIVER MODE: Message from server: STATUS
  @ DRIVER MODE: Message from server: INIT
  @ DRIVER MODE: Receiving replica           0          -1
  @ DRIVER MODE: Receiving encoded integer          25
  @ DRIVER MODE:  SCF:  T  FORCE:  T  STRESS:  F  VC:  F  ENSEMBLE:  F
  @ DRIVER MODE:  SCF:  T  FORCE:  T  STRESS:  F  VC:  F  ENSEMBLE:  F

     Using Slab Decomposition

     bravais-lattice index     =            0
     lattice parameter (alat)  =       1.8897  a.u.
     unit-cell volume          =    6658.9804 (a.u.)^3
     number of atoms/cell      =           50
     number of atomic types    =            4
     number of electrons       =       384.00
     number of Kohn-Sham states=          202
     kinetic-energy cutoff     =      29.3995  Ry
     charge density cutoff     =     293.9946  Ry
     scf convergence threshold =      7.3E-08
     mixing beta               =       0.0500
     number of iterations used =            8  plain     mixing
     Exchange-correlation= BEEF-VDW
                           (   1   4  43  14   2   0   0)

     celldm(1)=   1.889726  celldm(2)=   0.000000  celldm(3)=   0.000000
     celldm(4)=   0.000000  celldm(5)=   0.000000  celldm(6)=   0.000000

     crystal axes: (cart. coord. in units of alat)
               a(1) = (   6.579727   0.000000   0.000000 )
               a(2) = (  -0.000775   5.961596   0.000000 )
               a(3) = (   0.000000   0.000000  25.155947 )

     reciprocal axes: (cart. coord. in units 2 pi/alat)
               b(1) = (  0.151982  0.000020  0.000000 )
               b(2) = (  0.000000  0.167740  0.000000 )
               b(3) = (  0.000000  0.000000  0.039752 )

     PseudoPot. # 1 for Ti read from file:
     /storage/coda1/p-amedford6/0/shared/rich_project_chbe-medford/medford-share/data/pseudos_module/espresso/nninc/pbe/van/Ti.UPF
     MD5 check sum: 8e4df49b7f0d34bbd5052bf3f5ea0213
     Pseudo is Ultrasoft, Zval = 12.0
     Generated by new atomic code, or converted to UPF format
     Using radial grid of  851 points,  6 beta functions with:
                l(1) =   0
                l(2) =   0
                l(3) =   1
                l(4) =   1
                l(5) =   2
                l(6) =   2
     Q(r) pseudized with  8 coefficients,  rinner =    1.000   1.000   1.000
                                                       1.000   1.000

     PseudoPot. # 2 for O  read from file:
     /storage/coda1/p-amedford6/0/shared/rich_project_chbe-medford/medford-share/data/pseudos_module/espresso/nninc/pbe/van/O.UPF
     MD5 check sum: 78c19812648e8988a0fe644b0f25305e
     Pseudo is Ultrasoft, Zval =  6.0
     Generated by new atomic code, or converted to UPF format
     Using radial grid of  737 points,  4 beta functions with:
                l(1) =   0
                l(2) =   0
                l(3) =   1
                l(4) =   1
     Q(r) pseudized with  8 coefficients,  rinner =    0.800   0.800   0.800

     PseudoPot. # 3 for C  read from file:
     /storage/coda1/p-amedford6/0/shared/rich_project_chbe-medford/medford-share/data/pseudos_module/espresso/nninc/pbe/van/C.UPF
     MD5 check sum: 1a69bf6b8db32088f5b2163dbdb77a27
     Pseudo is Ultrasoft, Zval =  4.0
     Generated by new atomic code, or converted to UPF format
     Using radial grid of  721 points,  4 beta functions with:
                l(1) =   0
                l(2) =   0
                l(3) =   1
                l(4) =   1
     Q(r) pseudized with  8 coefficients,  rinner =    0.800   0.800   0.800

     PseudoPot. # 4 for H  read from file:
     /storage/coda1/p-amedford6/0/shared/rich_project_chbe-medford/medford-share/data/pseudos_module/espresso/nninc/pbe/van/H.UPF
     MD5 check sum: b5ee9d7bfd3a09ee7748110bda690ff7
     Pseudo is Ultrasoft, Zval =  1.0
     Generated by new atomic code, or converted to UPF format
     Using radial grid of  615 points,  1 beta functions with:
                l(1) =   0
     Q(r) pseudized with  8 coefficients,  rinner =    0.800

     atomic species   valence    mass     pseudopotential
        Ti1           12.00    47.86700     Ti( 1.00)
        O1             6.00    15.99900     O ( 1.00)
        C1             4.00    12.01100     C ( 1.00)
        H1             1.00     1.00800     H ( 1.00)

     No symmetry found

   Cartesian axes

     site n.     atom                  positions (alat units)
         1           Ti1 tau(   1) = (   0.0004258   2.9801865   6.0000000  )
         2           Ti1 tau(   2) = (   3.2906075   1.4906267   6.0002472  )
         3           O1  tau(   3) = (   0.0006271   0.0005054   7.9858123  )
         4           O1  tau(   4) = (   3.2906025   0.0005020   7.3038282  )
         5           O1  tau(   5) = (   4.5942328   1.4918067   9.2879030  )
         6           O1  tau(   6) = (   1.9868534   1.4903216   9.2879459  )
         7           Ti1 tau(   7) = (   3.2756478   2.8760420   9.1630771  )
         8           Ti1 tau(   8) = (   6.5651030   1.4385007   9.3790407  )
         9           O1  tau(   9) = (   3.2651923   0.0045787  11.3553482  )
        10           O1  tau(  10) = (   6.5766178   5.9492394  10.5646413  )
        11           O1  tau(  11) = (   1.2591847   1.4977620  12.6679731  )
        12           O1  tau(  12) = (   5.2482661   1.4982983  12.6347741  )
        13           Ti1 tau(  13) = (   0.0651775   2.9654633  12.8696618  )
        14           Ti1 tau(  14) = (   3.3800656   1.4924449  12.4946823  )
        15           O1  tau(  15) = (   6.5296085   5.9207011  14.6097682  )
        16           O1  tau(  16) = (   3.2682314   0.0147111  13.9481481  )
        17           O1  tau(  17) = (   4.4912147   1.5408453  16.1034427  )
        18           O1  tau(  18) = (   2.0062121   1.5430191  16.1010343  )
        19           Ti1 tau(  19) = (   3.2584153   3.0188911  15.7272741  )
        20           Ti1 tau(  20) = (   6.5595668   1.6180917  16.2090303  )
        21           O1  tau(  21) = (   3.2904802   0.0005063   4.7018136  )
        22           O1  tau(  22) = (   6.5447935   0.0528136  17.2578995  )
        23           O1  tau(  23) = (   1.3043587   1.4918075   6.0039043  )
        24           O1  tau(  24) = (   5.2767064   1.4903225   6.0039473  )
        25           Ti1 tau(  25) = (   0.0000382   5.9609847   6.0000000  )
        26           Ti1 tau(  26) = (   3.2902200   4.4714249   6.0002472  )
        27           O1  tau(  27) = (   0.0002396   2.9813036   7.9858123  )
        28           O1  tau(  28) = (   3.2902150   2.9813002   7.3038282  )
        29           O1  tau(  29) = (   4.5938453   4.4726049   9.2879030  )
        30           O1  tau(  30) = (   1.9864658   4.4711199   9.2879459  )
        31           Ti1 tau(  31) = (   3.2806623   5.8565216   9.1617982  )
        32           Ti1 tau(  32) = (   6.5670484   4.4138833   9.3856844  )
        33           O1  tau(  33) = (   3.2704644   2.9808095  11.3502114  )
        34           O1  tau(  34) = (   6.5770050   2.9672111  10.5601139  )
        35           O1  tau(  35) = (   1.2614422   4.4490125  12.6594447  )
        36           O1  tau(  36) = (   5.2451530   4.4578719  12.6250501  )
        37           Ti1 tau(  37) = (   0.0436288   5.9429386  12.8080954  )
        38           Ti1 tau(  38) = (   3.3780510   4.4695497  12.4860242  )
        39           O1  tau(  39) = (   6.5513063   2.9765972  14.7162787  )
        40           O1  tau(  40) = (   3.2682626   2.9952000  13.9367060  )
        41           O1  tau(  41) = (   4.4851171   4.5114873  16.1027694  )
        42           O1  tau(  42) = (   2.0082088   4.5103763  16.0975713  )
        43           Ti1 tau(  43) = (   3.2690221   0.0357551  15.7449602  )
        44           Ti1 tau(  44) = (   6.5655258   4.6249605  16.1704562  )
        45           O1  tau(  45) = (   3.2900926   2.9813045   4.7018136  )
        46           O1  tau(  46) = (   1.3039711   4.4726057   6.0039043  )
        47           O1  tau(  47) = (   5.2763189   4.4711207   6.0039473  )
        48           C1  tau(  48) = (   6.5259393   3.0334738  17.6125649  )
        49           H1  tau(  49) = (   0.8472112   3.1395175  18.2203151  )
        50           H1  tau(  50) = (   5.6209537   3.1160310  18.2142257  )

     number of k points=    10  Fermi-Dirac smearing, width (Ry)=  0.0073
                       cart. coord. in units 2pi/alat
        k(    1) = (   0.0000000   0.0000000   0.0000000), wk =   0.1250000
        k(    2) = (   0.0000000   0.0419351   0.0000000), wk =   0.2500000
        k(    3) = (   0.0000000  -0.0838702   0.0000000), wk =   0.1250000
        k(    4) = (   0.0379955   0.0000049   0.0000000), wk =   0.2500000
        k(    5) = (   0.0379955   0.0419400   0.0000000), wk =   0.2500000
        k(    6) = (   0.0379955  -0.0838652   0.0000000), wk =   0.2500000
        k(    7) = (   0.0379955  -0.0419301   0.0000000), wk =   0.2500000
        k(    8) = (  -0.0759910  -0.0000099   0.0000000), wk =   0.1250000
        k(    9) = (  -0.0759910   0.0419252   0.0000000), wk =   0.2500000
        k(   10) = (  -0.0759910  -0.0838800   0.0000000), wk =   0.1250000

     Initial potential from superposition of free atoms

     starting charge  367.99919, renormalised to  384.00000

     negative rho (up, down):  2.117E-02 0.000E+00

     %%%%%%%%%%%%%%%%%%%%%%%%%%%%%%%%%%%%%%%%%%%%%%%%%%%%%%%%%%%%%%%%%%%%%%%%
     %                                                                      %
     % You are using vdW-DF, which was implemented by the Thonhauser group. %
     % Please cite the following two papers that made this development      %
     % possible and the two reviews that describe the various versions:     %
     %                                                                      %
     %   T. Thonhauser et al., PRL 115, 136402 (2015).                      %
     %   T. Thonhauser et al., PRB 76, 125112 (2007).                       %
     %   K. Berland et al., Rep. Prog. Phys. 78, 066501 (2015).             %
     %   D.C. Langreth et al., J. Phys.: Condens. Matter 21, 084203 (2009). %
     %                                                                      %
     %                                                                      %
     % If you are calculating the stress with vdW-DF, please also cite:     %
     %                                                                      %
     %   R. Sabatini et al., J. Phys.: Condens. Matter 24, 424209 (2012).   %
     %                                                                      %
     %%%%%%%%%%%%%%%%%%%%%%%%%%%%%%%%%%%%%%%%%%%%%%%%%%%%%%%%%%%%%%%%%%%%%%%%

     Adding external electric field

     Computed dipole along edir(3) :
        Dipole               -0.5194 Ry au,         -1.3201 Debye
        Dipole field         -0.0010 Ry au,

        Potential amp.        0.0909 Ry
        Total length         46.3494 bohr

     Starting wfcs are  290 atomic wfcs
  @ DRIVER MODE: Message from server: STATUS
  @ DRIVER MODE: Message from server: POSDATA
  @ DRIVER MODE: Reading and sharing cell
  @ DRIVER MODE: Reading and sharing positions
  @ DRIVER MODE: Received positions

     Self-consistent Calculation

     iteration #  1     ecut=    29.40 Ry     beta= 0.05
     Davidson diagonalization with overlap
     c_bands:  1 eigenvalues not converged
     c_bands:  2 eigenvalues not converged
     c_bands:  4 eigenvalues not converged
     c_bands:  1 eigenvalues not converged
     c_bands:  1 eigenvalues not converged
     c_bands:  2 eigenvalues not converged
     c_bands:  1 eigenvalues not converged
     c_bands:  2 eigenvalues not converged
     c_bands:  1 eigenvalues not converged
     c_bands:  2 eigenvalues not converged
     ethr =  1.00E-05,  avg # of iterations = 22.0

[...]

     total energy              =   -2899.22862205 Ry
     estimated scf accuracy    <      12.10468716 Ry

     iteration #  2     ecut=    29.40 Ry     beta= 0.05
     Davidson diagonalization with overlap
     ethr =  3.15E-03,  avg # of iterations =  1.0

[...]

     iteration # 43     ecut=    29.40 Ry     beta= 0.05
     Davidson diagonalization with overlap
     c_bands:  1 eigenvalues not converged
     ethr =  8.96E-08,  avg # of iterations =  9.3

[...]

     total energy              =   -2897.72461133 Ry
     estimated scf accuracy    <       0.00000023 Ry

     iteration # 62     ecut=    29.40 Ry     beta= 0.05
     Davidson diagonalization with overlap
     ethr =  5.36E-11,  avg # of iterations =  5.3

     negative rho (up, down):  2.038E-02 0.000E+00

     Adding external electric field

     Computed dipole along edir(3) :
        Dipole                0.2840 Ry au,          0.7218 Debye
        Dipole field          0.0005 Ry au,

        Potential amp.       -0.0497 Ry
        Total length         46.3494 bohr

     End of self-consistent calculation

          k = 0.0000 0.0000 0.0000 ( 18029 PWs)   bands (ev):

   -56.6518 -56.6178 -56.3997 -56.3630 -56.3275 -56.2749 -56.0935 -56.0855
   -56.0516 -55.9835 -55.9585 -55.9203 -55.5461 -55.4710 -55.4452 -55.4370
   -33.0813 -32.9460 -32.9007 -32.8719 -32.8422 -32.7783 -32.7507 -32.7241
   -32.7078 -32.6447 -32.6264 -32.5995 -32.5913 -32.5671 -32.5624 -32.5532
   -32.5490 -32.5311 -32.4588 -32.4557 -32.3891 -32.3488 -32.3371 -32.3276
   -32.3106 -32.3080 -32.2365 -32.2237 -32.2151 -32.1960 -32.1949 -32.1593
   -32.1499 -32.1366 -32.1125 -32.0574 -32.0221 -31.8724 -31.8562 -31.8209
   -31.7944 -31.7708 -31.7415 -31.6907 -31.6146 -31.6056 -31.4936 -31.4886
   -17.0508 -16.8379 -16.6281 -16.4780 -16.3970 -16.3449 -16.0507 -16.0327
   -16.0250 -15.9248 -15.9122 -15.8615 -15.8258 -15.8240 -15.8151 -15.8071
   -15.7753 -15.7295 -15.6967 -15.6611 -15.6278 -15.5944 -15.5057 -15.4666
   -15.4468 -15.3221 -15.2643 -15.2303 -15.0979 -13.9639 -13.8493  -8.3925
    -4.4327  -4.3836  -4.2319  -4.2240  -4.1029  -3.8894  -3.7063  -3.5190
    -3.4880  -3.4585  -3.4528  -3.3480  -3.2946  -3.1846  -3.1844  -3.1531
    -3.1393  -3.1067  -3.0847  -3.0807  -3.0402  -3.0239  -2.9589  -2.9156
    -2.9052  -2.8474  -2.7683  -2.6753  -2.6551  -2.6281  -2.5951  -2.5560
    -2.5380  -2.4397  -2.4322  -2.3685  -2.2341  -2.2097  -2.1622  -2.1342
    -2.1010  -2.0617  -1.9238  -1.7863  -1.7436  -1.7258  -1.6949  -1.6849
    -1.6553  -1.5320  -1.4909  -1.3909  -1.3604  -1.2474  -1.2352  -1.2174
    -1.2028  -1.1712  -1.1026  -1.0772  -1.0409  -0.9608  -0.8980  -0.7676
    -0.7351  -0.7168  -0.6864  -0.6791  -0.6208  -0.5788  -0.5209  -0.5119
    -0.4513  -0.4091  -0.3923  -0.3767  -0.3515  -0.2939  -0.2165  -0.1967
    -0.1317  -0.0966   0.1027   0.1404   0.1675   0.1869   0.2694   0.3021
     0.4788   0.4934   0.5580   0.7607   0.7989   1.1515   1.2309   1.7189
     2.6116   2.7915   2.9833   3.0425   3.0878   3.1679   3.2208   3.2993
     3.3320   3.4544

[...]

          k = 0.0380-0.0419 0.0000 ( 17876 PWs)   bands (ev):

[...]

          k =-0.0760-0.0000 0.0000 ( 17886 PWs)   bands (ev):

[...]

          k =-0.0760-0.0839 0.0000 ( 17948 PWs)   bands (ev):

   -56.6374 -56.6319 -56.3851 -56.3775 -56.3211 -56.2812 -56.0907 -56.0692
   -56.0676 -55.9862 -55.9470 -55.9318 -55.5431 -55.4539 -55.4539 -55.4481
   -32.9009 -32.8964 -32.8893 -32.8825 -32.7970 -32.7924 -32.7537 -32.7474
   -32.6879 -32.6746 -32.6178 -32.6106 -32.5873 -32.5790 -32.5718 -32.5650
   -32.5205 -32.4842 -32.4105 -32.3918 -32.3910 -32.3333 -32.3229 -32.3198
   -32.3100 -32.2931 -32.2878 -32.2843 -32.2619 -32.2532 -32.2336 -32.2166
   -32.1592 -32.1582 -32.1474 -32.1446 -31.9262 -31.8527 -31.8262 -31.7837
   -31.7836 -31.7438 -31.6917 -31.6865 -31.6864 -31.6483 -31.6482 -31.5114
   -16.5201 -16.4928 -16.2738 -16.2602 -16.1497 -16.1472 -16.1346 -16.1334
   -16.0463 -16.0417 -15.9954 -15.9775 -15.9178 -15.9063 -15.8634 -15.8620
   -15.8404 -15.8386 -15.7976 -15.7950 -15.6518 -15.6500 -15.5408 -15.5302
   -15.4931 -15.4506 -15.4106 -15.3979 -15.2376 -13.9515 -13.9511  -8.3944
    -3.8236  -3.7862  -3.4879  -3.4796  -3.2791  -3.2756  -3.2577  -3.2489
    -3.2292  -3.2018  -3.2002  -3.1865  -3.1483  -3.1081  -3.0846  -3.0663
    -3.0555  -3.0471  -3.0424  -3.0410  -3.0209  -3.0025  -2.9879  -2.9634
    -2.9024  -2.8913  -2.8680  -2.8589  -2.7788  -2.6321  -2.5639  -2.5578
    -2.5513  -2.5294  -2.4883  -2.3978  -2.3934  -2.3565  -2.3501  -2.3314
    -2.1394  -2.0725  -2.0693  -2.0082  -1.9791  -1.8758  -1.7288  -1.6970
    -1.6714  -1.6486  -1.5664  -1.5281  -1.5130  -1.4914  -1.4818  -1.4542
    -1.4436  -1.3595  -1.3498  -1.3174  -1.2718  -1.2102  -1.2055  -1.1847
    -1.1643  -1.0647  -0.9958  -0.9793  -0.9646  -0.9227  -0.8587  -0.8040
    -0.7641  -0.6747  -0.6595  -0.3904  -0.3886  -0.2541  -0.2403  -0.1129
    -0.1024  -0.0085   0.0224   0.0672   0.1818   0.1959   0.2009   0.2264
     0.3278   0.3291   0.3622   0.9416   0.9419   1.0074   1.0087   1.9944
     3.0325   3.0490   3.1312   3.1497   3.1542   3.1707   3.2157   3.2183
     3.5141   3.5326

     the Fermi energy is     2.3296 ev

!    total energy              =   -2897.72464908 Ry
     estimated scf accuracy    <       0.00000004 Ry
     smearing contrib. (-TS)   =      -0.00189141 Ry
     internal energy E=F+TS    =   -2897.72275766 Ry

     The total energy is F=E-TS. E is the sum of the following terms:
     one-electron contribution =  -24684.96611308 Ry
     hartree contribution      =   12420.42933212 Ry
     xc contribution           =    -473.85571189 Ry
     ewald contribution        =    9840.66958302 Ry
     electric field correction =       0.00015217 Ry

     convergence has been achieved in  62 iterations

     Forces acting on atoms (cartesian axes, Ry/au):

     atom    1 type  1   force =     0.00029991   -0.00003567    0.14818825
     atom    2 type  1   force =     0.00005529   -0.00033173   -0.17143615
     atom    3 type  2   force =    -0.00004595    0.00265669   -0.05986386
     atom    4 type  2   force =    -0.00032688   -0.00141267    0.04064113
     atom    5 type  2   force =    -0.02537266    0.00094446    0.00496415
     atom    6 type  2   force =     0.02288212    0.00011890    0.00301265
     atom    7 type  1   force =    -0.00051020   -0.00071767   -0.00017341
     atom    8 type  1   force =     0.00074072   -0.00043715    0.00039391
     atom    9 type  2   force =     0.00089956   -0.00028510    0.00039223
     atom   10 type  2   force =    -0.00010723    0.00000159   -0.00024216
     atom   11 type  2   force =    -0.00018272    0.00013242    0.00017230
     atom   12 type  2   force =     0.00017986    0.00017469    0.00011697
     atom   13 type  1   force =     0.00008275   -0.00100368   -0.00000462
     atom   14 type  1   force =    -0.00004036   -0.00115386   -0.00035325
     atom   15 type  2   force =     0.00020153    0.00047813   -0.00098124
     atom   16 type  2   force =     0.00001919    0.00017534    0.00043148
     atom   17 type  2   force =     0.00140513    0.00016258    0.00038934
     atom   18 type  2   force =    -0.00107643   -0.00013699    0.00046376
     atom   19 type  1   force =     0.00055861    0.00012824    0.00009364
     atom   20 type  1   force =     0.00012425    0.00039161    0.00204323
     atom   21 type  2   force =     0.00014085   -0.00010258    0.10276214
     atom   22 type  2   force =     0.00010463    0.00216797   -0.00036158
     atom   23 type  2   force =    -0.07353351    0.00029462   -0.03461245
     atom   24 type  2   force =     0.07358280    0.00074151   -0.03466307
     atom   25 type  1   force =     0.00007834   -0.00018163    0.14937331
     atom   26 type  1   force =    -0.00000554   -0.00105667   -0.17159596
     atom   27 type  2   force =    -0.00006913    0.00192644   -0.05884805
     atom   28 type  2   force =    -0.00039823   -0.00137318    0.04061266
     atom   29 type  2   force =    -0.02529256    0.00191313    0.00525289
     atom   30 type  2   force =     0.02338177    0.00034521    0.00329982
     atom   31 type  1   force =    -0.00048051   -0.00019226   -0.00011448
     atom   32 type  1   force =     0.00062664   -0.00026101   -0.00002416
     atom   33 type  2   force =     0.00005724   -0.00037447    0.00046776
     atom   34 type  2   force =     0.00007455   -0.00014729    0.00009094
     atom   35 type  2   force =    -0.00020762   -0.00046090   -0.00033908
     atom   36 type  2   force =     0.00052545   -0.00067509   -0.00012721
     atom   37 type  1   force =     0.00085584    0.00032399    0.00005624
     atom   38 type  1   force =    -0.00034436   -0.00015815    0.00017294
     atom   39 type  2   force =     0.00005531   -0.00024044   -0.00060942
     atom   40 type  2   force =    -0.00000124    0.00028477   -0.00077131
     atom   41 type  2   force =     0.00003258    0.00026287    0.00012417
     atom   42 type  2   force =     0.00050136    0.00056773    0.00020658
     atom   43 type  1   force =     0.00040974    0.00039227   -0.00082530
     atom   44 type  1   force =    -0.00041317    0.00014031   -0.00014318
     atom   45 type  2   force =     0.00013843   -0.00009497    0.10272946
     atom   46 type  2   force =    -0.07356218   -0.00012413   -0.03460408
     atom   47 type  2   force =     0.07361941    0.00034011   -0.03468016
     atom   48 type  3   force =     0.00127539   -0.00404991   -0.00214786
     atom   49 type  4   force =    -0.00028092   -0.00028468    0.00056023
     atom   50 type  4   force =    -0.00065787    0.00022628    0.00050984

     Total force =     0.404375     Total SCF correction =     0.000481
  @ DRIVER MODE: Message from server: STATUS
  @ DRIVER MODE: Message from server: GETFORCE
  @ DRIVER MODE: Returning v,forces,stress,ensemble

     Writing output data file ./calc.save/
  @ DRIVER MODE: Message from server: EXIT
  @ DRIVE MODE: Exiting

     General routines

     Parallel routines

   This run was terminated on:  11:14:54  24Aug2021

   JOB DONE.