     Program PWSCF v.6.7GPU starts on 16Jul2021 at  2: 4:59

     R & G space division:  proc/nbgrp/npool/nimage =      16
     Reading input from /storage/home/hcoda1/3/ntian30/research/carbon/15Jul_vib/ads_slab/CH3N_a/out_0024/pw.inp
Warning: card &CELL ignored
Warning: card   CELL_DYNAMICS='IPI', ignored
Warning: card / ignored

     Current dimensions of program PWSCF are:
     Max number of different atomic species (ntypx) = 10
     Max number of k-points (npk) =  40000
     Max angular momentum in pseudopotentials (lmaxx) =  3
     Presently no symmetry can be used with electric field

     Message from routine cell_base_init:
     DEPRECATED: use true lattice parameter, not A to a.u. conversion factor

     IMPORTANT: XC functional enforced from input :
     Exchange-correlation= BEEF-VDW
                           (   1   4  43  14   2   0   0)
     Any further DFT definition will be discarded
     Please, verify this is what you really want

  @ DRIVER MODE: Connecting to
 qe_1139763_2351643.sched-torque.pace.gatech.eduhd5tqmoj_scratch
  using UNIX socket
  @ DRIVER MODE: Message from server: STATUS
  @ DRIVER MODE: Message from server: INIT
  @ DRIVER MODE: Receiving replica           0          -1
  @ DRIVER MODE: Receiving encoded integer          25
  @ DRIVER MODE:  SCF:  T  FORCE:  T  STRESS:  F  VC:  F  ENSEMBLE:  F
  @ DRIVER MODE:  SCF:  T  FORCE:  T  STRESS:  F  VC:  F  ENSEMBLE:  F

     Using Slab Decomposition

     bravais-lattice index     =            0
     lattice parameter (alat)  =       1.8897  a.u.
     unit-cell volume          =    6658.9804 (a.u.)^3
     number of atoms/cell      =           52
     number of atomic types    =            5
     number of electrons       =       390.00
     number of Kohn-Sham states=          205
     kinetic-energy cutoff     =      29.3995  Ry
     charge density cutoff     =     293.9946  Ry
     scf convergence threshold =      7.3E-08
     mixing beta               =       0.0500
     number of iterations used =            8  plain     mixing
     Exchange-correlation= BEEF-VDW
                           (   1   4  43  14   2   0   0)

     celldm(1)=   1.889726  celldm(2)=   0.000000  celldm(3)=   0.000000
     celldm(4)=   0.000000  celldm(5)=   0.000000  celldm(6)=   0.000000

     crystal axes: (cart. coord. in units of alat)
               a(1) = (   6.579727   0.000000   0.000000 )
               a(2) = (  -0.000775   5.961596   0.000000 )
               a(3) = (   0.000000   0.000000  25.155947 )

     reciprocal axes: (cart. coord. in units 2 pi/alat)
               b(1) = (  0.151982  0.000020  0.000000 )
               b(2) = (  0.000000  0.167740  0.000000 )
               b(3) = (  0.000000  0.000000  0.039752 )

     PseudoPot. # 1 for Ti read from file:
     /storage/coda1/p-amedford6/0/shared/rich_project_chbe-medford/medford-share/data/pseudos_module/espresso/nninc/pbe/van/Ti.UPF
     MD5 check sum: 8e4df49b7f0d34bbd5052bf3f5ea0213
     Pseudo is Ultrasoft, Zval = 12.0
     Generated by new atomic code, or converted to UPF format
     Using radial grid of  851 points,  6 beta functions with:
                l(1) =   0
                l(2) =   0
                l(3) =   1
                l(4) =   1
                l(5) =   2
                l(6) =   2
     Q(r) pseudized with  8 coefficients,  rinner =    1.000   1.000   1.000
                                                       1.000   1.000

     PseudoPot. # 2 for O  read from file:
     /storage/coda1/p-amedford6/0/shared/rich_project_chbe-medford/medford-share/data/pseudos_module/espresso/nninc/pbe/van/O.UPF
     MD5 check sum: 78c19812648e8988a0fe644b0f25305e
     Pseudo is Ultrasoft, Zval =  6.0
     Generated by new atomic code, or converted to UPF format
     Using radial grid of  737 points,  4 beta functions with:
                l(1) =   0
                l(2) =   0
                l(3) =   1
                l(4) =   1
     Q(r) pseudized with  8 coefficients,  rinner =    0.800   0.800   0.800

     PseudoPot. # 3 for N  read from file:
     /storage/coda1/p-amedford6/0/shared/rich_project_chbe-medford/medford-share/data/pseudos_module/espresso/nninc/pbe/van/N.UPF
     MD5 check sum: 90d10febe142ad51ac9d5be1deb811c4
     Pseudo is Ultrasoft, Zval =  5.0
     Generated by new atomic code, or converted to UPF format
     Using radial grid of  729 points,  4 beta functions with:
                l(1) =   0
                l(2) =   0
                l(3) =   1
                l(4) =   1
     Q(r) pseudized with  8 coefficients,  rinner =    0.800   0.800   0.800

     PseudoPot. # 4 for C  read from file:
     /storage/coda1/p-amedford6/0/shared/rich_project_chbe-medford/medford-share/data/pseudos_module/espresso/nninc/pbe/van/C.UPF
     MD5 check sum: 1a69bf6b8db32088f5b2163dbdb77a27
     Pseudo is Ultrasoft, Zval =  4.0
     Generated by new atomic code, or converted to UPF format
     Using radial grid of  721 points,  4 beta functions with:
                l(1) =   0
                l(2) =   0
                l(3) =   1
                l(4) =   1
     Q(r) pseudized with  8 coefficients,  rinner =    0.800   0.800   0.800

     PseudoPot. # 5 for H  read from file:
     /storage/coda1/p-amedford6/0/shared/rich_project_chbe-medford/medford-share/data/pseudos_module/espresso/nninc/pbe/van/H.UPF
     MD5 check sum: b5ee9d7bfd3a09ee7748110bda690ff7
     Pseudo is Ultrasoft, Zval =  1.0
     Generated by new atomic code, or converted to UPF format
     Using radial grid of  615 points,  1 beta functions with:
                l(1) =   0
     Q(r) pseudized with  8 coefficients,  rinner =    0.800

     atomic species   valence    mass     pseudopotential
        Ti1           12.00    47.86700     Ti( 1.00)
        O1             6.00    15.99900     O ( 1.00)
        N1             5.00    14.00700     N ( 1.00)
        C1             4.00    12.01100     C ( 1.00)
        H1             1.00     1.00800     H ( 1.00)

     Starting magnetic structure
     atomic species   magnetization
        Ti1          0.000
        O1           0.000
        N1           0.000
        C1           0.025
        H1           0.000

     No symmetry found

   Cartesian axes

     site n.     atom                  positions (alat units)
         1           Ti1 tau(   1) = (   0.0004258   2.9801865   6.0000000  )
         2           Ti1 tau(   2) = (   3.2906075   1.4906267   6.0002472  )
         3           O1  tau(   3) = (   0.0006271   0.0005054   7.9858123  )
         4           O1  tau(   4) = (   3.2906025   0.0005020   7.3038282  )
         5           O1  tau(   5) = (   4.5942328   1.4918067   9.2879030  )
         6           O1  tau(   6) = (   1.9868534   1.4903216   9.2879459  )
         7           Ti1 tau(   7) = (   3.2907910   2.8959150   9.1758416  )
         8           Ti1 tau(   8) = (   0.0015273   1.4827037   9.2680791  )
         9           O1  tau(   9) = (   3.2848820   0.0184509  11.2968037  )
        10           O1  tau(  10) = (   0.0116148   5.9584955  10.6183126  )
        11           O1  tau(  11) = (   1.3164307   1.5202202  12.6152053  )
        12           O1  tau(  12) = (   5.2938533   1.5248534  12.6363518  )
        13           Ti1 tau(  13) = (   6.4693392   3.0155455  12.7604093  )
        14           Ti1 tau(  14) = (   3.1621140   1.5165027  12.4659144  )
        15           O1  tau(  15) = (   0.0250032   0.0426882  14.5925537  )
        16           O1  tau(  16) = (   3.2896737   0.0171256  13.8799622  )
        17           O1  tau(  17) = (   4.5365032   1.4993634  16.0438468  )
        18           O1  tau(  18) = (   2.0814567   1.5015292  16.0591106  )
        19           Ti1 tau(  19) = (   3.3082904   2.9956922  15.6854367  )
        20           Ti1 tau(  20) = (   0.0032501   1.4479889  16.1249605  )
        21           O1  tau(  21) = (   3.2904802   0.0005063   4.7018136  )
        22           O1  tau(  22) = (   0.0161699   0.0004382  17.1970091  )
        23           O1  tau(  23) = (   1.3043587   1.4918075   6.0039043  )
        24           O1  tau(  24) = (   5.2767064   1.4903225   6.0039473  )
        25           Ti1 tau(  25) = (   0.0000382   5.9609847   6.0000000  )
        26           Ti1 tau(  26) = (   3.2902200   4.4714249   6.0002472  )
        27           O1  tau(  27) = (   0.0002396   2.9813036   7.9858123  )
        28           O1  tau(  28) = (   3.2902150   2.9813002   7.3038282  )
        29           O1  tau(  29) = (   4.5938453   4.4726049   9.2879030  )
        30           O1  tau(  30) = (   1.9864658   4.4711199   9.2879459  )
        31           Ti1 tau(  31) = (   3.2891106   5.8743827   9.1763621  )
        32           Ti1 tau(  32) = (   0.0006254   4.4649316   9.2693709  )
        33           O1  tau(  33) = (   3.2855107   2.9994495  11.2959752  )
        34           O1  tau(  34) = (   0.0092240   2.9805883  10.6323155  )
        35           O1  tau(  35) = (   1.3179678   4.4860142  12.6155112  )
        36           O1  tau(  36) = (   5.2920789   4.4901865  12.6316709  )
        37           Ti1 tau(  37) = (   6.5050993   0.0355131  12.7707974  )
        38           Ti1 tau(  38) = (   3.1594757   4.4963870  12.4672366  )
        39           O1  tau(  39) = (   6.5726527   3.0227966  14.6583025  )
        40           O1  tau(  40) = (   3.2932321   2.9979836  13.8792693  )
        41           O1  tau(  41) = (   4.5322310   4.4839795  16.0418810  )
        42           O1  tau(  42) = (   2.0800586   4.4799519  16.0553745  )
        43           Ti1 tau(  43) = (   3.2910362   0.0127607  15.6894215  )
        44           Ti1 tau(  44) = (   0.0049462   4.4269923  16.0943486  )
        45           O1  tau(  45) = (   3.2900926   2.9813045   4.7018136  )
        46           O1  tau(  46) = (   1.3039711   4.4726057   6.0039043  )
        47           O1  tau(  47) = (   5.2763189   4.4711207   6.0039473  )
        48           N1  tau(  48) = (   0.0596666   2.9942962  17.3216073  )
        49           C1  tau(  49) = (   0.3918855   2.9774893  18.7266025  )
        50           H1  tau(  50) = (   0.0017595   3.8652167  19.2343835  )
        51           H1  tau(  51) = (   0.0043965   2.0815098  19.2300810  )
        52           H1  tau(  52) = (   1.4843755   2.9788857  18.8581259  )

     number of k points=    10  Fermi-Dirac smearing, width (Ry)=  0.0073
                       cart. coord. in units 2pi/alat
        k(    1) = (   0.0000000   0.0000000   0.0000000), wk =   0.0625000
        k(    2) = (   0.0000000   0.0419351   0.0000000), wk =   0.1250000
        k(    3) = (   0.0000000  -0.0838702   0.0000000), wk =   0.0625000
        k(    4) = (   0.0379955   0.0000049   0.0000000), wk =   0.1250000
        k(    5) = (   0.0379955   0.0419400   0.0000000), wk =   0.1250000
        k(    6) = (   0.0379955  -0.0838652   0.0000000), wk =   0.1250000
        k(    7) = (   0.0379955  -0.0419301   0.0000000), wk =   0.1250000
        k(    8) = (  -0.0759910  -0.0000099   0.0000000), wk =   0.0625000
        k(    9) = (  -0.0759910   0.0419252   0.0000000), wk =   0.1250000
        k(   10) = (  -0.0759910  -0.0838800   0.0000000), wk =   0.0625000

     Initial potential from superposition of free atoms

     starting charge  373.99917, renormalised to  390.00000

     negative rho (up, down):  8.644E-03 8.651E-03

     %%%%%%%%%%%%%%%%%%%%%%%%%%%%%%%%%%%%%%%%%%%%%%%%%%%%%%%%%%%%%%%%%%%%%%%%
     %                                                                      %
     % You are using vdW-DF, which was implemented by the Thonhauser group. %
     % Please cite the following two papers that made this development      %
     % possible and the two reviews that describe the various versions:     %
     %                                                                      %
     %   T. Thonhauser et al., PRL 115, 136402 (2015).                      %
     %   T. Thonhauser et al., PRB 76, 125112 (2007).                       %
     %   K. Berland et al., Rep. Prog. Phys. 78, 066501 (2015).             %
     %   D.C. Langreth et al., J. Phys.: Condens. Matter 21, 084203 (2009). %
     %                                                                      %
     %                                                                      %
     % If you are calculating the stress with vdW-DF, please also cite:     %
     %                                                                      %
     %   R. Sabatini et al., J. Phys.: Condens. Matter 24, 424209 (2012).   %
     %                                                                      %
     %%%%%%%%%%%%%%%%%%%%%%%%%%%%%%%%%%%%%%%%%%%%%%%%%%%%%%%%%%%%%%%%%%%%%%%%

     Adding external electric field

     Computed dipole along edir(3) :
        Dipole               -4.6271 Ry au,        -11.7609 Debye
        Dipole field         -0.0087 Ry au,

        Potential amp.        0.8094 Ry
        Total length         46.3494 bohr

[...]

     Starting wfcs are  295 atomic wfcs
  @ DRIVER MODE: Message from server: STATUS
  @ DRIVER MODE: Message from server: POSDATA
  @ DRIVER MODE: Reading and sharing cell
  @ DRIVER MODE: Reading and sharing positions
  @ DRIVER MODE: Received positions

     Self-consistent Calculation

     iteration #  1     ecut=    29.40 Ry     beta= 0.05
     Davidson diagonalization with overlap
     c_bands:  3 eigenvalues not converged
     c_bands:  3 eigenvalues not converged
     c_bands:  2 eigenvalues not converged
     c_bands:  4 eigenvalues not converged
     c_bands:  4 eigenvalues not converged
     c_bands:  2 eigenvalues not converged
     c_bands:  3 eigenvalues not converged
     c_bands:  2 eigenvalues not converged
     c_bands:  4 eigenvalues not converged
     c_bands:  2 eigenvalues not converged
     c_bands:  2 eigenvalues not converged
     c_bands:  4 eigenvalues not converged
     c_bands:  2 eigenvalues not converged
     c_bands:  4 eigenvalues not converged
     c_bands:  2 eigenvalues not converged
     c_bands:  4 eigenvalues not converged
     c_bands:  2 eigenvalues not converged
     ethr =  1.00E-05,  avg # of iterations = 19.8

[...]

     total energy              =   -2876.90793137 Ry
     estimated scf accuracy    <     486.54024280 Ry

     total magnetization       =     0.13 Bohr mag/cell
     absolute magnetization    =     0.16 Bohr mag/cell

     iteration #  2     ecut=    29.40 Ry     beta= 0.05
     Davidson diagonalization with overlap
     ethr =  1.00E-02,  avg # of iterations = 13.5

[...]

     iteration # 40     ecut=    29.40 Ry     beta= 0.05
     Davidson diagonalization with overlap
     c_bands:  1 eigenvalues not converged
     c_bands:  1 eigenvalues not converged
     c_bands:  1 eigenvalues not converged
     ethr =  4.90E-07,  avg # of iterations = 14.6

[...]

     total energy              =   -2919.13336321 Ry
     estimated scf accuracy    <       0.00000014 Ry

[...]

     iteration # 71     ecut=    29.40 Ry     beta= 0.05
     Davidson diagonalization with overlap
     ethr =  3.19E-11,  avg # of iterations =  6.5

     negative rho (up, down):  8.883E-03 8.883E-03

[...]

     Adding external electric field

     Computed dipole along edir(3) :
        Dipole                0.2496 Ry au,          0.6345 Debye
        Dipole field          0.0005 Ry au,

        Potential amp.       -0.0437 Ry
        Total length         46.3494 bohr

     Magnetic moment per site  (integrated on atomic sphere of radius R)
     atom   1 (R=0.743)  charge=  8.0712  magn= -0.0001
     atom   2 (R=0.743)  charge=  8.0673  magn= -0.0000
     atom   3 (R=0.743)  charge=  5.0508  magn=  0.0000
     atom   4 (R=0.743)  charge=  5.0897  magn= -0.0000
     atom   5 (R=0.743)  charge=  5.0526  magn= -0.0000
     atom   6 (R=0.743)  charge=  5.0540  magn= -0.0000
     atom   7 (R=0.743)  charge=  8.0606  magn=  0.0000
     atom   8 (R=0.743)  charge=  8.0480  magn=  0.0000
     atom   9 (R=0.743)  charge=  5.0677  magn= -0.0000
     atom  10 (R=0.743)  charge=  4.9974  magn= -0.0000
     atom  11 (R=0.743)  charge=  5.0556  magn= -0.0000
     atom  12 (R=0.743)  charge=  5.0584  magn= -0.0000
     atom  13 (R=0.743)  charge=  8.0594  magn= -0.0000
     atom  14 (R=0.743)  charge=  8.0663  magn=  0.0000
     atom  15 (R=0.743)  charge=  5.0445  magn=  0.0000
     atom  16 (R=0.743)  charge=  5.0715  magn= -0.0000
     atom  17 (R=0.743)  charge=  5.0432  magn=  0.0000
     atom  18 (R=0.743)  charge=  5.0420  magn=  0.0000
     atom  19 (R=0.743)  charge=  8.0874  magn= -0.0000
     atom  20 (R=0.743)  charge=  8.0865  magn= -0.0001
     atom  21 (R=0.743)  charge=  4.9345  magn= -0.0000
     atom  22 (R=0.743)  charge=  5.0262  magn=  0.0001
     atom  23 (R=0.743)  charge=  5.0425  magn=  0.0001
     atom  24 (R=0.743)  charge=  5.0426  magn=  0.0001
     atom  25 (R=0.743)  charge=  8.0712  magn= -0.0001
     atom  26 (R=0.743)  charge=  8.0673  magn=  0.0000
     atom  27 (R=0.743)  charge=  5.0507  magn=  0.0000
     atom  28 (R=0.743)  charge=  5.0899  magn=  0.0000
     atom  29 (R=0.743)  charge=  5.0534  magn= -0.0000
     atom  30 (R=0.743)  charge=  5.0547  magn= -0.0000
     atom  31 (R=0.743)  charge=  8.0608  magn=  0.0000
     atom  32 (R=0.743)  charge=  8.0482  magn=  0.0000
     atom  33 (R=0.743)  charge=  5.0679  magn= -0.0000
     atom  34 (R=0.743)  charge=  4.9963  magn= -0.0000
     atom  35 (R=0.743)  charge=  5.0558  magn= -0.0000
     atom  36 (R=0.743)  charge=  5.0580  magn= -0.0000
     atom  37 (R=0.743)  charge=  8.0669  magn= -0.0000
     atom  38 (R=0.743)  charge=  8.0667  magn=  0.0000
     atom  39 (R=0.743)  charge=  5.0387  magn=  0.0001
     atom  40 (R=0.743)  charge=  5.0730  magn= -0.0000
     atom  41 (R=0.743)  charge=  5.0439  magn=  0.0001
     atom  42 (R=0.743)  charge=  5.0430  magn=  0.0000
     atom  43 (R=0.743)  charge=  8.0878  magn= -0.0000
     atom  44 (R=0.743)  charge=  8.0856  magn= -0.0002
     atom  45 (R=0.743)  charge=  4.9345  magn= -0.0000
     atom  46 (R=0.743)  charge=  5.0425  magn=  0.0000
     atom  47 (R=0.743)  charge=  5.0426  magn=  0.0000
     atom  48 (R=0.596)  charge=  2.7577  magn=  0.0005
     atom  49 (R=0.452)  charge=  0.8556  magn= -0.0000
     atom  50 (R=0.452)  charge=  0.5114  magn=  0.0000
     atom  51 (R=0.452)  charge=  0.5090  magn=  0.0000
     atom  52 (R=0.452)  charge=  0.5064  magn=  0.0000

     End of self-consistent calculation

 ------ SPIN UP ------------

          k = 0.0000 0.0000 0.0000 ( 18029 PWs)   bands (ev):

   -56.8991 -56.8655 -56.0121 -56.0028 -55.9770 -55.9704 -55.8622 -55.8263
   -55.6443 -55.6091 -55.5614 -55.5387 -55.5275 -55.4413 -54.9957 -54.9433
   -33.3265 -33.1733 -33.1451 -33.0753 -32.9842 -32.9525 -32.4855 -32.4762
   -32.4049 -32.2980 -32.2524 -32.2255 -32.2105 -32.1865 -32.1536 -32.1506
   -32.1428 -32.1409 -32.1168 -32.1084 -32.1024 -32.0704 -32.0443 -32.0292
   -32.0155 -31.9983 -31.9893 -31.9657 -31.9533 -31.8999 -31.8758 -31.8757
   -31.7831 -31.7823 -31.7720 -31.7141 -31.7104 -31.6886 -31.6690 -31.6474
   -31.6231 -31.5777 -31.5181 -31.2388 -31.2201 -31.1926 -31.1644 -31.0461
   -17.0612 -16.6213 -16.3903 -16.2604 -16.1888 -16.1385 -16.0908 -15.9632
   -15.8926 -15.8894 -15.8523 -15.8126 -15.7446 -15.6053 -15.5079 -15.4481
   -15.4049 -15.2853 -15.2283 -15.1912 -15.1834 -15.1527 -15.1324 -14.9351
   -14.9127 -14.8169 -14.7993 -14.6761 -14.4482 -14.0595 -13.9494 -13.0837
    -7.8020  -4.6274  -4.1176  -3.8746  -3.7924  -3.6818  -3.6746  -3.5922
    -3.4786  -3.4276  -3.3821  -3.2665  -3.2619  -3.1168  -3.0858  -3.0739
    -3.0672  -3.0255  -2.9898  -2.9513  -2.8990  -2.8933  -2.8884  -2.7373
    -2.6380  -2.5671  -2.5455  -2.5283  -2.5006  -2.4070  -2.4031  -2.3887
    -2.3851  -2.2893  -2.1404  -2.1299  -2.0959  -2.0601  -2.0559  -2.0121
    -2.0018  -1.8460  -1.8017  -1.6854  -1.6734  -1.6392  -1.5727  -1.5692
    -1.4536  -1.3975  -1.3518  -1.3065  -1.1996  -1.1548  -1.1255  -1.0363
    -0.9760  -0.9392  -0.9200  -0.9010  -0.7935  -0.7866  -0.7702  -0.6789
    -0.6732  -0.6229  -0.5332  -0.5108  -0.5087  -0.4180  -0.4098  -0.3105
    -0.2772  -0.2242  -0.1942  -0.1140  -0.0837   0.0207   0.0590   0.0749
     0.2044   0.2199   0.2781   0.3448   0.4012   0.4449   0.4606   0.4953
     0.5043   0.5976   0.7052   0.7074   0.8193   0.8564   1.0135   1.0523
     1.3502   1.3605   2.0222   2.3765   2.5370   2.8351   3.0299   3.1425
     3.3529   3.3670   3.3725   3.5531   3.6008

[...]

          k =-0.0760-0.0000 0.0000 ( 17886 PWs)   bands (ev):

[...]

 ------ SPIN DOWN ----------

[...]

          k = 0.0380-0.0419 0.0000 ( 17876 PWs)   bands (ev):

[...]

          k =-0.0760-0.0839 0.0000 ( 17948 PWs)   bands (ev):

   -56.8830 -56.8826 -55.9958 -55.9915 -55.9874 -55.9870 -55.8471 -55.8412
   -55.6293 -55.6240 -55.5445 -55.5443 -55.5355 -55.4444 -54.9892 -54.9506
   -33.1595 -33.1592 -33.1439 -33.1437 -33.0291 -33.0288 -32.3152 -32.3127
   -32.3000 -32.2947 -32.2422 -32.2407 -32.1982 -32.1974 -32.1972 -32.1933
   -32.1855 -32.1830 -32.1820 -32.1800 -32.0988 -32.0937 -32.0476 -32.0438
   -31.9809 -31.9730 -31.9116 -31.9057 -31.8888 -31.8886 -31.8665 -31.8280
   -31.8266 -31.7931 -31.7698 -31.7695 -31.7603 -31.7305 -31.7304 -31.7089
   -31.6861 -31.6495 -31.3837 -31.3034 -31.2171 -31.1857 -31.1717 -31.1310
   -16.4091 -16.4071 -16.3754 -16.3751 -16.1041 -16.1005 -16.0512 -16.0491
   -15.8771 -15.8693 -15.6650 -15.6558 -15.6494 -15.6458 -15.5180 -15.5110
   -15.4471 -15.4342 -15.3454 -15.3385 -15.2779 -15.2716 -15.2348 -15.2134
   -14.8966 -14.8908 -14.7684 -14.7553 -14.6033 -14.0530 -14.0530 -13.0994
    -7.7923  -3.5082  -3.5074  -3.4411  -3.4401  -3.3150  -3.3083  -3.2398
    -3.2391  -3.1326  -3.1289  -3.0516  -3.0001  -2.9914  -2.9879  -2.9750
    -2.9650  -2.8363  -2.8333  -2.8205  -2.8054  -2.7542  -2.7517  -2.7368
    -2.6569  -2.6408  -2.6096  -2.5656  -2.4650  -2.4487  -2.4319  -2.4052
    -2.3487  -2.3363  -2.3223  -2.2768  -2.2563  -2.1546  -2.1074  -2.0632
    -1.9438  -1.9412  -1.9314  -1.9141  -1.7666  -1.7296  -1.6984  -1.6919
    -1.6827  -1.6331  -1.5419  -1.5336  -1.3990  -1.3943  -1.3222  -1.2392
    -1.2204  -1.1918  -1.0596  -1.0121  -0.9797  -0.9734  -0.9535  -0.9240
    -0.8961  -0.8685  -0.7240  -0.7050  -0.6807  -0.6430  -0.6305  -0.5766
    -0.5280  -0.4477  -0.3683  -0.3673  -0.2863  -0.2413  -0.1784  -0.0953
    -0.0840  -0.0773   0.2024   0.2798   0.3726   0.4572   0.5204   0.5834
     0.6072   0.6727   0.7048   0.8417   0.8449   0.8612   0.8614   0.9288
     0.9335   1.3325   1.9180   2.9497   2.9501   3.0175   3.0179   3.3415
     3.3469   3.4567   3.4661   3.5828   3.5849

     the Fermi energy is     2.2106 ev

!    total energy              =   -2919.13337712 Ry
     estimated scf accuracy    <       0.00000005 Ry
     smearing contrib. (-TS)   =      -0.00464726 Ry
     internal energy E=F+TS    =   -2919.12872986 Ry

     The total energy is F=E-TS. E is the sum of the following terms:
     one-electron contribution =  -24578.63044361 Ry
     hartree contribution      =   12373.50492649 Ry
     xc contribution           =    -479.89718091 Ry
     ewald contribution        =    9765.89385056 Ry
     electric field correction =       0.00011760 Ry

     total magnetization       =     0.00 Bohr mag/cell
     absolute magnetization    =     0.00 Bohr mag/cell

     convergence has been achieved in  71 iterations

     Forces acting on atoms (cartesian axes, Ry/au):

     atom    1 type  1   force =    -0.00003346   -0.00045995    0.12459770
     atom    2 type  1   force =    -0.00012351   -0.00053699   -0.16056601
     atom    3 type  2   force =     0.00016273   -0.00014426   -0.06868078
     atom    4 type  2   force =    -0.00004288   -0.00017639    0.02744784
     atom    5 type  2   force =    -0.01662550    0.00229100   -0.00876149
     atom    6 type  2   force =     0.01808721    0.00295888   -0.00970886
     atom    7 type  1   force =     0.00056614   -0.00364932    0.02222662
     atom    8 type  1   force =    -0.00015331   -0.00290713    0.11214694
     atom    9 type  2   force =     0.00048050   -0.00002609   -0.00029225
     atom   10 type  2   force =    -0.00265808    0.00368886   -0.07362775
     atom   11 type  2   force =     0.00131012   -0.00057782   -0.00042958
     atom   12 type  2   force =    -0.00058166   -0.00105231   -0.00078303
     atom   13 type  1   force =     0.00032225   -0.00065596    0.00066972
     atom   14 type  1   force =    -0.00083086   -0.00054170    0.00007284
     atom   15 type  2   force =    -0.00029465   -0.00012569    0.00003460
     atom   16 type  2   force =     0.00028578    0.00012181   -0.00055538
     atom   17 type  2   force =     0.00022334   -0.00019629   -0.00018104
     atom   18 type  2   force =    -0.00043072   -0.00035203   -0.00049729
     atom   19 type  1   force =     0.00062267   -0.00036892   -0.00009819
     atom   20 type  1   force =    -0.00011182   -0.00039478   -0.00004568
     atom   21 type  2   force =     0.00005602   -0.00006254    0.09972090
     atom   22 type  2   force =     0.00007340   -0.00038818    0.00044523
     atom   23 type  2   force =    -0.07927176   -0.00009218   -0.03248400
     atom   24 type  2   force =     0.07914566    0.00035741   -0.03250812
     atom   25 type  1   force =     0.00000372   -0.00050508    0.12408508
     atom   26 type  1   force =    -0.00015671   -0.00044902   -0.16064402
     atom   27 type  2   force =     0.00029533   -0.00031681   -0.06769368
     atom   28 type  2   force =    -0.00002486   -0.00001280    0.02721347
     atom   29 type  2   force =    -0.01708856    0.00186901   -0.00886988
     atom   30 type  2   force =     0.01842795    0.00225638   -0.00976281
     atom   31 type  1   force =     0.00058374   -0.00094275    0.02175713
     atom   32 type  1   force =    -0.00011202    0.00053223    0.11259716
     atom   33 type  2   force =     0.00026331   -0.00063905   -0.00047723
     atom   34 type  2   force =    -0.00272919    0.00315670   -0.07279553
     atom   35 type  2   force =    -0.00109305    0.00023268    0.00016718
     atom   36 type  2   force =     0.00082623    0.00008722    0.00027946
     atom   37 type  1   force =    -0.00007638   -0.00003545   -0.00017106
     atom   38 type  1   force =     0.00088236   -0.00027208   -0.00011688
     atom   39 type  2   force =    -0.00008355   -0.00051688    0.00006606
     atom   40 type  2   force =     0.00007565   -0.00012246   -0.00013665
     atom   41 type  2   force =     0.00021221   -0.00045044   -0.00011764
     atom   42 type  2   force =    -0.00001134   -0.00011970   -0.00061636
     atom   43 type  1   force =     0.00014774    0.00070512    0.00070459
     atom   44 type  1   force =    -0.00055614   -0.00046392   -0.00023051
     atom   45 type  2   force =     0.00004423   -0.00006662    0.09974107
     atom   46 type  2   force =    -0.07927803   -0.00004377   -0.03247773
     atom   47 type  2   force =     0.07915561    0.00040066   -0.03249797
     atom   48 type  3   force =     0.00045136   -0.00132797    0.00205848
     atom   49 type  4   force =    -0.00156494   -0.00286305    0.00347803
     atom   50 type  5   force =     0.00044613    0.00030738   -0.00031817
     atom   51 type  5   force =     0.00157558    0.00311451   -0.00360595
     atom   52 type  5   force =    -0.00079398   -0.00022347    0.00024145

     Total force =     0.425672     Total SCF correction =     0.000618
  @ DRIVER MODE: Message from server: STATUS
  @ DRIVER MODE: Message from server: GETFORCE
  @ DRIVER MODE: Returning v,forces,stress,ensemble

     Writing output data file ./calc.save/
  @ DRIVER MODE: Message from server: EXIT
  @ DRIVE MODE: Exiting

     General routines

     Parallel routines

   This run was terminated on:   2:31: 4  16Jul2021

   JOB DONE.