     Program PWSCF v.6.7GPU starts on  5Aug2021 at 17:20:41

     R & G space division:  proc/nbgrp/npool/nimage =      16
     Reading input from /storage/home/hcoda1/3/ntian30/research/carbon/02Aug_vib_paired/ads_slab/CH3_a/out_0004/pw.inp
Warning: card &CELL ignored
Warning: card   CELL_DYNAMICS='IPI', ignored
Warning: card / ignored

     Current dimensions of program PWSCF are:
     Max number of different atomic species (ntypx) = 10
     Max number of k-points (npk) =  40000
     Max angular momentum in pseudopotentials (lmaxx) =  3
     Presently no symmetry can be used with electric field

     Message from routine cell_base_init:
     DEPRECATED: use true lattice parameter, not A to a.u. conversion factor

     IMPORTANT: XC functional enforced from input :
     Exchange-correlation= BEEF-VDW
                           (   1   4  43  14   2   0   0)
     Any further DFT definition will be discarded
     Please, verify this is what you really want

  @ DRIVER MODE: Connecting to
 qe_1139763_2507748.sched-torque.pace.gatech.eduq2jrishn_scratch
  using UNIX socket
  @ DRIVER MODE: Message from server: STATUS
  @ DRIVER MODE: Message from server: INIT
  @ DRIVER MODE: Receiving replica           0          -1
  @ DRIVER MODE: Receiving encoded integer          25
  @ DRIVER MODE:  SCF:  T  FORCE:  T  STRESS:  F  VC:  F  ENSEMBLE:  F
  @ DRIVER MODE:  SCF:  T  FORCE:  T  STRESS:  F  VC:  F  ENSEMBLE:  F

     Using Slab Decomposition

     bravais-lattice index     =            0
     lattice parameter (alat)  =       1.8897  a.u.
     unit-cell volume          =    6658.9804 (a.u.)^3
     number of atoms/cell      =           51
     number of atomic types    =            4
     number of electrons       =       385.00
     number of Kohn-Sham states=          202
     kinetic-energy cutoff     =      29.3995  Ry
     charge density cutoff     =     293.9946  Ry
     scf convergence threshold =      7.3E-08
     mixing beta               =       0.0500
     number of iterations used =            8  plain     mixing
     Exchange-correlation= BEEF-VDW
                           (   1   4  43  14   2   0   0)

     celldm(1)=   1.889726  celldm(2)=   0.000000  celldm(3)=   0.000000
     celldm(4)=   0.000000  celldm(5)=   0.000000  celldm(6)=   0.000000

     crystal axes: (cart. coord. in units of alat)
               a(1) = (   6.579727   0.000000   0.000000 )
               a(2) = (  -0.000775   5.961596   0.000000 )
               a(3) = (   0.000000   0.000000  25.155947 )

     reciprocal axes: (cart. coord. in units 2 pi/alat)
               b(1) = (  0.151982  0.000020  0.000000 )
               b(2) = (  0.000000  0.167740  0.000000 )
               b(3) = (  0.000000  0.000000  0.039752 )

     PseudoPot. # 1 for Ti read from file:
     /storage/coda1/p-amedford6/0/shared/rich_project_chbe-medford/medford-share/data/pseudos_module/espresso/nninc/pbe/van/Ti.UPF
     MD5 check sum: 8e4df49b7f0d34bbd5052bf3f5ea0213
     Pseudo is Ultrasoft, Zval = 12.0
     Generated by new atomic code, or converted to UPF format
     Using radial grid of  851 points,  6 beta functions with:
                l(1) =   0
                l(2) =   0
                l(3) =   1
                l(4) =   1
                l(5) =   2
                l(6) =   2
     Q(r) pseudized with  8 coefficients,  rinner =    1.000   1.000   1.000
                                                       1.000   1.000

     PseudoPot. # 2 for O  read from file:
     /storage/coda1/p-amedford6/0/shared/rich_project_chbe-medford/medford-share/data/pseudos_module/espresso/nninc/pbe/van/O.UPF
     MD5 check sum: 78c19812648e8988a0fe644b0f25305e
     Pseudo is Ultrasoft, Zval =  6.0
     Generated by new atomic code, or converted to UPF format
     Using radial grid of  737 points,  4 beta functions with:
                l(1) =   0
                l(2) =   0
                l(3) =   1
                l(4) =   1
     Q(r) pseudized with  8 coefficients,  rinner =    0.800   0.800   0.800

     PseudoPot. # 3 for C  read from file:
     /storage/coda1/p-amedford6/0/shared/rich_project_chbe-medford/medford-share/data/pseudos_module/espresso/nninc/pbe/van/C.UPF
     MD5 check sum: 1a69bf6b8db32088f5b2163dbdb77a27
     Pseudo is Ultrasoft, Zval =  4.0
     Generated by new atomic code, or converted to UPF format
     Using radial grid of  721 points,  4 beta functions with:
                l(1) =   0
                l(2) =   0
                l(3) =   1
                l(4) =   1
     Q(r) pseudized with  8 coefficients,  rinner =    0.800   0.800   0.800

     PseudoPot. # 4 for H  read from file:
     /storage/coda1/p-amedford6/0/shared/rich_project_chbe-medford/medford-share/data/pseudos_module/espresso/nninc/pbe/van/H.UPF
     MD5 check sum: b5ee9d7bfd3a09ee7748110bda690ff7
     Pseudo is Ultrasoft, Zval =  1.0
     Generated by new atomic code, or converted to UPF format
     Using radial grid of  615 points,  1 beta functions with:
                l(1) =   0
     Q(r) pseudized with  8 coefficients,  rinner =    0.800

     atomic species   valence    mass     pseudopotential
        Ti1           12.00    47.86700     Ti( 1.00)
        O1             6.00    15.99900     O ( 1.00)
        C1             4.00    12.01100     C ( 1.00)
        H1             1.00     1.00800     H ( 1.00)

     No symmetry found

   Cartesian axes

     site n.     atom                  positions (alat units)
         1           Ti1 tau(   1) = (   0.0004258   2.9801865   6.0000000  )
         2           Ti1 tau(   2) = (   3.2906075   1.4906267   6.0002472  )
         3           O1  tau(   3) = (   0.0006271   0.0005054   7.9858123  )
         4           O1  tau(   4) = (   3.2906025   0.0005020   7.3038282  )
         5           O1  tau(   5) = (   4.5942328   1.4918067   9.2879030  )
         6           O1  tau(   6) = (   1.9868534   1.4903216   9.2879459  )
         7           Ti1 tau(   7) = (   3.3226903   2.9514341   9.1576891  )
         8           Ti1 tau(   8) = (   0.0343464   1.5915341   9.3698150  )
         9           O1  tau(   9) = (   3.2914246   5.9565917  11.3520874  )
        10           O1  tau(  10) = (   0.0056322   0.0001635  10.6062760  )
        11           O1  tau(  11) = (   1.2817320   1.4815673  12.6483243  )
        12           O1  tau(  12) = (   5.2831613   1.4908443  12.6423163  )
        13           Ti1 tau(  13) = (   0.0382653   2.9371430  12.8126397  )
        14           Ti1 tau(  14) = (   3.3532929   1.4821923  12.4951370  )
        15           O1  tau(  15) = (   6.5662424   5.9331786  14.6600200  )
        16           O1  tau(  16) = (   3.2816364   5.9551084  13.9465949  )
        17           O1  tau(  17) = (   4.5315606   1.5040344  16.0986503  )
        18           O1  tau(  18) = (   2.0287349   1.4998145  16.0995964  )
        19           Ti1 tau(  19) = (   3.2668404   2.9769305  15.7222481  )
        20           Ti1 tau(  20) = (   6.5415330   1.4777109  16.1743724  )
        21           O1  tau(  21) = (   3.2904802   0.0005063   4.7018136  )
        22           O1  tau(  22) = (   6.5659521   0.0029676  17.1944956  )
        23           O1  tau(  23) = (   1.3043587   1.4918075   6.0039043  )
        24           O1  tau(  24) = (   5.2767064   1.4903225   6.0039473  )
        25           Ti1 tau(  25) = (   0.0000382   5.9609847   6.0000000  )
        26           Ti1 tau(  26) = (   3.2902200   4.4714249   6.0002472  )
        27           O1  tau(  27) = (   0.0002396   2.9813036   7.9858123  )
        28           O1  tau(  28) = (   3.2902150   2.9813002   7.3038282  )
        29           O1  tau(  29) = (   4.5938453   4.4726049   9.2879030  )
        30           O1  tau(  30) = (   1.9864658   4.4711199   9.2879459  )
        31           Ti1 tau(  31) = (   3.3086233   5.9367107   9.1526142  )
        32           Ti1 tau(  32) = (   0.0357814   4.5182409   9.2638332  )
        33           O1  tau(  33) = (   3.2921447   2.9709340  11.3500156  )
        34           O1  tau(  34) = (   0.0064783   2.9842416  10.5732297  )
        35           O1  tau(  35) = (   1.2836142   4.4569143  12.6423601  )
        36           O1  tau(  36) = (   5.2821634   4.4598214  12.6376843  )
        37           Ti1 tau(  37) = (   0.0453433   5.9192801  12.5257453  )
        38           Ti1 tau(  38) = (   3.3504828   4.4607682  12.4868234  )
        39           O1  tau(  39) = (   0.0004961   2.9772524  14.7247240  )
        40           O1  tau(  40) = (   3.2810368   2.9729593  13.9290527  )
        41           O1  tau(  41) = (   4.5304642   4.4591278  16.0913236  )
        42           O1  tau(  42) = (   2.0231910   4.4609068  16.0933517  )
        43           Ti1 tau(  43) = (   3.2586866   5.9546939  15.7393459  )
        44           Ti1 tau(  44) = (   6.5465221   4.6060206  15.8931146  )
        45           O1  tau(  45) = (   3.2900926   2.9813045   4.7018136  )
        46           O1  tau(  46) = (   1.3039711   4.4726057   6.0039043  )
        47           O1  tau(  47) = (   5.2763189   4.4711207   6.0039473  )
        48           C1  tau(  48) = (   6.5676456   2.9090966  17.8516705  )
        49           H1  tau(  49) = (   6.5659762   3.9554521  18.1205428  )
        50           H1  tau(  50) = (   0.8773746   2.4756544  18.3284787  )
        51           H1  tau(  51) = (   5.6845275   2.4719798  18.3396978  )

     number of k points=    10  Fermi-Dirac smearing, width (Ry)=  0.0073
                       cart. coord. in units 2pi/alat
        k(    1) = (   0.0000000   0.0000000   0.0000000), wk =   0.1250000
        k(    2) = (   0.0000000   0.0419351   0.0000000), wk =   0.2500000
        k(    3) = (   0.0000000  -0.0838702   0.0000000), wk =   0.1250000
        k(    4) = (   0.0379955   0.0000049   0.0000000), wk =   0.2500000
        k(    5) = (   0.0379955   0.0419400   0.0000000), wk =   0.2500000
        k(    6) = (   0.0379955  -0.0838652   0.0000000), wk =   0.2500000
        k(    7) = (   0.0379955  -0.0419301   0.0000000), wk =   0.2500000
        k(    8) = (  -0.0759910  -0.0000099   0.0000000), wk =   0.1250000
        k(    9) = (  -0.0759910   0.0419252   0.0000000), wk =   0.2500000
        k(   10) = (  -0.0759910  -0.0838800   0.0000000), wk =   0.1250000

     Initial potential from superposition of free atoms

     starting charge  368.99918, renormalised to  385.00000

     negative rho (up, down):  2.032E-02 0.000E+00

     %%%%%%%%%%%%%%%%%%%%%%%%%%%%%%%%%%%%%%%%%%%%%%%%%%%%%%%%%%%%%%%%%%%%%%%%
     %                                                                      %
     % You are using vdW-DF, which was implemented by the Thonhauser group. %
     % Please cite the following two papers that made this development      %
     % possible and the two reviews that describe the various versions:     %
     %                                                                      %
     %   T. Thonhauser et al., PRL 115, 136402 (2015).                      %
     %   T. Thonhauser et al., PRB 76, 125112 (2007).                       %
     %   K. Berland et al., Rep. Prog. Phys. 78, 066501 (2015).             %
     %   D.C. Langreth et al., J. Phys.: Condens. Matter 21, 084203 (2009). %
     %                                                                      %
     %                                                                      %
     % If you are calculating the stress with vdW-DF, please also cite:     %
     %                                                                      %
     %   R. Sabatini et al., J. Phys.: Condens. Matter 24, 424209 (2012).   %
     %                                                                      %
     %%%%%%%%%%%%%%%%%%%%%%%%%%%%%%%%%%%%%%%%%%%%%%%%%%%%%%%%%%%%%%%%%%%%%%%%

     Adding external electric field

     Computed dipole along edir(3) :
        Dipole               -1.9974 Ry au,         -5.0769 Debye
        Dipole field         -0.0038 Ry au,

        Potential amp.        0.3494 Ry
        Total length         46.3494 bohr

     Starting wfcs are  291 atomic wfcs
  @ DRIVER MODE: Message from server: STATUS
  @ DRIVER MODE: Message from server: POSDATA
  @ DRIVER MODE: Reading and sharing cell
  @ DRIVER MODE: Reading and sharing positions
  @ DRIVER MODE: Received positions

     Self-consistent Calculation

     iteration #  1     ecut=    29.40 Ry     beta= 0.05
     Davidson diagonalization with overlap
     c_bands:  2 eigenvalues not converged
     c_bands:  1 eigenvalues not converged
     c_bands:  3 eigenvalues not converged
     c_bands:  1 eigenvalues not converged
     ethr =  1.00E-05,  avg # of iterations = 18.7

[...]

     total energy              =   -2900.52536600 Ry
     estimated scf accuracy    <      12.60406417 Ry

     iteration #  2     ecut=    29.40 Ry     beta= 0.05
     Davidson diagonalization with overlap
     ethr =  3.27E-03,  avg # of iterations =  1.0

[...]

     iteration # 49     ecut=    29.40 Ry     beta= 0.05
     Davidson diagonalization with overlap
     c_bands:  1 eigenvalues not converged
     ethr =  6.81E-10,  avg # of iterations = 15.4

[...]

     total energy              =   -2899.02559650 Ry
     estimated scf accuracy    <       0.00000011 Ry

     iteration # 65     ecut=    29.40 Ry     beta= 0.05
     Davidson diagonalization with overlap
     ethr =  2.67E-11,  avg # of iterations =  5.7

     negative rho (up, down):  1.949E-02 0.000E+00

     Adding external electric field

     Computed dipole along edir(3) :
        Dipole                0.4653 Ry au,          1.1827 Debye
        Dipole field          0.0009 Ry au,

        Potential amp.       -0.0814 Ry
        Total length         46.3494 bohr

     End of self-consistent calculation

          k = 0.0000 0.0000 0.0000 ( 18029 PWs)   bands (ev):

   -56.2376 -56.2168 -56.2011 -56.1805 -56.1270 -56.1260 -56.0894 -56.0740
   -56.0046 -55.9983 -55.9658 -55.9610 -55.8928 -55.8771 -55.2545 -55.2205
   -32.7813 -32.7052 -32.6045 -32.5751 -32.5425 -32.5286 -32.5050 -32.4745
   -32.4645 -32.4605 -32.4459 -32.4434 -32.4389 -32.3993 -32.3983 -32.3639
   -32.3610 -32.3584 -32.3432 -32.3274 -32.3071 -32.3031 -32.2919 -32.2767
   -32.2748 -32.2551 -32.2502 -32.2407 -32.2329 -32.2260 -32.2182 -32.1898
   -32.1663 -32.1565 -32.1396 -32.1376 -32.1108 -32.0990 -32.0963 -32.0808
   -32.0766 -31.9773 -31.6647 -31.5667 -31.5444 -31.4812 -31.3951 -31.2841
   -16.9856 -16.6867 -16.5424 -16.3939 -16.3661 -16.2472 -16.0653 -15.9296
   -15.9154 -15.8407 -15.8127 -15.8074 -15.7768 -15.7591 -15.7503 -15.7441
   -15.6909 -15.6865 -15.6514 -15.6408 -15.6110 -15.5372 -15.5136 -15.4534
   -15.4123 -15.3558 -15.2612 -15.2324 -15.1991 -13.7549 -13.6365  -9.4912
    -4.3423  -4.1735  -4.1478  -4.1290  -4.0447  -3.8062  -3.7880  -3.5472
    -3.4186  -3.3980  -3.3736  -3.3704  -3.3272  -3.1825  -3.0914  -3.0644
    -3.0638  -3.0515  -3.0241  -3.0142  -2.9870  -2.9811  -2.9544  -2.9259
    -2.8957  -2.7331  -2.6541  -2.6483  -2.5713  -2.5387  -2.5245  -2.5047
    -2.4679  -2.4622  -2.4451  -2.4285  -2.3756  -2.2973  -2.2352  -2.1472
    -2.0684  -2.0371  -1.9461  -1.8569  -1.7801  -1.6897  -1.6627  -1.6371
    -1.5604  -1.5546  -1.4871  -1.4415  -1.4255  -1.3311  -1.2670  -1.2349
    -1.1356  -1.0958  -1.0072  -0.9855  -0.9751  -0.9593  -0.9473  -0.7744
    -0.7226  -0.6997  -0.6913  -0.5725  -0.5595  -0.5336  -0.5023  -0.4440
    -0.4043  -0.3496  -0.3223  -0.2734  -0.2554  -0.2494  -0.2331  -0.2094
    -0.1283  -0.0501  -0.0321   0.0620   0.1138   0.2352   0.3016   0.4068
     0.4940   0.6724   0.7702   0.8205   0.8476   0.9383   1.3600   1.4224
     2.9514   2.9932   3.0181   3.0526   3.0648   3.2221   3.3276   3.4044
     3.4063   3.4462

[...]

          k = 0.0380-0.0419 0.0000 ( 17876 PWs)   bands (ev):

[...]

          k =-0.0760-0.0000 0.0000 ( 17886 PWs)   bands (ev):

[...]

          k =-0.0760-0.0839 0.0000 ( 17948 PWs)   bands (ev):

   -56.2261 -56.2125 -56.1994 -56.1977 -56.1206 -56.1161 -56.0994 -56.0801
   -56.0004 -55.9830 -55.9824 -55.9579 -55.8955 -55.8801 -55.2380 -55.2369
   -32.5849 -32.5821 -32.5287 -32.5180 -32.5140 -32.5102 -32.4964 -32.4891
   -32.4537 -32.4374 -32.4261 -32.4223 -32.3920 -32.3730 -32.3659 -32.3576
   -32.3552 -32.3526 -32.3440 -32.3411 -32.3268 -32.3208 -32.3150 -32.3109
   -32.3004 -32.2998 -32.2981 -32.2773 -32.2438 -32.2418 -32.2365 -32.2284
   -32.2021 -32.1856 -32.1847 -32.1762 -32.1637 -32.1409 -32.1312 -32.1204
   -32.0903 -32.0277 -31.5577 -31.5564 -31.4781 -31.4772 -31.4386 -31.4377
   -16.4207 -16.3958 -16.1669 -16.1573 -16.1495 -16.0849 -15.9995 -15.9782
   -15.9610 -15.9569 -15.9019 -15.8834 -15.8749 -15.8382 -15.7808 -15.7725
   -15.7651 -15.7416 -15.6903 -15.6841 -15.6292 -15.6028 -15.5888 -15.5846
   -15.5663 -15.5620 -15.4641 -15.4227 -15.3872 -13.7388 -13.7367  -9.5070
    -3.7134  -3.6818  -3.4182  -3.3719  -3.3666  -3.2887  -3.2090  -3.1741
    -3.1490  -3.1396  -3.0837  -3.0775  -3.0751  -3.0641  -3.0567  -3.0287
    -3.0093  -2.9933  -2.9900  -2.9740  -2.9305  -2.8670  -2.8591  -2.8577
    -2.8463  -2.8009  -2.7907  -2.7834  -2.7650  -2.7638  -2.7100  -2.5103
    -2.4918  -2.4225  -2.3786  -2.3554  -2.3321  -2.3225  -2.2965  -2.2721
    -2.2103  -2.1347  -2.0256  -1.9804  -1.9573  -1.9423  -1.8888  -1.8393
    -1.7233  -1.6837  -1.6563  -1.6380  -1.5719  -1.4995  -1.4727  -1.4586
    -1.3749  -1.3470  -1.3063  -1.2417  -1.2048  -1.1917  -1.1405  -1.1278
    -1.0414  -0.9813  -0.9463  -0.8975  -0.8915  -0.8580  -0.8092  -0.7587
    -0.7457  -0.6849  -0.6234  -0.5323  -0.3167  -0.2314  -0.2214  -0.1793
    -0.1211  -0.0967   0.0106   0.0451   0.0605   0.1543   0.2203   0.2863
     0.3037   0.3288   0.3965   0.8958   1.1304   1.1312   1.2229   1.2333
     3.1557   3.1658   3.1955   3.2627   3.4089   3.4149   3.4341   3.4398
     3.5316   3.5828

     the Fermi energy is     2.9186 ev

!    total energy              =   -2899.02561708 Ry
     estimated scf accuracy    <       0.00000007 Ry
     smearing contrib. (-TS)   =      -0.02330368 Ry
     internal energy E=F+TS    =   -2899.00231340 Ry

     The total energy is F=E-TS. E is the sum of the following terms:
     one-electron contribution =  -24814.59396970 Ry
     hartree contribution      =   12486.23616306 Ry
     xc contribution           =    -474.70049987 Ry
     ewald contribution        =    9904.05558451 Ry
     electric field correction =       0.00040859 Ry

     convergence has been achieved in  65 iterations

     Forces acting on atoms (cartesian axes, Ry/au):

     atom    1 type  1   force =    -0.00012503   -0.00194088    0.10688869
     atom    2 type  1   force =    -0.00037053    0.00069485   -0.18024012
     atom    3 type  2   force =     0.00034906   -0.00662728   -0.03350949
     atom    4 type  2   force =     0.00056896   -0.00062754    0.04570826
     atom    5 type  2   force =    -0.01960166   -0.00121547    0.00435552
     atom    6 type  2   force =     0.02143663   -0.00006922    0.00424114
     atom    7 type  1   force =    -0.00029161    0.00033633   -0.00014594
     atom    8 type  1   force =    -0.00048807    0.00047976    0.00015128
     atom    9 type  2   force =    -0.00004909   -0.00039303   -0.00057941
     atom   10 type  2   force =     0.00010064    0.00047204   -0.00036638
     atom   11 type  2   force =     0.00016249   -0.00003589   -0.00004332
     atom   12 type  2   force =     0.00024749   -0.00015923   -0.00004457
     atom   13 type  1   force =    -0.00055115    0.00006361    0.00076070
     atom   14 type  1   force =    -0.00057933    0.00015908    0.00003856
     atom   15 type  2   force =    -0.00004450    0.00104594   -0.00020469
     atom   16 type  2   force =    -0.00003341   -0.00002834    0.00047432
     atom   17 type  2   force =    -0.00075124   -0.00093654   -0.00017421
     atom   18 type  2   force =     0.00063737   -0.00082613   -0.00037608
     atom   19 type  1   force =    -0.00023957    0.00055297   -0.00024083
     atom   20 type  1   force =     0.00052139    0.00175360    0.00128689
     atom   21 type  2   force =     0.00000191    0.00003860    0.10433783
     atom   22 type  2   force =    -0.00008698    0.00033699   -0.00065658
     atom   23 type  2   force =    -0.06877877    0.00084714   -0.02966281
     atom   24 type  2   force =     0.06853538    0.00129976   -0.02973186
     atom   25 type  1   force =    -0.00009693    0.00131102    0.11802199
     atom   26 type  1   force =    -0.00020289   -0.00066136   -0.18055603
     atom   27 type  2   force =     0.00055402    0.00239928   -0.02742216
     atom   28 type  2   force =     0.00072895   -0.00048800    0.04722198
     atom   29 type  2   force =    -0.01933744    0.00075635    0.00376079
     atom   30 type  2   force =     0.01928984    0.00249540    0.00344260
     atom   31 type  1   force =    -0.00007909   -0.00075305    0.00034247
     atom   32 type  1   force =    -0.00042336    0.00002736    0.00036420
     atom   33 type  2   force =    -0.00013674    0.00036787   -0.00076155
     atom   34 type  2   force =    -0.00007812    0.00004489   -0.00014631
     atom   35 type  2   force =     0.00043082    0.00024866   -0.00041154
     atom   36 type  2   force =    -0.00079429    0.00003993   -0.00040320
     atom   37 type  1   force =    -0.00054688    0.00053279    0.00060057
     atom   38 type  1   force =     0.00015155   -0.00042669    0.00036093
     atom   39 type  2   force =    -0.00030567   -0.00015802   -0.00046862
     atom   40 type  2   force =    -0.00004675    0.00077752    0.00058706
     atom   41 type  2   force =    -0.00026281    0.00131824   -0.00025573
     atom   42 type  2   force =     0.00047407    0.00137529   -0.00051364
     atom   43 type  1   force =    -0.00020159    0.00049749   -0.00023150
     atom   44 type  1   force =     0.00039167   -0.00076560    0.00030642
     atom   45 type  2   force =    -0.00000486    0.00006366    0.10434684
     atom   46 type  2   force =    -0.06831170   -0.00103440   -0.02972492
     atom   47 type  2   force =     0.06816105   -0.00065359   -0.02976422
     atom   48 type  3   force =    -0.00066016   -0.01965242    0.00070860
     atom   49 type  4   force =     0.00004350    0.01029416    0.00353285
     atom   50 type  4   force =    -0.00320904    0.00329254   -0.00244099
     atom   51 type  4   force =     0.00390244    0.00352957   -0.00276382

     Total force =     0.378151     Total SCF correction =     0.000781
  @ DRIVER MODE: Message from server: STATUS
  @ DRIVER MODE: Message from server: GETFORCE
  @ DRIVER MODE: Returning v,forces,stress,ensemble

     Writing output data file ./calc.save/
  @ DRIVER MODE: Message from server: EXIT
  @ DRIVE MODE: Exiting

     General routines

     Parallel routines

   This run was terminated on:  17:37:33   5Aug2021

   JOB DONE.