     Program PWSCF v.6.7GPU starts on 23Sep2021 at  1:56:15

     R & G space division:  proc/nbgrp/npool/nimage =      10
     Reading input from /storage/home/hcoda1/3/ntian30/research/carbon/CxH_vib/H2O_calc/ads_slab/CHNHHO_a/out_0031/pw.inp
Warning: card &CELL ignored
Warning: card   CELL_DYNAMICS='IPI', ignored
Warning: card / ignored

     Current dimensions of program PWSCF are:
     Max number of different atomic species (ntypx) = 10
     Max number of k-points (npk) =  40000
     Max angular momentum in pseudopotentials (lmaxx) =  3
     Presently no symmetry can be used with electric field

     Message from routine cell_base_init:
     DEPRECATED: use true lattice parameter, not A to a.u. conversion factor

     IMPORTANT: XC functional enforced from input :
     Exchange-correlation= BEEF-VDW
                           (   1   4  43  14   2   0   0)
     Any further DFT definition will be discarded
     Please, verify this is what you really want

  @ DRIVER MODE: Connecting to
 qe_1139763_2937314.sched-torque.pace.gatech.eduvy0kjfhh_scratch
  using UNIX socket
  @ DRIVER MODE: Message from server: STATUS
  @ DRIVER MODE: Message from server: INIT
  @ DRIVER MODE: Receiving replica           0          -1
  @ DRIVER MODE: Receiving encoded integer          25
  @ DRIVER MODE:  SCF:  T  FORCE:  T  STRESS:  F  VC:  F  ENSEMBLE:  F
  @ DRIVER MODE:  SCF:  T  FORCE:  T  STRESS:  F  VC:  F  ENSEMBLE:  F

     Using Slab Decomposition

     bravais-lattice index     =            0
     lattice parameter (alat)  =       1.8897  a.u.
     unit-cell volume          =    6658.9804 (a.u.)^3
     number of atoms/cell      =           53
     number of atomic types    =            5
     number of electrons       =       396.00
     number of Kohn-Sham states=          208
     kinetic-energy cutoff     =      29.3995  Ry
     charge density cutoff     =     293.9946  Ry
     scf convergence threshold =      7.3E-08
     mixing beta               =       0.0500
     number of iterations used =            8  plain     mixing
     Exchange-correlation= BEEF-VDW
                           (   1   4  43  14   2   0   0)

     celldm(1)=   1.889726  celldm(2)=   0.000000  celldm(3)=   0.000000
     celldm(4)=   0.000000  celldm(5)=   0.000000  celldm(6)=   0.000000

     crystal axes: (cart. coord. in units of alat)
               a(1) = (   6.579727   0.000000   0.000000 )
               a(2) = (  -0.000775   5.961596   0.000000 )
               a(3) = (   0.000000   0.000000  25.155947 )

     reciprocal axes: (cart. coord. in units 2 pi/alat)
               b(1) = (  0.151982  0.000020  0.000000 )
               b(2) = (  0.000000  0.167740  0.000000 )
               b(3) = (  0.000000  0.000000  0.039752 )

     PseudoPot. # 1 for Ti read from file:
     /storage/coda1/p-amedford6/0/shared/rich_project_chbe-medford/medford-share/data/pseudos_module/espresso/nninc/pbe/van/Ti.UPF
     MD5 check sum: 8e4df49b7f0d34bbd5052bf3f5ea0213
     Pseudo is Ultrasoft, Zval = 12.0
     Generated by new atomic code, or converted to UPF format
     Using radial grid of  851 points,  6 beta functions with:
                l(1) =   0
                l(2) =   0
                l(3) =   1
                l(4) =   1
                l(5) =   2
                l(6) =   2
     Q(r) pseudized with  8 coefficients,  rinner =    1.000   1.000   1.000
                                                       1.000   1.000

     PseudoPot. # 2 for O  read from file:
     /storage/coda1/p-amedford6/0/shared/rich_project_chbe-medford/medford-share/data/pseudos_module/espresso/nninc/pbe/van/O.UPF
     MD5 check sum: 78c19812648e8988a0fe644b0f25305e
     Pseudo is Ultrasoft, Zval =  6.0
     Generated by new atomic code, or converted to UPF format
     Using radial grid of  737 points,  4 beta functions with:
                l(1) =   0
                l(2) =   0
                l(3) =   1
                l(4) =   1
     Q(r) pseudized with  8 coefficients,  rinner =    0.800   0.800   0.800

     PseudoPot. # 3 for N  read from file:
     /storage/coda1/p-amedford6/0/shared/rich_project_chbe-medford/medford-share/data/pseudos_module/espresso/nninc/pbe/van/N.UPF
     MD5 check sum: 90d10febe142ad51ac9d5be1deb811c4
     Pseudo is Ultrasoft, Zval =  5.0
     Generated by new atomic code, or converted to UPF format
     Using radial grid of  729 points,  4 beta functions with:
                l(1) =   0
                l(2) =   0
                l(3) =   1
                l(4) =   1
     Q(r) pseudized with  8 coefficients,  rinner =    0.800   0.800   0.800

     PseudoPot. # 4 for C  read from file:
     /storage/coda1/p-amedford6/0/shared/rich_project_chbe-medford/medford-share/data/pseudos_module/espresso/nninc/pbe/van/C.UPF
     MD5 check sum: 1a69bf6b8db32088f5b2163dbdb77a27
     Pseudo is Ultrasoft, Zval =  4.0
     Generated by new atomic code, or converted to UPF format
     Using radial grid of  721 points,  4 beta functions with:
                l(1) =   0
                l(2) =   0
                l(3) =   1
                l(4) =   1
     Q(r) pseudized with  8 coefficients,  rinner =    0.800   0.800   0.800

     PseudoPot. # 5 for H  read from file:
     /storage/coda1/p-amedford6/0/shared/rich_project_chbe-medford/medford-share/data/pseudos_module/espresso/nninc/pbe/van/H.UPF
     MD5 check sum: b5ee9d7bfd3a09ee7748110bda690ff7
     Pseudo is Ultrasoft, Zval =  1.0
     Generated by new atomic code, or converted to UPF format
     Using radial grid of  615 points,  1 beta functions with:
                l(1) =   0
     Q(r) pseudized with  8 coefficients,  rinner =    0.800

     atomic species   valence    mass     pseudopotential
        Ti1           12.00    47.86700     Ti( 1.00)
        O1             6.00    15.99900     O ( 1.00)
        N1             5.00    14.00700     N ( 1.00)
        C1             4.00    12.01100     C ( 1.00)
        H1             1.00     1.00800     H ( 1.00)

     No symmetry found

   Cartesian axes

     site n.     atom                  positions (alat units)
         1           Ti1 tau(   1) = (   0.0004258   2.9801865   6.0000000  )
         2           Ti1 tau(   2) = (   3.2906075   1.4906267   6.0002472  )
         3           O1  tau(   3) = (   0.0006271   0.0005054   7.9858123  )
         4           O1  tau(   4) = (   3.2906025   0.0005020   7.3038282  )
         5           O1  tau(   5) = (   4.5942328   1.4918067   9.2879030  )
         6           O1  tau(   6) = (   1.9868534   1.4903216   9.2879459  )
         7           Ti1 tau(   7) = (   3.2907910   2.8959150   9.1758416  )
         8           Ti1 tau(   8) = (   0.0015273   1.4827037   9.2680791  )
         9           O1  tau(   9) = (   3.2817170   5.9459930  11.3074998  )
        10           O1  tau(  10) = (   0.0116148   5.9584955  10.6183126  )
        11           O1  tau(  11) = (   1.2737360   1.4926482  12.6406718  )
        12           O1  tau(  12) = (   5.2902952   1.4950437  12.6299455  )
        13           Ti1 tau(  13) = (   6.5743562   2.8588748  12.6391164  )
        14           Ti1 tau(  14) = (   3.2840152   1.3010445  12.6757008  )
        15           O1  tau(  15) = (   6.5722207   0.0022838  14.6395268  )
        16           O1  tau(  16) = (   3.2882888   0.0547267  13.9272720  )
        17           O1  tau(  17) = (   4.5277618   1.5549090  16.0796657  )
        18           O1  tau(  18) = (   1.9889223   1.5445724  16.0964948  )
        19           Ti1 tau(  19) = (   3.2710169   3.0098750  15.6493427  )
        20           Ti1 tau(  20) = (   0.0212523   1.3583160  16.0154628  )
        21           O1  tau(  21) = (   3.2904802   0.0005063   4.7018136  )
        22           O1  tau(  22) = (   6.5278121   5.9442159  17.1408904  )
        23           O1  tau(  23) = (   1.3043587   1.4918075   6.0039043  )
        24           O1  tau(  24) = (   5.2767064   1.4903225   6.0039473  )
        25           Ti1 tau(  25) = (   0.0000382   5.9609847   6.0000000  )
        26           Ti1 tau(  26) = (   3.2902200   4.4714249   6.0002472  )
        27           O1  tau(  27) = (   0.0002396   2.9813036   7.9858123  )
        28           O1  tau(  28) = (   3.2902150   2.9813002   7.3038282  )
        29           O1  tau(  29) = (   4.5938453   4.4726049   9.2879030  )
        30           O1  tau(  30) = (   1.9864658   4.4711199   9.2879459  )
        31           Ti1 tau(  31) = (   3.2891106   5.8743827   9.1763621  )
        32           Ti1 tau(  32) = (   0.0006254   4.4649316   9.2693709  )
        33           O1  tau(  33) = (   3.2809651   3.0158959  11.2742024  )
        34           O1  tau(  34) = (   0.0092240   2.9805883  10.6323155  )
        35           O1  tau(  35) = (   1.2801966   4.4796301  12.6363892  )
        36           O1  tau(  36) = (   5.2833020   4.4787161  12.6245292  )
        37           Ti1 tau(  37) = (   6.5725262   5.8449372  12.5269696  )
        38           Ti1 tau(  38) = (   3.2830651   4.3950422  12.4122791  )
        39           O1  tau(  39) = (   6.5612936   2.9998473  14.7091997  )
        40           O1  tau(  40) = (   3.2734765   2.9867355  13.8776313  )
        41           O1  tau(  41) = (   4.5260587   4.4294304  16.0527172  )
        42           O1  tau(  42) = (   1.9919704   4.4458081  16.0639873  )
        43           Ti1 tau(  43) = (   3.3135318   0.0270965  16.3071496  )
        44           Ti1 tau(  44) = (   0.0294795   4.5257316  15.8201724  )
        45           O1  tau(  45) = (   3.2900926   2.9813045   4.7018136  )
        46           O1  tau(  46) = (   1.3039711   4.4726057   6.0039043  )
        47           O1  tau(  47) = (   5.2763189   4.4711207   6.0039473  )
        48           N1  tau(  48) = (   6.4282372   2.9740631  17.7102171  )
        49           C1  tau(  49) = (   0.6535733   3.0176064  18.7020832  )
        50           H1  tau(  50) = (   1.7291544   2.9413089  18.4820742  )
        51           H1  tau(  51) = (   5.4410488   3.0579230  17.9716058  )
        52           O1  tau(  52) = (   3.3635319   0.0010587  18.1193045  )
        53           H1  tau(  53) = (   4.1480425   0.0400832  18.6733683  )

     number of k points=    10  Fermi-Dirac smearing, width (Ry)=  0.0073
                       cart. coord. in units 2pi/alat
        k(    1) = (   0.0000000   0.0000000   0.0000000), wk =   0.1250000
        k(    2) = (   0.0000000   0.0419351   0.0000000), wk =   0.2500000
        k(    3) = (   0.0000000  -0.0838702   0.0000000), wk =   0.1250000
        k(    4) = (   0.0379955   0.0000049   0.0000000), wk =   0.2500000
        k(    5) = (   0.0379955   0.0419400   0.0000000), wk =   0.2500000
        k(    6) = (   0.0379955  -0.0838652   0.0000000), wk =   0.2500000
        k(    7) = (   0.0379955  -0.0419301   0.0000000), wk =   0.2500000
        k(    8) = (  -0.0759910  -0.0000099   0.0000000), wk =   0.1250000
        k(    9) = (  -0.0759910   0.0419252   0.0000000), wk =   0.2500000
        k(   10) = (  -0.0759910  -0.0838800   0.0000000), wk =   0.1250000

     Initial potential from superposition of free atoms

     starting charge  379.99917, renormalised to  396.00000

     negative rho (up, down):  1.778E-02 0.000E+00

     %%%%%%%%%%%%%%%%%%%%%%%%%%%%%%%%%%%%%%%%%%%%%%%%%%%%%%%%%%%%%%%%%%%%%%%%
     %                                                                      %
     % You are using vdW-DF, which was implemented by the Thonhauser group. %
     % Please cite the following two papers that made this development      %
     % possible and the two reviews that describe the various versions:     %
     %                                                                      %
     %   T. Thonhauser et al., PRL 115, 136402 (2015).                      %
     %   T. Thonhauser et al., PRB 76, 125112 (2007).                       %
     %   K. Berland et al., Rep. Prog. Phys. 78, 066501 (2015).             %
     %   D.C. Langreth et al., J. Phys.: Condens. Matter 21, 084203 (2009). %
     %                                                                      %
     %                                                                      %
     % If you are calculating the stress with vdW-DF, please also cite:     %
     %                                                                      %
     %   R. Sabatini et al., J. Phys.: Condens. Matter 24, 424209 (2012).   %
     %                                                                      %
     %%%%%%%%%%%%%%%%%%%%%%%%%%%%%%%%%%%%%%%%%%%%%%%%%%%%%%%%%%%%%%%%%%%%%%%%

     Adding external electric field

     Computed dipole along edir(3) :
        Dipole               -8.0653 Ry au,        -20.5000 Debye
        Dipole field         -0.0152 Ry au,

        Potential amp.        1.4109 Ry
        Total length         46.3494 bohr

     Starting wfcs are  299 atomic wfcs
  @ DRIVER MODE: Message from server: STATUS
  @ DRIVER MODE: Message from server: POSDATA
  @ DRIVER MODE: Reading and sharing cell
  @ DRIVER MODE: Reading and sharing positions
  @ DRIVER MODE: Received positions

     Self-consistent Calculation

     iteration #  1     ecut=    29.40 Ry     beta= 0.05
     Davidson diagonalization with overlap
     c_bands:  1 eigenvalues not converged
     c_bands:  1 eigenvalues not converged
     c_bands:  3 eigenvalues not converged
     c_bands:  1 eigenvalues not converged
     c_bands:  1 eigenvalues not converged
     c_bands:  1 eigenvalues not converged
     ethr =  1.00E-05,  avg # of iterations = 18.6

[...]

     total energy              =   -2618.21396186 Ry
     estimated scf accuracy    <    3681.38252257 Ry

[...]

     iteration #  3     ecut=    29.40 Ry     beta= 0.05
     Davidson diagonalization with overlap
     ethr =  1.00E-02,  avg # of iterations = 14.7

[...]

     iteration # 43     ecut=    29.40 Ry     beta= 0.05
     Davidson diagonalization with overlap
     c_bands:  3 eigenvalues not converged
     ethr =  3.74E-08,  avg # of iterations =  7.9

[...]

     total energy              =   -2951.37629469 Ry
     estimated scf accuracy    <       0.00000011 Ry

     iteration # 58     ecut=    29.40 Ry     beta= 0.05
     Davidson diagonalization with overlap
     ethr =  2.67E-11,  avg # of iterations =  5.9

     negative rho (up, down):  1.667E-02 0.000E+00

     Adding external electric field

     Computed dipole along edir(3) :
        Dipole                0.1817 Ry au,          0.4617 Debye
        Dipole field          0.0003 Ry au,

        Potential amp.       -0.0318 Ry
        Total length         46.3494 bohr

     End of self-consistent calculation

          k = 0.0000 0.0000 0.0000 ( 18029 PWs)   bands (ev):

   -56.4278 -56.3939 -56.1560 -56.1500 -56.1162 -55.9504 -55.8973 -55.8637
   -55.8585 -55.8518 -55.8167 -55.7248 -55.6737 -55.5334 -55.2789 -55.2449
   -32.8921 -32.7219 -32.7017 -32.6230 -32.5821 -32.5153 -32.4885 -32.4491
   -32.4342 -32.4256 -32.3753 -32.3678 -32.3657 -32.3628 -32.3531 -32.3104
   -32.2887 -32.2657 -32.2551 -32.1797 -32.1669 -32.1585 -32.1452 -32.1224
   -32.1069 -32.1017 -32.0985 -32.0677 -32.0647 -32.0574 -32.0370 -32.0167
   -31.9997 -31.9776 -31.9682 -31.9582 -31.9433 -31.8702 -31.8689 -31.7927
   -31.7637 -31.7452 -31.6791 -31.6071 -31.5838 -31.4975 -31.4120 -31.3000
   -16.9663 -16.8250 -16.5948 -16.4413 -16.2741 -16.1825 -16.0535 -16.0291
   -15.9216 -15.9011 -15.8144 -15.7807 -15.7417 -15.6670 -15.6100 -15.5873
   -15.5548 -15.5247 -15.5162 -15.5111 -15.5021 -15.4939 -15.4559 -15.3379
   -15.2973 -15.2468 -15.2336 -15.2195 -15.0882 -14.8294 -14.7867 -13.7763
   -13.6624  -8.2068  -4.7179  -4.2796  -4.2191  -4.1213  -3.9443  -3.8884
    -3.8283  -3.6015  -3.5541  -3.5522  -3.3581  -3.2978  -3.2040  -3.1611
    -3.1461  -3.1010  -3.0290  -3.0181  -2.9866  -2.8991  -2.8581  -2.8509
    -2.8244  -2.7793  -2.7694  -2.6885  -2.6453  -2.6229  -2.5539  -2.5048
    -2.4732  -2.4588  -2.4347  -2.4244  -2.3830  -2.3694  -2.3484  -2.2008
    -2.1843  -2.1620  -2.0850  -2.0103  -1.8547  -1.7733  -1.7629  -1.6640
    -1.5860  -1.5729  -1.5235  -1.4745  -1.3880  -1.3736  -1.3673  -1.3289
    -1.2436  -1.2237  -1.1806  -1.1278  -1.0531  -0.9645  -0.9584  -0.9085
    -0.8737  -0.8094  -0.7215  -0.6876  -0.6285  -0.5868  -0.5557  -0.4834
    -0.4335  -0.4070  -0.3839  -0.3729  -0.3122  -0.2514  -0.2050  -0.1783
    -0.1087  -0.0964  -0.0532   0.0107   0.0331   0.0410   0.1600   0.2024
     0.2153   0.2656   0.3771   0.4358   0.5209   0.5817   0.6527   0.7471
     0.7536   0.9612   1.0692   1.3013   1.3417   2.5796   2.7611   2.8827
     2.9517   3.1529   3.1999   3.2343   3.5086   3.5252   3.5334   3.6367

[...]

          k = 0.0380-0.0419 0.0000 ( 17876 PWs)   bands (ev):

[...]

          k =-0.0760-0.0000 0.0000 ( 17886 PWs)   bands (ev):

[...]

          k =-0.0760-0.0839 0.0000 ( 17948 PWs)   bands (ev):

   -56.4113 -56.4102 -56.1554 -56.1348 -56.1312 -55.9443 -55.9034 -55.8609
   -55.8596 -55.8387 -55.8297 -55.7267 -55.6717 -55.5353 -55.2624 -55.2612
   -32.7087 -32.7084 -32.7068 -32.7063 -32.5340 -32.5326 -32.4548 -32.4501
   -32.4272 -32.3843 -32.3727 -32.3427 -32.3379 -32.3268 -32.3204 -32.2857
   -32.2470 -32.2430 -32.2174 -32.1713 -32.1693 -32.1679 -32.1649 -32.1539
   -32.1292 -32.1221 -32.1204 -32.0729 -32.0699 -32.0637 -32.0616 -32.0600
   -32.0451 -32.0101 -31.9874 -31.9624 -31.9494 -31.9352 -31.8821 -31.8745
   -31.7953 -31.7488 -31.5971 -31.5963 -31.4936 -31.4922 -31.4553 -31.4544
   -16.9537 -16.2444 -16.2193 -16.1259 -16.0954 -16.0738 -16.0518 -16.0295
   -15.8937 -15.8842 -15.8705 -15.8023 -15.7514 -15.7323 -15.6979 -15.6927
   -15.6373 -15.6234 -15.6105 -15.5580 -15.5496 -15.5295 -15.5152 -15.4801
   -15.4494 -15.4215 -15.2561 -15.2016 -15.1466 -15.1184 -14.9195 -13.7653
   -13.7647  -8.2184  -4.7101  -4.1095  -3.5218  -3.4892  -3.3692  -3.3573
    -3.2308  -3.2259  -3.1477  -3.0744  -3.0738  -2.9986  -2.9847  -2.9766
    -2.9372  -2.9199  -2.9123  -2.9116  -2.8703  -2.8609  -2.8399  -2.8228
    -2.8198  -2.8042  -2.7654  -2.7251  -2.7035  -2.6906  -2.6364  -2.6232
    -2.5008  -2.4369  -2.4110  -2.4106  -2.3877  -2.3507  -2.3201  -2.3035
    -2.2744  -2.2355  -2.1581  -2.0374  -2.0166  -1.8206  -1.8026  -1.7713
    -1.7507  -1.7058  -1.7001  -1.6342  -1.5838  -1.5690  -1.5520  -1.5274
    -1.4262  -1.3758  -1.3249  -1.3224  -1.2708  -1.2515  -1.2037  -1.1014
    -1.0521  -1.0223  -0.9957  -0.9830  -0.9450  -0.9191  -0.8659  -0.8253
    -0.8210  -0.7941  -0.7509  -0.5819  -0.4115  -0.3678  -0.3469  -0.2756
    -0.2615  -0.2115  -0.0776  -0.0314  -0.0212   0.0153   0.0553   0.0849
     0.0986   0.1610   0.3445   0.3589   0.4263   0.4746   0.4807   0.5680
     0.6643   1.1258   1.1335   1.1605   1.1613   2.6083   3.3059   3.3079
     3.3097   3.3261   3.4050   3.4668   3.4759   3.5130   3.5918   3.6306

     the Fermi energy is     2.7246 ev

!    total energy              =   -2951.37634561 Ry
     estimated scf accuracy    <       0.00000007 Ry
     smearing contrib. (-TS)   =      -0.01731717 Ry
     internal energy E=F+TS    =   -2951.35902844 Ry

     The total energy is F=E-TS. E is the sum of the following terms:
     one-electron contribution =  -24273.39431444 Ry
     hartree contribution      =   12222.72802630 Ry
     xc contribution           =    -487.05273188 Ry
     ewald contribution        =    9586.35992930 Ry
     electric field correction =       0.00006228 Ry

     convergence has been achieved in  58 iterations

     Forces acting on atoms (cartesian axes, Ry/au):

     atom    1 type  1   force =     0.00006116   -0.00028740    0.10088741
     atom    2 type  1   force =    -0.00005165    0.00024574   -0.16921561
     atom    3 type  2   force =     0.00000880   -0.00004408   -0.02993238
     atom    4 type  2   force =     0.00000120   -0.00099082    0.04190194
     atom    5 type  2   force =    -0.00520211   -0.00241711   -0.00303603
     atom    6 type  2   force =     0.00635380   -0.00183704   -0.00464538
     atom    7 type  1   force =    -0.00066283   -0.00536549    0.02530231
     atom    8 type  1   force =     0.00078009    0.01604719    0.04131150
     atom    9 type  2   force =    -0.00021426    0.00023068    0.00017079
     atom   10 type  2   force =    -0.00258022    0.00083255   -0.03439214
     atom   11 type  2   force =     0.00010628    0.00003105    0.00006433
     atom   12 type  2   force =     0.00023106   -0.00035567    0.00004587
     atom   13 type  1   force =    -0.00070069   -0.00009938   -0.00015088
     atom   14 type  1   force =     0.00018797    0.00014296    0.00021457
     atom   15 type  2   force =     0.00022199    0.00007792    0.00009051
     atom   16 type  2   force =     0.00004700   -0.00015751   -0.00005978
     atom   17 type  2   force =    -0.00017051    0.00004873    0.00015969
     atom   18 type  2   force =     0.00023815   -0.00008972    0.00006363
     atom   19 type  1   force =     0.00001559    0.00020402    0.00023855
     atom   20 type  1   force =    -0.00002601    0.00013200    0.00061340
     atom   21 type  2   force =     0.00007130    0.00015385    0.10146248
     atom   22 type  2   force =     0.00002112    0.00022289    0.00011753
     atom   23 type  2   force =    -0.07488213   -0.00008407   -0.02881755
     atom   24 type  2   force =     0.07481614    0.00036657   -0.02884869
     atom   25 type  1   force =     0.00018912   -0.00036189    0.10072702
     atom   26 type  1   force =     0.00001279   -0.00114191   -0.16943295
     atom   27 type  2   force =     0.00004609   -0.00040028   -0.02842054
     atom   28 type  2   force =     0.00001073    0.00074700    0.03787597
     atom   29 type  2   force =    -0.00389390    0.00436626   -0.00526321
     atom   30 type  2   force =     0.00497467    0.00489119   -0.00693335
     atom   31 type  1   force =    -0.00064212    0.00467176    0.01113861
     atom   32 type  1   force =     0.00088944   -0.01905178    0.04067707
     atom   33 type  2   force =     0.00044375   -0.00000657    0.00024020
     atom   34 type  2   force =    -0.00214326    0.00071024   -0.03963638
     atom   35 type  2   force =     0.00012339   -0.00048808   -0.00014603
     atom   36 type  2   force =     0.00015055   -0.00022286    0.00010031
     atom   37 type  1   force =    -0.00004986   -0.00010788    0.00007563
     atom   38 type  1   force =     0.00000994    0.00004002    0.00011634
     atom   39 type  2   force =    -0.00004111    0.00035995   -0.00023718
     atom   40 type  2   force =     0.00032884   -0.00005596    0.00021109
     atom   41 type  2   force =    -0.00001214    0.00014178    0.00028620
     atom   42 type  2   force =    -0.00004938    0.00011842    0.00023462
     atom   43 type  1   force =     0.00015825   -0.00004874    0.00070980
     atom   44 type  1   force =    -0.00019764    0.00017983   -0.00050579
     atom   45 type  2   force =     0.00006829   -0.00000106    0.10124517
     atom   46 type  2   force =    -0.07492869   -0.00001739   -0.02885287
     atom   47 type  2   force =     0.07484900    0.00041250   -0.02887783
     atom   48 type  3   force =    -0.00040765   -0.00004896    0.00129830
     atom   49 type  4   force =    -0.00020392    0.00005256   -0.00072752
     atom   50 type  5   force =    -0.00052060   -0.00047337    0.00010003
     atom   51 type  5   force =     0.00176497   -0.00073158   -0.00009415
     atom   52 type  2   force =    -0.01349838   -0.00083662   -0.00806899
     atom   53 type  5   force =     0.01389759    0.00029554    0.00861434

     Total force =     0.370427     Total SCF correction =     0.000506
  @ DRIVER MODE: Message from server: STATUS
  @ DRIVER MODE: Message from server: GETFORCE
  @ DRIVER MODE: Returning v,forces,stress,ensemble

     Writing output data file ./calc.save/
  @ DRIVER MODE: Message from server: EXIT
  @ DRIVE MODE: Exiting

     General routines

     Parallel routines

   This run was terminated on:   2:11:11  23Sep2021

   JOB DONE.