     Program PWSCF v.6.7GPU starts on 15Sep2021 at 17:18:17

     R & G space division:  proc/nbgrp/npool/nimage =      10
     Reading input from /storage/home/hcoda1/3/ntian30/research/carbon/CxH_vib/H2O_calc/ads_slab/CH3NH2O_a/out_0006/pw.inp
Warning: card &CELL ignored
Warning: card   CELL_DYNAMICS='IPI', ignored
Warning: card / ignored

     Current dimensions of program PWSCF are:
     Max number of different atomic species (ntypx) = 10
     Max number of k-points (npk) =  40000
     Max angular momentum in pseudopotentials (lmaxx) =  3
     Presently no symmetry can be used with electric field

     Message from routine cell_base_init:
     DEPRECATED: use true lattice parameter, not A to a.u. conversion factor

     IMPORTANT: XC functional enforced from input :
     Exchange-correlation= BEEF-VDW
                           (   1   4  43  14   2   0   0)
     Any further DFT definition will be discarded
     Please, verify this is what you really want

  @ DRIVER MODE: Connecting to
 qe_1139763_2852618.sched-torque.pace.gatech.edurh_03n0g_scratch
  using UNIX socket
  @ DRIVER MODE: Message from server: STATUS
  @ DRIVER MODE: Message from server: INIT
  @ DRIVER MODE: Receiving replica           0          -1
  @ DRIVER MODE: Receiving encoded integer          25
  @ DRIVER MODE:  SCF:  T  FORCE:  T  STRESS:  F  VC:  F  ENSEMBLE:  F
  @ DRIVER MODE:  SCF:  T  FORCE:  T  STRESS:  F  VC:  F  ENSEMBLE:  F

     Using Slab Decomposition

     bravais-lattice index     =            0
     lattice parameter (alat)  =       1.8897  a.u.
     unit-cell volume          =    6658.9804 (a.u.)^3
     number of atoms/cell      =           55
     number of atomic types    =            5
     number of electrons       =       398.00
     number of Kohn-Sham states=          209
     kinetic-energy cutoff     =      29.3995  Ry
     charge density cutoff     =     293.9946  Ry
     scf convergence threshold =      7.3E-08
     mixing beta               =       0.0500
     number of iterations used =            8  plain     mixing
     Exchange-correlation= BEEF-VDW
                           (   1   4  43  14   2   0   0)

     celldm(1)=   1.889726  celldm(2)=   0.000000  celldm(3)=   0.000000
     celldm(4)=   0.000000  celldm(5)=   0.000000  celldm(6)=   0.000000

     crystal axes: (cart. coord. in units of alat)
               a(1) = (   6.579727   0.000000   0.000000 )
               a(2) = (  -0.000775   5.961596   0.000000 )
               a(3) = (   0.000000   0.000000  25.155947 )

     reciprocal axes: (cart. coord. in units 2 pi/alat)
               b(1) = (  0.151982  0.000020  0.000000 )
               b(2) = (  0.000000  0.167740  0.000000 )
               b(3) = (  0.000000  0.000000  0.039752 )

     PseudoPot. # 1 for Ti read from file:
     /storage/coda1/p-amedford6/0/shared/rich_project_chbe-medford/medford-share/data/pseudos_module/espresso/nninc/pbe/van/Ti.UPF
     MD5 check sum: 8e4df49b7f0d34bbd5052bf3f5ea0213
     Pseudo is Ultrasoft, Zval = 12.0
     Generated by new atomic code, or converted to UPF format
     Using radial grid of  851 points,  6 beta functions with:
                l(1) =   0
                l(2) =   0
                l(3) =   1
                l(4) =   1
                l(5) =   2
                l(6) =   2
     Q(r) pseudized with  8 coefficients,  rinner =    1.000   1.000   1.000
                                                       1.000   1.000

     PseudoPot. # 2 for O  read from file:
     /storage/coda1/p-amedford6/0/shared/rich_project_chbe-medford/medford-share/data/pseudos_module/espresso/nninc/pbe/van/O.UPF
     MD5 check sum: 78c19812648e8988a0fe644b0f25305e
     Pseudo is Ultrasoft, Zval =  6.0
     Generated by new atomic code, or converted to UPF format
     Using radial grid of  737 points,  4 beta functions with:
                l(1) =   0
                l(2) =   0
                l(3) =   1
                l(4) =   1
     Q(r) pseudized with  8 coefficients,  rinner =    0.800   0.800   0.800

     PseudoPot. # 3 for N  read from file:
     /storage/coda1/p-amedford6/0/shared/rich_project_chbe-medford/medford-share/data/pseudos_module/espresso/nninc/pbe/van/N.UPF
     MD5 check sum: 90d10febe142ad51ac9d5be1deb811c4
     Pseudo is Ultrasoft, Zval =  5.0
     Generated by new atomic code, or converted to UPF format
     Using radial grid of  729 points,  4 beta functions with:
                l(1) =   0
                l(2) =   0
                l(3) =   1
                l(4) =   1
     Q(r) pseudized with  8 coefficients,  rinner =    0.800   0.800   0.800

     PseudoPot. # 4 for C  read from file:
     /storage/coda1/p-amedford6/0/shared/rich_project_chbe-medford/medford-share/data/pseudos_module/espresso/nninc/pbe/van/C.UPF
     MD5 check sum: 1a69bf6b8db32088f5b2163dbdb77a27
     Pseudo is Ultrasoft, Zval =  4.0
     Generated by new atomic code, or converted to UPF format
     Using radial grid of  721 points,  4 beta functions with:
                l(1) =   0
                l(2) =   0
                l(3) =   1
                l(4) =   1
     Q(r) pseudized with  8 coefficients,  rinner =    0.800   0.800   0.800

     PseudoPot. # 5 for H  read from file:
     /storage/coda1/p-amedford6/0/shared/rich_project_chbe-medford/medford-share/data/pseudos_module/espresso/nninc/pbe/van/H.UPF
     MD5 check sum: b5ee9d7bfd3a09ee7748110bda690ff7
     Pseudo is Ultrasoft, Zval =  1.0
     Generated by new atomic code, or converted to UPF format
     Using radial grid of  615 points,  1 beta functions with:
                l(1) =   0
     Q(r) pseudized with  8 coefficients,  rinner =    0.800

     atomic species   valence    mass     pseudopotential
        Ti1           12.00    47.86700     Ti( 1.00)
        O1             6.00    15.99900     O ( 1.00)
        N1             5.00    14.00700     N ( 1.00)
        C1             4.00    12.01100     C ( 1.00)
        H1             1.00     1.00800     H ( 1.00)

     No symmetry found

   Cartesian axes

     site n.     atom                  positions (alat units)
         1           Ti1 tau(   1) = (   0.0004258   2.9801865   6.0000000  )
         2           Ti1 tau(   2) = (   3.2906075   1.4906267   6.0002472  )
         3           O1  tau(   3) = (   0.0006271   0.0005054   7.9858123  )
         4           O1  tau(   4) = (   3.2906025   0.0005020   7.3038282  )
         5           O1  tau(   5) = (   4.5942328   1.4918067   9.2879030  )
         6           O1  tau(   6) = (   1.9868534   1.4903216   9.2879459  )
         7           Ti1 tau(   7) = (   3.2907910   2.8959150   9.1758416  )
         8           Ti1 tau(   8) = (   0.0015273   1.4827037   9.2680791  )
         9           O1  tau(   9) = (   3.2951577   0.0167633  11.2896499  )
        10           O1  tau(  10) = (   0.0116148   5.9584955  10.6183126  )
        11           O1  tau(  11) = (   1.3222759   1.5071707  12.6129440  )
        12           O1  tau(  12) = (   5.3060066   1.5095485  12.6267335  )
        13           Ti1 tau(  13) = (   6.4824898   3.0013615  12.7357613  )
        14           Ti1 tau(  14) = (   3.1735365   1.4973312  12.4739500  )
        15           O1  tau(  15) = (   0.0245190   0.0017265  14.5963640  )
        16           O1  tau(  16) = (   3.2983568   0.0259644  13.8884976  )
        17           O1  tau(  17) = (   4.5535709   1.5599051  15.9919625  )
        18           O1  tau(  18) = (   2.0723989   1.5598234  15.9883263  )
        19           Ti1 tau(  19) = (   3.3263631   3.0313633  15.6478355  )
        20           Ti1 tau(  20) = (   0.0083359   1.6222165  16.0589653  )
        21           O1  tau(  21) = (   3.2904802   0.0005063   4.7018136  )
        22           O1  tau(  22) = (   0.0206953   0.0548308  17.2083480  )
        23           O1  tau(  23) = (   1.3043587   1.4918075   6.0039043  )
        24           O1  tau(  24) = (   5.2767064   1.4903225   6.0039473  )
        25           Ti1 tau(  25) = (   0.0000382   5.9609847   6.0000000  )
        26           Ti1 tau(  26) = (   3.2902200   4.4714249   6.0002472  )
        27           O1  tau(  27) = (   0.0002396   2.9813036   7.9858123  )
        28           O1  tau(  28) = (   3.2902150   2.9813002   7.3038282  )
        29           O1  tau(  29) = (   4.5938453   4.4726049   9.2879030  )
        30           O1  tau(  30) = (   1.9864658   4.4711199   9.2879459  )
        31           Ti1 tau(  31) = (   3.2891106   5.8743827   9.1763621  )
        32           Ti1 tau(  32) = (   0.0006254   4.4649316   9.2693709  )
        33           O1  tau(  33) = (   3.2909539   2.9954008  11.2901670  )
        34           O1  tau(  34) = (   0.0092240   2.9805883  10.6323155  )
        35           O1  tau(  35) = (   1.3211080   4.4795309  12.6092917  )
        36           O1  tau(  36) = (   5.3058445   4.4798052  12.6251394  )
        37           Ti1 tau(  37) = (   6.5140999   0.0198189  12.7603067  )
        38           Ti1 tau(  38) = (   3.1705570   4.4938763  12.4677136  )
        39           O1  tau(  39) = (   0.0016069   2.9863809  14.6467327  )
        40           O1  tau(  40) = (   3.3112668   3.0122049  13.8485686  )
        41           O1  tau(  41) = (   4.5534170   4.5051619  16.0179686  )
        42           O1  tau(  42) = (   2.0797414   4.5084034  16.0201905  )
        43           Ti1 tau(  43) = (   3.2815144   0.0627375  15.7417980  )
        44           Ti1 tau(  44) = (   0.0076503   4.5954094  16.1032789  )
        45           O1  tau(  45) = (   3.2900926   2.9813045   4.7018136  )
        46           O1  tau(  46) = (   1.3039711   4.4726057   6.0039043  )
        47           O1  tau(  47) = (   5.2763189   4.4711207   6.0039473  )
        48           N1  tau(  48) = (   0.0651939   3.0276870  17.3250544  )
        49           C1  tau(  49) = (   0.3375872   3.0185870  18.7284822  )
        50           H1  tau(  50) = (   0.4544735   4.0311245  19.1352477  )
        51           H1  tau(  51) = (   6.1015407   2.5302758  19.2785169  )
        52           H1  tau(  52) = (   1.2508204   2.4494767  18.9518403  )
        53           O1  tau(  53) = (   3.3357083   0.1159715  18.1615364  )
        54           H1  tau(  54) = (   4.1514219   5.6051498  18.3929375  )
        55           H1  tau(  55) = (   2.5926282   5.5337384  18.4710493  )

     number of k points=    10  Fermi-Dirac smearing, width (Ry)=  0.0073
                       cart. coord. in units 2pi/alat
        k(    1) = (   0.0000000   0.0000000   0.0000000), wk =   0.1250000
        k(    2) = (   0.0000000   0.0419351   0.0000000), wk =   0.2500000
        k(    3) = (   0.0000000  -0.0838702   0.0000000), wk =   0.1250000
        k(    4) = (   0.0379955   0.0000049   0.0000000), wk =   0.2500000
        k(    5) = (   0.0379955   0.0419400   0.0000000), wk =   0.2500000
        k(    6) = (   0.0379955  -0.0838652   0.0000000), wk =   0.2500000
        k(    7) = (   0.0379955  -0.0419301   0.0000000), wk =   0.2500000
        k(    8) = (  -0.0759910  -0.0000099   0.0000000), wk =   0.1250000
        k(    9) = (  -0.0759910   0.0419252   0.0000000), wk =   0.2500000
        k(   10) = (  -0.0759910  -0.0838800   0.0000000), wk =   0.1250000

     Initial potential from superposition of free atoms

     starting charge  381.99915, renormalised to  398.00000

     negative rho (up, down):  1.656E-02 0.000E+00

     %%%%%%%%%%%%%%%%%%%%%%%%%%%%%%%%%%%%%%%%%%%%%%%%%%%%%%%%%%%%%%%%%%%%%%%%
     %                                                                      %
     % You are using vdW-DF, which was implemented by the Thonhauser group. %
     % Please cite the following two papers that made this development      %
     % possible and the two reviews that describe the various versions:     %
     %                                                                      %
     %   T. Thonhauser et al., PRL 115, 136402 (2015).                      %
     %   T. Thonhauser et al., PRB 76, 125112 (2007).                       %
     %   K. Berland et al., Rep. Prog. Phys. 78, 066501 (2015).             %
     %   D.C. Langreth et al., J. Phys.: Condens. Matter 21, 084203 (2009). %
     %                                                                      %
     %                                                                      %
     % If you are calculating the stress with vdW-DF, please also cite:     %
     %                                                                      %
     %   R. Sabatini et al., J. Phys.: Condens. Matter 24, 424209 (2012).   %
     %                                                                      %
     %%%%%%%%%%%%%%%%%%%%%%%%%%%%%%%%%%%%%%%%%%%%%%%%%%%%%%%%%%%%%%%%%%%%%%%%

     Adding external electric field

     Computed dipole along edir(3) :
        Dipole               -9.1119 Ry au,        -23.1600 Debye
        Dipole field         -0.0172 Ry au,

        Potential amp.        1.5940 Ry
        Total length         46.3494 bohr

     Starting wfcs are  301 atomic wfcs
  @ DRIVER MODE: Message from server: STATUS
  @ DRIVER MODE: Message from server: POSDATA
  @ DRIVER MODE: Reading and sharing cell
  @ DRIVER MODE: Reading and sharing positions
  @ DRIVER MODE: Received positions

     Self-consistent Calculation

     iteration #  1     ecut=    29.40 Ry     beta= 0.05
     Davidson diagonalization with overlap
     c_bands:  1 eigenvalues not converged
     c_bands:  1 eigenvalues not converged
     c_bands:  1 eigenvalues not converged
     c_bands:  1 eigenvalues not converged
     c_bands:  1 eigenvalues not converged
     c_bands:  1 eigenvalues not converged
     c_bands:  1 eigenvalues not converged
     c_bands:  2 eigenvalues not converged
     ethr =  1.00E-05,  avg # of iterations = 19.6

[...]

     total energy              =   -2564.52438876 Ry
     estimated scf accuracy    <    4317.38465731 Ry

     iteration #  2     ecut=    29.40 Ry     beta= 0.05
     Davidson diagonalization with overlap
     ethr =  1.00E-02,  avg # of iterations = 23.7

[...]

     iteration # 51     ecut=    29.40 Ry     beta= 0.05
     Davidson diagonalization with overlap
     c_bands:  1 eigenvalues not converged
     ethr =  4.88E-07,  avg # of iterations =  9.7

[...]

     total energy              =   -2953.97093575 Ry
     estimated scf accuracy    <       0.00000010 Ry

     iteration # 74     ecut=    29.40 Ry     beta= 0.05
     Davidson diagonalization with overlap
     ethr =  2.52E-11,  avg # of iterations =  5.2

     negative rho (up, down):  1.667E-02 0.000E+00

     Adding external electric field

     Computed dipole along edir(3) :
        Dipole                0.5291 Ry au,          1.3448 Debye
        Dipole field          0.0010 Ry au,

        Potential amp.       -0.0926 Ry
        Total length         46.3494 bohr

     End of self-consistent calculation

          k = 0.0000 0.0000 0.0000 ( 18029 PWs)   bands (ev):

   -56.5876 -56.5540 -55.7127 -55.6788 -55.6682 -55.6334 -55.4986 -55.4625
   -55.3722 -55.2404 -55.2393 -55.2368 -55.2054 -55.1415 -54.7417 -54.6941
   -33.0147 -32.8625 -32.8343 -32.7637 -32.6727 -32.6408 -32.1806 -32.1508
   -32.0340 -31.9774 -31.9297 -31.9106 -31.8815 -31.8709 -31.8435 -31.8374
   -31.8181 -31.8136 -31.8017 -31.7754 -31.7742 -31.7205 -31.7141 -31.6764
   -31.6629 -31.6363 -31.6304 -31.6248 -31.6052 -31.5974 -31.5788 -31.5546
   -31.4746 -31.4495 -31.4301 -31.4155 -31.3902 -31.3664 -31.3655 -31.3469
   -31.3186 -31.2562 -31.2553 -30.9834 -30.9632 -30.9350 -30.9118 -30.7998
   -18.7900 -16.7454 -16.2874 -16.0496 -15.9453 -15.8687 -15.8234 -15.7828
   -15.6484 -15.5635 -15.5470 -15.5371 -15.4799 -15.3365 -15.2767 -15.1789
   -15.0988 -14.9596 -14.9473 -14.8999 -14.8976 -14.8610 -14.8557 -14.8064
   -14.6356 -14.5989 -14.5474 -14.4980 -14.4004 -14.1865 -13.7376 -13.6278
   -13.0455  -7.7448  -6.5844  -4.3119  -3.7856  -3.5250  -3.4882  -3.3637
    -3.3561  -3.3229  -3.1842  -3.1601  -3.0897  -3.0619  -3.0296  -2.9470
    -2.9215  -2.8734  -2.7786  -2.7594  -2.7465  -2.7437  -2.7160  -2.6037
    -2.5585  -2.5110  -2.4085  -2.2943  -2.2562  -2.2277  -2.1775  -2.1482
    -2.0937  -2.0841  -2.0732  -2.0569  -1.9634  -1.8251  -1.8150  -1.7908
    -1.7340  -1.7325  -1.7164  -1.6978  -1.6182  -1.5030  -1.4089  -1.3369
    -1.3354  -1.2504  -1.2451  -1.1921  -1.0811  -1.0193  -1.0164  -0.9885
    -0.8811  -0.8660  -0.7959  -0.7361  -0.6704  -0.6185  -0.5547  -0.5048
    -0.4712  -0.4703  -0.3755  -0.3024  -0.2783  -0.2211  -0.2153  -0.2070
    -0.1775  -0.0908  -0.0521   0.0238   0.0602   0.1069   0.1394   0.2184
     0.2795   0.3484   0.3942   0.4153   0.4769   0.5377   0.5947   0.6773
     0.7412   0.7483   0.7825   0.8350   0.8487   0.9164   1.0023   1.0302
     1.0871   1.1597   1.3323   1.3714   1.6282   1.6803   2.3245   2.6889
     2.8493   3.1448   3.3300   3.4672   3.6668   3.6785   3.6853   3.8944
     3.9282

[...]

          k = 0.0380-0.0419 0.0000 ( 17876 PWs)   bands (ev):

[...]

          k =-0.0760-0.0000 0.0000 ( 17886 PWs)   bands (ev):

[...]

          k =-0.0760-0.0839 0.0000 ( 17948 PWs)   bands (ev):

   -56.5710 -56.5705 -55.6977 -55.6934 -55.6554 -55.6464 -55.4846 -55.4763
   -55.3699 -55.2426 -55.2336 -55.2224 -55.2222 -55.1447 -54.7342 -54.7015
   -32.8484 -32.8480 -32.8317 -32.8314 -32.7169 -32.7164 -32.0042 -31.9984
   -31.9866 -31.9797 -31.9042 -31.8892 -31.8878 -31.8835 -31.8768 -31.8753
   -31.8676 -31.8596 -31.8391 -31.8226 -31.7299 -31.7236 -31.6920 -31.6841
   -31.6648 -31.6282 -31.5963 -31.5808 -31.5677 -31.5676 -31.5573 -31.5416
   -31.4887 -31.4558 -31.4472 -31.4470 -31.4418 -31.4102 -31.4082 -31.4081
   -31.3835 -31.3483 -31.1179 -31.0559 -30.9605 -30.9327 -30.9226 -30.8708
   -18.7892 -16.0964 -16.0944 -16.0584 -16.0577 -15.7926 -15.7893 -15.7054
   -15.6991 -15.5703 -15.4493 -15.3413 -15.3288 -15.2957 -15.2711 -15.1625
   -15.1417 -15.1333 -15.1235 -15.0187 -14.9986 -14.9515 -14.9344 -14.9210
   -14.9119 -14.6171 -14.6002 -14.4986 -14.4726 -14.3383 -13.7314 -13.7314
   -13.0640  -7.7383  -6.5774  -3.1954  -3.1864  -3.1560  -3.1334  -3.1327
    -3.0930  -2.9819  -2.9394  -2.9243  -2.9234  -2.8521  -2.7838  -2.7759
    -2.7039  -2.6672  -2.6519  -2.5977  -2.5876  -2.5161  -2.4882  -2.4814
    -2.4634  -2.4352  -2.4333  -2.3507  -2.2849  -2.2388  -2.2338  -2.1774
    -2.1456  -2.0875  -2.0649  -2.0482  -2.0162  -1.9739  -1.9656  -1.9268
    -1.8851  -1.8519  -1.7886  -1.6149  -1.6070  -1.6002  -1.5820  -1.4622
    -1.4478  -1.4120  -1.3769  -1.3712  -1.3099  -1.2540  -1.2146  -1.1678
    -1.0784  -1.0571  -0.9562  -0.9022  -0.8590  -0.8021  -0.6993  -0.6776
    -0.6735  -0.6584  -0.6315  -0.5623  -0.5275  -0.5219  -0.4024  -0.3766
    -0.3418  -0.3073  -0.2509  -0.2217  -0.1623  -0.1270  -0.0587  -0.0397
    -0.0041   0.0709   0.1454   0.1784   0.2377   0.2438   0.5151   0.5889
     0.7158   0.7754   0.8372   0.9073   0.9725   0.9996   1.0289   1.1636
     1.1679   1.1804   1.1808   1.2437   1.2484   1.6089   2.2057   3.2641
     3.2644   3.3306   3.3312   3.6519   3.6584   3.7647   3.7748   3.9283
     3.9420

     the Fermi energy is     2.5202 ev

!    total energy              =   -2953.97094967 Ry
     estimated scf accuracy    <       0.00000005 Ry
     smearing contrib. (-TS)   =      -0.00459295 Ry
     internal energy E=F+TS    =   -2953.96635672 Ry

     The total energy is F=E-TS. E is the sum of the following terms:
     one-electron contribution =  -24341.22128262 Ry
     hartree contribution      =   12262.44493741 Ry
     xc contribution           =    -488.77302752 Ry
     ewald contribution        =    9613.58248778 Ry
     electric field correction =       0.00052823 Ry

     convergence has been achieved in  74 iterations

     Forces acting on atoms (cartesian axes, Ry/au):

     atom    1 type  1   force =    -0.00002289   -0.00048125    0.12417851
     atom    2 type  1   force =    -0.00003529   -0.00048599   -0.15995090
     atom    3 type  2   force =     0.00020056   -0.00023190   -0.06744098
     atom    4 type  2   force =     0.00000216   -0.00010047    0.02636884
     atom    5 type  2   force =    -0.01438860    0.00191066   -0.00981548
     atom    6 type  2   force =     0.01617239    0.00232214   -0.01018911
     atom    7 type  1   force =     0.00072265   -0.00387836    0.02803340
     atom    8 type  1   force =    -0.00033997   -0.00437516    0.10890927
     atom    9 type  2   force =     0.00001716    0.00001927    0.00036578
     atom   10 type  2   force =    -0.00226639    0.00267100   -0.07322955
     atom   11 type  2   force =     0.00072890   -0.00003175   -0.00012444
     atom   12 type  2   force =    -0.00038471    0.00005367   -0.00008662
     atom   13 type  1   force =    -0.00001137    0.00014030   -0.00087552
     atom   14 type  1   force =    -0.00033078    0.00049206   -0.00071949
     atom   15 type  2   force =     0.00003926   -0.00051748    0.00071913
     atom   16 type  2   force =    -0.00017677   -0.00000122    0.00063763
     atom   17 type  2   force =    -0.00033143   -0.00023041   -0.00029794
     atom   18 type  2   force =    -0.00004265   -0.00006337    0.00017371
     atom   19 type  1   force =     0.00044203    0.00004662   -0.00032368
     atom   20 type  1   force =    -0.00016424    0.00146393    0.00165784
     atom   21 type  2   force =     0.00006551   -0.00003893    0.09955560
     atom   22 type  2   force =     0.00007743   -0.00063974   -0.00004402
     atom   23 type  2   force =    -0.07960381   -0.00006587   -0.03242549
     atom   24 type  2   force =     0.07947455    0.00037490   -0.03248443
     atom   25 type  1   force =     0.00000413   -0.00057134    0.12379558
     atom   26 type  1   force =    -0.00010766   -0.00063024   -0.16007285
     atom   27 type  2   force =     0.00033340   -0.00035329   -0.06651210
     atom   28 type  2   force =    -0.00002407    0.00016938    0.02539084
     atom   29 type  2   force =    -0.01497800    0.00189152   -0.00979054
     atom   30 type  2   force =     0.01666397    0.00241757   -0.01012276
     atom   31 type  1   force =     0.00078566   -0.00074987    0.02332161
     atom   32 type  1   force =    -0.00023632    0.00201574    0.10954451
     atom   33 type  2   force =     0.00003898   -0.00026479    0.00063390
     atom   34 type  2   force =    -0.00213680    0.00207113   -0.07131634
     atom   35 type  2   force =     0.00015036   -0.00012234    0.00002614
     atom   36 type  2   force =    -0.00011463   -0.00025708   -0.00004324
     atom   37 type  1   force =     0.00042659   -0.00001555   -0.00036204
     atom   38 type  1   force =     0.00003609   -0.00056187   -0.00049000
     atom   39 type  2   force =     0.00012021    0.00013041    0.00196634
     atom   40 type  2   force =    -0.00007642   -0.00024348    0.00050100
     atom   41 type  2   force =     0.00092307   -0.00043559    0.00009337
     atom   42 type  2   force =    -0.00120988   -0.00052114    0.00063081
     atom   43 type  1   force =     0.00003490   -0.00040068    0.00008608
     atom   44 type  1   force =    -0.00028786   -0.00109455    0.00065239
     atom   45 type  2   force =     0.00005388   -0.00004673    0.09951715
     atom   46 type  2   force =    -0.07961267    0.00000227   -0.03244625
     atom   47 type  2   force =     0.07949017    0.00043055   -0.03247289
     atom   48 type  3   force =    -0.00243956   -0.00106979   -0.01681297
     atom   49 type  4   force =     0.00085827    0.00041782    0.00777388
     atom   50 type  5   force =    -0.00025600    0.00026181    0.00126944
     atom   51 type  5   force =    -0.00011612   -0.00089627    0.00185356
     atom   52 type  5   force =     0.00100488   -0.00017847    0.00109095
     atom   53 type  2   force =    -0.00061269   -0.00015647   -0.00085245
     atom   54 type  5   force =     0.00079642    0.00037891    0.00073036
     atom   55 type  5   force =     0.00064402    0.00002979   -0.00017551

     Total force =     0.423175     Total SCF correction =     0.000734
  @ DRIVER MODE: Message from server: STATUS
  @ DRIVER MODE: Message from server: GETFORCE
  @ DRIVER MODE: Returning v,forces,stress,ensemble

     Writing output data file ./calc.save/
  @ DRIVER MODE: Message from server: EXIT
  @ DRIVE MODE: Exiting

     General routines

     Parallel routines

   This run was terminated on:  17:38:15  15Sep2021

   JOB DONE.