     Program PWSCF v.6.7GPU starts on 22Sep2021 at  3:58:18

     R & G space division:  proc/nbgrp/npool/nimage =      10
     Reading input from /storage/home/hcoda1/3/ntian30/research/carbon/CxH_vib/CH_calc/ads_slab/CHNHNHH2O_b/out_0016/pw.inp
Warning: card &CELL ignored
Warning: card   CELL_DYNAMICS='IPI', ignored
Warning: card / ignored

     Current dimensions of program PWSCF are:
     Max number of different atomic species (ntypx) = 10
     Max number of k-points (npk) =  40000
     Max angular momentum in pseudopotentials (lmaxx) =  3
     Presently no symmetry can be used with electric field

     Message from routine cell_base_init:
     DEPRECATED: use true lattice parameter, not A to a.u. conversion factor

     IMPORTANT: XC functional enforced from input :
     Exchange-correlation= BEEF-VDW
                           (   1   4  43  14   2   0   0)
     Any further DFT definition will be discarded
     Please, verify this is what you really want

  @ DRIVER MODE: Connecting to
 qe_1139763_2927424.sched-torque.pace.gatech.eduvi7k3dpp_scratch
  using UNIX socket
  @ DRIVER MODE: Message from server: STATUS
  @ DRIVER MODE: Message from server: INIT
  @ DRIVER MODE: Receiving replica           0          -1
  @ DRIVER MODE: Receiving encoded integer          25
  @ DRIVER MODE:  SCF:  T  FORCE:  T  STRESS:  F  VC:  F  ENSEMBLE:  F
  @ DRIVER MODE:  SCF:  T  FORCE:  T  STRESS:  F  VC:  F  ENSEMBLE:  F

     Using Slab Decomposition

     bravais-lattice index     =            0
     lattice parameter (alat)  =       1.8897  a.u.
     unit-cell volume          =    6658.9804 (a.u.)^3
     number of atoms/cell      =           56
     number of atomic types    =            5
     number of electrons       =       403.00
     number of Kohn-Sham states=          211
     kinetic-energy cutoff     =      29.3995  Ry
     charge density cutoff     =     293.9946  Ry
     scf convergence threshold =      7.3E-08
     mixing beta               =       0.0500
     number of iterations used =            8  plain     mixing
     Exchange-correlation= BEEF-VDW
                           (   1   4  43  14   2   0   0)

     celldm(1)=   1.889726  celldm(2)=   0.000000  celldm(3)=   0.000000
     celldm(4)=   0.000000  celldm(5)=   0.000000  celldm(6)=   0.000000

     crystal axes: (cart. coord. in units of alat)
               a(1) = (   6.579727   0.000000   0.000000 )
               a(2) = (  -0.000775   5.961596   0.000000 )
               a(3) = (   0.000000   0.000000  25.155947 )

     reciprocal axes: (cart. coord. in units 2 pi/alat)
               b(1) = (  0.151982  0.000020  0.000000 )
               b(2) = (  0.000000  0.167740  0.000000 )
               b(3) = (  0.000000  0.000000  0.039752 )

     PseudoPot. # 1 for Ti read from file:
     /storage/coda1/p-amedford6/0/shared/rich_project_chbe-medford/medford-share/data/pseudos_module/espresso/nninc/pbe/van/Ti.UPF
     MD5 check sum: 8e4df49b7f0d34bbd5052bf3f5ea0213
     Pseudo is Ultrasoft, Zval = 12.0
     Generated by new atomic code, or converted to UPF format
     Using radial grid of  851 points,  6 beta functions with:
                l(1) =   0
                l(2) =   0
                l(3) =   1
                l(4) =   1
                l(5) =   2
                l(6) =   2
     Q(r) pseudized with  8 coefficients,  rinner =    1.000   1.000   1.000
                                                       1.000   1.000

     PseudoPot. # 2 for O  read from file:
     /storage/coda1/p-amedford6/0/shared/rich_project_chbe-medford/medford-share/data/pseudos_module/espresso/nninc/pbe/van/O.UPF
     MD5 check sum: 78c19812648e8988a0fe644b0f25305e
     Pseudo is Ultrasoft, Zval =  6.0
     Generated by new atomic code, or converted to UPF format
     Using radial grid of  737 points,  4 beta functions with:
                l(1) =   0
                l(2) =   0
                l(3) =   1
                l(4) =   1
     Q(r) pseudized with  8 coefficients,  rinner =    0.800   0.800   0.800

     PseudoPot. # 3 for N  read from file:
     /storage/coda1/p-amedford6/0/shared/rich_project_chbe-medford/medford-share/data/pseudos_module/espresso/nninc/pbe/van/N.UPF
     MD5 check sum: 90d10febe142ad51ac9d5be1deb811c4
     Pseudo is Ultrasoft, Zval =  5.0
     Generated by new atomic code, or converted to UPF format
     Using radial grid of  729 points,  4 beta functions with:
                l(1) =   0
                l(2) =   0
                l(3) =   1
                l(4) =   1
     Q(r) pseudized with  8 coefficients,  rinner =    0.800   0.800   0.800

     PseudoPot. # 4 for C  read from file:
     /storage/coda1/p-amedford6/0/shared/rich_project_chbe-medford/medford-share/data/pseudos_module/espresso/nninc/pbe/van/C.UPF
     MD5 check sum: 1a69bf6b8db32088f5b2163dbdb77a27
     Pseudo is Ultrasoft, Zval =  4.0
     Generated by new atomic code, or converted to UPF format
     Using radial grid of  721 points,  4 beta functions with:
                l(1) =   0
                l(2) =   0
                l(3) =   1
                l(4) =   1
     Q(r) pseudized with  8 coefficients,  rinner =    0.800   0.800   0.800

     PseudoPot. # 5 for H  read from file:
     /storage/coda1/p-amedford6/0/shared/rich_project_chbe-medford/medford-share/data/pseudos_module/espresso/nninc/pbe/van/H.UPF
     MD5 check sum: b5ee9d7bfd3a09ee7748110bda690ff7
     Pseudo is Ultrasoft, Zval =  1.0
     Generated by new atomic code, or converted to UPF format
     Using radial grid of  615 points,  1 beta functions with:
                l(1) =   0
     Q(r) pseudized with  8 coefficients,  rinner =    0.800

     atomic species   valence    mass     pseudopotential
        Ti1           12.00    47.86700     Ti( 1.00)
        O1             6.00    15.99900     O ( 1.00)
        N1             5.00    14.00700     N ( 1.00)
        C1             4.00    12.01100     C ( 1.00)
        H1             1.00     1.00800     H ( 1.00)

     No symmetry found

   Cartesian axes

     site n.     atom                  positions (alat units)
         1           Ti1 tau(   1) = (   0.0004258   2.9801865   6.0000000  )
         2           Ti1 tau(   2) = (   3.2906075   1.4906267   6.0002472  )
         3           O1  tau(   3) = (   0.0006271   0.0005054   7.9858123  )
         4           O1  tau(   4) = (   3.2906025   0.0005020   7.3038282  )
         5           O1  tau(   5) = (   4.5942328   1.4918067   9.2879030  )
         6           O1  tau(   6) = (   1.9868534   1.4903216   9.2879459  )
         7           Ti1 tau(   7) = (   3.2907910   2.8959150   9.1758416  )
         8           Ti1 tau(   8) = (   0.0015273   1.4827037   9.2680791  )
         9           O1  tau(   9) = (   3.2780774   5.9605562  11.3537357  )
        10           O1  tau(  10) = (   0.0116148   5.9584955  10.6183126  )
        11           O1  tau(  11) = (   1.2922713   1.4781662  12.6511241  )
        12           O1  tau(  12) = (   5.2965393   1.5043564  12.6031353  )
        13           Ti1 tau(  13) = (   6.5273184   3.0207086  12.5807821  )
        14           Ti1 tau(  14) = (   3.2344070   1.4559942  12.5004267  )
        15           O1  tau(  15) = (   6.4759410   0.0295824  14.6525783  )
        16           O1  tau(  16) = (   3.3604338   0.0238249  13.9383540  )
        17           O1  tau(  17) = (   4.5324113   1.5808541  16.1066768  )
        18           O1  tau(  18) = (   1.9684897   1.4712893  15.8817925  )
        19           Ti1 tau(  19) = (   3.2566353   3.0739815  15.8599551  )
        20           Ti1 tau(  20) = (   6.5466614   1.5318677  15.7800735  )
        21           O1  tau(  21) = (   3.2904802   0.0005063   4.7018136  )
        22           O1  tau(  22) = (   6.5744325   0.0155309  17.2227980  )
        23           O1  tau(  23) = (   1.3043587   1.4918075   6.0039043  )
        24           O1  tau(  24) = (   5.2767064   1.4903225   6.0039473  )
        25           Ti1 tau(  25) = (   0.0000382   5.9609847   6.0000000  )
        26           Ti1 tau(  26) = (   3.2902200   4.4714249   6.0002472  )
        27           O1  tau(  27) = (   0.0002396   2.9813036   7.9858123  )
        28           O1  tau(  28) = (   3.2902150   2.9813002   7.3038282  )
        29           O1  tau(  29) = (   4.5938453   4.4726049   9.2879030  )
        30           O1  tau(  30) = (   1.9864658   4.4711199   9.2879459  )
        31           Ti1 tau(  31) = (   3.2891106   5.8743827   9.1763621  )
        32           Ti1 tau(  32) = (   0.0006254   4.4649316   9.2693709  )
        33           O1  tau(  33) = (   3.2727763   2.9788165  11.3438337  )
        34           O1  tau(  34) = (   0.0092240   2.9805883  10.6323155  )
        35           O1  tau(  35) = (   1.2865780   4.4896361  12.6556599  )
        36           O1  tau(  36) = (   5.2967437   4.4749066  12.6066920  )
        37           Ti1 tau(  37) = (   6.5467059   0.0356701  12.5108493  )
        38           Ti1 tau(  38) = (   3.2305653   4.4019604  12.5605372  )
        39           O1  tau(  39) = (   6.5199767   2.9846217  14.6905747  )
        40           O1  tau(  40) = (   3.2851694   3.0254550  13.9321539  )
        41           O1  tau(  41) = (   4.5310495   4.4602642  16.1636806  )
        42           O1  tau(  42) = (   1.9842988   4.5744318  15.9411167  )
        43           Ti1 tau(  43) = (   3.2691225   0.1036042  15.7405456  )
        44           Ti1 tau(  44) = (   6.5697781   4.6877429  16.0360384  )
        45           O1  tau(  45) = (   3.2900926   2.9813045   4.7018136  )
        46           O1  tau(  46) = (   1.3039711   4.4726057   6.0039043  )
        47           O1  tau(  47) = (   5.2763189   4.4711207   6.0039473  )
        48           N1  tau(  48) = (   1.2792381   2.8578196  18.3696018  )
        49           N1  tau(  49) = (   0.1888888   2.9646215  17.5057353  )
        50           C1  tau(  50) = (   2.5352320   2.9181513  18.0382144  )
        51           H1  tau(  51) = (   3.1442446   2.7411670  18.9317345  )
        52           H1  tau(  52) = (   1.0014291   2.6635404  19.3302151  )
        53           H1  tau(  53) = (   5.9397212   2.8571719  18.0851170  )
        54           O1  tau(  54) = (   3.2630597   0.0341043  18.2348460  )
        55           H1  tau(  55) = (   4.0455299   5.4198958  18.2485053  )
        56           H1  tau(  56) = (   2.4923979   5.4091459  18.3156537  )

     number of k points=    10  Fermi-Dirac smearing, width (Ry)=  0.0073
                       cart. coord. in units 2pi/alat
        k(    1) = (   0.0000000   0.0000000   0.0000000), wk =   0.1250000
        k(    2) = (   0.0000000   0.0419351   0.0000000), wk =   0.2500000
        k(    3) = (   0.0000000  -0.0838702   0.0000000), wk =   0.1250000
        k(    4) = (   0.0379955   0.0000049   0.0000000), wk =   0.2500000
        k(    5) = (   0.0379955   0.0419400   0.0000000), wk =   0.2500000
        k(    6) = (   0.0379955  -0.0838652   0.0000000), wk =   0.2500000
        k(    7) = (   0.0379955  -0.0419301   0.0000000), wk =   0.2500000
        k(    8) = (  -0.0759910  -0.0000099   0.0000000), wk =   0.1250000
        k(    9) = (  -0.0759910   0.0419252   0.0000000), wk =   0.2500000
        k(   10) = (  -0.0759910  -0.0838800   0.0000000), wk =   0.1250000

     Initial potential from superposition of free atoms

     starting charge  386.99914, renormalised to  403.00000

     negative rho (up, down):  1.738E-02 0.000E+00

     %%%%%%%%%%%%%%%%%%%%%%%%%%%%%%%%%%%%%%%%%%%%%%%%%%%%%%%%%%%%%%%%%%%%%%%%
     %                                                                      %
     % You are using vdW-DF, which was implemented by the Thonhauser group. %
     % Please cite the following two papers that made this development      %
     % possible and the two reviews that describe the various versions:     %
     %                                                                      %
     %   T. Thonhauser et al., PRL 115, 136402 (2015).                      %
     %   T. Thonhauser et al., PRB 76, 125112 (2007).                       %
     %   K. Berland et al., Rep. Prog. Phys. 78, 066501 (2015).             %
     %   D.C. Langreth et al., J. Phys.: Condens. Matter 21, 084203 (2009). %
     %                                                                      %
     %                                                                      %
     % If you are calculating the stress with vdW-DF, please also cite:     %
     %                                                                      %
     %   R. Sabatini et al., J. Phys.: Condens. Matter 24, 424209 (2012).   %
     %                                                                      %
     %%%%%%%%%%%%%%%%%%%%%%%%%%%%%%%%%%%%%%%%%%%%%%%%%%%%%%%%%%%%%%%%%%%%%%%%

     Adding external electric field

     Computed dipole along edir(3) :
        Dipole              -12.3463 Ry au,        -31.3811 Debye
        Dipole field         -0.0233 Ry au,

        Potential amp.        2.1598 Ry
        Total length         46.3494 bohr

     Starting wfcs are  305 atomic wfcs
  @ DRIVER MODE: Message from server: STATUS
  @ DRIVER MODE: Message from server: POSDATA
  @ DRIVER MODE: Reading and sharing cell
  @ DRIVER MODE: Reading and sharing positions
  @ DRIVER MODE: Received positions

     Self-consistent Calculation

     iteration #  1     ecut=    29.40 Ry     beta= 0.05
     Davidson diagonalization with overlap
     c_bands:  5 eigenvalues not converged
     c_bands:  3 eigenvalues not converged
     c_bands:  3 eigenvalues not converged
     c_bands:  1 eigenvalues not converged
     c_bands:  2 eigenvalues not converged
     c_bands:  2 eigenvalues not converged
     c_bands:  5 eigenvalues not converged
     c_bands:  2 eigenvalues not converged
     c_bands:  4 eigenvalues not converged
     ethr =  1.00E-05,  avg # of iterations = 29.3

[...]

     total energy              =   -2358.73176904 Ry
     estimated scf accuracy    <    6971.28828636 Ry

     iteration #  2     ecut=    29.40 Ry     beta= 0.05
     Davidson diagonalization with overlap
     ethr =  1.00E-02,  avg # of iterations = 25.9

[...]

     iteration # 71     ecut=    29.40 Ry     beta= 0.05
     Davidson diagonalization with overlap
     c_bands:  1 eigenvalues not converged
     ethr =  4.93E-11,  avg # of iterations = 10.9

[...]

     total energy              =   -2973.94006355 Ry
     estimated scf accuracy    <       0.00000010 Ry

     iteration # 72     ecut=    29.40 Ry     beta= 0.05
     Davidson diagonalization with overlap
     ethr =  2.57E-11,  avg # of iterations = 11.6

     negative rho (up, down):  1.725E-02 0.000E+00

     Adding external electric field

     Computed dipole along edir(3) :
        Dipole                1.3977 Ry au,          3.5526 Debye
        Dipole field          0.0026 Ry au,

        Potential amp.       -0.2445 Ry
        Total length         46.3494 bohr

     End of self-consistent calculation

          k = 0.0000 0.0000 0.0000 ( 18029 PWs)   bands (ev):

   -55.3200 -55.2860 -55.2111 -55.1866 -55.1681 -55.1565 -55.1412 -55.1193
   -55.1073 -55.1049 -55.0987 -55.0641 -54.9929 -54.8337 -54.3009 -54.2669
   -31.8042 -31.7320 -31.6575 -31.6509 -31.6409 -31.6120 -31.5883 -31.5653
   -31.5206 -31.5016 -31.4725 -31.4648 -31.4562 -31.4415 -31.4261 -31.4224
   -31.3990 -31.3810 -31.3773 -31.3658 -31.3359 -31.3339 -31.3297 -31.3267
   -31.3239 -31.3202 -31.3160 -31.2979 -31.2902 -31.2801 -31.2731 -31.2724
   -31.2628 -31.2613 -31.2531 -31.2490 -31.2409 -31.2155 -31.2112 -31.0901
   -31.0749 -31.0496 -30.7078 -30.6197 -30.5973 -30.5247 -30.4383 -30.3270
   -18.8750 -18.6516 -15.9784 -15.7945 -15.6133 -15.4746 -15.3926 -15.1610
   -15.1026 -15.0641 -14.9829 -14.9596 -14.8597 -14.8408 -14.8390 -14.8210
   -14.8181 -14.7631 -14.7477 -14.7434 -14.6949 -14.6881 -14.6628 -14.6473
   -14.5941 -14.5161 -14.5074 -14.4611 -14.4158 -14.3694 -14.0227 -13.4108
   -12.8017 -12.6853  -8.8064  -7.2674  -6.6144  -4.3117  -3.7885  -3.3613
    -3.2844  -3.2499  -3.2250  -3.0890  -2.9724  -2.8655  -2.7563  -2.6715
    -2.5853  -2.4809  -2.4241  -2.3787  -2.3179  -2.2581  -2.2321  -2.1463
    -2.1265  -2.1070  -2.0850  -2.0588  -2.0291  -1.9914  -1.8695  -1.8588
    -1.7767  -1.7204  -1.6815  -1.6639  -1.6402  -1.6344  -1.6006  -1.5815
    -1.5731  -1.5613  -1.5598  -1.5245  -1.3857  -1.3616  -1.3330  -1.3105
    -1.1639  -1.0262  -0.9373  -0.9353  -0.8257  -0.7609  -0.7580  -0.7194
    -0.7037  -0.6013  -0.5162  -0.4795  -0.4548  -0.3750  -0.3176  -0.2633
    -0.2115  -0.1755  -0.1096  -0.0853  -0.0692  -0.0522   0.0172   0.0795
     0.1408   0.2264   0.2696   0.2937   0.3848   0.3993   0.4211   0.4867
     0.5186   0.5636   0.5988   0.6279   0.6516   0.6821   0.7074   0.7504
     0.7888   0.9142   0.9328   0.9608   0.9821   1.1566   1.2064   1.3070
     1.3390   1.4408   1.4833   1.6618   1.7230   1.8027   1.9149   2.2932
     2.3390   3.7889   3.9003   3.9343   3.9593   3.9986   4.0497   4.2567
     4.3295   4.3706   4.4290

[...]

          k = 0.0380-0.0419 0.0000 ( 17876 PWs)   bands (ev):

[...]

          k =-0.0760-0.0000 0.0000 ( 17886 PWs)   bands (ev):

[...]

          k =-0.0760-0.0839 0.0000 ( 17948 PWs)   bands (ev):

   -55.3033 -55.3026 -55.2016 -55.1832 -55.1768 -55.1450 -55.1312 -55.1242
   -55.1237 -55.1085 -55.0854 -55.0775 -54.9912 -54.8353 -54.2839 -54.2838
   -31.6197 -31.6193 -31.5977 -31.5972 -31.5662 -31.5342 -31.5030 -31.4905
   -31.4836 -31.4684 -31.4497 -31.4444 -31.4405 -31.4312 -31.4263 -31.4242
   -31.4227 -31.4223 -31.4176 -31.4017 -31.3907 -31.3768 -31.3658 -31.3636
   -31.3587 -31.3543 -31.3450 -31.3325 -31.3267 -31.3253 -31.3102 -31.3010
   -31.2974 -31.2971 -31.2954 -31.2923 -31.2620 -31.2342 -31.2202 -31.1465
   -31.0924 -31.0779 -30.6100 -30.6100 -30.5206 -30.5205 -30.4816 -30.4815
   -18.8641 -18.6581 -15.3558 -15.3206 -15.2827 -15.2555 -15.2394 -15.1186
   -15.1044 -15.0689 -15.0273 -15.0143 -14.9840 -14.9553 -14.9066 -14.8980
   -14.8639 -14.8444 -14.8052 -14.7787 -14.7595 -14.7551 -14.7384 -14.7168
   -14.6731 -14.6514 -14.6390 -14.6347 -14.5827 -14.4882 -14.2078 -13.4334
   -12.7871 -12.7870  -8.8022  -7.1927  -6.6155  -4.5203  -3.5721  -2.8630
    -2.6692  -2.6315  -2.5786  -2.4889  -2.4417  -2.3198  -2.3131  -2.2905
    -2.2452  -2.2321  -2.1911  -2.1512  -2.1453  -2.1174  -2.1050  -2.0604
    -2.0491  -2.0459  -2.0316  -1.9977  -1.9926  -1.9721  -1.9478  -1.9447
    -1.9342  -1.9182  -1.8849  -1.8780  -1.8506  -1.8314  -1.6804  -1.6059
    -1.5635  -1.4862  -1.4633  -1.4464  -1.4272  -1.3926  -1.3724  -1.3466
    -1.3183  -1.1723  -1.0306  -0.9973  -0.9723  -0.8740  -0.8586  -0.8394
    -0.7924  -0.7508  -0.7151  -0.6566  -0.6484  -0.6016  -0.5807  -0.4606
    -0.4232  -0.3239  -0.2886  -0.2871  -0.2690  -0.2545  -0.2372  -0.2113
    -0.1616  -0.0908  -0.0752  -0.0266  -0.0029  -0.0002   0.0130   0.1591
     0.2295   0.2504   0.3527   0.3826   0.5573   0.7215   0.7330   0.8014
     0.8639   0.9189   0.9528   0.9926   1.0025   1.0671   1.0948   1.1974
     1.2083   1.2572   1.2619   1.3413   1.3535   2.0867   2.0884   2.1589
     2.1591   4.1529   4.1670   4.1965   4.2596   4.3030   4.3145   4.3523
     4.3559   4.4589   4.4765

     the Fermi energy is     3.8070 ev

!    total energy              =   -2973.94009510 Ry
     estimated scf accuracy    <       0.00000006 Ry
     smearing contrib. (-TS)   =      -0.02072844 Ry
     internal energy E=F+TS    =   -2973.91936666 Ry

     The total energy is F=E-TS. E is the sum of the following terms:
     one-electron contribution =  -24338.95534361 Ry
     hartree contribution      =   12267.17736108 Ry
     xc contribution           =    -494.11637571 Ry
     ewald contribution        =    9591.97130503 Ry
     electric field correction =       0.00368655 Ry

     convergence has been achieved in  72 iterations

     Forces acting on atoms (cartesian axes, Ry/au):

     atom    1 type  1   force =     0.00002467   -0.00009818    0.09508734
     atom    2 type  1   force =     0.00018186   -0.00069000   -0.17563434
     atom    3 type  2   force =     0.00008781   -0.00004382   -0.02296056
     atom    4 type  2   force =     0.00002188   -0.00143180    0.05289666
     atom    5 type  2   force =    -0.01000324   -0.00031525    0.00380132
     atom    6 type  2   force =     0.01112573    0.00020207    0.00205536
     atom    7 type  1   force =    -0.00021661    0.00178247   -0.00588808
     atom    8 type  1   force =     0.00081304    0.01008965    0.01605764
     atom    9 type  2   force =    -0.00015575    0.00088022    0.00032216
     atom   10 type  2   force =    -0.00227222    0.00217961   -0.01801930
     atom   11 type  2   force =     0.00024348   -0.00002837    0.00007810
     atom   12 type  2   force =    -0.00035040   -0.00018244    0.00055426
     atom   13 type  1   force =    -0.00002315    0.00125562    0.00020080
     atom   14 type  1   force =    -0.00011876    0.00007033   -0.00000676
     atom   15 type  2   force =     0.00011512    0.00029024   -0.00001316
     atom   16 type  2   force =    -0.00036881    0.00045105   -0.00026955
     atom   17 type  2   force =    -0.00022358   -0.00013234    0.00008757
     atom   18 type  2   force =     0.00014218    0.00040100    0.00078281
     atom   19 type  1   force =    -0.00048852    0.00079262   -0.00040580
     atom   20 type  1   force =    -0.00028755   -0.00018933    0.00013430
     atom   21 type  2   force =     0.00009087   -0.00008472    0.10318635
     atom   22 type  2   force =     0.00037593   -0.00001163    0.00050354
     atom   23 type  2   force =    -0.07160379   -0.00016452   -0.02755196
     atom   24 type  2   force =     0.07156137    0.00024963   -0.02759985
     atom   25 type  1   force =     0.00023561   -0.00039190    0.09519767
     atom   26 type  1   force =    -0.00003520   -0.00020847   -0.17579765
     atom   27 type  2   force =     0.00012160   -0.00012720   -0.02198927
     atom   28 type  2   force =     0.00001373   -0.00139870    0.05322318
     atom   29 type  2   force =    -0.01035035   -0.00022927    0.00364219
     atom   30 type  2   force =     0.01138703    0.00042176    0.00191062
     atom   31 type  1   force =    -0.00030019    0.00266347   -0.00008905
     atom   32 type  1   force =     0.00067790   -0.01113590    0.01693687
     atom   33 type  2   force =     0.00036916   -0.00028299   -0.00000118
     atom   34 type  2   force =    -0.00033890    0.00143591   -0.01895164
     atom   35 type  2   force =    -0.00001172   -0.00035449   -0.00017385
     atom   36 type  2   force =     0.00000364   -0.00024386    0.00043177
     atom   37 type  1   force =    -0.00005089   -0.00122782    0.00034970
     atom   38 type  1   force =    -0.00039951    0.00088892    0.00006251
     atom   39 type  2   force =     0.00009309    0.00005370    0.00009193
     atom   40 type  2   force =    -0.00048596   -0.00055107   -0.00004174
     atom   41 type  2   force =     0.00026428   -0.00010532    0.00015969
     atom   42 type  2   force =    -0.00040267    0.00003514   -0.00068214
     atom   43 type  1   force =    -0.00028342   -0.00040501    0.00053326
     atom   44 type  1   force =     0.00010291   -0.00030565    0.00021029
     atom   45 type  2   force =     0.00010002   -0.00010319    0.10321085
     atom   46 type  2   force =    -0.07158890   -0.00017214   -0.02754769
     atom   47 type  2   force =     0.07158925    0.00024272   -0.02755776
     atom   48 type  3   force =     0.00042152    0.00124085   -0.00052088
     atom   49 type  3   force =     0.00012251    0.00010223    0.00018395
     atom   50 type  4   force =     0.00049686   -0.00418980    0.00268408
     atom   51 type  5   force =    -0.00087458    0.00080149   -0.00158457
     atom   52 type  5   force =     0.00022254   -0.00152107   -0.00093112
     atom   53 type  5   force =     0.00013012   -0.00044827   -0.00061756
     atom   54 type  2   force =    -0.00000895    0.00133628   -0.00012829
     atom   55 type  5   force =     0.00009357   -0.00024846   -0.00000374
     atom   56 type  5   force =     0.00001433   -0.00084398    0.00039075

     Total force =     0.365237     Total SCF correction =     0.000648
  @ DRIVER MODE: Message from server: STATUS
  @ DRIVER MODE: Message from server: GETFORCE
  @ DRIVER MODE: Returning v,forces,stress,ensemble

     Writing output data file ./calc.save/
  @ DRIVER MODE: Message from server: EXIT
  @ DRIVE MODE: Exiting

     General routines

     Parallel routines

   This run was terminated on:   4:20: 9  22Sep2021

   JOB DONE.