     Program PWSCF v.6.7GPU starts on 28Sep2021 at  3: 0:28

     R & G space division:  proc/nbgrp/npool/nimage =       8
     Reading input from /storage/home/hcoda1/3/ntian30/research/carbon/CxH_vib/H2O_calc/ads_slab/CHNHO_a/out_0013/pw.inp
Warning: card &CELL ignored
Warning: card   CELL_DYNAMICS='IPI', ignored
Warning: card / ignored

     Current dimensions of program PWSCF are:
     Max number of different atomic species (ntypx) = 10
     Max number of k-points (npk) =  40000
     Max angular momentum in pseudopotentials (lmaxx) =  3
     Presently no symmetry can be used with electric field

     Message from routine cell_base_init:
     DEPRECATED: use true lattice parameter, not A to a.u. conversion factor

     IMPORTANT: XC functional enforced from input :
     Exchange-correlation= BEEF-VDW
                           (   1   4  43  14   2   0   0)
     Any further DFT definition will be discarded
     Please, verify this is what you really want

  @ DRIVER MODE: Connecting to
 qe_1139763_3003541.sched-torque.pace.gatech.edua85hx3zi_scratch
  using UNIX socket
  @ DRIVER MODE: Message from server: STATUS
  @ DRIVER MODE: Message from server: INIT
  @ DRIVER MODE: Receiving replica           0          -1
  @ DRIVER MODE: Receiving encoded integer          25
  @ DRIVER MODE:  SCF:  T  FORCE:  T  STRESS:  F  VC:  F  ENSEMBLE:  F
  @ DRIVER MODE:  SCF:  T  FORCE:  T  STRESS:  F  VC:  F  ENSEMBLE:  F

     Using Slab Decomposition

     bravais-lattice index     =            0
     lattice parameter (alat)  =       1.8897  a.u.
     unit-cell volume          =    6658.9804 (a.u.)^3
     number of atoms/cell      =           52
     number of atomic types    =            5
     number of electrons       =       395.00
     number of Kohn-Sham states=          207
     kinetic-energy cutoff     =      29.3995  Ry
     charge density cutoff     =     293.9946  Ry
     scf convergence threshold =      7.3E-08
     mixing beta               =       0.0500
     number of iterations used =            8  plain     mixing
     Exchange-correlation= BEEF-VDW
                           (   1   4  43  14   2   0   0)

     celldm(1)=   1.889726  celldm(2)=   0.000000  celldm(3)=   0.000000
     celldm(4)=   0.000000  celldm(5)=   0.000000  celldm(6)=   0.000000

     crystal axes: (cart. coord. in units of alat)
               a(1) = (   6.579727   0.000000   0.000000 )
               a(2) = (  -0.000775   5.961596   0.000000 )
               a(3) = (   0.000000   0.000000  25.155947 )

     reciprocal axes: (cart. coord. in units 2 pi/alat)
               b(1) = (  0.151982  0.000020  0.000000 )
               b(2) = (  0.000000  0.167740  0.000000 )
               b(3) = (  0.000000  0.000000  0.039752 )

     PseudoPot. # 1 for Ti read from file:
     /storage/coda1/p-amedford6/0/shared/rich_project_chbe-medford/medford-share/data/pseudos_module/espresso/nninc/pbe/van/Ti.UPF
     MD5 check sum: 8e4df49b7f0d34bbd5052bf3f5ea0213
     Pseudo is Ultrasoft, Zval = 12.0
     Generated by new atomic code, or converted to UPF format
     Using radial grid of  851 points,  6 beta functions with:
                l(1) =   0
                l(2) =   0
                l(3) =   1
                l(4) =   1
                l(5) =   2
                l(6) =   2
     Q(r) pseudized with  8 coefficients,  rinner =    1.000   1.000   1.000
                                                       1.000   1.000

     PseudoPot. # 2 for O  read from file:
     /storage/coda1/p-amedford6/0/shared/rich_project_chbe-medford/medford-share/data/pseudos_module/espresso/nninc/pbe/van/O.UPF
     MD5 check sum: 78c19812648e8988a0fe644b0f25305e
     Pseudo is Ultrasoft, Zval =  6.0
     Generated by new atomic code, or converted to UPF format
     Using radial grid of  737 points,  4 beta functions with:
                l(1) =   0
                l(2) =   0
                l(3) =   1
                l(4) =   1
     Q(r) pseudized with  8 coefficients,  rinner =    0.800   0.800   0.800

     PseudoPot. # 3 for N  read from file:
     /storage/coda1/p-amedford6/0/shared/rich_project_chbe-medford/medford-share/data/pseudos_module/espresso/nninc/pbe/van/N.UPF
     MD5 check sum: 90d10febe142ad51ac9d5be1deb811c4
     Pseudo is Ultrasoft, Zval =  5.0
     Generated by new atomic code, or converted to UPF format
     Using radial grid of  729 points,  4 beta functions with:
                l(1) =   0
                l(2) =   0
                l(3) =   1
                l(4) =   1
     Q(r) pseudized with  8 coefficients,  rinner =    0.800   0.800   0.800

     PseudoPot. # 4 for C  read from file:
     /storage/coda1/p-amedford6/0/shared/rich_project_chbe-medford/medford-share/data/pseudos_module/espresso/nninc/pbe/van/C.UPF
     MD5 check sum: 1a69bf6b8db32088f5b2163dbdb77a27
     Pseudo is Ultrasoft, Zval =  4.0
     Generated by new atomic code, or converted to UPF format
     Using radial grid of  721 points,  4 beta functions with:
                l(1) =   0
                l(2) =   0
                l(3) =   1
                l(4) =   1
     Q(r) pseudized with  8 coefficients,  rinner =    0.800   0.800   0.800

     PseudoPot. # 5 for H  read from file:
     /storage/coda1/p-amedford6/0/shared/rich_project_chbe-medford/medford-share/data/pseudos_module/espresso/nninc/pbe/van/H.UPF
     MD5 check sum: b5ee9d7bfd3a09ee7748110bda690ff7
     Pseudo is Ultrasoft, Zval =  1.0
     Generated by new atomic code, or converted to UPF format
     Using radial grid of  615 points,  1 beta functions with:
                l(1) =   0
     Q(r) pseudized with  8 coefficients,  rinner =    0.800

     atomic species   valence    mass     pseudopotential
        Ti1           12.00    47.86700     Ti( 1.00)
        O1             6.00    15.99900     O ( 1.00)
        N1             5.00    14.00700     N ( 1.00)
        C1             4.00    12.01100     C ( 1.00)
        H1             1.00     1.00800     H ( 1.00)

     No symmetry found

   Cartesian axes

     site n.     atom                  positions (alat units)
         1           Ti1 tau(   1) = (   0.0004258   2.9801865   6.0000000  )
         2           Ti1 tau(   2) = (   3.2906075   1.4906267   6.0002472  )
         3           O1  tau(   3) = (   0.0006271   0.0005054   7.9858123  )
         4           O1  tau(   4) = (   3.2906025   0.0005020   7.3038282  )
         5           O1  tau(   5) = (   4.5942328   1.4918067   9.2879030  )
         6           O1  tau(   6) = (   1.9868534   1.4903216   9.2879459  )
         7           Ti1 tau(   7) = (   3.2907910   2.8959150   9.1758416  )
         8           Ti1 tau(   8) = (   0.0015273   1.4827037   9.2680791  )
         9           O1  tau(   9) = (   3.2959632   0.0395795  11.3506057  )
        10           O1  tau(  10) = (   0.0116148   5.9584955  10.6183126  )
        11           O1  tau(  11) = (   1.2788542   1.5152540  12.6826201  )
        12           O1  tau(  12) = (   5.3118026   1.5181145  12.6771052  )
        13           Ti1 tau(  13) = (   6.5565567   2.9614743  12.5245697  )
        14           Ti1 tau(  14) = (   3.2956814   1.5864178  12.4516600  )
        15           O1  tau(  15) = (   0.0252471   5.9065102  14.6673769  )
        16           O1  tau(  16) = (   3.3061784   5.9134112  13.9760755  )
        17           O1  tau(  17) = (   4.5493393   1.5513651  16.1111979  )
        18           O1  tau(  18) = (   2.0154464   1.5530992  16.0877549  )
        19           Ti1 tau(  19) = (   3.2773477   2.9896638  15.7021987  )
        20           Ti1 tau(  20) = (   0.0480268   1.3694702  15.7882682  )
        21           O1  tau(  21) = (   3.2904802   0.0005063   4.7018136  )
        22           O1  tau(  22) = (   6.5727385   0.1062933  17.1740559  )
        23           O1  tau(  23) = (   1.3043587   1.4918075   6.0039043  )
        24           O1  tau(  24) = (   5.2767064   1.4903225   6.0039473  )
        25           Ti1 tau(  25) = (   0.0000382   5.9609847   6.0000000  )
        26           Ti1 tau(  26) = (   3.2902200   4.4714249   6.0002472  )
        27           O1  tau(  27) = (   0.0002396   2.9813036   7.9858123  )
        28           O1  tau(  28) = (   3.2902150   2.9813002   7.3038282  )
        29           O1  tau(  29) = (   4.5938453   4.4726049   9.2879030  )
        30           O1  tau(  30) = (   1.9864658   4.4711199   9.2879459  )
        31           Ti1 tau(  31) = (   3.2891106   5.8743827   9.1763621  )
        32           Ti1 tau(  32) = (   0.0006254   4.4649316   9.2693709  )
        33           O1  tau(  33) = (   3.2965180   2.9598593  11.3174316  )
        34           O1  tau(  34) = (   0.0092240   2.9805883  10.6323155  )
        35           O1  tau(  35) = (   1.2824442   4.4846720  12.6503842  )
        36           O1  tau(  36) = (   5.3188658   4.4853930  12.6478368  )
        37           Ti1 tau(  37) = (   0.0485215   5.9261111  12.5025588  )
        38           Ti1 tau(  38) = (   3.3111372   4.6778342  12.7091208  )
        39           O1  tau(  39) = (   6.5585416   3.0335453  14.9077256  )
        40           O1  tau(  40) = (   3.2962521   3.0064119  13.9315977  )
        41           O1  tau(  41) = (   4.5433468   4.4479239  16.1972702  )
        42           O1  tau(  42) = (   2.0131479   4.4365031  16.1967174  )
        43           Ti1 tau(  43) = (   3.3705753   0.0290894  16.3529554  )
        44           Ti1 tau(  44) = (   0.0540424   4.5922997  16.0496824  )
        45           O1  tau(  45) = (   3.2900926   2.9813045   4.7018136  )
        46           O1  tau(  46) = (   1.3039711   4.4726057   6.0039043  )
        47           O1  tau(  47) = (   5.2763189   4.4711207   6.0039473  )
        48           N1  tau(  48) = (   6.5754701   3.2032128  17.9785674  )
        49           C1  tau(  49) = (   6.5468619   2.3444050  18.7439128  )
        50           H1  tau(  50) = (   6.5091205   1.5204410  19.4189644  )
        51           O1  tau(  51) = (   3.3183073   0.1146119  18.2142577  )
        52           H1  tau(  52) = (   3.2686675   5.2273609  18.6755658  )

     number of k points=    10  Fermi-Dirac smearing, width (Ry)=  0.0073
                       cart. coord. in units 2pi/alat
        k(    1) = (   0.0000000   0.0000000   0.0000000), wk =   0.1250000
        k(    2) = (   0.0000000   0.0419351   0.0000000), wk =   0.2500000
        k(    3) = (   0.0000000  -0.0838702   0.0000000), wk =   0.1250000
        k(    4) = (   0.0379955   0.0000049   0.0000000), wk =   0.2500000
        k(    5) = (   0.0379955   0.0419400   0.0000000), wk =   0.2500000
        k(    6) = (   0.0379955  -0.0838652   0.0000000), wk =   0.2500000
        k(    7) = (   0.0379955  -0.0419301   0.0000000), wk =   0.2500000
        k(    8) = (  -0.0759910  -0.0000099   0.0000000), wk =   0.1250000
        k(    9) = (  -0.0759910   0.0419252   0.0000000), wk =   0.2500000
        k(   10) = (  -0.0759910  -0.0838800   0.0000000), wk =   0.1250000

     Initial potential from superposition of free atoms

     starting charge  378.99918, renormalised to  395.00000

     negative rho (up, down):  1.719E-02 0.000E+00

     %%%%%%%%%%%%%%%%%%%%%%%%%%%%%%%%%%%%%%%%%%%%%%%%%%%%%%%%%%%%%%%%%%%%%%%%
     %                                                                      %
     % You are using vdW-DF, which was implemented by the Thonhauser group. %
     % Please cite the following two papers that made this development      %
     % possible and the two reviews that describe the various versions:     %
     %                                                                      %
     %   T. Thonhauser et al., PRL 115, 136402 (2015).                      %
     %   T. Thonhauser et al., PRB 76, 125112 (2007).                       %
     %   K. Berland et al., Rep. Prog. Phys. 78, 066501 (2015).             %
     %   D.C. Langreth et al., J. Phys.: Condens. Matter 21, 084203 (2009). %
     %                                                                      %
     %                                                                      %
     % If you are calculating the stress with vdW-DF, please also cite:     %
     %                                                                      %
     %   R. Sabatini et al., J. Phys.: Condens. Matter 24, 424209 (2012).   %
     %                                                                      %
     %%%%%%%%%%%%%%%%%%%%%%%%%%%%%%%%%%%%%%%%%%%%%%%%%%%%%%%%%%%%%%%%%%%%%%%%

     Adding external electric field

     Computed dipole along edir(3) :
        Dipole               -8.1496 Ry au,        -20.7143 Debye
        Dipole field         -0.0154 Ry au,

        Potential amp.        1.4257 Ry
        Total length         46.3494 bohr

     Starting wfcs are  298 atomic wfcs
  @ DRIVER MODE: Message from server: STATUS
  @ DRIVER MODE: Message from server: POSDATA
  @ DRIVER MODE: Reading and sharing cell
  @ DRIVER MODE: Reading and sharing positions
  @ DRIVER MODE: Received positions

     Self-consistent Calculation

     iteration #  1     ecut=    29.40 Ry     beta= 0.05
     Davidson diagonalization with overlap
     c_bands:  1 eigenvalues not converged
     c_bands:  2 eigenvalues not converged
     c_bands:  2 eigenvalues not converged
     c_bands:  3 eigenvalues not converged
     c_bands:  3 eigenvalues not converged
     c_bands:  1 eigenvalues not converged
     c_bands:  1 eigenvalues not converged
     ethr =  1.00E-05,  avg # of iterations = 19.3

[...]

     total energy              =   -2615.12181547 Ry
     estimated scf accuracy    <    3704.53857649 Ry

     iteration #  2     ecut=    29.40 Ry     beta= 0.05
     Davidson diagonalization with overlap
     ethr =  1.00E-02,  avg # of iterations = 23.3

[...]

     iteration # 55     ecut=    29.40 Ry     beta= 0.05
     Davidson diagonalization with overlap
     c_bands:  1 eigenvalues not converged
     ethr =  2.57E-08,  avg # of iterations = 12.2

[...]

     total energy              =   -2950.24122124 Ry
     estimated scf accuracy    <       0.00000020 Ry

     iteration # 70     ecut=    29.40 Ry     beta= 0.05
     Davidson diagonalization with overlap
     ethr =  5.11E-11,  avg # of iterations =  9.2

     negative rho (up, down):  1.736E-02 0.000E+00

     Adding external electric field

     Computed dipole along edir(3) :
        Dipole                1.2372 Ry au,          3.1446 Debye
        Dipole field          0.0023 Ry au,

        Potential amp.       -0.2164 Ry
        Total length         46.3494 bohr

     End of self-consistent calculation

          k = 0.0000 0.0000 0.0000 ( 18029 PWs)   bands (ev):

   -55.6682 -55.6172 -55.5832 -55.4461 -55.4419 -55.4411 -55.4094 -55.4089
   -55.4088 -55.3686 -55.3254 -55.2878 -55.2062 -55.0973 -54.5804 -54.5464
   -32.1009 -32.0166 -32.0128 -31.9458 -31.9336 -31.9083 -31.8909 -31.8812
   -31.8630 -31.8554 -31.8193 -31.7699 -31.7293 -31.7229 -31.7147 -31.7082
   -31.6975 -31.6911 -31.6749 -31.6535 -31.6494 -31.6407 -31.6382 -31.6211
   -31.6180 -31.5907 -31.5902 -31.5867 -31.5702 -31.5657 -31.5580 -31.5433
   -31.5415 -31.5216 -31.4897 -31.4790 -31.4759 -31.4192 -31.3997 -31.3487
   -31.3168 -31.3077 -30.9857 -30.9010 -30.8785 -30.8035 -30.7172 -30.6052
   -17.2614 -16.5949 -16.2428 -16.0794 -15.8604 -15.7801 -15.7485 -15.5622
   -15.4504 -15.4021 -15.1912 -15.1488 -15.1317 -15.1144 -15.0907 -15.0862
   -15.0715 -15.0322 -15.0321 -15.0150 -14.9957 -14.9613 -14.9446 -14.8956
   -14.8162 -14.8092 -14.7470 -14.6725 -14.6263 -14.3544 -14.3329 -13.0789
   -12.9627  -8.7362  -4.4750  -4.1509  -3.5982  -3.5149  -3.4866  -3.4405
    -3.3679  -3.2700  -3.0989  -3.0901  -2.9786  -2.9216  -2.8146  -2.7157
    -2.6452  -2.5990  -2.5413  -2.5084  -2.4712  -2.4281  -2.3917  -2.3515
    -2.3250  -2.3159  -2.2571  -2.2283  -2.1308  -2.1240  -2.0862  -1.9935
    -1.9758  -1.9290  -1.9214  -1.9178  -1.8639  -1.8489  -1.8324  -1.7979
    -1.6774  -1.6531  -1.6471  -1.5881  -1.5238  -1.2130  -1.2033  -1.1441
    -1.0680  -1.0367  -1.0104  -0.9923  -0.9312  -0.8931  -0.8788  -0.8609
    -0.7876  -0.6930  -0.6604  -0.6121  -0.4589  -0.4520  -0.3979  -0.3786
    -0.3517  -0.3126  -0.2599  -0.1910  -0.1638  -0.1405  -0.0096   0.0116
     0.0591   0.0732   0.1178   0.1663   0.2007   0.2673   0.3178   0.3392
     0.3567   0.3677   0.4004   0.4203   0.5121   0.5447   0.5944   0.6597
     0.7186   0.7357   0.7886   0.9465   1.0421   1.0697   1.1804   1.3992
     1.4460   1.4985   1.6421   2.0116   2.0565   3.4716   3.6211   3.6380
     3.7275   3.7389   3.8245   3.9592   4.0529   4.1743   4.2192

[...]

          k = 0.0380-0.0419 0.0000 ( 17876 PWs)   bands (ev):

[...]

          k =-0.0760-0.0000 0.0000 ( 17886 PWs)   bands (ev):

[...]

          k =-0.0760-0.0839 0.0000 ( 17948 PWs)   bands (ev):

   -55.6675 -55.6003 -55.6000 -55.4393 -55.4312 -55.4267 -55.4251 -55.4225
   -55.4094 -55.3605 -55.3335 -55.2897 -55.2036 -55.0997 -54.5633 -54.5633
   -31.9558 -31.9434 -31.9163 -31.9162 -31.8939 -31.8937 -31.8932 -31.8695
   -31.7993 -31.7572 -31.7555 -31.7480 -31.7350 -31.7203 -31.7200 -31.7080
   -31.7022 -31.6995 -31.6940 -31.6711 -31.6707 -31.6574 -31.6432 -31.6279
   -31.6265 -31.6239 -31.6155 -31.6063 -31.6047 -31.5983 -31.5953 -31.5802
   -31.5736 -31.5567 -31.5497 -31.5064 -31.4941 -31.4685 -31.4372 -31.4036
   -31.3545 -31.3121 -30.8912 -30.8912 -30.7988 -30.7985 -30.7605 -30.7603
   -17.2542 -16.5861 -15.8702 -15.6500 -15.5805 -15.5753 -15.4403 -15.3702
   -15.3476 -15.3184 -15.3022 -15.2658 -15.2412 -15.2254 -15.1822 -15.1593
   -15.1256 -15.1075 -15.0926 -15.0536 -15.0430 -15.0176 -15.0084 -14.9921
   -14.9350 -14.9132 -14.9042 -14.7711 -14.7364 -14.6645 -14.4730 -13.0646
   -13.0646  -8.7340  -4.4554  -4.1638  -3.3015  -3.1066  -3.0215  -2.8621
    -2.7959  -2.6737  -2.6493  -2.6132  -2.5463  -2.5298  -2.4992  -2.4543
    -2.3942  -2.3726  -2.3671  -2.3425  -2.3322  -2.3015  -2.2859  -2.2760
    -2.2709  -2.2448  -2.2300  -2.2174  -2.1922  -2.1620  -2.1595  -2.1430
    -2.1266  -2.0531  -1.9888  -1.9405  -1.8161  -1.7619  -1.7510  -1.7370
    -1.7220  -1.6842  -1.6775  -1.6389  -1.6134  -1.5017  -1.4216  -1.3782
    -1.3070  -1.1971  -1.1775  -1.1688  -1.1058  -1.0738  -1.0398  -1.0380
    -0.9325  -0.9022  -0.8166  -0.7626  -0.7277  -0.6621  -0.5712  -0.5561
    -0.5465  -0.5237  -0.5037  -0.4880  -0.4616  -0.4241  -0.3424  -0.3053
    -0.3004  -0.2995  -0.2481  -0.1738  -0.1103   0.0762   0.1640   0.1717
     0.2198   0.2574   0.4509   0.4858   0.5142   0.5293   0.5763   0.6287
     0.6926   0.7088   0.7568   0.8221   0.9121   0.9380   0.9708   0.9818
     1.0282   1.8103   1.8179   1.8768   1.8770   3.6417   3.9480   3.9868
     4.0049   4.0131   4.0517   4.0555   4.0750   4.1527   4.1626

     the Fermi energy is     3.5056 ev

!    total energy              =   -2950.24124200 Ry
     estimated scf accuracy    <       0.00000006 Ry
     smearing contrib. (-TS)   =      -0.01956814 Ry
     internal energy E=F+TS    =   -2950.22167386 Ry

     The total energy is F=E-TS. E is the sum of the following terms:
     one-electron contribution =  -23960.76045684 Ry
     hartree contribution      =   12071.35694068 Ry
     xc contribution           =    -486.32566480 Ry
     ewald contribution        =    9425.50461858 Ry
     electric field correction =       0.00288852 Ry

     convergence has been achieved in  70 iterations

     Forces acting on atoms (cartesian axes, Ry/au):

     atom    1 type  1   force =     0.00007531   -0.00023053    0.09446022
     atom    2 type  1   force =     0.00000481    0.00017000   -0.17481944
     atom    3 type  2   force =     0.00002724   -0.00043573   -0.02144238
     atom    4 type  2   force =     0.00004014   -0.00080253    0.05275049
     atom    5 type  2   force =    -0.00431480   -0.00229507    0.00043391
     atom    6 type  2   force =     0.00597687   -0.00164553    0.00006660
     atom    7 type  1   force =    -0.00012016    0.00326420    0.01148328
     atom    8 type  1   force =     0.00013921    0.00254884    0.00475393
     atom    9 type  2   force =    -0.00017610    0.00026754   -0.00024197
     atom   10 type  2   force =    -0.00077715    0.00345374   -0.01163034
     atom   11 type  2   force =     0.00053681   -0.00039903    0.00028106
     atom   12 type  2   force =    -0.00003649   -0.00024670    0.00011967
     atom   13 type  1   force =    -0.00102496   -0.00038725    0.00002812
     atom   14 type  1   force =     0.00081326    0.00051848   -0.00016508
     atom   15 type  2   force =     0.00021357   -0.00009945   -0.00063252
     atom   16 type  2   force =    -0.00032956   -0.00071618    0.00087147
     atom   17 type  2   force =     0.00076795    0.00009193   -0.00056750
     atom   18 type  2   force =    -0.00041078   -0.00016660    0.00016057
     atom   19 type  1   force =     0.00051771    0.00085480    0.00027376
     atom   20 type  1   force =     0.00012607   -0.00026277   -0.00021468
     atom   21 type  2   force =     0.00008612    0.00000102    0.10300512
     atom   22 type  2   force =     0.00005834    0.00082490   -0.00019985
     atom   23 type  2   force =    -0.07226313   -0.00017624   -0.02735963
     atom   24 type  2   force =     0.07223642    0.00023421   -0.02740739
     atom   25 type  1   force =     0.00014442   -0.00025258    0.09438342
     atom   26 type  1   force =    -0.00008927   -0.00124140   -0.17479964
     atom   27 type  2   force =     0.00020463   -0.00006416   -0.02022382
     atom   28 type  2   force =     0.00009414   -0.00096059    0.04854938
     atom   29 type  2   force =    -0.00685080    0.00192956    0.00269524
     atom   30 type  2   force =     0.00839894    0.00226487    0.00215912
     atom   31 type  1   force =     0.00004670    0.00104457    0.00135916
     atom   32 type  1   force =     0.00009971   -0.00336513    0.00510689
     atom   33 type  2   force =    -0.00015849   -0.00021174    0.00010690
     atom   34 type  2   force =    -0.00192576   -0.00084066   -0.01110176
     atom   35 type  2   force =     0.00068575   -0.00019853    0.00001895
     atom   36 type  2   force =    -0.00006029    0.00010927    0.00001501
     atom   37 type  1   force =    -0.00124552   -0.00011359   -0.00036314
     atom   38 type  1   force =     0.00068574    0.00014034    0.00068621
     atom   39 type  2   force =     0.00024808   -0.00079533    0.00005666
     atom   40 type  2   force =    -0.00035549   -0.00013714    0.00020758
     atom   41 type  2   force =    -0.00082453   -0.00050796    0.00021164
     atom   42 type  2   force =     0.00041046   -0.00051921   -0.00021945
     atom   43 type  1   force =     0.00023360   -0.00010176    0.00000416
     atom   44 type  1   force =    -0.00081315   -0.00037236    0.00003187
     atom   45 type  2   force =     0.00008123    0.00003888    0.10285108
     atom   46 type  2   force =    -0.07219009   -0.00008235   -0.02728880
     atom   47 type  2   force =     0.07218836    0.00037954   -0.02734460
     atom   48 type  3   force =     0.00046361    0.00035299   -0.00089854
     atom   49 type  4   force =    -0.00117274   -0.00098724    0.00081827
     atom   50 type  5   force =     0.00026736    0.00059468   -0.00025974
     atom   51 type  2   force =    -0.00019552    0.00073837   -0.00132164
     atom   52 type  5   force =    -0.00053778   -0.00120738    0.00055219

     Total force =     0.361545     Total SCF correction =     0.000517
  @ DRIVER MODE: Message from server: STATUS
  @ DRIVER MODE: Message from server: GETFORCE
  @ DRIVER MODE: Returning v,forces,stress,ensemble

     Writing output data file ./calc.save/
  @ DRIVER MODE: Message from server: EXIT
  @ DRIVE MODE: Exiting

     General routines

     Parallel routines

   This run was terminated on:   3:23:38  28Sep2021

   JOB DONE.