     Program PWSCF v.6.7GPU starts on  3Aug2021 at  1: 4:47

     R & G space division:  proc/nbgrp/npool/nimage =      16
     Reading input from /storage/home/hcoda1/3/ntian30/research/carbon/02Aug_vib_paired/ads_slab/CH3NHHH_a/out_0042/pw.inp
Warning: card &CELL ignored
Warning: card   CELL_DYNAMICS='IPI', ignored
Warning: card / ignored

     Current dimensions of program PWSCF are:
     Max number of different atomic species (ntypx) = 10
     Max number of k-points (npk) =  40000
     Max angular momentum in pseudopotentials (lmaxx) =  3
     Presently no symmetry can be used with electric field

     Message from routine cell_base_init:
     DEPRECATED: use true lattice parameter, not A to a.u. conversion factor

     IMPORTANT: XC functional enforced from input :
     Exchange-correlation= BEEF-VDW
                           (   1   4  43  14   2   0   0)
     Any further DFT definition will be discarded
     Please, verify this is what you really want

  @ DRIVER MODE: Connecting to
 qe_1139763_2482537.sched-torque.pace.gatech.edu0gm91qcj_scratch
  using UNIX socket
  @ DRIVER MODE: Message from server: STATUS
  @ DRIVER MODE: Message from server: INIT
  @ DRIVER MODE: Receiving replica           0          -1
  @ DRIVER MODE: Receiving encoded integer          25
  @ DRIVER MODE:  SCF:  T  FORCE:  T  STRESS:  F  VC:  F  ENSEMBLE:  F
  @ DRIVER MODE:  SCF:  T  FORCE:  T  STRESS:  F  VC:  F  ENSEMBLE:  F

     Using Slab Decomposition

     bravais-lattice index     =            0
     lattice parameter (alat)  =       1.8897  a.u.
     unit-cell volume          =    6658.9804 (a.u.)^3
     number of atoms/cell      =           55
     number of atomic types    =            5
     number of electrons       =       393.00
     number of Kohn-Sham states=          206
     kinetic-energy cutoff     =      29.3995  Ry
     charge density cutoff     =     293.9946  Ry
     scf convergence threshold =      7.3E-08
     mixing beta               =       0.0500
     number of iterations used =            8  plain     mixing
     Exchange-correlation= BEEF-VDW
                           (   1   4  43  14   2   0   0)

     celldm(1)=   1.889726  celldm(2)=   0.000000  celldm(3)=   0.000000
     celldm(4)=   0.000000  celldm(5)=   0.000000  celldm(6)=   0.000000

     crystal axes: (cart. coord. in units of alat)
               a(1) = (   6.579727   0.000000   0.000000 )
               a(2) = (  -0.000775   5.961596   0.000000 )
               a(3) = (   0.000000   0.000000  25.155947 )

     reciprocal axes: (cart. coord. in units 2 pi/alat)
               b(1) = (  0.151982  0.000020  0.000000 )
               b(2) = (  0.000000  0.167740  0.000000 )
               b(3) = (  0.000000  0.000000  0.039752 )

     PseudoPot. # 1 for Ti read from file:
     /storage/coda1/p-amedford6/0/shared/rich_project_chbe-medford/medford-share/data/pseudos_module/espresso/nninc/pbe/van/Ti.UPF
     MD5 check sum: 8e4df49b7f0d34bbd5052bf3f5ea0213
     Pseudo is Ultrasoft, Zval = 12.0
     Generated by new atomic code, or converted to UPF format
     Using radial grid of  851 points,  6 beta functions with:
                l(1) =   0
                l(2) =   0
                l(3) =   1
                l(4) =   1
                l(5) =   2
                l(6) =   2
     Q(r) pseudized with  8 coefficients,  rinner =    1.000   1.000   1.000
                                                       1.000   1.000

     PseudoPot. # 2 for O  read from file:
     /storage/coda1/p-amedford6/0/shared/rich_project_chbe-medford/medford-share/data/pseudos_module/espresso/nninc/pbe/van/O.UPF
     MD5 check sum: 78c19812648e8988a0fe644b0f25305e
     Pseudo is Ultrasoft, Zval =  6.0
     Generated by new atomic code, or converted to UPF format
     Using radial grid of  737 points,  4 beta functions with:
                l(1) =   0
                l(2) =   0
                l(3) =   1
                l(4) =   1
     Q(r) pseudized with  8 coefficients,  rinner =    0.800   0.800   0.800

     PseudoPot. # 3 for N  read from file:
     /storage/coda1/p-amedford6/0/shared/rich_project_chbe-medford/medford-share/data/pseudos_module/espresso/nninc/pbe/van/N.UPF
     MD5 check sum: 90d10febe142ad51ac9d5be1deb811c4
     Pseudo is Ultrasoft, Zval =  5.0
     Generated by new atomic code, or converted to UPF format
     Using radial grid of  729 points,  4 beta functions with:
                l(1) =   0
                l(2) =   0
                l(3) =   1
                l(4) =   1
     Q(r) pseudized with  8 coefficients,  rinner =    0.800   0.800   0.800

     PseudoPot. # 4 for C  read from file:
     /storage/coda1/p-amedford6/0/shared/rich_project_chbe-medford/medford-share/data/pseudos_module/espresso/nninc/pbe/van/C.UPF
     MD5 check sum: 1a69bf6b8db32088f5b2163dbdb77a27
     Pseudo is Ultrasoft, Zval =  4.0
     Generated by new atomic code, or converted to UPF format
     Using radial grid of  721 points,  4 beta functions with:
                l(1) =   0
                l(2) =   0
                l(3) =   1
                l(4) =   1
     Q(r) pseudized with  8 coefficients,  rinner =    0.800   0.800   0.800

     PseudoPot. # 5 for H  read from file:
     /storage/coda1/p-amedford6/0/shared/rich_project_chbe-medford/medford-share/data/pseudos_module/espresso/nninc/pbe/van/H.UPF
     MD5 check sum: b5ee9d7bfd3a09ee7748110bda690ff7
     Pseudo is Ultrasoft, Zval =  1.0
     Generated by new atomic code, or converted to UPF format
     Using radial grid of  615 points,  1 beta functions with:
                l(1) =   0
     Q(r) pseudized with  8 coefficients,  rinner =    0.800

     atomic species   valence    mass     pseudopotential
        Ti1           12.00    47.86700     Ti( 1.00)
        O1             6.00    15.99900     O ( 1.00)
        N1             5.00    14.00700     N ( 1.00)
        C1             4.00    12.01100     C ( 1.00)
        H1             1.00     1.00800     H ( 1.00)

     No symmetry found

   Cartesian axes

     site n.     atom                  positions (alat units)
         1           Ti1 tau(   1) = (   0.0004258   2.9801865   6.0000000  )
         2           Ti1 tau(   2) = (   3.2906075   1.4906267   6.0002472  )
         3           O1  tau(   3) = (   0.0006271   0.0005054   7.9858123  )
         4           O1  tau(   4) = (   3.2906025   0.0005020   7.3038282  )
         5           O1  tau(   5) = (   4.5942328   1.4918067   9.2879030  )
         6           O1  tau(   6) = (   1.9868534   1.4903216   9.2879459  )
         7           Ti1 tau(   7) = (   3.2907910   2.8959150   9.1758416  )
         8           Ti1 tau(   8) = (   0.0015273   1.4827037   9.2680791  )
         9           O1  tau(   9) = (   3.2636084   5.9406443  11.4082010  )
        10           O1  tau(  10) = (   0.0116148   5.9584955  10.6183126  )
        11           O1  tau(  11) = (   1.2642105   1.4849797  12.6947803  )
        12           O1  tau(  12) = (   5.2691575   1.4821021  12.6650678  )
        13           Ti1 tau(  13) = (   6.5574234   2.9640577  12.4921542  )
        14           Ti1 tau(  14) = (   3.2619390   1.4709553  12.5527290  )
        15           O1  tau(  15) = (   6.5247406   5.9594380  14.6832748  )
        16           O1  tau(  16) = (   3.2695906   5.9428997  14.0562986  )
        17           O1  tau(  17) = (   4.5175969   1.4707097  16.2986306  )
        18           O1  tau(  18) = (   1.9406912   1.4777946  16.2473769  )
        19           Ti1 tau(  19) = (   3.2491105   2.9422209  15.8109686  )
        20           Ti1 tau(  20) = (   6.5361480   1.3378720  15.9626387  )
        21           O1  tau(  21) = (   3.2904802   0.0005063   4.7018136  )
        22           O1  tau(  22) = (   6.5280740   5.8897732  17.4332532  )
        23           O1  tau(  23) = (   1.3043587   1.4918075   6.0039043  )
        24           O1  tau(  24) = (   5.2767064   1.4903225   6.0039473  )
        25           Ti1 tau(  25) = (   0.0000382   5.9609847   6.0000000  )
        26           Ti1 tau(  26) = (   3.2902200   4.4714249   6.0002472  )
        27           O1  tau(  27) = (   0.0002396   2.9813036   7.9858123  )
        28           O1  tau(  28) = (   3.2902150   2.9813002   7.3038282  )
        29           O1  tau(  29) = (   4.5938453   4.4726049   9.2879030  )
        30           O1  tau(  30) = (   1.9864658   4.4711199   9.2879459  )
        31           Ti1 tau(  31) = (   3.2891106   5.8743827   9.1763621  )
        32           Ti1 tau(  32) = (   0.0006254   4.4649316   9.2693709  )
        33           O1  tau(  33) = (   3.2649920   2.9642658  11.3997388  )
        34           O1  tau(  34) = (   0.0092240   2.9805883  10.6323155  )
        35           O1  tau(  35) = (   1.2634527   4.4478426  12.7061968  )
        36           O1  tau(  36) = (   5.2693862   4.4495813  12.6755241  )
        37           Ti1 tau(  37) = (   6.5522441   5.9483113  12.5008436  )
        38           Ti1 tau(  38) = (   3.2626494   4.4468850  12.5575576  )
        39           O1  tau(  39) = (   6.4970557   2.9363996  15.0046851  )
        40           O1  tau(  40) = (   3.2722650   2.9529576  14.0194401  )
        41           O1  tau(  41) = (   4.5170401   4.4205294  16.2730734  )
        42           O1  tau(  42) = (   1.9466746   4.4191161  16.2235312  )
        43           Ti1 tau(  43) = (   3.2419262   5.9323414  15.8513663  )
        44           Ti1 tau(  44) = (   6.5549466   4.5556212  15.8889459  )
        45           O1  tau(  45) = (   3.2900926   2.9813045   4.7018136  )
        46           O1  tau(  46) = (   1.3039711   4.4726057   6.0039043  )
        47           O1  tau(  47) = (   5.2763189   4.4711207   6.0039473  )
        48           N1  tau(  48) = (   4.8657738   4.5798987  19.4796958  )
        49           C1  tau(  49) = (   5.7271871   3.4329544  19.8049648  )
        50           H1  tau(  50) = (   6.3241292   3.1721029  18.9298488  )
        51           H1  tau(  51) = (   6.4229137   3.7195585  20.5942015  )
        52           H1  tau(  52) = (   5.1874390   2.5328885  20.1195193  )
        53           H1  tau(  53) = (   5.9066942   5.7389963  18.1772939  )
        54           H1  tau(  54) = (   4.2103208   4.3266459  18.7569397  )
        55           H1  tau(  55) = (   4.3187305   4.8545830  20.2870342  )

     number of k points=    10  Fermi-Dirac smearing, width (Ry)=  0.0073
                       cart. coord. in units 2pi/alat
        k(    1) = (   0.0000000   0.0000000   0.0000000), wk =   0.1250000
        k(    2) = (   0.0000000   0.0419351   0.0000000), wk =   0.2500000
        k(    3) = (   0.0000000  -0.0838702   0.0000000), wk =   0.1250000
        k(    4) = (   0.0379955   0.0000049   0.0000000), wk =   0.2500000
        k(    5) = (   0.0379955   0.0419400   0.0000000), wk =   0.2500000
        k(    6) = (   0.0379955  -0.0838652   0.0000000), wk =   0.2500000
        k(    7) = (   0.0379955  -0.0419301   0.0000000), wk =   0.2500000
        k(    8) = (  -0.0759910  -0.0000099   0.0000000), wk =   0.1250000
        k(    9) = (  -0.0759910   0.0419252   0.0000000), wk =   0.2500000
        k(   10) = (  -0.0759910  -0.0838800   0.0000000), wk =   0.1250000

     Initial potential from superposition of free atoms

     starting charge  376.99914, renormalised to  393.00000

     negative rho (up, down):  1.330E-02 0.000E+00

     %%%%%%%%%%%%%%%%%%%%%%%%%%%%%%%%%%%%%%%%%%%%%%%%%%%%%%%%%%%%%%%%%%%%%%%%
     %                                                                      %
     % You are using vdW-DF, which was implemented by the Thonhauser group. %
     % Please cite the following two papers that made this development      %
     % possible and the two reviews that describe the various versions:     %
     %                                                                      %
     %   T. Thonhauser et al., PRL 115, 136402 (2015).                      %
     %   T. Thonhauser et al., PRB 76, 125112 (2007).                       %
     %   K. Berland et al., Rep. Prog. Phys. 78, 066501 (2015).             %
     %   D.C. Langreth et al., J. Phys.: Condens. Matter 21, 084203 (2009). %
     %                                                                      %
     %                                                                      %
     % If you are calculating the stress with vdW-DF, please also cite:     %
     %                                                                      %
     %   R. Sabatini et al., J. Phys.: Condens. Matter 24, 424209 (2012).   %
     %                                                                      %
     %%%%%%%%%%%%%%%%%%%%%%%%%%%%%%%%%%%%%%%%%%%%%%%%%%%%%%%%%%%%%%%%%%%%%%%%

     Adding external electric field

     Computed dipole along edir(3) :
        Dipole               -9.4926 Ry au,        -24.1277 Debye
        Dipole field         -0.0179 Ry au,

        Potential amp.        1.6606 Ry
        Total length         46.3494 bohr

     Starting wfcs are  298 atomic wfcs
  @ DRIVER MODE: Message from server: STATUS
  @ DRIVER MODE: Message from server: POSDATA
  @ DRIVER MODE: Reading and sharing cell
  @ DRIVER MODE: Reading and sharing positions
  @ DRIVER MODE: Received positions

     Self-consistent Calculation

     iteration #  1     ecut=    29.40 Ry     beta= 0.05
     Davidson diagonalization with overlap
     c_bands:  2 eigenvalues not converged
     c_bands:  1 eigenvalues not converged
     c_bands:  2 eigenvalues not converged
     c_bands:  3 eigenvalues not converged
     c_bands:  3 eigenvalues not converged
     c_bands:  1 eigenvalues not converged
     ethr =  1.00E-05,  avg # of iterations = 18.9

[...]

     total energy              =   -2620.42769938 Ry
     estimated scf accuracy    <    3390.38324804 Ry

     iteration #  2     ecut=    29.40 Ry     beta= 0.05
     Davidson diagonalization with overlap
     ethr =  1.00E-02,  avg # of iterations = 23.0

[...]

     iteration # 54     ecut=    29.40 Ry     beta= 0.05
     Davidson diagonalization with overlap
     ethr =  6.23E-11,  avg # of iterations =  8.8

[...]

     total energy              =   -2922.77367018 Ry
     estimated scf accuracy    <       0.00000015 Ry

     iteration # 55     ecut=    29.40 Ry     beta= 0.05
     Davidson diagonalization with overlap
     c_bands:  1 eigenvalues not converged
     ethr =  3.70E-11,  avg # of iterations = 14.0

     negative rho (up, down):  1.445E-02 0.000E+00

     Adding external electric field

     Computed dipole along edir(3) :
        Dipole                1.4070 Ry au,          3.5763 Debye
        Dipole field          0.0027 Ry au,

        Potential amp.       -0.2461 Ry
        Total length         46.3494 bohr

     End of self-consistent calculation

          k = 0.0000 0.0000 0.0000 ( 18029 PWs)   bands (ev):

   -55.3062 -55.2703 -55.2544 -55.2202 -55.1703 -55.1460 -55.1450 -55.1359
   -55.1116 -55.0817 -55.0708 -55.0478 -55.0289 -54.9707 -54.2980 -54.2640
   -31.8732 -31.7486 -31.6864 -31.6586 -31.6339 -31.6131 -31.5887 -31.5480
   -31.5438 -31.5424 -31.5134 -31.5024 -31.4984 -31.4737 -31.4632 -31.4583
   -31.4448 -31.4348 -31.4073 -31.3992 -31.3946 -31.3783 -31.3698 -31.3528
   -31.3501 -31.3126 -31.3116 -31.3025 -31.3002 -31.2872 -31.2823 -31.2803
   -31.2737 -31.2728 -31.2577 -31.2547 -31.2225 -31.2091 -31.1978 -31.1924
   -31.1794 -31.1045 -30.7083 -30.6119 -30.5899 -30.5244 -30.4375 -30.3269
   -16.8236 -16.1452 -15.8888 -15.7681 -15.6593 -15.6190 -15.5182 -15.4392
   -15.3553 -15.2548 -15.1933 -15.0884 -15.0539 -15.0140 -14.9987 -14.9803
   -14.9534 -14.8733 -14.8624 -14.8518 -14.8261 -14.8077 -14.7793 -14.7707
   -14.7640 -14.7246 -14.6872 -14.5751 -14.4845 -14.3989 -12.8014 -12.6837
   -10.0310  -5.8669  -4.7483  -4.4355  -3.5255  -3.4735  -3.3410  -3.2362
    -3.2023  -3.1943  -3.0734  -2.8903  -2.7953  -2.7683  -2.6973  -2.6272
    -2.5314  -2.5276  -2.4873  -2.3870  -2.3491  -2.3224  -2.2392  -2.2125
    -2.1662  -2.1151  -2.1049  -2.1018  -2.0812  -2.0409  -2.0021  -1.8832
    -1.7985  -1.7766  -1.7030  -1.6867  -1.6806  -1.6524  -1.6093  -1.5901
    -1.5409  -1.5238  -1.4832  -1.4143  -1.3532  -1.2711  -1.2341  -1.1969
    -0.9914  -0.9621  -0.9118  -0.9092  -0.8809  -0.8124  -0.7834  -0.7534
    -0.6870  -0.6849  -0.6563  -0.5501  -0.5072  -0.3863  -0.3157  -0.2362
    -0.1144  -0.1013  -0.0773  -0.0278  -0.0042   0.0554   0.1156   0.1521
     0.1916   0.2042   0.2916   0.3208   0.3960   0.4104   0.4463   0.5135
     0.5292   0.5552   0.5693   0.5858   0.6203   0.6359   0.6703   0.7369
     0.7691   0.8705   0.9192   1.2030   1.2883   1.5973   1.6207   1.7241
     1.9053   2.3026   2.3517   3.7881   3.8492   3.8898   3.9325   3.9361
     4.0179   4.1483   4.2913   4.3010   4.3120   4.3188

[...]

          k = 0.0380-0.0419 0.0000 ( 17876 PWs)   bands (ev):

[...]

          k =-0.0760-0.0000 0.0000 ( 17886 PWs)   bands (ev):

[...]

          k =-0.0760-0.0839 0.0000 ( 17948 PWs)   bands (ev):

   -55.2896 -55.2867 -55.2376 -55.2368 -55.1537 -55.1525 -55.1410 -55.1308
   -55.1265 -55.0746 -55.0660 -55.0635 -55.0218 -54.9777 -54.2810 -54.2809
   -31.6809 -31.6758 -31.5856 -31.5801 -31.5639 -31.5633 -31.5545 -31.5281
   -31.5273 -31.5070 -31.5020 -31.5001 -31.4868 -31.4606 -31.4557 -31.4546
   -31.4289 -31.4284 -31.4218 -31.4007 -31.3784 -31.3763 -31.3660 -31.3621
   -31.3614 -31.3571 -31.3564 -31.3481 -31.3462 -31.3401 -31.3363 -31.3210
   -31.3181 -31.3055 -31.3025 -31.2912 -31.2625 -31.2457 -31.2437 -31.2411
   -31.2240 -31.1709 -30.6026 -30.6025 -30.5208 -30.5206 -30.4809 -30.4809
   -16.7623 -15.8180 -15.6203 -15.5380 -15.4970 -15.4023 -15.3285 -15.2975
   -15.2873 -15.2743 -15.1481 -15.1203 -15.1106 -15.0824 -15.0503 -15.0261
   -15.0223 -14.9871 -14.9302 -14.9242 -14.9163 -14.9081 -14.8443 -14.8361
   -14.8323 -14.8256 -14.7599 -14.7575 -14.6756 -14.6736 -12.7852 -12.7849
   -10.0406  -5.8674  -4.8744  -4.4181  -3.5395  -2.8215  -2.7939  -2.7423
    -2.7137  -2.6106  -2.5251  -2.4978  -2.4613  -2.4035  -2.3512  -2.3039
    -2.3017  -2.2660  -2.2465  -2.2279  -2.1841  -2.1623  -2.1400  -2.1217
    -2.1070  -2.0533  -2.0504  -2.0413  -2.0168  -1.9828  -1.9654  -1.9520
    -1.9357  -1.9174  -1.8919  -1.8727  -1.7298  -1.7089  -1.6685  -1.5515
    -1.5331  -1.5297  -1.4967  -1.4529  -1.4282  -1.4206  -1.3466  -1.3396
    -1.3076  -1.1498  -1.0776  -1.0758  -1.0525  -1.0287  -0.9334  -0.8820
    -0.8416  -0.7918  -0.7159  -0.6845  -0.6658  -0.5933  -0.5664  -0.4750
    -0.3855  -0.3587  -0.3504  -0.2730  -0.2715  -0.2381  -0.2250  -0.1560
    -0.0957  -0.0442  -0.0402  -0.0361   0.0925   0.1295   0.2097   0.3235
     0.4040   0.4126   0.4623   0.5241   0.5966   0.6519   0.6653   0.7907
     0.7926   0.9791   0.9824   1.0308   1.0458   1.1262   1.1314   2.0782
     2.0788   2.1712   2.1717   3.7634   3.9466   4.0008   4.0735   4.0990
     4.1972   4.2819   4.3157   4.3457   4.3682   4.3741

     the Fermi energy is     3.8566 ev

!    total energy              =   -2922.77373882 Ry
     estimated scf accuracy    <       0.00000005 Ry
     smearing contrib. (-TS)   =      -0.04551717 Ry
     internal energy E=F+TS    =   -2922.72822165 Ry

     The total energy is F=E-TS. E is the sum of the following terms:
     one-electron contribution =  -23201.30743642 Ry
     hartree contribution      =   11690.95754940 Ry
     xc contribution           =    -482.55447602 Ry
     ewald contribution        =    9070.17240545 Ry
     electric field correction =       0.00373594 Ry

     convergence has been achieved in  55 iterations

     Forces acting on atoms (cartesian axes, Ry/au):

     atom    1 type  1   force =     0.00016706   -0.00008263    0.09302378
     atom    2 type  1   force =    -0.00000868   -0.00015089   -0.17878726
     atom    3 type  2   force =     0.00001911   -0.00029877   -0.02020326
     atom    4 type  2   force =    -0.00000399   -0.00224234    0.06098260
     atom    5 type  2   force =    -0.01151652   -0.00127912    0.01054177
     atom    6 type  2   force =     0.01242628   -0.00058170    0.00810164
     atom    7 type  1   force =    -0.00124679    0.00347014   -0.01488403
     atom    8 type  1   force =     0.00122756   -0.00359028   -0.00847258
     atom    9 type  2   force =     0.00001879   -0.00004764   -0.00024564
     atom   10 type  2   force =    -0.00281682   -0.00047939    0.00151150
     atom   11 type  2   force =     0.00011572   -0.00022874   -0.00031324
     atom   12 type  2   force =     0.00000973    0.00009376   -0.00012057
     atom   13 type  1   force =    -0.00018550   -0.00030187   -0.00063032
     atom   14 type  1   force =    -0.00003708   -0.00003611    0.00019496
     atom   15 type  2   force =    -0.00011212   -0.00023765   -0.00010708
     atom   16 type  2   force =     0.00031812    0.00035304   -0.00011391
     atom   17 type  2   force =     0.00078157    0.00027554   -0.00022124
     atom   18 type  2   force =     0.00007690   -0.00027877   -0.00000081
     atom   19 type  1   force =     0.00035028    0.00054528   -0.00036633
     atom   20 type  1   force =     0.00009083    0.00007194    0.00043157
     atom   21 type  2   force =     0.00012221   -0.00003298    0.10428976
     atom   22 type  2   force =    -0.00049880    0.00017644    0.00030756
     atom   23 type  2   force =    -0.06990961   -0.00011123   -0.02678989
     atom   24 type  2   force =     0.06988253    0.00034416   -0.02679139
     atom   25 type  1   force =     0.00019423   -0.00021832    0.09230341
     atom   26 type  1   force =    -0.00008394   -0.00036662   -0.17898685
     atom   27 type  2   force =     0.00003914   -0.00025853   -0.01893565
     atom   28 type  2   force =     0.00006657   -0.00193102    0.06023203
     atom   29 type  2   force =    -0.01170486   -0.00162446    0.01033229
     atom   30 type  2   force =     0.01249140   -0.00120691    0.00786258
     atom   31 type  1   force =    -0.00101184    0.00608986   -0.01578047
     atom   32 type  1   force =     0.00116464    0.00333461   -0.00864964
     atom   33 type  2   force =     0.00003440    0.00019869   -0.00023063
     atom   34 type  2   force =    -0.00240957   -0.00053805    0.00057195
     atom   35 type  2   force =    -0.00000213   -0.00001176    0.00003331
     atom   36 type  2   force =     0.00004403   -0.00008600    0.00034526
     atom   37 type  1   force =     0.00037031   -0.00003274   -0.00004999
     atom   38 type  1   force =    -0.00035617   -0.00030021    0.00045393
     atom   39 type  2   force =     0.00037977   -0.00015988    0.00064401
     atom   40 type  2   force =     0.00024721   -0.00017710    0.00002018
     atom   41 type  2   force =     0.00005561    0.00038021   -0.00050063
     atom   42 type  2   force =     0.00047974    0.00022555   -0.00015976
     atom   43 type  1   force =     0.00033584   -0.00027233   -0.00031226
     atom   44 type  1   force =     0.00006539   -0.00129062    0.00055579
     atom   45 type  2   force =     0.00011641   -0.00005631    0.10421135
     atom   46 type  2   force =    -0.06992546   -0.00005570   -0.02678187
     atom   47 type  2   force =     0.06991313    0.00034963   -0.02680276
     atom   48 type  3   force =     0.00729234    0.00292094    0.00737424
     atom   49 type  4   force =     0.00081617    0.00121064   -0.00041392
     atom   50 type  5   force =     0.00003790    0.00006000   -0.00008225
     atom   51 type  5   force =    -0.00069031   -0.00034485    0.00018213
     atom   52 type  5   force =    -0.00017938   -0.00029547    0.00028391
     atom   53 type  5   force =     0.00011703    0.00072043   -0.00113415
     atom   54 type  5   force =    -0.00737237   -0.00286743   -0.01008682
     atom   55 type  5   force =     0.00020398    0.00125357    0.00216368

     Total force =     0.367963     Total SCF correction =     0.000686
  @ DRIVER MODE: Message from server: STATUS
  @ DRIVER MODE: Message from server: GETFORCE
  @ DRIVER MODE: Returning v,forces,stress,ensemble

     Writing output data file ./calc.save/
  @ DRIVER MODE: Message from server: EXIT
  @ DRIVE MODE: Exiting

     General routines

     Parallel routines

   This run was terminated on:   1:18:29   3Aug2021

   JOB DONE.