     Program PWSCF v.6.7GPU starts on 26Sep2021 at 21:15:31

     R & G space division:  proc/nbgrp/npool/nimage =       8
     Reading input from /storage/home/hcoda1/3/ntian30/research/carbon/CxH_vib/H2O_calc/ads_slab/CH2NHNHHO_b/out_0025/pw.inp
Warning: card &CELL ignored
Warning: card   CELL_DYNAMICS='IPI', ignored
Warning: card / ignored

     Current dimensions of program PWSCF are:
     Max number of different atomic species (ntypx) = 10
     Max number of k-points (npk) =  40000
     Max angular momentum in pseudopotentials (lmaxx) =  3
     Presently no symmetry can be used with electric field

     Message from routine cell_base_init:
     DEPRECATED: use true lattice parameter, not A to a.u. conversion factor

     IMPORTANT: XC functional enforced from input :
     Exchange-correlation= BEEF-VDW
                           (   1   4  43  14   2   0   0)
     Any further DFT definition will be discarded
     Please, verify this is what you really want

  @ DRIVER MODE: Connecting to
 qe_1139763_2971671.sched-torque.pace.gatech.edumtmnmw___scratch
  using UNIX socket
  @ DRIVER MODE: Message from server: STATUS
  @ DRIVER MODE: Message from server: INIT
  @ DRIVER MODE: Receiving replica           0          -1
  @ DRIVER MODE: Receiving encoded integer          25
  @ DRIVER MODE:  SCF:  T  FORCE:  T  STRESS:  F  VC:  F  ENSEMBLE:  F
  @ DRIVER MODE:  SCF:  T  FORCE:  T  STRESS:  F  VC:  F  ENSEMBLE:  F

     Using Slab Decomposition

     bravais-lattice index     =            0
     lattice parameter (alat)  =       1.8897  a.u.
     unit-cell volume          =    6658.9804 (a.u.)^3
     number of atoms/cell      =           56
     number of atomic types    =            5
     number of electrons       =       403.00
     number of Kohn-Sham states=          211
     kinetic-energy cutoff     =      29.3995  Ry
     charge density cutoff     =     293.9946  Ry
     scf convergence threshold =      7.3E-08
     mixing beta               =       0.0500
     number of iterations used =            8  plain     mixing
     Exchange-correlation= BEEF-VDW
                           (   1   4  43  14   2   0   0)

     celldm(1)=   1.889726  celldm(2)=   0.000000  celldm(3)=   0.000000
     celldm(4)=   0.000000  celldm(5)=   0.000000  celldm(6)=   0.000000

     crystal axes: (cart. coord. in units of alat)
               a(1) = (   6.579727   0.000000   0.000000 )
               a(2) = (  -0.000775   5.961596   0.000000 )
               a(3) = (   0.000000   0.000000  25.155947 )

     reciprocal axes: (cart. coord. in units 2 pi/alat)
               b(1) = (  0.151982  0.000020  0.000000 )
               b(2) = (  0.000000  0.167740  0.000000 )
               b(3) = (  0.000000  0.000000  0.039752 )

     PseudoPot. # 1 for Ti read from file:
     /storage/coda1/p-amedford6/0/shared/rich_project_chbe-medford/medford-share/data/pseudos_module/espresso/nninc/pbe/van/Ti.UPF
     MD5 check sum: 8e4df49b7f0d34bbd5052bf3f5ea0213
     Pseudo is Ultrasoft, Zval = 12.0
     Generated by new atomic code, or converted to UPF format
     Using radial grid of  851 points,  6 beta functions with:
                l(1) =   0
                l(2) =   0
                l(3) =   1
                l(4) =   1
                l(5) =   2
                l(6) =   2
     Q(r) pseudized with  8 coefficients,  rinner =    1.000   1.000   1.000
                                                       1.000   1.000

     PseudoPot. # 2 for O  read from file:
     /storage/coda1/p-amedford6/0/shared/rich_project_chbe-medford/medford-share/data/pseudos_module/espresso/nninc/pbe/van/O.UPF
     MD5 check sum: 78c19812648e8988a0fe644b0f25305e
     Pseudo is Ultrasoft, Zval =  6.0
     Generated by new atomic code, or converted to UPF format
     Using radial grid of  737 points,  4 beta functions with:
                l(1) =   0
                l(2) =   0
                l(3) =   1
                l(4) =   1
     Q(r) pseudized with  8 coefficients,  rinner =    0.800   0.800   0.800

     PseudoPot. # 3 for N  read from file:
     /storage/coda1/p-amedford6/0/shared/rich_project_chbe-medford/medford-share/data/pseudos_module/espresso/nninc/pbe/van/N.UPF
     MD5 check sum: 90d10febe142ad51ac9d5be1deb811c4
     Pseudo is Ultrasoft, Zval =  5.0
     Generated by new atomic code, or converted to UPF format
     Using radial grid of  729 points,  4 beta functions with:
                l(1) =   0
                l(2) =   0
                l(3) =   1
                l(4) =   1
     Q(r) pseudized with  8 coefficients,  rinner =    0.800   0.800   0.800

     PseudoPot. # 4 for C  read from file:
     /storage/coda1/p-amedford6/0/shared/rich_project_chbe-medford/medford-share/data/pseudos_module/espresso/nninc/pbe/van/C.UPF
     MD5 check sum: 1a69bf6b8db32088f5b2163dbdb77a27
     Pseudo is Ultrasoft, Zval =  4.0
     Generated by new atomic code, or converted to UPF format
     Using radial grid of  721 points,  4 beta functions with:
                l(1) =   0
                l(2) =   0
                l(3) =   1
                l(4) =   1
     Q(r) pseudized with  8 coefficients,  rinner =    0.800   0.800   0.800

     PseudoPot. # 5 for H  read from file:
     /storage/coda1/p-amedford6/0/shared/rich_project_chbe-medford/medford-share/data/pseudos_module/espresso/nninc/pbe/van/H.UPF
     MD5 check sum: b5ee9d7bfd3a09ee7748110bda690ff7
     Pseudo is Ultrasoft, Zval =  1.0
     Generated by new atomic code, or converted to UPF format
     Using radial grid of  615 points,  1 beta functions with:
                l(1) =   0
     Q(r) pseudized with  8 coefficients,  rinner =    0.800

     atomic species   valence    mass     pseudopotential
        Ti1           12.00    47.86700     Ti( 1.00)
        O1             6.00    15.99900     O ( 1.00)
        N1             5.00    14.00700     N ( 1.00)
        C1             4.00    12.01100     C ( 1.00)
        H1             1.00     1.00800     H ( 1.00)

     No symmetry found

   Cartesian axes

     site n.     atom                  positions (alat units)
         1           Ti1 tau(   1) = (   0.0004258   2.9801865   6.0000000  )
         2           Ti1 tau(   2) = (   3.2906075   1.4906267   6.0002472  )
         3           O1  tau(   3) = (   0.0006271   0.0005054   7.9858123  )
         4           O1  tau(   4) = (   3.2906025   0.0005020   7.3038282  )
         5           O1  tau(   5) = (   4.5942328   1.4918067   9.2879030  )
         6           O1  tau(   6) = (   1.9868534   1.4903216   9.2879459  )
         7           Ti1 tau(   7) = (   3.2907910   2.8959150   9.1758416  )
         8           Ti1 tau(   8) = (   0.0015273   1.4827037   9.2680791  )
         9           O1  tau(   9) = (   3.2987294   5.9443783  11.3578989  )
        10           O1  tau(  10) = (   0.0116148   5.9584955  10.6183126  )
        11           O1  tau(  11) = (   1.2795512   1.4821507  12.6386044  )
        12           O1  tau(  12) = (   5.2980455   1.5005163  12.6536529  )
        13           Ti1 tau(  13) = (   6.5652885   2.9238251  12.5528928  )
        14           Ti1 tau(  14) = (   3.2988635   1.2998061  12.7048432  )
        15           O1  tau(  15) = (   0.0127057   0.0339484  14.6761273  )
        16           O1  tau(  16) = (   3.2875936   0.0940603  14.0290633  )
        17           O1  tau(  17) = (   4.5650748   1.6033894  16.0357995  )
        18           O1  tau(  18) = (   2.0190796   1.5896112  16.2175902  )
        19           Ti1 tau(  19) = (   3.3013862   3.0422678  15.6649453  )
        20           Ti1 tau(  20) = (   6.4815444   1.5191555  15.8288377  )
        21           O1  tau(  21) = (   3.2904802   0.0005063   4.7018136  )
        22           O1  tau(  22) = (   6.5172723   5.9480513  17.2191950  )
        23           O1  tau(  23) = (   1.3043587   1.4918075   6.0039043  )
        24           O1  tau(  24) = (   5.2767064   1.4903225   6.0039473  )
        25           Ti1 tau(  25) = (   0.0000382   5.9609847   6.0000000  )
        26           Ti1 tau(  26) = (   3.2902200   4.4714249   6.0002472  )
        27           O1  tau(  27) = (   0.0002396   2.9813036   7.9858123  )
        28           O1  tau(  28) = (   3.2902150   2.9813002   7.3038282  )
        29           O1  tau(  29) = (   4.5938453   4.4726049   9.2879030  )
        30           O1  tau(  30) = (   1.9864658   4.4711199   9.2879459  )
        31           Ti1 tau(  31) = (   3.2891106   5.8743827   9.1763621  )
        32           Ti1 tau(  32) = (   0.0006254   4.4649316   9.2693709  )
        33           O1  tau(  33) = (   3.2945946   2.9940555  11.3077331  )
        34           O1  tau(  34) = (   0.0092240   2.9805883  10.6323155  )
        35           O1  tau(  35) = (   1.2876619   4.4781899  12.6403949  )
        36           O1  tau(  36) = (   5.3010724   4.4646845  12.6541769  )
        37           Ti1 tau(  37) = (   0.0424196   5.9023569  12.5123361  )
        38           Ti1 tau(  38) = (   3.3119368   4.3729351  12.4217702  )
        39           O1  tau(  39) = (   0.0401333   2.9740317  14.7512036  )
        40           O1  tau(  40) = (   3.2576645   3.0028392  13.8982547  )
        41           O1  tau(  41) = (   4.5666544   4.4234537  16.0705803  )
        42           O1  tau(  42) = (   2.0215446   4.4756893  16.1430302  )
        43           Ti1 tau(  43) = (   3.2259990   0.0392177  16.2341362  )
        44           Ti1 tau(  44) = (   6.5723990   4.6710500  15.9980081  )
        45           O1  tau(  45) = (   3.2900926   2.9813045   4.7018136  )
        46           O1  tau(  46) = (   1.3039711   4.4726057   6.0039043  )
        47           O1  tau(  47) = (   5.2763189   4.4711207   6.0039473  )
        48           N1  tau(  48) = (   0.9334729   2.5913682  18.4753943  )
        49           N1  tau(  49) = (   6.5156687   2.9055835  17.6419879  )
        50           C1  tau(  50) = (   1.0224037   2.6952286  19.7617917  )
        51           H1  tau(  51) = (   1.9166829   2.3177709  20.2270220  )
        52           H1  tau(  52) = (   0.2062702   3.1370440  20.3260263  )
        53           H1  tau(  53) = (   1.6995924   2.1399843  17.9426691  )
        54           H1  tau(  54) = (   5.6785098   3.1284051  18.1783837  )
        55           O1  tau(  55) = (   3.5318048   0.0910060  18.0897867  )
        56           H1  tau(  56) = (   4.4897960   0.0680733  18.2655997  )

     number of k points=    10  Fermi-Dirac smearing, width (Ry)=  0.0073
                       cart. coord. in units 2pi/alat
        k(    1) = (   0.0000000   0.0000000   0.0000000), wk =   0.1250000
        k(    2) = (   0.0000000   0.0419351   0.0000000), wk =   0.2500000
        k(    3) = (   0.0000000  -0.0838702   0.0000000), wk =   0.1250000
        k(    4) = (   0.0379955   0.0000049   0.0000000), wk =   0.2500000
        k(    5) = (   0.0379955   0.0419400   0.0000000), wk =   0.2500000
        k(    6) = (   0.0379955  -0.0838652   0.0000000), wk =   0.2500000
        k(    7) = (   0.0379955  -0.0419301   0.0000000), wk =   0.2500000
        k(    8) = (  -0.0759910  -0.0000099   0.0000000), wk =   0.1250000
        k(    9) = (  -0.0759910   0.0419252   0.0000000), wk =   0.2500000
        k(   10) = (  -0.0759910  -0.0838800   0.0000000), wk =   0.1250000

     Initial potential from superposition of free atoms

     starting charge  386.99914, renormalised to  403.00000

     negative rho (up, down):  1.426E-02 0.000E+00

     %%%%%%%%%%%%%%%%%%%%%%%%%%%%%%%%%%%%%%%%%%%%%%%%%%%%%%%%%%%%%%%%%%%%%%%%
     %                                                                      %
     % You are using vdW-DF, which was implemented by the Thonhauser group. %
     % Please cite the following two papers that made this development      %
     % possible and the two reviews that describe the various versions:     %
     %                                                                      %
     %   T. Thonhauser et al., PRL 115, 136402 (2015).                      %
     %   T. Thonhauser et al., PRB 76, 125112 (2007).                       %
     %   K. Berland et al., Rep. Prog. Phys. 78, 066501 (2015).             %
     %   D.C. Langreth et al., J. Phys.: Condens. Matter 21, 084203 (2009). %
     %                                                                      %
     %                                                                      %
     % If you are calculating the stress with vdW-DF, please also cite:     %
     %                                                                      %
     %   R. Sabatini et al., J. Phys.: Condens. Matter 24, 424209 (2012).   %
     %                                                                      %
     %%%%%%%%%%%%%%%%%%%%%%%%%%%%%%%%%%%%%%%%%%%%%%%%%%%%%%%%%%%%%%%%%%%%%%%%

     Adding external electric field

     Computed dipole along edir(3) :
        Dipole              -12.9683 Ry au,        -32.9621 Debye
        Dipole field         -0.0245 Ry au,

        Potential amp.        2.2686 Ry
        Total length         46.3494 bohr

     Starting wfcs are  305 atomic wfcs
  @ DRIVER MODE: Message from server: STATUS
  @ DRIVER MODE: Message from server: POSDATA
  @ DRIVER MODE: Reading and sharing cell
  @ DRIVER MODE: Reading and sharing positions
  @ DRIVER MODE: Received positions

     Self-consistent Calculation

     iteration #  1     ecut=    29.40 Ry     beta= 0.05
     Davidson diagonalization with overlap
     c_bands:  4 eigenvalues not converged
     c_bands:  4 eigenvalues not converged
     c_bands:  3 eigenvalues not converged
     c_bands:  1 eigenvalues not converged
     c_bands:  3 eigenvalues not converged
     c_bands:  2 eigenvalues not converged
     ethr =  1.00E-05,  avg # of iterations = 25.6

[...]

     total energy              =   -2352.69405898 Ry
     estimated scf accuracy    <    7059.67115802 Ry

     iteration #  2     ecut=    29.40 Ry     beta= 0.05
     Davidson diagonalization with overlap
     ethr =  1.00E-02,  avg # of iterations = 22.7

[...]

     iteration # 40     ecut=    29.40 Ry     beta= 0.05
     Davidson diagonalization with overlap
     c_bands:  1 eigenvalues not converged
     ethr =  2.08E-07,  avg # of iterations = 11.9

[...]

     total energy              =   -2973.99832843 Ry
     estimated scf accuracy    <       0.00000023 Ry

     iteration # 61     ecut=    29.40 Ry     beta= 0.05
     Davidson diagonalization with overlap
     ethr =  2.28E-11,  avg # of iterations =  9.3

     negative rho (up, down):  1.505E-02 0.000E+00

     Adding external electric field

     Computed dipole along edir(3) :
        Dipole                1.3503 Ry au,          3.4321 Debye
        Dipole field          0.0025 Ry au,

        Potential amp.       -0.2362 Ry
        Total length         46.3494 bohr

     End of self-consistent calculation

          k = 0.0000 0.0000 0.0000 ( 18029 PWs)   bands (ev):

   -55.4233 -55.3273 -55.2933 -55.1484 -55.1448 -55.1333 -55.1128 -55.1108
   -55.0841 -55.0558 -55.0339 -54.9569 -54.9544 -54.9101 -54.2912 -54.2572
   -31.8103 -31.7453 -31.6798 -31.6482 -31.6369 -31.6268 -31.6190 -31.5976
   -31.5723 -31.5713 -31.5673 -31.4825 -31.4797 -31.4323 -31.4187 -31.4045
   -31.3983 -31.3847 -31.3616 -31.3471 -31.3388 -31.3380 -31.3291 -31.3150
   -31.3030 -31.2909 -31.2787 -31.2755 -31.2743 -31.2629 -31.2594 -31.2491
   -31.2333 -31.2294 -31.2265 -31.1898 -31.1786 -31.1504 -31.1385 -31.1284
   -31.1161 -31.1117 -30.6967 -30.6116 -30.5891 -30.5143 -30.4280 -30.3162
   -19.6156 -16.1797 -15.9490 -15.7969 -15.6147 -15.4912 -15.4331 -15.2200
   -15.1523 -15.0812 -15.0007 -14.9357 -14.8584 -14.8442 -14.8188 -14.8034
   -14.7790 -14.7412 -14.7396 -14.7351 -14.6925 -14.6860 -14.6556 -14.6057
   -14.6004 -14.5783 -14.4564 -14.3826 -14.3364 -14.2026 -14.0823 -13.9496
   -12.7895 -12.6734 -10.1561  -7.0121  -6.6692  -4.2784  -4.0106  -3.6419
    -3.3296  -3.2529  -3.2224  -3.1812  -3.0573  -2.8762  -2.7588  -2.6854
    -2.5821  -2.4581  -2.4408  -2.3397  -2.3152  -2.2476  -2.2119  -2.1722
    -2.1517  -2.1283  -2.1053  -2.1017  -1.9897  -1.9853  -1.8602  -1.8427
    -1.7939  -1.7344  -1.6864  -1.6396  -1.6279  -1.6093  -1.5935  -1.5850
    -1.5543  -1.5405  -1.5171  -1.4649  -1.4041  -1.3566  -1.3196  -1.2065
    -1.0172  -0.9197  -0.8672  -0.8258  -0.7930  -0.7440  -0.7174  -0.7095
    -0.6795  -0.6413  -0.5085  -0.5007  -0.4544  -0.3787  -0.3390  -0.3181
    -0.1919  -0.1791  -0.1066  -0.0499  -0.0472  -0.0359   0.0583   0.1160
     0.1445   0.1736   0.2243   0.2809   0.3545   0.3833   0.4166   0.4760
     0.5371   0.5653   0.6249   0.6440   0.6557   0.7378   0.7587   0.7831
     0.8054   0.8767   0.9239   0.9598   0.9999   1.0884   1.1187   1.1677
     1.2049   1.3601   1.4148   1.6840   1.7353   1.7998   1.9292   2.3017
     2.3465   3.7745   3.9103   3.9295   3.9338   4.0312   4.1343   4.2475
     4.2956   4.3316   4.3768

[...]

          k = 0.0380-0.0419 0.0000 ( 17876 PWs)   bands (ev):

[...]

          k =-0.0760-0.0000 0.0000 ( 17886 PWs)   bands (ev):

[...]

          k =-0.0760-0.0839 0.0000 ( 17948 PWs)   bands (ev):

   -55.4225 -55.3106 -55.3098 -55.1339 -55.1335 -55.1304 -55.1287 -55.1235
   -55.0776 -55.0529 -55.0405 -54.9573 -54.9504 -54.9166 -54.2747 -54.2736
   -31.6790 -31.6718 -31.6284 -31.6258 -31.6254 -31.6049 -31.6041 -31.5451
   -31.5056 -31.4591 -31.4515 -31.4510 -31.4445 -31.4434 -31.4304 -31.4295
   -31.4200 -31.3980 -31.3771 -31.3683 -31.3572 -31.3424 -31.3414 -31.3300
   -31.3286 -31.3188 -31.3088 -31.3012 -31.2982 -31.2969 -31.2945 -31.2851
   -31.2728 -31.2624 -31.2574 -31.2491 -31.2200 -31.2093 -31.1824 -31.1591
   -31.1432 -31.1165 -30.6022 -30.6015 -30.5103 -30.5090 -30.4716 -30.4708
   -19.6137 -16.1424 -15.4850 -15.4163 -15.2675 -15.2583 -15.1873 -15.1461
   -15.1398 -15.0885 -15.0821 -15.0139 -14.9891 -14.9807 -14.9407 -14.8896
   -14.8395 -14.8095 -14.8040 -14.7559 -14.7459 -14.7344 -14.6980 -14.6782
   -14.6294 -14.6260 -14.6106 -14.5315 -14.4757 -14.3174 -14.3023 -13.9624
   -12.7756 -12.7750 -10.1593  -7.0077  -6.6666  -4.2689  -3.9986  -3.5950
    -2.6916  -2.6869  -2.6253  -2.4706  -2.4264  -2.3262  -2.3152  -2.2563
    -2.2425  -2.1945  -2.1740  -2.1625  -2.1261  -2.1061  -2.1029  -2.0760
    -2.0564  -2.0460  -2.0201  -1.9842  -1.9819  -1.9520  -1.9434  -1.9265
    -1.9063  -1.8849  -1.8653  -1.8599  -1.8084  -1.7748  -1.6175  -1.5980
    -1.4599  -1.4573  -1.4432  -1.4217  -1.3882  -1.3766  -1.3374  -1.3033
    -1.2333  -1.1903  -1.0956  -1.0604  -0.9535  -0.9253  -0.8550  -0.8069
    -0.7679  -0.7451  -0.7344  -0.7044  -0.6314  -0.5560  -0.5103  -0.4697
    -0.3698  -0.2939  -0.2695  -0.2652  -0.2579  -0.2249  -0.1546  -0.1531
    -0.1120  -0.0958  -0.0138  -0.0033   0.0108   0.0300   0.1640   0.1949
     0.2930   0.3569   0.4069   0.4609   0.4934   0.5438   0.6582   0.7893
     0.8419   0.8673   0.8809   0.9429   0.9911   1.0063   1.0531   1.1252
     1.1964   1.2455   1.2651   1.2886   1.3396   2.0983   2.1070   2.1666
     2.1670   4.0370   4.1386   4.2533   4.2874   4.3031   4.3223   4.3398
     4.3644   4.4091   4.4507

     the Fermi energy is     3.7999 ev

!    total energy              =   -2973.99839432 Ry
     estimated scf accuracy    <       0.00000006 Ry
     smearing contrib. (-TS)   =      -0.02052279 Ry
     internal energy E=F+TS    =   -2973.97787153 Ry

     The total energy is F=E-TS. E is the sum of the following terms:
     one-electron contribution =  -23635.42976903 Ry
     hartree contribution      =   11914.63070005 Ry
     xc contribution           =    -494.11319317 Ry
     ewald contribution        =    9240.93094984 Ry
     electric field correction =       0.00344078 Ry

     convergence has been achieved in  61 iterations

     Forces acting on atoms (cartesian axes, Ry/au):

     atom    1 type  1   force =    -0.00005434   -0.00029039    0.09522587
     atom    2 type  1   force =    -0.00010806    0.00042756   -0.17495529
     atom    3 type  2   force =     0.00000907   -0.00028400   -0.02255524
     atom    4 type  2   force =     0.00005303   -0.00195536    0.05327192
     atom    5 type  2   force =    -0.00765372   -0.00251001    0.00195445
     atom    6 type  2   force =     0.00924445   -0.00207096    0.00147601
     atom    7 type  1   force =    -0.00022802   -0.00467113    0.00733692
     atom    8 type  1   force =     0.00014084    0.00535998    0.01282067
     atom    9 type  2   force =    -0.00010756   -0.00002991    0.00022185
     atom   10 type  2   force =    -0.00275538    0.00061240   -0.01378830
     atom   11 type  2   force =    -0.00015333    0.00022759   -0.00001785
     atom   12 type  2   force =     0.00014392   -0.00002846    0.00023975
     atom   13 type  1   force =     0.00025391    0.00018753    0.00029376
     atom   14 type  1   force =     0.00001712   -0.00000567    0.00018779
     atom   15 type  2   force =     0.00036487   -0.00005497    0.00010094
     atom   16 type  2   force =    -0.00036962   -0.00006976    0.00004599
     atom   17 type  2   force =     0.00028080   -0.00025676   -0.00001037
     atom   18 type  2   force =     0.00006883    0.00004073    0.00028331
     atom   19 type  1   force =     0.00028078   -0.00002605   -0.00003603
     atom   20 type  1   force =     0.00009463   -0.00014517   -0.00006847
     atom   21 type  2   force =     0.00005572    0.00003231    0.10299384
     atom   22 type  2   force =     0.00006160    0.00010316   -0.00011197
     atom   23 type  2   force =    -0.07223039   -0.00020076   -0.02754222
     atom   24 type  2   force =     0.07213319    0.00020844   -0.02761180
     atom   25 type  1   force =     0.00010865   -0.00024790    0.09494823
     atom   26 type  1   force =    -0.00023458   -0.00136985   -0.17517686
     atom   27 type  2   force =     0.00015805   -0.00013884   -0.02139624
     atom   28 type  2   force =     0.00004929   -0.00025270    0.04861100
     atom   29 type  2   force =    -0.00691587    0.00262487    0.00144774
     atom   30 type  2   force =     0.00849717    0.00314627    0.00087417
     atom   31 type  1   force =    -0.00009617    0.00788297   -0.00300455
     atom   32 type  1   force =     0.00038672   -0.00772264    0.01219942
     atom   33 type  2   force =     0.00008281   -0.00003077   -0.00013512
     atom   34 type  2   force =    -0.00196139    0.00048863   -0.01635315
     atom   35 type  2   force =    -0.00013123    0.00002574   -0.00000250
     atom   36 type  2   force =    -0.00005150    0.00031538   -0.00001173
     atom   37 type  1   force =    -0.00013997    0.00016949    0.00001987
     atom   38 type  1   force =    -0.00009520    0.00005288    0.00014838
     atom   39 type  2   force =    -0.00005484   -0.00028319    0.00002027
     atom   40 type  2   force =     0.00012250   -0.00000255    0.00019264
     atom   41 type  2   force =     0.00008837   -0.00012521   -0.00001121
     atom   42 type  2   force =     0.00024265   -0.00013966   -0.00003770
     atom   43 type  1   force =    -0.00022496   -0.00000354   -0.00032282
     atom   44 type  1   force =     0.00026518   -0.00003195   -0.00006516
     atom   45 type  2   force =     0.00008899   -0.00013941    0.10278802
     atom   46 type  2   force =    -0.07221641   -0.00009418   -0.02759223
     atom   47 type  2   force =     0.07214853    0.00036154   -0.02762159
     atom   48 type  3   force =     0.00007423    0.00025471   -0.00002325
     atom   49 type  3   force =     0.00052329   -0.00009789   -0.00002267
     atom   50 type  4   force =    -0.00821014    0.00394123    0.00386634
     atom   51 type  5   force =    -0.00003957    0.00043331    0.00083226
     atom   52 type  5   force =     0.00742932   -0.00406592   -0.00412426
     atom   53 type  5   force =     0.00067894    0.00011484   -0.00025285
     atom   54 type  5   force =     0.00004637    0.00009295    0.00000093
     atom   55 type  2   force =    -0.00056015   -0.00011328    0.00029563
     atom   56 type  5   force =     0.00039855    0.00035433    0.00015344

     Total force =     0.363486     Total SCF correction =     0.000954
  @ DRIVER MODE: Message from server: STATUS
  @ DRIVER MODE: Message from server: GETFORCE
  @ DRIVER MODE: Returning v,forces,stress,ensemble

     Writing output data file ./calc.save/
  @ DRIVER MODE: Message from server: EXIT
  @ DRIVE MODE: Exiting

     General routines

     Parallel routines

   This run was terminated on:  21:38:30  26Sep2021

   JOB DONE.