     Program PWSCF v.6.7GPU starts on 26Sep2021 at 17:51:17

     R & G space division:  proc/nbgrp/npool/nimage =       8
     Reading input from /storage/home/hcoda1/3/ntian30/research/carbon/CxH_vib/CH_calc/ads_slab/CHONHH_a/out_0005/pw.inp
Warning: card &CELL ignored
Warning: card   CELL_DYNAMICS='IPI', ignored
Warning: card / ignored

     Current dimensions of program PWSCF are:
     Max number of different atomic species (ntypx) = 10
     Max number of k-points (npk) =  40000
     Max angular momentum in pseudopotentials (lmaxx) =  3
     Presently no symmetry can be used with electric field

     Message from routine cell_base_init:
     DEPRECATED: use true lattice parameter, not A to a.u. conversion factor

     IMPORTANT: XC functional enforced from input :
     Exchange-correlation= BEEF-VDW
                           (   1   4  43  14   2   0   0)
     Any further DFT definition will be discarded
     Please, verify this is what you really want

  @ DRIVER MODE: Connecting to
 qe_1139763_2982670.sched-torque.pace.gatech.edu0n7if0ej_scratch
  using UNIX socket
  @ DRIVER MODE: Message from server: STATUS
  @ DRIVER MODE: Message from server: INIT
  @ DRIVER MODE: Receiving replica           0          -1
  @ DRIVER MODE: Receiving encoded integer          25
  @ DRIVER MODE:  SCF:  T  FORCE:  T  STRESS:  F  VC:  F  ENSEMBLE:  F
  @ DRIVER MODE:  SCF:  T  FORCE:  T  STRESS:  F  VC:  F  ENSEMBLE:  F

     Using Slab Decomposition

     bravais-lattice index     =            0
     lattice parameter (alat)  =       1.8897  a.u.
     unit-cell volume          =    6658.9804 (a.u.)^3
     number of atoms/cell      =           53
     number of atomic types    =            5
     number of electrons       =       396.00
     number of Kohn-Sham states=          208
     kinetic-energy cutoff     =      29.3995  Ry
     charge density cutoff     =     293.9946  Ry
     scf convergence threshold =      7.3E-08
     mixing beta               =       0.0500
     number of iterations used =            8  plain     mixing
     Exchange-correlation= BEEF-VDW
                           (   1   4  43  14   2   0   0)

     celldm(1)=   1.889726  celldm(2)=   0.000000  celldm(3)=   0.000000
     celldm(4)=   0.000000  celldm(5)=   0.000000  celldm(6)=   0.000000

     crystal axes: (cart. coord. in units of alat)
               a(1) = (   6.579727   0.000000   0.000000 )
               a(2) = (  -0.000775   5.961596   0.000000 )
               a(3) = (   0.000000   0.000000  25.155947 )

     reciprocal axes: (cart. coord. in units 2 pi/alat)
               b(1) = (  0.151982  0.000020  0.000000 )
               b(2) = (  0.000000  0.167740  0.000000 )
               b(3) = (  0.000000  0.000000  0.039752 )

     PseudoPot. # 1 for O  read from file:
     /storage/coda1/p-amedford6/0/shared/rich_project_chbe-medford/medford-share/data/pseudos_module/espresso/nninc/pbe/van/O.UPF
     MD5 check sum: 78c19812648e8988a0fe644b0f25305e
     Pseudo is Ultrasoft, Zval =  6.0
     Generated by new atomic code, or converted to UPF format
     Using radial grid of  737 points,  4 beta functions with:
                l(1) =   0
                l(2) =   0
                l(3) =   1
                l(4) =   1
     Q(r) pseudized with  8 coefficients,  rinner =    0.800   0.800   0.800

     PseudoPot. # 2 for Ti read from file:
     /storage/coda1/p-amedford6/0/shared/rich_project_chbe-medford/medford-share/data/pseudos_module/espresso/nninc/pbe/van/Ti.UPF
     MD5 check sum: 8e4df49b7f0d34bbd5052bf3f5ea0213
     Pseudo is Ultrasoft, Zval = 12.0
     Generated by new atomic code, or converted to UPF format
     Using radial grid of  851 points,  6 beta functions with:
                l(1) =   0
                l(2) =   0
                l(3) =   1
                l(4) =   1
                l(5) =   2
                l(6) =   2
     Q(r) pseudized with  8 coefficients,  rinner =    1.000   1.000   1.000
                                                       1.000   1.000

     PseudoPot. # 3 for C  read from file:
     /storage/coda1/p-amedford6/0/shared/rich_project_chbe-medford/medford-share/data/pseudos_module/espresso/nninc/pbe/van/C.UPF
     MD5 check sum: 1a69bf6b8db32088f5b2163dbdb77a27
     Pseudo is Ultrasoft, Zval =  4.0
     Generated by new atomic code, or converted to UPF format
     Using radial grid of  721 points,  4 beta functions with:
                l(1) =   0
                l(2) =   0
                l(3) =   1
                l(4) =   1
     Q(r) pseudized with  8 coefficients,  rinner =    0.800   0.800   0.800

     PseudoPot. # 4 for H  read from file:
     /storage/coda1/p-amedford6/0/shared/rich_project_chbe-medford/medford-share/data/pseudos_module/espresso/nninc/pbe/van/H.UPF
     MD5 check sum: b5ee9d7bfd3a09ee7748110bda690ff7
     Pseudo is Ultrasoft, Zval =  1.0
     Generated by new atomic code, or converted to UPF format
     Using radial grid of  615 points,  1 beta functions with:
                l(1) =   0
     Q(r) pseudized with  8 coefficients,  rinner =    0.800

     PseudoPot. # 5 for N  read from file:
     /storage/coda1/p-amedford6/0/shared/rich_project_chbe-medford/medford-share/data/pseudos_module/espresso/nninc/pbe/van/N.UPF
     MD5 check sum: 90d10febe142ad51ac9d5be1deb811c4
     Pseudo is Ultrasoft, Zval =  5.0
     Generated by new atomic code, or converted to UPF format
     Using radial grid of  729 points,  4 beta functions with:
                l(1) =   0
                l(2) =   0
                l(3) =   1
                l(4) =   1
     Q(r) pseudized with  8 coefficients,  rinner =    0.800   0.800   0.800

     atomic species   valence    mass     pseudopotential
        O1             6.00    15.99900     O ( 1.00)
        Ti1           12.00    47.86700     Ti( 1.00)
        C1             4.00    12.01100     C ( 1.00)
        H1             1.00     1.00800     H ( 1.00)
        N1             5.00    14.00700     N ( 1.00)

     No symmetry found

   Cartesian axes

     site n.     atom                  positions (alat units)
         1           O1  tau(   1) = (   3.2904802   0.0005063   4.7018136  )
         2           O1  tau(   2) = (   3.2900926   2.9813045   4.7018136  )
         3           Ti1 tau(   3) = (   0.0004258   2.9801865   6.0000000  )
         4           Ti1 tau(   4) = (   0.0000382   5.9609847   6.0000000  )
         5           Ti1 tau(   5) = (   3.2906075   1.4906267   6.0002472  )
         6           Ti1 tau(   6) = (   3.2902200   4.4714249   6.0002472  )
         7           O1  tau(   7) = (   1.3043587   1.4918075   6.0039043  )
         8           O1  tau(   8) = (   1.3039711   4.4726057   6.0039043  )
         9           O1  tau(   9) = (   5.2767064   1.4903225   6.0039473  )
        10           O1  tau(  10) = (   5.2763189   4.4711207   6.0039473  )
        11           O1  tau(  11) = (   3.2906025   0.0005020   7.3038282  )
        12           O1  tau(  12) = (   3.2902150   2.9813002   7.3038282  )
        13           O1  tau(  13) = (   0.0006271   0.0005054   7.9858123  )
        14           O1  tau(  14) = (   0.0002396   2.9813036   7.9858123  )
        15           Ti1 tau(  15) = (   3.2907910   2.8959150   9.1758416  )
        16           Ti1 tau(  16) = (   3.2891106   5.8743827   9.1763621  )
        17           Ti1 tau(  17) = (   0.0015273   1.4827037   9.2680791  )
        18           Ti1 tau(  18) = (   0.0006254   4.4649316   9.2693709  )
        19           O1  tau(  19) = (   4.5942328   1.4918067   9.2879030  )
        20           O1  tau(  20) = (   4.5938453   4.4726049   9.2879030  )
        21           O1  tau(  21) = (   1.9868534   1.4903216   9.2879459  )
        22           O1  tau(  22) = (   1.9864658   4.4711199   9.2879459  )
        23           O1  tau(  23) = (   0.0116148   5.9584955  10.6183126  )
        24           O1  tau(  24) = (   0.0092240   2.9805883  10.6323155  )
        25           O1  tau(  25) = (   3.2982867   2.9605634  11.3629554  )
        26           O1  tau(  26) = (   3.2970280   5.9418052  11.3670498  )
        27           Ti1 tau(  27) = (   3.3197620   1.4647166  12.5186485  )
        28           Ti1 tau(  28) = (   3.3197371   4.4442548  12.5174675  )
        29           Ti1 tau(  29) = (   0.0247145   5.9392298  12.5050521  )
        30           Ti1 tau(  30) = (   0.0207888   2.9549252  12.5325712  )
        31           O1  tau(  31) = (   5.2994564   1.4737048  12.6581032  )
        32           O1  tau(  32) = (   5.2987173   4.4536623  12.6588755  )
        33           O1  tau(  33) = (   1.2980767   1.4735271  12.6640466  )
        34           O1  tau(  34) = (   1.2983722   4.4539272  12.6649509  )
        35           O1  tau(  35) = (   3.3003782   2.9593424  13.9572071  )
        36           O1  tau(  36) = (   3.3054355   5.9407569  13.9837565  )
        37           O1  tau(  37) = (   0.0046088   5.9251545  14.7309831  )
        38           O1  tau(  38) = (   0.0006132   2.9575759  14.8603695  )
        39           Ti1 tau(  39) = (   3.2921441   2.9479593  15.7473734  )
        40           Ti1 tau(  40) = (   3.3096684   5.9297328  15.7786280  )
        41           Ti1 tau(  41) = (   0.0292748   4.4653737  15.8834615  )
        42           Ti1 tau(  42) = (   0.0203033   1.2983705  16.0532229  )
        43           O1  tau(  43) = (   2.0312177   4.4313956  16.1584376  )
        44           O1  tau(  44) = (   2.0329186   1.4682422  16.1585226  )
        45           O1  tau(  45) = (   4.5395334   1.4708069  16.1744780  )
        46           O1  tau(  46) = (   4.5451706   4.4284814  16.1696510  )
        47           O1  tau(  47) = (   6.5626888   5.9521290  17.2995914  )
        48           C1  tau(  48) = (   6.0895709   3.0833951  18.7313599  )
        49           H1  tau(  49) = (   6.1064821   5.1028269  18.6976294  )
        50           H1  tau(  50) = (   5.8218695   2.1931775  19.3174373  )
        51           N1  tau(  51) = (   5.9176545   4.2705979  19.3036562  )
        52           H1  tau(  52) = (   5.4685665   4.3395963  20.1994452  )
        53           O1  tau(  53) = (   6.5488429   2.9572365  17.5815492  )

     number of k points=    10  Fermi-Dirac smearing, width (Ry)=  0.0073
                       cart. coord. in units 2pi/alat
        k(    1) = (   0.0000000   0.0000000   0.0000000), wk =   0.1250000
        k(    2) = (   0.0000000   0.0419351   0.0000000), wk =   0.2500000
        k(    3) = (   0.0000000  -0.0838702   0.0000000), wk =   0.1250000
        k(    4) = (   0.0379955   0.0000049   0.0000000), wk =   0.2500000
        k(    5) = (   0.0379955   0.0419400   0.0000000), wk =   0.2500000
        k(    6) = (   0.0379955  -0.0838652   0.0000000), wk =   0.2500000
        k(    7) = (   0.0379955  -0.0419301   0.0000000), wk =   0.2500000
        k(    8) = (  -0.0759910  -0.0000099   0.0000000), wk =   0.1250000
        k(    9) = (  -0.0759910   0.0419252   0.0000000), wk =   0.2500000
        k(   10) = (  -0.0759910  -0.0838800   0.0000000), wk =   0.1250000

     Initial potential from superposition of free atoms

     starting charge  379.99917, renormalised to  396.00000

     negative rho (up, down):  1.603E-02 0.000E+00

     %%%%%%%%%%%%%%%%%%%%%%%%%%%%%%%%%%%%%%%%%%%%%%%%%%%%%%%%%%%%%%%%%%%%%%%%
     %                                                                      %
     % You are using vdW-DF, which was implemented by the Thonhauser group. %
     % Please cite the following two papers that made this development      %
     % possible and the two reviews that describe the various versions:     %
     %                                                                      %
     %   T. Thonhauser et al., PRL 115, 136402 (2015).                      %
     %   T. Thonhauser et al., PRB 76, 125112 (2007).                       %
     %   K. Berland et al., Rep. Prog. Phys. 78, 066501 (2015).             %
     %   D.C. Langreth et al., J. Phys.: Condens. Matter 21, 084203 (2009). %
     %                                                                      %
     %                                                                      %
     % If you are calculating the stress with vdW-DF, please also cite:     %
     %                                                                      %
     %   R. Sabatini et al., J. Phys.: Condens. Matter 24, 424209 (2012).   %
     %                                                                      %
     %%%%%%%%%%%%%%%%%%%%%%%%%%%%%%%%%%%%%%%%%%%%%%%%%%%%%%%%%%%%%%%%%%%%%%%%

     Adding external electric field

     Computed dipole along edir(3) :
        Dipole               -9.7725 Ry au,        -24.8391 Debye
        Dipole field         -0.0184 Ry au,

        Potential amp.        1.7095 Ry
        Total length         46.3494 bohr

     Starting wfcs are  299 atomic wfcs
  @ DRIVER MODE: Message from server: STATUS
  @ DRIVER MODE: Message from server: POSDATA
  @ DRIVER MODE: Reading and sharing cell
  @ DRIVER MODE: Reading and sharing positions
  @ DRIVER MODE: Received positions

     Self-consistent Calculation

     iteration #  1     ecut=    29.40 Ry     beta= 0.05
     Davidson diagonalization with overlap
     c_bands:  1 eigenvalues not converged
     c_bands:  2 eigenvalues not converged
     c_bands:  2 eigenvalues not converged
     c_bands:  3 eigenvalues not converged
     c_bands:  2 eigenvalues not converged
     c_bands:  1 eigenvalues not converged
     c_bands:  2 eigenvalues not converged
     c_bands:  1 eigenvalues not converged
     c_bands:  2 eigenvalues not converged
     c_bands:  2 eigenvalues not converged
     ethr =  1.00E-05,  avg # of iterations = 20.0

[...]

     total energy              =   -2552.99228326 Ry
     estimated scf accuracy    <    4457.74174240 Ry

     iteration #  2     ecut=    29.40 Ry     beta= 0.05
     Davidson diagonalization with overlap
     ethr =  1.00E-02,  avg # of iterations = 25.6

[...]

     iteration # 58     ecut=    29.40 Ry     beta= 0.05
     Davidson diagonalization with overlap
     ethr =  9.54E-11,  avg # of iterations =  6.5

[...]

     total energy              =   -2951.54870143 Ry
     estimated scf accuracy    <       0.00000011 Ry

     iteration # 61     ecut=    29.40 Ry     beta= 0.05
     Davidson diagonalization with overlap
     c_bands:  1 eigenvalues not converged
     c_bands:  1 eigenvalues not converged
     ethr =  2.82E-11,  avg # of iterations = 14.1

     negative rho (up, down):  1.499E-02 0.000E+00

     Adding external electric field

     Computed dipole along edir(3) :
        Dipole                1.7514 Ry au,          4.4516 Debye
        Dipole field          0.0033 Ry au,

        Potential amp.       -0.3064 Ry
        Total length         46.3494 bohr

     End of self-consistent calculation

          k = 0.0000 0.0000 0.0000 ( 18029 PWs)   bands (ev):

   -55.1198 -55.0839 -55.0759 -55.0418 -55.0024 -54.9985 -54.9932 -54.9615
   -54.9479 -54.9319 -54.9218 -54.9031 -54.8975 -54.8696 -54.0978 -54.0638
   -31.6884 -31.5924 -31.5671 -31.4873 -31.4362 -31.4283 -31.4215 -31.4070
   -31.3651 -31.3602 -31.3297 -31.3255 -31.3203 -31.3043 -31.2920 -31.2747
   -31.2590 -31.2564 -31.2416 -31.2316 -31.2274 -31.2191 -31.1994 -31.1885
   -31.1772 -31.1624 -31.1467 -31.1343 -31.1332 -31.1325 -31.1286 -31.1174
   -31.1033 -31.1014 -31.0985 -31.0894 -31.0841 -31.0808 -31.0462 -31.0413
   -31.0319 -31.0129 -30.5068 -30.4135 -30.3914 -30.3233 -30.2366 -30.1255
   -20.5557 -16.8628 -15.9379 -15.6671 -15.5227 -15.3867 -15.3095 -15.1874
   -15.1406 -15.0326 -14.9325 -14.8410 -14.8034 -14.7768 -14.7607 -14.7518
   -14.7333 -14.6544 -14.6507 -14.6205 -14.6086 -14.5781 -14.5474 -14.5249
   -14.5068 -14.4910 -14.4623 -14.3477 -14.2676 -14.2043 -14.1261 -12.6004
   -12.4831  -9.4796  -7.9663  -6.3886  -5.0977  -4.3258  -3.2818  -3.1257
    -3.0346  -3.0299  -3.0112  -2.8475  -2.7198  -2.5255  -2.4001  -2.3791
    -2.3337  -2.3140  -2.2938  -2.1893  -2.0991  -2.0553  -2.0151  -1.9681
    -1.9283  -1.9037  -1.8959  -1.8807  -1.8636  -1.8615  -1.7634  -1.6556
    -1.5919  -1.5764  -1.5546  -1.5155  -1.4553  -1.4219  -1.4011  -1.3985
    -1.3631  -1.3512  -1.3292  -1.3005  -1.1525  -1.0610  -1.0401  -0.9735
    -0.8613  -0.8165  -0.7504  -0.6777  -0.6758  -0.5955  -0.5941  -0.5566
    -0.5356  -0.4978  -0.4554  -0.3209  -0.2149  -0.2003  -0.1541  -0.1108
    -0.0742  -0.0526   0.0995   0.1055   0.1168   0.1329   0.3160   0.3178
     0.3728   0.3947   0.4513   0.4574   0.4899   0.5561   0.6280   0.6599
     0.6896   0.7735   0.8228   0.8265   0.8342   0.8418   0.8744   0.9573
     0.9885   1.0095   1.0504   1.1884   1.3037   1.4944   1.5015   1.8338
     1.8484   1.9250   2.1096   2.5003   2.5482   3.9788   4.0526   4.1202
     4.1323   4.1369   4.2174   4.3553   4.4581   4.4686   4.4800   4.4869

[...]

          k = 0.0380-0.0419 0.0000 ( 17876 PWs)   bands (ev):

[...]

          k =-0.0760-0.0000 0.0000 ( 17886 PWs)   bands (ev):

[...]

          k =-0.0760-0.0839 0.0000 ( 17948 PWs)   bands (ev):

   -55.1020 -55.1015 -55.0590 -55.0586 -54.9976 -54.9869 -54.9861 -54.9731
   -54.9558 -54.9256 -54.9155 -54.9134 -54.8871 -54.8859 -54.0808 -54.0807
   -31.4941 -31.4921 -31.4918 -31.4057 -31.3824 -31.3820 -31.3784 -31.3505
   -31.3503 -31.3291 -31.3219 -31.3193 -31.3122 -31.2835 -31.2703 -31.2519
   -31.2494 -31.2462 -31.2448 -31.2430 -31.2400 -31.2336 -31.2232 -31.2001
   -31.1956 -31.1919 -31.1852 -31.1829 -31.1786 -31.1784 -31.1659 -31.1505
   -31.1484 -31.1463 -31.1365 -31.1291 -31.1266 -31.1139 -31.1132 -31.1121
   -31.0681 -31.0662 -30.4040 -30.4040 -30.3194 -30.3193 -30.2800 -30.2799
   -20.5517 -16.8658 -15.3725 -15.3578 -15.3249 -15.1094 -15.1090 -15.0935
   -15.0835 -14.9394 -14.9085 -14.8917 -14.8788 -14.8297 -14.8181 -14.8166
   -14.8118 -14.7061 -14.7028 -14.7011 -14.6942 -14.6254 -14.6182 -14.6085
   -14.5776 -14.5657 -14.5615 -14.4673 -14.4650 -14.4624 -14.4070 -12.5846
   -12.5845  -9.5095  -7.9575  -6.3573  -5.0628  -4.3284  -2.6300  -2.5905
    -2.5234  -2.3262  -2.3177  -2.2904  -2.2056  -2.1711  -2.1089  -2.0958
    -2.0808  -2.0393  -1.9999  -1.9932  -1.9541  -1.9444  -1.9349  -1.9135
    -1.8964  -1.8603  -1.8387  -1.8287  -1.8002  -1.7795  -1.7741  -1.7589
    -1.7285  -1.7050  -1.6920  -1.6789  -1.6054  -1.5118  -1.4682  -1.3994
    -1.3170  -1.3133  -1.3067  -1.2180  -1.1951  -1.1665  -1.1521  -1.1083
    -1.0519  -0.9750  -0.8918  -0.8592  -0.8514  -0.8236  -0.7258  -0.6965
    -0.6498  -0.6121  -0.6018  -0.5512  -0.4357  -0.4313  -0.3914  -0.3277
    -0.3091  -0.2457  -0.1359  -0.1081  -0.0748  -0.0723  -0.0377   0.0017
     0.0158   0.0808   0.1139   0.1480   0.1653   0.2268   0.3894   0.3974
     0.4892   0.5164   0.5871   0.7525   0.7825   0.8034   0.9278   0.9602
     0.9951   1.0457   1.0895   1.1881   1.1956   1.2845   1.3340   1.3487
     1.3552   2.2827   2.2832   2.3681   2.3682   4.1057   4.2309   4.2523
     4.2911   4.3369   4.5009   4.5090   4.5628   4.5641   4.6356   4.6414

     the Fermi energy is     4.0389 ev

!    total energy              =   -2951.54875352 Ry
     estimated scf accuracy    <       0.00000006 Ry
     smearing contrib. (-TS)   =      -0.03719176 Ry
     internal energy E=F+TS    =   -2951.51156177 Ry

     The total energy is F=E-TS. E is the sum of the following terms:
     one-electron contribution =  -23932.77320001 Ry
     hartree contribution      =   12060.63745703 Ry
     xc contribution           =    -487.46634302 Ry
     ewald contribution        =    9408.08473563 Ry
     electric field correction =       0.00578860 Ry

     convergence has been achieved in  61 iterations

     Forces acting on atoms (cartesian axes, Ry/au):

     atom    1 type  1   force =    -0.00000028    0.00001598    0.10373668
     atom    2 type  1   force =    -0.00000724    0.00001177    0.10374493
     atom    3 type  2   force =     0.00002579   -0.00017755    0.09368172
     atom    4 type  2   force =    -0.00000376   -0.00013293    0.09337651
     atom    5 type  2   force =    -0.00019845   -0.00037847   -0.17779705
     atom    6 type  2   force =    -0.00018001   -0.00029766   -0.17789478
     atom    7 type  1   force =    -0.07058748   -0.00007090   -0.02703617
     atom    8 type  1   force =    -0.07059748   -0.00003884   -0.02702736
     atom    9 type  1   force =     0.07040935    0.00037713   -0.02707491
     atom   10 type  1   force =     0.07039661    0.00039524   -0.02704260
     atom   11 type  1   force =    -0.00003760   -0.00187105    0.05769206
     atom   12 type  1   force =     0.00001748   -0.00159838    0.05725988
     atom   13 type  1   force =     0.00003240   -0.00022193   -0.02103184
     atom   14 type  1   force =     0.00006244   -0.00035723   -0.02010662
     atom   15 type  2   force =    -0.00034120    0.00219258   -0.01417642
     atom   16 type  2   force =    -0.00014696    0.00521032   -0.01503466
     atom   17 type  2   force =    -0.00008955    0.00330505    0.00052545
     atom   18 type  2   force =     0.00003966   -0.00379756    0.00037668
     atom   19 type  1   force =    -0.01056583   -0.00135561    0.00705459
     atom   20 type  1   force =    -0.01087112   -0.00104297    0.00699318
     atom   21 type  1   force =     0.01218727   -0.00074941    0.00658029
     atom   22 type  1   force =     0.01238674   -0.00067477    0.00650131
     atom   23 type  1   force =    -0.00110707   -0.00065643   -0.00094297
     atom   24 type  1   force =    -0.00064738   -0.00142093   -0.00125862
     atom   25 type  1   force =     0.00001816    0.00022004    0.00027791
     atom   26 type  1   force =     0.00001594    0.00003064   -0.00009886
     atom   27 type  2   force =     0.00000384    0.00034357   -0.00008070
     atom   28 type  2   force =     0.00006501   -0.00014525    0.00000818
     atom   29 type  2   force =    -0.00002397    0.00009340   -0.00034831
     atom   30 type  2   force =     0.00007825   -0.00003323   -0.00029639
     atom   31 type  1   force =    -0.00009397   -0.00011666    0.00003981
     atom   32 type  1   force =    -0.00024926    0.00003355   -0.00001724
     atom   33 type  1   force =     0.00007563   -0.00002937   -0.00006563
     atom   34 type  1   force =     0.00011040   -0.00004089   -0.00004020
     atom   35 type  1   force =    -0.00000497   -0.00004473    0.00014238
     atom   36 type  1   force =    -0.00012338   -0.00020571   -0.00003033
     atom   37 type  1   force =     0.00013871   -0.00006797   -0.00010265
     atom   38 type  1   force =    -0.00021189    0.00023513   -0.00032842
     atom   39 type  2   force =     0.00011634    0.00002605    0.00008168
     atom   40 type  2   force =    -0.00001654    0.00034739    0.00006613
     atom   41 type  2   force =    -0.00002352    0.00152445   -0.00100566
     atom   42 type  2   force =     0.00015195   -0.00090608   -0.00065847
     atom   43 type  1   force =    -0.00008568    0.00014345    0.00003114
     atom   44 type  1   force =    -0.00016061    0.00047887    0.00006518
     atom   45 type  1   force =     0.00019261    0.00051979    0.00002215
     atom   46 type  1   force =     0.00013677    0.00006795    0.00018729
     atom   47 type  1   force =    -0.00005724    0.00042713   -0.00066719
     atom   48 type  3   force =    -0.00884505    0.00126566    0.02735322
     atom   49 type  4   force =    -0.00012471    0.00144529    0.00112401
     atom   50 type  4   force =     0.00146305    0.00308895   -0.00400120
     atom   51 type  5   force =     0.00164965   -0.00344786   -0.00775097
     atom   52 type  4   force =    -0.00038342   -0.00103896    0.00112915
     atom   53 type  1   force =     0.00601156   -0.00088003   -0.01613528

     Total force =     0.367418     Total SCF correction =     0.000715
  @ DRIVER MODE: Message from server: STATUS
  @ DRIVER MODE: Message from server: GETFORCE
  @ DRIVER MODE: Returning v,forces,stress,ensemble

     Writing output data file ./calc.save/
  @ DRIVER MODE: Message from server: EXIT
  @ DRIVE MODE: Exiting

     General routines

     Parallel routines

   This run was terminated on:  20:21:30  26Sep2021

   JOB DONE.