     Program PWSCF v.6.7GPU starts on 29Sep2021 at  1:51:55

     R & G space division:  proc/nbgrp/npool/nimage =       8
     Reading input from /storage/home/hcoda1/3/ntian30/research/carbon/CxH_vib/H2O_calc/ads_slab/CHNHNH2HO_b/out_0037/pw.inp
Warning: card &CELL ignored
Warning: card   CELL_DYNAMICS='IPI', ignored
Warning: card / ignored

     Current dimensions of program PWSCF are:
     Max number of different atomic species (ntypx) = 10
     Max number of k-points (npk) =  40000
     Max angular momentum in pseudopotentials (lmaxx) =  3
     Presently no symmetry can be used with electric field

     Message from routine cell_base_init:
     DEPRECATED: use true lattice parameter, not A to a.u. conversion factor

     IMPORTANT: XC functional enforced from input :
     Exchange-correlation= BEEF-VDW
                           (   1   4  43  14   2   0   0)
     Any further DFT definition will be discarded
     Please, verify this is what you really want

  @ DRIVER MODE: Connecting to
 qe_1139763_3009830.sched-torque.pace.gatech.eduaf1wszeg_scratch
  using UNIX socket
  @ DRIVER MODE: Message from server: STATUS
  @ DRIVER MODE: Message from server: INIT
  @ DRIVER MODE: Receiving replica           0          -1
  @ DRIVER MODE: Receiving encoded integer          25
  @ DRIVER MODE:  SCF:  T  FORCE:  T  STRESS:  F  VC:  F  ENSEMBLE:  F
  @ DRIVER MODE:  SCF:  T  FORCE:  T  STRESS:  F  VC:  F  ENSEMBLE:  F

     Using Slab Decomposition

     bravais-lattice index     =            0
     lattice parameter (alat)  =       1.8897  a.u.
     unit-cell volume          =    6658.9804 (a.u.)^3
     number of atoms/cell      =           56
     number of atomic types    =            5
     number of electrons       =       403.00
     number of Kohn-Sham states=          211
     kinetic-energy cutoff     =      29.3995  Ry
     charge density cutoff     =     293.9946  Ry
     scf convergence threshold =      7.3E-08
     mixing beta               =       0.0500
     number of iterations used =            8  plain     mixing
     Exchange-correlation= BEEF-VDW
                           (   1   4  43  14   2   0   0)

     celldm(1)=   1.889726  celldm(2)=   0.000000  celldm(3)=   0.000000
     celldm(4)=   0.000000  celldm(5)=   0.000000  celldm(6)=   0.000000

     crystal axes: (cart. coord. in units of alat)
               a(1) = (   6.579727   0.000000   0.000000 )
               a(2) = (  -0.000775   5.961596   0.000000 )
               a(3) = (   0.000000   0.000000  25.155947 )

     reciprocal axes: (cart. coord. in units 2 pi/alat)
               b(1) = (  0.151982  0.000020  0.000000 )
               b(2) = (  0.000000  0.167740  0.000000 )
               b(3) = (  0.000000  0.000000  0.039752 )

     PseudoPot. # 1 for Ti read from file:
     /storage/coda1/p-amedford6/0/shared/rich_project_chbe-medford/medford-share/data/pseudos_module/espresso/nninc/pbe/van/Ti.UPF
     MD5 check sum: 8e4df49b7f0d34bbd5052bf3f5ea0213
     Pseudo is Ultrasoft, Zval = 12.0
     Generated by new atomic code, or converted to UPF format
     Using radial grid of  851 points,  6 beta functions with:
                l(1) =   0
                l(2) =   0
                l(3) =   1
                l(4) =   1
                l(5) =   2
                l(6) =   2
     Q(r) pseudized with  8 coefficients,  rinner =    1.000   1.000   1.000
                                                       1.000   1.000

     PseudoPot. # 2 for O  read from file:
     /storage/coda1/p-amedford6/0/shared/rich_project_chbe-medford/medford-share/data/pseudos_module/espresso/nninc/pbe/van/O.UPF
     MD5 check sum: 78c19812648e8988a0fe644b0f25305e
     Pseudo is Ultrasoft, Zval =  6.0
     Generated by new atomic code, or converted to UPF format
     Using radial grid of  737 points,  4 beta functions with:
                l(1) =   0
                l(2) =   0
                l(3) =   1
                l(4) =   1
     Q(r) pseudized with  8 coefficients,  rinner =    0.800   0.800   0.800

     PseudoPot. # 3 for N  read from file:
     /storage/coda1/p-amedford6/0/shared/rich_project_chbe-medford/medford-share/data/pseudos_module/espresso/nninc/pbe/van/N.UPF
     MD5 check sum: 90d10febe142ad51ac9d5be1deb811c4
     Pseudo is Ultrasoft, Zval =  5.0
     Generated by new atomic code, or converted to UPF format
     Using radial grid of  729 points,  4 beta functions with:
                l(1) =   0
                l(2) =   0
                l(3) =   1
                l(4) =   1
     Q(r) pseudized with  8 coefficients,  rinner =    0.800   0.800   0.800

     PseudoPot. # 4 for C  read from file:
     /storage/coda1/p-amedford6/0/shared/rich_project_chbe-medford/medford-share/data/pseudos_module/espresso/nninc/pbe/van/C.UPF
     MD5 check sum: 1a69bf6b8db32088f5b2163dbdb77a27
     Pseudo is Ultrasoft, Zval =  4.0
     Generated by new atomic code, or converted to UPF format
     Using radial grid of  721 points,  4 beta functions with:
                l(1) =   0
                l(2) =   0
                l(3) =   1
                l(4) =   1
     Q(r) pseudized with  8 coefficients,  rinner =    0.800   0.800   0.800

     PseudoPot. # 5 for H  read from file:
     /storage/coda1/p-amedford6/0/shared/rich_project_chbe-medford/medford-share/data/pseudos_module/espresso/nninc/pbe/van/H.UPF
     MD5 check sum: b5ee9d7bfd3a09ee7748110bda690ff7
     Pseudo is Ultrasoft, Zval =  1.0
     Generated by new atomic code, or converted to UPF format
     Using radial grid of  615 points,  1 beta functions with:
                l(1) =   0
     Q(r) pseudized with  8 coefficients,  rinner =    0.800

     atomic species   valence    mass     pseudopotential
        Ti1           12.00    47.86700     Ti( 1.00)
        O1             6.00    15.99900     O ( 1.00)
        N1             5.00    14.00700     N ( 1.00)
        C1             4.00    12.01100     C ( 1.00)
        H1             1.00     1.00800     H ( 1.00)

     No symmetry found

   Cartesian axes

     site n.     atom                  positions (alat units)
         1           Ti1 tau(   1) = (   0.0004258   2.9801865   6.0000000  )
         2           Ti1 tau(   2) = (   3.2906075   1.4906267   6.0002472  )
         3           O1  tau(   3) = (   0.0006271   0.0005054   7.9858123  )
         4           O1  tau(   4) = (   3.2906025   0.0005020   7.3038282  )
         5           O1  tau(   5) = (   4.5942328   1.4918067   9.2879030  )
         6           O1  tau(   6) = (   1.9868534   1.4903216   9.2879459  )
         7           Ti1 tau(   7) = (   3.2907910   2.8959150   9.1758416  )
         8           Ti1 tau(   8) = (   0.0015273   1.4827037   9.2680791  )
         9           O1  tau(   9) = (   3.2982983   0.0405180  11.3424948  )
        10           O1  tau(  10) = (   0.0116148   5.9584955  10.6183126  )
        11           O1  tau(  11) = (   1.2753745   1.5072422  12.7016807  )
        12           O1  tau(  12) = (   5.3195175   1.5181342  12.6954276  )
        13           Ti1 tau(  13) = (   0.0019584   2.9687762  12.4995492  )
        14           Ti1 tau(  14) = (   3.3051642   1.5697923  12.4614731  )
        15           O1  tau(  15) = (   6.5474216   5.8614089  14.6874354  )
        16           O1  tau(  16) = (   3.3077571   5.9224049  13.9445013  )
        17           O1  tau(  17) = (   4.5645563   1.5748115  16.1270233  )
        18           O1  tau(  18) = (   2.0342606   1.5395256  16.0843959  )
        19           Ti1 tau(  19) = (   3.2752269   2.9899004  15.7194909  )
        20           Ti1 tau(  20) = (   6.5310352   1.3332667  15.7916221  )
        21           O1  tau(  21) = (   3.2904802   0.0005063   4.7018136  )
        22           O1  tau(  22) = (   0.0193913   0.2006272  17.2172921  )
        23           O1  tau(  23) = (   1.3043587   1.4918075   6.0039043  )
        24           O1  tau(  24) = (   5.2767064   1.4903225   6.0039473  )
        25           Ti1 tau(  25) = (   0.0000382   5.9609847   6.0000000  )
        26           Ti1 tau(  26) = (   3.2902200   4.4714249   6.0002472  )
        27           O1  tau(  27) = (   0.0002396   2.9813036   7.9858123  )
        28           O1  tau(  28) = (   3.2902150   2.9813002   7.3038282  )
        29           O1  tau(  29) = (   4.5938453   4.4726049   9.2879030  )
        30           O1  tau(  30) = (   1.9864658   4.4711199   9.2879459  )
        31           Ti1 tau(  31) = (   3.2891106   5.8743827   9.1763621  )
        32           Ti1 tau(  32) = (   0.0006254   4.4649316   9.2693709  )
        33           O1  tau(  33) = (   3.2939295   2.9453814  11.3217152  )
        34           O1  tau(  34) = (   0.0092240   2.9805883  10.6323155  )
        35           O1  tau(  35) = (   1.2781447   4.4822909  12.6561401  )
        36           O1  tau(  36) = (   5.3212068   4.4743896  12.6463055  )
        37           Ti1 tau(  37) = (   0.0302233   5.9315785  12.5023592  )
        38           Ti1 tau(  38) = (   3.3112215   4.6713144  12.7097751  )
        39           O1  tau(  39) = (   0.0192075   3.0624537  14.9697097  )
        40           O1  tau(  40) = (   3.2993887   3.0147307  13.9488589  )
        41           O1  tau(  41) = (   4.5718800   4.4489939  16.2708329  )
        42           O1  tau(  42) = (   2.0246426   4.4466800  16.2581844  )
        43           Ti1 tau(  43) = (   3.2612680   0.0306108  16.4716933  )
        44           Ti1 tau(  44) = (   6.5506247   4.5497786  16.0606151  )
        45           O1  tau(  45) = (   3.2900926   2.9813045   4.7018136  )
        46           O1  tau(  46) = (   1.3039711   4.4726057   6.0039043  )
        47           O1  tau(  47) = (   5.2763189   4.4711207   6.0039473  )
        48           N1  tau(  48) = (   0.9981237   2.4704741  18.7333368  )
        49           N1  tau(  49) = (   6.5532285   3.4232418  18.2716252  )
        50           C1  tau(  50) = (   2.1690532   2.7243113  19.1879583  )
        51           H1  tau(  51) = (   2.3212509   3.8010200  19.3435938  )
        52           H1  tau(  52) = (   0.7222050   1.5235952  18.4365492  )
        53           H1  tau(  53) = (   0.1086806   4.2950834  18.7847415  )
        54           H1  tau(  54) = (   5.6267167   3.0457734  18.5222562  )
        55           O1  tau(  55) = (   3.2473456   0.1866190  18.2687603  )
        56           H1  tau(  56) = (   3.0571027   1.0491837  18.7494863  )

     number of k points=    10  Fermi-Dirac smearing, width (Ry)=  0.0073
                       cart. coord. in units 2pi/alat
        k(    1) = (   0.0000000   0.0000000   0.0000000), wk =   0.1250000
        k(    2) = (   0.0000000   0.0419351   0.0000000), wk =   0.2500000
        k(    3) = (   0.0000000  -0.0838702   0.0000000), wk =   0.1250000
        k(    4) = (   0.0379955   0.0000049   0.0000000), wk =   0.2500000
        k(    5) = (   0.0379955   0.0419400   0.0000000), wk =   0.2500000
        k(    6) = (   0.0379955  -0.0838652   0.0000000), wk =   0.2500000
        k(    7) = (   0.0379955  -0.0419301   0.0000000), wk =   0.2500000
        k(    8) = (  -0.0759910  -0.0000099   0.0000000), wk =   0.1250000
        k(    9) = (  -0.0759910   0.0419252   0.0000000), wk =   0.2500000
        k(   10) = (  -0.0759910  -0.0838800   0.0000000), wk =   0.1250000

     Initial potential from superposition of free atoms

     starting charge  386.99914, renormalised to  403.00000

     negative rho (up, down):  1.628E-02 0.000E+00

     %%%%%%%%%%%%%%%%%%%%%%%%%%%%%%%%%%%%%%%%%%%%%%%%%%%%%%%%%%%%%%%%%%%%%%%%
     %                                                                      %
     % You are using vdW-DF, which was implemented by the Thonhauser group. %
     % Please cite the following two papers that made this development      %
     % possible and the two reviews that describe the various versions:     %
     %                                                                      %
     %   T. Thonhauser et al., PRL 115, 136402 (2015).                      %
     %   T. Thonhauser et al., PRB 76, 125112 (2007).                       %
     %   K. Berland et al., Rep. Prog. Phys. 78, 066501 (2015).             %
     %   D.C. Langreth et al., J. Phys.: Condens. Matter 21, 084203 (2009). %
     %                                                                      %
     %                                                                      %
     % If you are calculating the stress with vdW-DF, please also cite:     %
     %                                                                      %
     %   R. Sabatini et al., J. Phys.: Condens. Matter 24, 424209 (2012).   %
     %                                                                      %
     %%%%%%%%%%%%%%%%%%%%%%%%%%%%%%%%%%%%%%%%%%%%%%%%%%%%%%%%%%%%%%%%%%%%%%%%

     Adding external electric field

     Computed dipole along edir(3) :
        Dipole              -13.0968 Ry au,        -33.2887 Debye
        Dipole field         -0.0247 Ry au,

        Potential amp.        2.2911 Ry
        Total length         46.3494 bohr

     Starting wfcs are  305 atomic wfcs
  @ DRIVER MODE: Message from server: STATUS
  @ DRIVER MODE: Message from server: POSDATA
  @ DRIVER MODE: Reading and sharing cell
  @ DRIVER MODE: Reading and sharing positions
  @ DRIVER MODE: Received positions

     Self-consistent Calculation

     iteration #  1     ecut=    29.40 Ry     beta= 0.05
     Davidson diagonalization with overlap
     c_bands:  5 eigenvalues not converged
     c_bands:  2 eigenvalues not converged
     c_bands:  1 eigenvalues not converged
     c_bands:  1 eigenvalues not converged
     c_bands:  4 eigenvalues not converged
     c_bands:  1 eigenvalues not converged
     ethr =  1.00E-05,  avg # of iterations = 28.5

[...]

     total energy              =   -2288.79722745 Ry
     estimated scf accuracy    <    7754.86790332 Ry

     iteration #  2     ecut=    29.40 Ry     beta= 0.05
     Davidson diagonalization with overlap
     ethr =  1.00E-02,  avg # of iterations = 24.9

[...]

     iteration # 63     ecut=    29.40 Ry     beta= 0.05
     Davidson diagonalization with overlap
     ethr =  4.00E-11,  avg # of iterations =  2.9

[...]

     total energy              =   -2973.89790410 Ry
     estimated scf accuracy    <       0.00000014 Ry

     iteration # 64     ecut=    29.40 Ry     beta= 0.05
     Davidson diagonalization with overlap
     c_bands:  1 eigenvalues not converged
     ethr =  3.41E-11,  avg # of iterations = 14.8

     negative rho (up, down):  1.611E-02 0.000E+00

     Adding external electric field

     Computed dipole along edir(3) :
        Dipole                0.8531 Ry au,          2.1684 Debye
        Dipole field          0.0016 Ry au,

        Potential amp.       -0.1492 Ry
        Total length         46.3494 bohr

     End of self-consistent calculation

          k = 0.0000 0.0000 0.0000 ( 18029 PWs)   bands (ev):

   -55.6408 -55.6379 -55.6039 -55.5681 -55.4880 -55.4658 -55.4459 -55.4421
   -55.4318 -55.3896 -55.3472 -55.2891 -55.2109 -55.0653 -54.6014 -54.5674
   -32.1222 -32.0957 -31.9759 -31.9705 -31.9692 -31.9285 -31.9036 -31.8838
   -31.8774 -31.8620 -31.8427 -31.8315 -31.7906 -31.7607 -31.7470 -31.7443
   -31.7398 -31.7260 -31.7052 -31.7011 -31.6957 -31.6694 -31.6640 -31.6511
   -31.6401 -31.6388 -31.6167 -31.6082 -31.5929 -31.5891 -31.5834 -31.5719
   -31.5610 -31.5443 -31.5010 -31.4929 -31.4898 -31.4746 -31.4108 -31.3249
   -31.2910 -31.2829 -31.0065 -30.9221 -30.8996 -30.8244 -30.7381 -30.6260
   -18.6895 -16.3054 -16.2520 -16.1106 -15.8876 -15.8006 -15.7692 -15.6084
   -15.4819 -15.4402 -15.3164 -15.1701 -15.1400 -15.1323 -15.1258 -15.1172
   -15.0998 -15.0722 -15.0589 -15.0541 -15.0407 -14.9763 -14.9577 -14.9285
   -14.8478 -14.7967 -14.7688 -14.6986 -14.6556 -14.5521 -14.4920 -14.2710
   -13.0991 -12.9829  -9.5829  -6.8911  -5.8387  -4.3030  -4.0891  -3.8362
    -3.6248  -3.5366  -3.5133  -3.4049  -3.3138  -3.0844  -3.0616  -2.9917
    -2.8404  -2.7473  -2.6623  -2.6354  -2.5941  -2.5406  -2.5266  -2.4839
    -2.4179  -2.3865  -2.3448  -2.3327  -2.2834  -2.2757  -2.2293  -2.1517
    -2.1451  -2.0395  -1.9715  -1.9668  -1.9521  -1.9436  -1.8939  -1.8786
    -1.8710  -1.8007  -1.7454  -1.7107  -1.6451  -1.6189  -1.5476  -1.3032
    -1.2246  -1.2114  -1.1491  -1.0687  -1.0381  -1.0240  -1.0132  -0.9872
    -0.9601  -0.8716  -0.8450  -0.7050  -0.6990  -0.6613  -0.6347  -0.6051
    -0.4938  -0.4305  -0.4070  -0.3615  -0.3405  -0.3000  -0.2381  -0.2189
    -0.1398  -0.0956  -0.0162  -0.0140   0.0115   0.0823   0.1420   0.1761
     0.1926   0.2923   0.3073   0.3362   0.3428   0.3655   0.3917   0.4848
     0.5027   0.5447   0.5672   0.7086   0.7193   0.7714   0.9150   0.9454
     1.0474   1.1455   1.3700   1.3862   1.4259   1.4532   1.6221   1.9909
     2.0358   3.4415   3.6008   3.6138   3.7104   3.7235   3.8005   3.9361
     4.0304   4.1022   4.1365

[...]

          k = 0.0380-0.0419 0.0000 ( 17876 PWs)   bands (ev):

[...]

          k =-0.0760-0.0000 0.0000 ( 17886 PWs)   bands (ev):

[...]

          k =-0.0760-0.0839 0.0000 ( 17948 PWs)   bands (ev):

   -55.6399 -55.6209 -55.6208 -55.5669 -55.4798 -55.4513 -55.4494 -55.4468
   -55.4465 -55.3812 -55.3555 -55.2902 -55.2089 -55.0672 -54.5844 -54.5843
   -32.0207 -31.9376 -31.9375 -31.9300 -31.9140 -31.9139 -31.9042 -31.8425
   -31.8173 -31.8089 -31.7985 -31.7828 -31.7773 -31.7614 -31.7592 -31.7410
   -31.7408 -31.7313 -31.7297 -31.7183 -31.7179 -31.7037 -31.6927 -31.6861
   -31.6503 -31.6464 -31.6454 -31.6396 -31.6246 -31.6219 -31.6145 -31.6021
   -31.5855 -31.5797 -31.5684 -31.5656 -31.4945 -31.4660 -31.4143 -31.4061
   -31.3296 -31.2863 -30.9123 -30.9123 -30.8197 -30.8193 -30.7814 -30.7812
   -18.6833 -16.2570 -15.9397 -15.6343 -15.6332 -15.6133 -15.4549 -15.4207
   -15.3889 -15.3592 -15.3087 -15.3031 -15.2779 -15.2427 -15.2290 -15.1763
   -15.1520 -15.1351 -15.1166 -15.0976 -15.0780 -15.0495 -15.0387 -15.0373
   -14.9574 -14.9487 -14.9342 -14.9264 -14.8483 -14.6370 -14.4647 -14.4287
   -13.0849 -13.0848  -9.5697  -6.8856  -5.8001  -4.4871  -3.9432  -3.7674
    -3.0668  -2.8685  -2.8389  -2.7117  -2.6788  -2.6554  -2.5907  -2.5499
    -2.5485  -2.4719  -2.4585  -2.4140  -2.4096  -2.3651  -2.3624  -2.3349
    -2.3259  -2.3124  -2.3029  -2.2960  -2.2472  -2.2212  -2.2180  -2.2055
    -2.1821  -2.1681  -2.1442  -2.1273  -2.0679  -1.9924  -1.8802  -1.8578
    -1.7984  -1.7637  -1.7493  -1.7301  -1.7081  -1.6805  -1.6620  -1.5643
    -1.4818  -1.4203  -1.3182  -1.2325  -1.2119  -1.1588  -1.1509  -1.1082
    -1.0855  -1.0654  -1.0289  -0.9604  -0.8505  -0.8392  -0.7706  -0.6847
    -0.6423  -0.5774  -0.5753  -0.5691  -0.5533  -0.5291  -0.5100  -0.4602
    -0.4551  -0.3639  -0.3398  -0.3330  -0.3148  -0.2845  -0.1507  -0.1119
    -0.0626   0.1373   0.1441   0.1723   0.2799   0.3700   0.4355   0.4459
     0.5034   0.5511   0.5854   0.6251   0.6808   0.7046   0.7707   0.8801
     0.8864   0.9053   0.9470   1.0084   1.2442   1.7911   1.7979   1.8561
     1.8563   3.6557   3.8503   3.9653   3.9709   3.9859   4.0274   4.0360
     4.0501   4.1106   4.1180

     the Fermi energy is     3.4821 ev

!    total energy              =   -2973.89794297 Ry
     estimated scf accuracy    <       0.00000007 Ry
     smearing contrib. (-TS)   =      -0.01933584 Ry
     internal energy E=F+TS    =   -2973.87860714 Ry

     The total energy is F=E-TS. E is the sum of the following terms:
     one-electron contribution =  -23221.53590505 Ry
     hartree contribution      =   11705.18708551 Ry
     xc contribution           =    -493.94898492 Ry
     ewald contribution        =    9036.41782388 Ry
     electric field correction =       0.00137344 Ry

     convergence has been achieved in  64 iterations

     Forces acting on atoms (cartesian axes, Ry/au):

     atom    1 type  1   force =     0.00006870   -0.00019438    0.09418740
     atom    2 type  1   force =    -0.00015850    0.00003728   -0.17481859
     atom    3 type  2   force =     0.00002950   -0.00049924   -0.02070256
     atom    4 type  2   force =     0.00004325   -0.00070750    0.05228930
     atom    5 type  2   force =    -0.00299411   -0.00196465    0.00014198
     atom    6 type  2   force =     0.00462937   -0.00149962   -0.00031469
     atom    7 type  1   force =    -0.00019623    0.00282169    0.01406819
     atom    8 type  1   force =    -0.00012306   -0.00121431   -0.00059773
     atom    9 type  2   force =     0.00005219   -0.00009397   -0.00007268
     atom   10 type  2   force =    -0.00139922    0.00347077   -0.00728348
     atom   11 type  2   force =    -0.00020648    0.00025670    0.00020716
     atom   12 type  2   force =     0.00039162    0.00039763    0.00061586
     atom   13 type  1   force =    -0.00042745    0.00057618   -0.00028314
     atom   14 type  1   force =     0.00000393   -0.00007392    0.00069329
     atom   15 type  2   force =     0.00038632    0.00091264    0.00062217
     atom   16 type  2   force =    -0.00009374   -0.00078615    0.00091297
     atom   17 type  2   force =     0.00054024   -0.00025175   -0.00011512
     atom   18 type  2   force =     0.00028048   -0.00009759   -0.00024402
     atom   19 type  1   force =    -0.00002832    0.00003152   -0.00060406
     atom   20 type  1   force =    -0.00026044   -0.00025959   -0.00046883
     atom   21 type  2   force =     0.00006904   -0.00000139    0.10297335
     atom   22 type  2   force =     0.00036327    0.00035477   -0.00009763
     atom   23 type  2   force =    -0.07236974   -0.00019179   -0.02725173
     atom   24 type  2   force =     0.07231241    0.00025271   -0.02730081
     atom   25 type  1   force =     0.00007217   -0.00030675    0.09364186
     atom   26 type  1   force =    -0.00006329   -0.00116968   -0.17492730
     atom   27 type  2   force =     0.00017295   -0.00002321   -0.01956453
     atom   28 type  2   force =     0.00003137   -0.00104279    0.04857310
     atom   29 type  2   force =    -0.00594273    0.00105766    0.00313760
     atom   30 type  2   force =     0.00742362    0.00157258    0.00263932
     atom   31 type  1   force =     0.00004406    0.00141795    0.00265925
     atom   32 type  1   force =     0.00006445    0.00067876   -0.00038952
     atom   33 type  2   force =    -0.00016962   -0.00012476   -0.00047714
     atom   34 type  2   force =    -0.00061544   -0.00196944   -0.01090460
     atom   35 type  2   force =     0.00021291   -0.00040359   -0.00014050
     atom   36 type  2   force =    -0.00001567   -0.00026249   -0.00020629
     atom   37 type  1   force =    -0.00026127   -0.00038870   -0.00051970
     atom   38 type  1   force =     0.00025754    0.00021181    0.00033849
     atom   39 type  2   force =    -0.00037168   -0.00121406   -0.00030779
     atom   40 type  2   force =    -0.00013124    0.00035537    0.00082351
     atom   41 type  2   force =    -0.00084638    0.00010063    0.00032087
     atom   42 type  2   force =     0.00035031   -0.00050694   -0.00005048
     atom   43 type  1   force =    -0.00034282    0.00062169    0.00004372
     atom   44 type  1   force =     0.00015455   -0.00118774   -0.00001142
     atom   45 type  2   force =     0.00006585    0.00005556    0.10282111
     atom   46 type  2   force =    -0.07232506   -0.00005141   -0.02720575
     atom   47 type  2   force =     0.07223205    0.00039658   -0.02723698
     atom   48 type  3   force =    -0.00181630   -0.00025676    0.00032306
     atom   49 type  3   force =    -0.01182875   -0.00400136    0.00307216
     atom   50 type  4   force =     0.00033307    0.00057577    0.00028950
     atom   51 type  5   force =    -0.00029772   -0.00111878    0.00037382
     atom   52 type  5   force =    -0.00009745    0.00150288    0.00056190
     atom   53 type  5   force =     0.00001360   -0.00030962   -0.00052369
     atom   54 type  5   force =     0.01288924    0.00505953   -0.00240820
     atom   55 type  2   force =     0.00035627    0.00037437   -0.00039583
     atom   56 type  5   force =    -0.00046164   -0.00091912   -0.00090615

     Total force =     0.361542     Total SCF correction =     0.000558
  @ DRIVER MODE: Message from server: STATUS
  @ DRIVER MODE: Message from server: GETFORCE
  @ DRIVER MODE: Returning v,forces,stress,ensemble

     Writing output data file ./calc.save/
  @ DRIVER MODE: Message from server: EXIT
  @ DRIVE MODE: Exiting

     General routines

     Parallel routines

   This run was terminated on:   2:14:32  29Sep2021

   JOB DONE.