     Program PWSCF v.6.7GPU starts on 18Oct2021 at 17:56:26

     R & G space division:  proc/nbgrp/npool/nimage =       8
     Reading input from /storage/home/hcoda1/3/ntian30/research/carbon/CxH_vib/Thiel_calc/ads_slab/NH3NH2H_perslab/out_0013/pw.inp
Warning: card &CELL ignored
Warning: card   CELL_DYNAMICS='IPI', ignored
Warning: card / ignored

     Current dimensions of program PWSCF are:
     Max number of different atomic species (ntypx) = 10
     Max number of k-points (npk) =  40000
     Max angular momentum in pseudopotentials (lmaxx) =  3
     Presently no symmetry can be used with electric field

     Message from routine cell_base_init:
     DEPRECATED: use true lattice parameter, not A to a.u. conversion factor

     IMPORTANT: XC functional enforced from input :
     Exchange-correlation= BEEF-VDW
                           (   1   4  43  14   2   0   0)
     Any further DFT definition will be discarded
     Please, verify this is what you really want

  @ DRIVER MODE: Connecting to
 qe_1139763_3255139.sched-torque.pace.gatech.edu_bpazir__scratch
  using UNIX socket
  @ DRIVER MODE: Message from server: STATUS
  @ DRIVER MODE: Message from server: INIT
  @ DRIVER MODE: Receiving replica           0          -1
  @ DRIVER MODE: Receiving encoded integer          25
  @ DRIVER MODE:  SCF:  T  FORCE:  T  STRESS:  F  VC:  F  ENSEMBLE:  F
  @ DRIVER MODE:  SCF:  T  FORCE:  T  STRESS:  F  VC:  F  ENSEMBLE:  F

     Using Slab Decomposition

     bravais-lattice index     =            0
     lattice parameter (alat)  =       1.8897  a.u.
     unit-cell volume          =    9988.4706 (a.u.)^3
     number of atoms/cell      =           61
     number of atomic types    =            4
     number of electrons       =       442.00
     number of Kohn-Sham states=          231
     kinetic-energy cutoff     =      29.3995  Ry
     charge density cutoff     =     293.9946  Ry
     scf convergence threshold =      7.3E-08
     mixing beta               =       0.0500
     number of iterations used =            8  plain     mixing
     Exchange-correlation= BEEF-VDW
                           (   1   4  43  14   2   0   0)

     celldm(1)=   1.889726  celldm(2)=   0.000000  celldm(3)=   0.000000
     celldm(4)=   0.000000  celldm(5)=   0.000000  celldm(6)=   0.000000

     crystal axes: (cart. coord. in units of alat)
               a(1) = (   6.579727   0.000000   0.000000 )
               a(2) = (  -0.001163   8.942395   0.000000 )
               a(3) = (   0.000000   0.000000  25.155947 )

     reciprocal axes: (cart. coord. in units 2 pi/alat)
               b(1) = (  0.151982  0.000020  0.000000 )
               b(2) = (  0.000000  0.111827  0.000000 )
               b(3) = (  0.000000  0.000000  0.039752 )

     PseudoPot. # 1 for O  read from file:
     /storage/coda1/p-amedford6/0/shared/rich_project_chbe-medford/medford-share/data/pseudos_module/espresso/nninc/pbe/van/O.UPF
     MD5 check sum: 78c19812648e8988a0fe644b0f25305e
     Pseudo is Ultrasoft, Zval =  6.0
     Generated by new atomic code, or converted to UPF format
     Using radial grid of  737 points,  4 beta functions with:
                l(1) =   0
                l(2) =   0
                l(3) =   1
                l(4) =   1
     Q(r) pseudized with  8 coefficients,  rinner =    0.800   0.800   0.800

     PseudoPot. # 2 for Ti read from file:
     /storage/coda1/p-amedford6/0/shared/rich_project_chbe-medford/medford-share/data/pseudos_module/espresso/nninc/pbe/van/Ti.UPF
     MD5 check sum: 8e4df49b7f0d34bbd5052bf3f5ea0213
     Pseudo is Ultrasoft, Zval = 12.0
     Generated by new atomic code, or converted to UPF format
     Using radial grid of  851 points,  6 beta functions with:
                l(1) =   0
                l(2) =   0
                l(3) =   1
                l(4) =   1
                l(5) =   2
                l(6) =   2
     Q(r) pseudized with  8 coefficients,  rinner =    1.000   1.000   1.000
                                                       1.000   1.000

     PseudoPot. # 3 for H  read from file:
     /storage/coda1/p-amedford6/0/shared/rich_project_chbe-medford/medford-share/data/pseudos_module/espresso/nninc/pbe/van/H.UPF
     MD5 check sum: b5ee9d7bfd3a09ee7748110bda690ff7
     Pseudo is Ultrasoft, Zval =  1.0
     Generated by new atomic code, or converted to UPF format
     Using radial grid of  615 points,  1 beta functions with:
                l(1) =   0
     Q(r) pseudized with  8 coefficients,  rinner =    0.800

     PseudoPot. # 4 for N  read from file:
     /storage/coda1/p-amedford6/0/shared/rich_project_chbe-medford/medford-share/data/pseudos_module/espresso/nninc/pbe/van/N.UPF
     MD5 check sum: 90d10febe142ad51ac9d5be1deb811c4
     Pseudo is Ultrasoft, Zval =  5.0
     Generated by new atomic code, or converted to UPF format
     Using radial grid of  729 points,  4 beta functions with:
                l(1) =   0
                l(2) =   0
                l(3) =   1
                l(4) =   1
     Q(r) pseudized with  8 coefficients,  rinner =    0.800   0.800   0.800

     atomic species   valence    mass     pseudopotential
        O1             6.00    15.99900     O ( 1.00)
        Ti1           12.00    47.86700     Ti( 1.00)
        H1             1.00     1.00800     H ( 1.00)
        N1             5.00    14.00700     N ( 1.00)

     No symmetry found

   Cartesian axes

     site n.     atom                  positions (alat units)
         1           O1  tau(   1) = (   0.0007354   0.0005023  10.5931620  )
         2           O1  tau(   2) = (   3.2892937   8.9423630  13.8814308  )
         3           O1  tau(   3) = (   6.5785080   0.0907754  17.2996570  )
         4           O1  tau(   4) = (   0.0006271   0.0005054   7.9858123  )
         5           O1  tau(   5) = (   3.2892617   8.9274694  11.1867540  )
         6           O1  tau(   6) = (   0.0001068   0.0384811  14.5856928  )
         7           O1  tau(   7) = (   1.9868534   1.4903216   9.2879459  )
         8           O1  tau(   8) = (   5.2392332   1.6199063  12.5840971  )
         9           O1  tau(   9) = (   2.0046145   1.5651943  16.0652335  )
        10           Ti1 tau(  10) = (   0.0007404   1.4906270   9.2895810  )
        11           Ti1 tau(  11) = (   3.2903033   1.3475644  12.4784176  )
        12           Ti1 tau(  12) = (   0.0002083   1.2954417  15.7753146  )
        13           O1  tau(  13) = (   4.5942328   1.4918067   9.2879030  )
        14           O1  tau(  14) = (   1.3408909   1.6195689  12.5841697  )
        15           O1  tau(  15) = (   4.5747373   1.5650701  16.0650860  )
        16           Ti1 tau(  16) = (   3.2902859   2.9801868   9.2893338  )
        17           Ti1 tau(  17) = (   0.0003213   2.8429885  12.4272127  )
        18           Ti1 tau(  18) = (   3.2894782   2.8703589  15.6911549  )
        19           O1  tau(  19) = (   0.0003479   2.9813005  10.5931620  )
        20           O1  tau(  20) = (   3.2897922   2.9583395  13.9032781  )
        21           O1  tau(  21) = (   0.0002396   2.9813036   7.9858123  )
        22           O1  tau(  22) = (   3.2900450   2.9730570  11.1907869  )
        23           O1  tau(  23) = (   0.0001206   2.9807552  14.9070210  )
        24           O1  tau(  24) = (   1.9864658   4.4711199   9.2879459  )
        25           O1  tau(  25) = (   5.2482068   4.5640541  12.6028892  )
        26           O1  tau(  26) = (   2.0118887   4.5193519  16.0312246  )
        27           Ti1 tau(  27) = (   0.0003529   4.4714252   9.2895810  )
        28           Ti1 tau(  28) = (   3.2901403   4.3402809  12.5217819  )
        29           Ti1 tau(  29) = (   0.0009811   4.3515161  16.1888847  )
        30           O1  tau(  30) = (   4.5938453   4.4726049   9.2879030  )
        31           O1  tau(  31) = (   1.3314901   4.5639303  12.6028828  )
        32           O1  tau(  32) = (   4.5682806   4.5188618  16.0312494  )
        33           Ti1 tau(  33) = (   3.2898983   5.9609850   9.2893338  )
        34           Ti1 tau(  34) = (   0.0001002   5.8006911  12.4939615  )
        35           Ti1 tau(  35) = (   3.2910898   5.8128663  15.8108673  )
        36           O1  tau(  36) = (  -0.0000397   5.9620987  10.5931620  )
        37           O1  tau(  37) = (   3.2898758   5.9691391  13.9384534  )
        38           O1  tau(  38) = (   0.0001572   5.9906873  17.2924393  )
        39           O1  tau(  39) = (  -0.0001480   5.9621018   7.9858123  )
        40           O1  tau(  40) = (   3.2897271   5.9334558  11.2049738  )
        41           O1  tau(  41) = (   0.0000685   5.9641935  14.6703060  )
        42           O1  tau(  42) = (   1.9860782   7.4519181   9.2879459  )
        43           O1  tau(  43) = (   5.2398882   7.5535610  12.5750285  )
        44           O1  tau(  44) = (   1.9879998   7.5809304  16.0172394  )
        45           Ti1 tau(  45) = (  -0.0000347   7.4522234   9.2895810  )
        46           Ti1 tau(  46) = (   3.2896426   7.2731609  12.5447809  )
        47           Ti1 tau(  47) = (   0.0002275   7.1890881  15.9781391  )
        48           O1  tau(  48) = (   4.5934577   7.4534031   9.2879030  )
        49           O1  tau(  49) = (   1.3388943   7.5534522  12.5751898  )
        50           O1  tau(  50) = (   4.5903976   7.5792304  16.0166626  )
        51           Ti1 tau(  51) = (   3.2895107   8.9417832   9.2893338  )
        52           Ti1 tau(  52) = (  -0.0003648   8.7758640  12.4444508  )
        53           Ti1 tau(  53) = (   3.2897763   8.8353469  15.6829021  )
        54           H1  tau(  54) = (   0.0028024   0.0378429  18.2586218  )
        55           N1  tau(  55) = (   0.0000016   3.3024973  17.8430138  )
        56           H1  tau(  56) = (   6.5672996   2.3364033  18.1430564  )
        57           H1  tau(  57) = (   6.5785254   3.8921159  18.6668881  )
        58           N1  tau(  58) = (   3.2892544   5.9906839  18.1401779  )
        59           H1  tau(  59) = (   3.2890604   5.0659402  18.5578254  )
        60           H1  tau(  60) = (   2.4549486   6.4784715  18.4500629  )
        61           H1  tau(  61) = (   4.1227990   6.4789769  18.4516084  )

     number of k points=    10  Fermi-Dirac smearing, width (Ry)=  0.0073
                       cart. coord. in units 2pi/alat
        k(    1) = (   0.0000000   0.0000000   0.0000000), wk =   0.1250000
        k(    2) = (   0.0000000   0.0279567   0.0000000), wk =   0.2500000
        k(    3) = (   0.0000000  -0.0559134   0.0000000), wk =   0.1250000
        k(    4) = (   0.0379955   0.0000049   0.0000000), wk =   0.2500000
        k(    5) = (   0.0379955   0.0279617   0.0000000), wk =   0.2500000
        k(    6) = (   0.0379955  -0.0559085   0.0000000), wk =   0.2500000
        k(    7) = (   0.0379955  -0.0279518   0.0000000), wk =   0.2500000
        k(    8) = (  -0.0759910  -0.0000099   0.0000000), wk =   0.1250000
        k(    9) = (  -0.0759910   0.0279468   0.0000000), wk =   0.2500000
        k(   10) = (  -0.0759910  -0.0559233   0.0000000), wk =   0.1250000

     Initial potential from superposition of free atoms

     starting charge  423.99908, renormalised to  442.00000

     negative rho (up, down):  3.654E-02 0.000E+00

     %%%%%%%%%%%%%%%%%%%%%%%%%%%%%%%%%%%%%%%%%%%%%%%%%%%%%%%%%%%%%%%%%%%%%%%%
     %                                                                      %
     % You are using vdW-DF, which was implemented by the Thonhauser group. %
     % Please cite the following two papers that made this development      %
     % possible and the two reviews that describe the various versions:     %
     %                                                                      %
     %   T. Thonhauser et al., PRL 115, 136402 (2015).                      %
     %   T. Thonhauser et al., PRB 76, 125112 (2007).                       %
     %   K. Berland et al., Rep. Prog. Phys. 78, 066501 (2015).             %
     %   D.C. Langreth et al., J. Phys.: Condens. Matter 21, 084203 (2009). %
     %                                                                      %
     %                                                                      %
     % If you are calculating the stress with vdW-DF, please also cite:     %
     %                                                                      %
     %   R. Sabatini et al., J. Phys.: Condens. Matter 24, 424209 (2012).   %
     %                                                                      %
     %%%%%%%%%%%%%%%%%%%%%%%%%%%%%%%%%%%%%%%%%%%%%%%%%%%%%%%%%%%%%%%%%%%%%%%%

     Adding external electric field

     Computed dipole along edir(3) :
        Dipole               -6.3674 Ry au,        -16.1843 Debye
        Dipole field         -0.0080 Ry au,

        Potential amp.        0.7426 Ry
        Total length         46.3494 bohr

     Starting wfcs are  334 atomic wfcs
  @ DRIVER MODE: Message from server: STATUS
  @ DRIVER MODE: Message from server: POSDATA
  @ DRIVER MODE: Reading and sharing cell
  @ DRIVER MODE: Reading and sharing positions
  @ DRIVER MODE: Received positions

     Self-consistent Calculation

     iteration #  1     ecut=    29.40 Ry     beta= 0.05
     Davidson diagonalization with overlap
     c_bands:  2 eigenvalues not converged
     c_bands:  3 eigenvalues not converged
     c_bands:  3 eigenvalues not converged
     c_bands:  2 eigenvalues not converged
     c_bands:  1 eigenvalues not converged
     c_bands:  4 eigenvalues not converged
     c_bands:  1 eigenvalues not converged
     c_bands:  1 eigenvalues not converged
     c_bands:  5 eigenvalues not converged
     ethr =  1.00E-05,  avg # of iterations = 20.0

[...]

     total energy              =   -3277.30615142 Ry
     estimated scf accuracy    <     250.07374775 Ry

     iteration #  2     ecut=    29.40 Ry     beta= 0.05
     Davidson diagonalization with overlap
     ethr =  1.00E-02,  avg # of iterations = 16.0

[...]

     iteration # 38     ecut=    29.40 Ry     beta= 0.05
     Davidson diagonalization with overlap
     c_bands:  1 eigenvalues not converged
     c_bands:  1 eigenvalues not converged
     ethr =  4.15E-09,  avg # of iterations = 13.6

[...]

     total energy              =   -3295.81875339 Ry
     estimated scf accuracy    <       0.00000012 Ry

     iteration # 49     ecut=    29.40 Ry     beta= 0.05
     Davidson diagonalization with overlap
     ethr =  2.80E-11,  avg # of iterations = 13.7

     negative rho (up, down):  3.514E-02 0.000E+00

     Adding external electric field

     Computed dipole along edir(3) :
        Dipole                2.0092 Ry au,          5.1069 Debye
        Dipole field          0.0025 Ry au,

        Potential amp.       -0.2343 Ry
        Total length         46.3494 bohr

     End of self-consistent calculation

          k = 0.0000 0.0000 0.0000 ( 26871 PWs)   bands (ev):

   -57.4453 -57.4222 -57.4137 -57.4064 -57.3630 -57.3524 -57.3114 -57.3064
   -57.2921 -57.2627 -57.2424 -57.2338 -57.2251 -57.1901 -57.0104 -56.5104
   -56.4837 -56.4672 -33.8429 -33.8315 -33.8247 -33.8203 -33.8110 -33.7785
   -33.7674 -33.7610 -33.7522 -33.7381 -33.7342 -33.7138 -33.6928 -33.6798
   -33.6524 -33.6491 -33.6370 -33.6335 -33.6134 -33.6119 -33.5913 -33.5799
   -33.5567 -33.5537 -33.5526 -33.5432 -33.5396 -33.5370 -33.5349 -33.5258
   -33.5171 -33.5048 -33.4895 -33.4738 -33.4664 -33.4552 -33.4405 -33.4384
   -33.4342 -33.4315 -33.4031 -33.3797 -33.3402 -33.3046 -33.2319 -32.8298
   -32.8226 -32.8089 -32.8018 -32.7877 -32.7348 -32.6759 -32.6559 -32.5309
   -19.1397 -18.3005 -17.9735 -17.7569 -17.7097 -17.6870 -17.6064 -17.5415
   -17.5346 -17.4635 -17.3845 -17.3046 -17.2767 -17.2717 -17.2370 -17.2090
   -17.1900 -17.1658 -17.1646 -17.1244 -17.1136 -17.0941 -17.0673 -17.0198
   -16.9467 -16.9340 -16.8996 -16.8923 -16.8868 -16.8867 -16.7431 -16.6652
   -16.5842 -15.2665 -14.9706 -14.9142 -14.9069  -7.7064  -7.6432  -7.2335
    -6.7463  -5.6241  -5.4640  -5.3783  -5.2763  -4.9377  -4.8715  -4.8500
    -4.8367  -4.7913  -4.7526  -4.7514  -4.6939  -4.6849  -4.6662  -4.5853
    -4.5716  -4.5490  -4.4975  -4.4750  -4.4249  -4.4243  -4.3745  -4.3199
    -4.2693  -4.2611  -4.2600  -4.2343  -4.2336  -4.2108  -4.2065  -4.0934
    -4.0884  -4.0134  -3.9057  -3.8970  -3.8485  -3.7761  -3.7666  -3.7404
    -3.7129  -3.6506  -3.6043  -3.5507  -3.5429  -3.5295  -3.4659  -3.4414
    -3.3618  -3.2561  -3.2440  -3.2113  -3.1667  -3.1525  -3.1062  -3.0754
    -3.0024  -2.9276  -2.8483  -2.8219  -2.7170  -2.6715  -2.6523  -2.6192
    -2.6119  -2.5385  -2.5344  -2.5094  -2.3571  -2.2543  -2.2438  -2.2243
    -2.2130  -2.1859  -2.1824  -2.1548  -2.0898  -2.0437  -2.0360  -2.0199
    -2.0003  -1.9882  -1.8987  -1.8398  -1.8124  -1.7835  -1.7677  -1.6738
    -1.6349  -1.5992  -1.5885  -1.4836  -1.4290  -1.3222  -1.3174  -1.3035
    -1.2325  -1.1863  -1.1141  -0.7970  -0.6277  -0.5555  -0.2685  -0.2104
    -0.2024   0.0575   0.0698   0.1980   1.5435   1.7746   1.9751   1.9775
     1.9931   2.0639   2.1317   2.1448   2.2094   2.2621   2.2779

[...]

          k = 0.0380-0.0280 0.0000 ( 26873 PWs)   bands (ev):

[...]

          k =-0.0760-0.0000 0.0000 ( 26902 PWs)   bands (ev):

[...]

          k =-0.0760-0.0559 0.0000 ( 26868 PWs)   bands (ev):

   -57.4398 -57.4327 -57.4087 -57.4057 -57.3639 -57.3525 -57.3104 -57.3071
   -57.2912 -57.2612 -57.2451 -57.2357 -57.2234 -57.1895 -57.0104 -56.5078
   -56.4889 -56.4644 -33.9219 -33.9039 -33.8536 -33.8226 -33.8064 -33.7825
   -33.7736 -33.7650 -33.7233 -33.7076 -33.6935 -33.6636 -33.6408 -33.6367
   -33.6327 -33.6120 -33.5985 -33.5979 -33.5968 -33.5888 -33.5868 -33.5808
   -33.5692 -33.5608 -33.5562 -33.5525 -33.5354 -33.5291 -33.5228 -33.5172
   -33.5162 -33.5131 -33.5042 -33.5013 -33.4944 -33.4863 -33.4560 -33.4552
   -33.4469 -33.4350 -33.4333 -33.3945 -33.3612 -33.3041 -33.2353 -32.9112
   -32.8254 -32.8079 -32.7849 -32.7229 -32.7016 -32.6460 -32.6363 -32.6173
   -19.1332 -17.9940 -17.9226 -17.6833 -17.6270 -17.6144 -17.5992 -17.5632
   -17.5079 -17.4770 -17.4382 -17.4111 -17.3723 -17.3273 -17.3134 -17.2389
   -17.2342 -17.2305 -17.1643 -17.1623 -17.1448 -17.0998 -17.0865 -17.0639
   -17.0147 -16.9739 -16.9600 -16.8810 -16.8558 -16.8155 -16.7207 -16.6521
   -16.6176 -15.2640 -14.9719 -14.9615 -14.8487  -7.6884  -7.6415  -7.2241
    -6.7490  -5.2460  -5.2146  -5.1799  -5.1514  -5.0465  -4.8610  -4.7846
    -4.7514  -4.7475  -4.6824  -4.6622  -4.6557  -4.6113  -4.5992  -4.5743
    -4.5513  -4.5217  -4.4872  -4.4793  -4.4430  -4.4112  -4.3960  -4.3745
    -4.3569  -4.3515  -4.3375  -4.2492  -4.1871  -4.1740  -4.1156  -4.0894
    -4.0637  -4.0210  -4.0080  -3.9670  -3.9394  -3.7121  -3.6248  -3.6091
    -3.6081  -3.5818  -3.5458  -3.4899  -3.4317  -3.4017  -3.3698  -3.2439
    -3.2040  -3.1909  -3.1862  -3.1514  -3.0676  -3.0414  -3.0122  -2.9797
    -2.9642  -2.9146  -2.9021  -2.8617  -2.8213  -2.7495  -2.7060  -2.6688
    -2.6366  -2.6031  -2.5920  -2.5655  -2.5364  -2.5320  -2.5052  -2.4859
    -2.4135  -2.4116  -2.3726  -2.3159  -2.2428  -2.2092  -2.1912  -2.1125
    -2.0342  -1.9831  -1.9595  -1.9391  -1.8615  -1.7444  -1.7187  -1.7097
    -1.6763  -1.6280  -1.5771  -1.5431  -1.4930  -1.4024  -1.2704  -1.2500
    -1.1819  -1.0858  -1.0646  -1.0443  -0.8233  -0.7327  -0.4193  -0.1604
    -0.1156  -0.0965   0.0625   0.0701   1.7040   1.7711   1.8337   1.8668
     1.8832   1.9145   1.9172   1.9863   2.0419   2.1108   2.1294

     the Fermi energy is     1.6430 ev

!    total energy              =   -3295.81887307 Ry
     estimated scf accuracy    <       0.00000005 Ry
     smearing contrib. (-TS)   =      -0.03295173 Ry
     internal energy E=F+TS    =   -3295.78592134 Ry

     The total energy is F=E-TS. E is the sum of the following terms:
     one-electron contribution =  -34382.81094740 Ry
     hartree contribution      =   17260.70120168 Ry
     xc contribution           =    -543.89677841 Ry
     ewald contribution        =   14370.21552396 Ry
     electric field correction =       0.00507884 Ry

     convergence has been achieved in  49 iterations

     Forces acting on atoms (cartesian axes, Ry/au):

     atom    1 type  1   force =     0.00000570    0.00791005    0.05043707
     atom    2 type  1   force =    -0.00000696    0.00037266   -0.00969495
     atom    3 type  1   force =    -0.00009634   -0.00470925   -0.00052986
     atom    4 type  1   force =     0.00005687    0.00281639    0.10763032
     atom    5 type  1   force =     0.00000369    0.00073011    0.00923467
     atom    6 type  1   force =    -0.00000424   -0.00161518    0.00015264
     atom    7 type  1   force =     0.06465654    0.00008005   -0.02899610
     atom    8 type  1   force =     0.00390051   -0.02785965    0.00323323
     atom    9 type  1   force =     0.00834666   -0.01833566    0.00235168
     atom   10 type  2   force =    -0.00004697   -0.00797884   -0.19369968
     atom   11 type  2   force =    -0.00002546    0.02061361   -0.00635572
     atom   12 type  2   force =     0.00010918    0.02205662   -0.00303363
     atom   13 type  1   force =    -0.06475125   -0.00037653   -0.02894864
     atom   14 type  1   force =    -0.00389977   -0.02783923    0.00322881
     atom   15 type  1   force =    -0.00819358   -0.01829106    0.00247661
     atom   16 type  2   force =     0.00010131    0.00059807    0.06675407
     atom   17 type  2   force =     0.00002156    0.03324884    0.00612551
     atom   18 type  2   force =    -0.00009835    0.02087029    0.00185776
     atom   19 type  1   force =     0.00000507    0.00225026    0.05628638
     atom   20 type  1   force =    -0.00000408   -0.00132894   -0.00685637
     atom   21 type  1   force =     0.00005875   -0.00139640    0.10887570
     atom   22 type  1   force =     0.00000805   -0.00024382    0.00988343
     atom   23 type  1   force =    -0.00002877   -0.00482274    0.00117636
     atom   24 type  1   force =     0.06621544   -0.00051419   -0.02950598
     atom   25 type  1   force =     0.00419776   -0.03009238    0.00218919
     atom   26 type  1   force =     0.00997290   -0.02414437    0.00225270
     atom   27 type  2   force =    -0.00007371    0.01376577   -0.18653763
     atom   28 type  2   force =    -0.00001857    0.02336334   -0.00581146
     atom   29 type  2   force =    -0.00002306    0.01734785   -0.00914146
     atom   30 type  1   force =    -0.06632320   -0.00096492   -0.02945965
     atom   31 type  1   force =    -0.00419114   -0.03006497    0.00218786
     atom   32 type  1   force =    -0.00991815   -0.02415667    0.00221562
     atom   33 type  2   force =     0.00009221   -0.00141906    0.06835018
     atom   34 type  2   force =     0.00002646    0.03782586    0.00400973
     atom   35 type  2   force =    -0.00001798    0.03584150    0.00772155
     atom   36 type  1   force =     0.00001514    0.00056035    0.06524293
     atom   37 type  1   force =    -0.00001292    0.00226989   -0.01098471
     atom   38 type  1   force =     0.00005954   -0.00086336    0.00173925
     atom   39 type  1   force =     0.00005796   -0.00143754    0.10681939
     atom   40 type  1   force =     0.00000202   -0.00040333    0.00776281
     atom   41 type  1   force =    -0.00003123   -0.00031191    0.00576691
     atom   42 type  1   force =     0.06734453   -0.00097299   -0.02907618
     atom   43 type  1   force =     0.00313457   -0.02829537    0.00236786
     atom   44 type  1   force =     0.00714454   -0.02149767    0.00455167
     atom   45 type  2   force =    -0.00006845   -0.00849972   -0.18085341
     atom   46 type  2   force =    -0.00000566    0.01744522   -0.00235611
     atom   47 type  2   force =    -0.00004976    0.02041511   -0.00639881
     atom   48 type  1   force =    -0.06743927   -0.00141969   -0.02903324
     atom   49 type  1   force =    -0.00310327   -0.02829562    0.00236688
     atom   50 type  1   force =    -0.00710730   -0.02145892    0.00452707
     atom   51 type  2   force =     0.00012335   -0.00304338    0.06674824
     atom   52 type  2   force =     0.00001080    0.03511167    0.00727408
     atom   53 type  2   force =    -0.00006988    0.02416267    0.00300651
     atom   54 type  3   force =     0.00016725   -0.00017620    0.00057122
     atom   55 type  4   force =    -0.00022619   -0.00026034    0.00098572
     atom   56 type  3   force =    -0.00009201    0.00081307    0.00030908
     atom   57 type  3   force =     0.00010969    0.00053120    0.00079449
     atom   58 type  4   force =     0.00012566    0.00075637   -0.00142086
     atom   59 type  3   force =    -0.00000383   -0.00006368    0.00004350
     atom   60 type  3   force =    -0.00054630    0.00073694   -0.00038636
     atom   61 type  3   force =     0.00040395    0.00065981   -0.00042785

     Total force =     0.461617     Total SCF correction =     0.000545
  @ DRIVER MODE: Message from server: STATUS
  @ DRIVER MODE: Message from server: GETFORCE
  @ DRIVER MODE: Returning v,forces,stress,ensemble

     Writing output data file ./calc.save/
  @ DRIVER MODE: Message from server: EXIT
  @ DRIVE MODE: Exiting

     General routines

     Parallel routines

   This run was terminated on:  18:23:25  18Oct2021

   JOB DONE.