     Program PWSCF v.6.7GPU starts on 23Aug2021 at 14:35:13

     R & G space division:  proc/nbgrp/npool/nimage =       6
     Reading input from /storage/home/hcoda1/3/ntian30/research/carbon/CH_vib/ads_slab/CHNHH_a/out_0004/pw.inp
Warning: card &CELL ignored
Warning: card   CELL_DYNAMICS='IPI', ignored
Warning: card / ignored

     Current dimensions of program PWSCF are:
     Max number of different atomic species (ntypx) = 10
     Max number of k-points (npk) =  40000
     Max angular momentum in pseudopotentials (lmaxx) =  3
     Presently no symmetry can be used with electric field

     Message from routine cell_base_init:
     DEPRECATED: use true lattice parameter, not A to a.u. conversion factor

     IMPORTANT: XC functional enforced from input :
     Exchange-correlation= BEEF-VDW
                           (   1   4  43  14   2   0   0)
     Any further DFT definition will be discarded
     Please, verify this is what you really want

  @ DRIVER MODE: Connecting to
 qe_1139763_2632797.sched-torque.pace.gatech.edulajk3zf3_scratch
  using UNIX socket
  @ DRIVER MODE: Message from server: STATUS
  @ DRIVER MODE: Message from server: INIT
  @ DRIVER MODE: Receiving replica           0          -1
  @ DRIVER MODE: Receiving encoded integer          25
  @ DRIVER MODE:  SCF:  T  FORCE:  T  STRESS:  F  VC:  F  ENSEMBLE:  F
  @ DRIVER MODE:  SCF:  T  FORCE:  T  STRESS:  F  VC:  F  ENSEMBLE:  F

     Using Slab Decomposition

     bravais-lattice index     =            0
     lattice parameter (alat)  =       1.8897  a.u.
     unit-cell volume          =    6658.9804 (a.u.)^3
     number of atoms/cell      =           52
     number of atomic types    =            5
     number of electrons       =       390.00
     number of Kohn-Sham states=          205
     kinetic-energy cutoff     =      29.3995  Ry
     charge density cutoff     =     293.9946  Ry
     scf convergence threshold =      7.3E-08
     mixing beta               =       0.0500
     number of iterations used =            8  plain     mixing
     Exchange-correlation= BEEF-VDW
                           (   1   4  43  14   2   0   0)

     celldm(1)=   1.889726  celldm(2)=   0.000000  celldm(3)=   0.000000
     celldm(4)=   0.000000  celldm(5)=   0.000000  celldm(6)=   0.000000

     crystal axes: (cart. coord. in units of alat)
               a(1) = (   6.579727   0.000000   0.000000 )
               a(2) = (  -0.000775   5.961596   0.000000 )
               a(3) = (   0.000000   0.000000  25.155947 )

     reciprocal axes: (cart. coord. in units 2 pi/alat)
               b(1) = (  0.151982  0.000020  0.000000 )
               b(2) = (  0.000000  0.167740  0.000000 )
               b(3) = (  0.000000  0.000000  0.039752 )

     PseudoPot. # 1 for Ti read from file:
     /storage/coda1/p-amedford6/0/shared/rich_project_chbe-medford/medford-share/data/pseudos_module/espresso/nninc/pbe/van/Ti.UPF
     MD5 check sum: 8e4df49b7f0d34bbd5052bf3f5ea0213
     Pseudo is Ultrasoft, Zval = 12.0
     Generated by new atomic code, or converted to UPF format
     Using radial grid of  851 points,  6 beta functions with:
                l(1) =   0
                l(2) =   0
                l(3) =   1
                l(4) =   1
                l(5) =   2
                l(6) =   2
     Q(r) pseudized with  8 coefficients,  rinner =    1.000   1.000   1.000
                                                       1.000   1.000

     PseudoPot. # 2 for O  read from file:
     /storage/coda1/p-amedford6/0/shared/rich_project_chbe-medford/medford-share/data/pseudos_module/espresso/nninc/pbe/van/O.UPF
     MD5 check sum: 78c19812648e8988a0fe644b0f25305e
     Pseudo is Ultrasoft, Zval =  6.0
     Generated by new atomic code, or converted to UPF format
     Using radial grid of  737 points,  4 beta functions with:
                l(1) =   0
                l(2) =   0
                l(3) =   1
                l(4) =   1
     Q(r) pseudized with  8 coefficients,  rinner =    0.800   0.800   0.800

     PseudoPot. # 3 for N  read from file:
     /storage/coda1/p-amedford6/0/shared/rich_project_chbe-medford/medford-share/data/pseudos_module/espresso/nninc/pbe/van/N.UPF
     MD5 check sum: 90d10febe142ad51ac9d5be1deb811c4
     Pseudo is Ultrasoft, Zval =  5.0
     Generated by new atomic code, or converted to UPF format
     Using radial grid of  729 points,  4 beta functions with:
                l(1) =   0
                l(2) =   0
                l(3) =   1
                l(4) =   1
     Q(r) pseudized with  8 coefficients,  rinner =    0.800   0.800   0.800

     PseudoPot. # 4 for C  read from file:
     /storage/coda1/p-amedford6/0/shared/rich_project_chbe-medford/medford-share/data/pseudos_module/espresso/nninc/pbe/van/C.UPF
     MD5 check sum: 1a69bf6b8db32088f5b2163dbdb77a27
     Pseudo is Ultrasoft, Zval =  4.0
     Generated by new atomic code, or converted to UPF format
     Using radial grid of  721 points,  4 beta functions with:
                l(1) =   0
                l(2) =   0
                l(3) =   1
                l(4) =   1
     Q(r) pseudized with  8 coefficients,  rinner =    0.800   0.800   0.800

     PseudoPot. # 5 for H  read from file:
     /storage/coda1/p-amedford6/0/shared/rich_project_chbe-medford/medford-share/data/pseudos_module/espresso/nninc/pbe/van/H.UPF
     MD5 check sum: b5ee9d7bfd3a09ee7748110bda690ff7
     Pseudo is Ultrasoft, Zval =  1.0
     Generated by new atomic code, or converted to UPF format
     Using radial grid of  615 points,  1 beta functions with:
                l(1) =   0
     Q(r) pseudized with  8 coefficients,  rinner =    0.800

     atomic species   valence    mass     pseudopotential
        Ti1           12.00    47.86700     Ti( 1.00)
        O1             6.00    15.99900     O ( 1.00)
        N1             5.00    14.00700     N ( 1.00)
        C1             4.00    12.01100     C ( 1.00)
        H1             1.00     1.00800     H ( 1.00)

     No symmetry found

   Cartesian axes

     site n.     atom                  positions (alat units)
         1           Ti1 tau(   1) = (   0.0004258   2.9801865   6.0000000  )
         2           Ti1 tau(   2) = (   3.2906075   1.4906267   6.0002472  )
         3           O1  tau(   3) = (   0.0006271   0.0005054   7.9858123  )
         4           O1  tau(   4) = (   3.2906025   0.0005020   7.3038282  )
         5           O1  tau(   5) = (   4.5942328   1.4918067   9.2879030  )
         6           O1  tau(   6) = (   1.9868534   1.4903216   9.2879459  )
         7           Ti1 tau(   7) = (   3.2907910   2.8959150   9.1758416  )
         8           Ti1 tau(   8) = (   0.0015273   1.4827037   9.2680791  )
         9           O1  tau(   9) = (   3.2768318   5.9518058  11.3501096  )
        10           O1  tau(  10) = (   0.0116148   5.9584955  10.6183126  )
        11           O1  tau(  11) = (   1.2820894   1.4890407  12.6429483  )
        12           O1  tau(  12) = (   5.2701592   1.4861355  12.6244956  )
        13           Ti1 tau(  13) = (   0.0263608   2.9732685  12.5725065  )
        14           Ti1 tau(  14) = (   3.3311081   1.4825583  12.4934812  )
        15           O1  tau(  15) = (   6.5448050   0.0382128  14.6485099  )
        16           O1  tau(  16) = (   3.2835306   5.9556129  13.9684075  )
        17           O1  tau(  17) = (   4.5065730   1.5084740  16.1486978  )
        18           O1  tau(  18) = (   2.0110176   1.4968469  16.1316129  )
        19           Ti1 tau(  19) = (   3.2365874   2.9692752  15.7101938  )
        20           Ti1 tau(  20) = (   6.5183500   1.5288441  15.9766389  )
        21           O1  tau(  21) = (   3.2904802   0.0005063   4.7018136  )
        22           O1  tau(  22) = (   6.5552815   5.8936090  17.2115513  )
        23           O1  tau(  23) = (   1.3043587   1.4918075   6.0039043  )
        24           O1  tau(  24) = (   5.2767064   1.4903225   6.0039473  )
        25           Ti1 tau(  25) = (   0.0000382   5.9609847   6.0000000  )
        26           Ti1 tau(  26) = (   3.2902200   4.4714249   6.0002472  )
        27           O1  tau(  27) = (   0.0002396   2.9813036   7.9858123  )
        28           O1  tau(  28) = (   3.2902150   2.9813002   7.3038282  )
        29           O1  tau(  29) = (   4.5938453   4.4726049   9.2879030  )
        30           O1  tau(  30) = (   1.9864658   4.4711199   9.2879459  )
        31           Ti1 tau(  31) = (   3.2891106   5.8743827   9.1763621  )
        32           Ti1 tau(  32) = (   0.0006254   4.4649316   9.2693709  )
        33           O1  tau(  33) = (   3.2825058   2.9767457  11.3441782  )
        34           O1  tau(  34) = (   0.0092240   2.9805883  10.6323155  )
        35           O1  tau(  35) = (   1.2778777   4.4660374  12.6604661  )
        36           O1  tau(  36) = (   5.2710664   4.4675109  12.6369154  )
        37           Ti1 tau(  37) = (   0.0243246   5.9574881  12.5203091  )
        38           Ti1 tau(  38) = (   3.3318591   4.4611298  12.5006215  )
        39           O1  tau(  39) = (   6.5359656   2.9584677  14.7835642  )
        40           O1  tau(  40) = (   3.2771955   2.9708399  13.9242642  )
        41           O1  tau(  41) = (   4.4981441   4.4410618  16.1740548  )
        42           O1  tau(  42) = (   2.0042129   4.4512231  16.1075086  )
        43           Ti1 tau(  43) = (   3.2538698   5.9555144  15.7617387  )
        44           Ti1 tau(  44) = (   6.5531130   4.6830099  15.9084494  )
        45           O1  tau(  45) = (   3.2900926   2.9813045   4.7018136  )
        46           O1  tau(  46) = (   1.3039711   4.4726057   6.0039043  )
        47           O1  tau(  47) = (   5.2763189   4.4711207   6.0039473  )
        48           N1  tau(  48) = (   5.6690603   3.2668973  18.6585782  )
        49           C1  tau(  49) = (   0.0091554   2.6844975  17.9068455  )
        50           H1  tau(  50) = (   0.8805123   2.3964943  18.5001670  )
        51           H1  tau(  51) = (   4.8619660   3.6873350  18.2178346  )
        52           H1  tau(  52) = (   5.8095507   3.4768026  19.6356901  )

     number of k points=    10  Fermi-Dirac smearing, width (Ry)=  0.0073
                       cart. coord. in units 2pi/alat
        k(    1) = (   0.0000000   0.0000000   0.0000000), wk =   0.1250000
        k(    2) = (   0.0000000   0.0419351   0.0000000), wk =   0.2500000
        k(    3) = (   0.0000000  -0.0838702   0.0000000), wk =   0.1250000
        k(    4) = (   0.0379955   0.0000049   0.0000000), wk =   0.2500000
        k(    5) = (   0.0379955   0.0419400   0.0000000), wk =   0.2500000
        k(    6) = (   0.0379955  -0.0838652   0.0000000), wk =   0.2500000
        k(    7) = (   0.0379955  -0.0419301   0.0000000), wk =   0.2500000
        k(    8) = (  -0.0759910  -0.0000099   0.0000000), wk =   0.1250000
        k(    9) = (  -0.0759910   0.0419252   0.0000000), wk =   0.2500000
        k(   10) = (  -0.0759910  -0.0838800   0.0000000), wk =   0.1250000

     Initial potential from superposition of free atoms

     starting charge  373.99917, renormalised to  390.00000

     negative rho (up, down):  1.782E-02 0.000E+00

     %%%%%%%%%%%%%%%%%%%%%%%%%%%%%%%%%%%%%%%%%%%%%%%%%%%%%%%%%%%%%%%%%%%%%%%%
     %                                                                      %
     % You are using vdW-DF, which was implemented by the Thonhauser group. %
     % Please cite the following two papers that made this development      %
     % possible and the two reviews that describe the various versions:     %
     %                                                                      %
     %   T. Thonhauser et al., PRL 115, 136402 (2015).                      %
     %   T. Thonhauser et al., PRB 76, 125112 (2007).                       %
     %   K. Berland et al., Rep. Prog. Phys. 78, 066501 (2015).             %
     %   D.C. Langreth et al., J. Phys.: Condens. Matter 21, 084203 (2009). %
     %                                                                      %
     %                                                                      %
     % If you are calculating the stress with vdW-DF, please also cite:     %
     %                                                                      %
     %   R. Sabatini et al., J. Phys.: Condens. Matter 24, 424209 (2012).   %
     %                                                                      %
     %%%%%%%%%%%%%%%%%%%%%%%%%%%%%%%%%%%%%%%%%%%%%%%%%%%%%%%%%%%%%%%%%%%%%%%%

     Adding external electric field

     Computed dipole along edir(3) :
        Dipole               -5.8555 Ry au,        -14.8831 Debye
        Dipole field         -0.0111 Ry au,

        Potential amp.        1.0243 Ry
        Total length         46.3494 bohr

     Starting wfcs are  295 atomic wfcs
  @ DRIVER MODE: Message from server: STATUS
  @ DRIVER MODE: Message from server: POSDATA
  @ DRIVER MODE: Reading and sharing cell
  @ DRIVER MODE: Reading and sharing positions
  @ DRIVER MODE: Received positions

     Self-consistent Calculation

     iteration #  1     ecut=    29.40 Ry     beta= 0.05
     Davidson diagonalization with overlap
     c_bands:  4 eigenvalues not converged
     c_bands:  1 eigenvalues not converged
     c_bands:  2 eigenvalues not converged
     c_bands:  3 eigenvalues not converged
     c_bands:  3 eigenvalues not converged
     c_bands:  3 eigenvalues not converged
     c_bands:  3 eigenvalues not converged
     c_bands:  3 eigenvalues not converged
     c_bands:  4 eigenvalues not converged
     c_bands:  5 eigenvalues not converged
     ethr =  1.00E-05,  avg # of iterations = 20.0

[...]

     total energy              =   -2777.33561564 Ry
     estimated scf accuracy    <    1560.47382503 Ry

[...]

     iteration #  3     ecut=    29.40 Ry     beta= 0.05
     Davidson diagonalization with overlap
     ethr =  1.00E-02,  avg # of iterations = 15.7

[...]

     iteration # 59     ecut=    29.40 Ry     beta= 0.05
     Davidson diagonalization with overlap
     c_bands:  1 eigenvalues not converged
     ethr =  3.53E-09,  avg # of iterations = 16.4

[...]

     total energy              =   -2919.04280298 Ry
     estimated scf accuracy    <       0.00000010 Ry

     iteration # 68     ecut=    29.40 Ry     beta= 0.05
     Davidson diagonalization with overlap
     ethr =  2.56E-11,  avg # of iterations =  4.1

     negative rho (up, down):  1.803E-02 0.000E+00

     Adding external electric field

     Computed dipole along edir(3) :
        Dipole                1.3773 Ry au,          3.5008 Debye
        Dipole field          0.0026 Ry au,

        Potential amp.       -0.2409 Ry
        Total length         46.3494 bohr

     End of self-consistent calculation

          k = 0.0000 0.0000 0.0000 ( 18029 PWs)   bands (ev):

   -55.5125 -55.4870 -55.4761 -55.4529 -55.4260 -55.3813 -55.3395 -55.3305
   -55.3121 -55.3052 -55.2757 -55.2738 -55.0538 -54.9456 -54.4907 -54.4567
   -32.0793 -31.9746 -31.8729 -31.8503 -31.8403 -31.8077 -31.7998 -31.7774
   -31.7671 -31.7309 -31.7268 -31.7217 -31.6890 -31.6638 -31.6540 -31.6511
   -31.6399 -31.6152 -31.6045 -31.5962 -31.5809 -31.5702 -31.5444 -31.5405
   -31.5387 -31.5191 -31.5170 -31.5123 -31.5110 -31.5020 -31.4879 -31.4724
   -31.4610 -31.4608 -31.4381 -31.4269 -31.4114 -31.3572 -31.2895 -31.1910
   -31.1802 -31.0919 -30.8990 -30.8078 -30.7855 -30.7156 -30.6289 -30.5180
   -16.9985 -16.3110 -16.0271 -15.8613 -15.7197 -15.6892 -15.5783 -15.4035
   -15.3240 -15.2500 -15.2310 -15.1513 -15.1332 -15.1179 -15.0997 -15.0417
   -15.0338 -14.9886 -14.9835 -14.9467 -14.9296 -14.8975 -14.8801 -14.8726
   -14.8154 -14.7778 -14.7143 -14.6484 -14.5933 -14.1175 -12.9932 -12.8762
    -9.4406  -7.2387  -4.6021  -3.6687  -3.4992  -3.4182  -3.4093  -3.3866
    -3.1989  -3.1219  -2.8456  -2.7530  -2.7178  -2.7118  -2.6852  -2.6228
    -2.5418  -2.4535  -2.3785  -2.3525  -2.3326  -2.3245  -2.3095  -2.2978
    -2.2890  -2.2583  -2.1821  -2.1232  -2.0528  -1.9727  -1.8979  -1.8815
    -1.8219  -1.7940  -1.7789  -1.7726  -1.7653  -1.7385  -1.7346  -1.6435
    -1.5498  -1.5136  -1.4138  -1.3917  -1.2945  -1.1595  -1.1342  -1.0297
    -1.0227  -0.9671  -0.9407  -0.8988  -0.8477  -0.8407  -0.8210  -0.6794
    -0.6117  -0.5507  -0.4921  -0.4651  -0.4467  -0.3582  -0.2926  -0.2864
    -0.2692  -0.2450  -0.0710  -0.0402  -0.0194   0.0026   0.0170   0.1062
     0.1378   0.2136   0.2936   0.3078   0.3125   0.3903   0.4137   0.4560
     0.4587   0.4861   0.4914   0.6626   0.6729   0.6993   0.7326   0.8138
     0.8948   1.1008   1.1216   1.1658   1.4472   1.5142   1.5318   1.7195
     2.1054   2.1523   3.5781   3.6830   3.7152   3.7309   3.7590   3.8297
     3.8943   4.0739   4.0810   4.1117   4.1182

[...]

          k = 0.0380-0.0419 0.0000 ( 17876 PWs)   bands (ev):

[...]

          k =-0.0760-0.0000 0.0000 ( 17886 PWs)   bands (ev):

[...]

          k =-0.0760-0.0839 0.0000 ( 17948 PWs)   bands (ev):

   -55.4967 -55.4917 -55.4701 -55.4696 -55.4228 -55.3724 -55.3484 -55.3336
   -55.2934 -55.2919 -55.2914 -55.2898 -55.0510 -54.9483 -54.4737 -54.4736
   -31.8848 -31.8808 -31.8150 -31.7900 -31.7895 -31.7779 -31.7631 -31.7626
   -31.7229 -31.7177 -31.7156 -31.7087 -31.6790 -31.6425 -31.6336 -31.6294
   -31.6287 -31.6264 -31.6219 -31.6208 -31.6108 -31.5899 -31.5894 -31.5768
   -31.5733 -31.5627 -31.5505 -31.5335 -31.5266 -31.5242 -31.5080 -31.5074
   -31.5069 -31.5056 -31.4785 -31.4700 -31.4659 -31.3616 -31.2849 -31.2093
   -31.1833 -31.1760 -30.7982 -30.7982 -30.7117 -30.7116 -30.6723 -30.6723
   -16.9932 -15.7687 -15.7071 -15.5704 -15.4903 -15.4682 -15.4569 -15.4323
   -15.2925 -15.2780 -15.2591 -15.2102 -15.2066 -15.2044 -15.1630 -15.1073
   -15.0750 -15.0724 -15.0640 -15.0371 -15.0031 -14.9979 -14.9637 -14.9551
   -14.9415 -14.8519 -14.8467 -14.8444 -14.6696 -14.3410 -12.9779 -12.9778
    -9.4454  -7.2400  -4.5835  -3.0517  -2.9783  -2.8175  -2.7158  -2.6860
    -2.6541  -2.5096  -2.4753  -2.4651  -2.4487  -2.4108  -2.3891  -2.3841
    -2.3558  -2.3418  -2.3374  -2.3178  -2.3080  -2.2962  -2.2508  -2.2110
    -2.2043  -2.1985  -2.1679  -2.1486  -2.1358  -2.1070  -2.0876  -2.0717
    -2.0574  -2.0080  -1.8354  -1.8050  -1.7036  -1.6846  -1.6754  -1.6510
    -1.5871  -1.5599  -1.5277  -1.4870  -1.4344  -1.3126  -1.2477  -1.2269
    -1.1959  -1.1861  -1.1337  -1.0134  -0.9773  -0.9545  -0.9082  -0.8711
    -0.8262  -0.8168  -0.6970  -0.6907  -0.6458  -0.6026  -0.4898  -0.4737
    -0.4644  -0.4507  -0.4366  -0.3084  -0.2989  -0.2921  -0.2749  -0.2309
    -0.2138  -0.1076  -0.0064   0.0062   0.1093   0.1623   0.2863   0.3521
     0.4469   0.4921   0.5159   0.6064   0.6412   0.7238   0.7489   0.7996
     0.8112   0.9099   0.9624   0.9800   0.9881   1.0561   1.8918   1.8927
     1.9722   1.9724   3.7381   3.8349   3.8731   3.8950   3.9405   4.0997
     4.1149   4.1626   4.1651   4.1819   4.2610

     the Fermi energy is     3.6358 ev

!    total energy              =   -2919.04282147 Ry
     estimated scf accuracy    <       0.00000006 Ry
     smearing contrib. (-TS)   =      -0.03608722 Ry
     internal energy E=F+TS    =   -2919.00673424 Ry

     The total energy is F=E-TS. E is the sum of the following terms:
     one-electron contribution =  -24479.17674606 Ry
     hartree contribution      =   12327.73135136 Ry
     xc contribution           =    -479.99905882 Ry
     ewald contribution        =    9712.43413939 Ry
     electric field correction =       0.00357989 Ry

     convergence has been achieved in  68 iterations

     Forces acting on atoms (cartesian axes, Ry/au):

     atom    1 type  1   force =     0.00009962   -0.00021634    0.09492893
     atom    2 type  1   force =    -0.00023304   -0.00035831   -0.17677173
     atom    3 type  2   force =    -0.00004447   -0.00006644   -0.02287783
     atom    4 type  2   force =    -0.00004434   -0.00167966    0.05579708
     atom    5 type  2   force =    -0.01135206   -0.00122992    0.00625627
     atom    6 type  2   force =     0.01253015   -0.00034734    0.00441790
     atom    7 type  1   force =    -0.00113304    0.00153141   -0.01376340
     atom    8 type  1   force =     0.00062301    0.00694487    0.01266971
     atom    9 type  2   force =     0.00020048   -0.00005360    0.00012541
     atom   10 type  2   force =    -0.00164005    0.00010625   -0.00999851
     atom   11 type  2   force =    -0.00020991    0.00002907    0.00011846
     atom   12 type  2   force =     0.00023130    0.00011127   -0.00010522
     atom   13 type  1   force =     0.00006803   -0.00000972    0.00041430
     atom   14 type  1   force =     0.00002089   -0.00016037    0.00026248
     atom   15 type  2   force =     0.00004565   -0.00004037   -0.00014813
     atom   16 type  2   force =     0.00025499    0.00028630   -0.00007935
     atom   17 type  2   force =    -0.00022750   -0.00022163    0.00015053
     atom   18 type  2   force =     0.00044519    0.00008691    0.00010315
     atom   19 type  1   force =     0.00042820    0.00003194   -0.00002819
     atom   20 type  1   force =     0.00006401    0.00011307    0.00074150
     atom   21 type  2   force =     0.00004626   -0.00004453    0.10362842
     atom   22 type  2   force =     0.00013197    0.00015261   -0.00019882
     atom   23 type  2   force =    -0.07097178   -0.00016556   -0.02732481
     atom   24 type  2   force =     0.07082283    0.00031637   -0.02733876
     atom   25 type  1   force =    -0.00012517   -0.00020956    0.09463846
     atom   26 type  1   force =    -0.00019914   -0.00046908   -0.17690474
     atom   27 type  2   force =     0.00007035   -0.00035494   -0.02190320
     atom   28 type  2   force =     0.00003644   -0.00139182    0.05535268
     atom   29 type  2   force =    -0.01157754   -0.00009242    0.00586510
     atom   30 type  2   force =     0.01264686    0.00012922    0.00408142
     atom   31 type  1   force =    -0.00125467    0.00415305   -0.01463846
     atom   32 type  1   force =     0.00055137   -0.00777054    0.01251947
     atom   33 type  2   force =    -0.00001361    0.00009215    0.00004426
     atom   34 type  2   force =    -0.00127496    0.00082899   -0.00840710
     atom   35 type  2   force =     0.00011460    0.00019813   -0.00004356
     atom   36 type  2   force =     0.00010929    0.00003967    0.00014859
     atom   37 type  1   force =     0.00002817   -0.00000666    0.00009652
     atom   38 type  1   force =    -0.00002403   -0.00015473   -0.00010481
     atom   39 type  2   force =    -0.00017735   -0.00018927   -0.00022175
     atom   40 type  2   force =     0.00023004   -0.00002610   -0.00024027
     atom   41 type  2   force =     0.00009243   -0.00005388   -0.00008391
     atom   42 type  2   force =     0.00000129    0.00013086   -0.00045551
     atom   43 type  1   force =    -0.00018930   -0.00002108    0.00027216
     atom   44 type  1   force =     0.00037829   -0.00004025    0.00048316
     atom   45 type  2   force =     0.00003325   -0.00004890    0.10358539
     atom   46 type  2   force =    -0.07097310   -0.00007295   -0.02731658
     atom   47 type  2   force =     0.07083156    0.00032508   -0.02734598
     atom   48 type  3   force =     0.01052565   -0.00868914   -0.00550823
     atom   49 type  4   force =    -0.00529650    0.00380206    0.00321982
     atom   50 type  5   force =    -0.00011190    0.00003484    0.00008764
     atom   51 type  5   force =    -0.00411111    0.00321170   -0.00207313
     atom   52 type  5   force =    -0.00047759    0.00152931    0.00387321

     Total force =     0.366473     Total SCF correction =     0.000617
  @ DRIVER MODE: Message from server: STATUS
  @ DRIVER MODE: Message from server: GETFORCE
  @ DRIVER MODE: Returning v,forces,stress,ensemble

     Writing output data file ./calc.save/
  @ DRIVER MODE: Message from server: EXIT
  @ DRIVE MODE: Exiting

     General routines

     Parallel routines

   This run was terminated on:  15: 4:53  23Aug2021

   JOB DONE.