     Program PWSCF v.6.7GPU starts on  9Sep2021 at  3:37:11

     R & G space division:  proc/nbgrp/npool/nimage =      10
     Reading input from /storage/home/hcoda1/3/ntian30/research/carbon/CxH_vib/CH3_calc/ads_slab/CH3N2H_a/out_0018/pw.inp
Warning: card &CELL ignored
Warning: card   CELL_DYNAMICS='IPI', ignored
Warning: card / ignored

     Current dimensions of program PWSCF are:
     Max number of different atomic species (ntypx) = 10
     Max number of k-points (npk) =  40000
     Max angular momentum in pseudopotentials (lmaxx) =  3
     Presently no symmetry can be used with electric field

     Message from routine cell_base_init:
     DEPRECATED: use true lattice parameter, not A to a.u. conversion factor

     IMPORTANT: XC functional enforced from input :
     Exchange-correlation= BEEF-VDW
                           (   1   4  43  14   2   0   0)
     Any further DFT definition will be discarded
     Please, verify this is what you really want

  @ DRIVER MODE: Connecting to
 qe_1139763_2767396.sched-torque.pace.gatech.eduxdxbkmji_scratch
  using UNIX socket
  @ DRIVER MODE: Message from server: STATUS
  @ DRIVER MODE: Message from server: INIT
  @ DRIVER MODE: Receiving replica           0          -1
  @ DRIVER MODE: Receiving encoded integer          25
  @ DRIVER MODE:  SCF:  T  FORCE:  T  STRESS:  F  VC:  F  ENSEMBLE:  F
  @ DRIVER MODE:  SCF:  T  FORCE:  T  STRESS:  F  VC:  F  ENSEMBLE:  F

     Using Slab Decomposition

     bravais-lattice index     =            0
     lattice parameter (alat)  =       1.8897  a.u.
     unit-cell volume          =    6658.9804 (a.u.)^3
     number of atoms/cell      =           54
     number of atomic types    =            5
     number of electrons       =       396.00
     number of Kohn-Sham states=          208
     kinetic-energy cutoff     =      29.3995  Ry
     charge density cutoff     =     293.9946  Ry
     scf convergence threshold =      7.3E-08
     mixing beta               =       0.0500
     number of iterations used =            8  plain     mixing
     Exchange-correlation= BEEF-VDW
                           (   1   4  43  14   2   0   0)

     celldm(1)=   1.889726  celldm(2)=   0.000000  celldm(3)=   0.000000
     celldm(4)=   0.000000  celldm(5)=   0.000000  celldm(6)=   0.000000

     crystal axes: (cart. coord. in units of alat)
               a(1) = (   6.579727   0.000000   0.000000 )
               a(2) = (  -0.000775   5.961596   0.000000 )
               a(3) = (   0.000000   0.000000  25.155947 )

     reciprocal axes: (cart. coord. in units 2 pi/alat)
               b(1) = (  0.151982  0.000020  0.000000 )
               b(2) = (  0.000000  0.167740  0.000000 )
               b(3) = (  0.000000  0.000000  0.039752 )

     PseudoPot. # 1 for Ti read from file:
     /storage/coda1/p-amedford6/0/shared/rich_project_chbe-medford/medford-share/data/pseudos_module/espresso/nninc/pbe/van/Ti.UPF
     MD5 check sum: 8e4df49b7f0d34bbd5052bf3f5ea0213
     Pseudo is Ultrasoft, Zval = 12.0
     Generated by new atomic code, or converted to UPF format
     Using radial grid of  851 points,  6 beta functions with:
                l(1) =   0
                l(2) =   0
                l(3) =   1
                l(4) =   1
                l(5) =   2
                l(6) =   2
     Q(r) pseudized with  8 coefficients,  rinner =    1.000   1.000   1.000
                                                       1.000   1.000

     PseudoPot. # 2 for O  read from file:
     /storage/coda1/p-amedford6/0/shared/rich_project_chbe-medford/medford-share/data/pseudos_module/espresso/nninc/pbe/van/O.UPF
     MD5 check sum: 78c19812648e8988a0fe644b0f25305e
     Pseudo is Ultrasoft, Zval =  6.0
     Generated by new atomic code, or converted to UPF format
     Using radial grid of  737 points,  4 beta functions with:
                l(1) =   0
                l(2) =   0
                l(3) =   1
                l(4) =   1
     Q(r) pseudized with  8 coefficients,  rinner =    0.800   0.800   0.800

     PseudoPot. # 3 for N  read from file:
     /storage/coda1/p-amedford6/0/shared/rich_project_chbe-medford/medford-share/data/pseudos_module/espresso/nninc/pbe/van/N.UPF
     MD5 check sum: 90d10febe142ad51ac9d5be1deb811c4
     Pseudo is Ultrasoft, Zval =  5.0
     Generated by new atomic code, or converted to UPF format
     Using radial grid of  729 points,  4 beta functions with:
                l(1) =   0
                l(2) =   0
                l(3) =   1
                l(4) =   1
     Q(r) pseudized with  8 coefficients,  rinner =    0.800   0.800   0.800

     PseudoPot. # 4 for C  read from file:
     /storage/coda1/p-amedford6/0/shared/rich_project_chbe-medford/medford-share/data/pseudos_module/espresso/nninc/pbe/van/C.UPF
     MD5 check sum: 1a69bf6b8db32088f5b2163dbdb77a27
     Pseudo is Ultrasoft, Zval =  4.0
     Generated by new atomic code, or converted to UPF format
     Using radial grid of  721 points,  4 beta functions with:
                l(1) =   0
                l(2) =   0
                l(3) =   1
                l(4) =   1
     Q(r) pseudized with  8 coefficients,  rinner =    0.800   0.800   0.800

     PseudoPot. # 5 for H  read from file:
     /storage/coda1/p-amedford6/0/shared/rich_project_chbe-medford/medford-share/data/pseudos_module/espresso/nninc/pbe/van/H.UPF
     MD5 check sum: b5ee9d7bfd3a09ee7748110bda690ff7
     Pseudo is Ultrasoft, Zval =  1.0
     Generated by new atomic code, or converted to UPF format
     Using radial grid of  615 points,  1 beta functions with:
                l(1) =   0
     Q(r) pseudized with  8 coefficients,  rinner =    0.800

     atomic species   valence    mass     pseudopotential
        Ti1           12.00    47.86700     Ti( 1.00)
        O1             6.00    15.99900     O ( 1.00)
        N1             5.00    14.00700     N ( 1.00)
        C1             4.00    12.01100     C ( 1.00)
        H1             1.00     1.00800     H ( 1.00)

     No symmetry found

   Cartesian axes

     site n.     atom                  positions (alat units)
         1           Ti1 tau(   1) = (   0.0004258   2.9801865   6.0000000  )
         2           Ti1 tau(   2) = (   3.2906075   1.4906267   6.0002472  )
         3           O1  tau(   3) = (   0.0006271   0.0005054   7.9858123  )
         4           O1  tau(   4) = (   3.2906025   0.0005020   7.3038282  )
         5           O1  tau(   5) = (   4.5942328   1.4918067   9.2879030  )
         6           O1  tau(   6) = (   1.9868534   1.4903216   9.2879459  )
         7           Ti1 tau(   7) = (   3.2907910   2.8959150   9.1758416  )
         8           Ti1 tau(   8) = (   0.0015273   1.4827037   9.2680791  )
         9           O1  tau(   9) = (   3.2896288   0.0042867  11.3205077  )
        10           O1  tau(  10) = (   0.0116148   5.9584955  10.6183126  )
        11           O1  tau(  11) = (   1.2848067   1.4985890  12.6232755  )
        12           O1  tau(  12) = (   5.2688617   1.4893877  12.6055203  )
        13           Ti1 tau(  13) = (   0.0799559   3.0171279  12.6206390  )
        14           Ti1 tau(  14) = (   3.4009582   1.4891986  12.4726338  )
        15           O1  tau(  15) = (   6.5707323   0.0080309  14.6263129  )
        16           O1  tau(  16) = (   3.2902489   0.0120312  13.8979102  )
        17           O1  tau(  17) = (   4.5126121   1.5346005  16.0500440  )
        18           O1  tau(  18) = (   2.0453867   1.5362785  16.0447169  )
        19           Ti1 tau(  19) = (   3.2767562   3.0203775  15.6892921  )
        20           Ti1 tau(  20) = (   6.5596632   1.5778499  15.8310978  )
        21           O1  tau(  21) = (   3.2904802   0.0005063   4.7018136  )
        22           O1  tau(  22) = (   6.5709656   0.0671247  17.2345223  )
        23           O1  tau(  23) = (   1.3043587   1.4918075   6.0039043  )
        24           O1  tau(  24) = (   5.2767064   1.4903225   6.0039473  )
        25           Ti1 tau(  25) = (   0.0000382   5.9609847   6.0000000  )
        26           Ti1 tau(  26) = (   3.2902200   4.4714249   6.0002472  )
        27           O1  tau(  27) = (   0.0002396   2.9813036   7.9858123  )
        28           O1  tau(  28) = (   3.2902150   2.9813002   7.3038282  )
        29           O1  tau(  29) = (   4.5938453   4.4726049   9.2879030  )
        30           O1  tau(  30) = (   1.9864658   4.4711199   9.2879459  )
        31           Ti1 tau(  31) = (   3.2891106   5.8743827   9.1763621  )
        32           Ti1 tau(  32) = (   0.0006254   4.4649316   9.2693709  )
        33           O1  tau(  33) = (   3.2919429   2.9835650  11.3172650  )
        34           O1  tau(  34) = (   0.0092240   2.9805883  10.6323155  )
        35           O1  tau(  35) = (   1.2842535   4.4799506  12.6241420  )
        36           O1  tau(  36) = (   5.2755836   4.4732255  12.6042992  )
        37           Ti1 tau(  37) = (   0.0783641   0.0295629  12.6394962  )
        38           Ti1 tau(  38) = (   3.4022659   4.4693352  12.4708195  )
        39           O1  tau(  39) = (   6.5693815   2.9799975  14.6326336  )
        40           O1  tau(  40) = (   3.2899495   3.0014797  13.8849495  )
        41           O1  tau(  41) = (   4.5062741   4.5069571  16.0893315  )
        42           O1  tau(  42) = (   2.0480812   4.5060041  16.0753496  )
        43           Ti1 tau(  43) = (   3.2742444   0.0367023  15.7020416  )
        44           Ti1 tau(  44) = (   6.5658628   4.6518251  16.1481936  )
        45           O1  tau(  45) = (   3.2900926   2.9813045   4.7018136  )
        46           O1  tau(  46) = (   1.3039711   4.4726057   6.0039043  )
        47           O1  tau(  47) = (   5.2763189   4.4711207   6.0039473  )
        48           N1  tau(  48) = (   6.5201982   2.6597193  18.5868863  )
        49           N1  tau(  49) = (   6.5663212   2.9659568  17.3251533  )
        50           C1  tau(  50) = (   0.1092964   3.6297355  19.6633281  )
        51           H1  tau(  51) = (   6.1365678   4.5355971  19.4091500  )
        52           H1  tau(  52) = (   6.3142024   3.1981282  20.5813133  )
        53           H1  tau(  53) = (   1.1661384   3.8973747  19.7839464  )
        54           H1  tau(  54) = (   6.5756389   1.6632157  18.8047554  )

     number of k points=    10  Fermi-Dirac smearing, width (Ry)=  0.0073
                       cart. coord. in units 2pi/alat
        k(    1) = (   0.0000000   0.0000000   0.0000000), wk =   0.1250000
        k(    2) = (   0.0000000   0.0419351   0.0000000), wk =   0.2500000
        k(    3) = (   0.0000000  -0.0838702   0.0000000), wk =   0.1250000
        k(    4) = (   0.0379955   0.0000049   0.0000000), wk =   0.2500000
        k(    5) = (   0.0379955   0.0419400   0.0000000), wk =   0.2500000
        k(    6) = (   0.0379955  -0.0838652   0.0000000), wk =   0.2500000
        k(    7) = (   0.0379955  -0.0419301   0.0000000), wk =   0.2500000
        k(    8) = (  -0.0759910  -0.0000099   0.0000000), wk =   0.1250000
        k(    9) = (  -0.0759910   0.0419252   0.0000000), wk =   0.2500000
        k(   10) = (  -0.0759910  -0.0838800   0.0000000), wk =   0.1250000

     Initial potential from superposition of free atoms

     starting charge  379.99915, renormalised to  396.00000

     negative rho (up, down):  1.473E-02 0.000E+00

     %%%%%%%%%%%%%%%%%%%%%%%%%%%%%%%%%%%%%%%%%%%%%%%%%%%%%%%%%%%%%%%%%%%%%%%%
     %                                                                      %
     % You are using vdW-DF, which was implemented by the Thonhauser group. %
     % Please cite the following two papers that made this development      %
     % possible and the two reviews that describe the various versions:     %
     %                                                                      %
     %   T. Thonhauser et al., PRL 115, 136402 (2015).                      %
     %   T. Thonhauser et al., PRB 76, 125112 (2007).                       %
     %   K. Berland et al., Rep. Prog. Phys. 78, 066501 (2015).             %
     %   D.C. Langreth et al., J. Phys.: Condens. Matter 21, 084203 (2009). %
     %                                                                      %
     %                                                                      %
     % If you are calculating the stress with vdW-DF, please also cite:     %
     %                                                                      %
     %   R. Sabatini et al., J. Phys.: Condens. Matter 24, 424209 (2012).   %
     %                                                                      %
     %%%%%%%%%%%%%%%%%%%%%%%%%%%%%%%%%%%%%%%%%%%%%%%%%%%%%%%%%%%%%%%%%%%%%%%%

     Adding external electric field

     Computed dipole along edir(3) :
        Dipole               -9.2736 Ry au,        -23.5711 Debye
        Dipole field         -0.0175 Ry au,

        Potential amp.        1.6223 Ry
        Total length         46.3494 bohr

     Starting wfcs are  300 atomic wfcs
  @ DRIVER MODE: Message from server: STATUS
  @ DRIVER MODE: Message from server: POSDATA
  @ DRIVER MODE: Reading and sharing cell
  @ DRIVER MODE: Reading and sharing positions
  @ DRIVER MODE: Received positions

     Self-consistent Calculation

     iteration #  1     ecut=    29.40 Ry     beta= 0.05
     Davidson diagonalization with overlap
     c_bands:  1 eigenvalues not converged
     c_bands:  1 eigenvalues not converged
     c_bands:  1 eigenvalues not converged
     ethr =  1.00E-05,  avg # of iterations = 17.9

[...]

     total energy              =   -2584.48793955 Ry
     estimated scf accuracy    <    3955.37918804 Ry

     iteration #  2     ecut=    29.40 Ry     beta= 0.05
     Davidson diagonalization with overlap
     ethr =  1.00E-02,  avg # of iterations = 22.7

[...]

     iteration # 43     ecut=    29.40 Ry     beta= 0.05
     Davidson diagonalization with overlap
     c_bands:  1 eigenvalues not converged
     c_bands:  1 eigenvalues not converged
     c_bands:  1 eigenvalues not converged
     c_bands:  1 eigenvalues not converged
     ethr =  2.37E-06,  avg # of iterations = 17.2

[...]

     total energy              =   -2940.39752738 Ry
     estimated scf accuracy    <       0.00000011 Ry

     iteration # 66     ecut=    29.40 Ry     beta= 0.05
     Davidson diagonalization with overlap
     ethr =  2.82E-11,  avg # of iterations =  6.3

     negative rho (up, down):  1.568E-02 0.000E+00

     Adding external electric field

     Computed dipole along edir(3) :
        Dipole                1.1377 Ry au,          2.8917 Debye
        Dipole field          0.0021 Ry au,

        Potential amp.       -0.1990 Ry
        Total length         46.3494 bohr

     End of self-consistent calculation

          k = 0.0000 0.0000 0.0000 ( 18029 PWs)   bands (ev):

   -55.6395 -55.6055 -55.5473 -55.5096 -55.4034 -55.3812 -55.3696 -55.3458
   -55.3390 -55.3322 -55.3120 -55.2628 -54.7227 -54.5812 -54.5543 -54.5472
   -32.1140 -32.0909 -31.9337 -31.9206 -31.8907 -31.8600 -31.8419 -31.8353
   -31.7927 -31.7765 -31.7752 -31.7363 -31.7272 -31.7092 -31.6981 -31.6887
   -31.6779 -31.6690 -31.6365 -31.6243 -31.6019 -31.5817 -31.5743 -31.5608
   -31.5471 -31.5410 -31.5342 -31.5324 -31.5267 -31.5096 -31.5005 -31.4989
   -31.4952 -31.4580 -31.4444 -31.3768 -31.2205 -30.9870 -30.9459 -30.9310
   -30.9023 -30.8918 -30.8796 -30.8038 -30.7625 -30.7341 -30.7175 -30.6065
   -17.9755 -16.2738 -16.0460 -15.7687 -15.6682 -15.6443 -15.5236 -15.3911
   -15.2907 -15.1956 -15.1552 -15.1010 -15.0963 -15.0670 -15.0367 -15.0007
   -14.9730 -14.9337 -14.9163 -14.8960 -14.8712 -14.8625 -14.7513 -14.7379
   -14.7132 -14.6217 -14.6115 -14.5393 -14.5128 -14.0835 -13.0835 -12.9677
   -12.0092  -8.9292  -5.7065  -4.4422  -4.1480  -3.6567  -3.5308  -3.5005
    -3.3991  -3.2311  -3.1347  -3.0748  -2.9879  -2.7607  -2.7261  -2.7161
    -2.6960  -2.6383  -2.4401  -2.4145  -2.3833  -2.3434  -2.3335  -2.3316
    -2.3170  -2.2552  -2.1895  -2.1244  -2.0279  -2.0236  -1.9650  -1.9513
    -1.9342  -1.8999  -1.8561  -1.8169  -1.7951  -1.7536  -1.7344  -1.7282
    -1.6870  -1.6057  -1.5020  -1.3455  -1.3335  -1.2972  -1.2490  -1.1935
    -1.0289  -1.0138  -0.9760  -0.9698  -0.9380  -0.8625  -0.7968  -0.7104
    -0.6752  -0.5976  -0.5816  -0.5532  -0.4787  -0.3930  -0.3703  -0.3553
    -0.3476  -0.3321  -0.2745  -0.1601  -0.0642  -0.0344   0.0866   0.0912
     0.1266   0.1710   0.1871   0.2689   0.3055   0.3195   0.3708   0.3712
     0.3829   0.4266   0.4496   0.5117   0.5675   0.6522   0.7252   0.7907
     0.8276   0.9441   1.0151   1.0805   1.1117   1.2412   1.3684   1.3788
     1.4405   1.6357   1.6384   2.0089   2.0532   3.5319   3.5531   3.6458
     3.6892   3.7869   3.8259   3.9704   4.0245   4.0628   4.1766   4.2082

[...]

          k = 0.0380-0.0419 0.0000 ( 17876 PWs)   bands (ev):

[...]

          k =-0.0760-0.0000 0.0000 ( 17886 PWs)   bands (ev):

[...]

          k =-0.0760-0.0839 0.0000 ( 17948 PWs)   bands (ev):

   -55.6226 -55.6222 -55.5343 -55.5225 -55.3865 -55.3862 -55.3721 -55.3479
   -55.3303 -55.3276 -55.3275 -55.2673 -54.7211 -54.5642 -54.5640 -54.5557
   -31.9295 -31.9294 -31.9189 -31.9189 -31.8987 -31.8893 -31.7920 -31.7822
   -31.7584 -31.7456 -31.7434 -31.7429 -31.6984 -31.6955 -31.6833 -31.6799
   -31.6710 -31.6673 -31.6668 -31.6421 -31.5972 -31.5958 -31.5822 -31.5792
   -31.5748 -31.5732 -31.5717 -31.5612 -31.5587 -31.5538 -31.5452 -31.5422
   -31.5358 -31.5250 -31.4991 -31.4651 -31.1298 -30.9661 -30.9319 -30.9194
   -30.8924 -30.8922 -30.8000 -30.7998 -30.7818 -30.7638 -30.7607 -30.7606
   -17.9697 -15.6968 -15.6855 -15.5064 -15.5012 -15.4407 -15.4346 -15.2817
   -15.2808 -15.2623 -15.2541 -15.1309 -15.1271 -15.0958 -15.0921 -15.0498
   -15.0414 -15.0228 -15.0144 -15.0128 -15.0062 -14.9800 -14.9293 -14.8948
   -14.8892 -14.7123 -14.7112 -14.5909 -14.5584 -14.2189 -13.0698 -13.0696
   -12.0100  -8.9390  -5.6994  -4.3809  -4.1497  -3.0105  -2.9865  -2.9746
    -2.7012  -2.6960  -2.6719  -2.6612  -2.4561  -2.4433  -2.4220  -2.4164
    -2.3892  -2.3833  -2.3686  -2.3614  -2.2791  -2.2681  -2.2566  -2.2338
    -2.2313  -2.2245  -2.2081  -2.2006  -2.1907  -2.1571  -2.1221  -2.0928
    -2.0579  -2.0358  -1.9164  -1.8063  -1.7277  -1.7209  -1.6904  -1.6845
    -1.6786  -1.6721  -1.6393  -1.5350  -1.4836  -1.4263  -1.2886  -1.2612
    -1.2455  -1.1982  -1.1098  -1.0295  -0.9661  -0.9490  -0.9014  -0.8582
    -0.8333  -0.7494  -0.7251  -0.7174  -0.6502  -0.6172  -0.5723  -0.5666
    -0.5518  -0.4866  -0.4387  -0.3888  -0.3653  -0.3346  -0.2895  -0.2688
    -0.2060  -0.1556  -0.1064  -0.1010  -0.0526  -0.0444   0.0204   0.1702
     0.2195   0.4733   0.4879   0.5183   0.6427   0.7143   0.7197   0.7475
     0.7791   0.8306   0.8423   0.9763   0.9879   0.9904   1.1561   1.1804
     1.2669   1.8089   1.8091   1.8723   1.8727   3.4345   3.9240   3.9414
     3.9666   3.9818   4.0532   4.0542   4.0623   4.0697   4.2478   4.2683

     the Fermi energy is     3.5090 ev

!    total energy              =   -2940.39755386 Ry
     estimated scf accuracy    <       0.00000007 Ry
     smearing contrib. (-TS)   =      -0.02303864 Ry
     internal energy E=F+TS    =   -2940.37451522 Ry

     The total energy is F=E-TS. E is the sum of the following terms:
     one-electron contribution =  -24107.67666267 Ry
     hartree contribution      =   12145.10780499 Ry
     xc contribution           =    -486.04472544 Ry
     ewald contribution        =    9508.23662530 Ry
     electric field correction =       0.00244259 Ry

     convergence has been achieved in  66 iterations

     Forces acting on atoms (cartesian axes, Ry/au):

     atom    1 type  1   force =     0.00016005   -0.00012699    0.09933118
     atom    2 type  1   force =    -0.00012687   -0.00048248   -0.17360146
     atom    3 type  2   force =    -0.00005194   -0.00000375   -0.02879314
     atom    4 type  2   force =     0.00007399   -0.00125195    0.04997945
     atom    5 type  2   force =    -0.01306138    0.00057591    0.00122094
     atom    6 type  2   force =     0.01460719    0.00138381   -0.00010188
     atom    7 type  1   force =    -0.00144140   -0.00058789   -0.00834516
     atom    8 type  1   force =     0.00087791   -0.00412354    0.04513444
     atom    9 type  2   force =    -0.00003310   -0.00065873   -0.00025209
     atom   10 type  2   force =    -0.00129158    0.00227402   -0.02839573
     atom   11 type  2   force =     0.00019302    0.00061616   -0.00002558
     atom   12 type  2   force =     0.00026493    0.00041294    0.00012073
     atom   13 type  1   force =     0.00037729    0.00020868   -0.00064439
     atom   14 type  1   force =     0.00003277    0.00047657    0.00027818
     atom   15 type  2   force =     0.00033977   -0.00006052    0.00001834
     atom   16 type  2   force =    -0.00041131   -0.00023449   -0.00014038
     atom   17 type  2   force =    -0.00099072    0.00015394   -0.00049592
     atom   18 type  2   force =     0.00087133    0.00020577    0.00026495
     atom   19 type  1   force =     0.00022997   -0.00008019   -0.00003851
     atom   20 type  1   force =    -0.00047962   -0.00095002    0.00010614
     atom   21 type  2   force =     0.00008849   -0.00007620    0.10274698
     atom   22 type  2   force =     0.00011075   -0.00004005    0.00015167
     atom   23 type  2   force =    -0.07214159   -0.00016060   -0.02834458
     atom   24 type  2   force =     0.07214001    0.00029860   -0.02834312
     atom   25 type  1   force =     0.00013017   -0.00020456    0.09864387
     atom   26 type  1   force =    -0.00011475   -0.00045637   -0.17381218
     atom   27 type  2   force =     0.00001026   -0.00002733   -0.02807215
     atom   28 type  2   force =     0.00011352   -0.00099656    0.04943648
     atom   29 type  2   force =    -0.01338041    0.00005150    0.00128123
     atom   30 type  2   force =     0.01483518    0.00041690   -0.00006113
     atom   31 type  1   force =    -0.00139176    0.00251626   -0.00863771
     atom   32 type  1   force =     0.00106652    0.00237108    0.04545087
     atom   33 type  2   force =    -0.00013057    0.00104358    0.00057325
     atom   34 type  2   force =    -0.00071791    0.00120355   -0.03113035
     atom   35 type  2   force =     0.00068527   -0.00051535   -0.00017017
     atom   36 type  2   force =    -0.00162268   -0.00011636    0.00007525
     atom   37 type  1   force =    -0.00018025   -0.00153499    0.00014853
     atom   38 type  1   force =     0.00078061   -0.00004808    0.00047992
     atom   39 type  2   force =     0.00032157    0.00016970   -0.00049728
     atom   40 type  2   force =    -0.00040441    0.00032934    0.00000533
     atom   41 type  2   force =     0.00045477   -0.00060256    0.00006417
     atom   42 type  2   force =    -0.00044873   -0.00072759    0.00057925
     atom   43 type  1   force =     0.00037315   -0.00031060   -0.00062045
     atom   44 type  1   force =    -0.00035607   -0.00055179   -0.00032899
     atom   45 type  2   force =     0.00010872   -0.00006535    0.10276582
     atom   46 type  2   force =    -0.07216364   -0.00009503   -0.02833977
     atom   47 type  2   force =     0.07214883    0.00034534   -0.02831454
     atom   48 type  3   force =     0.00037132    0.00144957    0.00375487
     atom   49 type  3   force =     0.00008645    0.00014964    0.00187480
     atom   50 type  4   force =     0.00181287    0.00345108   -0.01845762
     atom   51 type  5   force =     0.00098850   -0.00236059    0.00257138
     atom   52 type  5   force =    -0.00269976   -0.00353542    0.00826328
     atom   53 type  5   force =    -0.00044489    0.00055976    0.00085547
     atom   54 type  5   force =    -0.00056988    0.00032221   -0.00021253

     Total force =     0.372841     Total SCF correction =     0.000783
  @ DRIVER MODE: Message from server: STATUS
  @ DRIVER MODE: Message from server: GETFORCE
  @ DRIVER MODE: Returning v,forces,stress,ensemble

     Writing output data file ./calc.save/
  @ DRIVER MODE: Message from server: EXIT
  @ DRIVE MODE: Exiting

     General routines

     Parallel routines

   This run was terminated on:   3:53:49   9Sep2021

   JOB DONE.