     Program PWSCF v.6.7GPU starts on 15Sep2021 at 21:50:11

     R & G space division:  proc/nbgrp/npool/nimage =      10
     Reading input from /storage/home/hcoda1/3/ntian30/research/carbon/CxH_vib/H2O_calc/ads_slab/CH2NHHH2O_a/out_0019/pw.inp
Warning: card &CELL ignored
Warning: card   CELL_DYNAMICS='IPI', ignored
Warning: card / ignored

     Current dimensions of program PWSCF are:
     Max number of different atomic species (ntypx) = 10
     Max number of k-points (npk) =  40000
     Max angular momentum in pseudopotentials (lmaxx) =  3
     Presently no symmetry can be used with electric field

     Message from routine cell_base_init:
     DEPRECATED: use true lattice parameter, not A to a.u. conversion factor

     IMPORTANT: XC functional enforced from input :
     Exchange-correlation= BEEF-VDW
                           (   1   4  43  14   2   0   0)
     Any further DFT definition will be discarded
     Please, verify this is what you really want

  @ DRIVER MODE: Connecting to
 qe_1139763_2852609.sched-torque.pace.gatech.edunqiey_a2_scratch
  using UNIX socket
  @ DRIVER MODE: Message from server: STATUS
  @ DRIVER MODE: Message from server: INIT
  @ DRIVER MODE: Receiving replica           0          -1
  @ DRIVER MODE: Receiving encoded integer          25
  @ DRIVER MODE:  SCF:  T  FORCE:  T  STRESS:  F  VC:  F  ENSEMBLE:  F
  @ DRIVER MODE:  SCF:  T  FORCE:  T  STRESS:  F  VC:  F  ENSEMBLE:  F

     Using Slab Decomposition

     bravais-lattice index     =            0
     lattice parameter (alat)  =       1.8897  a.u.
     unit-cell volume          =    6658.9804 (a.u.)^3
     number of atoms/cell      =           56
     number of atomic types    =            5
     number of electrons       =       399.00
     number of Kohn-Sham states=          209
     kinetic-energy cutoff     =      29.3995  Ry
     charge density cutoff     =     293.9946  Ry
     scf convergence threshold =      7.3E-08
     mixing beta               =       0.0500
     number of iterations used =            8  plain     mixing
     Exchange-correlation= BEEF-VDW
                           (   1   4  43  14   2   0   0)

     celldm(1)=   1.889726  celldm(2)=   0.000000  celldm(3)=   0.000000
     celldm(4)=   0.000000  celldm(5)=   0.000000  celldm(6)=   0.000000

     crystal axes: (cart. coord. in units of alat)
               a(1) = (   6.579727   0.000000   0.000000 )
               a(2) = (  -0.000775   5.961596   0.000000 )
               a(3) = (   0.000000   0.000000  25.155947 )

     reciprocal axes: (cart. coord. in units 2 pi/alat)
               b(1) = (  0.151982  0.000020  0.000000 )
               b(2) = (  0.000000  0.167740  0.000000 )
               b(3) = (  0.000000  0.000000  0.039752 )

     PseudoPot. # 1 for Ti read from file:
     /storage/coda1/p-amedford6/0/shared/rich_project_chbe-medford/medford-share/data/pseudos_module/espresso/nninc/pbe/van/Ti.UPF
     MD5 check sum: 8e4df49b7f0d34bbd5052bf3f5ea0213
     Pseudo is Ultrasoft, Zval = 12.0
     Generated by new atomic code, or converted to UPF format
     Using radial grid of  851 points,  6 beta functions with:
                l(1) =   0
                l(2) =   0
                l(3) =   1
                l(4) =   1
                l(5) =   2
                l(6) =   2
     Q(r) pseudized with  8 coefficients,  rinner =    1.000   1.000   1.000
                                                       1.000   1.000

     PseudoPot. # 2 for O  read from file:
     /storage/coda1/p-amedford6/0/shared/rich_project_chbe-medford/medford-share/data/pseudos_module/espresso/nninc/pbe/van/O.UPF
     MD5 check sum: 78c19812648e8988a0fe644b0f25305e
     Pseudo is Ultrasoft, Zval =  6.0
     Generated by new atomic code, or converted to UPF format
     Using radial grid of  737 points,  4 beta functions with:
                l(1) =   0
                l(2) =   0
                l(3) =   1
                l(4) =   1
     Q(r) pseudized with  8 coefficients,  rinner =    0.800   0.800   0.800

     PseudoPot. # 3 for N  read from file:
     /storage/coda1/p-amedford6/0/shared/rich_project_chbe-medford/medford-share/data/pseudos_module/espresso/nninc/pbe/van/N.UPF
     MD5 check sum: 90d10febe142ad51ac9d5be1deb811c4
     Pseudo is Ultrasoft, Zval =  5.0
     Generated by new atomic code, or converted to UPF format
     Using radial grid of  729 points,  4 beta functions with:
                l(1) =   0
                l(2) =   0
                l(3) =   1
                l(4) =   1
     Q(r) pseudized with  8 coefficients,  rinner =    0.800   0.800   0.800

     PseudoPot. # 4 for C  read from file:
     /storage/coda1/p-amedford6/0/shared/rich_project_chbe-medford/medford-share/data/pseudos_module/espresso/nninc/pbe/van/C.UPF
     MD5 check sum: 1a69bf6b8db32088f5b2163dbdb77a27
     Pseudo is Ultrasoft, Zval =  4.0
     Generated by new atomic code, or converted to UPF format
     Using radial grid of  721 points,  4 beta functions with:
                l(1) =   0
                l(2) =   0
                l(3) =   1
                l(4) =   1
     Q(r) pseudized with  8 coefficients,  rinner =    0.800   0.800   0.800

     PseudoPot. # 5 for H  read from file:
     /storage/coda1/p-amedford6/0/shared/rich_project_chbe-medford/medford-share/data/pseudos_module/espresso/nninc/pbe/van/H.UPF
     MD5 check sum: b5ee9d7bfd3a09ee7748110bda690ff7
     Pseudo is Ultrasoft, Zval =  1.0
     Generated by new atomic code, or converted to UPF format
     Using radial grid of  615 points,  1 beta functions with:
                l(1) =   0
     Q(r) pseudized with  8 coefficients,  rinner =    0.800

     atomic species   valence    mass     pseudopotential
        Ti1           12.00    47.86700     Ti( 1.00)
        O1             6.00    15.99900     O ( 1.00)
        N1             5.00    14.00700     N ( 1.00)
        C1             4.00    12.01100     C ( 1.00)
        H1             1.00     1.00800     H ( 1.00)

     No symmetry found

   Cartesian axes

     site n.     atom                  positions (alat units)
         1           Ti1 tau(   1) = (   0.0004258   2.9801865   6.0000000  )
         2           Ti1 tau(   2) = (   3.2906075   1.4906267   6.0002472  )
         3           O1  tau(   3) = (   0.0006271   0.0005054   7.9858123  )
         4           O1  tau(   4) = (   3.2906025   0.0005020   7.3038282  )
         5           O1  tau(   5) = (   4.5942328   1.4918067   9.2879030  )
         6           O1  tau(   6) = (   1.9868534   1.4903216   9.2879459  )
         7           Ti1 tau(   7) = (   3.2907910   2.8959150   9.1758416  )
         8           Ti1 tau(   8) = (   0.0015273   1.4827037   9.2680791  )
         9           O1  tau(   9) = (   3.2861202   0.0128588  11.3777969  )
        10           O1  tau(  10) = (   0.0116148   5.9584955  10.6183126  )
        11           O1  tau(  11) = (   1.2831632   1.4993340  12.6921085  )
        12           O1  tau(  12) = (   5.2921761   1.5015178  12.6679780  )
        13           Ti1 tau(  13) = (   0.0111066   2.9912061  12.5123142  )
        14           Ti1 tau(  14) = (   3.3187119   1.4875497  12.5412637  )
        15           O1  tau(  15) = (   6.5416963   5.9006142  14.6662030  )
        16           O1  tau(  16) = (   3.3066524   0.0016155  14.0179881  )
        17           O1  tau(  17) = (   4.5377470   1.5714702  16.1207712  )
        18           O1  tau(  18) = (   1.9925948   1.5577299  16.0387284  )
        19           Ti1 tau(  19) = (   3.2598466   3.0207798  15.7337896  )
        20           Ti1 tau(  20) = (   0.0086319   1.3133152  15.8444473  )
        21           O1  tau(  21) = (   3.2904802   0.0005063   4.7018136  )
        22           O1  tau(  22) = (   6.5660721   0.1678205  17.2271563  )
        23           O1  tau(  23) = (   1.3043587   1.4918075   6.0039043  )
        24           O1  tau(  24) = (   5.2767064   1.4903225   6.0039473  )
        25           Ti1 tau(  25) = (   0.0000382   5.9609847   6.0000000  )
        26           Ti1 tau(  26) = (   3.2902200   4.4714249   6.0002472  )
        27           O1  tau(  27) = (   0.0002396   2.9813036   7.9858123  )
        28           O1  tau(  28) = (   3.2902150   2.9813002   7.3038282  )
        29           O1  tau(  29) = (   4.5938453   4.4726049   9.2879030  )
        30           O1  tau(  30) = (   1.9864658   4.4711199   9.2879459  )
        31           Ti1 tau(  31) = (   3.2891106   5.8743827   9.1763621  )
        32           Ti1 tau(  32) = (   0.0006254   4.4649316   9.2693709  )
        33           O1  tau(  33) = (   3.2870289   2.9785969  11.3746142  )
        34           O1  tau(  34) = (   0.0092240   2.9805883  10.6323155  )
        35           O1  tau(  35) = (   1.2865429   4.4729593  12.6568099  )
        36           O1  tau(  36) = (   5.2907978   4.4713399  12.6331247  )
        37           Ti1 tau(  37) = (   0.0245089   0.0029545  12.5000319  )
        38           Ti1 tau(  38) = (   3.3192338   4.4773935  12.5310228  )
        39           O1  tau(  39) = (   6.5398775   3.0461246  14.9162120  )
        40           O1  tau(  40) = (   3.2968145   3.0151409  13.9465962  )
        41           O1  tau(  41) = (   4.5189833   4.4812017  16.2068643  )
        42           O1  tau(  42) = (   1.9905864   4.4756957  16.1679402  )
        43           Ti1 tau(  43) = (   3.3140030   0.0507474  15.8534526  )
        44           Ti1 tau(  44) = (   0.0184218   4.5194176  15.9927436  )
        45           O1  tau(  45) = (   3.2900926   2.9813045   4.7018136  )
        46           O1  tau(  46) = (   1.3039711   4.4726057   6.0039043  )
        47           O1  tau(  47) = (   5.2763189   4.4711207   6.0039473  )
        48           N1  tau(  48) = (   6.2908993   3.4294391  18.1752670  )
        49           C1  tau(  49) = (   0.7550536   3.1452864  19.0745941  )
        50           H1  tau(  50) = (   1.1396299   3.9643166  19.6610198  )
        51           H1  tau(  51) = (   1.3201158   2.2513941  18.9084762  )
        52           H1  tau(  52) = (   5.7550451   4.2450011  18.4501662  )
        53           H1  tau(  53) = (   5.6463078   2.6497838  18.0429669  )
        54           O1  tau(  54) = (   3.1180431   0.1968263  18.2683150  )
        55           H1  tau(  55) = (   3.8687171   5.7182160  18.6922429  )
        56           H1  tau(  56) = (   2.3371514   5.6040609  18.4451484  )

     number of k points=    10  Fermi-Dirac smearing, width (Ry)=  0.0073
                       cart. coord. in units 2pi/alat
        k(    1) = (   0.0000000   0.0000000   0.0000000), wk =   0.1250000
        k(    2) = (   0.0000000   0.0419351   0.0000000), wk =   0.2500000
        k(    3) = (   0.0000000  -0.0838702   0.0000000), wk =   0.1250000
        k(    4) = (   0.0379955   0.0000049   0.0000000), wk =   0.2500000
        k(    5) = (   0.0379955   0.0419400   0.0000000), wk =   0.2500000
        k(    6) = (   0.0379955  -0.0838652   0.0000000), wk =   0.2500000
        k(    7) = (   0.0379955  -0.0419301   0.0000000), wk =   0.2500000
        k(    8) = (  -0.0759910  -0.0000099   0.0000000), wk =   0.1250000
        k(    9) = (  -0.0759910   0.0419252   0.0000000), wk =   0.2500000
        k(   10) = (  -0.0759910  -0.0838800   0.0000000), wk =   0.1250000

     Initial potential from superposition of free atoms

     starting charge  382.99914, renormalised to  399.00000

     negative rho (up, down):  1.613E-02 0.000E+00

     %%%%%%%%%%%%%%%%%%%%%%%%%%%%%%%%%%%%%%%%%%%%%%%%%%%%%%%%%%%%%%%%%%%%%%%%
     %                                                                      %
     % You are using vdW-DF, which was implemented by the Thonhauser group. %
     % Please cite the following two papers that made this development      %
     % possible and the two reviews that describe the various versions:     %
     %                                                                      %
     %   T. Thonhauser et al., PRL 115, 136402 (2015).                      %
     %   T. Thonhauser et al., PRB 76, 125112 (2007).                       %
     %   K. Berland et al., Rep. Prog. Phys. 78, 066501 (2015).             %
     %   D.C. Langreth et al., J. Phys.: Condens. Matter 21, 084203 (2009). %
     %                                                                      %
     %                                                                      %
     % If you are calculating the stress with vdW-DF, please also cite:     %
     %                                                                      %
     %   R. Sabatini et al., J. Phys.: Condens. Matter 24, 424209 (2012).   %
     %                                                                      %
     %%%%%%%%%%%%%%%%%%%%%%%%%%%%%%%%%%%%%%%%%%%%%%%%%%%%%%%%%%%%%%%%%%%%%%%%

     Adding external electric field

     Computed dipole along edir(3) :
        Dipole              -11.3169 Ry au,        -28.7647 Debye
        Dipole field         -0.0214 Ry au,

        Potential amp.        1.9797 Ry
        Total length         46.3494 bohr

     Starting wfcs are  302 atomic wfcs
  @ DRIVER MODE: Message from server: STATUS
  @ DRIVER MODE: Message from server: POSDATA
  @ DRIVER MODE: Reading and sharing cell
  @ DRIVER MODE: Reading and sharing positions
  @ DRIVER MODE: Received positions

     Self-consistent Calculation

     iteration #  1     ecut=    29.40 Ry     beta= 0.05
     Davidson diagonalization with overlap
     c_bands:  3 eigenvalues not converged
     c_bands:  3 eigenvalues not converged
     c_bands:  1 eigenvalues not converged
     c_bands:  4 eigenvalues not converged
     c_bands:  1 eigenvalues not converged
     c_bands:  1 eigenvalues not converged
     c_bands:  1 eigenvalues not converged
     c_bands:  3 eigenvalues not converged
     c_bands:  3 eigenvalues not converged
     ethr =  1.00E-05,  avg # of iterations = 24.0

[...]

     total energy              =   -2437.55489205 Ry
     estimated scf accuracy    <    5825.83841348 Ry

     iteration #  2     ecut=    29.40 Ry     beta= 0.05
     Davidson diagonalization with overlap
     ethr =  1.00E-02,  avg # of iterations = 27.1

[...]

     iteration # 76     ecut=    29.40 Ry     beta= 0.05
     Davidson diagonalization with overlap
     ethr =  1.12E-10,  avg # of iterations = 10.4

[...]

     total energy              =   -2955.08679788 Ry
     estimated scf accuracy    <       0.00000036 Ry

     iteration # 80     ecut=    29.40 Ry     beta= 0.05
     Davidson diagonalization with overlap
     c_bands:  1 eigenvalues not converged
     c_bands:  1 eigenvalues not converged
     ethr =  3.73E-11,  avg # of iterations = 17.0

     negative rho (up, down):  1.530E-02 0.000E+00

     Adding external electric field

     Computed dipole along edir(3) :
        Dipole                0.9597 Ry au,          2.4393 Debye
        Dipole field          0.0018 Ry au,

        Potential amp.       -0.1679 Ry
        Total length         46.3494 bohr

     End of self-consistent calculation

          k = 0.0000 0.0000 0.0000 ( 18029 PWs)   bands (ev):

   -55.5423 -55.5085 -55.5057 -55.4880 -55.4744 -55.4262 -55.3898 -55.3704
   -55.3532 -55.3407 -55.3355 -55.3071 -55.2957 -55.1133 -54.5348 -54.5008
   -32.0982 -32.0006 -31.9144 -31.8993 -31.8747 -31.8592 -31.8454 -31.8405
   -31.7976 -31.7625 -31.7569 -31.7535 -31.7436 -31.7194 -31.7140 -31.6932
   -31.6837 -31.6810 -31.6694 -31.6608 -31.6398 -31.6220 -31.6052 -31.5991
   -31.5700 -31.5657 -31.5616 -31.5587 -31.5564 -31.5439 -31.5347 -31.5278
   -31.5237 -31.5185 -31.5077 -31.4957 -31.4841 -31.4687 -31.4671 -31.4517
   -31.3387 -31.2944 -30.9441 -30.8502 -30.8281 -30.7604 -30.6737 -30.5628
   -19.2374 -16.4000 -16.3096 -16.0867 -15.9219 -15.8426 -15.7457 -15.6053
   -15.5337 -15.4232 -15.3870 -15.2281 -15.2037 -15.1971 -15.1622 -15.1450
   -15.1057 -15.0874 -15.0585 -15.0469 -15.0453 -15.0235 -14.9869 -14.9830
   -14.9406 -14.9275 -14.8684 -14.7722 -14.7043 -14.6402 -14.3284 -13.0372
   -12.9198  -9.2245  -7.0100  -6.5605  -4.6036  -3.7156  -3.5839  -3.5606
    -3.5018  -3.4470  -3.4061  -3.2986  -3.0694  -3.0298  -2.9777  -2.9369
    -2.8105  -2.7391  -2.7350  -2.6556  -2.5801  -2.5385  -2.4860  -2.4747
    -2.3967  -2.3632  -2.3453  -2.3217  -2.2787  -2.2504  -2.2090  -2.1178
    -2.0971  -2.0224  -1.9893  -1.9447  -1.9410  -1.8934  -1.8754  -1.8366
    -1.8355  -1.8257  -1.8049  -1.7676  -1.7249  -1.6695  -1.5783  -1.5521
    -1.3850  -1.2734  -1.2086  -1.1813  -1.1288  -1.0972  -1.0317  -0.9834
    -0.9697  -0.9330  -0.8663  -0.7637  -0.6978  -0.6854  -0.6253  -0.5340
    -0.4761  -0.4380  -0.3560  -0.3301  -0.3114  -0.3061  -0.2423  -0.1743
    -0.1279  -0.0538  -0.0376   0.0180   0.0406   0.0905   0.1216   0.1884
     0.2441   0.2843   0.3361   0.3904   0.3920   0.4070   0.4420   0.4437
     0.5436   0.5557   0.5779   0.6786   0.7777   0.9652   1.0637   1.0987
     1.3962   1.4117   1.4881   1.6725   2.0638   2.1119   3.5186   3.5490
     3.6328   3.6883   3.6972   3.7269   3.7836   4.0368   4.0485   4.0705
     4.0834

[...]

          k = 0.0380-0.0419 0.0000 ( 17876 PWs)   bands (ev):

[...]

          k =-0.0760-0.0000 0.0000 ( 17886 PWs)   bands (ev):

[...]

          k =-0.0760-0.0839 0.0000 ( 17948 PWs)   bands (ev):

   -55.5278 -55.5200 -55.4916 -55.4912 -55.4857 -55.4138 -55.4021 -55.3557
   -55.3552 -55.3497 -55.3243 -55.3238 -55.2939 -55.1151 -54.5179 -54.5176
   -31.9099 -31.8976 -31.8159 -31.8156 -31.7992 -31.7982 -31.7873 -31.7830
   -31.7828 -31.7668 -31.7556 -31.7483 -31.7309 -31.7132 -31.6941 -31.6882
   -31.6850 -31.6829 -31.6783 -31.6716 -31.6689 -31.6589 -31.6313 -31.6303
   -31.6112 -31.6108 -31.6084 -31.5988 -31.5877 -31.5794 -31.5691 -31.5633
   -31.5540 -31.5539 -31.5512 -31.5416 -31.5123 -31.5039 -31.5033 -31.4812
   -31.3780 -31.3417 -30.8409 -30.8407 -30.7567 -30.7565 -30.7171 -30.7170
   -19.2365 -16.3291 -15.8835 -15.7840 -15.6540 -15.5711 -15.5485 -15.4751
   -15.4169 -15.3833 -15.3269 -15.3041 -15.2902 -15.2748 -15.2400 -15.2143
   -15.1945 -15.1511 -15.1338 -15.1157 -15.0844 -15.0592 -15.0482 -15.0430
   -15.0373 -15.0027 -14.9983 -14.9132 -14.9037 -14.9002 -14.5704 -13.0213
   -13.0213  -9.2236  -7.0421  -6.4999  -4.5864  -3.5478  -3.1036  -3.0477
    -2.9974  -2.8537  -2.7938  -2.7279  -2.6937  -2.6493  -2.5996  -2.5663
    -2.5478  -2.4966  -2.4897  -2.4235  -2.4081  -2.3931  -2.3740  -2.3716
    -2.3621  -2.3248  -2.2900  -2.2762  -2.2692  -2.2600  -2.2468  -2.1995
    -2.1841  -2.1528  -2.1431  -2.1096  -2.0805  -2.0505  -1.9384  -1.9053
    -1.8805  -1.8176  -1.7521  -1.7463  -1.6649  -1.6431  -1.5869  -1.5831
    -1.5634  -1.5251  -1.3982  -1.2914  -1.2801  -1.2291  -1.1964  -1.1725
    -1.1097  -1.0590  -1.0045  -1.0016  -0.9105  -0.8643  -0.8380  -0.7361
    -0.7057  -0.6980  -0.5812  -0.5563  -0.5177  -0.5064  -0.5002  -0.4409
    -0.4334  -0.4090  -0.3270  -0.3081  -0.2811  -0.2695  -0.2072  -0.0466
    -0.0160   0.0284   0.1561   0.1951   0.3590   0.3899   0.4220   0.5282
     0.5731   0.6207   0.6251   0.7481   0.7580   0.8452   0.8565   0.8744
     0.9103   0.9220   1.8450   1.8463   1.9318   1.9320   3.5350   3.7780
     3.8435   3.8508   3.8880   4.0243   4.0681   4.1268   4.1302   4.1398
     4.1581

     the Fermi energy is     3.6052 ev

!    total energy              =   -2955.08680855 Ry
     estimated scf accuracy    <       0.00000006 Ry
     smearing contrib. (-TS)   =      -0.04072229 Ry
     internal energy E=F+TS    =   -2955.04608626 Ry

     The total energy is F=E-TS. E is the sum of the following terms:
     one-electron contribution =  -23873.37007810 Ry
     hartree contribution      =   12028.86808172 Ry
     xc contribution           =    -489.73687761 Ry
     ewald contribution        =    9379.19104959 Ry
     electric field correction =       0.00173814 Ry

     convergence has been achieved in  80 iterations

     Forces acting on atoms (cartesian axes, Ry/au):

     atom    1 type  1   force =    -0.00000743   -0.00025755    0.09337116
     atom    2 type  1   force =    -0.00015888   -0.00040144   -0.17807818
     atom    3 type  2   force =     0.00001275   -0.00035168   -0.02034112
     atom    4 type  2   force =    -0.00003586   -0.00190381    0.05858795
     atom    5 type  2   force =    -0.01018851   -0.00085325    0.00745947
     atom    6 type  2   force =     0.01152972   -0.00017903    0.00625985
     atom    7 type  1   force =    -0.00076530    0.00202622   -0.01055579
     atom    8 type  1   force =     0.00031675    0.00073760   -0.00333695
     atom    9 type  2   force =     0.00024471    0.00042669    0.00014713
     atom   10 type  2   force =    -0.00108387    0.00267325   -0.00406024
     atom   11 type  2   force =    -0.00026856    0.00005208    0.00002122
     atom   12 type  2   force =    -0.00004679   -0.00003140    0.00012298
     atom   13 type  1   force =     0.00074897    0.00072147    0.00038974
     atom   14 type  1   force =    -0.00093150   -0.00011437   -0.00008405
     atom   15 type  2   force =    -0.00013165   -0.00027014    0.00059328
     atom   16 type  2   force =     0.00031872    0.00055461    0.00003067
     atom   17 type  2   force =     0.00014796   -0.00027793    0.00029397
     atom   18 type  2   force =     0.00060028    0.00021842    0.00008057
     atom   19 type  1   force =    -0.00079641   -0.00062306    0.00008515
     atom   20 type  1   force =     0.00022278   -0.00051020   -0.00046038
     atom   21 type  2   force =     0.00002158   -0.00011654    0.10388942
     atom   22 type  2   force =    -0.00000182   -0.00129604    0.00061522
     atom   23 type  2   force =    -0.07053786   -0.00022209   -0.02692852
     atom   24 type  2   force =     0.07035442    0.00021610   -0.02697084
     atom   25 type  1   force =     0.00003463   -0.00021862    0.09296983
     atom   26 type  1   force =    -0.00023905   -0.00043386   -0.17804675
     atom   27 type  2   force =     0.00007027   -0.00024503   -0.01931097
     atom   28 type  2   force =     0.00002397   -0.00162644    0.05768665
     atom   29 type  2   force =    -0.01077131   -0.00046659    0.00808747
     atom   30 type  2   force =     0.01199041   -0.00007609    0.00684788
     atom   31 type  1   force =    -0.00063368    0.00609179   -0.01379023
     atom   32 type  1   force =     0.00028263   -0.00084542   -0.00339283
     atom   33 type  2   force =     0.00014218    0.00006667    0.00001134
     atom   34 type  2   force =    -0.00051062   -0.00107026   -0.00266671
     atom   35 type  2   force =    -0.00040888    0.00006166    0.00004476
     atom   36 type  2   force =     0.00004255    0.00001753    0.00026576
     atom   37 type  1   force =     0.00082823   -0.00082355    0.00022791
     atom   38 type  1   force =    -0.00088481    0.00034228   -0.00053357
     atom   39 type  2   force =    -0.00023075   -0.00014611   -0.00012119
     atom   40 type  2   force =     0.00033219    0.00014286    0.00042813
     atom   41 type  2   force =     0.00005539   -0.00028047   -0.00006093
     atom   42 type  2   force =     0.00052780   -0.00012968   -0.00046205
     atom   43 type  1   force =    -0.00105776    0.00003500    0.00039861
     atom   44 type  1   force =     0.00127653   -0.00051318   -0.00033128
     atom   45 type  2   force =     0.00000811   -0.00012248    0.10387695
     atom   46 type  2   force =    -0.07053152   -0.00016053   -0.02690310
     atom   47 type  2   force =     0.07036089    0.00027658   -0.02697455
     atom   48 type  3   force =     0.00021415    0.00048072    0.00052740
     atom   49 type  4   force =    -0.00369575    0.00678352    0.00013874
     atom   50 type  5   force =    -0.00021788   -0.00137064   -0.00064006
     atom   51 type  5   force =     0.00494760   -0.00568547    0.00007011
     atom   52 type  5   force =     0.00017680   -0.00018137   -0.00043481
     atom   53 type  5   force =    -0.00036249   -0.00020833    0.00069758
     atom   54 type  2   force =    -0.00003696    0.00019050    0.00026611
     atom   55 type  5   force =    -0.00066234   -0.00021270   -0.00011933
     atom   56 type  5   force =    -0.00063468    0.00010982    0.00011140

     Total force =     0.365935     Total SCF correction =     0.000560
  @ DRIVER MODE: Message from server: STATUS
  @ DRIVER MODE: Message from server: GETFORCE
  @ DRIVER MODE: Returning v,forces,stress,ensemble

     Writing output data file ./calc.save/
  @ DRIVER MODE: Message from server: EXIT
  @ DRIVE MODE: Exiting

     General routines

     Parallel routines

   This run was terminated on:  22:11:32  15Sep2021

   JOB DONE.