     Program PWSCF v.6.7GPU starts on 22Sep2021 at 23:38: 7

     R & G space division:  proc/nbgrp/npool/nimage =      10
     Reading input from /storage/home/hcoda1/3/ntian30/research/carbon/CxH_vib/H2O_calc/ads_slab/CH3OHO_a/out_0023/pw.inp
Warning: card &CELL ignored
Warning: card   CELL_DYNAMICS='IPI', ignored
Warning: card / ignored

     Current dimensions of program PWSCF are:
     Max number of different atomic species (ntypx) = 10
     Max number of k-points (npk) =  40000
     Max angular momentum in pseudopotentials (lmaxx) =  3
     Presently no symmetry can be used with electric field

     Message from routine cell_base_init:
     DEPRECATED: use true lattice parameter, not A to a.u. conversion factor

     IMPORTANT: XC functional enforced from input :
     Exchange-correlation= BEEF-VDW
                           (   1   4  43  14   2   0   0)
     Any further DFT definition will be discarded
     Please, verify this is what you really want

  @ DRIVER MODE: Connecting to
 qe_1139763_2937320.sched-torque.pace.gatech.edu72xkfn79_scratch
  using UNIX socket
  @ DRIVER MODE: Message from server: STATUS
  @ DRIVER MODE: Message from server: INIT
  @ DRIVER MODE: Receiving replica           0          -1
  @ DRIVER MODE: Receiving encoded integer          25
  @ DRIVER MODE:  SCF:  T  FORCE:  T  STRESS:  F  VC:  F  ENSEMBLE:  F
  @ DRIVER MODE:  SCF:  T  FORCE:  T  STRESS:  F  VC:  F  ENSEMBLE:  F

     Using Slab Decomposition

     bravais-lattice index     =            0
     lattice parameter (alat)  =       1.8897  a.u.
     unit-cell volume          =    6658.9804 (a.u.)^3
     number of atoms/cell      =           54
     number of atomic types    =            4
     number of electrons       =       398.00
     number of Kohn-Sham states=          209
     kinetic-energy cutoff     =      29.3995  Ry
     charge density cutoff     =     293.9946  Ry
     scf convergence threshold =      7.3E-08
     mixing beta               =       0.0500
     number of iterations used =            8  plain     mixing
     Exchange-correlation= BEEF-VDW
                           (   1   4  43  14   2   0   0)

     celldm(1)=   1.889726  celldm(2)=   0.000000  celldm(3)=   0.000000
     celldm(4)=   0.000000  celldm(5)=   0.000000  celldm(6)=   0.000000

     crystal axes: (cart. coord. in units of alat)
               a(1) = (   6.579727   0.000000   0.000000 )
               a(2) = (  -0.000775   5.961596   0.000000 )
               a(3) = (   0.000000   0.000000  25.155947 )

     reciprocal axes: (cart. coord. in units 2 pi/alat)
               b(1) = (  0.151982  0.000020  0.000000 )
               b(2) = (  0.000000  0.167740  0.000000 )
               b(3) = (  0.000000  0.000000  0.039752 )

     PseudoPot. # 1 for Ti read from file:
     /storage/coda1/p-amedford6/0/shared/rich_project_chbe-medford/medford-share/data/pseudos_module/espresso/nninc/pbe/van/Ti.UPF
     MD5 check sum: 8e4df49b7f0d34bbd5052bf3f5ea0213
     Pseudo is Ultrasoft, Zval = 12.0
     Generated by new atomic code, or converted to UPF format
     Using radial grid of  851 points,  6 beta functions with:
                l(1) =   0
                l(2) =   0
                l(3) =   1
                l(4) =   1
                l(5) =   2
                l(6) =   2
     Q(r) pseudized with  8 coefficients,  rinner =    1.000   1.000   1.000
                                                       1.000   1.000

     PseudoPot. # 2 for O  read from file:
     /storage/coda1/p-amedford6/0/shared/rich_project_chbe-medford/medford-share/data/pseudos_module/espresso/nninc/pbe/van/O.UPF
     MD5 check sum: 78c19812648e8988a0fe644b0f25305e
     Pseudo is Ultrasoft, Zval =  6.0
     Generated by new atomic code, or converted to UPF format
     Using radial grid of  737 points,  4 beta functions with:
                l(1) =   0
                l(2) =   0
                l(3) =   1
                l(4) =   1
     Q(r) pseudized with  8 coefficients,  rinner =    0.800   0.800   0.800

     PseudoPot. # 3 for C  read from file:
     /storage/coda1/p-amedford6/0/shared/rich_project_chbe-medford/medford-share/data/pseudos_module/espresso/nninc/pbe/van/C.UPF
     MD5 check sum: 1a69bf6b8db32088f5b2163dbdb77a27
     Pseudo is Ultrasoft, Zval =  4.0
     Generated by new atomic code, or converted to UPF format
     Using radial grid of  721 points,  4 beta functions with:
                l(1) =   0
                l(2) =   0
                l(3) =   1
                l(4) =   1
     Q(r) pseudized with  8 coefficients,  rinner =    0.800   0.800   0.800

     PseudoPot. # 4 for H  read from file:
     /storage/coda1/p-amedford6/0/shared/rich_project_chbe-medford/medford-share/data/pseudos_module/espresso/nninc/pbe/van/H.UPF
     MD5 check sum: b5ee9d7bfd3a09ee7748110bda690ff7
     Pseudo is Ultrasoft, Zval =  1.0
     Generated by new atomic code, or converted to UPF format
     Using radial grid of  615 points,  1 beta functions with:
                l(1) =   0
     Q(r) pseudized with  8 coefficients,  rinner =    0.800

     atomic species   valence    mass     pseudopotential
        Ti1           12.00    47.86700     Ti( 1.00)
        O1             6.00    15.99900     O ( 1.00)
        C1             4.00    12.01100     C ( 1.00)
        H1             1.00     1.00800     H ( 1.00)

     No symmetry found

   Cartesian axes

     site n.     atom                  positions (alat units)
         1           Ti1 tau(   1) = (   0.0004258   2.9801865   6.0000000  )
         2           Ti1 tau(   2) = (   3.2906075   1.4906267   6.0002472  )
         3           O1  tau(   3) = (   0.0006271   0.0005054   7.9858123  )
         4           O1  tau(   4) = (   3.2906025   0.0005020   7.3038282  )
         5           O1  tau(   5) = (   4.5942328   1.4918067   9.2879030  )
         6           O1  tau(   6) = (   1.9868534   1.4903216   9.2879459  )
         7           Ti1 tau(   7) = (   3.2957662   3.1068914   9.2181075  )
         8           Ti1 tau(   8) = (   0.0157633   1.6119101   9.3474628  )
         9           O1  tau(   9) = (   3.3075722   0.0245345  11.3221904  )
        10           O1  tau(  10) = (   0.0080709   0.0223756  10.5933645  )
        11           O1  tau(  11) = (   1.2996580   1.5014007  12.6293879  )
        12           O1  tau(  12) = (   5.3220639   1.4985920  12.6296061  )
        13           Ti1 tau(  13) = (   0.0338638   3.0995910  12.8036746  )
        14           Ti1 tau(  14) = (   3.3037623   1.5692239  12.4279754  )
        15           O1  tau(  15) = (   0.0261714   0.0103614  14.6808343  )
        16           O1  tau(  16) = (   3.3158872   5.9294016  13.9235834  )
        17           O1  tau(  17) = (   4.5845781   1.5190771  16.0542726  )
        18           O1  tau(  18) = (   2.0543804   1.5366111  16.0227792  )
        19           Ti1 tau(  19) = (   3.3281905   2.9581697  15.6655982  )
        20           Ti1 tau(  20) = (   0.0947853   1.4300879  15.9722461  )
        21           O1  tau(  21) = (   3.2904802   0.0005063   4.7018136  )
        22           O1  tau(  22) = (   0.0746355   0.0166105  17.2029963  )
        23           O1  tau(  23) = (   1.3043587   1.4918075   6.0039043  )
        24           O1  tau(  24) = (   5.2767064   1.4903225   6.0039473  )
        25           Ti1 tau(  25) = (   0.0000382   5.9609847   6.0000000  )
        26           Ti1 tau(  26) = (   3.2902200   4.4714249   6.0002472  )
        27           O1  tau(  27) = (   0.0002396   2.9813036   7.9858123  )
        28           O1  tau(  28) = (   3.2902150   2.9813002   7.3038282  )
        29           O1  tau(  29) = (   4.5938453   4.4726049   9.2879030  )
        30           O1  tau(  30) = (   1.9864658   4.4711199   9.2879459  )
        31           Ti1 tau(  31) = (   3.3049890   0.1224192   9.1815931  )
        32           Ti1 tau(  32) = (   0.0115838   4.5621182   9.3618056  )
        33           O1  tau(  33) = (   3.3056077   2.9569042  11.2892548  )
        34           O1  tau(  34) = (   0.0073068   3.0072357  10.5542745  )
        35           O1  tau(  35) = (   1.3032543   4.4799722  12.6367586  )
        36           O1  tau(  36) = (   5.3275811   4.4862388  12.6364370  )
        37           Ti1 tau(  37) = (   0.0060541   0.1153383  12.6179110  )
        38           Ti1 tau(  38) = (   3.3135592   4.6638430  12.6816895  )
        39           O1  tau(  39) = (   0.0323206   2.9919573  14.6814448  )
        40           O1  tau(  40) = (   3.3290587   2.9835885  13.8850256  )
        41           O1  tau(  41) = (   4.5809508   4.4372854  16.0867525  )
        42           O1  tau(  42) = (   2.0525355   4.4234120  16.0327814  )
        43           Ti1 tau(  43) = (   3.4083040   5.9395600  16.2643712  )
        44           Ti1 tau(  44) = (   0.1061243   4.5568233  16.0547075  )
        45           O1  tau(  45) = (   3.2900926   2.9813045   4.7018136  )
        46           O1  tau(  46) = (   1.3039711   4.4726057   6.0039043  )
        47           O1  tau(  47) = (   5.2763189   4.4711207   6.0039473  )
        48           C1  tau(  48) = (   6.0247352   2.9430639  18.6208924  )
        49           O1  tau(  49) = (   0.0129984   2.9830681  17.3098104  )
        50           H1  tau(  50) = (   4.9427965   2.8012130  18.5644550  )
        51           H1  tau(  51) = (   6.4567215   2.1053551  19.1608771  )
        52           H1  tau(  52) = (   6.2362830   3.8810018  19.1352789  )
        53           O1  tau(  53) = (   3.2195589   0.0134334  18.0862892  )
        54           H1  tau(  54) = (   2.3313237   0.1261415  18.4590370  )

     number of k points=    10  Fermi-Dirac smearing, width (Ry)=  0.0073
                       cart. coord. in units 2pi/alat
        k(    1) = (   0.0000000   0.0000000   0.0000000), wk =   0.1250000
        k(    2) = (   0.0000000   0.0419351   0.0000000), wk =   0.2500000
        k(    3) = (   0.0000000  -0.0838702   0.0000000), wk =   0.1250000
        k(    4) = (   0.0379955   0.0000049   0.0000000), wk =   0.2500000
        k(    5) = (   0.0379955   0.0419400   0.0000000), wk =   0.2500000
        k(    6) = (   0.0379955  -0.0838652   0.0000000), wk =   0.2500000
        k(    7) = (   0.0379955  -0.0419301   0.0000000), wk =   0.2500000
        k(    8) = (  -0.0759910  -0.0000099   0.0000000), wk =   0.1250000
        k(    9) = (  -0.0759910   0.0419252   0.0000000), wk =   0.2500000
        k(   10) = (  -0.0759910  -0.0838800   0.0000000), wk =   0.1250000

     Initial potential from superposition of free atoms

     starting charge  381.99917, renormalised to  398.00000

     negative rho (up, down):  1.724E-02 0.000E+00

     %%%%%%%%%%%%%%%%%%%%%%%%%%%%%%%%%%%%%%%%%%%%%%%%%%%%%%%%%%%%%%%%%%%%%%%%
     %                                                                      %
     % You are using vdW-DF, which was implemented by the Thonhauser group. %
     % Please cite the following two papers that made this development      %
     % possible and the two reviews that describe the various versions:     %
     %                                                                      %
     %   T. Thonhauser et al., PRL 115, 136402 (2015).                      %
     %   T. Thonhauser et al., PRB 76, 125112 (2007).                       %
     %   K. Berland et al., Rep. Prog. Phys. 78, 066501 (2015).             %
     %   D.C. Langreth et al., J. Phys.: Condens. Matter 21, 084203 (2009). %
     %                                                                      %
     %                                                                      %
     % If you are calculating the stress with vdW-DF, please also cite:     %
     %                                                                      %
     %   R. Sabatini et al., J. Phys.: Condens. Matter 24, 424209 (2012).   %
     %                                                                      %
     %%%%%%%%%%%%%%%%%%%%%%%%%%%%%%%%%%%%%%%%%%%%%%%%%%%%%%%%%%%%%%%%%%%%%%%%

     Adding external electric field

     Computed dipole along edir(3) :
        Dipole               -8.3444 Ry au,        -21.2093 Debye
        Dipole field         -0.0157 Ry au,

        Potential amp.        1.4597 Ry
        Total length         46.3494 bohr

     Starting wfcs are  300 atomic wfcs
  @ DRIVER MODE: Message from server: STATUS
  @ DRIVER MODE: Message from server: POSDATA
  @ DRIVER MODE: Reading and sharing cell
  @ DRIVER MODE: Reading and sharing positions
  @ DRIVER MODE: Received positions

     Self-consistent Calculation

     iteration #  1     ecut=    29.40 Ry     beta= 0.05
     Davidson diagonalization with overlap
     c_bands:  1 eigenvalues not converged
     c_bands:  1 eigenvalues not converged
     c_bands:  1 eigenvalues not converged
     c_bands:  1 eigenvalues not converged
     c_bands:  1 eigenvalues not converged
     ethr =  1.00E-05,  avg # of iterations = 18.3

[...]

     total energy              =   -2613.97870099 Ry
     estimated scf accuracy    <    3880.88445867 Ry

     iteration #  2     ecut=    29.40 Ry     beta= 0.05
     Davidson diagonalization with overlap
     ethr =  1.00E-02,  avg # of iterations = 22.9

[...]

     iteration # 40     ecut=    29.40 Ry     beta= 0.05
     Davidson diagonalization with overlap
     c_bands:  3 eigenvalues not converged
     c_bands:  1 eigenvalues not converged
     c_bands:  2 eigenvalues not converged
     c_bands:  3 eigenvalues not converged
     c_bands:  1 eigenvalues not converged
     c_bands:  1 eigenvalues not converged
     c_bands:  1 eigenvalues not converged
     ethr =  5.16E-07,  avg # of iterations = 18.5

[...]

     total energy              =   -2965.10858858 Ry
     estimated scf accuracy    <       0.00000008 Ry

     iteration # 62     ecut=    29.40 Ry     beta= 0.05
     Davidson diagonalization with overlap
     ethr =  2.10E-11,  avg # of iterations =  2.6

     negative rho (up, down):  1.732E-02 0.000E+00

     Adding external electric field

     Computed dipole along edir(3) :
        Dipole                0.5368 Ry au,          1.3645 Debye
        Dipole field          0.0010 Ry au,

        Potential amp.       -0.0939 Ry
        Total length         46.3494 bohr

     End of self-consistent calculation

          k = 0.0000 0.0000 0.0000 ( 18029 PWs)   bands (ev):

   -56.4420 -56.3952 -55.8703 -55.8384 -55.8290 -55.8170 -55.7731 -55.7362
   -55.7116 -55.6982 -55.6592 -55.6170 -55.6137 -55.4668 -55.0454 -55.0114
   -32.8545 -32.7070 -32.6575 -32.6215 -32.5270 -32.4809 -32.3616 -32.3156
   -32.3093 -32.1946 -32.1568 -32.1342 -32.1320 -32.1116 -32.1059 -32.0695
   -32.0663 -32.0520 -32.0345 -32.0292 -32.0169 -31.9791 -31.9681 -31.9516
   -31.9436 -31.9311 -31.9285 -31.9178 -31.9161 -31.9050 -31.9002 -31.8878
   -31.8629 -31.8616 -31.8561 -31.8224 -31.8114 -31.8102 -31.7810 -31.7225
   -31.6921 -31.6730 -31.4395 -31.3862 -31.3618 -31.2563 -31.1714 -31.0607
   -17.6022 -16.6295 -16.5868 -16.4418 -16.2039 -16.0574 -15.9761 -15.7563
   -15.7539 -15.6344 -15.6235 -15.5886 -15.4508 -15.4384 -15.4311 -15.3761
   -15.3603 -15.3492 -15.3433 -15.3362 -15.3231 -15.2749 -15.2620 -15.2100
   -15.1516 -15.0850 -15.0555 -15.0120 -14.9929 -14.9570 -14.7267 -13.5475
   -13.4392  -9.3597  -4.3285  -4.2471  -4.1217  -4.0522  -3.8817  -3.7798
    -3.7515  -3.6688  -3.5779  -3.4685  -3.2698  -3.1080  -3.0510  -3.0145
    -2.9811  -2.9277  -2.8729  -2.8143  -2.7692  -2.7401  -2.7111  -2.6440
    -2.6283  -2.6166  -2.5885  -2.5802  -2.5445  -2.5110  -2.5007  -2.3688
    -2.3394  -2.3020  -2.2965  -2.2374  -2.2182  -2.1937  -2.1873  -2.1363
    -2.0436  -1.9626  -1.9269  -1.8878  -1.6985  -1.6423  -1.5734  -1.5071
    -1.4284  -1.3814  -1.3617  -1.3393  -1.2684  -1.2402  -1.1290  -1.1066
    -1.0610  -0.9977  -0.9940  -0.9544  -0.8972  -0.8709  -0.8063  -0.7739
    -0.7478  -0.6051  -0.5791  -0.5510  -0.5088  -0.5005  -0.4015  -0.3380
    -0.2893  -0.2693  -0.2218  -0.1877  -0.1495  -0.1016  -0.0842  -0.0577
     0.0312   0.0571   0.0817   0.1258   0.1612   0.1841   0.2031   0.2966
     0.3443   0.3621   0.3785   0.5343   0.5725   0.5893   0.7181   0.7306
     0.9026   0.9714   1.0089   1.1880   1.2345   1.5212   1.5634   2.8596
     3.0179   3.2891   3.4359   3.5043   3.5433   3.5970   3.6142   3.7554
     3.7929

[...]

          k = 0.0380-0.0419 0.0000 ( 17876 PWs)   bands (ev):

[...]

          k =-0.0760-0.0000 0.0000 ( 17886 PWs)   bands (ev):

[...]

          k =-0.0760-0.0839 0.0000 ( 17948 PWs)   bands (ev):

   -56.4349 -56.4022 -55.8684 -55.8328 -55.8280 -55.8130 -55.7780 -55.7399
   -55.7133 -55.6996 -55.6507 -55.6254 -55.6118 -55.4686 -55.0286 -55.0281
   -32.7024 -32.6853 -32.6615 -32.6574 -32.5867 -32.5588 -32.2496 -32.1861
   -32.1593 -32.1279 -32.1049 -32.1013 -32.0906 -32.0758 -32.0686 -32.0538
   -32.0493 -32.0416 -32.0361 -32.0284 -32.0282 -32.0204 -31.9985 -31.9970
   -31.9947 -31.9797 -31.9682 -31.9535 -31.9449 -31.9389 -31.9181 -31.9049
   -31.9016 -31.8885 -31.8750 -31.8607 -31.8601 -31.8262 -31.8158 -31.7963
   -31.7248 -31.6766 -31.3750 -31.3748 -31.2550 -31.2534 -31.2137 -31.2128
   -17.5644 -16.6017 -15.9841 -15.9042 -15.9001 -15.8886 -15.8620 -15.8200
   -15.7427 -15.7359 -15.6648 -15.5981 -15.5647 -15.5197 -15.4972 -15.4856
   -15.4482 -15.4436 -15.3862 -15.3425 -15.3260 -15.3148 -15.2950 -15.2517
   -15.2459 -15.2431 -15.2196 -15.2044 -15.1537 -15.0536 -14.8672 -13.5435
   -13.5423  -9.3599  -4.2612  -4.1677  -3.9866  -3.7447  -3.2163  -3.1403
    -3.0656  -3.0576  -2.9828  -2.9232  -2.9086  -2.8639  -2.8568  -2.8253
    -2.7533  -2.7429  -2.7298  -2.7196  -2.7121  -2.7034  -2.6807  -2.6356
    -2.6224  -2.6151  -2.5994  -2.5907  -2.5790  -2.5753  -2.5486  -2.5096
    -2.4395  -2.3796  -2.2552  -2.2477  -2.2130  -2.1965  -2.1555  -2.1435
    -2.0897  -1.9977  -1.9854  -1.9827  -1.8942  -1.8376  -1.6244  -1.6093
    -1.5922  -1.5255  -1.4535  -1.3867  -1.3630  -1.3400  -1.3073  -1.2845
    -1.2356  -1.1864  -1.1515  -1.1150  -1.0989  -1.0603  -1.0080  -0.9620
    -0.9070  -0.9031  -0.8600  -0.8126  -0.7813  -0.7017  -0.6960  -0.6725
    -0.6491  -0.6101  -0.5246  -0.4727  -0.4300  -0.3354  -0.2944  -0.2604
    -0.1204  -0.0612  -0.0242   0.0511   0.0950   0.1957   0.2202   0.2967
     0.3097   0.3385   0.3630   0.4382   0.5054   0.5615   0.6036   0.6473
     0.6586   0.7082   0.7713   1.3653   1.3658   1.3731   1.3808   3.4050
     3.4298   3.4376   3.4674   3.6937   3.7112   3.7837   3.8130   3.8301
     3.8834

     the Fermi energy is     2.2694 ev

!    total energy              =   -2965.10863669 Ry
     estimated scf accuracy    <       0.00000006 Ry
     smearing contrib. (-TS)   =      -0.00015942 Ry
     internal energy E=F+TS    =   -2965.10847727 Ry

     The total energy is F=E-TS. E is the sum of the following terms:
     one-electron contribution =  -24223.51991095 Ry
     hartree contribution      =   12201.07414924 Ry
     xc contribution           =    -490.03244865 Ry
     ewald contribution        =    9547.36918926 Ry
     electric field correction =       0.00054383 Ry

     convergence has been achieved in  62 iterations

     Forces acting on atoms (cartesian axes, Ry/au):

     atom    1 type  1   force =    -0.00002122    0.00003189    0.13238409
     atom    2 type  1   force =    -0.00019518    0.00779151   -0.15737997
     atom    3 type  2   force =     0.00008565   -0.00480524   -0.05218486
     atom    4 type  2   force =     0.00035926    0.00109148    0.04042257
     atom    5 type  2   force =    -0.00610781   -0.00278076   -0.00019341
     atom    6 type  2   force =     0.00839925   -0.00338118    0.00078568
     atom    7 type  1   force =    -0.00002868   -0.00015197   -0.00002623
     atom    8 type  1   force =     0.00020734   -0.00056844    0.00038442
     atom    9 type  2   force =    -0.00004447    0.00020167   -0.00004479
     atom   10 type  2   force =    -0.00014384   -0.00038071   -0.00016711
     atom   11 type  2   force =     0.00044024    0.00026854   -0.00017832
     atom   12 type  2   force =    -0.00027394    0.00016950   -0.00004335
     atom   13 type  1   force =    -0.00069252    0.00047996   -0.00028480
     atom   14 type  1   force =     0.00007714   -0.00032902   -0.00023222
     atom   15 type  2   force =    -0.00021792    0.00005191   -0.00078099
     atom   16 type  2   force =    -0.00033116    0.00011575    0.00008429
     atom   17 type  2   force =     0.00008122   -0.00001124    0.00004643
     atom   18 type  2   force =    -0.00064231    0.00016981   -0.00013291
     atom   19 type  1   force =     0.00003394   -0.00040685   -0.00013295
     atom   20 type  1   force =    -0.00005472   -0.00007110    0.00017540
     atom   21 type  2   force =    -0.00002322    0.00002108    0.09910526
     atom   22 type  2   force =     0.00001125    0.00016123    0.00024962
     atom   23 type  2   force =    -0.08090191    0.00049216   -0.03410627
     atom   24 type  2   force =     0.08070235    0.00095671   -0.03416759
     atom   25 type  1   force =    -0.00001851   -0.00027082    0.14100173
     atom   26 type  1   force =    -0.00013277   -0.00647786   -0.15703769
     atom   27 type  2   force =     0.00016268    0.00109494   -0.05218705
     atom   28 type  2   force =     0.00018937    0.00033533    0.04175594
     atom   29 type  2   force =    -0.00752363    0.00512838    0.00201899
     atom   30 type  2   force =     0.00859711    0.00383573    0.00272254
     atom   31 type  1   force =    -0.00002802    0.00016382   -0.00000293
     atom   32 type  1   force =     0.00030746   -0.00006206   -0.00052780
     atom   33 type  2   force =    -0.00005814    0.00040206    0.00021905
     atom   34 type  2   force =    -0.00011816    0.00019549    0.00039108
     atom   35 type  2   force =    -0.00048973   -0.00034456   -0.00006577
     atom   36 type  2   force =     0.00047541   -0.00043810    0.00016865
     atom   37 type  1   force =    -0.00055798   -0.00030991   -0.00010062
     atom   38 type  1   force =     0.00001904   -0.00002542   -0.00045227
     atom   39 type  2   force =    -0.00000837   -0.00014378   -0.00024141
     atom   40 type  2   force =    -0.00013982   -0.00014020   -0.00033103
     atom   41 type  2   force =    -0.00007807    0.00014562   -0.00036805
     atom   42 type  2   force =    -0.00002284    0.00034175   -0.00016246
     atom   43 type  1   force =    -0.00020573    0.00033887   -0.00015142
     atom   44 type  1   force =    -0.00000519   -0.00061221    0.00032200
     atom   45 type  2   force =    -0.00002811    0.00012214    0.09866358
     atom   46 type  2   force =    -0.08086210   -0.00164672   -0.03410399
     atom   47 type  2   force =     0.08067034   -0.00117488   -0.03417062
     atom   48 type  3   force =    -0.00206684    0.00364066   -0.00376044
     atom   49 type  2   force =    -0.00000458    0.00118342   -0.00211138
     atom   50 type  4   force =    -0.00052213    0.00029922   -0.00003979
     atom   51 type  4   force =     0.00202033   -0.00402243    0.00472963
     atom   52 type  4   force =     0.00015487    0.00001305    0.00059782
     atom   53 type  2   force =     0.00031859   -0.00026448   -0.00122459
     atom   54 type  4   force =    -0.00076322   -0.00042372    0.00086631

     Total force =     0.382777     Total SCF correction =     0.001062
  @ DRIVER MODE: Message from server: STATUS
  @ DRIVER MODE: Message from server: GETFORCE
  @ DRIVER MODE: Returning v,forces,stress,ensemble

     Writing output data file ./calc.save/
  @ DRIVER MODE: Message from server: EXIT
  @ DRIVE MODE: Exiting

     General routines

     Parallel routines

   This run was terminated on:  23:56:37  22Sep2021

   JOB DONE.