     Program PWSCF v.6.7GPU starts on 10Sep2021 at  9:49:13

     R & G space division:  proc/nbgrp/npool/nimage =      10
     Reading input from /storage/home/hcoda1/3/ntian30/research/carbon/CxH_vib/CH3_calc/ads_slab/CH3N2OH_l/out_0038/pw.inp
Warning: card &CELL ignored
Warning: card   CELL_DYNAMICS='IPI', ignored
Warning: card / ignored

     Current dimensions of program PWSCF are:
     Max number of different atomic species (ntypx) = 10
     Max number of k-points (npk) =  40000
     Max angular momentum in pseudopotentials (lmaxx) =  3
     Presently no symmetry can be used with electric field

     Message from routine cell_base_init:
     DEPRECATED: use true lattice parameter, not A to a.u. conversion factor

     IMPORTANT: XC functional enforced from input :
     Exchange-correlation= BEEF-VDW
                           (   1   4  43  14   2   0   0)
     Any further DFT definition will be discarded
     Please, verify this is what you really want

  @ DRIVER MODE: Connecting to
 qe_1139763_2779712.sched-torque.pace.gatech.eduxhrw7hfy_scratch
  using UNIX socket
  @ DRIVER MODE: Message from server: STATUS
  @ DRIVER MODE: Message from server: INIT
  @ DRIVER MODE: Receiving replica           0          -1
  @ DRIVER MODE: Receiving encoded integer          25
  @ DRIVER MODE:  SCF:  T  FORCE:  T  STRESS:  F  VC:  F  ENSEMBLE:  F
  @ DRIVER MODE:  SCF:  T  FORCE:  T  STRESS:  F  VC:  F  ENSEMBLE:  F

     Using Slab Decomposition

     bravais-lattice index     =            0
     lattice parameter (alat)  =       1.8897  a.u.
     unit-cell volume          =    6658.9804 (a.u.)^3
     number of atoms/cell      =           55
     number of atomic types    =            5
     number of electrons       =       402.00
     number of Kohn-Sham states=          211
     kinetic-energy cutoff     =      29.3995  Ry
     charge density cutoff     =     293.9946  Ry
     scf convergence threshold =      7.3E-08
     mixing beta               =       0.0500
     number of iterations used =            8  plain     mixing
     Exchange-correlation= BEEF-VDW
                           (   1   4  43  14   2   0   0)

     celldm(1)=   1.889726  celldm(2)=   0.000000  celldm(3)=   0.000000
     celldm(4)=   0.000000  celldm(5)=   0.000000  celldm(6)=   0.000000

     crystal axes: (cart. coord. in units of alat)
               a(1) = (   6.579727   0.000000   0.000000 )
               a(2) = (  -0.000775   5.961596   0.000000 )
               a(3) = (   0.000000   0.000000  25.155947 )

     reciprocal axes: (cart. coord. in units 2 pi/alat)
               b(1) = (  0.151982  0.000020  0.000000 )
               b(2) = (  0.000000  0.167740  0.000000 )
               b(3) = (  0.000000  0.000000  0.039752 )

     PseudoPot. # 1 for Ti read from file:
     /storage/coda1/p-amedford6/0/shared/rich_project_chbe-medford/medford-share/data/pseudos_module/espresso/nninc/pbe/van/Ti.UPF
     MD5 check sum: 8e4df49b7f0d34bbd5052bf3f5ea0213
     Pseudo is Ultrasoft, Zval = 12.0
     Generated by new atomic code, or converted to UPF format
     Using radial grid of  851 points,  6 beta functions with:
                l(1) =   0
                l(2) =   0
                l(3) =   1
                l(4) =   1
                l(5) =   2
                l(6) =   2
     Q(r) pseudized with  8 coefficients,  rinner =    1.000   1.000   1.000
                                                       1.000   1.000

     PseudoPot. # 2 for O  read from file:
     /storage/coda1/p-amedford6/0/shared/rich_project_chbe-medford/medford-share/data/pseudos_module/espresso/nninc/pbe/van/O.UPF
     MD5 check sum: 78c19812648e8988a0fe644b0f25305e
     Pseudo is Ultrasoft, Zval =  6.0
     Generated by new atomic code, or converted to UPF format
     Using radial grid of  737 points,  4 beta functions with:
                l(1) =   0
                l(2) =   0
                l(3) =   1
                l(4) =   1
     Q(r) pseudized with  8 coefficients,  rinner =    0.800   0.800   0.800

     PseudoPot. # 3 for N  read from file:
     /storage/coda1/p-amedford6/0/shared/rich_project_chbe-medford/medford-share/data/pseudos_module/espresso/nninc/pbe/van/N.UPF
     MD5 check sum: 90d10febe142ad51ac9d5be1deb811c4
     Pseudo is Ultrasoft, Zval =  5.0
     Generated by new atomic code, or converted to UPF format
     Using radial grid of  729 points,  4 beta functions with:
                l(1) =   0
                l(2) =   0
                l(3) =   1
                l(4) =   1
     Q(r) pseudized with  8 coefficients,  rinner =    0.800   0.800   0.800

     PseudoPot. # 4 for C  read from file:
     /storage/coda1/p-amedford6/0/shared/rich_project_chbe-medford/medford-share/data/pseudos_module/espresso/nninc/pbe/van/C.UPF
     MD5 check sum: 1a69bf6b8db32088f5b2163dbdb77a27
     Pseudo is Ultrasoft, Zval =  4.0
     Generated by new atomic code, or converted to UPF format
     Using radial grid of  721 points,  4 beta functions with:
                l(1) =   0
                l(2) =   0
                l(3) =   1
                l(4) =   1
     Q(r) pseudized with  8 coefficients,  rinner =    0.800   0.800   0.800

     PseudoPot. # 5 for H  read from file:
     /storage/coda1/p-amedford6/0/shared/rich_project_chbe-medford/medford-share/data/pseudos_module/espresso/nninc/pbe/van/H.UPF
     MD5 check sum: b5ee9d7bfd3a09ee7748110bda690ff7
     Pseudo is Ultrasoft, Zval =  1.0
     Generated by new atomic code, or converted to UPF format
     Using radial grid of  615 points,  1 beta functions with:
                l(1) =   0
     Q(r) pseudized with  8 coefficients,  rinner =    0.800

     atomic species   valence    mass     pseudopotential
        Ti1           12.00    47.86700     Ti( 1.00)
        O1             6.00    15.99900     O ( 1.00)
        N1             5.00    14.00700     N ( 1.00)
        C1             4.00    12.01100     C ( 1.00)
        H1             1.00     1.00800     H ( 1.00)

     No symmetry found

   Cartesian axes

     site n.     atom                  positions (alat units)
         1           Ti1 tau(   1) = (   0.0004258   2.9801865   6.0000000  )
         2           Ti1 tau(   2) = (   3.2906075   1.4906267   6.0002472  )
         3           O1  tau(   3) = (   0.0006271   0.0005054   7.9858123  )
         4           O1  tau(   4) = (   3.2906025   0.0005020   7.3038282  )
         5           O1  tau(   5) = (   4.5942328   1.4918067   9.2879030  )
         6           O1  tau(   6) = (   1.9868534   1.4903216   9.2879459  )
         7           Ti1 tau(   7) = (   3.2907910   2.8959150   9.1758416  )
         8           Ti1 tau(   8) = (   0.0015273   1.4827037   9.2680791  )
         9           O1  tau(   9) = (   3.3074573   5.9346435  11.2963613  )
        10           O1  tau(  10) = (   0.0116148   5.9584955  10.6183126  )
        11           O1  tau(  11) = (   1.3055178   1.4819292  12.6272398  )
        12           O1  tau(  12) = (   5.3158762   1.4804127  12.6185516  )
        13           Ti1 tau(  13) = (   0.0186029   2.8424156  12.6464711  )
        14           Ti1 tau(  14) = (   3.3167612   1.2924093  12.6669032  )
        15           O1  tau(  15) = (   0.0012442   5.9356390  14.6370070  )
        16           O1  tau(  16) = (   3.3127944   0.0275565  13.9018093  )
        17           O1  tau(  17) = (   4.5765900   1.5157235  16.0894388  )
        18           O1  tau(  18) = (   2.0422450   1.5317946  16.0210879  )
        19           Ti1 tau(  19) = (   3.3088329   2.9810726  15.6636066  )
        20           Ti1 tau(  20) = (   0.0236821   1.4688588  15.8133175  )
        21           O1  tau(  21) = (   3.2904802   0.0005063   4.7018136  )
        22           O1  tau(  22) = (   0.0676014   5.9495730  17.1734943  )
        23           O1  tau(  23) = (   1.3043587   1.4918075   6.0039043  )
        24           O1  tau(  24) = (   5.2767064   1.4903225   6.0039473  )
        25           Ti1 tau(  25) = (   0.0000382   5.9609847   6.0000000  )
        26           Ti1 tau(  26) = (   3.2902200   4.4714249   6.0002472  )
        27           O1  tau(  27) = (   0.0002396   2.9813036   7.9858123  )
        28           O1  tau(  28) = (   3.2902150   2.9813002   7.3038282  )
        29           O1  tau(  29) = (   4.5938453   4.4726049   9.2879030  )
        30           O1  tau(  30) = (   1.9864658   4.4711199   9.2879459  )
        31           Ti1 tau(  31) = (   3.2891106   5.8743827   9.1763621  )
        32           Ti1 tau(  32) = (   0.0006254   4.4649316   9.2693709  )
        33           O1  tau(  33) = (   3.3041982   3.0170362  11.2630756  )
        34           O1  tau(  34) = (   0.0092240   2.9805883  10.6323155  )
        35           O1  tau(  35) = (   1.3098214   4.4601496  12.6289764  )
        36           O1  tau(  36) = (   5.3139316   4.4642116  12.6209765  )
        37           Ti1 tau(  37) = (   0.0286784   5.8202107  12.5681754  )
        38           Ti1 tau(  38) = (   3.3194384   4.3879401  12.4232525  )
        39           O1  tau(  39) = (   6.5763552   2.9401740  14.6754030  )
        40           O1  tau(  40) = (   3.3328261   2.9762691  13.8808942  )
        41           O1  tau(  41) = (   4.5658580   4.4380642  16.1332302  )
        42           O1  tau(  42) = (   2.0359873   4.4031365  16.0422930  )
        43           Ti1 tau(  43) = (   3.3255947   5.9578944  16.3175027  )
        44           Ti1 tau(  44) = (   0.0374668   4.6230282  16.0307208  )
        45           O1  tau(  45) = (   3.2900926   2.9813045   4.7018136  )
        46           O1  tau(  46) = (   1.3039711   4.4726057   6.0039043  )
        47           O1  tau(  47) = (   5.2763189   4.4711207   6.0039473  )
        48           N1  tau(  48) = (   0.1245995   2.6662279  18.6673576  )
        49           N1  tau(  49) = (   0.0476076   2.8693738  17.4835824  )
        50           C1  tau(  50) = (   0.1295945   3.7926219  19.6405614  )
        51           H1  tau(  51) = (   6.3015398   4.7065717  19.2118634  )
        52           H1  tau(  52) = (   6.1525190   3.4626129  20.5140504  )
        53           H1  tau(  53) = (   1.1733748   3.9370966  19.9287387  )
        54           O1  tau(  54) = (   3.1081659   0.0197753  18.1302257  )
        55           H1  tau(  55) = (   2.1972620   0.2293568  18.4309947  )

     number of k points=    10  Fermi-Dirac smearing, width (Ry)=  0.0073
                       cart. coord. in units 2pi/alat
        k(    1) = (   0.0000000   0.0000000   0.0000000), wk =   0.1250000
        k(    2) = (   0.0000000   0.0419351   0.0000000), wk =   0.2500000
        k(    3) = (   0.0000000  -0.0838702   0.0000000), wk =   0.1250000
        k(    4) = (   0.0379955   0.0000049   0.0000000), wk =   0.2500000
        k(    5) = (   0.0379955   0.0419400   0.0000000), wk =   0.2500000
        k(    6) = (   0.0379955  -0.0838652   0.0000000), wk =   0.2500000
        k(    7) = (   0.0379955  -0.0419301   0.0000000), wk =   0.2500000
        k(    8) = (  -0.0759910  -0.0000099   0.0000000), wk =   0.1250000
        k(    9) = (  -0.0759910   0.0419252   0.0000000), wk =   0.2500000
        k(   10) = (  -0.0759910  -0.0838800   0.0000000), wk =   0.1250000

     Initial potential from superposition of free atoms

     starting charge  385.99915, renormalised to  402.00000

     negative rho (up, down):  1.432E-02 0.000E+00

     %%%%%%%%%%%%%%%%%%%%%%%%%%%%%%%%%%%%%%%%%%%%%%%%%%%%%%%%%%%%%%%%%%%%%%%%
     %                                                                      %
     % You are using vdW-DF, which was implemented by the Thonhauser group. %
     % Please cite the following two papers that made this development      %
     % possible and the two reviews that describe the various versions:     %
     %                                                                      %
     %   T. Thonhauser et al., PRL 115, 136402 (2015).                      %
     %   T. Thonhauser et al., PRB 76, 125112 (2007).                       %
     %   K. Berland et al., Rep. Prog. Phys. 78, 066501 (2015).             %
     %   D.C. Langreth et al., J. Phys.: Condens. Matter 21, 084203 (2009). %
     %                                                                      %
     %                                                                      %
     % If you are calculating the stress with vdW-DF, please also cite:     %
     %                                                                      %
     %   R. Sabatini et al., J. Phys.: Condens. Matter 24, 424209 (2012).   %
     %                                                                      %
     %%%%%%%%%%%%%%%%%%%%%%%%%%%%%%%%%%%%%%%%%%%%%%%%%%%%%%%%%%%%%%%%%%%%%%%%

     Adding external electric field

     Computed dipole along edir(3) :
        Dipole              -11.9923 Ry au,        -30.4815 Debye
        Dipole field         -0.0226 Ry au,

        Potential amp.        2.0979 Ry
        Total length         46.3494 bohr

     Starting wfcs are  304 atomic wfcs
  @ DRIVER MODE: Message from server: STATUS
  @ DRIVER MODE: Message from server: POSDATA
  @ DRIVER MODE: Reading and sharing cell
  @ DRIVER MODE: Reading and sharing positions
  @ DRIVER MODE: Received positions

     Self-consistent Calculation

     iteration #  1     ecut=    29.40 Ry     beta= 0.05
     Davidson diagonalization with overlap
     c_bands:  3 eigenvalues not converged
     c_bands:  5 eigenvalues not converged
     c_bands:  4 eigenvalues not converged
     c_bands:  4 eigenvalues not converged
     c_bands:  1 eigenvalues not converged
     c_bands:  4 eigenvalues not converged
     c_bands:  2 eigenvalues not converged
     c_bands:  5 eigenvalues not converged
     c_bands:  4 eigenvalues not converged
     ethr =  1.00E-05,  avg # of iterations = 23.6

[...]

     total energy              =   -2400.50357586 Ry
     estimated scf accuracy    <    6448.65411247 Ry

     iteration #  2     ecut=    29.40 Ry     beta= 0.05
     Davidson diagonalization with overlap
     ethr =  1.00E-02,  avg # of iterations = 22.3

[...]

     iteration # 45     ecut=    29.40 Ry     beta= 0.05
     Davidson diagonalization with overlap
     c_bands:  2 eigenvalues not converged
     c_bands:  1 eigenvalues not converged
     ethr =  2.23E-07,  avg # of iterations = 10.6

[...]

     total energy              =   -2972.75600755 Ry
     estimated scf accuracy    <       0.00000011 Ry

     iteration # 68     ecut=    29.40 Ry     beta= 0.05
     Davidson diagonalization with overlap
     ethr =  2.75E-11,  avg # of iterations =  4.9

     negative rho (up, down):  1.507E-02 0.000E+00

     Adding external electric field

     Computed dipole along edir(3) :
        Dipole                0.5654 Ry au,          1.4371 Debye
        Dipole field          0.0011 Ry au,

        Potential amp.       -0.0989 Ry
        Total length         46.3494 bohr

     End of self-consistent calculation

          k = 0.0000 0.0000 0.0000 ( 18029 PWs)   bands (ev):

   -56.2721 -56.2383 -55.8655 -55.8305 -55.6093 -55.5912 -55.5515 -55.4016
   -55.3539 -55.3447 -55.2304 -55.1811 -55.0691 -55.0430 -55.0385 -55.0045
   -32.7223 -32.5647 -32.5379 -32.4304 -32.3465 -32.3450 -32.3378 -32.0911
   -32.0847 -32.0607 -32.0100 -32.0044 -31.9752 -31.8997 -31.8947 -31.8544
   -31.8321 -31.8301 -31.8172 -31.7739 -31.7549 -31.7476 -31.7155 -31.7141
   -31.6845 -31.6722 -31.6141 -31.5612 -31.5561 -31.5431 -31.5394 -31.5111
   -31.4896 -31.4347 -31.4294 -31.4152 -31.3907 -31.3721 -31.3485 -31.3273
   -31.3022 -31.2806 -31.2795 -31.2733 -31.2584 -31.2535 -31.1691 -31.0570
   -18.9017 -16.5642 -16.3323 -16.2239 -15.9892 -15.8427 -15.7584 -15.7018
   -15.6994 -15.5808 -15.5448 -15.4517 -15.3629 -15.2939 -15.2620 -15.2584
   -15.1650 -15.1033 -15.0538 -15.0315 -15.0001 -14.9799 -14.9668 -14.8872
   -14.8784 -14.8540 -14.8099 -14.6898 -14.6265 -14.3272 -14.3094 -13.5359
   -13.4238 -11.5267  -6.9602  -4.4267  -4.1072  -4.0733  -4.0275  -3.8633
    -3.7759  -3.5686  -3.4512  -3.2661  -3.2488  -3.1491  -2.9835  -2.9753
    -2.9221  -2.8515  -2.7728  -2.7036  -2.6600  -2.6488  -2.5554  -2.4980
    -2.4961  -2.4832  -2.4432  -2.4068  -2.3189  -2.2764  -2.2631  -2.2252
    -2.1812  -2.1319  -2.1283  -2.0821  -2.0570  -1.9968  -1.9323  -1.8951
    -1.8708  -1.8060  -1.7458  -1.7061  -1.6397  -1.5919  -1.5803  -1.5752
    -1.5219  -1.3272  -1.2871  -1.2608  -1.2404  -1.0980  -1.0542  -1.0204
    -0.9549  -0.9385  -0.8487  -0.8232  -0.8057  -0.7815  -0.7097  -0.6966
    -0.6616  -0.6338  -0.4464  -0.4110  -0.3401  -0.3316  -0.2628  -0.2314
    -0.1975  -0.1580  -0.1255  -0.0720  -0.0598  -0.0061   0.0392   0.0688
     0.2102   0.2415   0.3245   0.3322   0.3353   0.3574   0.4347   0.4675
     0.5414   0.5938   0.5997   0.6512   0.7394   0.7785   0.8929   0.9625
     0.9863   1.0082   1.0436   1.0959   1.2167   1.5082   1.5333   1.5721
     2.7058   2.9537   3.0842   3.2309   3.3854   3.4893   3.7983   3.8154
     3.8521   3.8976   3.9423

[...]

          k = 0.0380-0.0419 0.0000 ( 17876 PWs)   bands (ev):

[...]

          k =-0.0760-0.0000 0.0000 ( 17886 PWs)   bands (ev):

[...]

          k =-0.0760-0.0839 0.0000 ( 17948 PWs)   bands (ev):

   -56.2552 -56.2550 -55.8528 -55.8429 -55.6038 -55.5904 -55.5569 -55.3942
   -55.3611 -55.3453 -55.2287 -55.1790 -55.0707 -55.0450 -55.0220 -55.0209
   -32.5503 -32.5501 -32.5384 -32.5383 -32.3825 -32.3821 -32.1720 -32.1630
   -32.0464 -32.0382 -32.0363 -32.0319 -31.9124 -31.8753 -31.8573 -31.8270
   -31.8260 -31.8246 -31.8151 -31.7841 -31.7710 -31.7245 -31.7118 -31.6970
   -31.6351 -31.6320 -31.6269 -31.6001 -31.5963 -31.5929 -31.5537 -31.5476
   -31.4815 -31.4353 -31.4192 -31.4160 -31.3907 -31.3618 -31.3610 -31.3430
   -31.3308 -31.2901 -31.2830 -31.2772 -31.2501 -31.2488 -31.2119 -31.2110
   -18.8988 -16.3142 -15.9750 -15.9668 -15.8358 -15.8304 -15.6576 -15.6456
   -15.5999 -15.5522 -15.5212 -15.4870 -15.3594 -15.3341 -15.2637 -15.2387
   -15.2042 -15.1791 -15.1552 -15.1500 -15.1132 -15.0715 -15.0214 -15.0171
   -14.9675 -14.9659 -14.8411 -14.7652 -14.6870 -14.5111 -14.4615 -13.5271
   -13.5265 -11.5246  -6.9747  -4.3742  -4.0834  -4.0534  -3.8339  -3.1390
    -3.0972  -2.9715  -2.9460  -2.8707  -2.8331  -2.7632  -2.7047  -2.6826
    -2.6697  -2.6587  -2.5938  -2.5649  -2.5595  -2.5176  -2.5024  -2.4955
    -2.4588  -2.4094  -2.3836  -2.3616  -2.3561  -2.3501  -2.2712  -2.2010
    -2.1987  -2.1793  -2.1462  -2.1139  -2.0339  -2.0267  -1.9855  -1.9515
    -1.9205  -1.8298  -1.7885  -1.7418  -1.6956  -1.6595  -1.5841  -1.5808
    -1.5131  -1.4662  -1.3538  -1.3307  -1.3116  -1.2693  -1.2320  -1.1939
    -1.1259  -1.1042  -1.0495  -1.0455  -1.0321  -1.0087  -0.8972  -0.8582
    -0.7643  -0.7239  -0.7007  -0.6768  -0.6342  -0.6267  -0.5563  -0.5332
    -0.4953  -0.4696  -0.4037  -0.3980  -0.3637  -0.2995  -0.1921  -0.0336
     0.0612   0.1035   0.1259   0.1443   0.1900   0.2990   0.3044   0.3778
     0.4517   0.4633   0.4824   0.5105   0.6570   0.7346   0.8413   0.8631
     0.9129   0.9610   1.0209   1.0889   1.3774   1.3849   1.3884   1.3890
     2.7185   3.5047   3.5071   3.5354   3.5466   3.7322   3.7349   3.7526
     3.8980   3.9269   3.9990

     the Fermi energy is     2.8898 ev

!    total energy              =   -2972.75604316 Ry
     estimated scf accuracy    <       0.00000002 Ry
     smearing contrib. (-TS)   =      -0.01286671 Ry
     internal energy E=F+TS    =   -2972.74317644 Ry

     The total energy is F=E-TS. E is the sum of the following terms:
     one-electron contribution =  -23636.52720357 Ry
     hartree contribution      =   11911.31014050 Ry
     xc contribution           =    -493.07473311 Ry
     ewald contribution        =    9245.54801646 Ry
     electric field correction =       0.00060328 Ry

     convergence has been achieved in  68 iterations

     Forces acting on atoms (cartesian axes, Ry/au):

     atom    1 type  1   force =    -0.00001200   -0.00036829    0.10683328
     atom    2 type  1   force =    -0.00005361    0.00019606   -0.16493006
     atom    3 type  2   force =     0.00005479    0.00001849   -0.03813813
     atom    4 type  2   force =     0.00006554   -0.00063796    0.03452495
     atom    5 type  2   force =    -0.00366508   -0.00218539   -0.00717276
     atom    6 type  2   force =     0.00569116   -0.00177037   -0.00684535
     atom    7 type  1   force =     0.00024828   -0.00516763    0.03716953
     atom    8 type  1   force =    -0.00001644    0.01089822    0.05886299
     atom    9 type  2   force =    -0.00043952    0.00028360   -0.00088158
     atom   10 type  2   force =    -0.00076534   -0.00040342   -0.04429847
     atom   11 type  2   force =     0.00027167   -0.00020580    0.00032392
     atom   12 type  2   force =    -0.00061350   -0.00054003   -0.00003297
     atom   13 type  1   force =     0.00003957    0.00031888    0.00052092
     atom   14 type  1   force =    -0.00024625   -0.00014576    0.00060637
     atom   15 type  2   force =    -0.00017265   -0.00036236   -0.00108770
     atom   16 type  2   force =     0.00033531    0.00008717    0.00028508
     atom   17 type  2   force =     0.00017564    0.00056047   -0.00007830
     atom   18 type  2   force =     0.00026879    0.00040372   -0.00023380
     atom   19 type  1   force =    -0.00026153   -0.00054905   -0.00041920
     atom   20 type  1   force =    -0.00002992   -0.00013749    0.00055753
     atom   21 type  2   force =     0.00004548    0.00021433    0.10034170
     atom   22 type  2   force =     0.00021937   -0.00075646    0.00019435
     atom   23 type  2   force =    -0.07695791   -0.00000517   -0.03002865
     atom   24 type  2   force =     0.07682503    0.00042181   -0.03008869
     atom   25 type  1   force =     0.00005413   -0.00041871    0.10686979
     atom   26 type  1   force =    -0.00016636   -0.00137878   -0.16529172
     atom   27 type  2   force =     0.00012578   -0.00063589   -0.03658345
     atom   28 type  2   force =     0.00003614    0.00111528    0.03010565
     atom   29 type  2   force =    -0.00204859    0.00418023   -0.01014755
     atom   30 type  2   force =     0.00411397    0.00462723   -0.00972356
     atom   31 type  1   force =     0.00023277    0.00323200    0.02270388
     atom   32 type  1   force =    -0.00015135   -0.01397217    0.05890840
     atom   33 type  2   force =    -0.00014022   -0.00120239   -0.00033981
     atom   34 type  2   force =    -0.00070565   -0.00007658   -0.05476909
     atom   35 type  2   force =    -0.00107812    0.00021085    0.00021476
     atom   36 type  2   force =     0.00053478   -0.00001004   -0.00021584
     atom   37 type  1   force =    -0.00014331   -0.00078034    0.00002113
     atom   38 type  1   force =    -0.00056671    0.00006815    0.00007971
     atom   39 type  2   force =    -0.00028297    0.00054157   -0.00001797
     atom   40 type  2   force =    -0.00025941   -0.00045776    0.00020006
     atom   41 type  2   force =    -0.00078290   -0.00008711   -0.00031789
     atom   42 type  2   force =    -0.00022974    0.00024450    0.00089176
     atom   43 type  1   force =     0.00144645    0.00098131   -0.00110872
     atom   44 type  1   force =    -0.00033541    0.00152987    0.00061660
     atom   45 type  2   force =     0.00003445    0.00000083    0.10015842
     atom   46 type  2   force =    -0.07700126    0.00003146   -0.03006111
     atom   47 type  2   force =     0.07689142    0.00045589   -0.03012760
     atom   48 type  3   force =     0.00015587   -0.00084289    0.00128853
     atom   49 type  3   force =     0.00004659    0.00082097   -0.00071609
     atom   50 type  4   force =     0.00028503    0.00154290   -0.00039825
     atom   51 type  5   force =    -0.00038521   -0.00038920    0.00040668
     atom   52 type  5   force =    -0.00037634   -0.00015564   -0.00027288
     atom   53 type  5   force =    -0.00002518    0.00017423    0.00049601
     atom   54 type  2   force =    -0.01538228    0.00314138    0.00497143
     atom   55 type  5   force =     0.01509672   -0.00265872   -0.00382624

     Total force =     0.380451     Total SCF correction =     0.000366
  @ DRIVER MODE: Message from server: STATUS
  @ DRIVER MODE: Message from server: GETFORCE
  @ DRIVER MODE: Returning v,forces,stress,ensemble

     Writing output data file ./calc.save/
  @ DRIVER MODE: Message from server: EXIT
  @ DRIVE MODE: Exiting

     General routines

     Parallel routines

   This run was terminated on:  10:17:40  10Sep2021

   JOB DONE.