     Program PWSCF v.6.7GPU starts on 30Jun2021 at 16: 1:28

     R & G space division:  proc/nbgrp/npool/nimage =      16
     Reading input from /storage/home/hcoda1/3/ntian30/research/carbon/30Jun_spin_polarized/ads_slab/CH3N2_b/30Jun.log/pw.inp
Warning: card &CELL ignored
Warning: card   CELL_DYNAMICS='IPI', ignored
Warning: card / ignored

     Current dimensions of program PWSCF are:
     Max number of different atomic species (ntypx) = 10
     Max number of k-points (npk) =  40000
     Max angular momentum in pseudopotentials (lmaxx) =  3
     Presently no symmetry can be used with electric field

     Message from routine cell_base_init:
     DEPRECATED: use true lattice parameter, not A to a.u. conversion factor

     IMPORTANT: XC functional enforced from input :
     Exchange-correlation= BEEF-VDW
                           (   1   4  43  14   2   0   0)
     Any further DFT definition will be discarded
     Please, verify this is what you really want

  @ DRIVER MODE: Connecting to
 qe_1139763_2240211.sched-torque.pace.gatech.eduj6chsm7i_scratch
  using UNIX socket
  @ DRIVER MODE: Message from server: STATUS
  @ DRIVER MODE: Message from server: INIT
  @ DRIVER MODE: Receiving replica           0          -1
  @ DRIVER MODE: Receiving encoded integer          25
  @ DRIVER MODE:  SCF:  T  FORCE:  T  STRESS:  F  VC:  F  ENSEMBLE:  F
  @ DRIVER MODE:  SCF:  T  FORCE:  T  STRESS:  F  VC:  F  ENSEMBLE:  F

     Using Slab Decomposition

     bravais-lattice index     =            0
     lattice parameter (alat)  =       1.8897  a.u.
     unit-cell volume          =    6658.9804 (a.u.)^3
     number of atoms/cell      =           53
     number of atomic types    =            5
     number of electrons       =       395.00
     number of Kohn-Sham states=          207
     kinetic-energy cutoff     =      29.3995  Ry
     charge density cutoff     =     293.9946  Ry
     scf convergence threshold =      7.3E-08
     mixing beta               =       0.0500
     number of iterations used =            8  plain     mixing
     Exchange-correlation= BEEF-VDW
                           (   1   4  43  14   2   0   0)

     celldm(1)=   1.889726  celldm(2)=   0.000000  celldm(3)=   0.000000
     celldm(4)=   0.000000  celldm(5)=   0.000000  celldm(6)=   0.000000

     crystal axes: (cart. coord. in units of alat)
               a(1) = (   6.579727   0.000000   0.000000 )
               a(2) = (  -0.000775   5.961596   0.000000 )
               a(3) = (   0.000000   0.000000  25.155947 )

     reciprocal axes: (cart. coord. in units 2 pi/alat)
               b(1) = (  0.151982  0.000020  0.000000 )
               b(2) = (  0.000000  0.167740  0.000000 )
               b(3) = (  0.000000  0.000000  0.039752 )

     PseudoPot. # 1 for Ti read from file:
     /storage/coda1/p-amedford6/0/shared/rich_project_chbe-medford/medford-share/data/pseudos_module/espresso/nninc/pbe/van/Ti.UPF
     MD5 check sum: 8e4df49b7f0d34bbd5052bf3f5ea0213
     Pseudo is Ultrasoft, Zval = 12.0
     Generated by new atomic code, or converted to UPF format
     Using radial grid of  851 points,  6 beta functions with:
                l(1) =   0
                l(2) =   0
                l(3) =   1
                l(4) =   1
                l(5) =   2
                l(6) =   2
     Q(r) pseudized with  8 coefficients,  rinner =    1.000   1.000   1.000
                                                       1.000   1.000

     PseudoPot. # 2 for O  read from file:
     /storage/coda1/p-amedford6/0/shared/rich_project_chbe-medford/medford-share/data/pseudos_module/espresso/nninc/pbe/van/O.UPF
     MD5 check sum: 78c19812648e8988a0fe644b0f25305e
     Pseudo is Ultrasoft, Zval =  6.0
     Generated by new atomic code, or converted to UPF format
     Using radial grid of  737 points,  4 beta functions with:
                l(1) =   0
                l(2) =   0
                l(3) =   1
                l(4) =   1
     Q(r) pseudized with  8 coefficients,  rinner =    0.800   0.800   0.800

     PseudoPot. # 3 for N  read from file:
     /storage/coda1/p-amedford6/0/shared/rich_project_chbe-medford/medford-share/data/pseudos_module/espresso/nninc/pbe/van/N.UPF
     MD5 check sum: 90d10febe142ad51ac9d5be1deb811c4
     Pseudo is Ultrasoft, Zval =  5.0
     Generated by new atomic code, or converted to UPF format
     Using radial grid of  729 points,  4 beta functions with:
                l(1) =   0
                l(2) =   0
                l(3) =   1
                l(4) =   1
     Q(r) pseudized with  8 coefficients,  rinner =    0.800   0.800   0.800

     PseudoPot. # 4 for C  read from file:
     /storage/coda1/p-amedford6/0/shared/rich_project_chbe-medford/medford-share/data/pseudos_module/espresso/nninc/pbe/van/C.UPF
     MD5 check sum: 1a69bf6b8db32088f5b2163dbdb77a27
     Pseudo is Ultrasoft, Zval =  4.0
     Generated by new atomic code, or converted to UPF format
     Using radial grid of  721 points,  4 beta functions with:
                l(1) =   0
                l(2) =   0
                l(3) =   1
                l(4) =   1
     Q(r) pseudized with  8 coefficients,  rinner =    0.800   0.800   0.800

     PseudoPot. # 5 for H  read from file:
     /storage/coda1/p-amedford6/0/shared/rich_project_chbe-medford/medford-share/data/pseudos_module/espresso/nninc/pbe/van/H.UPF
     MD5 check sum: b5ee9d7bfd3a09ee7748110bda690ff7
     Pseudo is Ultrasoft, Zval =  1.0
     Generated by new atomic code, or converted to UPF format
     Using radial grid of  615 points,  1 beta functions with:
                l(1) =   0
     Q(r) pseudized with  8 coefficients,  rinner =    0.800

     atomic species   valence    mass     pseudopotential
        Ti1           12.00    47.86700     Ti( 1.00)
        O1             6.00    15.99900     O ( 1.00)
        N1             5.00    14.00700     N ( 1.00)
        C1             4.00    12.01100     C ( 1.00)
        H1             1.00     1.00800     H ( 1.00)

     Starting magnetic structure
     atomic species   magnetization
        Ti1          0.000
        O1           0.000
        N1           0.000
        C1           0.025
        H1           0.000

     No symmetry found

   Cartesian axes

     site n.     atom                  positions (alat units)
         1           Ti1 tau(   1) = (   0.0004258   2.9801865   6.0000000  )
         2           Ti1 tau(   2) = (   3.2906075   1.4906267   6.0002472  )
         3           O1  tau(   3) = (   0.0006271   0.0005054   7.9858123  )
         4           O1  tau(   4) = (   3.2906025   0.0005020   7.3038282  )
         5           O1  tau(   5) = (   4.5942328   1.4918067   9.2879030  )
         6           O1  tau(   6) = (   1.9868534   1.4903216   9.2879459  )
         7           Ti1 tau(   7) = (   3.2907910   2.8959150   9.1758416  )
         8           Ti1 tau(   8) = (   0.0015273   1.4827037   9.2680791  )
         9           O1  tau(   9) = (   3.3037365   0.0094216  11.3222111  )
        10           O1  tau(  10) = (   0.0116148   5.9584955  10.6183126  )
        11           O1  tau(  11) = (   1.3152514   1.5075076  12.6320051  )
        12           O1  tau(  12) = (   5.3186361   1.4995162  12.6508707  )
        13           Ti1 tau(  13) = (   6.5540705   2.9956815  12.5884341  )
        14           Ti1 tau(  14) = (   3.2234832   1.4927074  12.4921739  )
        15           O1  tau(  15) = (   0.0610261   5.9052480  14.6017706  )
        16           O1  tau(  16) = (   3.2936532   0.0132264  13.8830087  )
        17           O1  tau(  17) = (   4.5722397   1.5061520  16.0138922  )
        18           O1  tau(  18) = (   2.0767725   1.5295127  16.0808449  )
        19           Ti1 tau(  19) = (   3.3650854   3.0251465  15.6907462  )
        20           Ti1 tau(  20) = (   0.0387768   1.3037779  15.7216176  )
        21           O1  tau(  21) = (   3.2904802   0.0005063   4.7018136  )
        22           O1  tau(  22) = (   0.0189486   0.1070799  17.1824039  )
        23           O1  tau(  23) = (   1.3043587   1.4918075   6.0039043  )
        24           O1  tau(  24) = (   5.2767064   1.4903225   6.0039473  )
        25           Ti1 tau(  25) = (   0.0000382   5.9609847   6.0000000  )
        26           Ti1 tau(  26) = (   3.2902200   4.4714249   6.0002472  )
        27           O1  tau(  27) = (   0.0002396   2.9813036   7.9858123  )
        28           O1  tau(  28) = (   3.2902150   2.9813002   7.3038282  )
        29           O1  tau(  29) = (   4.5938453   4.4726049   9.2879030  )
        30           O1  tau(  30) = (   1.9864658   4.4711199   9.2879459  )
        31           Ti1 tau(  31) = (   3.2891106   5.8743827   9.1763621  )
        32           Ti1 tau(  32) = (   0.0006254   4.4649316   9.2693709  )
        33           O1  tau(  33) = (   3.3043114   2.9829305  11.3227053  )
        34           O1  tau(  34) = (   0.0092240   2.9805883  10.6323155  )
        35           O1  tau(  35) = (   1.3131995   4.4620516  12.6081187  )
        36           O1  tau(  36) = (   5.3117129   4.4692194  12.6284301  )
        37           Ti1 tau(  37) = (   6.5303063   5.9583428  12.5400172  )
        38           Ti1 tau(  38) = (   3.2255477   4.4746212  12.4748647  )
        39           O1  tau(  39) = (   0.0377805   3.0059521  14.8845374  )
        40           O1  tau(  40) = (   3.3120027   2.9986483  13.8863452  )
        41           O1  tau(  41) = (   4.5434534   4.5277214  16.0148975  )
        42           O1  tau(  42) = (   2.1165747   4.4940517  16.0783766  )
        43           Ti1 tau(  43) = (   3.3042555   0.0241951  15.7004812  )
        44           Ti1 tau(  44) = (   0.0495666   4.4505358  16.3362958  )
        45           O1  tau(  45) = (   3.2900926   2.9813045   4.7018136  )
        46           O1  tau(  46) = (   1.3039711   4.4726057   6.0039043  )
        47           O1  tau(  47) = (   5.2763189   4.4711207   6.0039473  )
        48           N1  tau(  48) = (   0.5348212   3.4288502  18.0689430  )
        49           C1  tau(  49) = (   1.3556880   3.0079929  19.2215664  )
        50           H1  tau(  50) = (   1.4862090   3.8900195  19.8496782  )
        51           H1  tau(  51) = (   0.8469181   2.2141957  19.7647163  )
        52           H1  tau(  52) = (   2.3296892   2.6851793  18.8624704  )
        53           N1  tau(  53) = (   5.9145885   3.2636146  17.9655992  )

     number of k points=    10  Fermi-Dirac smearing, width (Ry)=  0.0073
                       cart. coord. in units 2pi/alat
        k(    1) = (   0.0000000   0.0000000   0.0000000), wk =   0.0625000
        k(    2) = (   0.0000000   0.0419351   0.0000000), wk =   0.1250000
        k(    3) = (   0.0000000  -0.0838702   0.0000000), wk =   0.0625000
        k(    4) = (   0.0379955   0.0000049   0.0000000), wk =   0.1250000
        k(    5) = (   0.0379955   0.0419400   0.0000000), wk =   0.1250000
        k(    6) = (   0.0379955  -0.0838652   0.0000000), wk =   0.1250000
        k(    7) = (   0.0379955  -0.0419301   0.0000000), wk =   0.1250000
        k(    8) = (  -0.0759910  -0.0000099   0.0000000), wk =   0.0625000
[...]
     atom  17 (R=0.727)  charge=  4.9269  magn=  0.0000
     atom  18 (R=0.727)  charge=  4.9196  magn=  0.0000
     atom  19 (R=0.727)  charge=  7.9516  magn= -0.0000
     atom  20 (R=0.727)  charge=  7.9765  magn= -0.0001
     atom  21 (R=0.727)  charge=  4.8265  magn=  0.0006
     atom  22 (R=0.727)  charge=  4.9096  magn=  0.0000
     atom  23 (R=0.727)  charge=  4.9340  magn=  0.0015
     atom  24 (R=0.727)  charge=  4.9340  magn=  0.0015
     atom  25 (R=0.727)  charge=  7.9485  magn= -0.0138
     atom  26 (R=0.727)  charge=  7.9316  magn= -0.0006
     atom  27 (R=0.727)  charge=  4.9363  magn=  0.0015
     atom  28 (R=0.727)  charge=  4.9740  magn=  0.0002
     atom  29 (R=0.727)  charge=  4.9433  magn=  0.0003
     atom  30 (R=0.727)  charge=  4.9439  magn=  0.0003
     atom  31 (R=0.727)  charge=  7.9304  magn= -0.0007
     atom  32 (R=0.727)  charge=  7.9251  magn= -0.0073
     atom  33 (R=0.727)  charge=  4.9553  magn=  0.0001
     atom  34 (R=0.727)  charge=  4.9242  magn=  0.0007
     atom  35 (R=0.727)  charge=  4.9447  magn=  0.0002
     atom  36 (R=0.727)  charge=  4.9438  magn=  0.0002
     atom  37 (R=0.727)  charge=  7.9230  magn= -0.0014
     atom  38 (R=0.727)  charge=  7.9295  magn= -0.0004
     atom  39 (R=0.727)  charge=  4.9078  magn=  0.0001
     atom  40 (R=0.727)  charge=  4.9611  magn=  0.0000
     atom  41 (R=0.727)  charge=  4.9355  magn=  0.0000
     atom  42 (R=0.727)  charge=  4.9347  magn=  0.0000
     atom  43 (R=0.727)  charge=  7.9537  magn= -0.0000
     atom  44 (R=0.727)  charge=  7.9726  magn= -0.0000
     atom  45 (R=0.727)  charge=  4.8265  magn=  0.0006
     atom  46 (R=0.727)  charge=  4.9340  magn=  0.0015
     atom  47 (R=0.727)  charge=  4.9341  magn=  0.0015
     atom  48 (R=0.501)  charge=  1.9976  magn= -0.0000
     atom  49 (R=0.448)  charge=  0.8479  magn= -0.0000
     atom  50 (R=0.448)  charge=  0.4992  magn=  0.0000
     atom  51 (R=0.448)  charge=  0.5029  magn=  0.0000
     atom  52 (R=0.448)  charge=  0.5041  magn=  0.0000
     atom  53 (R=0.501)  charge=  1.9556  magn= -0.0000

     End of self-consistent calculation

 ------ SPIN UP ------------

          k = 0.0000 0.0000 0.0000 ( 18029 PWs)   bands (ev):

   -55.7691 -55.7622 -55.7331 -55.7281 -55.6816 -55.6334 -55.5886 -55.5546
   -55.5542 -55.5206 -55.5193 -55.4463 -54.9558 -54.8069 -54.7546 -54.7206
   -32.3180 -32.2536 -32.1736 -32.0865 -32.0554 -32.0522 -32.0462 -32.0063
   -32.0045 -31.9697 -31.9394 -31.9208 -31.9120 -31.9041 -31.8797 -31.8777
   -31.8753 -31.8751 -31.8636 -31.8329 -31.8197 -31.8165 -31.7999 -31.7858
   -31.7836 -31.7812 -31.7783 -31.7541 -31.7406 -31.7331 -31.7169 -31.7092
   -31.6986 -31.6678 -31.6358 -31.5635 -31.4920 -31.3376 -31.1670 -31.1616
   -31.1047 -31.0732 -31.0658 -31.0509 -30.9784 -30.9127 -30.8918 -30.7808
   -19.4382 -16.5168 -16.2522 -15.9670 -15.9150 -15.8407 -15.7473 -15.6245
   -15.5294 -15.4099 -15.3712 -15.3157 -15.3077 -15.2633 -15.2363 -15.2323
   -15.2061 -15.1985 -15.1336 -15.1262 -15.0758 -15.0642 -15.0165 -14.9811
   -14.9696 -14.9148 -14.8457 -14.8044 -14.6853 -14.1597 -13.2571 -13.1407
   -12.3084  -7.2603  -4.9373  -4.7828  -3.8989  -3.7563  -3.7036  -3.6836
    -3.6396  -3.4383  -3.3517  -3.2833  -3.0428  -2.9519  -2.9275  -2.9167
    -2.8678  -2.7102  -2.6653  -2.6037  -2.5874  -2.5611  -2.5395  -2.5315
    -2.4960  -2.4860  -2.4596  -2.4260  -2.3259  -2.2124  -2.1830  -2.1054
    -2.0887  -2.0743  -2.0437  -2.0339  -2.0242  -2.0144  -1.9960  -1.9585
    -1.8944  -1.8515  -1.7860  -1.7015  -1.5602  -1.5386  -1.4603  -1.3844
    -1.3048  -1.2623  -1.2404  -1.2119  -1.1717  -1.0926  -1.0664  -0.9203
    -0.8233  -0.7904  -0.7732  -0.7308  -0.6947  -0.5926  -0.5709  -0.5418
    -0.5332  -0.5049  -0.4313  -0.3749  -0.2435  -0.2124  -0.2084  -0.1707
    -0.0998  -0.0459   0.0074   0.0565   0.0643   0.1001   0.1604   0.1853
     0.1900   0.2329   0.2753   0.3502   0.3765   0.4505   0.4544   0.5186
     0.5624   0.6441   0.7513   0.8739   1.0171   1.1541   1.1990   1.2679
     1.3630   1.4597   1.8377   1.8838   2.1441   3.3484   3.4606   3.4712
     3.4873   3.5915   3.8042   3.8196   3.8688   3.8897   3.8972

[...]

          k =-0.0760-0.0000 0.0000 ( 17886 PWs)   bands (ev):

[...]

 ------ SPIN DOWN ----------

[...]

          k = 0.0380-0.0419 0.0000 ( 17876 PWs)   bands (ev):

[...]

          k =-0.0760-0.0839 0.0000 ( 17948 PWs)   bands (ev):

   -55.7707 -55.7705 -55.7524 -55.7509 -55.6772 -55.6433 -55.5861 -55.5857
   -55.5390 -55.5386 -55.5149 -55.4507 -54.9547 -54.8081 -54.7389 -54.7387
   -32.1219 -32.1184 -32.0795 -32.0794 -32.0670 -32.0668 -32.0198 -32.0047
   -31.9984 -31.9900 -31.9211 -31.9165 -31.9108 -31.9049 -31.8923 -31.8923
   -31.8826 -31.8807 -31.8795 -31.8721 -31.8555 -31.8534 -31.8524 -31.8134
   -31.7857 -31.7842 -31.7837 -31.7683 -31.7681 -31.7654 -31.7646 -31.7561
   -31.7549 -31.7361 -31.7116 -31.6606 -31.4394 -31.3199 -31.1690 -31.1587
   -31.0831 -31.0651 -31.0649 -30.9751 -30.9749 -30.9364 -30.9363 -30.9156
   -19.4360 -15.9171 -15.9110 -15.7487 -15.7140 -15.6492 -15.6404 -15.5722
   -15.5053 -15.4600 -15.4550 -15.3402 -15.3383 -15.3233 -15.3022 -15.2479
   -15.2316 -15.2305 -15.2260 -15.2183 -15.2077 -15.1802 -15.1492 -15.0983
   -15.0933 -15.0732 -15.0622 -14.9414 -14.5314 -14.4697 -13.2414 -13.2413
   -12.3109  -7.2471  -4.9391  -4.7805  -3.6284  -3.2064  -3.1901  -3.0029
    -2.9189  -2.9077  -2.8929  -2.7400  -2.7281  -2.7109  -2.6532  -2.6463
    -2.6366  -2.5999  -2.5838  -2.5599  -2.5195  -2.5143  -2.4664  -2.4639
    -2.4485  -2.4331  -2.4080  -2.4027  -2.3890  -2.3743  -2.3367  -2.2805
    -2.2422  -2.2151  -2.1869  -2.0905  -2.0296  -1.9938  -1.9266  -1.9181
    -1.8671  -1.8423  -1.8277  -1.7612  -1.6910  -1.6615  -1.5773  -1.4857
    -1.4673  -1.4519  -1.3333  -1.3194  -1.2446  -1.2208  -1.1369  -1.1199
    -1.0802  -0.9697  -0.9463  -0.9150  -0.8803  -0.8363  -0.7726  -0.7353
    -0.7333  -0.6853  -0.6411  -0.5850  -0.5240  -0.5119  -0.4963  -0.4873
    -0.4241  -0.3905  -0.3685  -0.2861  -0.2710  -0.1892  -0.0456  -0.0127
     0.1449   0.1941   0.3029   0.3307   0.4214   0.4431   0.5382   0.5414
     0.5731   0.7024   0.7214   0.7390   0.7551   0.7747   0.7987   0.9376
     1.6327   1.6329   1.7042   1.7042   2.0816   3.6698   3.7068   3.7566
     3.7774   3.8764   3.8834   3.8867   3.8934   4.0158   4.0202

     the Fermi energy is     3.3517 ev

!    total energy              =   -2939.12594851 Ry
     estimated scf accuracy    <       0.00000006 Ry
     smearing contrib. (-TS)   =      -0.02050214 Ry
     internal energy E=F+TS    =   -2939.10544637 Ry

     The total energy is F=E-TS. E is the sum of the following terms:
     one-electron contribution =  -24213.39279609 Ry
     hartree contribution      =   12195.44694825 Ry
     xc contribution           =    -485.20002279 Ry
     ewald contribution        =    9564.03885346 Ry
     electric field correction =       0.00157081 Ry

     total magnetization       =    -0.06 Bohr mag/cell
     absolute magnetization    =     0.09 Bohr mag/cell

     convergence has been achieved in  86 iterations

     Forces acting on atoms (cartesian axes, Ry/au):

     atom    1 type  1   force =     0.00008657   -0.00020876    0.09578664
     atom    2 type  1   force =     0.00007512   -0.00063077   -0.17550166
     atom    3 type  2   force =     0.00017900   -0.00019277   -0.02303404
     atom    4 type  2   force =     0.00004109   -0.00128690    0.05263764
     atom    5 type  2   force =    -0.00977585   -0.00031561    0.00253986
     atom    6 type  2   force =     0.01165515    0.00022536    0.00292298
     atom    7 type  1   force =     0.00088407   -0.00000846   -0.00990570
     atom    8 type  1   force =     0.00000540    0.00530342    0.01814553
     atom    9 type  2   force =    -0.00001401   -0.00028893   -0.00010793
     atom   10 type  2   force =    -0.00253779    0.00216384   -0.01347395
     atom   11 type  2   force =    -0.00097141    0.00011024    0.00018137
     atom   12 type  2   force =     0.00038963   -0.00025425    0.00049641
     atom   13 type  1   force =     0.00009213   -0.00008011    0.00053580
     atom   14 type  1   force =    -0.00003802   -0.00013822   -0.00016945
     atom   15 type  2   force =    -0.00059398    0.00022474    0.00043449
     atom   16 type  2   force =    -0.00043582    0.00008033    0.00019295
     atom   17 type  2   force =    -0.00014075   -0.00008687   -0.00031928
     atom   18 type  2   force =     0.00027954    0.00022570    0.00008006
     atom   19 type  1   force =    -0.00058641   -0.00056265    0.00071271
     atom   20 type  1   force =    -0.00025880    0.00039543   -0.00074138
     atom   21 type  2   force =     0.00006732   -0.00005777    0.10322087
     atom   22 type  2   force =     0.00009481   -0.00005593   -0.00040965
     atom   23 type  2   force =    -0.07154421   -0.00019230   -0.02753847
     atom   24 type  2   force =     0.07152289    0.00031110   -0.02759710
     atom   25 type  1   force =     0.00011980   -0.00027876    0.09517049
     atom   26 type  1   force =     0.00008920   -0.00048875   -0.17565166
     atom   27 type  2   force =     0.00016066   -0.00012050   -0.02178156
     atom   28 type  2   force =     0.00008199   -0.00106028    0.05251302
     atom   29 type  2   force =    -0.01015654    0.00023394    0.00291542
     atom   30 type  2   force =     0.01197278    0.00052014    0.00329534
     atom   31 type  1   force =     0.00088790    0.00413552   -0.01178123
     atom   32 type  1   force =     0.00013777   -0.00633480    0.01828543
     atom   33 type  2   force =     0.00016290    0.00041767   -0.00010099
     atom   34 type  2   force =    -0.00308376   -0.00010697   -0.00865751
     atom   35 type  2   force =    -0.00020821    0.00006792    0.00001774
     atom   36 type  2   force =    -0.00003621    0.00027880   -0.00005762
     atom   37 type  1   force =     0.00043037   -0.00094800    0.00019009
     atom   38 type  1   force =    -0.00031863    0.00009633    0.00034559
     atom   39 type  2   force =     0.00011277   -0.00026464    0.00053516
     atom   40 type  2   force =    -0.00008155    0.00026794    0.00015696
     atom   41 type  2   force =     0.00004002   -0.00014484   -0.00018799
     atom   42 type  2   force =    -0.00045724    0.00013296   -0.00040594
     atom   43 type  1   force =     0.00026184    0.00051378    0.00012637
     atom   44 type  1   force =    -0.00021675   -0.00083725   -0.00092564
     atom   45 type  2   force =     0.00007489   -0.00005947    0.10317594
     atom   46 type  2   force =    -0.07155703   -0.00009320   -0.02753112
     atom   47 type  2   force =     0.07154076    0.00025765   -0.02759186
     atom   48 type  3   force =     0.00060879   -0.00064518    0.00068027
     atom   49 type  4   force =     0.00030820    0.00017630   -0.00063257
     atom   50 type  5   force =     0.00033346    0.00021881   -0.00008793
     atom   51 type  5   force =    -0.00081796   -0.00025300   -0.00009510
     atom   52 type  5   force =     0.00022241   -0.00080919   -0.00063185
     atom   53 type  3   force =     0.00091170    0.00044724   -0.00037591

     Total force =     0.364730     Total SCF correction =     0.000235
  @ DRIVER MODE: Message from server: STATUS
  @ DRIVER MODE: Message from server: GETFORCE
  @ DRIVER MODE: Returning v,forces,stress,ensemble

     Writing output data file ./calc.save/
  @ DRIVER MODE: Message from server: STATUS
  @ DRIVER MODE: Message from server: INIT
  @ DRIVER MODE: Receiving replica           0           0
  @ DRIVER MODE: Receiving encoded integer           2
  @ DRIVER MODE:  SCF:  T  FORCE:  T  STRESS:  F  VC:  F  ENSEMBLE:  F
  @ DRIVER MODE:  SCF:  F  FORCE:  F  STRESS:  F  VC:  F  ENSEMBLE:  T
  @ DRIVER MODE: Message from server: STATUS
  @ DRIVER MODE: Message from server: POSDATA
  @ DRIVER MODE: Reading and sharing positions
  @ DRIVER MODE: Received positions
     NEW-OLD atomic charge density approx. for the potential

[...]

     Adding external electric field

     Computed dipole along edir(3) :
        Dipole                0.9123 Ry au,          2.3189 Debye
        Dipole field          0.0017 Ry au,

        Potential amp.       -0.1596 Ry
        Total length         46.3494 bohr

     Generating pointlists ...
  @ DRIVER MODE: BEEF-vdw

[...]

     negative rho (up, down):  8.119E-03 8.119E-03

     negative rho (up, down):  8.119E-03 8.119E-03
 BEEFens 2000 ensemble energies
             -0.348176930865354E+02
             -0.202544075764889E+01
             -0.717927840711519E+01
              0.241632072828106E+02
             -0.119620029895101E+02
             -0.925787350806246E+01
             -0.241448437974530E+02
             -0.505148984205169E+02
             -0.215596281868460E+02
             -0.227133062033740E+02
             -0.210799318488962E+02
              0.424826499474539E+01
              0.200312832098462E+01
             -0.105409270609627E+01
              0.173724363134703E+01
              0.266166692263537E+02
             -0.102640711749123E+02
             -0.725651887609969E+01
              0.118063033928319E+02
             -0.621735703931667E+02
              0.311707560540004E+02
             -0.133836394664383E+02
             -0.241905977563418E+01
             -0.561997041078138E+01
             -0.983493559022804E+00
             -0.214733145951978E+01
              0.482247100755023E+02
             -0.150771609149445E+02
             -0.403386230186231E+01
             -0.305058207866945E+02
              0.394412501121110E+02
             -0.437464911618453E+01
             -0.214643924287570E+02
              0.112697146746115E+02
             -0.205850510301448E+01
              0.130758449800222E+02
             -0.551671933861854E+00
              0.273258542821358E+01
              0.190144605269555E+02
             -0.548870551806034E+02
              0.305798514179766E+02
              0.815458585780439E+01
             -0.626929453150115E+01
             -0.175509827466129E+02
              0.693096405930822E+01
             -0.109710296687231E+02
              0.250114186078534E+02
              0.199711267767429E+02
             -0.128861528231294E+02
             -0.164465538165201E+02
             -0.173896115702753E+02
             -0.208773488698688E+02
              0.105991478172734E+02
             -0.272033408580782E+02
              0.832446470777489E+01
              0.347423542305100E+02
              0.400562633540813E+02
              0.186572709731989E+02
              0.833776665694566E+01
              0.174065922924070E+02
[...]
             -0.409720161803461E+02
              0.278112158083513E+01
             -0.145255601556937E+01
             -0.570647138391109E+01
              0.517138548186438E-01
             -0.364811299722397E+02
             -0.705657094864145E+01
              0.494018523166749E+01
              0.743429246837445E+01
              0.273388204202089E+02
             -0.238977371579543E+02
              0.311856333989828E+02
             -0.223295685246095E+02
              0.143445454980915E+02
              0.225906082237341E+02

 BEEF-vdW xc energy contributions
           1 :   -411.096184587599
           2 :    358.220076644779
           3 :   -272.892303662631
           4 :    183.794739592926
           5 :   -113.765644737788
           6 :    71.8604812447626
           7 :   -54.3364047135739
           8 :    51.1151868443110
           9 :   -52.7309778510694
          10 :    53.9203612493490
          11 :   -53.4498826114133
          12 :    51.8742653497316
          13 :   -49.6300361485049
          14 :    46.4706980537539
          15 :   -42.0434696485104
          16 :    36.5521538488198
          17 :   -30.9137237119751
          18 :    26.2987531940988
          19 :   -23.5393279382950
          20 :    22.7624753819434
          21 :   -23.4823182793156
          22 :    24.9370320881793
          23 :   -26.4368896570749
          24 :    27.4863824128614
          25 :   -27.7628370887094
          26 :    27.0582350809969
          27 :   -25.3263453669331
          28 :    22.7640311175535
          29 :   -19.8513803181094
          30 :    17.2266956639434
          31 :   -48.3473287947895
          32 :   -32.8488023852013
  @ DRIVER MODE: Message from server: STATUS
  @ DRIVER MODE: Message from server: GETFORCE
  @ DRIVER MODE: Returning v,forces,stress,ensemble
  @ DRIVE MODE: Returning Ensemble Energies

     Writing output data file ./calc.save/
  @ DRIVER MODE: Message from server: EXIT
  @ DRIVE MODE: Exiting

     General routines

     Parallel routines

   This run was terminated on:  16:41:29  30Jun2021

   JOB DONE.