     Program PWSCF v.6.7GPU starts on  9Sep2021 at 12:42:29

     R & G space division:  proc/nbgrp/npool/nimage =      10
     Reading input from /storage/home/hcoda1/3/ntian30/research/carbon/CxH_vib/CH2_calc/ads_slab/CH2NNHHH_a/out_0044/pw.inp
Warning: card &CELL ignored
Warning: card   CELL_DYNAMICS='IPI', ignored
Warning: card / ignored

     Current dimensions of program PWSCF are:
     Max number of different atomic species (ntypx) = 10
     Max number of k-points (npk) =  40000
     Max angular momentum in pseudopotentials (lmaxx) =  3
     Presently no symmetry can be used with electric field

     Message from routine cell_base_init:
     DEPRECATED: use true lattice parameter, not A to a.u. conversion factor

     IMPORTANT: XC functional enforced from input :
     Exchange-correlation= BEEF-VDW
                           (   1   4  43  14   2   0   0)
     Any further DFT definition will be discarded
     Please, verify this is what you really want

  @ DRIVER MODE: Connecting to
 qe_1139763_2767390.sched-torque.pace.gatech.edu9is4do6o_scratch
  using UNIX socket
  @ DRIVER MODE: Message from server: STATUS
  @ DRIVER MODE: Message from server: INIT
  @ DRIVER MODE: Receiving replica           0          -1
  @ DRIVER MODE: Receiving encoded integer          25
  @ DRIVER MODE:  SCF:  T  FORCE:  T  STRESS:  F  VC:  F  ENSEMBLE:  F
  @ DRIVER MODE:  SCF:  T  FORCE:  T  STRESS:  F  VC:  F  ENSEMBLE:  F

     Using Slab Decomposition

     bravais-lattice index     =            0
     lattice parameter (alat)  =       1.8897  a.u.
     unit-cell volume          =    6658.9804 (a.u.)^3
     number of atoms/cell      =           55
     number of atomic types    =            5
     number of electrons       =       397.00
     number of Kohn-Sham states=          208
     kinetic-energy cutoff     =      29.3995  Ry
     charge density cutoff     =     293.9946  Ry
     scf convergence threshold =      7.3E-08
     mixing beta               =       0.0500
     number of iterations used =            8  plain     mixing
     Exchange-correlation= BEEF-VDW
                           (   1   4  43  14   2   0   0)

     celldm(1)=   1.889726  celldm(2)=   0.000000  celldm(3)=   0.000000
     celldm(4)=   0.000000  celldm(5)=   0.000000  celldm(6)=   0.000000

     crystal axes: (cart. coord. in units of alat)
               a(1) = (   6.579727   0.000000   0.000000 )
               a(2) = (  -0.000775   5.961596   0.000000 )
               a(3) = (   0.000000   0.000000  25.155947 )

     reciprocal axes: (cart. coord. in units 2 pi/alat)
               b(1) = (  0.151982  0.000020  0.000000 )
               b(2) = (  0.000000  0.167740  0.000000 )
               b(3) = (  0.000000  0.000000  0.039752 )

     PseudoPot. # 1 for Ti read from file:
     /storage/coda1/p-amedford6/0/shared/rich_project_chbe-medford/medford-share/data/pseudos_module/espresso/nninc/pbe/van/Ti.UPF
     MD5 check sum: 8e4df49b7f0d34bbd5052bf3f5ea0213
     Pseudo is Ultrasoft, Zval = 12.0
     Generated by new atomic code, or converted to UPF format
     Using radial grid of  851 points,  6 beta functions with:
                l(1) =   0
                l(2) =   0
                l(3) =   1
                l(4) =   1
                l(5) =   2
                l(6) =   2
     Q(r) pseudized with  8 coefficients,  rinner =    1.000   1.000   1.000
                                                       1.000   1.000

     PseudoPot. # 2 for O  read from file:
     /storage/coda1/p-amedford6/0/shared/rich_project_chbe-medford/medford-share/data/pseudos_module/espresso/nninc/pbe/van/O.UPF
     MD5 check sum: 78c19812648e8988a0fe644b0f25305e
     Pseudo is Ultrasoft, Zval =  6.0
     Generated by new atomic code, or converted to UPF format
     Using radial grid of  737 points,  4 beta functions with:
                l(1) =   0
                l(2) =   0
                l(3) =   1
                l(4) =   1
     Q(r) pseudized with  8 coefficients,  rinner =    0.800   0.800   0.800

     PseudoPot. # 3 for N  read from file:
     /storage/coda1/p-amedford6/0/shared/rich_project_chbe-medford/medford-share/data/pseudos_module/espresso/nninc/pbe/van/N.UPF
     MD5 check sum: 90d10febe142ad51ac9d5be1deb811c4
     Pseudo is Ultrasoft, Zval =  5.0
     Generated by new atomic code, or converted to UPF format
     Using radial grid of  729 points,  4 beta functions with:
                l(1) =   0
                l(2) =   0
                l(3) =   1
                l(4) =   1
     Q(r) pseudized with  8 coefficients,  rinner =    0.800   0.800   0.800

     PseudoPot. # 4 for C  read from file:
     /storage/coda1/p-amedford6/0/shared/rich_project_chbe-medford/medford-share/data/pseudos_module/espresso/nninc/pbe/van/C.UPF
     MD5 check sum: 1a69bf6b8db32088f5b2163dbdb77a27
     Pseudo is Ultrasoft, Zval =  4.0
     Generated by new atomic code, or converted to UPF format
     Using radial grid of  721 points,  4 beta functions with:
                l(1) =   0
                l(2) =   0
                l(3) =   1
                l(4) =   1
     Q(r) pseudized with  8 coefficients,  rinner =    0.800   0.800   0.800

     PseudoPot. # 5 for H  read from file:
     /storage/coda1/p-amedford6/0/shared/rich_project_chbe-medford/medford-share/data/pseudos_module/espresso/nninc/pbe/van/H.UPF
     MD5 check sum: b5ee9d7bfd3a09ee7748110bda690ff7
     Pseudo is Ultrasoft, Zval =  1.0
     Generated by new atomic code, or converted to UPF format
     Using radial grid of  615 points,  1 beta functions with:
                l(1) =   0
     Q(r) pseudized with  8 coefficients,  rinner =    0.800

     atomic species   valence    mass     pseudopotential
        Ti1           12.00    47.86700     Ti( 1.00)
        O1             6.00    15.99900     O ( 1.00)
        N1             5.00    14.00700     N ( 1.00)
        C1             4.00    12.01100     C ( 1.00)
        H1             1.00     1.00800     H ( 1.00)

     No symmetry found

   Cartesian axes

     site n.     atom                  positions (alat units)
         1           Ti1 tau(   1) = (   0.0004258   2.9801865   6.0000000  )
         2           Ti1 tau(   2) = (   3.2906075   1.4906267   6.0002472  )
         3           O1  tau(   3) = (   0.0006271   0.0005054   7.9858123  )
         4           O1  tau(   4) = (   3.2906025   0.0005020   7.3038282  )
         5           O1  tau(   5) = (   4.5942328   1.4918067   9.2879030  )
         6           O1  tau(   6) = (   1.9868534   1.4903216   9.2879459  )
         7           Ti1 tau(   7) = (   3.2907910   2.8959150   9.1758416  )
         8           Ti1 tau(   8) = (   0.0015273   1.4827037   9.2680791  )
         9           O1  tau(   9) = (   3.2797308   5.9473376  11.3602069  )
        10           O1  tau(  10) = (   0.0116148   5.9584955  10.6183126  )
        11           O1  tau(  11) = (   1.2902197   1.4970218  12.6485984  )
        12           O1  tau(  12) = (   5.2825647   1.4998509  12.6204812  )
        13           Ti1 tau(  13) = (   6.5707130   2.9731531  12.5352273  )
        14           Ti1 tau(  14) = (   3.2824754   1.4851695  12.4964603  )
        15           O1  tau(  15) = (   6.5335774   0.0914421  14.6722524  )
        16           O1  tau(  16) = (   3.3157438   0.0180770  13.9903400  )
        17           O1  tau(  17) = (   4.5084513   1.5196572  16.2619966  )
        18           O1  tau(  18) = (   2.0062152   1.4815140  16.1839734  )
        19           Ti1 tau(  19) = (   3.2259906   2.9465836  15.7211513  )
        20           Ti1 tau(  20) = (   6.5090593   1.4075841  16.1508600  )
        21           O1  tau(  21) = (   3.2904802   0.0005063   4.7018136  )
        22           O1  tau(  22) = (   6.5630310   5.8123487  17.2302531  )
        23           O1  tau(  23) = (   1.3043587   1.4918075   6.0039043  )
        24           O1  tau(  24) = (   5.2767064   1.4903225   6.0039473  )
        25           Ti1 tau(  25) = (   0.0000382   5.9609847   6.0000000  )
        26           Ti1 tau(  26) = (   3.2902200   4.4714249   6.0002472  )
        27           O1  tau(  27) = (   0.0002396   2.9813036   7.9858123  )
        28           O1  tau(  28) = (   3.2902150   2.9813002   7.3038282  )
        29           O1  tau(  29) = (   4.5938453   4.4726049   9.2879030  )
        30           O1  tau(  30) = (   1.9864658   4.4711199   9.2879459  )
        31           Ti1 tau(  31) = (   3.2891106   5.8743827   9.1763621  )
        32           Ti1 tau(  32) = (   0.0006254   4.4649316   9.2693709  )
        33           O1  tau(  33) = (   3.2783824   2.9878764  11.3535400  )
        34           O1  tau(  34) = (   0.0092240   2.9805883  10.6323155  )
        35           O1  tau(  35) = (   1.2857266   4.4729298  12.7006550  )
        36           O1  tau(  36) = (   5.2845514   4.4687958  12.6640455  )
        37           Ti1 tau(  37) = (   6.5734551   0.0101047  12.5124135  )
        38           Ti1 tau(  38) = (   3.2852174   4.4611384  12.5175569  )
        39           O1  tau(  39) = (   6.5279837   2.9480221  14.9030702  )
        40           O1  tau(  40) = (   3.2956390   2.9588503  13.9390168  )
        41           O1  tau(  41) = (   4.4992944   4.4159585  16.2207858  )
        42           O1  tau(  42) = (   2.0104883   4.4624356  16.0673450  )
        43           Ti1 tau(  43) = (   3.2790961   0.0058003  15.7788240  )
        44           Ti1 tau(  44) = (   0.0606790   4.6093333  15.7554573  )
        45           O1  tau(  45) = (   3.2900926   2.9813045   4.7018136  )
        46           O1  tau(  46) = (   1.3039711   4.4726057   6.0039043  )
        47           O1  tau(  47) = (   5.2763189   4.4711207   6.0039473  )
        48           N1  tau(  48) = (   0.0403274   2.7191540  18.0026804  )
        49           C1  tau(  49) = (   0.9398849   2.4944932  18.9664025  )
        50           H1  tau(  50) = (   0.9073005   3.0183022  19.9142263  )
        51           H1  tau(  51) = (   1.7098349   1.7704235  18.7615287  )
        52           N1  tau(  52) = (   5.5765855   3.6054979  18.4816711  )
        53           H1  tau(  53) = (   5.9881759   4.5320851  18.7147717  )
        54           H1  tau(  54) = (   4.9344470   3.8465857  17.6610935  )
        55           H1  tau(  55) = (   5.0774124   3.1947177  19.2767304  )

     number of k points=    10  Fermi-Dirac smearing, width (Ry)=  0.0073
                       cart. coord. in units 2pi/alat
        k(    1) = (   0.0000000   0.0000000   0.0000000), wk =   0.1250000
        k(    2) = (   0.0000000   0.0419351   0.0000000), wk =   0.2500000
        k(    3) = (   0.0000000  -0.0838702   0.0000000), wk =   0.1250000
        k(    4) = (   0.0379955   0.0000049   0.0000000), wk =   0.2500000
        k(    5) = (   0.0379955   0.0419400   0.0000000), wk =   0.2500000
        k(    6) = (   0.0379955  -0.0838652   0.0000000), wk =   0.2500000
        k(    7) = (   0.0379955  -0.0419301   0.0000000), wk =   0.2500000
        k(    8) = (  -0.0759910  -0.0000099   0.0000000), wk =   0.1250000
        k(    9) = (  -0.0759910   0.0419252   0.0000000), wk =   0.2500000
        k(   10) = (  -0.0759910  -0.0838800   0.0000000), wk =   0.1250000

     Initial potential from superposition of free atoms

     starting charge  380.99914, renormalised to  397.00000

     negative rho (up, down):  1.589E-02 0.000E+00

     %%%%%%%%%%%%%%%%%%%%%%%%%%%%%%%%%%%%%%%%%%%%%%%%%%%%%%%%%%%%%%%%%%%%%%%%
     %                                                                      %
     % You are using vdW-DF, which was implemented by the Thonhauser group. %
     % Please cite the following two papers that made this development      %
     % possible and the two reviews that describe the various versions:     %
     %                                                                      %
     %   T. Thonhauser et al., PRL 115, 136402 (2015).                      %
     %   T. Thonhauser et al., PRB 76, 125112 (2007).                       %
     %   K. Berland et al., Rep. Prog. Phys. 78, 066501 (2015).             %
     %   D.C. Langreth et al., J. Phys.: Condens. Matter 21, 084203 (2009). %
     %                                                                      %
     %                                                                      %
     % If you are calculating the stress with vdW-DF, please also cite:     %
     %                                                                      %
     %   R. Sabatini et al., J. Phys.: Condens. Matter 24, 424209 (2012).   %
     %                                                                      %
     %%%%%%%%%%%%%%%%%%%%%%%%%%%%%%%%%%%%%%%%%%%%%%%%%%%%%%%%%%%%%%%%%%%%%%%%

     Adding external electric field

     Computed dipole along edir(3) :
        Dipole              -10.3122 Ry au,        -26.2111 Debye
        Dipole field         -0.0195 Ry au,

        Potential amp.        1.8040 Ry
        Total length         46.3494 bohr

     Starting wfcs are  301 atomic wfcs
  @ DRIVER MODE: Message from server: STATUS
  @ DRIVER MODE: Message from server: POSDATA
  @ DRIVER MODE: Reading and sharing cell
  @ DRIVER MODE: Reading and sharing positions
  @ DRIVER MODE: Received positions

     Self-consistent Calculation

     iteration #  1     ecut=    29.40 Ry     beta= 0.05
     Davidson diagonalization with overlap
     c_bands:  3 eigenvalues not converged
     c_bands:  2 eigenvalues not converged
     c_bands:  3 eigenvalues not converged
     c_bands:  2 eigenvalues not converged
     c_bands:  3 eigenvalues not converged
     c_bands:  2 eigenvalues not converged
     c_bands:  3 eigenvalues not converged
     c_bands:  2 eigenvalues not converged
     c_bands:  2 eigenvalues not converged
     c_bands:  3 eigenvalues not converged
     ethr =  1.00E-05,  avg # of iterations = 20.0

[...]

     total energy              =   -2480.05635901 Ry
     estimated scf accuracy    <    5159.14182117 Ry

     iteration #  2     ecut=    29.40 Ry     beta= 0.05
     Davidson diagonalization with overlap
     ethr =  1.00E-02,  avg # of iterations = 22.3

[...]

     iteration # 74     ecut=    29.40 Ry     beta= 0.05
     Davidson diagonalization with overlap
     c_bands:  1 eigenvalues not converged
     ethr =  2.39E-11,  avg # of iterations = 13.8

[...]

     total energy              =   -2941.49086417 Ry
     estimated scf accuracy    <       0.00000009 Ry

     iteration # 75     ecut=    29.40 Ry     beta= 0.05
     Davidson diagonalization with overlap
     ethr =  2.21E-11,  avg # of iterations =  6.1

     negative rho (up, down):  1.345E-02 0.000E+00

     Adding external electric field

     Computed dipole along edir(3) :
        Dipole                1.3650 Ry au,          3.4695 Debye
        Dipole field          0.0026 Ry au,

        Potential amp.       -0.2388 Ry
        Total length         46.3494 bohr

     End of self-consistent calculation

          k = 0.0000 0.0000 0.0000 ( 18029 PWs)   bands (ev):

   -55.2828 -55.2439 -55.2438 -55.2098 -55.1583 -55.1563 -55.1197 -55.0929
   -55.0757 -55.0746 -55.0582 -55.0413 -54.9549 -54.7891 -54.2618 -54.2278
   -31.8550 -31.7347 -31.6447 -31.6096 -31.5827 -31.5803 -31.5778 -31.5336
   -31.5308 -31.4907 -31.4890 -31.4883 -31.4556 -31.4532 -31.4392 -31.4177
   -31.4023 -31.3976 -31.3931 -31.3919 -31.3562 -31.3506 -31.3371 -31.3236
   -31.3008 -31.2955 -31.2892 -31.2852 -31.2728 -31.2695 -31.2597 -31.2497
   -31.2429 -31.2376 -31.2080 -31.2036 -31.1966 -31.1844 -31.1463 -31.1037
   -31.0600 -30.9306 -30.6707 -30.5779 -30.5558 -30.4871 -30.4004 -30.2894
   -19.2412 -16.1245 -15.8624 -15.7344 -15.5427 -15.4766 -15.3811 -15.2432
   -15.1919 -15.1312 -15.0814 -15.0410 -15.0280 -14.9625 -14.9053 -14.8168
   -14.8152 -14.7982 -14.7881 -14.7762 -14.7730 -14.7107 -14.7079 -14.6808
   -14.6661 -14.6560 -14.5153 -14.4313 -14.3698 -14.2819 -14.0246 -12.7646
   -12.6474  -9.1533  -7.8318  -7.0663  -6.0025  -3.8247  -3.4621  -3.2893
    -3.2430  -3.2023  -3.1775  -3.0089  -2.9273  -2.6599  -2.5920  -2.5522
    -2.5047  -2.4935  -2.4679  -2.2959  -2.2652  -2.2256  -2.1891  -2.1653
    -2.1254  -2.0976  -2.0816  -2.0524  -2.0393  -2.0372  -1.8550  -1.7841
    -1.7622  -1.7009  -1.6836  -1.6674  -1.6100  -1.5810  -1.5680  -1.5656
    -1.5428  -1.5256  -1.5029  -1.4600  -1.3733  -1.2816  -1.2370  -1.2156
    -1.1025  -1.0387  -0.9140  -0.8720  -0.8577  -0.8303  -0.7586  -0.6920
    -0.6645  -0.6286  -0.4884  -0.4838  -0.3995  -0.3900  -0.3168  -0.3000
    -0.2599  -0.2142  -0.1030  -0.0693  -0.0478   0.0041   0.0670   0.0893
     0.1711   0.2254   0.2821   0.2960   0.3755   0.4155   0.4531   0.4748
     0.5619   0.6036   0.6631   0.6695   0.7066   0.7099   0.7352   0.8216
     0.8349   0.8545   0.8953   1.0648   1.2653   1.3172   1.3378   1.6706
     1.6899   1.7606   1.9459   2.3354   2.3829   3.8184   3.8839   3.9544
     3.9689   3.9791   4.0507   4.0952   4.2858   4.3149   4.3178   4.3397

[...]

          k = 0.0380-0.0419 0.0000 ( 17876 PWs)   bands (ev):

[...]

          k =-0.0760-0.0000 0.0000 ( 17886 PWs)   bands (ev):

[...]

          k =-0.0760-0.0839 0.0000 ( 17948 PWs)   bands (ev):

   -55.2707 -55.2557 -55.2269 -55.2267 -55.1546 -55.1444 -55.1316 -55.0793
   -55.0766 -55.0737 -55.0585 -55.0579 -54.9533 -54.7906 -54.2448 -54.2447
   -31.6645 -31.6515 -31.5776 -31.5498 -31.5497 -31.5460 -31.5190 -31.5189
   -31.4913 -31.4830 -31.4783 -31.4746 -31.4201 -31.4112 -31.4111 -31.4077
   -31.4057 -31.4015 -31.3949 -31.3795 -31.3675 -31.3570 -31.3526 -31.3462
   -31.3460 -31.3438 -31.3425 -31.3268 -31.3101 -31.3071 -31.2906 -31.2880
   -31.2832 -31.2815 -31.2814 -31.2501 -31.2388 -31.2377 -31.1636 -31.0906
   -31.0609 -31.0082 -30.5684 -30.5684 -30.4832 -30.4831 -30.4438 -30.4437
   -19.2375 -15.5897 -15.5132 -15.4571 -15.3676 -15.2893 -15.2694 -15.2594
   -15.2263 -15.1593 -15.1360 -15.0708 -15.0358 -14.9902 -14.9874 -14.9721
   -14.8876 -14.8684 -14.8533 -14.8491 -14.7881 -14.7866 -14.7597 -14.7373
   -14.7306 -14.7269 -14.6270 -14.6260 -14.4616 -14.4325 -14.2012 -12.7490
   -12.7490  -9.1404  -7.8418  -7.0501  -6.0128  -3.8481  -2.8508  -2.7643
    -2.6746  -2.5183  -2.4810  -2.4710  -2.4161  -2.3250  -2.2990  -2.2858
    -2.2656  -2.2583  -2.1856  -2.1805  -2.1363  -2.1146  -2.1037  -2.0979
    -2.0641  -2.0510  -2.0369  -2.0004  -1.9920  -1.9762  -1.9415  -1.9219
    -1.8974  -1.8697  -1.8556  -1.8262  -1.7027  -1.6738  -1.6297  -1.5682
    -1.5425  -1.4756  -1.4704  -1.3681  -1.3562  -1.3452  -1.3041  -1.2901
    -1.2705  -1.1071  -1.0625  -1.0273  -1.0157  -1.0098  -0.8539  -0.8374
    -0.7694  -0.7536  -0.7387  -0.6623  -0.6210  -0.6051  -0.5247  -0.4850
    -0.4550  -0.4344  -0.2920  -0.2796  -0.2544  -0.2395  -0.2330  -0.1403
    -0.1198  -0.0838  -0.0497  -0.0117   0.0047   0.0639   0.2171   0.2437
     0.2806   0.4248   0.4401   0.5253   0.5729   0.7000   0.7647   0.7669
     0.8481   0.9182   1.0201   1.0325   1.0521   1.1378   1.1840   1.1890
     1.1902   2.1187   2.1195   2.2029   2.2032   3.6955   3.9580   4.0802
     4.0866   4.1289   4.2518   4.3352   4.3588   4.3966   4.3986   4.4779

     the Fermi energy is     3.8733 ev

!    total energy              =   -2941.49087959 Ry
     estimated scf accuracy    <       0.00000005 Ry
     smearing contrib. (-TS)   =      -0.04231497 Ry
     internal energy E=F+TS    =   -2941.44856462 Ry

     The total energy is F=E-TS. E is the sum of the following terms:
     one-electron contribution =  -23922.07944774 Ry
     hartree contribution      =   12054.22528349 Ry
     xc contribution           =    -486.86386089 Ry
     ewald contribution        =    9413.26594434 Ry
     electric field correction =       0.00351617 Ry

     convergence has been achieved in  75 iterations

     Forces acting on atoms (cartesian axes, Ry/au):

     atom    1 type  1   force =     0.00016807   -0.00016747    0.09404046
     atom    2 type  1   force =    -0.00005237   -0.00042920   -0.17752524
     atom    3 type  2   force =     0.00006517   -0.00004368   -0.02099731
     atom    4 type  2   force =     0.00001789   -0.00180457    0.05733177
     atom    5 type  2   force =    -0.01086462   -0.00090887    0.00782237
     atom    6 type  2   force =     0.01207559   -0.00034043    0.00621784
     atom    7 type  1   force =    -0.00065580    0.00289766   -0.01530469
     atom    8 type  1   force =     0.00059541    0.00232457    0.00235519
     atom    9 type  2   force =    -0.00010347    0.00013353    0.00091153
     atom   10 type  2   force =    -0.00165476   -0.00049481   -0.00379251
     atom   11 type  2   force =    -0.00004922   -0.00023362    0.00020498
     atom   12 type  2   force =    -0.00018844   -0.00039523    0.00027329
     atom   13 type  1   force =     0.00042818    0.00109211    0.00062247
     atom   14 type  1   force =     0.00020185   -0.00061967    0.00036686
     atom   15 type  2   force =    -0.00017652    0.00037725    0.00048607
     atom   16 type  2   force =    -0.00016102   -0.00025264   -0.00118800
     atom   17 type  2   force =     0.00007529   -0.00025524    0.00014362
     atom   18 type  2   force =    -0.00076263   -0.00033649    0.00008526
     atom   19 type  1   force =    -0.00058745    0.00104190   -0.00046342
     atom   20 type  1   force =    -0.00035324    0.00133064   -0.00109705
     atom   21 type  2   force =     0.00010848   -0.00004044    0.10377490
     atom   22 type  2   force =     0.00006858    0.00016543    0.00057027
     atom   23 type  2   force =    -0.07063996   -0.00018183   -0.02706062
     atom   24 type  2   force =     0.07058450    0.00029329   -0.02709917
     atom   25 type  1   force =     0.00015092   -0.00024575    0.09336134
     atom   26 type  1   force =    -0.00001111   -0.00037264   -0.17774376
     atom   27 type  2   force =     0.00010948   -0.00040283   -0.02000938
     atom   28 type  2   force =     0.00003456   -0.00146898    0.05681610
     atom   29 type  2   force =    -0.01077147   -0.00065868    0.00673695
     atom   30 type  2   force =     0.01188906   -0.00016607    0.00509363
     atom   31 type  1   force =    -0.00063174    0.00410142   -0.01560881
     atom   32 type  1   force =     0.00067281   -0.00277887    0.00213353
     atom   33 type  2   force =     0.00015688   -0.00022010   -0.00059646
     atom   34 type  2   force =    -0.00109248    0.00272173   -0.00201680
     atom   35 type  2   force =     0.00008686    0.00019747    0.00009366
     atom   36 type  2   force =    -0.00032671    0.00033591   -0.00007465
     atom   37 type  1   force =     0.00046573   -0.00008753    0.00032400
     atom   38 type  1   force =     0.00009212    0.00089582    0.00015574
     atom   39 type  2   force =    -0.00005099   -0.00096146    0.00038758
     atom   40 type  2   force =    -0.00023414   -0.00042804    0.00062788
     atom   41 type  2   force =    -0.00014849   -0.00015210    0.00001673
     atom   42 type  2   force =     0.00015806   -0.00000031    0.00023609
     atom   43 type  1   force =    -0.00003019   -0.00141362    0.00089718
     atom   44 type  1   force =    -0.00003478   -0.00087268   -0.00143529
     atom   45 type  2   force =     0.00009579   -0.00008098    0.10375523
     atom   46 type  2   force =    -0.07065708   -0.00009228   -0.02707064
     atom   47 type  2   force =     0.07060926    0.00028890   -0.02710744
     atom   48 type  3   force =    -0.00015170   -0.00047673   -0.00087412
     atom   49 type  4   force =     0.00026315   -0.00059905    0.00128370
     atom   50 type  5   force =     0.00084627    0.00009389   -0.00099202
     atom   51 type  5   force =    -0.00020983    0.00060489   -0.00014502
     atom   52 type  3   force =     0.00427435    0.00289852   -0.00343095
     atom   53 type  5   force =     0.00058018   -0.00127558   -0.00109629
     atom   54 type  5   force =    -0.00023419   -0.00041643    0.00126627
     atom   55 type  5   force =    -0.00404006   -0.00212003    0.00433715

     Total force =     0.365801     Total SCF correction =     0.000493
  @ DRIVER MODE: Message from server: STATUS
  @ DRIVER MODE: Message from server: GETFORCE
  @ DRIVER MODE: Returning v,forces,stress,ensemble

     Writing output data file ./calc.save/
  @ DRIVER MODE: Message from server: EXIT
  @ DRIVE MODE: Exiting

     General routines

     Parallel routines

   This run was terminated on:  13: 1:40   9Sep2021

   JOB DONE.