     Program PWSCF v.6.7GPU starts on 23Sep2021 at  0:53:32

     R & G space division:  proc/nbgrp/npool/nimage =      10
     Reading input from /storage/home/hcoda1/3/ntian30/research/carbon/CxH_vib/H2O_calc/ads_slab/CHNHHHO_a/out_0028/pw.inp
Warning: card &CELL ignored
Warning: card   CELL_DYNAMICS='IPI', ignored
Warning: card / ignored

     Current dimensions of program PWSCF are:
     Max number of different atomic species (ntypx) = 10
     Max number of k-points (npk) =  40000
     Max angular momentum in pseudopotentials (lmaxx) =  3
     Presently no symmetry can be used with electric field

     Message from routine cell_base_init:
     DEPRECATED: use true lattice parameter, not A to a.u. conversion factor

     IMPORTANT: XC functional enforced from input :
     Exchange-correlation= BEEF-VDW
                           (   1   4  43  14   2   0   0)
     Any further DFT definition will be discarded
     Please, verify this is what you really want

  @ DRIVER MODE: Connecting to
 qe_1139763_2937313.sched-torque.pace.gatech.edu67wsmvjz_scratch
  using UNIX socket
  @ DRIVER MODE: Message from server: STATUS
  @ DRIVER MODE: Message from server: INIT
  @ DRIVER MODE: Receiving replica           0          -1
  @ DRIVER MODE: Receiving encoded integer          25
  @ DRIVER MODE:  SCF:  T  FORCE:  T  STRESS:  F  VC:  F  ENSEMBLE:  F
  @ DRIVER MODE:  SCF:  T  FORCE:  T  STRESS:  F  VC:  F  ENSEMBLE:  F

     Using Slab Decomposition

     bravais-lattice index     =            0
     lattice parameter (alat)  =       1.8897  a.u.
     unit-cell volume          =    6658.9804 (a.u.)^3
     number of atoms/cell      =           54
     number of atomic types    =            5
     number of electrons       =       397.00
     number of Kohn-Sham states=          208
     kinetic-energy cutoff     =      29.3995  Ry
     charge density cutoff     =     293.9946  Ry
     scf convergence threshold =      7.3E-08
     mixing beta               =       0.0500
     number of iterations used =            8  plain     mixing
     Exchange-correlation= BEEF-VDW
                           (   1   4  43  14   2   0   0)

     celldm(1)=   1.889726  celldm(2)=   0.000000  celldm(3)=   0.000000
     celldm(4)=   0.000000  celldm(5)=   0.000000  celldm(6)=   0.000000

     crystal axes: (cart. coord. in units of alat)
               a(1) = (   6.579727   0.000000   0.000000 )
               a(2) = (  -0.000775   5.961596   0.000000 )
               a(3) = (   0.000000   0.000000  25.155947 )

     reciprocal axes: (cart. coord. in units 2 pi/alat)
               b(1) = (  0.151982  0.000020  0.000000 )
               b(2) = (  0.000000  0.167740  0.000000 )
               b(3) = (  0.000000  0.000000  0.039752 )

     PseudoPot. # 1 for Ti read from file:
     /storage/coda1/p-amedford6/0/shared/rich_project_chbe-medford/medford-share/data/pseudos_module/espresso/nninc/pbe/van/Ti.UPF
     MD5 check sum: 8e4df49b7f0d34bbd5052bf3f5ea0213
     Pseudo is Ultrasoft, Zval = 12.0
     Generated by new atomic code, or converted to UPF format
     Using radial grid of  851 points,  6 beta functions with:
                l(1) =   0
                l(2) =   0
                l(3) =   1
                l(4) =   1
                l(5) =   2
                l(6) =   2
     Q(r) pseudized with  8 coefficients,  rinner =    1.000   1.000   1.000
                                                       1.000   1.000

     PseudoPot. # 2 for O  read from file:
     /storage/coda1/p-amedford6/0/shared/rich_project_chbe-medford/medford-share/data/pseudos_module/espresso/nninc/pbe/van/O.UPF
     MD5 check sum: 78c19812648e8988a0fe644b0f25305e
     Pseudo is Ultrasoft, Zval =  6.0
     Generated by new atomic code, or converted to UPF format
     Using radial grid of  737 points,  4 beta functions with:
                l(1) =   0
                l(2) =   0
                l(3) =   1
                l(4) =   1
     Q(r) pseudized with  8 coefficients,  rinner =    0.800   0.800   0.800

     PseudoPot. # 3 for N  read from file:
     /storage/coda1/p-amedford6/0/shared/rich_project_chbe-medford/medford-share/data/pseudos_module/espresso/nninc/pbe/van/N.UPF
     MD5 check sum: 90d10febe142ad51ac9d5be1deb811c4
     Pseudo is Ultrasoft, Zval =  5.0
     Generated by new atomic code, or converted to UPF format
     Using radial grid of  729 points,  4 beta functions with:
                l(1) =   0
                l(2) =   0
                l(3) =   1
                l(4) =   1
     Q(r) pseudized with  8 coefficients,  rinner =    0.800   0.800   0.800

     PseudoPot. # 4 for C  read from file:
     /storage/coda1/p-amedford6/0/shared/rich_project_chbe-medford/medford-share/data/pseudos_module/espresso/nninc/pbe/van/C.UPF
     MD5 check sum: 1a69bf6b8db32088f5b2163dbdb77a27
     Pseudo is Ultrasoft, Zval =  4.0
     Generated by new atomic code, or converted to UPF format
     Using radial grid of  721 points,  4 beta functions with:
                l(1) =   0
                l(2) =   0
                l(3) =   1
                l(4) =   1
     Q(r) pseudized with  8 coefficients,  rinner =    0.800   0.800   0.800

     PseudoPot. # 5 for H  read from file:
     /storage/coda1/p-amedford6/0/shared/rich_project_chbe-medford/medford-share/data/pseudos_module/espresso/nninc/pbe/van/H.UPF
     MD5 check sum: b5ee9d7bfd3a09ee7748110bda690ff7
     Pseudo is Ultrasoft, Zval =  1.0
     Generated by new atomic code, or converted to UPF format
     Using radial grid of  615 points,  1 beta functions with:
                l(1) =   0
     Q(r) pseudized with  8 coefficients,  rinner =    0.800

     atomic species   valence    mass     pseudopotential
        Ti1           12.00    47.86700     Ti( 1.00)
        O1             6.00    15.99900     O ( 1.00)
        N1             5.00    14.00700     N ( 1.00)
        C1             4.00    12.01100     C ( 1.00)
        H1             1.00     1.00800     H ( 1.00)

     No symmetry found

   Cartesian axes

     site n.     atom                  positions (alat units)
         1           Ti1 tau(   1) = (   0.0004258   2.9801865   6.0000000  )
         2           Ti1 tau(   2) = (   3.2906075   1.4906267   6.0002472  )
         3           O1  tau(   3) = (   0.0006271   0.0005054   7.9858123  )
         4           O1  tau(   4) = (   3.2906025   0.0005020   7.3038282  )
         5           O1  tau(   5) = (   4.5942328   1.4918067   9.2879030  )
         6           O1  tau(   6) = (   1.9868534   1.4903216   9.2879459  )
         7           Ti1 tau(   7) = (   3.2907910   2.8959150   9.1758416  )
         8           Ti1 tau(   8) = (   0.0015273   1.4827037   9.2680791  )
         9           O1  tau(   9) = (   3.2973591   5.9237820  11.3497511  )
        10           O1  tau(  10) = (   0.0116148   5.9584955  10.6183126  )
        11           O1  tau(  11) = (   1.2811460   1.4768824  12.6391447  )
        12           O1  tau(  12) = (   5.3079631   1.4871840  12.6405626  )
        13           Ti1 tau(  13) = (   6.5754896   2.9244875  12.5445406  )
        14           Ti1 tau(  14) = (   3.3102182   1.2813077  12.7057081  )
        15           O1  tau(  15) = (   6.5763362   0.0566486  14.6337039  )
        16           O1  tau(  16) = (   3.2990834   0.0566264  13.9960278  )
        17           O1  tau(  17) = (   4.5749688   1.5338778  16.1314031  )
        18           O1  tau(  18) = (   2.0677763   1.5208417  16.2171153  )
        19           Ti1 tau(  19) = (   3.2830944   2.9922577  15.6820260  )
        20           Ti1 tau(  20) = (   6.5002293   1.4748383  16.0237708  )
        21           O1  tau(  21) = (   3.2904802   0.0005063   4.7018136  )
        22           O1  tau(  22) = (   0.0234767   5.8639946  17.1540191  )
        23           O1  tau(  23) = (   1.3043587   1.4918075   6.0039043  )
        24           O1  tau(  24) = (   5.2767064   1.4903225   6.0039473  )
        25           Ti1 tau(  25) = (   0.0000382   5.9609847   6.0000000  )
        26           Ti1 tau(  26) = (   3.2902200   4.4714249   6.0002472  )
        27           O1  tau(  27) = (   0.0002396   2.9813036   7.9858123  )
        28           O1  tau(  28) = (   3.2902150   2.9813002   7.3038282  )
        29           O1  tau(  29) = (   4.5938453   4.4726049   9.2879030  )
        30           O1  tau(  30) = (   1.9864658   4.4711199   9.2879459  )
        31           Ti1 tau(  31) = (   3.2891106   5.8743827   9.1763621  )
        32           Ti1 tau(  32) = (   0.0006254   4.4649316   9.2693709  )
        33           O1  tau(  33) = (   3.2952530   2.9960894  11.3054589  )
        34           O1  tau(  34) = (   0.0092240   2.9805883  10.6323155  )
        35           O1  tau(  35) = (   1.2848436   4.4566134  12.6628561  )
        36           O1  tau(  36) = (   5.3073415   4.4462911  12.6631571  )
        37           Ti1 tau(  37) = (   0.0411484   5.9123939  12.5136797  )
        38           Ti1 tau(  38) = (   3.3147701   4.3652790  12.4361622  )
        39           O1  tau(  39) = (   0.0290229   2.9306538  14.8412286  )
        40           O1  tau(  40) = (   3.2875986   2.9640914  13.9120161  )
        41           O1  tau(  41) = (   4.5659564   4.3862643  16.1232528  )
        42           O1  tau(  42) = (   2.0245242   4.4195217  16.0560026  )
        43           Ti1 tau(  43) = (   3.2475481   5.9608109  16.2864591  )
        44           Ti1 tau(  44) = (   0.0132903   4.6514137  15.7972829  )
        45           O1  tau(  45) = (   3.2900926   2.9813045   4.7018136  )
        46           O1  tau(  46) = (   1.3039711   4.4726057   6.0039043  )
        47           O1  tau(  47) = (   5.2763189   4.4711207   6.0039473  )
        48           N1  tau(  48) = (   5.7184149   3.3872802  18.6644769  )
        49           C1  tau(  49) = (   6.5536674   2.6142045  18.0347456  )
        50           H1  tau(  50) = (   0.7520291   2.2354638  18.7052436  )
        51           H1  tau(  51) = (   4.9873861   3.8928837  18.1615307  )
        52           H1  tau(  52) = (   5.8197376   3.6497576  19.6419508  )
        53           O1  tau(  53) = (   3.3578172   5.8156178  18.1613732  )
        54           H1  tau(  54) = (   2.9124532   0.5526369  18.6599525  )

     number of k points=    10  Fermi-Dirac smearing, width (Ry)=  0.0073
                       cart. coord. in units 2pi/alat
        k(    1) = (   0.0000000   0.0000000   0.0000000), wk =   0.1250000
        k(    2) = (   0.0000000   0.0419351   0.0000000), wk =   0.2500000
        k(    3) = (   0.0000000  -0.0838702   0.0000000), wk =   0.1250000
        k(    4) = (   0.0379955   0.0000049   0.0000000), wk =   0.2500000
        k(    5) = (   0.0379955   0.0419400   0.0000000), wk =   0.2500000
        k(    6) = (   0.0379955  -0.0838652   0.0000000), wk =   0.2500000
        k(    7) = (   0.0379955  -0.0419301   0.0000000), wk =   0.2500000
        k(    8) = (  -0.0759910  -0.0000099   0.0000000), wk =   0.1250000
        k(    9) = (  -0.0759910   0.0419252   0.0000000), wk =   0.2500000
        k(   10) = (  -0.0759910  -0.0838800   0.0000000), wk =   0.1250000

     Initial potential from superposition of free atoms

     starting charge  380.99916, renormalised to  397.00000

     negative rho (up, down):  1.674E-02 0.000E+00

     %%%%%%%%%%%%%%%%%%%%%%%%%%%%%%%%%%%%%%%%%%%%%%%%%%%%%%%%%%%%%%%%%%%%%%%%
     %                                                                      %
     % You are using vdW-DF, which was implemented by the Thonhauser group. %
     % Please cite the following two papers that made this development      %
     % possible and the two reviews that describe the various versions:     %
     %                                                                      %
     %   T. Thonhauser et al., PRL 115, 136402 (2015).                      %
     %   T. Thonhauser et al., PRB 76, 125112 (2007).                       %
     %   K. Berland et al., Rep. Prog. Phys. 78, 066501 (2015).             %
     %   D.C. Langreth et al., J. Phys.: Condens. Matter 21, 084203 (2009). %
     %                                                                      %
     %                                                                      %
     % If you are calculating the stress with vdW-DF, please also cite:     %
     %                                                                      %
     %   R. Sabatini et al., J. Phys.: Condens. Matter 24, 424209 (2012).   %
     %                                                                      %
     %%%%%%%%%%%%%%%%%%%%%%%%%%%%%%%%%%%%%%%%%%%%%%%%%%%%%%%%%%%%%%%%%%%%%%%%

     Adding external electric field

     Computed dipole along edir(3) :
        Dipole               -9.3089 Ry au,        -23.6608 Debye
        Dipole field         -0.0176 Ry au,

        Potential amp.        1.6284 Ry
        Total length         46.3494 bohr

     Starting wfcs are  300 atomic wfcs
  @ DRIVER MODE: Message from server: STATUS
  @ DRIVER MODE: Message from server: POSDATA
  @ DRIVER MODE: Reading and sharing cell
  @ DRIVER MODE: Reading and sharing positions
  @ DRIVER MODE: Received positions

     Self-consistent Calculation

     iteration #  1     ecut=    29.40 Ry     beta= 0.05
     Davidson diagonalization with overlap
     c_bands:  1 eigenvalues not converged
     c_bands:  2 eigenvalues not converged
     c_bands:  1 eigenvalues not converged
     c_bands:  1 eigenvalues not converged
     c_bands:  1 eigenvalues not converged
     c_bands:  2 eigenvalues not converged
     c_bands:  1 eigenvalues not converged
     c_bands:  1 eigenvalues not converged
     c_bands:  2 eigenvalues not converged
     ethr =  1.00E-05,  avg # of iterations = 19.6

[...]

     total energy              =   -2539.08401195 Ry
     estimated scf accuracy    <    4593.63560483 Ry

     iteration #  2     ecut=    29.40 Ry     beta= 0.05
     Davidson diagonalization with overlap
     ethr =  1.00E-02,  avg # of iterations = 24.2

[...]

     iteration # 50     ecut=    29.40 Ry     beta= 0.05
     Davidson diagonalization with overlap
     c_bands:  1 eigenvalues not converged
     ethr =  1.60E-07,  avg # of iterations = 15.0

[...]

     total energy              =   -2952.67095599 Ry
     estimated scf accuracy    <       0.00000014 Ry

     iteration # 69     ecut=    29.40 Ry     beta= 0.05
     Davidson diagonalization with overlap
     ethr =  3.09E-11,  avg # of iterations =  9.2

     negative rho (up, down):  1.682E-02 0.000E+00

     Adding external electric field

     Computed dipole along edir(3) :
        Dipole                1.3055 Ry au,          3.3182 Debye
        Dipole field          0.0025 Ry au,

        Potential amp.       -0.2284 Ry
        Total length         46.3494 bohr

     End of self-consistent calculation

          k = 0.0000 0.0000 0.0000 ( 18029 PWs)   bands (ev):

   -55.6256 -55.5468 -55.5127 -55.3642 -55.3398 -55.3302 -55.3043 -55.2966
   -55.2802 -55.2298 -55.1426 -55.1071 -55.0303 -55.0053 -54.4984 -54.4644
   -32.0281 -31.9578 -31.8662 -31.8489 -31.8385 -31.8260 -31.8243 -31.7916
   -31.7638 -31.7192 -31.6992 -31.6709 -31.6502 -31.6276 -31.6215 -31.6101
   -31.6045 -31.5870 -31.5537 -31.5383 -31.5221 -31.5182 -31.5039 -31.5032
   -31.4922 -31.4813 -31.4773 -31.4768 -31.4482 -31.4364 -31.4272 -31.4043
   -31.3873 -31.3864 -31.3844 -31.3081 -31.2972 -31.2761 -31.2439 -31.2349
   -31.2244 -31.1537 -30.9032 -30.8197 -30.7971 -30.7210 -30.6348 -30.5228
   -17.2956 -16.4848 -16.1318 -15.9671 -15.7700 -15.6656 -15.5962 -15.4077
   -15.3232 -15.2662 -15.0745 -15.0715 -15.0405 -15.0225 -14.9961 -14.9672
   -14.9593 -14.9535 -14.9266 -14.8932 -14.8763 -14.8483 -14.8307 -14.7725
   -14.7445 -14.7281 -14.6681 -14.5725 -14.5085 -14.2956 -14.1480 -12.9963
   -12.8804  -9.6393  -7.2907  -4.7768  -4.0639  -3.5010  -3.4337  -3.3725
    -3.3234  -3.2483  -3.0166  -2.8691  -2.7641  -2.7356  -2.6499  -2.6178
    -2.5711  -2.4926  -2.4253  -2.4019  -2.3558  -2.3186  -2.2876  -2.2651
    -2.2399  -2.2178  -2.1628  -2.1238  -2.0470  -1.9984  -1.9291  -1.9068
    -1.8498  -1.8115  -1.8089  -1.7941  -1.7574  -1.7520  -1.7435  -1.7238
    -1.6169  -1.5850  -1.5352  -1.4927  -1.3284  -1.1410  -1.1207  -1.0254
    -0.9887  -0.9511  -0.9237  -0.9085  -0.8822  -0.8591  -0.7649  -0.7456
    -0.6641  -0.6020  -0.5576  -0.5077  -0.4072  -0.3401  -0.3132  -0.2666
    -0.2616  -0.2301  -0.2143  -0.1260  -0.0491  -0.0021   0.0109   0.0627
     0.1477   0.1661   0.2213   0.2519   0.2933   0.3278   0.4001   0.4262
     0.4485   0.4597   0.4777   0.5348   0.5738   0.6067   0.6763   0.7781
     0.7869   0.8605   0.8620   0.8722   1.0730   1.1617   1.1811   1.2635
     1.4873   1.5284   1.6199   1.7245   2.0930   2.1372   3.5561   3.6996
     3.7173   3.7825   3.8303   3.9429   3.9550   4.0411   4.1692   4.2552

[...]

          k = 0.0380-0.0419 0.0000 ( 17876 PWs)   bands (ev):

[...]

          k =-0.0760-0.0000 0.0000 ( 17886 PWs)   bands (ev):

[...]

          k =-0.0760-0.0839 0.0000 ( 17948 PWs)   bands (ev):

   -55.6249 -55.5299 -55.5294 -55.3473 -55.3469 -55.3262 -55.3176 -55.2970
   -55.2738 -55.2362 -55.1404 -55.1034 -55.0339 -55.0074 -54.4818 -54.4809
   -31.9033 -31.8436 -31.8433 -31.8377 -31.8268 -31.8242 -31.8237 -31.7000
   -31.6724 -31.6661 -31.6499 -31.6493 -31.6434 -31.6346 -31.6220 -31.6032
   -31.5963 -31.5933 -31.5592 -31.5587 -31.5407 -31.5395 -31.5254 -31.5224
   -31.5158 -31.5113 -31.5030 -31.5011 -31.4919 -31.4855 -31.4598 -31.4536
   -31.4081 -31.3899 -31.3812 -31.3642 -31.3119 -31.3008 -31.2837 -31.2453
   -31.2388 -31.2266 -30.8102 -30.8095 -30.7169 -30.7156 -30.6783 -30.6776
   -17.2912 -16.4751 -15.5937 -15.5837 -15.4732 -15.4566 -15.3543 -15.2872
   -15.2535 -15.2292 -15.2094 -15.1781 -15.1729 -15.1259 -15.0806 -15.0646
   -15.0340 -15.0083 -14.9912 -14.9540 -14.9237 -14.9068 -14.8830 -14.8454
   -14.8388 -14.8241 -14.8108 -14.6416 -14.5942 -14.4496 -14.4222 -12.9826
   -12.9822  -9.6409  -7.2901  -4.7717  -4.0605  -2.8589  -2.7994  -2.6831
    -2.6453  -2.5857  -2.5110  -2.4779  -2.4643  -2.3777  -2.3668  -2.3626
    -2.3241  -2.2994  -2.2808  -2.2526  -2.2490  -2.2400  -2.2050  -2.1981
    -2.1808  -2.1598  -2.1433  -2.1278  -2.1131  -2.1044  -2.0811  -2.0587
    -2.0321  -1.9889  -1.8316  -1.7941  -1.7664  -1.6502  -1.6405  -1.6227
    -1.6114  -1.5982  -1.5664  -1.5003  -1.4819  -1.4757  -1.3170  -1.2317
    -1.1908  -1.1260  -1.1048  -1.0769  -0.9874  -0.9744  -0.9460  -0.9087
    -0.8610  -0.7885  -0.6896  -0.6822  -0.6386  -0.5307  -0.4801  -0.4677
    -0.4646  -0.4146  -0.4042  -0.3875  -0.3471  -0.2749  -0.2588  -0.2338
    -0.2013  -0.1858  -0.1446  -0.0767   0.0267   0.1085   0.2128   0.2497
     0.3312   0.3574   0.3721   0.5240   0.5873   0.6263   0.6747   0.6822
     0.7846   0.7955   0.8097   0.8906   0.9886   1.0081   1.0690   1.0862
     1.1055   1.1435   1.8937   1.9017   1.9575   1.9577   3.7440   4.0314
     4.0829   4.0931   4.1142   4.1289   4.1347   4.1635   4.2198   4.2502

     the Fermi energy is     3.5809 ev

!    total energy              =   -2952.67099494 Ry
     estimated scf accuracy    <       0.00000006 Ry
     smearing contrib. (-TS)   =      -0.02000593 Ry
     internal energy E=F+TS    =   -2952.65098901 Ry

     The total energy is F=E-TS. E is the sum of the following terms:
     one-electron contribution =  -23943.31674800 Ry
     hartree contribution      =   12064.59142005 Ry
     xc contribution           =    -487.97550992 Ry
     ewald contribution        =    9414.04663257 Ry
     electric field correction =       0.00321628 Ry

     convergence has been achieved in  69 iterations

     Forces acting on atoms (cartesian axes, Ry/au):

     atom    1 type  1   force =     0.00004196   -0.00030950    0.09545186
     atom    2 type  1   force =    -0.00014201    0.00030969   -0.17428110
     atom    3 type  2   force =    -0.00001946   -0.00015809   -0.02259574
     atom    4 type  2   force =     0.00003649   -0.00185435    0.05176025
     atom    5 type  2   force =    -0.00668035   -0.00271033    0.00169123
     atom    6 type  2   force =     0.00823488   -0.00219677    0.00116825
     atom    7 type  1   force =    -0.00013016   -0.00380851    0.01183002
     atom    8 type  1   force =     0.00015907    0.00377677    0.01276385
     atom    9 type  2   force =     0.00021003    0.00038017    0.00083762
     atom   10 type  2   force =    -0.00197702   -0.00130437   -0.01613877
     atom   11 type  2   force =     0.00116937   -0.00021467   -0.00028353
     atom   12 type  2   force =    -0.00061418    0.00012492   -0.00023898
     atom   13 type  1   force =    -0.00021952   -0.00146362    0.00053037
     atom   14 type  1   force =     0.00009793   -0.00042109   -0.00007205
     atom   15 type  2   force =     0.00010048    0.00034810   -0.00089566
     atom   16 type  2   force =     0.00004764    0.00108357   -0.00050605
     atom   17 type  2   force =    -0.00020284    0.00017898    0.00010348
     atom   18 type  2   force =     0.00007656    0.00023411   -0.00011959
     atom   19 type  1   force =    -0.00021256    0.00001100    0.00025079
     atom   20 type  1   force =     0.00011835    0.00018130   -0.00038235
     atom   21 type  2   force =     0.00005868    0.00010424    0.10286296
     atom   22 type  2   force =    -0.00030358    0.00042893    0.00049632
     atom   23 type  2   force =    -0.07251976   -0.00014543   -0.02757034
     atom   24 type  2   force =     0.07242395    0.00026903   -0.02760018
     atom   25 type  1   force =     0.00008876   -0.00014101    0.09505154
     atom   26 type  1   force =    -0.00011202   -0.00127640   -0.17430791
     atom   27 type  2   force =     0.00015655   -0.00025702   -0.02134634
     atom   28 type  2   force =     0.00004710   -0.00014525    0.04737221
     atom   29 type  2   force =    -0.00545980    0.00230213   -0.00004130
     atom   30 type  2   force =     0.00703838    0.00274066   -0.00055012
     atom   31 type  1   force =    -0.00016797    0.00659782    0.00053011
     atom   32 type  1   force =     0.00008366   -0.00557286    0.01181829
     atom   33 type  2   force =    -0.00014537   -0.00040234    0.00011864
     atom   34 type  2   force =    -0.00121811    0.00016722   -0.01567326
     atom   35 type  2   force =    -0.00038322    0.00043941    0.00015870
     atom   36 type  2   force =     0.00103181    0.00059242    0.00042036
     atom   37 type  1   force =    -0.00023957    0.00176471    0.00020536
     atom   38 type  1   force =    -0.00005614    0.00023792    0.00038815
     atom   39 type  2   force =    -0.00010262    0.00008614   -0.00019001
     atom   40 type  2   force =     0.00037270   -0.00032801   -0.00020827
     atom   41 type  2   force =    -0.00053081    0.00040002    0.00022265
     atom   42 type  2   force =     0.00065753    0.00017557    0.00027367
     atom   43 type  1   force =     0.00026820    0.00016621    0.00039053
     atom   44 type  1   force =     0.00028529    0.00020908    0.00077060
     atom   45 type  2   force =     0.00006007   -0.00008737    0.10264502
     atom   46 type  2   force =    -0.07256930   -0.00004524   -0.02759131
     atom   47 type  2   force =     0.07249488    0.00040959   -0.02762062
     atom   48 type  3   force =    -0.00020747    0.00189543    0.00263097
     atom   49 type  4   force =    -0.00025392   -0.00018688    0.00029654
     atom   50 type  5   force =    -0.00036160   -0.00015503   -0.00022551
     atom   51 type  5   force =     0.00041028   -0.00008301   -0.00055524
     atom   52 type  5   force =     0.00018531   -0.00159991   -0.00314046
     atom   53 type  2   force =    -0.00006211   -0.00001585   -0.00077602
     atom   54 type  5   force =    -0.00106445   -0.00073222   -0.00012965

     Total force =     0.362369     Total SCF correction =     0.000816
  @ DRIVER MODE: Message from server: STATUS
  @ DRIVER MODE: Message from server: GETFORCE
  @ DRIVER MODE: Returning v,forces,stress,ensemble

     Writing output data file ./calc.save/
  @ DRIVER MODE: Message from server: EXIT
  @ DRIVE MODE: Exiting

     General routines

     Parallel routines

   This run was terminated on:   1:13:13  23Sep2021

   JOB DONE.