     Program PWSCF v.6.7GPU starts on 21Sep2021 at 22:20:23

     R & G space division:  proc/nbgrp/npool/nimage =      10
     Reading input from /storage/home/hcoda1/3/ntian30/research/carbon/CxH_vib/CH_calc/ads_slab/CHNHNH2H2O_b/out_0001/pw.inp
Warning: card &CELL ignored
Warning: card   CELL_DYNAMICS='IPI', ignored
Warning: card / ignored

     Current dimensions of program PWSCF are:
     Max number of different atomic species (ntypx) = 10
     Max number of k-points (npk) =  40000
     Max angular momentum in pseudopotentials (lmaxx) =  3
     Presently no symmetry can be used with electric field

     Message from routine cell_base_init:
     DEPRECATED: use true lattice parameter, not A to a.u. conversion factor

     IMPORTANT: XC functional enforced from input :
     Exchange-correlation= BEEF-VDW
                           (   1   4  43  14   2   0   0)
     Any further DFT definition will be discarded
     Please, verify this is what you really want

  @ DRIVER MODE: Connecting to
 qe_1139763_2927425.sched-torque.pace.gatech.edurs10zrwi_scratch
  using UNIX socket
  @ DRIVER MODE: Message from server: STATUS
  @ DRIVER MODE: Message from server: INIT
  @ DRIVER MODE: Receiving replica           0          -1
  @ DRIVER MODE: Receiving encoded integer          25
  @ DRIVER MODE:  SCF:  T  FORCE:  T  STRESS:  F  VC:  F  ENSEMBLE:  F
  @ DRIVER MODE:  SCF:  T  FORCE:  T  STRESS:  F  VC:  F  ENSEMBLE:  F

     Using Slab Decomposition

     bravais-lattice index     =            0
     lattice parameter (alat)  =       1.8897  a.u.
     unit-cell volume          =    6658.9804 (a.u.)^3
     number of atoms/cell      =           57
     number of atomic types    =            5
     number of electrons       =       404.00
     number of Kohn-Sham states=          212
     kinetic-energy cutoff     =      29.3995  Ry
     charge density cutoff     =     293.9946  Ry
     scf convergence threshold =      7.3E-08
     mixing beta               =       0.0500
     number of iterations used =            8  plain     mixing
     Exchange-correlation= BEEF-VDW
                           (   1   4  43  14   2   0   0)

     celldm(1)=   1.889726  celldm(2)=   0.000000  celldm(3)=   0.000000
     celldm(4)=   0.000000  celldm(5)=   0.000000  celldm(6)=   0.000000

     crystal axes: (cart. coord. in units of alat)
               a(1) = (   6.579727   0.000000   0.000000 )
               a(2) = (  -0.000775   5.961596   0.000000 )
               a(3) = (   0.000000   0.000000  25.155947 )

     reciprocal axes: (cart. coord. in units 2 pi/alat)
               b(1) = (  0.151982  0.000020  0.000000 )
               b(2) = (  0.000000  0.167740  0.000000 )
               b(3) = (  0.000000  0.000000  0.039752 )

     PseudoPot. # 1 for Ti read from file:
     /storage/coda1/p-amedford6/0/shared/rich_project_chbe-medford/medford-share/data/pseudos_module/espresso/nninc/pbe/van/Ti.UPF
     MD5 check sum: 8e4df49b7f0d34bbd5052bf3f5ea0213
     Pseudo is Ultrasoft, Zval = 12.0
     Generated by new atomic code, or converted to UPF format
     Using radial grid of  851 points,  6 beta functions with:
                l(1) =   0
                l(2) =   0
                l(3) =   1
                l(4) =   1
                l(5) =   2
                l(6) =   2
     Q(r) pseudized with  8 coefficients,  rinner =    1.000   1.000   1.000
                                                       1.000   1.000

     PseudoPot. # 2 for O  read from file:
     /storage/coda1/p-amedford6/0/shared/rich_project_chbe-medford/medford-share/data/pseudos_module/espresso/nninc/pbe/van/O.UPF
     MD5 check sum: 78c19812648e8988a0fe644b0f25305e
     Pseudo is Ultrasoft, Zval =  6.0
     Generated by new atomic code, or converted to UPF format
     Using radial grid of  737 points,  4 beta functions with:
                l(1) =   0
                l(2) =   0
                l(3) =   1
                l(4) =   1
     Q(r) pseudized with  8 coefficients,  rinner =    0.800   0.800   0.800

     PseudoPot. # 3 for N  read from file:
     /storage/coda1/p-amedford6/0/shared/rich_project_chbe-medford/medford-share/data/pseudos_module/espresso/nninc/pbe/van/N.UPF
     MD5 check sum: 90d10febe142ad51ac9d5be1deb811c4
     Pseudo is Ultrasoft, Zval =  5.0
     Generated by new atomic code, or converted to UPF format
     Using radial grid of  729 points,  4 beta functions with:
                l(1) =   0
                l(2) =   0
                l(3) =   1
                l(4) =   1
     Q(r) pseudized with  8 coefficients,  rinner =    0.800   0.800   0.800

     PseudoPot. # 4 for C  read from file:
     /storage/coda1/p-amedford6/0/shared/rich_project_chbe-medford/medford-share/data/pseudos_module/espresso/nninc/pbe/van/C.UPF
     MD5 check sum: 1a69bf6b8db32088f5b2163dbdb77a27
     Pseudo is Ultrasoft, Zval =  4.0
     Generated by new atomic code, or converted to UPF format
     Using radial grid of  721 points,  4 beta functions with:
                l(1) =   0
                l(2) =   0
                l(3) =   1
                l(4) =   1
     Q(r) pseudized with  8 coefficients,  rinner =    0.800   0.800   0.800

     PseudoPot. # 5 for H  read from file:
     /storage/coda1/p-amedford6/0/shared/rich_project_chbe-medford/medford-share/data/pseudos_module/espresso/nninc/pbe/van/H.UPF
     MD5 check sum: b5ee9d7bfd3a09ee7748110bda690ff7
     Pseudo is Ultrasoft, Zval =  1.0
     Generated by new atomic code, or converted to UPF format
     Using radial grid of  615 points,  1 beta functions with:
                l(1) =   0
     Q(r) pseudized with  8 coefficients,  rinner =    0.800

     atomic species   valence    mass     pseudopotential
        Ti1           12.00    47.86700     Ti( 1.00)
        O1             6.00    15.99900     O ( 1.00)
        N1             5.00    14.00700     N ( 1.00)
        C1             4.00    12.01100     C ( 1.00)
        H1             1.00     1.00800     H ( 1.00)

     No symmetry found

   Cartesian axes

     site n.     atom                  positions (alat units)
         1           Ti1 tau(   1) = (   0.0004258   2.9801865   6.0000000  )
         2           Ti1 tau(   2) = (   3.2906075   1.4906267   6.0002472  )
         3           O1  tau(   3) = (   0.0006271   0.0005054   7.9858123  )
         4           O1  tau(   4) = (   3.2906025   0.0005020   7.3038282  )
         5           O1  tau(   5) = (   4.5942328   1.4918067   9.2879030  )
         6           O1  tau(   6) = (   1.9868534   1.4903216   9.2879459  )
         7           Ti1 tau(   7) = (   3.2907910   2.8959150   9.1758416  )
         8           Ti1 tau(   8) = (   0.0015273   1.4827037   9.2680791  )
         9           O1  tau(   9) = (   3.3066417   5.9496923  11.3845403  )
        10           O1  tau(  10) = (   0.0116148   5.9584955  10.6183126  )
        11           O1  tau(  11) = (   1.3010148   1.4986442  12.6442229  )
        12           O1  tau(  12) = (   5.3085967   1.5001388  12.6592367  )
        13           Ti1 tau(  13) = (   0.0282779   2.9853959  12.5065338  )
        14           Ti1 tau(  14) = (   3.3279724   1.4707331  12.5413945  )
        15           O1  tau(  15) = (   0.0378505   0.0859181  14.6860672  )
        16           O1  tau(  16) = (   3.3018867   0.0259462  14.0338077  )
        17           O1  tau(  17) = (   4.5998927   1.5484098  16.1661054  )
        18           O1  tau(  18) = (   2.0454451   1.5021798  16.2221046  )
        19           Ti1 tau(  19) = (   3.3206312   2.9825829  15.7321521  )
        20           Ti1 tau(  20) = (   0.0140791   1.4435866  15.9983415  )
        21           O1  tau(  21) = (   3.2904802   0.0005063   4.7018136  )
        22           O1  tau(  22) = (   6.5273045   5.8164216  17.2577718  )
        23           O1  tau(  23) = (   1.3043587   1.4918075   6.0039043  )
        24           O1  tau(  24) = (   5.2767064   1.4903225   6.0039473  )
        25           Ti1 tau(  25) = (   0.0000382   5.9609847   6.0000000  )
        26           Ti1 tau(  26) = (   3.2902200   4.4714249   6.0002472  )
        27           O1  tau(  27) = (   0.0002396   2.9813036   7.9858123  )
        28           O1  tau(  28) = (   3.2902150   2.9813002   7.3038282  )
        29           O1  tau(  29) = (   4.5938453   4.4726049   9.2879030  )
        30           O1  tau(  30) = (   1.9864658   4.4711199   9.2879459  )
        31           Ti1 tau(  31) = (   3.2891106   5.8743827   9.1763621  )
        32           Ti1 tau(  32) = (   0.0006254   4.4649316   9.2693709  )
        33           O1  tau(  33) = (   3.3068470   2.9864458  11.3814114  )
        34           O1  tau(  34) = (   0.0092240   2.9805883  10.6323155  )
        35           O1  tau(  35) = (   1.2982948   4.4740332  12.6840172  )
        36           O1  tau(  36) = (   5.3097620   4.4704985  12.6972095  )
        37           Ti1 tau(  37) = (   0.0348817   0.0130325  12.4954113  )
        38           Ti1 tau(  38) = (   3.3270268   4.4633798  12.5435021  )
        39           O1  tau(  39) = (   0.0563025   2.9439880  14.9425960  )
        40           O1  tau(  40) = (   3.2900316   2.9661073  13.9503945  )
        41           O1  tau(  41) = (   4.5967999   4.4093095  16.0633277  )
        42           O1  tau(  42) = (   2.0412097   4.4536800  16.1303113  )
        43           Ti1 tau(  43) = (   3.2964201   5.9600488  15.8742613  )
        44           Ti1 tau(  44) = (   0.0241369   4.6516137  15.8518307  )
        45           O1  tau(  45) = (   3.2900926   2.9813045   4.7018136  )
        46           O1  tau(  46) = (   1.3039711   4.4726057   6.0039043  )
        47           O1  tau(  47) = (   5.2763189   4.4711207   6.0039473  )
        48           N1  tau(  48) = (   1.4409408   2.7109095  18.7602185  )
        49           N1  tau(  49) = (   0.0917387   2.5303350  18.2207845  )
        50           C1  tau(  50) = (   1.9503960   3.7723240  19.2784661  )
        51           H1  tau(  51) = (   1.1612915   4.5273475  19.4152495  )
        52           H1  tau(  52) = (   2.0208952   1.9183395  18.4664618  )
        53           H1  tau(  53) = (   6.1377449   3.3539424  18.4987646  )
        54           H1  tau(  54) = (   6.2616785   1.7135167  18.6767212  )
        55           O1  tau(  55) = (   3.7012217   5.9496235  18.2853534  )
        56           H1  tau(  56) = (   4.6684668   5.8470116  18.1670174  )
        57           H1  tau(  57) = (   3.3852657   5.1278045  18.7338684  )

     number of k points=    10  Fermi-Dirac smearing, width (Ry)=  0.0073
                       cart. coord. in units 2pi/alat
        k(    1) = (   0.0000000   0.0000000   0.0000000), wk =   0.1250000
        k(    2) = (   0.0000000   0.0419351   0.0000000), wk =   0.2500000
        k(    3) = (   0.0000000  -0.0838702   0.0000000), wk =   0.1250000
        k(    4) = (   0.0379955   0.0000049   0.0000000), wk =   0.2500000
        k(    5) = (   0.0379955   0.0419400   0.0000000), wk =   0.2500000
        k(    6) = (   0.0379955  -0.0838652   0.0000000), wk =   0.2500000
        k(    7) = (   0.0379955  -0.0419301   0.0000000), wk =   0.2500000
        k(    8) = (  -0.0759910  -0.0000099   0.0000000), wk =   0.1250000
        k(    9) = (  -0.0759910   0.0419252   0.0000000), wk =   0.2500000
        k(   10) = (  -0.0759910  -0.0838800   0.0000000), wk =   0.1250000

     Initial potential from superposition of free atoms

     starting charge  387.99913, renormalised to  404.00000

     negative rho (up, down):  1.598E-02 0.000E+00

     %%%%%%%%%%%%%%%%%%%%%%%%%%%%%%%%%%%%%%%%%%%%%%%%%%%%%%%%%%%%%%%%%%%%%%%%
     %                                                                      %
     % You are using vdW-DF, which was implemented by the Thonhauser group. %
     % Please cite the following two papers that made this development      %
     % possible and the two reviews that describe the various versions:     %
     %                                                                      %
     %   T. Thonhauser et al., PRL 115, 136402 (2015).                      %
     %   T. Thonhauser et al., PRB 76, 125112 (2007).                       %
     %   K. Berland et al., Rep. Prog. Phys. 78, 066501 (2015).             %
     %   D.C. Langreth et al., J. Phys.: Condens. Matter 21, 084203 (2009). %
     %                                                                      %
     %                                                                      %
     % If you are calculating the stress with vdW-DF, please also cite:     %
     %                                                                      %
     %   R. Sabatini et al., J. Phys.: Condens. Matter 24, 424209 (2012).   %
     %                                                                      %
     %%%%%%%%%%%%%%%%%%%%%%%%%%%%%%%%%%%%%%%%%%%%%%%%%%%%%%%%%%%%%%%%%%%%%%%%

     Adding external electric field

     Computed dipole along edir(3) :
        Dipole              -14.3585 Ry au,        -36.4957 Debye
        Dipole field         -0.0271 Ry au,

        Potential amp.        2.5118 Ry
        Total length         46.3494 bohr

     Starting wfcs are  306 atomic wfcs
  @ DRIVER MODE: Message from server: STATUS
  @ DRIVER MODE: Message from server: POSDATA
  @ DRIVER MODE: Reading and sharing cell
  @ DRIVER MODE: Reading and sharing positions
  @ DRIVER MODE: Received positions

     Self-consistent Calculation

     iteration #  1     ecut=    29.40 Ry     beta= 0.05
     Davidson diagonalization with overlap
     c_bands:  3 eigenvalues not converged
     c_bands:  4 eigenvalues not converged
     c_bands:  4 eigenvalues not converged
     c_bands:  4 eigenvalues not converged
     c_bands:  5 eigenvalues not converged
     c_bands:  3 eigenvalues not converged
     c_bands:  2 eigenvalues not converged
     c_bands:  4 eigenvalues not converged
     ethr =  1.00E-05,  avg # of iterations = 21.9

[...]

     total energy              =   -2220.94690247 Ry
     estimated scf accuracy    <    8587.40895325 Ry

     iteration #  2     ecut=    29.40 Ry     beta= 0.05
     Davidson diagonalization with overlap
     ethr =  1.00E-02,  avg # of iterations = 27.9

[...]

     iteration # 75     ecut=    29.40 Ry     beta= 0.05
     Davidson diagonalization with overlap
     c_bands:  1 eigenvalues not converged
     ethr =  4.12E-11,  avg # of iterations =  6.9

[...]

     total energy              =   -2975.10511940 Ry
     estimated scf accuracy    <       0.00000015 Ry

     iteration # 76     ecut=    29.40 Ry     beta= 0.05
     Davidson diagonalization with overlap
     ethr =  3.76E-11,  avg # of iterations =  9.1

     negative rho (up, down):  1.579E-02 0.000E+00

     Adding external electric field

     Computed dipole along edir(3) :
        Dipole                1.0184 Ry au,          2.5884 Debye
        Dipole field          0.0019 Ry au,

        Potential amp.       -0.1781 Ry
        Total length         46.3494 bohr

     End of self-consistent calculation

          k = 0.0000 0.0000 0.0000 ( 18029 PWs)   bands (ev):

   -55.3882 -55.3524 -55.3487 -55.3146 -55.3111 -55.3054 -55.2704 -55.2351
   -55.2197 -55.1848 -55.1782 -55.1629 -55.1445 -55.1150 -54.3798 -54.3457
   -31.9472 -31.8832 -31.8414 -31.7600 -31.7110 -31.7082 -31.6841 -31.6811
   -31.6374 -31.6013 -31.5941 -31.5932 -31.5860 -31.5823 -31.5643 -31.5622
   -31.5377 -31.5295 -31.5266 -31.5152 -31.5014 -31.4945 -31.4755 -31.4707
   -31.4628 -31.4493 -31.4488 -31.4199 -31.4060 -31.4021 -31.3987 -31.3766
   -31.3729 -31.3685 -31.3650 -31.3438 -31.3327 -31.3208 -31.3059 -31.3057
   -31.2954 -31.2892 -30.7892 -30.6947 -30.6727 -30.6056 -30.5188 -30.4079
   -18.9303 -18.4534 -16.2230 -15.9757 -15.8396 -15.7351 -15.5980 -15.4997
   -15.3904 -15.2772 -15.2542 -15.1601 -15.0860 -15.0817 -15.0446 -15.0193
   -14.9567 -14.9354 -14.9115 -14.9056 -14.8912 -14.8808 -14.8443 -14.8334
   -14.7981 -14.7895 -14.7724 -14.6367 -14.6257 -14.5548 -14.4845 -14.3461
   -12.8822 -12.7647  -9.8041  -7.0495  -6.3754  -6.0915  -4.4026  -3.7244
    -3.5461  -3.4132  -3.3344  -3.3057  -3.2888  -3.1570  -3.0607  -2.9040
    -2.8658  -2.8088  -2.6768  -2.6008  -2.5943  -2.5063  -2.4339  -2.4106
    -2.3776  -2.2682  -2.2621  -2.2121  -2.1952  -2.1719  -2.1627  -2.1159
    -2.0701  -2.0429  -1.9578  -1.8564  -1.8123  -1.7928  -1.7563  -1.7337
    -1.7284  -1.6854  -1.6794  -1.6550  -1.6166  -1.5923  -1.5465  -1.4348
    -1.3925  -1.2336  -1.1965  -1.0429  -1.0224  -0.9831  -0.9626  -0.9151
    -0.8948  -0.8795  -0.8562  -0.7755  -0.7169  -0.6494  -0.5864  -0.4949
    -0.4845  -0.4114  -0.3856  -0.3201  -0.2309  -0.1883  -0.1787  -0.1540
    -0.1504  -0.0365   0.0080   0.0684   0.0871   0.1444   0.1604   0.1824
     0.2523   0.3061   0.3754   0.4063   0.4852   0.5034   0.5385   0.5476
     0.5800   0.5903   0.6668   0.6815   0.7097   0.8124   0.9100   1.0038
     1.2136   1.2155   1.2526   1.5479   1.5501   1.6432   1.8266   2.2195
     2.2679   3.7014   3.7799   3.8295   3.8469   3.8516   3.9364   4.1911
     4.2051   4.2179   4.2242   4.2649

[...]

          k = 0.0380-0.0419 0.0000 ( 17876 PWs)   bands (ev):

[...]

          k =-0.0760-0.0000 0.0000 ( 17886 PWs)   bands (ev):

[...]

          k =-0.0760-0.0839 0.0000 ( 17948 PWs)   bands (ev):

   -55.3714 -55.3691 -55.3316 -55.3316 -55.3082 -55.3045 -55.2566 -55.2488
   -55.2053 -55.1987 -55.1648 -55.1622 -55.1605 -55.1167 -54.3627 -54.3626
   -31.7980 -31.7596 -31.7455 -31.6565 -31.6565 -31.6415 -31.6295 -31.6227
   -31.6226 -31.6015 -31.5964 -31.5933 -31.5702 -31.5626 -31.5506 -31.5367
   -31.5337 -31.5309 -31.5272 -31.5190 -31.5143 -31.5123 -31.5112 -31.5035
   -31.4717 -31.4702 -31.4515 -31.4514 -31.4507 -31.4455 -31.4431 -31.4383
   -31.4289 -31.4174 -31.4117 -31.3951 -31.3933 -31.3831 -31.3422 -31.3411
   -31.3406 -31.3213 -30.6854 -30.6853 -30.6018 -30.6016 -30.5622 -30.5622
   -18.9250 -18.4553 -15.8427 -15.6558 -15.5045 -15.4328 -15.4125 -15.3291
   -15.2738 -15.2703 -15.1972 -15.1793 -15.1670 -15.1453 -15.1357 -15.0885
   -15.0513 -15.0147 -14.9960 -14.9733 -14.9301 -14.9075 -14.9059 -14.8991
   -14.8913 -14.8511 -14.8460 -14.8426 -14.7509 -14.7489 -14.6973 -14.5537
   -12.8662 -12.8661  -9.8134  -7.0382  -6.3510  -6.0680  -4.4181  -3.6498
    -3.0207  -2.9139  -2.9032  -2.6738  -2.6562  -2.5949  -2.5824  -2.4946
    -2.4789  -2.4184  -2.3948  -2.3444  -2.3218  -2.2837  -2.2700  -2.2482
    -2.2273  -2.2136  -2.1867  -2.1708  -2.1533  -2.1341  -2.1232  -2.1119
    -2.0558  -2.0508  -2.0421  -2.0168  -1.9937  -1.9578  -1.9478  -1.9306
    -1.7759  -1.7599  -1.7384  -1.6033  -1.5989  -1.5622  -1.5248  -1.4971
    -1.4392  -1.4310  -1.4022  -1.3430  -1.1478  -1.1383  -1.1272  -1.1077
    -1.0378  -0.9819  -0.9687  -0.9503  -0.8971  -0.8190  -0.7817  -0.7324
    -0.6359  -0.5918  -0.5814  -0.5562  -0.4351  -0.4120  -0.3698  -0.3520
    -0.3356  -0.3013  -0.2998  -0.2399  -0.1887  -0.1543  -0.1313  -0.1170
    -0.0800   0.0752   0.1269   0.1432   0.2577   0.2867   0.4649   0.5079
     0.5294   0.6345   0.7177   0.7459   0.7602   0.8863   0.9079   0.9101
     0.9785   1.0007   1.0608   1.0666   1.2103   1.9993   2.0006   2.0876
     2.0880   3.8266   3.9493   3.9939   4.0294   4.1052   4.1583   4.2153
     4.2743   4.2859   4.2893   4.3560

     the Fermi energy is     3.7635 ev

!    total energy              =   -2975.10515179 Ry
     estimated scf accuracy    <       0.00000006 Ry
     smearing contrib. (-TS)   =      -0.03671333 Ry
     internal energy E=F+TS    =   -2975.06843846 Ry

     The total energy is F=E-TS. E is the sum of the following terms:
     one-electron contribution =  -23505.44974285 Ry
     hartree contribution      =   11848.70542247 Ry
     xc contribution           =    -494.91667969 Ry
     ewald contribution        =    9176.59060451 Ry
     electric field correction =       0.00195711 Ry

     convergence has been achieved in  76 iterations

     Forces acting on atoms (cartesian axes, Ry/au):

     atom    1 type  1   force =     0.00003198   -0.00025350    0.09311068
     atom    2 type  1   force =    -0.00018306   -0.00033905   -0.17837117
     atom    3 type  2   force =     0.00006047   -0.00016362   -0.02023686
     atom    4 type  2   force =     0.00001397   -0.00203599    0.05924110
     atom    5 type  2   force =    -0.01032406   -0.00109847    0.00809421
     atom    6 type  2   force =     0.01216359   -0.00054462    0.00817221
     atom    7 type  1   force =     0.00014398    0.00328460   -0.01110565
     atom    8 type  1   force =    -0.00030435    0.00052587   -0.00561988
     atom    9 type  2   force =     0.00003903    0.00017786   -0.00014578
     atom   10 type  2   force =    -0.00146477   -0.00003204   -0.00172165
     atom   11 type  2   force =     0.00037433   -0.00003454   -0.00005853
     atom   12 type  2   force =    -0.00010112    0.00010660   -0.00008743
     atom   13 type  1   force =    -0.00010539   -0.00017798   -0.00025155
     atom   14 type  1   force =    -0.00021355   -0.00035344    0.00034419
     atom   15 type  2   force =     0.00007531   -0.00042381    0.00010816
     atom   16 type  2   force =     0.00022248    0.00009710    0.00023209
     atom   17 type  2   force =     0.00045544   -0.00013010    0.00020847
     atom   18 type  2   force =    -0.00012264   -0.00009492   -0.00015792
     atom   19 type  1   force =    -0.00034412   -0.00042333    0.00011815
     atom   20 type  1   force =     0.00015615   -0.00006485    0.00015515
     atom   21 type  2   force =    -0.00000706   -0.00007323    0.10404016
     atom   22 type  2   force =    -0.00014116    0.00005318   -0.00020061
     atom   23 type  2   force =    -0.07036888   -0.00015611   -0.02684131
     atom   24 type  2   force =     0.07023567    0.00029249   -0.02691779
     atom   25 type  1   force =     0.00000822   -0.00015312    0.09277421
     atom   26 type  1   force =    -0.00015452   -0.00039115   -0.17831198
     atom   27 type  2   force =     0.00011093   -0.00031323   -0.01918647
     atom   28 type  2   force =     0.00004320   -0.00163517    0.05839704
     atom   29 type  2   force =    -0.01028163   -0.00063417    0.00729718
     atom   30 type  2   force =     0.01201309   -0.00030072    0.00743300
     atom   31 type  1   force =     0.00007034    0.00515399   -0.01465012
     atom   32 type  1   force =    -0.00014493   -0.00053704   -0.00595876
     atom   33 type  2   force =     0.00012628   -0.00039585   -0.00023079
     atom   34 type  2   force =    -0.00078748    0.00260309   -0.00103698
     atom   35 type  2   force =    -0.00007238   -0.00011634   -0.00011925
     atom   36 type  2   force =     0.00023222   -0.00000046   -0.00014557
     atom   37 type  1   force =    -0.00044333    0.00007987    0.00000804
     atom   38 type  1   force =    -0.00003176   -0.00024293   -0.00023421
     atom   39 type  2   force =    -0.00030855   -0.00019762   -0.00012161
     atom   40 type  2   force =    -0.00013747   -0.00006274   -0.00006156
     atom   41 type  2   force =    -0.00010890   -0.00017340    0.00033563
     atom   42 type  2   force =    -0.00010189   -0.00026779    0.00008616
     atom   43 type  1   force =    -0.00003588   -0.00034679    0.00027915
     atom   44 type  1   force =     0.00001247    0.00012017    0.00014578
     atom   45 type  2   force =     0.00000651   -0.00011238    0.10397802
     atom   46 type  2   force =    -0.07039201   -0.00012393   -0.02686377
     atom   47 type  2   force =     0.07023299    0.00031153   -0.02692174
     atom   48 type  3   force =     0.01675422   -0.00270383    0.00090874
     atom   49 type  3   force =    -0.00431660    0.00033986    0.00077974
     atom   50 type  4   force =    -0.00434653   -0.00279888   -0.00155933
     atom   51 type  5   force =    -0.00026573    0.00039011   -0.00016796
     atom   52 type  5   force =    -0.00629689    0.00472273    0.00180536
     atom   53 type  5   force =    -0.00114021   -0.00005481   -0.00053446
     atom   54 type  5   force =    -0.00041529    0.00040385   -0.00043037
     atom   55 type  2   force =     0.00019374   -0.00011182    0.00046992
     atom   56 type  5   force =     0.00017955   -0.00038717   -0.00038634
     atom   57 type  5   force =    -0.00049404   -0.00020195    0.00011483

     Total force =     0.366750     Total SCF correction =     0.000700
  @ DRIVER MODE: Message from server: STATUS
  @ DRIVER MODE: Message from server: GETFORCE
  @ DRIVER MODE: Returning v,forces,stress,ensemble

     Writing output data file ./calc.save/
  @ DRIVER MODE: Message from server: EXIT
  @ DRIVE MODE: Exiting

     General routines

     Parallel routines

   This run was terminated on:  22:41:37  21Sep2021

   JOB DONE.