     Program PWSCF v.6.7GPU starts on 15Sep2021 at 19: 3:20

     R & G space division:  proc/nbgrp/npool/nimage =      10
     Reading input from /storage/home/hcoda1/3/ntian30/research/carbon/CxH_vib/H2O_calc/ads_slab/CH2OH2O_a/out_0010/pw.inp
Warning: card &CELL ignored
Warning: card   CELL_DYNAMICS='IPI', ignored
Warning: card / ignored

     Current dimensions of program PWSCF are:
     Max number of different atomic species (ntypx) = 10
     Max number of k-points (npk) =  40000
     Max angular momentum in pseudopotentials (lmaxx) =  3
     Presently no symmetry can be used with electric field

     Message from routine cell_base_init:
     DEPRECATED: use true lattice parameter, not A to a.u. conversion factor

     IMPORTANT: XC functional enforced from input :
     Exchange-correlation= BEEF-VDW
                           (   1   4  43  14   2   0   0)
     Any further DFT definition will be discarded
     Please, verify this is what you really want

  @ DRIVER MODE: Connecting to
 qe_1139763_2852613.sched-torque.pace.gatech.edu6r84_l09_scratch
  using UNIX socket
  @ DRIVER MODE: Message from server: STATUS
  @ DRIVER MODE: Message from server: INIT
  @ DRIVER MODE: Receiving replica           0          -1
  @ DRIVER MODE: Receiving encoded integer          25
  @ DRIVER MODE:  SCF:  T  FORCE:  T  STRESS:  F  VC:  F  ENSEMBLE:  F
  @ DRIVER MODE:  SCF:  T  FORCE:  T  STRESS:  F  VC:  F  ENSEMBLE:  F

     Using Slab Decomposition

     bravais-lattice index     =            0
     lattice parameter (alat)  =       1.8897  a.u.
     unit-cell volume          =    6658.9804 (a.u.)^3
     number of atoms/cell      =           54
     number of atomic types    =            4
     number of electrons       =       398.00
     number of Kohn-Sham states=          209
     kinetic-energy cutoff     =      29.3995  Ry
     charge density cutoff     =     293.9946  Ry
     scf convergence threshold =      7.3E-08
     mixing beta               =       0.0500
     number of iterations used =            8  plain     mixing
     Exchange-correlation= BEEF-VDW
                           (   1   4  43  14   2   0   0)

     celldm(1)=   1.889726  celldm(2)=   0.000000  celldm(3)=   0.000000
     celldm(4)=   0.000000  celldm(5)=   0.000000  celldm(6)=   0.000000

     crystal axes: (cart. coord. in units of alat)
               a(1) = (   6.579727   0.000000   0.000000 )
               a(2) = (  -0.000775   5.961596   0.000000 )
               a(3) = (   0.000000   0.000000  25.155947 )

     reciprocal axes: (cart. coord. in units 2 pi/alat)
               b(1) = (  0.151982  0.000020  0.000000 )
               b(2) = (  0.000000  0.167740  0.000000 )
               b(3) = (  0.000000  0.000000  0.039752 )

     PseudoPot. # 1 for O  read from file:
     /storage/coda1/p-amedford6/0/shared/rich_project_chbe-medford/medford-share/data/pseudos_module/espresso/nninc/pbe/van/O.UPF
     MD5 check sum: 78c19812648e8988a0fe644b0f25305e
     Pseudo is Ultrasoft, Zval =  6.0
     Generated by new atomic code, or converted to UPF format
     Using radial grid of  737 points,  4 beta functions with:
                l(1) =   0
                l(2) =   0
                l(3) =   1
                l(4) =   1
     Q(r) pseudized with  8 coefficients,  rinner =    0.800   0.800   0.800

     PseudoPot. # 2 for Ti read from file:
     /storage/coda1/p-amedford6/0/shared/rich_project_chbe-medford/medford-share/data/pseudos_module/espresso/nninc/pbe/van/Ti.UPF
     MD5 check sum: 8e4df49b7f0d34bbd5052bf3f5ea0213
     Pseudo is Ultrasoft, Zval = 12.0
     Generated by new atomic code, or converted to UPF format
     Using radial grid of  851 points,  6 beta functions with:
                l(1) =   0
                l(2) =   0
                l(3) =   1
                l(4) =   1
                l(5) =   2
                l(6) =   2
     Q(r) pseudized with  8 coefficients,  rinner =    1.000   1.000   1.000
                                                       1.000   1.000

     PseudoPot. # 3 for C  read from file:
     /storage/coda1/p-amedford6/0/shared/rich_project_chbe-medford/medford-share/data/pseudos_module/espresso/nninc/pbe/van/C.UPF
     MD5 check sum: 1a69bf6b8db32088f5b2163dbdb77a27
     Pseudo is Ultrasoft, Zval =  4.0
     Generated by new atomic code, or converted to UPF format
     Using radial grid of  721 points,  4 beta functions with:
                l(1) =   0
                l(2) =   0
                l(3) =   1
                l(4) =   1
     Q(r) pseudized with  8 coefficients,  rinner =    0.800   0.800   0.800

     PseudoPot. # 4 for H  read from file:
     /storage/coda1/p-amedford6/0/shared/rich_project_chbe-medford/medford-share/data/pseudos_module/espresso/nninc/pbe/van/H.UPF
     MD5 check sum: b5ee9d7bfd3a09ee7748110bda690ff7
     Pseudo is Ultrasoft, Zval =  1.0
     Generated by new atomic code, or converted to UPF format
     Using radial grid of  615 points,  1 beta functions with:
                l(1) =   0
     Q(r) pseudized with  8 coefficients,  rinner =    0.800

     atomic species   valence    mass     pseudopotential
        O1             6.00    15.99900     O ( 1.00)
        Ti1           12.00    47.86700     Ti( 1.00)
        C1             4.00    12.01100     C ( 1.00)
        H1             1.00     1.00800     H ( 1.00)

     No symmetry found

   Cartesian axes

     site n.     atom                  positions (alat units)
         1           O1  tau(   1) = (   3.2904802   0.0005063   4.7018136  )
         2           O1  tau(   2) = (   3.2900926   2.9813045   4.7018136  )
         3           Ti1 tau(   3) = (   0.0004258   2.9801865   6.0000000  )
         4           Ti1 tau(   4) = (   0.0000382   5.9609847   6.0000000  )
         5           Ti1 tau(   5) = (   3.2906075   1.4906267   6.0002472  )
         6           Ti1 tau(   6) = (   3.2902200   4.4714249   6.0002472  )
         7           O1  tau(   7) = (   1.3043587   1.4918075   6.0039043  )
         8           O1  tau(   8) = (   1.3039711   4.4726057   6.0039043  )
         9           O1  tau(   9) = (   5.2767064   1.4903225   6.0039473  )
        10           O1  tau(  10) = (   5.2763189   4.4711207   6.0039473  )
        11           O1  tau(  11) = (   3.2906025   0.0005020   7.3038282  )
        12           O1  tau(  12) = (   3.2902150   2.9813002   7.3038282  )
        13           O1  tau(  13) = (   0.0006271   0.0005054   7.9858123  )
        14           O1  tau(  14) = (   0.0002396   2.9813036   7.9858123  )
        15           Ti1 tau(  15) = (   3.3036605   0.0548493   9.1550340  )
        16           Ti1 tau(  16) = (   3.3179312   3.0323762   9.1622521  )
        17           Ti1 tau(  17) = (   0.0293130   4.5303424   9.2586280  )
        18           Ti1 tau(  18) = (   0.0255512   1.6071936   9.3606264  )
        19           O1  tau(  19) = (   4.5942328   1.4918067   9.2879030  )
        20           O1  tau(  20) = (   4.5938453   4.4726049   9.2879030  )
        21           O1  tau(  21) = (   1.9868534   1.4903216   9.2879459  )
        22           O1  tau(  22) = (   1.9864658   4.4711199   9.2879459  )
        23           O1  tau(  23) = (   0.0067149   0.0090568  10.6008527  )
        24           O1  tau(  24) = (   0.0066098   2.9904127  10.5810825  )
        25           O1  tau(  25) = (   3.3023248   2.9935247  11.3558429  )
        26           O1  tau(  26) = (   3.3019398   0.0103095  11.3581380  )
        27           Ti1 tau(  27) = (   0.0322082   0.0188897  12.5014682  )
        28           Ti1 tau(  28) = (   3.3323403   4.4947089  12.5096490  )
        29           Ti1 tau(  29) = (   3.3327227   1.5059056  12.5040540  )
        30           Ti1 tau(  30) = (   0.0321551   3.0004163  12.7750784  )
        31           O1  tau(  31) = (   1.2963378   4.4834263  12.6382484  )
        32           O1  tau(  32) = (   1.2968596   1.4996660  12.6342602  )
        33           O1  tau(  33) = (   5.3004736   4.4821179  12.6410582  )
        34           O1  tau(  34) = (   5.3007909   1.4998706  12.6367838  )
        35           O1  tau(  35) = (   3.3017874   2.9879694  13.9086975  )
        36           O1  tau(  36) = (   3.3040514   0.0100701  13.9766235  )
        37           O1  tau(  37) = (   0.0177811   0.0165449  14.6846256  )
        38           O1  tau(  38) = (   0.0218693   2.9952767  14.7100221  )
        39           Ti1 tau(  39) = (   3.3083447   2.9915206  15.7010863  )
        40           Ti1 tau(  40) = (   3.3165693   0.0114089  15.8055842  )
        41           Ti1 tau(  41) = (   0.0300915   4.5703342  15.9344200  )
        42           Ti1 tau(  42) = (   0.0294271   1.3911826  15.9958598  )
        43           O1  tau(  43) = (   4.5666857   4.4545776  16.0545193  )
        44           O1  tau(  44) = (   4.5654216   1.5273373  16.0688375  )
        45           O1  tau(  45) = (   2.0398213   1.5345912  16.0698912  )
        46           O1  tau(  46) = (   2.0372649   4.4468515  16.0554978  )
        47           O1  tau(  47) = (   0.0160947   0.0056016  17.2166677  )
        48           O1  tau(  48) = (   6.5639191   3.0028441  17.4181802  )
        49           C1  tau(  49) = (   6.3909186   3.0804891  18.6902598  )
        50           H1  tau(  50) = (   6.3116585   4.0479728  19.1570877  )
        51           H1  tau(  51) = (   6.3127454   2.1532251  19.2664540  )
        52           O1  tau(  52) = (   3.2659488   5.9319982  18.2141537  )
        53           H1  tau(  53) = (   4.0486762   5.9278262  18.7801078  )
        54           H1  tau(  54) = (   2.4667005   5.9275743  18.7583984  )

     number of k points=    10  Fermi-Dirac smearing, width (Ry)=  0.0073
                       cart. coord. in units 2pi/alat
        k(    1) = (   0.0000000   0.0000000   0.0000000), wk =   0.1250000
        k(    2) = (   0.0000000   0.0419351   0.0000000), wk =   0.2500000
        k(    3) = (   0.0000000  -0.0838702   0.0000000), wk =   0.1250000
        k(    4) = (   0.0379955   0.0000049   0.0000000), wk =   0.2500000
        k(    5) = (   0.0379955   0.0419400   0.0000000), wk =   0.2500000
        k(    6) = (   0.0379955  -0.0838652   0.0000000), wk =   0.2500000
        k(    7) = (   0.0379955  -0.0419301   0.0000000), wk =   0.2500000
        k(    8) = (  -0.0759910  -0.0000099   0.0000000), wk =   0.1250000
        k(    9) = (  -0.0759910   0.0419252   0.0000000), wk =   0.2500000
        k(   10) = (  -0.0759910  -0.0838800   0.0000000), wk =   0.1250000

     Initial potential from superposition of free atoms

     starting charge  381.99917, renormalised to  398.00000

     negative rho (up, down):  1.686E-02 0.000E+00

     %%%%%%%%%%%%%%%%%%%%%%%%%%%%%%%%%%%%%%%%%%%%%%%%%%%%%%%%%%%%%%%%%%%%%%%%
     %                                                                      %
     % You are using vdW-DF, which was implemented by the Thonhauser group. %
     % Please cite the following two papers that made this development      %
     % possible and the two reviews that describe the various versions:     %
     %                                                                      %
     %   T. Thonhauser et al., PRL 115, 136402 (2015).                      %
     %   T. Thonhauser et al., PRB 76, 125112 (2007).                       %
     %   K. Berland et al., Rep. Prog. Phys. 78, 066501 (2015).             %
     %   D.C. Langreth et al., J. Phys.: Condens. Matter 21, 084203 (2009). %
     %                                                                      %
     %                                                                      %
     % If you are calculating the stress with vdW-DF, please also cite:     %
     %                                                                      %
     %   R. Sabatini et al., J. Phys.: Condens. Matter 24, 424209 (2012).   %
     %                                                                      %
     %%%%%%%%%%%%%%%%%%%%%%%%%%%%%%%%%%%%%%%%%%%%%%%%%%%%%%%%%%%%%%%%%%%%%%%%

     Adding external electric field

     Computed dipole along edir(3) :
        Dipole               -9.6373 Ry au,        -24.4955 Debye
        Dipole field         -0.0182 Ry au,

        Potential amp.        1.6859 Ry
        Total length         46.3494 bohr

     Starting wfcs are  300 atomic wfcs
  @ DRIVER MODE: Message from server: STATUS
  @ DRIVER MODE: Message from server: POSDATA
  @ DRIVER MODE: Reading and sharing cell
  @ DRIVER MODE: Reading and sharing positions
  @ DRIVER MODE: Received positions

     Self-consistent Calculation

     iteration #  1     ecut=    29.40 Ry     beta= 0.05
     Davidson diagonalization with overlap
     c_bands:  1 eigenvalues not converged
     c_bands:  3 eigenvalues not converged
     c_bands:  2 eigenvalues not converged
     c_bands:  2 eigenvalues not converged
     c_bands:  2 eigenvalues not converged
     c_bands:  1 eigenvalues not converged
     c_bands:  2 eigenvalues not converged
     c_bands:  1 eigenvalues not converged
     c_bands:  2 eigenvalues not converged
     ethr =  1.00E-05,  avg # of iterations = 19.6

[...]

     total energy              =   -2526.83491091 Ry
     estimated scf accuracy    <    4873.67917202 Ry

     iteration #  2     ecut=    29.40 Ry     beta= 0.05
     Davidson diagonalization with overlap
     ethr =  1.00E-02,  avg # of iterations = 26.8

[...]

     iteration # 79     ecut=    29.40 Ry     beta= 0.05
     Davidson diagonalization with overlap
     ethr =  7.91E-11,  avg # of iterations =  1.9

[...]

     total energy              =   -2964.99513206 Ry
     estimated scf accuracy    <       0.00000043 Ry

     iteration # 80     ecut=    29.40 Ry     beta= 0.05
     Davidson diagonalization with overlap
     c_bands:  1 eigenvalues not converged
     ethr =  7.91E-11,  avg # of iterations = 10.8

     negative rho (up, down):  1.528E-02 0.000E+00

     Adding external electric field

     Computed dipole along edir(3) :
        Dipole                1.2205 Ry au,          3.1023 Debye
        Dipole field          0.0023 Ry au,

        Potential amp.       -0.2135 Ry
        Total length         46.3494 bohr

     End of self-consistent calculation

          k = 0.0000 0.0000 0.0000 ( 18029 PWs)   bands (ev):

   -55.5400 -55.5032 -55.5030 -55.4669 -55.4631 -55.4188 -55.3825 -55.3154
   -55.3026 -55.2795 -55.2692 -55.2597 -55.2180 -55.2103 -54.5514 -54.5173
   -32.0588 -32.0103 -31.8965 -31.8533 -31.8517 -31.8342 -31.8138 -31.8053
   -31.7817 -31.7699 -31.7362 -31.7266 -31.6988 -31.6861 -31.6843 -31.6497
   -31.6465 -31.6408 -31.6358 -31.6323 -31.6035 -31.5980 -31.5907 -31.5863
   -31.5587 -31.5548 -31.5512 -31.5307 -31.5236 -31.5220 -31.4764 -31.4751
   -31.4487 -31.4474 -31.4337 -31.4286 -31.4226 -31.4085 -31.3970 -31.3950
   -31.3924 -31.3756 -30.9609 -30.8647 -30.8423 -30.7774 -30.6913 -30.5803
   -19.3549 -19.1355 -16.2551 -15.9924 -15.8204 -15.7096 -15.6627 -15.4606
   -15.3675 -15.2866 -15.2229 -15.1457 -15.1290 -15.0913 -15.0654 -15.0597
   -15.0542 -15.0055 -14.9968 -14.9573 -14.9455 -14.9442 -14.9255 -14.9067
   -14.8249 -14.7220 -14.6789 -14.6609 -14.6018 -14.5456 -14.5317 -13.0520
   -12.9340  -9.0173  -7.1495  -5.2357  -5.1602  -3.7751  -3.5762  -3.4589
    -3.4243  -3.3881  -3.3198  -3.1367  -3.1269  -3.0372  -2.7999  -2.7095
    -2.6763  -2.6185  -2.6083  -2.5086  -2.4680  -2.3614  -2.3526  -2.3483
    -2.3323  -2.3062  -2.2732  -2.2310  -2.2068  -2.1951  -2.0672  -2.0552
    -1.9277  -1.9220  -1.8985  -1.8438  -1.8388  -1.7968  -1.7833  -1.7798
    -1.7675  -1.7192  -1.7075  -1.5943  -1.5203  -1.4574  -1.3705  -1.2323
    -1.1705  -1.0976  -1.0438  -1.0095  -0.9471  -0.9441  -0.8897  -0.8490
    -0.7907  -0.7782  -0.7718  -0.6753  -0.5763  -0.5546  -0.5242  -0.4462
    -0.3676  -0.2814  -0.2622  -0.2599  -0.2586  -0.2375  -0.0994  -0.0166
     0.0410   0.0459   0.1419   0.1751   0.2101   0.2248   0.2566   0.2774
     0.3334   0.4083   0.4200   0.4332   0.4587   0.5045   0.5100   0.6226
     0.6990   0.7005   0.7366   0.7693   0.9450   0.9797   1.1065   1.2140
     1.3800   1.4730   1.5451   1.6461   2.0592   2.1168   3.6332   3.6750
     3.6900   3.7326   3.7820   3.8086   3.8763   4.0755   4.0919   4.1410
     4.1847

[...]

          k = 0.0380-0.0419 0.0000 ( 17876 PWs)   bands (ev):

[...]

          k =-0.0760-0.0000 0.0000 ( 17886 PWs)   bands (ev):

[...]

          k =-0.0760-0.0839 0.0000 ( 17948 PWs)   bands (ev):

   -55.5286 -55.5145 -55.4863 -55.4835 -55.4615 -55.4085 -55.3927 -55.3119
   -55.2874 -55.2849 -55.2740 -55.2612 -55.2233 -55.2131 -54.5348 -54.5337
   -31.8694 -31.8546 -31.8344 -31.8217 -31.8189 -31.7995 -31.7744 -31.7563
   -31.7439 -31.7389 -31.7383 -31.7309 -31.6974 -31.6631 -31.6571 -31.6533
   -31.6441 -31.6417 -31.6382 -31.6360 -31.6298 -31.6109 -31.6100 -31.6089
   -31.6041 -31.5896 -31.5684 -31.5532 -31.5402 -31.5387 -31.5319 -31.5147
   -31.4972 -31.4928 -31.4855 -31.4843 -31.4656 -31.4477 -31.4428 -31.4373
   -31.4069 -31.3998 -30.8557 -30.8543 -30.7743 -30.7734 -30.7349 -30.7339
   -19.3460 -19.1352 -15.7065 -15.5975 -15.5629 -15.4162 -15.4120 -15.3608
   -15.3525 -15.3166 -15.2369 -15.2333 -15.1835 -15.1640 -15.1296 -15.1059
   -15.0942 -15.0489 -15.0466 -15.0276 -15.0038 -14.9854 -14.9689 -14.9414
   -14.9172 -14.9098 -14.8722 -14.8639 -14.7994 -14.7444 -14.7237 -13.0363
   -13.0342  -9.0181  -7.1469  -5.2167  -5.1328  -3.7312  -3.1521  -2.9905
    -2.8031  -2.7876  -2.6554  -2.6205  -2.6026  -2.5121  -2.4786  -2.4451
    -2.3820  -2.3712  -2.3647  -2.3430  -2.3376  -2.3243  -2.3030  -2.2659
    -2.2561  -2.2241  -2.1947  -2.1809  -2.1603  -2.1504  -2.1221  -2.1025
    -2.0897  -2.0863  -2.0241  -1.9958  -1.9102  -1.8450  -1.7638  -1.7114
    -1.6801  -1.6777  -1.6418  -1.6031  -1.5955  -1.5802  -1.4344  -1.3844
    -1.2622  -1.2487  -1.2297  -1.1532  -1.1381  -1.1032  -1.0975  -1.0310
    -0.9449  -0.9406  -0.9179  -0.8880  -0.8021  -0.7339  -0.6930  -0.6572
    -0.6132  -0.5831  -0.5094  -0.4960  -0.4851  -0.4226  -0.3820  -0.2972
    -0.2835  -0.2644  -0.2133  -0.1841  -0.1490  -0.0805  -0.0625  -0.0395
     0.0414   0.1085   0.1134   0.3235   0.4858   0.5150   0.5316   0.6162
     0.6632   0.7719   0.7952   0.8047   0.8467   0.8920   0.9794   1.0054
     1.0072   1.0847   1.8334   1.8341   1.9216   1.9321   3.5651   3.8787
     3.9432   3.9668   3.9914   4.1068   4.1093   4.1286   4.1371   4.2794
     4.2926

     the Fermi energy is     3.6115 ev

!    total energy              =   -2964.99514308 Ry
     estimated scf accuracy    <       0.00000006 Ry
     smearing contrib. (-TS)   =      -0.03110083 Ry
     internal energy E=F+TS    =   -2964.96404224 Ry

     The total energy is F=E-TS. E is the sum of the following terms:
     one-electron contribution =  -24342.44686709 Ry
     hartree contribution      =   12264.27592170 Ry
     xc contribution           =    -490.10225071 Ry
     ewald contribution        =    9603.30634257 Ry
     electric field correction =       0.00281128 Ry

     convergence has been achieved in  80 iterations

     Forces acting on atoms (cartesian axes, Ry/au):

     atom    1 type  1   force =    -0.00009726    0.00006704    0.10410097
     atom    2 type  1   force =    -0.00008842    0.00006271    0.10410609
     atom    3 type  2   force =    -0.00030297   -0.00188937    0.10330813
     atom    4 type  2   force =    -0.00015865    0.00151657    0.11463387
     atom    5 type  2   force =    -0.00037617    0.00124661   -0.17933989
     atom    6 type  2   force =    -0.00016783   -0.00076204   -0.17971801
     atom    7 type  1   force =    -0.06941651    0.00065323   -0.02929984
     atom    8 type  1   force =    -0.06896606   -0.00122618   -0.02934726
     atom    9 type  1   force =     0.06905781    0.00114719   -0.02936291
     atom   10 type  1   force =     0.06869375   -0.00080854   -0.02941882
     atom   11 type  1   force =     0.00041979    0.00056853    0.04681049
     atom   12 type  1   force =     0.00063145    0.00080648    0.04851501
     atom   13 type  1   force =     0.00026754   -0.00568875   -0.03325593
     atom   14 type  1   force =     0.00033236    0.00339463   -0.02638673
     atom   15 type  2   force =    -0.00010229   -0.00002148    0.00038827
     atom   16 type  2   force =     0.00001498    0.00003348    0.00050462
     atom   17 type  2   force =    -0.00002419    0.00011726    0.00041956
     atom   18 type  2   force =    -0.00006000   -0.00032594    0.00008205
     atom   19 type  1   force =    -0.01806458   -0.00015662    0.00403223
     atom   20 type  1   force =    -0.01684489    0.00147839    0.00328446
     atom   21 type  1   force =     0.01933369   -0.00136750    0.00448029
     atom   22 type  1   force =     0.01790532    0.00116395    0.00355776
     atom   23 type  1   force =     0.00001844    0.00003143   -0.00013499
     atom   24 type  1   force =    -0.00005367   -0.00000774   -0.00007536
     atom   25 type  1   force =    -0.00005041    0.00000574   -0.00059163
     atom   26 type  1   force =    -0.00023111    0.00014352   -0.00067584
     atom   27 type  2   force =     0.00004150    0.00015078   -0.00042342
     atom   28 type  2   force =     0.00023587    0.00003037   -0.00007308
     atom   29 type  2   force =     0.00022368    0.00000969   -0.00019206
     atom   30 type  2   force =    -0.00009022    0.00020439    0.00021698
     atom   31 type  1   force =    -0.00063238   -0.00024145    0.00053313
     atom   32 type  1   force =    -0.00054024    0.00032340    0.00056189
     atom   33 type  1   force =     0.00038372   -0.00014219    0.00034918
     atom   34 type  1   force =     0.00030278    0.00019264    0.00037811
     atom   35 type  1   force =    -0.00014769    0.00001255    0.00019417
     atom   36 type  1   force =    -0.00008887    0.00000232   -0.00022546
     atom   37 type  1   force =    -0.00036699    0.00009864   -0.00022423
     atom   38 type  1   force =    -0.00051398    0.00027009   -0.00007574
     atom   39 type  2   force =    -0.00015865   -0.00015104    0.00136405
     atom   40 type  2   force =     0.00009243    0.00026291   -0.00129518
     atom   41 type  2   force =    -0.00029299   -0.00097447   -0.00075700
     atom   42 type  2   force =    -0.00030990    0.00102742   -0.00019870
     atom   43 type  1   force =    -0.00000024    0.00023527    0.00028753
     atom   44 type  1   force =    -0.00012055   -0.00008945    0.00005920
     atom   45 type  1   force =    -0.00037894   -0.00025109   -0.00004406
     atom   46 type  1   force =    -0.00047438    0.00043299    0.00011762
     atom   47 type  1   force =    -0.00004887   -0.00026664    0.00021121
     atom   48 type  1   force =    -0.00033775    0.00349300    0.00138555
     atom   49 type  3   force =     0.00045062   -0.02445844   -0.00015757
     atom   50 type  4   force =    -0.00016289    0.00969931    0.00384060
     atom   51 type  4   force =     0.00089542    0.00927941   -0.00442414
     atom   52 type  1   force =     0.00048810    0.00064370   -0.00061970
     atom   53 type  4   force =     0.00034696    0.00002472    0.00023515
     atom   54 type  4   force =    -0.00046564   -0.00000141   -0.00164059

     Total force =     0.375605     Total SCF correction =     0.000766
  @ DRIVER MODE: Message from server: STATUS
  @ DRIVER MODE: Message from server: GETFORCE
  @ DRIVER MODE: Returning v,forces,stress,ensemble

     Writing output data file ./calc.save/
  @ DRIVER MODE: Message from server: EXIT
  @ DRIVE MODE: Exiting

     General routines

     Parallel routines

   This run was terminated on:  19:25: 0  15Sep2021

   JOB DONE.