     Program PWSCF v.6.7GPU starts on 22Sep2021 at 13:24:43

     R & G space division:  proc/nbgrp/npool/nimage =      10
     Reading input from /storage/home/hcoda1/3/ntian30/research/carbon/CxH_vib/CH_calc/ads_slab/CHNHNH2H2O_b/out_0043/pw.inp
Warning: card &CELL ignored
Warning: card   CELL_DYNAMICS='IPI', ignored
Warning: card / ignored

     Current dimensions of program PWSCF are:
     Max number of different atomic species (ntypx) = 10
     Max number of k-points (npk) =  40000
     Max angular momentum in pseudopotentials (lmaxx) =  3
     Presently no symmetry can be used with electric field

     Message from routine cell_base_init:
     DEPRECATED: use true lattice parameter, not A to a.u. conversion factor

     IMPORTANT: XC functional enforced from input :
     Exchange-correlation= BEEF-VDW
                           (   1   4  43  14   2   0   0)
     Any further DFT definition will be discarded
     Please, verify this is what you really want

  @ DRIVER MODE: Connecting to
 qe_1139763_2927425.sched-torque.pace.gatech.eduxg89ofvs_scratch
  using UNIX socket
  @ DRIVER MODE: Message from server: STATUS
  @ DRIVER MODE: Message from server: INIT
  @ DRIVER MODE: Receiving replica           0          -1
  @ DRIVER MODE: Receiving encoded integer          25
  @ DRIVER MODE:  SCF:  T  FORCE:  T  STRESS:  F  VC:  F  ENSEMBLE:  F
  @ DRIVER MODE:  SCF:  T  FORCE:  T  STRESS:  F  VC:  F  ENSEMBLE:  F

     Using Slab Decomposition

     bravais-lattice index     =            0
     lattice parameter (alat)  =       1.8897  a.u.
     unit-cell volume          =    6658.9804 (a.u.)^3
     number of atoms/cell      =           57
     number of atomic types    =            5
     number of electrons       =       404.00
     number of Kohn-Sham states=          212
     kinetic-energy cutoff     =      29.3995  Ry
     charge density cutoff     =     293.9946  Ry
     scf convergence threshold =      7.3E-08
     mixing beta               =       0.0500
     number of iterations used =            8  plain     mixing
     Exchange-correlation= BEEF-VDW
                           (   1   4  43  14   2   0   0)

     celldm(1)=   1.889726  celldm(2)=   0.000000  celldm(3)=   0.000000
     celldm(4)=   0.000000  celldm(5)=   0.000000  celldm(6)=   0.000000

     crystal axes: (cart. coord. in units of alat)
               a(1) = (   6.579727   0.000000   0.000000 )
               a(2) = (  -0.000775   5.961596   0.000000 )
               a(3) = (   0.000000   0.000000  25.155947 )

     reciprocal axes: (cart. coord. in units 2 pi/alat)
               b(1) = (  0.151982  0.000020  0.000000 )
               b(2) = (  0.000000  0.167740  0.000000 )
               b(3) = (  0.000000  0.000000  0.039752 )

     PseudoPot. # 1 for Ti read from file:
     /storage/coda1/p-amedford6/0/shared/rich_project_chbe-medford/medford-share/data/pseudos_module/espresso/nninc/pbe/van/Ti.UPF
     MD5 check sum: 8e4df49b7f0d34bbd5052bf3f5ea0213
     Pseudo is Ultrasoft, Zval = 12.0
     Generated by new atomic code, or converted to UPF format
     Using radial grid of  851 points,  6 beta functions with:
                l(1) =   0
                l(2) =   0
                l(3) =   1
                l(4) =   1
                l(5) =   2
                l(6) =   2
     Q(r) pseudized with  8 coefficients,  rinner =    1.000   1.000   1.000
                                                       1.000   1.000

     PseudoPot. # 2 for O  read from file:
     /storage/coda1/p-amedford6/0/shared/rich_project_chbe-medford/medford-share/data/pseudos_module/espresso/nninc/pbe/van/O.UPF
     MD5 check sum: 78c19812648e8988a0fe644b0f25305e
     Pseudo is Ultrasoft, Zval =  6.0
     Generated by new atomic code, or converted to UPF format
     Using radial grid of  737 points,  4 beta functions with:
                l(1) =   0
                l(2) =   0
                l(3) =   1
                l(4) =   1
     Q(r) pseudized with  8 coefficients,  rinner =    0.800   0.800   0.800

     PseudoPot. # 3 for N  read from file:
     /storage/coda1/p-amedford6/0/shared/rich_project_chbe-medford/medford-share/data/pseudos_module/espresso/nninc/pbe/van/N.UPF
     MD5 check sum: 90d10febe142ad51ac9d5be1deb811c4
     Pseudo is Ultrasoft, Zval =  5.0
     Generated by new atomic code, or converted to UPF format
     Using radial grid of  729 points,  4 beta functions with:
                l(1) =   0
                l(2) =   0
                l(3) =   1
                l(4) =   1
     Q(r) pseudized with  8 coefficients,  rinner =    0.800   0.800   0.800

     PseudoPot. # 4 for C  read from file:
     /storage/coda1/p-amedford6/0/shared/rich_project_chbe-medford/medford-share/data/pseudos_module/espresso/nninc/pbe/van/C.UPF
     MD5 check sum: 1a69bf6b8db32088f5b2163dbdb77a27
     Pseudo is Ultrasoft, Zval =  4.0
     Generated by new atomic code, or converted to UPF format
     Using radial grid of  721 points,  4 beta functions with:
                l(1) =   0
                l(2) =   0
                l(3) =   1
                l(4) =   1
     Q(r) pseudized with  8 coefficients,  rinner =    0.800   0.800   0.800

     PseudoPot. # 5 for H  read from file:
     /storage/coda1/p-amedford6/0/shared/rich_project_chbe-medford/medford-share/data/pseudos_module/espresso/nninc/pbe/van/H.UPF
     MD5 check sum: b5ee9d7bfd3a09ee7748110bda690ff7
     Pseudo is Ultrasoft, Zval =  1.0
     Generated by new atomic code, or converted to UPF format
     Using radial grid of  615 points,  1 beta functions with:
                l(1) =   0
     Q(r) pseudized with  8 coefficients,  rinner =    0.800

     atomic species   valence    mass     pseudopotential
        Ti1           12.00    47.86700     Ti( 1.00)
        O1             6.00    15.99900     O ( 1.00)
        N1             5.00    14.00700     N ( 1.00)
        C1             4.00    12.01100     C ( 1.00)
        H1             1.00     1.00800     H ( 1.00)

     No symmetry found

   Cartesian axes

     site n.     atom                  positions (alat units)
         1           Ti1 tau(   1) = (   0.0004258   2.9801865   6.0000000  )
         2           Ti1 tau(   2) = (   3.2906075   1.4906267   6.0002472  )
         3           O1  tau(   3) = (   0.0006271   0.0005054   7.9858123  )
         4           O1  tau(   4) = (   3.2906025   0.0005020   7.3038282  )
         5           O1  tau(   5) = (   4.5942328   1.4918067   9.2879030  )
         6           O1  tau(   6) = (   1.9868534   1.4903216   9.2879459  )
         7           Ti1 tau(   7) = (   3.2907910   2.8959150   9.1758416  )
         8           Ti1 tau(   8) = (   0.0015273   1.4827037   9.2680791  )
         9           O1  tau(   9) = (   3.3066417   5.9496923  11.3845403  )
        10           O1  tau(  10) = (   0.0116148   5.9584955  10.6183126  )
        11           O1  tau(  11) = (   1.3010148   1.4986442  12.6442229  )
        12           O1  tau(  12) = (   5.3085967   1.5001388  12.6592367  )
        13           Ti1 tau(  13) = (   0.0282779   2.9853959  12.5065338  )
        14           Ti1 tau(  14) = (   3.3279724   1.4707331  12.5413945  )
        15           O1  tau(  15) = (   0.0378505   0.0859181  14.6860672  )
        16           O1  tau(  16) = (   3.3018867   0.0259462  14.0338077  )
        17           O1  tau(  17) = (   4.5998927   1.5484098  16.1661054  )
        18           O1  tau(  18) = (   2.0454451   1.5021798  16.2221046  )
        19           Ti1 tau(  19) = (   3.3206312   2.9825829  15.7321521  )
        20           Ti1 tau(  20) = (   0.0140791   1.4435866  15.9983415  )
        21           O1  tau(  21) = (   3.2904802   0.0005063   4.7018136  )
        22           O1  tau(  22) = (   6.5273045   5.8164216  17.2577718  )
        23           O1  tau(  23) = (   1.3043587   1.4918075   6.0039043  )
        24           O1  tau(  24) = (   5.2767064   1.4903225   6.0039473  )
        25           Ti1 tau(  25) = (   0.0000382   5.9609847   6.0000000  )
        26           Ti1 tau(  26) = (   3.2902200   4.4714249   6.0002472  )
        27           O1  tau(  27) = (   0.0002396   2.9813036   7.9858123  )
        28           O1  tau(  28) = (   3.2902150   2.9813002   7.3038282  )
        29           O1  tau(  29) = (   4.5938453   4.4726049   9.2879030  )
        30           O1  tau(  30) = (   1.9864658   4.4711199   9.2879459  )
        31           Ti1 tau(  31) = (   3.2891106   5.8743827   9.1763621  )
        32           Ti1 tau(  32) = (   0.0006254   4.4649316   9.2693709  )
        33           O1  tau(  33) = (   3.3068470   2.9864458  11.3814114  )
        34           O1  tau(  34) = (   0.0092240   2.9805883  10.6323155  )
        35           O1  tau(  35) = (   1.2982948   4.4740332  12.6840172  )
        36           O1  tau(  36) = (   5.3097620   4.4704985  12.6972095  )
        37           Ti1 tau(  37) = (   0.0348817   0.0130325  12.4954113  )
        38           Ti1 tau(  38) = (   3.3270268   4.4633798  12.5435021  )
        39           O1  tau(  39) = (   0.0563025   2.9439880  14.9425960  )
        40           O1  tau(  40) = (   3.2900316   2.9661073  13.9503945  )
        41           O1  tau(  41) = (   4.5967999   4.4093095  16.0633277  )
        42           O1  tau(  42) = (   2.0412097   4.4536800  16.1303113  )
        43           Ti1 tau(  43) = (   3.2964201   5.9600488  15.8742613  )
        44           Ti1 tau(  44) = (   0.0241369   4.6516137  15.8518307  )
        45           O1  tau(  45) = (   3.2900926   2.9813045   4.7018136  )
        46           O1  tau(  46) = (   1.3039711   4.4726057   6.0039043  )
        47           O1  tau(  47) = (   5.2763189   4.4711207   6.0039473  )
        48           N1  tau(  48) = (   1.4509408   2.7109095  18.7602185  )
        49           N1  tau(  49) = (   0.0917387   2.5303350  18.2207845  )
        50           C1  tau(  50) = (   1.9503960   3.7723240  19.2784661  )
        51           H1  tau(  51) = (   1.1612915   4.5273475  19.4152495  )
        52           H1  tau(  52) = (   2.0208952   1.9183395  18.4664618  )
        53           H1  tau(  53) = (   6.1377449   3.3539424  18.4987646  )
        54           H1  tau(  54) = (   6.2616785   1.7135167  18.6767212  )
        55           O1  tau(  55) = (   3.6912217   5.9496235  18.2853534  )
        56           H1  tau(  56) = (   4.6684668   5.8470116  18.1670174  )
        57           H1  tau(  57) = (   3.3852657   5.1278045  18.7338684  )

     number of k points=    10  Fermi-Dirac smearing, width (Ry)=  0.0073
                       cart. coord. in units 2pi/alat
        k(    1) = (   0.0000000   0.0000000   0.0000000), wk =   0.1250000
        k(    2) = (   0.0000000   0.0419351   0.0000000), wk =   0.2500000
        k(    3) = (   0.0000000  -0.0838702   0.0000000), wk =   0.1250000
        k(    4) = (   0.0379955   0.0000049   0.0000000), wk =   0.2500000
        k(    5) = (   0.0379955   0.0419400   0.0000000), wk =   0.2500000
        k(    6) = (   0.0379955  -0.0838652   0.0000000), wk =   0.2500000
        k(    7) = (   0.0379955  -0.0419301   0.0000000), wk =   0.2500000
        k(    8) = (  -0.0759910  -0.0000099   0.0000000), wk =   0.1250000
        k(    9) = (  -0.0759910   0.0419252   0.0000000), wk =   0.2500000
        k(   10) = (  -0.0759910  -0.0838800   0.0000000), wk =   0.1250000

     Initial potential from superposition of free atoms

     starting charge  387.99913, renormalised to  404.00000

     negative rho (up, down):  1.598E-02 0.000E+00

     %%%%%%%%%%%%%%%%%%%%%%%%%%%%%%%%%%%%%%%%%%%%%%%%%%%%%%%%%%%%%%%%%%%%%%%%
     %                                                                      %
     % You are using vdW-DF, which was implemented by the Thonhauser group. %
     % Please cite the following two papers that made this development      %
     % possible and the two reviews that describe the various versions:     %
     %                                                                      %
     %   T. Thonhauser et al., PRL 115, 136402 (2015).                      %
     %   T. Thonhauser et al., PRB 76, 125112 (2007).                       %
     %   K. Berland et al., Rep. Prog. Phys. 78, 066501 (2015).             %
     %   D.C. Langreth et al., J. Phys.: Condens. Matter 21, 084203 (2009). %
     %                                                                      %
     %                                                                      %
     % If you are calculating the stress with vdW-DF, please also cite:     %
     %                                                                      %
     %   R. Sabatini et al., J. Phys.: Condens. Matter 24, 424209 (2012).   %
     %                                                                      %
     %%%%%%%%%%%%%%%%%%%%%%%%%%%%%%%%%%%%%%%%%%%%%%%%%%%%%%%%%%%%%%%%%%%%%%%%

     Adding external electric field

     Computed dipole along edir(3) :
        Dipole              -14.3585 Ry au,        -36.4957 Debye
        Dipole field         -0.0271 Ry au,

        Potential amp.        2.5118 Ry
        Total length         46.3494 bohr

     Starting wfcs are  306 atomic wfcs
  @ DRIVER MODE: Message from server: STATUS
  @ DRIVER MODE: Message from server: POSDATA
  @ DRIVER MODE: Reading and sharing cell
  @ DRIVER MODE: Reading and sharing positions
  @ DRIVER MODE: Received positions

     Self-consistent Calculation

     iteration #  1     ecut=    29.40 Ry     beta= 0.05
     Davidson diagonalization with overlap
     c_bands:  3 eigenvalues not converged
     c_bands:  4 eigenvalues not converged
     c_bands:  4 eigenvalues not converged
     c_bands:  5 eigenvalues not converged
     c_bands:  4 eigenvalues not converged
     c_bands:  5 eigenvalues not converged
     c_bands:  3 eigenvalues not converged
     c_bands:  2 eigenvalues not converged
     c_bands:  4 eigenvalues not converged
     ethr =  1.00E-05,  avg # of iterations = 20.6

[...]

     total energy              =   -2220.96544306 Ry
     estimated scf accuracy    <    8587.32571640 Ry

     iteration #  2     ecut=    29.40 Ry     beta= 0.05
     Davidson diagonalization with overlap
     ethr =  1.00E-02,  avg # of iterations = 29.1

[...]

     iteration # 70     ecut=    29.40 Ry     beta= 0.05
     Davidson diagonalization with overlap
     c_bands:  1 eigenvalues not converged
     c_bands:  2 eigenvalues not converged
     c_bands:  1 eigenvalues not converged
     ethr =  6.29E-11,  avg # of iterations = 17.6

[...]

     total energy              =   -2975.10508168 Ry
     estimated scf accuracy    <       0.00000016 Ry

     iteration # 73     ecut=    29.40 Ry     beta= 0.05
     Davidson diagonalization with overlap
     ethr =  4.01E-11,  avg # of iterations = 11.5

     negative rho (up, down):  1.578E-02 0.000E+00

     Adding external electric field

     Computed dipole along edir(3) :
        Dipole                1.0218 Ry au,          2.5971 Debye
        Dipole field          0.0019 Ry au,

        Potential amp.       -0.1787 Ry
        Total length         46.3494 bohr

     End of self-consistent calculation

          k = 0.0000 0.0000 0.0000 ( 18029 PWs)   bands (ev):

   -55.3860 -55.3502 -55.3460 -55.3119 -55.3086 -55.3031 -55.2679 -55.2325
   -55.2176 -55.1827 -55.1759 -55.1608 -55.1422 -55.1136 -54.3776 -54.3436
   -31.9450 -31.8811 -31.8386 -31.7575 -31.7086 -31.7062 -31.6817 -31.6789
   -31.6348 -31.5990 -31.5916 -31.5906 -31.5836 -31.5802 -31.5620 -31.5600
   -31.5352 -31.5273 -31.5244 -31.5130 -31.4986 -31.4921 -31.4732 -31.4688
   -31.4600 -31.4472 -31.4464 -31.4178 -31.4032 -31.3995 -31.3965 -31.3742
   -31.3703 -31.3664 -31.3628 -31.3418 -31.3307 -31.3186 -31.3040 -31.3035
   -31.2939 -31.2869 -30.7871 -30.6926 -30.6705 -30.6035 -30.5167 -30.4058
   -18.8770 -18.4287 -16.2207 -15.9734 -15.8374 -15.7328 -15.5955 -15.4974
   -15.3882 -15.2750 -15.2518 -15.1585 -15.0839 -15.0793 -15.0427 -15.0170
   -14.9544 -14.9330 -14.9092 -14.9032 -14.8887 -14.8784 -14.8419 -14.8310
   -14.7976 -14.7872 -14.7698 -14.6468 -14.6271 -14.5525 -14.4819 -14.3461
   -12.8798 -12.7623  -9.8316  -6.9972  -6.3334  -6.0788  -4.4217  -3.7296
    -3.5442  -3.4109  -3.3338  -3.3031  -3.2862  -3.1547  -3.0703  -2.9053
    -2.8651  -2.8093  -2.6743  -2.5984  -2.5922  -2.5045  -2.4320  -2.4084
    -2.3749  -2.2662  -2.2594  -2.2104  -2.1929  -2.1698  -2.1604  -2.1125
    -2.0682  -2.0407  -1.9554  -1.8539  -1.8103  -1.7904  -1.7538  -1.7313
    -1.7266  -1.6829  -1.6767  -1.6529  -1.6144  -1.5898  -1.5445  -1.4325
    -1.3909  -1.2321  -1.1951  -1.0406  -1.0200  -0.9806  -0.9605  -0.9226
    -0.8940  -0.8778  -0.8614  -0.7728  -0.7147  -0.6484  -0.5843  -0.4932
    -0.4827  -0.4092  -0.3833  -0.3182  -0.2303  -0.1862  -0.1766  -0.1515
    -0.1480  -0.0345   0.0104   0.0704   0.0894   0.1466   0.1624   0.1846
     0.2546   0.3083   0.3776   0.4082   0.4875   0.5057   0.5408   0.5500
     0.5821   0.5928   0.6688   0.6837   0.7120   0.8147   0.9124   1.0048
     1.2158   1.2178   1.2574   1.5502   1.5524   1.6456   1.8290   2.2220
     2.2704   3.7038   3.7823   3.8318   3.8494   3.8540   3.9388   4.1934
     4.2077   4.2203   4.2265   4.2673

[...]

          k = 0.0380-0.0419 0.0000 ( 17876 PWs)   bands (ev):

[...]

          k =-0.0760-0.0000 0.0000 ( 17886 PWs)   bands (ev):

[...]

          k =-0.0760-0.0839 0.0000 ( 17948 PWs)   bands (ev):

   -55.3692 -55.3669 -55.3289 -55.3288 -55.3056 -55.3022 -55.2542 -55.2462
   -55.2033 -55.1966 -55.1626 -55.1600 -55.1582 -55.1153 -54.3606 -54.3605
   -31.7957 -31.7575 -31.7434 -31.6538 -31.6536 -31.6394 -31.6271 -31.6201
   -31.6200 -31.5991 -31.5940 -31.5909 -31.5679 -31.5604 -31.5484 -31.5346
   -31.5313 -31.5288 -31.5247 -31.5167 -31.5119 -31.5100 -31.5089 -31.5014
   -31.4693 -31.4679 -31.4487 -31.4486 -31.4482 -31.4434 -31.4405 -31.4362
   -31.4268 -31.4154 -31.4097 -31.3928 -31.3910 -31.3818 -31.3398 -31.3388
   -31.3383 -31.3199 -30.6832 -30.6832 -30.5996 -30.5995 -30.5601 -30.5600
   -18.8713 -18.4310 -15.8403 -15.6536 -15.5022 -15.4304 -15.4101 -15.3270
   -15.2715 -15.2680 -15.1950 -15.1772 -15.1646 -15.1429 -15.1338 -15.0861
   -15.0490 -15.0123 -14.9936 -14.9709 -14.9277 -14.9052 -14.9035 -14.8967
   -14.8890 -14.8487 -14.8434 -14.8401 -14.7485 -14.7466 -14.7071 -14.5603
   -12.8638 -12.8637  -9.8407  -6.9857  -6.3077  -6.0568  -4.4344  -3.6558
    -3.0361  -2.9119  -2.9019  -2.6735  -2.6538  -2.5928  -2.5803  -2.4925
    -2.4767  -2.4159  -2.3924  -2.3425  -2.3194  -2.2818  -2.2679  -2.2459
    -2.2250  -2.2112  -2.1840  -2.1686  -2.1518  -2.1320  -2.1209  -2.1096
    -2.0541  -2.0490  -2.0398  -2.0144  -1.9914  -1.9553  -1.9453  -1.9289
    -1.7736  -1.7582  -1.7368  -1.6011  -1.5968  -1.5624  -1.5224  -1.4949
    -1.4366  -1.4284  -1.3999  -1.3410  -1.1473  -1.1367  -1.1251  -1.1069
    -1.0366  -0.9803  -0.9667  -0.9488  -0.8946  -0.8176  -0.7825  -0.7307
    -0.6407  -0.5897  -0.5795  -0.5541  -0.4330  -0.4098  -0.3683  -0.3496
    -0.3336  -0.2989  -0.2974  -0.2398  -0.1872  -0.1518  -0.1289  -0.1146
    -0.0776   0.0773   0.1288   0.1454   0.2593   0.2890   0.4671   0.5102
     0.5312   0.6365   0.7200   0.7484   0.7624   0.8873   0.9099   0.9125
     0.9808   1.0030   1.0631   1.0689   1.2142   2.0017   2.0030   2.0902
     2.0905   3.8290   3.9517   3.9961   4.0318   4.1074   4.1605   4.2175
     4.2767   4.2883   4.2918   4.3582

     the Fermi energy is     3.7659 ev

!    total energy              =   -2975.10512010 Ry
     estimated scf accuracy    <       0.00000005 Ry
     smearing contrib. (-TS)   =      -0.03672126 Ry
     internal energy E=F+TS    =   -2975.06839884 Ry

     The total energy is F=E-TS. E is the sum of the following terms:
     one-electron contribution =  -23505.39967211 Ry
     hartree contribution      =   11848.71806596 Ry
     xc contribution           =    -494.91229073 Ry
     ewald contribution        =    9176.52352789 Ry
     electric field correction =       0.00197015 Ry

     convergence has been achieved in  73 iterations

     Forces acting on atoms (cartesian axes, Ry/au):

     atom    1 type  1   force =     0.00003252   -0.00025784    0.09308999
     atom    2 type  1   force =    -0.00018385   -0.00031852   -0.17838969
     atom    3 type  2   force =     0.00006115   -0.00016881   -0.02026550
     atom    4 type  2   force =     0.00001615   -0.00203568    0.05925119
     atom    5 type  2   force =    -0.01033545   -0.00110315    0.00808649
     atom    6 type  2   force =     0.01217879   -0.00054650    0.00816577
     atom    7 type  1   force =     0.00014710    0.00328697   -0.01111876
     atom    8 type  1   force =    -0.00030463    0.00052223   -0.00560945
     atom    9 type  2   force =     0.00004015    0.00017764   -0.00015251
     atom   10 type  2   force =    -0.00146398   -0.00003555   -0.00170692
     atom   11 type  2   force =     0.00037435   -0.00003273   -0.00005675
     atom   12 type  2   force =    -0.00010074    0.00010715   -0.00008377
     atom   13 type  1   force =    -0.00009454   -0.00017487   -0.00024500
     atom   14 type  1   force =    -0.00021933   -0.00037927    0.00036759
     atom   15 type  2   force =     0.00006081   -0.00049916    0.00010235
     atom   16 type  2   force =     0.00022304    0.00009271    0.00018124
     atom   17 type  2   force =     0.00032969   -0.00029036    0.00034244
     atom   18 type  2   force =    -0.00012814   -0.00004866   -0.00029942
     atom   19 type  1   force =    -0.00044081   -0.00044153    0.00003615
     atom   20 type  1   force =     0.00025156    0.00042585    0.00053286
     atom   21 type  2   force =    -0.00000540   -0.00007628    0.10404365
     atom   22 type  2   force =    -0.00055507   -0.00001014    0.00027005
     atom   23 type  2   force =    -0.07036265   -0.00015809   -0.02685350
     atom   24 type  2   force =     0.07023135    0.00028873   -0.02693057
     atom   25 type  1   force =     0.00001742   -0.00015339    0.09275395
     atom   26 type  1   force =    -0.00015895   -0.00039785   -0.17834243
     atom   27 type  2   force =     0.00011194   -0.00030933   -0.01920549
     atom   28 type  2   force =     0.00004634   -0.00163535    0.05839810
     atom   29 type  2   force =    -0.01028879   -0.00064052    0.00729179
     atom   30 type  2   force =     0.01202459   -0.00030775    0.00742663
     atom   31 type  1   force =     0.00007719    0.00515560   -0.01465446
     atom   32 type  1   force =    -0.00013480   -0.00050376   -0.00595930
     atom   33 type  2   force =     0.00012772   -0.00039413   -0.00024051
     atom   34 type  2   force =    -0.00078778    0.00260490   -0.00103123
     atom   35 type  2   force =    -0.00007396   -0.00011702   -0.00012089
     atom   36 type  2   force =     0.00023376    0.00000075   -0.00014488
     atom   37 type  1   force =    -0.00044311    0.00008175    0.00001511
     atom   38 type  1   force =    -0.00002842   -0.00022349   -0.00021865
     atom   39 type  2   force =    -0.00034223   -0.00018971   -0.00015391
     atom   40 type  2   force =    -0.00012594   -0.00006166   -0.00004087
     atom   41 type  2   force =    -0.00010882   -0.00007032    0.00049069
     atom   42 type  2   force =    -0.00016394   -0.00033602   -0.00002766
     atom   43 type  1   force =    -0.00030052   -0.00038809    0.00021347
     atom   44 type  1   force =     0.00011783   -0.00018709    0.00005674
     atom   45 type  2   force =     0.00000802   -0.00011456    0.10401467
     atom   46 type  2   force =    -0.07039017   -0.00012290   -0.02687797
     atom   47 type  2   force =     0.07023290    0.00031125   -0.02694078
     atom   48 type  3   force =     0.00020343    0.00094055    0.00036541
     atom   49 type  3   force =    -0.00092414   -0.00078493    0.00010297
     atom   50 type  4   force =     0.00028797    0.00076277    0.00085532
     atom   51 type  5   force =     0.00004438   -0.00059263   -0.00042847
     atom   52 type  5   force =    -0.00007521   -0.00107374   -0.00021082
     atom   53 type  5   force =    -0.00007058    0.00003429    0.00002448
     atom   54 type  5   force =     0.00024876    0.00055498   -0.00003392
     atom   55 type  2   force =     0.01991689    0.00186632   -0.00356767
     atom   56 type  5   force =    -0.01561536    0.00225572    0.00099356
     atom   57 type  5   force =    -0.00341849   -0.00428878    0.00243906

     Total force =     0.367192     Total SCF correction =     0.000605
  @ DRIVER MODE: Message from server: STATUS
  @ DRIVER MODE: Message from server: GETFORCE
  @ DRIVER MODE: Returning v,forces,stress,ensemble

     Writing output data file ./calc.save/
  @ DRIVER MODE: Message from server: EXIT
  @ DRIVE MODE: Exiting

     General routines

     Parallel routines

   This run was terminated on:  13:45:12  22Sep2021

   JOB DONE.