     Program PWSCF v.6.7GPU starts on 26Sep2021 at  7:16:20

     R & G space division:  proc/nbgrp/npool/nimage =       8
     Reading input from /storage/home/hcoda1/3/ntian30/research/carbon/CxH_vib/H2O_calc/ads_slab/CH3ON2H2O_a/out_0033/pw.inp
Warning: card &CELL ignored
Warning: card   CELL_DYNAMICS='IPI', ignored
Warning: card / ignored

     Current dimensions of program PWSCF are:
     Max number of different atomic species (ntypx) = 10
     Max number of k-points (npk) =  40000
     Max angular momentum in pseudopotentials (lmaxx) =  3
     Presently no symmetry can be used with electric field

     Message from routine cell_base_init:
     DEPRECATED: use true lattice parameter, not A to a.u. conversion factor

     IMPORTANT: XC functional enforced from input :
     Exchange-correlation= BEEF-VDW
                           (   1   4  43  14   2   0   0)
     Any further DFT definition will be discarded
     Please, verify this is what you really want

  @ DRIVER MODE: Connecting to
 qe_1139763_2971672.sched-torque.pace.gatech.edui8wr3mva_scratch
  using UNIX socket
  @ DRIVER MODE: Message from server: STATUS
  @ DRIVER MODE: Message from server: INIT
  @ DRIVER MODE: Receiving replica           0          -1
  @ DRIVER MODE: Receiving encoded integer          25
  @ DRIVER MODE:  SCF:  T  FORCE:  T  STRESS:  F  VC:  F  ENSEMBLE:  F
  @ DRIVER MODE:  SCF:  T  FORCE:  T  STRESS:  F  VC:  F  ENSEMBLE:  F

     Using Slab Decomposition

     bravais-lattice index     =            0
     lattice parameter (alat)  =       1.8897  a.u.
     unit-cell volume          =    6658.9804 (a.u.)^3
     number of atoms/cell      =           57
     number of atomic types    =            5
     number of electrons       =       409.00
     number of Kohn-Sham states=          214
     kinetic-energy cutoff     =      29.3995  Ry
     charge density cutoff     =     293.9946  Ry
     scf convergence threshold =      7.3E-08
     mixing beta               =       0.0500
     number of iterations used =            8  plain     mixing
     Exchange-correlation= BEEF-VDW
                           (   1   4  43  14   2   0   0)

     celldm(1)=   1.889726  celldm(2)=   0.000000  celldm(3)=   0.000000
     celldm(4)=   0.000000  celldm(5)=   0.000000  celldm(6)=   0.000000

     crystal axes: (cart. coord. in units of alat)
               a(1) = (   6.579727   0.000000   0.000000 )
               a(2) = (  -0.000775   5.961596   0.000000 )
               a(3) = (   0.000000   0.000000  25.155947 )

     reciprocal axes: (cart. coord. in units 2 pi/alat)
               b(1) = (  0.151982  0.000020  0.000000 )
               b(2) = (  0.000000  0.167740  0.000000 )
               b(3) = (  0.000000  0.000000  0.039752 )

     PseudoPot. # 1 for Ti read from file:
     /storage/coda1/p-amedford6/0/shared/rich_project_chbe-medford/medford-share/data/pseudos_module/espresso/nninc/pbe/van/Ti.UPF
     MD5 check sum: 8e4df49b7f0d34bbd5052bf3f5ea0213
     Pseudo is Ultrasoft, Zval = 12.0
     Generated by new atomic code, or converted to UPF format
     Using radial grid of  851 points,  6 beta functions with:
                l(1) =   0
                l(2) =   0
                l(3) =   1
                l(4) =   1
                l(5) =   2
                l(6) =   2
     Q(r) pseudized with  8 coefficients,  rinner =    1.000   1.000   1.000
                                                       1.000   1.000

     PseudoPot. # 2 for O  read from file:
     /storage/coda1/p-amedford6/0/shared/rich_project_chbe-medford/medford-share/data/pseudos_module/espresso/nninc/pbe/van/O.UPF
     MD5 check sum: 78c19812648e8988a0fe644b0f25305e
     Pseudo is Ultrasoft, Zval =  6.0
     Generated by new atomic code, or converted to UPF format
     Using radial grid of  737 points,  4 beta functions with:
                l(1) =   0
                l(2) =   0
                l(3) =   1
                l(4) =   1
     Q(r) pseudized with  8 coefficients,  rinner =    0.800   0.800   0.800

     PseudoPot. # 3 for C  read from file:
     /storage/coda1/p-amedford6/0/shared/rich_project_chbe-medford/medford-share/data/pseudos_module/espresso/nninc/pbe/van/C.UPF
     MD5 check sum: 1a69bf6b8db32088f5b2163dbdb77a27
     Pseudo is Ultrasoft, Zval =  4.0
     Generated by new atomic code, or converted to UPF format
     Using radial grid of  721 points,  4 beta functions with:
                l(1) =   0
                l(2) =   0
                l(3) =   1
                l(4) =   1
     Q(r) pseudized with  8 coefficients,  rinner =    0.800   0.800   0.800

     PseudoPot. # 4 for H  read from file:
     /storage/coda1/p-amedford6/0/shared/rich_project_chbe-medford/medford-share/data/pseudos_module/espresso/nninc/pbe/van/H.UPF
     MD5 check sum: b5ee9d7bfd3a09ee7748110bda690ff7
     Pseudo is Ultrasoft, Zval =  1.0
     Generated by new atomic code, or converted to UPF format
     Using radial grid of  615 points,  1 beta functions with:
                l(1) =   0
     Q(r) pseudized with  8 coefficients,  rinner =    0.800

     PseudoPot. # 5 for N  read from file:
     /storage/coda1/p-amedford6/0/shared/rich_project_chbe-medford/medford-share/data/pseudos_module/espresso/nninc/pbe/van/N.UPF
     MD5 check sum: 90d10febe142ad51ac9d5be1deb811c4
     Pseudo is Ultrasoft, Zval =  5.0
     Generated by new atomic code, or converted to UPF format
     Using radial grid of  729 points,  4 beta functions with:
                l(1) =   0
                l(2) =   0
                l(3) =   1
                l(4) =   1
     Q(r) pseudized with  8 coefficients,  rinner =    0.800   0.800   0.800

     atomic species   valence    mass     pseudopotential
        Ti1           12.00    47.86700     Ti( 1.00)
        O1             6.00    15.99900     O ( 1.00)
        C1             4.00    12.01100     C ( 1.00)
        H1             1.00     1.00800     H ( 1.00)
        N1             5.00    14.00700     N ( 1.00)

     No symmetry found

   Cartesian axes

     site n.     atom                  positions (alat units)
         1           Ti1 tau(   1) = (   0.0004258   2.9801865   6.0000000  )
         2           Ti1 tau(   2) = (   3.2906075   1.4906267   6.0002472  )
         3           O1  tau(   3) = (   0.0006271   0.0005054   7.9858123  )
         4           O1  tau(   4) = (   3.2906025   0.0005020   7.3038282  )
         5           O1  tau(   5) = (   4.5942328   1.4918067   9.2879030  )
         6           O1  tau(   6) = (   1.9868534   1.4903216   9.2879459  )
         7           Ti1 tau(   7) = (   3.3113259   3.0354369   9.1618307  )
         8           Ti1 tau(   8) = (   0.0141821   1.6139659   9.3625064  )
         9           O1  tau(   9) = (   3.2964399   0.0287090  11.3517035  )
        10           O1  tau(  10) = (   0.0046459   0.0167322  10.6079620  )
        11           O1  tau(  11) = (   1.2916403   1.5142126  12.6509924  )
        12           O1  tau(  12) = (   5.2954765   1.5212855  12.6445515  )
        13           Ti1 tau(  13) = (   0.0303381   3.0181167  12.7741416  )
        14           Ti1 tau(  14) = (   3.3376880   1.5190318  12.5019279  )
        15           O1  tau(  15) = (   6.5702980   0.0162101  14.7136675  )
        16           O1  tau(  16) = (   3.3118210   0.0215951  13.9605728  )
        17           O1  tau(  17) = (   4.5586303   1.5408398  16.0643691  )
        18           O1  tau(  18) = (   2.0376984   1.5397913  16.0346728  )
        19           Ti1 tau(  19) = (   3.2806018   3.0126274  15.6982083  )
        20           Ti1 tau(  20) = (   0.0204579   1.3876160  16.0921805  )
        21           O1  tau(  21) = (   3.2904802   0.0005063   4.7018136  )
        22           O1  tau(  22) = (   0.0362274   0.0182013  17.2505027  )
        23           O1  tau(  23) = (   1.3043587   1.4918075   6.0039043  )
        24           O1  tau(  24) = (   5.2767064   1.4903225   6.0039473  )
        25           Ti1 tau(  25) = (   0.0000382   5.9609847   6.0000000  )
        26           Ti1 tau(  26) = (   3.2902200   4.4714249   6.0002472  )
        27           O1  tau(  27) = (   0.0002396   2.9813036   7.9858123  )
        28           O1  tau(  28) = (   3.2902150   2.9813002   7.3038282  )
        29           O1  tau(  29) = (   4.5938453   4.4726049   9.2879030  )
        30           O1  tau(  30) = (   1.9864658   4.4711199   9.2879459  )
        31           Ti1 tau(  31) = (   3.2918133   0.0584897   9.1554610  )
        32           Ti1 tau(  32) = (   0.0176696   4.5429683   9.2683582  )
        33           O1  tau(  33) = (   3.2944385   3.0046939  11.3531965  )
        34           O1  tau(  34) = (   0.0071923   2.9964285  10.5824339  )
        35           O1  tau(  35) = (   1.2923070   4.5060354  12.6395470  )
        36           O1  tau(  36) = (   5.2930342   4.4972821  12.6335129  )
        37           Ti1 tau(  37) = (   0.0360028   0.0369787  12.5252624  )
        38           Ti1 tau(  38) = (   3.3378333   4.5109478  12.5016189  )
        39           O1  tau(  39) = (   0.0182598   3.0415135  14.6926035  )
        40           O1  tau(  40) = (   3.2973286   3.0139918  13.9115332  )
        41           O1  tau(  41) = (   4.5518717   4.4752506  16.0920674  )
        42           O1  tau(  42) = (   2.0385343   4.4722040  16.0556704  )
        43           Ti1 tau(  43) = (   3.3273276   0.0437280  15.7880462  )
        44           Ti1 tau(  44) = (   0.0148993   4.5306414  15.9319406  )
        45           O1  tau(  45) = (   3.2900926   2.9813045   4.7018136  )
        46           O1  tau(  46) = (   1.3039711   4.4726057   6.0039043  )
        47           O1  tau(  47) = (   5.2763189   4.4711207   6.0039473  )
        48           C1  tau(  48) = (   6.0619278   3.0088867  18.6555636  )
        49           O1  tau(  49) = (   6.5788924   2.9994598  17.3400993  )
        50           H1  tau(  50) = (   4.9713474   2.8828304  18.6515055  )
        51           H1  tau(  51) = (   6.4909130   2.1836263  19.2313859  )
        52           H1  tau(  52) = (   6.3070107   3.9563896  19.1453893  )
        53           N1  tau(  53) = (   5.9950546   3.0201018  22.7159517  )
        54           N1  tau(  54) = (   5.2276613   3.1827328  21.9368001  )
        55           O1  tau(  55) = (   3.1818816   0.0591848  18.2205797  )
        56           H1  tau(  56) = (   3.8437189   5.3938241  18.5518935  )
        57           H1  tau(  57) = (   2.3086839   5.6188137  18.3735615  )

     number of k points=    10  Fermi-Dirac smearing, width (Ry)=  0.0073
                       cart. coord. in units 2pi/alat
        k(    1) = (   0.0000000   0.0000000   0.0000000), wk =   0.1250000
        k(    2) = (   0.0000000   0.0419351   0.0000000), wk =   0.2500000
        k(    3) = (   0.0000000  -0.0838702   0.0000000), wk =   0.1250000
        k(    4) = (   0.0379955   0.0000049   0.0000000), wk =   0.2500000
        k(    5) = (   0.0379955   0.0419400   0.0000000), wk =   0.2500000
        k(    6) = (   0.0379955  -0.0838652   0.0000000), wk =   0.2500000
        k(    7) = (   0.0379955  -0.0419301   0.0000000), wk =   0.2500000
        k(    8) = (  -0.0759910  -0.0000099   0.0000000), wk =   0.1250000
        k(    9) = (  -0.0759910   0.0419252   0.0000000), wk =   0.2500000
        k(   10) = (  -0.0759910  -0.0838800   0.0000000), wk =   0.1250000

     Initial potential from superposition of free atoms

     starting charge  392.99914, renormalised to  409.00000

     negative rho (up, down):  9.746E-03 0.000E+00

     %%%%%%%%%%%%%%%%%%%%%%%%%%%%%%%%%%%%%%%%%%%%%%%%%%%%%%%%%%%%%%%%%%%%%%%%
     %                                                                      %
     % You are using vdW-DF, which was implemented by the Thonhauser group. %
     % Please cite the following two papers that made this development      %
     % possible and the two reviews that describe the various versions:     %
     %                                                                      %
     %   T. Thonhauser et al., PRL 115, 136402 (2015).                      %
     %   T. Thonhauser et al., PRB 76, 125112 (2007).                       %
     %   K. Berland et al., Rep. Prog. Phys. 78, 066501 (2015).             %
     %   D.C. Langreth et al., J. Phys.: Condens. Matter 21, 084203 (2009). %
     %                                                                      %
     %                                                                      %
     % If you are calculating the stress with vdW-DF, please also cite:     %
     %                                                                      %
     %   R. Sabatini et al., J. Phys.: Condens. Matter 24, 424209 (2012).   %
     %                                                                      %
     %%%%%%%%%%%%%%%%%%%%%%%%%%%%%%%%%%%%%%%%%%%%%%%%%%%%%%%%%%%%%%%%%%%%%%%%

     Adding external electric field

     Computed dipole along edir(3) :
        Dipole              -18.5715 Ry au,        -47.2041 Debye
        Dipole field         -0.0350 Ry au,

        Potential amp.        3.2488 Ry
        Total length         46.3494 bohr

     Starting wfcs are  309 atomic wfcs
  @ DRIVER MODE: Message from server: STATUS
  @ DRIVER MODE: Message from server: POSDATA
  @ DRIVER MODE: Reading and sharing cell
  @ DRIVER MODE: Reading and sharing positions
  @ DRIVER MODE: Received positions

     Self-consistent Calculation

     iteration #  1     ecut=    29.40 Ry     beta= 0.05
     Davidson diagonalization with overlap
     c_bands:  3 eigenvalues not converged
     c_bands:  2 eigenvalues not converged
     c_bands:  2 eigenvalues not converged
     c_bands:  5 eigenvalues not converged
     c_bands:  5 eigenvalues not converged
     c_bands:  5 eigenvalues not converged
     c_bands:  1 eigenvalues not converged
     c_bands:  3 eigenvalues not converged
     ethr =  1.00E-05,  avg # of iterations = 28.5

[...]

     total energy              =   -2113.12542153 Ry
     estimated scf accuracy    <   10297.58498456 Ry

     iteration #  2     ecut=    29.40 Ry     beta= 0.05
     Davidson diagonalization with overlap
     ethr =  1.00E-02,  avg # of iterations = 31.4

[...]

     iteration # 68     ecut=    29.40 Ry     beta= 0.05
     Davidson diagonalization with overlap
     c_bands:  1 eigenvalues not converged
     ethr =  1.03E-10,  avg # of iterations = 13.3

[...]

     total energy              =   -3006.52129550 Ry
     estimated scf accuracy    <       0.00000010 Ry

     iteration # 71     ecut=    29.40 Ry     beta= 0.05
     Davidson diagonalization with overlap
     ethr =  2.43E-11,  avg # of iterations = 11.2

     negative rho (up, down):  1.093E-02 0.000E+00

     Adding external electric field

     Computed dipole along edir(3) :
        Dipole                0.9962 Ry au,          2.5320 Debye
        Dipole field          0.0019 Ry au,

        Potential amp.       -0.1743 Ry
        Total length         46.3494 bohr

     End of self-consistent calculation

          k = 0.0000 0.0000 0.0000 ( 18029 PWs)   bands (ev):

   -55.2856 -55.2508 -55.2497 -55.2145 -55.1918 -55.1764 -55.1687 -55.1331
   -55.0823 -55.0642 -55.0485 -55.0411 -55.0072 -54.9531 -54.2926 -54.2585
   -31.8078 -31.7549 -31.6776 -31.6457 -31.6242 -31.5774 -31.5601 -31.5563
   -31.5204 -31.5153 -31.4783 -31.4646 -31.4582 -31.4491 -31.4453 -31.4321
   -31.4260 -31.3899 -31.3847 -31.3772 -31.3727 -31.3538 -31.3503 -31.3409
   -31.3331 -31.3273 -31.3113 -31.2901 -31.2796 -31.2738 -31.2706 -31.2632
   -31.2605 -31.2445 -31.2318 -31.2217 -31.2203 -31.1857 -31.1706 -31.1502
   -31.1379 -31.1365 -30.7019 -30.6061 -30.5837 -30.5185 -30.4324 -30.3213
   -21.4007 -18.7340 -17.1976 -16.0001 -15.7298 -15.5693 -15.4385 -15.4032
   -15.2161 -15.0946 -14.9617 -14.9377 -14.8840 -14.8564 -14.8221 -14.8117
   -14.8068 -14.7945 -14.7860 -14.7396 -14.7049 -14.6878 -14.6873 -14.6641
   -14.6152 -14.5618 -14.4963 -14.4314 -14.4031 -14.3613 -14.2921 -14.2843
   -12.7934 -12.6754  -9.1230  -6.6106  -6.5273  -4.5501  -4.5390  -3.9159
    -3.7659  -3.4711  -3.3637  -3.2832  -3.2119  -3.1897  -3.1681  -3.0928
    -2.9817  -2.8457  -2.7501  -2.5110  -2.4556  -2.4129  -2.3812  -2.3521
    -2.1954  -2.1706  -2.1021  -2.0909  -2.0822  -2.0715  -2.0444  -2.0153
    -1.9896  -1.9577  -1.8986  -1.8744  -1.8043  -1.6731  -1.6646  -1.6326
    -1.5865  -1.5699  -1.5680  -1.5418  -1.4977  -1.4787  -1.4543  -1.4489
    -1.3519  -1.2595  -1.2167  -1.1224  -1.0429  -0.9701  -0.8472  -0.8085
    -0.7354  -0.7020  -0.6863  -0.6327  -0.5832  -0.5726  -0.5143  -0.4673
    -0.3598  -0.3170  -0.2753  -0.2380  -0.1870  -0.1428  -0.0720  -0.0385
    -0.0062  -0.0017   0.0195   0.2179   0.2292   0.2804   0.2932   0.3901
     0.4427   0.4773   0.4904   0.4996   0.5377   0.6134   0.6688   0.6773
     0.7090   0.7451   0.7642   0.8106   0.8515   0.9037   0.9333   0.9680
     1.0345   1.0750   1.2288   1.3240   1.3674   1.4837   1.6402   1.7315
     1.8056   1.9056   2.3183   2.3756   3.8959   3.9301   3.9568   3.9752
     4.0430   4.1421   4.2588   4.3496   4.3592   4.3897

[...]

          k = 0.0380-0.0419 0.0000 ( 17876 PWs)   bands (ev):

[...]

          k =-0.0760-0.0000 0.0000 ( 17886 PWs)   bands (ev):

[...]

          k =-0.0760-0.0839 0.0000 ( 17948 PWs)   bands (ev):

   -55.2735 -55.2618 -55.2348 -55.2302 -55.1887 -55.1742 -55.1581 -55.1438
   -55.0850 -55.0612 -55.0507 -55.0264 -55.0220 -54.9557 -54.2761 -54.2749
   -31.6197 -31.6032 -31.5777 -31.5755 -31.5656 -31.5643 -31.5468 -31.5136
   -31.5066 -31.4898 -31.4864 -31.4760 -31.4409 -31.4305 -31.4100 -31.4058
   -31.4010 -31.3992 -31.3973 -31.3916 -31.3884 -31.3850 -31.3735 -31.3650
   -31.3589 -31.3502 -31.3497 -31.3477 -31.3427 -31.3167 -31.2910 -31.2780
   -31.2757 -31.2739 -31.2715 -31.2628 -31.2535 -31.2416 -31.2321 -31.2228
   -31.1811 -31.1473 -30.5971 -30.5956 -30.5154 -30.5143 -30.4760 -30.4749
   -21.4006 -18.7330 -17.1671 -15.4681 -15.3591 -15.2301 -15.1656 -15.1429
   -15.1161 -15.0633 -15.0469 -14.9914 -14.9872 -14.9366 -14.9304 -14.8871
   -14.8803 -14.8266 -14.7983 -14.7895 -14.7602 -14.7278 -14.7118 -14.7105
   -14.6708 -14.6490 -14.6407 -14.6104 -14.6031 -14.5410 -14.5036 -14.4704
   -12.7777 -12.7759  -9.1248  -6.6113  -6.5206  -4.5505  -4.5463  -3.8257
    -3.7247  -3.4972  -3.2698  -3.0024  -2.7536  -2.5709  -2.4797  -2.4107
    -2.3577  -2.3398  -2.2301  -2.2056  -2.1756  -2.1410  -2.1187  -2.1080
    -2.0902  -2.0813  -2.0740  -2.0564  -2.0229  -2.0032  -1.9770  -1.9524
    -1.9372  -1.9140  -1.8963  -1.8888  -1.8642  -1.8364  -1.8295  -1.8267
    -1.7636  -1.7236  -1.5655  -1.5205  -1.4993  -1.4095  -1.3901  -1.3735
    -1.3481  -1.3340  -1.3174  -1.1981  -1.1473  -1.1188  -1.0109  -0.9930
    -0.9671  -0.8284  -0.8047  -0.7722  -0.7440  -0.7020  -0.6323  -0.6086
    -0.5533  -0.5405  -0.4392  -0.4020  -0.3771  -0.3639  -0.2679  -0.2458
    -0.2404  -0.2145  -0.1513  -0.1193  -0.0740  -0.0444  -0.0137   0.0109
     0.0568   0.0767   0.1706   0.1909   0.2272   0.2701   0.3640   0.5308
     0.6236   0.7337   0.7598   0.8067   0.8668   0.9094   0.9598   1.0131
     1.0607   1.0677   1.1301   1.1672   1.2520   1.2658   1.2691   1.3377
     2.0928   2.0931   2.1810   2.1900   4.1375   4.1458   4.2029   4.2224
     4.3616   4.3678   4.3813   4.3889   4.4837   4.5414

     the Fermi energy is     3.8659 ev

!    total energy              =   -3006.52134394 Ry
     estimated scf accuracy    <       0.00000006 Ry
     smearing contrib. (-TS)   =      -0.02294623 Ry
     internal energy E=F+TS    =   -3006.49839772 Ry

     The total energy is F=E-TS. E is the sum of the following terms:
     one-electron contribution =  -22563.05820224 Ry
     hartree contribution      =   11380.87077020 Ry
     xc contribution           =    -501.14245328 Ry
     ewald contribution        =    8676.82961493 Ry
     electric field correction =       0.00187267 Ry

     convergence has been achieved in  71 iterations

     Forces acting on atoms (cartesian axes, Ry/au):

     atom    1 type  1   force =    -0.00014158   -0.00166962    0.10541148
     atom    2 type  1   force =    -0.00021861    0.00113064   -0.17914769
     atom    3 type  2   force =     0.00020937   -0.00553683   -0.03234787
     atom    4 type  2   force =     0.00010388    0.00072010    0.04628013
     atom    5 type  2   force =    -0.01804168    0.00052583    0.00422893
     atom    6 type  2   force =     0.01844279   -0.00044753    0.00409511
     atom    7 type  1   force =     0.00007023    0.00018474    0.00006023
     atom    8 type  1   force =     0.00007799    0.00031661   -0.00013341
     atom    9 type  2   force =     0.00017719    0.00035087   -0.00009659
     atom   10 type  2   force =     0.00017208   -0.00001216    0.00002769
     atom   11 type  2   force =     0.00005011   -0.00034616   -0.00037398
     atom   12 type  2   force =    -0.00006203   -0.00052329   -0.00051200
     atom   13 type  1   force =     0.00046665    0.00023971    0.00009581
     atom   14 type  1   force =    -0.00025508   -0.00046913   -0.00040846
     atom   15 type  2   force =     0.00004523   -0.00053842    0.00030615
     atom   16 type  2   force =    -0.00008462    0.00030154   -0.00024145
     atom   17 type  2   force =    -0.00042364   -0.00062031    0.00005825
     atom   18 type  2   force =     0.00003982   -0.00049229    0.00018081
     atom   19 type  1   force =     0.00041953   -0.00029602   -0.00008681
     atom   20 type  1   force =    -0.00010402   -0.00071922   -0.00082699
     atom   21 type  2   force =    -0.00003331    0.00010026    0.10395353
     atom   22 type  2   force =    -0.00001453   -0.00054245    0.00053209
     atom   23 type  2   force =    -0.06942795    0.00051450   -0.02946875
     atom   24 type  2   force =     0.06918707    0.00097467   -0.02952751
     atom   25 type  1   force =    -0.00004448    0.00156258    0.11484366
     atom   26 type  1   force =    -0.00022563   -0.00047130   -0.17916845
     atom   27 type  2   force =     0.00021613    0.00415071   -0.02604545
     atom   28 type  2   force =     0.00042693    0.00092739    0.04806405
     atom   29 type  2   force =    -0.01631104    0.00162822    0.00383974
     atom   30 type  2   force =     0.01736883    0.00217791    0.00360895
     atom   31 type  1   force =    -0.00014619    0.00008861   -0.00025135
     atom   32 type  1   force =     0.00011127   -0.00008410    0.00026134
     atom   33 type  2   force =     0.00028690   -0.00051174    0.00017575
     atom   34 type  2   force =    -0.00003960   -0.00030850   -0.00027122
     atom   35 type  2   force =    -0.00045749   -0.00013916    0.00002423
     atom   36 type  2   force =     0.00053975    0.00001624    0.00001024
     atom   37 type  1   force =     0.00045985   -0.00074025   -0.00004491
     atom   38 type  1   force =    -0.00036832   -0.00004045   -0.00037292
     atom   39 type  2   force =    -0.00041907   -0.00050671   -0.00047375
     atom   40 type  2   force =     0.00036128   -0.00041014   -0.00026899
     atom   41 type  2   force =    -0.00018355   -0.00003164    0.00004383
     atom   42 type  2   force =    -0.00032546   -0.00021768    0.00003506
     atom   43 type  1   force =     0.00026199    0.00009618    0.00137318
     atom   44 type  1   force =     0.00003492   -0.00036560   -0.00077473
     atom   45 type  2   force =    -0.00003717    0.00007618    0.10400011
     atom   46 type  2   force =    -0.06904443   -0.00107177   -0.02953061
     atom   47 type  2   force =     0.06885727   -0.00062908   -0.02960923
     atom   48 type  3   force =    -0.00021934    0.00001269    0.00031525
     atom   49 type  2   force =    -0.00002545    0.00024660   -0.00081923
     atom   50 type  4   force =    -0.00044000   -0.00005741    0.00003158
     atom   51 type  4   force =     0.00029797   -0.00028325    0.00015233
     atom   52 type  4   force =    -0.00004770    0.00036566   -0.00042176
     atom   53 type  5   force =    -0.00683556    0.00116896   -0.00696112
     atom   54 type  5   force =     0.00627689   -0.00084881    0.00665826
     atom   55 type  2   force =     0.00071023   -0.00004690    0.00038067
     atom   56 type  4   force =    -0.00157256    0.00013327   -0.00065188
     atom   57 type  4   force =    -0.00012205    0.00096724   -0.00021131

     Total force =     0.374781     Total SCF correction =     0.000546
  @ DRIVER MODE: Message from server: STATUS
  @ DRIVER MODE: Message from server: GETFORCE
  @ DRIVER MODE: Returning v,forces,stress,ensemble

     Writing output data file ./calc.save/
  @ DRIVER MODE: Message from server: EXIT
  @ DRIVE MODE: Exiting

     General routines

     Parallel routines

   This run was terminated on:   7:45: 3  26Sep2021

   JOB DONE.