     Program PWSCF v.6.7GPU starts on 19Oct2021 at  5:27:38

     R & G space division:  proc/nbgrp/npool/nimage =       8
     Reading input from /storage/home/hcoda1/3/ntian30/research/carbon/CxH_vib/Thiel_calc/ads_slab/NH2NH2HH_perslab/out_0037/pw.inp
Warning: card &CELL ignored
Warning: card   CELL_DYNAMICS='IPI', ignored
Warning: card / ignored

     Current dimensions of program PWSCF are:
     Max number of different atomic species (ntypx) = 10
     Max number of k-points (npk) =  40000
     Max angular momentum in pseudopotentials (lmaxx) =  3
     Presently no symmetry can be used with electric field

     Message from routine cell_base_init:
     DEPRECATED: use true lattice parameter, not A to a.u. conversion factor

     IMPORTANT: XC functional enforced from input :
     Exchange-correlation= BEEF-VDW
                           (   1   4  43  14   2   0   0)
     Any further DFT definition will be discarded
     Please, verify this is what you really want

  @ DRIVER MODE: Connecting to
 qe_1139763_3255137.sched-torque.pace.gatech.edues8lkaxd_scratch
  using UNIX socket
  @ DRIVER MODE: Message from server: STATUS
  @ DRIVER MODE: Message from server: INIT
  @ DRIVER MODE: Receiving replica           0          -1
  @ DRIVER MODE: Receiving encoded integer          25
  @ DRIVER MODE:  SCF:  T  FORCE:  T  STRESS:  F  VC:  F  ENSEMBLE:  F
  @ DRIVER MODE:  SCF:  T  FORCE:  T  STRESS:  F  VC:  F  ENSEMBLE:  F

     Using Slab Decomposition

     bravais-lattice index     =            0
     lattice parameter (alat)  =       1.8897  a.u.
     unit-cell volume          =    9988.4706 (a.u.)^3
     number of atoms/cell      =           61
     number of atomic types    =            4
     number of electrons       =       442.00
     number of Kohn-Sham states=          231
     kinetic-energy cutoff     =      29.3995  Ry
     charge density cutoff     =     293.9946  Ry
     scf convergence threshold =      7.3E-08
     mixing beta               =       0.0500
     number of iterations used =            8  plain     mixing
     Exchange-correlation= BEEF-VDW
                           (   1   4  43  14   2   0   0)

     celldm(1)=   1.889726  celldm(2)=   0.000000  celldm(3)=   0.000000
     celldm(4)=   0.000000  celldm(5)=   0.000000  celldm(6)=   0.000000

     crystal axes: (cart. coord. in units of alat)
               a(1) = (   6.579727   0.000000   0.000000 )
               a(2) = (  -0.001163   8.942395   0.000000 )
               a(3) = (   0.000000   0.000000  25.155947 )

     reciprocal axes: (cart. coord. in units 2 pi/alat)
               b(1) = (  0.151982  0.000020  0.000000 )
               b(2) = (  0.000000  0.111827  0.000000 )
               b(3) = (  0.000000  0.000000  0.039752 )

     PseudoPot. # 1 for O  read from file:
     /storage/coda1/p-amedford6/0/shared/rich_project_chbe-medford/medford-share/data/pseudos_module/espresso/nninc/pbe/van/O.UPF
     MD5 check sum: 78c19812648e8988a0fe644b0f25305e
     Pseudo is Ultrasoft, Zval =  6.0
     Generated by new atomic code, or converted to UPF format
     Using radial grid of  737 points,  4 beta functions with:
                l(1) =   0
                l(2) =   0
                l(3) =   1
                l(4) =   1
     Q(r) pseudized with  8 coefficients,  rinner =    0.800   0.800   0.800

     PseudoPot. # 2 for Ti read from file:
     /storage/coda1/p-amedford6/0/shared/rich_project_chbe-medford/medford-share/data/pseudos_module/espresso/nninc/pbe/van/Ti.UPF
     MD5 check sum: 8e4df49b7f0d34bbd5052bf3f5ea0213
     Pseudo is Ultrasoft, Zval = 12.0
     Generated by new atomic code, or converted to UPF format
     Using radial grid of  851 points,  6 beta functions with:
                l(1) =   0
                l(2) =   0
                l(3) =   1
                l(4) =   1
                l(5) =   2
                l(6) =   2
     Q(r) pseudized with  8 coefficients,  rinner =    1.000   1.000   1.000
                                                       1.000   1.000

     PseudoPot. # 3 for N  read from file:
     /storage/coda1/p-amedford6/0/shared/rich_project_chbe-medford/medford-share/data/pseudos_module/espresso/nninc/pbe/van/N.UPF
     MD5 check sum: 90d10febe142ad51ac9d5be1deb811c4
     Pseudo is Ultrasoft, Zval =  5.0
     Generated by new atomic code, or converted to UPF format
     Using radial grid of  729 points,  4 beta functions with:
                l(1) =   0
                l(2) =   0
                l(3) =   1
                l(4) =   1
     Q(r) pseudized with  8 coefficients,  rinner =    0.800   0.800   0.800

     PseudoPot. # 4 for H  read from file:
     /storage/coda1/p-amedford6/0/shared/rich_project_chbe-medford/medford-share/data/pseudos_module/espresso/nninc/pbe/van/H.UPF
     MD5 check sum: b5ee9d7bfd3a09ee7748110bda690ff7
     Pseudo is Ultrasoft, Zval =  1.0
     Generated by new atomic code, or converted to UPF format
     Using radial grid of  615 points,  1 beta functions with:
                l(1) =   0
     Q(r) pseudized with  8 coefficients,  rinner =    0.800

     atomic species   valence    mass     pseudopotential
        O1             6.00    15.99900     O ( 1.00)
        Ti1           12.00    47.86700     Ti( 1.00)
        N1             5.00    14.00700     N ( 1.00)
        H1             1.00     1.00800     H ( 1.00)

     No symmetry found

   Cartesian axes

     site n.     atom                  positions (alat units)
         1           O1  tau(   1) = (   0.0007354   0.0005023  10.5931620  )
         2           O1  tau(   2) = (   3.2456387   0.0208629  13.8623892  )
         3           O1  tau(   3) = (   6.5569189   0.0555649  17.3369326  )
         4           O1  tau(   4) = (   0.0006271   0.0005054   7.9858123  )
         5           O1  tau(   5) = (   3.2933513   8.9300833  11.1812556  )
         6           O1  tau(   6) = (   0.0337597   0.0712708  14.6279364  )
         7           O1  tau(   7) = (   1.9868534   1.4903216   9.2879459  )
         8           O1  tau(   8) = (   5.2215124   1.6184176  12.5791628  )
         9           O1  tau(   9) = (   1.9922958   1.5902288  16.0980526  )
        10           Ti1 tau(  10) = (   0.0007404   1.4906270   9.2895810  )
        11           Ti1 tau(  11) = (   3.2860490   1.3455809  12.4359399  )
        12           Ti1 tau(  12) = (   6.5618936   1.3602716  15.8812525  )
        13           O1  tau(  13) = (   4.5942328   1.4918067   9.2879030  )
        14           O1  tau(  14) = (   1.3307156   1.5887400  12.5381291  )
        15           O1  tau(  15) = (   4.5725103   1.6118788  16.0006659  )
        16           Ti1 tau(  16) = (   3.2902859   2.9801868   9.2893338  )
        17           Ti1 tau(  17) = (   0.0046584   2.8227806  12.4510757  )
        18           Ti1 tau(  18) = (   3.2555632   2.8898243  15.6661830  )
        19           O1  tau(  19) = (   0.0003479   2.9813005  10.5931620  )
        20           O1  tau(  20) = (   3.2279248   2.9553539  13.8813459  )
        21           O1  tau(  21) = (   0.0002396   2.9813036   7.9858123  )
        22           O1  tau(  22) = (   3.2889556   2.9859946  11.1941525  )
        23           O1  tau(  23) = (   0.0559812   2.9852445  14.6488683  )
        24           O1  tau(  24) = (   1.9864658   4.4711199   9.2879459  )
        25           O1  tau(  25) = (   5.2314886   4.5920767  12.6107679  )
        26           O1  tau(  26) = (   1.9969377   4.5324570  16.1535429  )
        27           Ti1 tau(  27) = (   0.0003529   4.4714252   9.2895810  )
        28           Ti1 tau(  28) = (   3.2845268   4.3564118  12.5295435  )
        29           Ti1 tau(  29) = (   6.5676402   4.3565080  15.8255799  )
        30           O1  tau(  30) = (   4.5938453   4.4726049   9.2879030  )
        31           O1  tau(  31) = (   1.3315080   4.5776727  12.5731030  )
        32           O1  tau(  32) = (   4.5871741   4.4544688  15.9274438  )
        33           Ti1 tau(  33) = (   3.2898983   5.9609850   9.2893338  )
        34           Ti1 tau(  34) = (   6.5783773   5.8108302  12.4536689  )
        35           Ti1 tau(  35) = (   3.3162440   5.8110762  16.0333210  )
        36           O1  tau(  36) = (  -0.0000397   5.9620987  10.5931620  )
        37           O1  tau(  37) = (   3.2636778   5.9869953  13.9790019  )
        38           O1  tau(  38) = (   6.4104969   6.0475349  17.2872242  )
        39           O1  tau(  39) = (  -0.0001480   5.9621018   7.9858123  )
        40           O1  tau(  40) = (   3.2905218   5.9516507  11.2202175  )
        41           O1  tau(  41) = (   0.0617018   5.9803669  14.6637187  )
        42           O1  tau(  42) = (   1.9860782   7.4519181   9.2879459  )
        43           O1  tau(  43) = (   5.2407037   7.5572870  12.6049163  )
        44           O1  tau(  44) = (   1.9881273   7.5959696  16.0809372  )
        45           Ti1 tau(  45) = (  -0.0000347   7.4522234   9.2895810  )
        46           Ti1 tau(  46) = (   3.2912638   7.2305267  12.6172466  )
        47           Ti1 tau(  47) = (   0.0232661   7.3094817  15.9177444  )
        48           O1  tau(  48) = (   4.5934577   7.4534031   9.2879030  )
        49           O1  tau(  49) = (   1.3287160   7.5404973  12.5734398  )
        50           O1  tau(  50) = (   4.6507959   7.6754627  15.9163669  )
        51           Ti1 tau(  51) = (   3.2895107   8.9417832   9.2893338  )
        52           Ti1 tau(  52) = (   0.0077981   8.7799231  12.4640552  )
        53           Ti1 tau(  53) = (   3.2910717   8.8534038  15.6608489  )
        54           N1  tau(  54) = (   3.7626148   6.0985185  18.0019073  )
        55           H1  tau(  55) = (   3.4663780   5.3841571  18.6619304  )
        56           H1  tau(  56) = (   3.5565419   6.9988739  18.4208443  )
        57           N1  tau(  57) = (   6.5319303   3.0529623  17.4095181  )
        58           H1  tau(  58) = (   5.7013393   3.0140474  17.9904383  )
        59           H1  tau(  59) = (   0.7603229   3.1006543  18.0203722  )
        60           H1  tau(  60) = (   5.4874376   6.0468821  17.7423635  )
        61           H1  tau(  61) = (   0.7324116   0.0679216  17.9402240  )

     number of k points=    10  Fermi-Dirac smearing, width (Ry)=  0.0073
                       cart. coord. in units 2pi/alat
        k(    1) = (   0.0000000   0.0000000   0.0000000), wk =   0.1250000
        k(    2) = (   0.0000000   0.0279567   0.0000000), wk =   0.2500000
        k(    3) = (   0.0000000  -0.0559134   0.0000000), wk =   0.1250000
        k(    4) = (   0.0379955   0.0000049   0.0000000), wk =   0.2500000
        k(    5) = (   0.0379955   0.0279617   0.0000000), wk =   0.2500000
        k(    6) = (   0.0379955  -0.0559085   0.0000000), wk =   0.2500000
        k(    7) = (   0.0379955  -0.0279518   0.0000000), wk =   0.2500000
        k(    8) = (  -0.0759910  -0.0000099   0.0000000), wk =   0.1250000
        k(    9) = (  -0.0759910   0.0279468   0.0000000), wk =   0.2500000
        k(   10) = (  -0.0759910  -0.0559233   0.0000000), wk =   0.1250000

     Initial potential from superposition of free atoms

     starting charge  423.99908, renormalised to  442.00000

     negative rho (up, down):  3.745E-02 0.000E+00

     %%%%%%%%%%%%%%%%%%%%%%%%%%%%%%%%%%%%%%%%%%%%%%%%%%%%%%%%%%%%%%%%%%%%%%%%
     %                                                                      %
     % You are using vdW-DF, which was implemented by the Thonhauser group. %
     % Please cite the following two papers that made this development      %
     % possible and the two reviews that describe the various versions:     %
     %                                                                      %
     %   T. Thonhauser et al., PRL 115, 136402 (2015).                      %
     %   T. Thonhauser et al., PRB 76, 125112 (2007).                       %
     %   K. Berland et al., Rep. Prog. Phys. 78, 066501 (2015).             %
     %   D.C. Langreth et al., J. Phys.: Condens. Matter 21, 084203 (2009). %
     %                                                                      %
     %                                                                      %
     % If you are calculating the stress with vdW-DF, please also cite:     %
     %                                                                      %
     %   R. Sabatini et al., J. Phys.: Condens. Matter 24, 424209 (2012).   %
     %                                                                      %
     %%%%%%%%%%%%%%%%%%%%%%%%%%%%%%%%%%%%%%%%%%%%%%%%%%%%%%%%%%%%%%%%%%%%%%%%

     Adding external electric field

     Computed dipole along edir(3) :
        Dipole               -5.9687 Ry au,        -15.1708 Debye
        Dipole field         -0.0075 Ry au,

        Potential amp.        0.6961 Ry
        Total length         46.3494 bohr

     Starting wfcs are  334 atomic wfcs
  @ DRIVER MODE: Message from server: STATUS
  @ DRIVER MODE: Message from server: POSDATA
  @ DRIVER MODE: Reading and sharing cell
  @ DRIVER MODE: Reading and sharing positions
  @ DRIVER MODE: Received positions

     Self-consistent Calculation

     iteration #  1     ecut=    29.40 Ry     beta= 0.05
     Davidson diagonalization with overlap
     c_bands:  1 eigenvalues not converged
     c_bands:  3 eigenvalues not converged
     c_bands:  5 eigenvalues not converged
     c_bands:  2 eigenvalues not converged
     c_bands:  4 eigenvalues not converged
     c_bands:  5 eigenvalues not converged
     c_bands:  4 eigenvalues not converged
     c_bands:  3 eigenvalues not converged
     c_bands:  2 eigenvalues not converged
     c_bands:  4 eigenvalues not converged
     ethr =  1.00E-05,  avg # of iterations = 20.0

[...]

     total energy              =   -3277.93022107 Ry
     estimated scf accuracy    <     239.70877779 Ry

[...]

     iteration #  3     ecut=    29.40 Ry     beta= 0.05
     Davidson diagonalization with overlap
     ethr =  1.00E-02,  avg # of iterations = 11.9

[...]

     iteration # 51     ecut=    29.40 Ry     beta= 0.05
     Davidson diagonalization with overlap
     ethr =  4.04E-11,  avg # of iterations =  7.2

[...]

     total energy              =   -3295.80747359 Ry
     estimated scf accuracy    <       0.00000011 Ry

     iteration # 52     ecut=    29.40 Ry     beta= 0.05
     Davidson diagonalization with overlap
     c_bands:  1 eigenvalues not converged
     ethr =  2.48E-11,  avg # of iterations =  9.6

     negative rho (up, down):  3.607E-02 0.000E+00

     Adding external electric field

     Computed dipole along edir(3) :
        Dipole                1.5126 Ry au,          3.8447 Debye
        Dipole field          0.0019 Ry au,

        Potential amp.       -0.1764 Ry
        Total length         46.3494 bohr

     End of self-consistent calculation

          k = 0.0000 0.0000 0.0000 ( 26871 PWs)   bands (ev):

   -57.7235 -57.6978 -57.6875 -57.6607 -57.6525 -57.6147 -57.6077 -57.5974
   -57.5701 -57.5549 -57.5069 -57.4764 -57.4599 -57.4538 -57.4457 -56.7455
   -56.7214 -56.7169 -34.1051 -34.1031 -34.0932 -34.0843 -34.0699 -34.0553
   -34.0527 -34.0407 -34.0276 -34.0170 -33.9870 -33.9693 -33.9486 -33.9425
   -33.9347 -33.9164 -33.9109 -33.9087 -33.8913 -33.8861 -33.8622 -33.8586
   -33.8414 -33.8320 -33.8279 -33.8217 -33.8108 -33.8089 -33.8027 -33.7925
   -33.7823 -33.7804 -33.7660 -33.7332 -33.7208 -33.7174 -33.7021 -33.7018
   -33.6951 -33.6936 -33.6819 -33.6735 -33.6666 -33.6608 -33.6383 -33.0608
   -33.0598 -33.0553 -33.0437 -33.0395 -32.9716 -32.9096 -32.9043 -32.7714
   -19.2995 -18.7152 -18.5183 -18.2218 -18.0150 -17.9728 -17.9390 -17.8184
   -17.7830 -17.7591 -17.6621 -17.6506 -17.5863 -17.5320 -17.5043 -17.4549
   -17.4378 -17.3770 -17.3633 -17.3550 -17.3497 -17.3392 -17.3293 -17.2637
   -17.2366 -17.2090 -17.1696 -17.1539 -17.1474 -17.1399 -17.1172 -16.8448
   -15.5001 -15.2120 -15.1539 -15.1527 -15.1010  -6.9841  -6.8091  -6.6177
    -6.3549  -5.8593  -5.7860  -5.6361  -5.5123  -5.2202  -5.1920  -5.1408
    -5.1141  -5.0855  -5.0206  -5.0007  -4.9877  -4.9326  -4.9148  -4.8424
    -4.8193  -4.7780  -4.7536  -4.7285  -4.6834  -4.6434  -4.6155  -4.6042
    -4.5733  -4.5657  -4.5094  -4.4858  -4.4563  -4.4508  -4.4349  -4.3246
    -4.2935  -4.2377  -4.1660  -4.0908  -4.0380  -4.0294  -3.9734  -3.9542
    -3.9017  -3.8593  -3.8249  -3.8166  -3.7796  -3.7408  -3.6399  -3.6124
    -3.5862  -3.5207  -3.4986  -3.4301  -3.4126  -3.3781  -3.3374  -3.3316
    -3.2953  -3.1965  -3.1623  -3.0822  -3.0258  -2.9713  -2.9338  -2.8888
    -2.8425  -2.8091  -2.7836  -2.7021  -2.6280  -2.5430  -2.4919  -2.4793
    -2.4671  -2.4168  -2.4101  -2.4070  -2.3498  -2.3241  -2.3127  -2.2749
    -2.2248  -2.2018  -2.1393  -2.0930  -2.0595  -1.9917  -1.9760  -1.8952
    -1.8841  -1.8253  -1.7823  -1.7429  -1.6314  -1.5956  -1.5641  -1.5616
    -1.4427  -1.4065  -1.1417  -1.0040  -0.8005  -0.7573  -0.4990  -0.4502
    -0.4474  -0.1844  -0.1811  -0.0528   1.3233   1.5120   1.6457   1.7010
     1.7060   1.7396   1.8065   1.8921   1.9186   1.9648   1.9955

[...]

          k = 0.0380-0.0280 0.0000 ( 26873 PWs)   bands (ev):

[...]

          k =-0.0760-0.0000 0.0000 ( 26902 PWs)   bands (ev):

[...]

          k =-0.0760-0.0559 0.0000 ( 26868 PWs)   bands (ev):

   -57.7200 -57.7055 -57.6833 -57.6595 -57.6524 -57.6151 -57.6092 -57.5971
   -57.5695 -57.5546 -57.5071 -57.4713 -57.4639 -57.4595 -57.4409 -56.7393
   -56.7340 -56.7105 -34.1925 -34.1564 -34.1505 -34.0932 -34.0590 -34.0512
   -34.0405 -34.0379 -34.0006 -33.9669 -33.9341 -33.9182 -33.9139 -33.9125
   -33.9011 -33.8966 -33.8783 -33.8718 -33.8672 -33.8662 -33.8618 -33.8578
   -33.8525 -33.8423 -33.8300 -33.8250 -33.8224 -33.8164 -33.8117 -33.7924
   -33.7921 -33.7692 -33.7624 -33.7550 -33.7491 -33.7331 -33.7234 -33.7192
   -33.7004 -33.6988 -33.6972 -33.6940 -33.6850 -33.6664 -33.6496 -33.1496
   -33.0605 -33.0553 -33.0329 -32.9531 -32.9472 -32.8855 -32.8709 -32.8656
   -19.2864 -18.6803 -18.2708 -18.1340 -17.9624 -17.9197 -17.8467 -17.8337
   -17.8215 -17.7927 -17.7004 -17.6773 -17.6504 -17.5679 -17.5479 -17.4990
   -17.4552 -17.4418 -17.4224 -17.4128 -17.4046 -17.3871 -17.3540 -17.3220
   -17.2896 -17.2370 -17.1759 -17.1561 -17.1081 -17.0934 -17.0627 -16.8786
   -15.4947 -15.2099 -15.2079 -15.1023 -15.0911  -6.9886  -6.8436  -6.6081
    -6.3357  -5.5159  -5.4527  -5.3696  -5.3536  -5.2355  -5.2040  -5.0124
    -5.0030  -4.9880  -4.9566  -4.9243  -4.8878  -4.8612  -4.8372  -4.8236
    -4.8101  -4.7886  -4.7626  -4.7505  -4.7343  -4.6903  -4.6434  -4.6371
    -4.6259  -4.6035  -4.5499  -4.5045  -4.4760  -4.4237  -4.4193  -4.3397
    -4.3166  -4.2986  -4.2239  -4.2163  -4.0970  -3.9467  -3.8856  -3.8658
    -3.8419  -3.7946  -3.7836  -3.7308  -3.7101  -3.6902  -3.5537  -3.4720
    -3.4495  -3.4149  -3.3833  -3.3600  -3.3249  -3.2974  -3.2748  -3.2496
    -3.2337  -3.1803  -3.1635  -3.1212  -3.0794  -2.9973  -2.9537  -2.8954
    -2.8729  -2.8544  -2.8359  -2.8320  -2.8122  -2.7790  -2.7498  -2.6911
    -2.6851  -2.6546  -2.5830  -2.5297  -2.5004  -2.4755  -2.4335  -2.4266
    -2.2715  -2.2500  -2.2176  -2.2069  -2.1330  -2.0873  -1.9979  -1.9717
    -1.9484  -1.8774  -1.8054  -1.7628  -1.7065  -1.5099  -1.5011  -1.3820
    -1.3453  -1.2964  -1.2709  -1.2271  -1.0681  -0.7522  -0.6615  -0.3782
    -0.3670  -0.3410  -0.1857  -0.1793   1.4305   1.4541   1.5395   1.5963
     1.6145   1.6522   1.6651   1.7038   1.7245   1.7812   1.9169

     the Fermi energy is     1.3743 ev

!    total energy              =   -3295.80756249 Ry
     estimated scf accuracy    <       0.00000006 Ry
     smearing contrib. (-TS)   =      -0.03570855 Ry
     internal energy E=F+TS    =   -3295.77185394 Ry

     The total energy is F=E-TS. E is the sum of the following terms:
     one-electron contribution =  -34705.74866714 Ry
     hartree contribution      =   17418.80614754 Ry
     xc contribution           =    -543.85937952 Ry
     ewald contribution        =   14535.02716662 Ry
     electric field correction =       0.00287857 Ry

     convergence has been achieved in  52 iterations

     Forces acting on atoms (cartesian axes, Ry/au):

     atom    1 type  1   force =    -0.00168790    0.00377810    0.05471847
     atom    2 type  1   force =     0.00024265   -0.00249896   -0.00837089
     atom    3 type  1   force =     0.00046885   -0.00341829    0.00032105
     atom    4 type  1   force =     0.00004480   -0.00002530    0.10675908
     atom    5 type  1   force =    -0.00020324    0.00065612    0.00660487
     atom    6 type  1   force =     0.00002699   -0.00428800    0.00367929
     atom    7 type  1   force =     0.06648151    0.00080002   -0.02965693
     atom    8 type  1   force =     0.00657703   -0.02713069    0.00195723
     atom    9 type  1   force =     0.00665762   -0.02255840    0.00512610
     atom   10 type  2   force =    -0.00011743   -0.00450074   -0.18344761
     atom   11 type  2   force =     0.00067224    0.02087923   -0.00413843
     atom   12 type  2   force =    -0.00176965    0.02766480   -0.00666085
     atom   13 type  1   force =    -0.06654118    0.00045268   -0.02980217
     atom   14 type  1   force =    -0.00432077   -0.02770682    0.00253694
     atom   15 type  1   force =    -0.00660939   -0.02335831    0.00502113
     atom   16 type  2   force =     0.00008471    0.00069418    0.06698998
     atom   17 type  2   force =    -0.00237741    0.03352246    0.00354424
     atom   18 type  2   force =     0.00126239    0.02450445   -0.00372038
     atom   19 type  1   force =    -0.00169856    0.00675314    0.05327556
     atom   20 type  1   force =     0.00023958   -0.00115163   -0.00657632
     atom   21 type  1   force =     0.00003409    0.00110326    0.10723214
     atom   22 type  1   force =    -0.00025333   -0.00198563    0.00723706
     atom   23 type  1   force =     0.00072493   -0.00592367    0.00409799
     atom   24 type  1   force =     0.06751167    0.00137403   -0.02906238
     atom   25 type  1   force =     0.00526040   -0.03017079    0.00245878
     atom   26 type  1   force =     0.00690868   -0.02598569   -0.00408397
     atom   27 type  2   force =     0.00011333   -0.00120786   -0.18673246
     atom   28 type  2   force =     0.00007642    0.02386866   -0.00248142
     atom   29 type  2   force =    -0.00111419    0.02264695    0.00109158
     atom   30 type  1   force =    -0.06761734    0.00087047   -0.02891356
     atom   31 type  1   force =    -0.00535544   -0.02963318    0.00279686
     atom   32 type  1   force =    -0.00445725   -0.02232532    0.00269153
     atom   33 type  2   force =    -0.00005024    0.00131150    0.07475999
     atom   34 type  2   force =     0.00093028    0.03692684    0.00416826
     atom   35 type  2   force =    -0.00254574    0.03459496    0.00372690
     atom   36 type  1   force =    -0.00186589    0.00288920    0.05588921
     atom   37 type  1   force =     0.00133931    0.00397283   -0.01115048
     atom   38 type  1   force =    -0.00772008   -0.00372367    0.00736162
     atom   39 type  1   force =     0.00002120   -0.00063787    0.10724704
     atom   40 type  1   force =     0.00015670   -0.00142304    0.00716637
     atom   41 type  1   force =    -0.00025810   -0.00409852    0.00157788
     atom   42 type  1   force =     0.06784333   -0.00221000   -0.02970266
     atom   43 type  1   force =     0.00367017   -0.02636750    0.00153138
     atom   44 type  1   force =     0.01026199   -0.01801975    0.00275143
     atom   45 type  2   force =     0.00003161    0.00216945   -0.18329838
     atom   46 type  2   force =    -0.00023794    0.01482093    0.00201929
     atom   47 type  2   force =     0.00285002    0.02552628   -0.00787565
     atom   48 type  1   force =    -0.06790919   -0.00283710   -0.02985789
     atom   49 type  1   force =    -0.00373535   -0.02550957    0.00183272
     atom   50 type  1   force =    -0.00815806   -0.02368936    0.00529317
     atom   51 type  2   force =     0.00045137   -0.00349598    0.06841199
     atom   52 type  2   force =    -0.00010655    0.03118451    0.00600760
     atom   53 type  2   force =    -0.00211398    0.02593391   -0.00067319
     atom   54 type  3   force =     0.00205400   -0.00191445   -0.00045600
     atom   55 type  4   force =    -0.00063569    0.00039828   -0.00051584
     atom   56 type  4   force =     0.00029084    0.00086850    0.00125698
     atom   57 type  3   force =     0.00132257   -0.00280073   -0.00028452
     atom   58 type  4   force =     0.00051682    0.00104157   -0.00006718
     atom   59 type  4   force =     0.00004789    0.00029164    0.00071114
     atom   60 type  4   force =     0.00554275    0.00022086   -0.00342867
     atom   61 type  4   force =    -0.00125889   -0.00112297    0.00110498

     Total force =     0.459591     Total SCF correction =     0.000511
  @ DRIVER MODE: Message from server: STATUS
  @ DRIVER MODE: Message from server: GETFORCE
  @ DRIVER MODE: Returning v,forces,stress,ensemble

     Writing output data file ./calc.save/
  @ DRIVER MODE: Message from server: EXIT
  @ DRIVE MODE: Exiting

     General routines

     Parallel routines

   This run was terminated on:   5:56: 2  19Oct2021

   JOB DONE.