     Program PWSCF v.6.7GPU starts on 15Sep2021 at 15:55: 2

     R & G space division:  proc/nbgrp/npool/nimage =      10
     Reading input from /storage/home/hcoda1/3/ntian30/research/carbon/CxH_vib/H2O_calc/ads_slab/CH2OHH2O_a/out_0001/pw.inp
Warning: card &CELL ignored
Warning: card   CELL_DYNAMICS='IPI', ignored
Warning: card / ignored

     Current dimensions of program PWSCF are:
     Max number of different atomic species (ntypx) = 10
     Max number of k-points (npk) =  40000
     Max angular momentum in pseudopotentials (lmaxx) =  3
     Presently no symmetry can be used with electric field

     Message from routine cell_base_init:
     DEPRECATED: use true lattice parameter, not A to a.u. conversion factor

     IMPORTANT: XC functional enforced from input :
     Exchange-correlation= BEEF-VDW
                           (   1   4  43  14   2   0   0)
     Any further DFT definition will be discarded
     Please, verify this is what you really want

  @ DRIVER MODE: Connecting to
 qe_1139763_2852615.sched-torque.pace.gatech.edurzddaq6u_scratch
  using UNIX socket
  @ DRIVER MODE: Message from server: STATUS
  @ DRIVER MODE: Message from server: INIT
  @ DRIVER MODE: Receiving replica           0          -1
  @ DRIVER MODE: Receiving encoded integer          25
  @ DRIVER MODE:  SCF:  T  FORCE:  T  STRESS:  F  VC:  F  ENSEMBLE:  F
  @ DRIVER MODE:  SCF:  T  FORCE:  T  STRESS:  F  VC:  F  ENSEMBLE:  F

     Using Slab Decomposition

     bravais-lattice index     =            0
     lattice parameter (alat)  =       1.8897  a.u.
     unit-cell volume          =    6658.9804 (a.u.)^3
     number of atoms/cell      =           55
     number of atomic types    =            4
     number of electrons       =       399.00
     number of Kohn-Sham states=          209
     kinetic-energy cutoff     =      29.3995  Ry
     charge density cutoff     =     293.9946  Ry
     scf convergence threshold =      7.3E-08
     mixing beta               =       0.0500
     number of iterations used =            8  plain     mixing
     Exchange-correlation= BEEF-VDW
                           (   1   4  43  14   2   0   0)

     celldm(1)=   1.889726  celldm(2)=   0.000000  celldm(3)=   0.000000
     celldm(4)=   0.000000  celldm(5)=   0.000000  celldm(6)=   0.000000

     crystal axes: (cart. coord. in units of alat)
               a(1) = (   6.579727   0.000000   0.000000 )
               a(2) = (  -0.000775   5.961596   0.000000 )
               a(3) = (   0.000000   0.000000  25.155947 )

     reciprocal axes: (cart. coord. in units 2 pi/alat)
               b(1) = (  0.151982  0.000020  0.000000 )
               b(2) = (  0.000000  0.167740  0.000000 )
               b(3) = (  0.000000  0.000000  0.039752 )

     PseudoPot. # 1 for Ti read from file:
     /storage/coda1/p-amedford6/0/shared/rich_project_chbe-medford/medford-share/data/pseudos_module/espresso/nninc/pbe/van/Ti.UPF
     MD5 check sum: 8e4df49b7f0d34bbd5052bf3f5ea0213
     Pseudo is Ultrasoft, Zval = 12.0
     Generated by new atomic code, or converted to UPF format
     Using radial grid of  851 points,  6 beta functions with:
                l(1) =   0
                l(2) =   0
                l(3) =   1
                l(4) =   1
                l(5) =   2
                l(6) =   2
     Q(r) pseudized with  8 coefficients,  rinner =    1.000   1.000   1.000
                                                       1.000   1.000

     PseudoPot. # 2 for O  read from file:
     /storage/coda1/p-amedford6/0/shared/rich_project_chbe-medford/medford-share/data/pseudos_module/espresso/nninc/pbe/van/O.UPF
     MD5 check sum: 78c19812648e8988a0fe644b0f25305e
     Pseudo is Ultrasoft, Zval =  6.0
     Generated by new atomic code, or converted to UPF format
     Using radial grid of  737 points,  4 beta functions with:
                l(1) =   0
                l(2) =   0
                l(3) =   1
                l(4) =   1
     Q(r) pseudized with  8 coefficients,  rinner =    0.800   0.800   0.800

     PseudoPot. # 3 for C  read from file:
     /storage/coda1/p-amedford6/0/shared/rich_project_chbe-medford/medford-share/data/pseudos_module/espresso/nninc/pbe/van/C.UPF
     MD5 check sum: 1a69bf6b8db32088f5b2163dbdb77a27
     Pseudo is Ultrasoft, Zval =  4.0
     Generated by new atomic code, or converted to UPF format
     Using radial grid of  721 points,  4 beta functions with:
                l(1) =   0
                l(2) =   0
                l(3) =   1
                l(4) =   1
     Q(r) pseudized with  8 coefficients,  rinner =    0.800   0.800   0.800

     PseudoPot. # 4 for H  read from file:
     /storage/coda1/p-amedford6/0/shared/rich_project_chbe-medford/medford-share/data/pseudos_module/espresso/nninc/pbe/van/H.UPF
     MD5 check sum: b5ee9d7bfd3a09ee7748110bda690ff7
     Pseudo is Ultrasoft, Zval =  1.0
     Generated by new atomic code, or converted to UPF format
     Using radial grid of  615 points,  1 beta functions with:
                l(1) =   0
     Q(r) pseudized with  8 coefficients,  rinner =    0.800

     atomic species   valence    mass     pseudopotential
        Ti1           12.00    47.86700     Ti( 1.00)
        O1             6.00    15.99900     O ( 1.00)
        C1             4.00    12.01100     C ( 1.00)
        H1             1.00     1.00800     H ( 1.00)

     No symmetry found

   Cartesian axes

     site n.     atom                  positions (alat units)
         1           Ti1 tau(   1) = (   0.0004258   2.9801865   6.0000000  )
         2           Ti1 tau(   2) = (   3.2906075   1.4906267   6.0002472  )
         3           O1  tau(   3) = (   0.0006271   0.0005054   7.9858123  )
         4           O1  tau(   4) = (   3.2906025   0.0005020   7.3038282  )
         5           O1  tau(   5) = (   4.5942328   1.4918067   9.2879030  )
         6           O1  tau(   6) = (   1.9868534   1.4903216   9.2879459  )
         7           Ti1 tau(   7) = (   3.2434587   3.0186650   9.1693953  )
         8           Ti1 tau(   8) = (   6.5248695   1.5265067   9.2859949  )
         9           O1  tau(   9) = (   3.3238096   0.0077392  11.3399147  )
        10           O1  tau(  10) = (   0.0083103   0.0007143  10.5763085  )
        11           O1  tau(  11) = (   1.3076427   1.5153157  12.5877682  )
        12           O1  tau(  12) = (   5.3324098   1.4751673  12.6362968  )
        13           Ti1 tau(  13) = (   0.0822926   2.9518924  12.6100891  )
        14           Ti1 tau(  14) = (   3.3652580   1.6116561  12.6031695  )
        15           O1  tau(  15) = (   0.1623142   0.0003102  14.6136642  )
        16           O1  tau(  16) = (   3.2083997   0.0016335  13.9229753  )
        17           O1  tau(  17) = (   4.6427586   1.3635169  15.8692112  )
        18           O1  tau(  18) = (   2.0707938   1.5934636  16.1317492  )
        19           Ti1 tau(  19) = (   3.4055461   2.9583945  15.9219660  )
        20           Ti1 tau(  20) = (   0.0529163   1.3399360  15.9091509  )
        21           O1  tau(  21) = (   3.2904802   0.0005063   4.7018136  )
        22           O1  tau(  22) = (   0.1143047   5.9459637  17.1421970  )
        23           O1  tau(  23) = (   1.3043587   1.4918075   6.0039043  )
        24           O1  tau(  24) = (   5.2767064   1.4903225   6.0039473  )
        25           Ti1 tau(  25) = (   0.0000382   5.9609847   6.0000000  )
        26           Ti1 tau(  26) = (   3.2902200   4.4714249   6.0002472  )
        27           O1  tau(  27) = (   0.0002396   2.9813036   7.9858123  )
        28           O1  tau(  28) = (   3.2902150   2.9813002   7.3038282  )
        29           O1  tau(  29) = (   4.5938453   4.4726049   9.2879030  )
        30           O1  tau(  30) = (   1.9864658   4.4711199   9.2879459  )
        31           Ti1 tau(  31) = (   3.2519499   0.0415563   9.1803751  )
        32           Ti1 tau(  32) = (   6.5223785   4.4699269   9.2708698  )
        33           O1  tau(  33) = (   3.3249262   3.0006027  11.3427062  )
        34           O1  tau(  34) = (   6.5728067   2.9803724  10.5910131  )
        35           O1  tau(  35) = (   1.3048910   4.4590737  12.5876729  )
        36           O1  tau(  36) = (   5.3248012   4.5079456  12.6396186  )
        37           Ti1 tau(  37) = (   0.0305998   5.9348532  12.4502240  )
        38           Ti1 tau(  38) = (   3.3518916   4.5407868  12.4757475  )
        39           O1  tau(  39) = (   0.0741357   2.9755951  14.7167286  )
        40           O1  tau(  40) = (   3.3703583   2.9475192  13.9294239  )
        41           O1  tau(  41) = (   4.6408928   4.5782690  15.8216857  )
        42           O1  tau(  42) = (   2.0743197   4.3710070  16.0958311  )
        43           Ti1 tau(  43) = (   3.3271525   5.9323444  15.7323421  )
        44           Ti1 tau(  44) = (   0.0603002   4.5335970  15.7939964  )
        45           O1  tau(  45) = (   3.2900926   2.9813045   4.7018136  )
        46           O1  tau(  46) = (   1.3039711   4.4726057   6.0039043  )
        47           O1  tau(  47) = (   5.2763189   4.4711207   6.0039473  )
        48           C1  tau(  48) = (   4.5817920   3.0228413  17.9030398  )
        49           O1  tau(  49) = (   6.0625861   3.0006587  17.4562122  )
        50           H1  tau(  50) = (   0.0503952   3.1075262  18.2373115  )
        51           H1  tau(  51) = (   4.5265887   2.1706275  18.5876854  )
        52           H1  tau(  52) = (   4.4781653   3.9549082  18.4551422  )
        53           O1  tau(  53) = (   2.8659371   5.8926936  18.2031264  )
        54           H1  tau(  54) = (   3.0528466   0.8172038  18.5446680  )
        55           H1  tau(  55) = (   1.8959954   5.8777970  18.0521013  )

     number of k points=    10  Fermi-Dirac smearing, width (Ry)=  0.0073
                       cart. coord. in units 2pi/alat
        k(    1) = (   0.0000000   0.0000000   0.0000000), wk =   0.1250000
        k(    2) = (   0.0000000   0.0419351   0.0000000), wk =   0.2500000
        k(    3) = (   0.0000000  -0.0838702   0.0000000), wk =   0.1250000
        k(    4) = (   0.0379955   0.0000049   0.0000000), wk =   0.2500000
        k(    5) = (   0.0379955   0.0419400   0.0000000), wk =   0.2500000
        k(    6) = (   0.0379955  -0.0838652   0.0000000), wk =   0.2500000
        k(    7) = (   0.0379955  -0.0419301   0.0000000), wk =   0.2500000
        k(    8) = (  -0.0759910  -0.0000099   0.0000000), wk =   0.1250000
        k(    9) = (  -0.0759910   0.0419252   0.0000000), wk =   0.2500000
        k(   10) = (  -0.0759910  -0.0838800   0.0000000), wk =   0.1250000

     Initial potential from superposition of free atoms

     starting charge  382.99916, renormalised to  399.00000

     negative rho (up, down):  1.858E-02 0.000E+00

     %%%%%%%%%%%%%%%%%%%%%%%%%%%%%%%%%%%%%%%%%%%%%%%%%%%%%%%%%%%%%%%%%%%%%%%%
     %                                                                      %
     % You are using vdW-DF, which was implemented by the Thonhauser group. %
     % Please cite the following two papers that made this development      %
     % possible and the two reviews that describe the various versions:     %
     %                                                                      %
     %   T. Thonhauser et al., PRL 115, 136402 (2015).                      %
     %   T. Thonhauser et al., PRB 76, 125112 (2007).                       %
     %   K. Berland et al., Rep. Prog. Phys. 78, 066501 (2015).             %
     %   D.C. Langreth et al., J. Phys.: Condens. Matter 21, 084203 (2009). %
     %                                                                      %
     %                                                                      %
     % If you are calculating the stress with vdW-DF, please also cite:     %
     %                                                                      %
     %   R. Sabatini et al., J. Phys.: Condens. Matter 24, 424209 (2012).   %
     %                                                                      %
     %%%%%%%%%%%%%%%%%%%%%%%%%%%%%%%%%%%%%%%%%%%%%%%%%%%%%%%%%%%%%%%%%%%%%%%%

     Adding external electric field

     Computed dipole along edir(3) :
        Dipole               -9.7304 Ry au,        -24.7321 Debye
        Dipole field         -0.0184 Ry au,

        Potential amp.        1.7022 Ry
        Total length         46.3494 bohr

     Starting wfcs are  301 atomic wfcs
  @ DRIVER MODE: Message from server: STATUS
  @ DRIVER MODE: Message from server: POSDATA
  @ DRIVER MODE: Reading and sharing cell
  @ DRIVER MODE: Reading and sharing positions
  @ DRIVER MODE: Received positions

     Self-consistent Calculation

     iteration #  1     ecut=    29.40 Ry     beta= 0.05
     Davidson diagonalization with overlap
     c_bands:  1 eigenvalues not converged
     c_bands:  2 eigenvalues not converged
     c_bands:  3 eigenvalues not converged
     c_bands:  5 eigenvalues not converged
     c_bands:  3 eigenvalues not converged
     c_bands:  2 eigenvalues not converged
     c_bands:  3 eigenvalues not converged
     c_bands:  2 eigenvalues not converged
     ethr =  1.00E-05,  avg # of iterations = 19.8

[...]

     total energy              =   -2478.52240299 Ry
     estimated scf accuracy    <    5415.89431850 Ry

     iteration #  2     ecut=    29.40 Ry     beta= 0.05
     Davidson diagonalization with overlap
     ethr =  1.00E-02,  avg # of iterations = 24.5

[...]

     iteration # 64     ecut=    29.40 Ry     beta= 0.05
     Davidson diagonalization with overlap
     c_bands:  1 eigenvalues not converged
     ethr =  2.88E-11,  avg # of iterations = 14.8

[...]

     total energy              =   -2966.15816040 Ry
     estimated scf accuracy    <       0.00000008 Ry

     iteration # 65     ecut=    29.40 Ry     beta= 0.05
     Davidson diagonalization with overlap
     ethr =  2.00E-11,  avg # of iterations =  8.6

     negative rho (up, down):  1.797E-02 0.000E+00

     Adding external electric field

     Computed dipole along edir(3) :
        Dipole                1.0047 Ry au,          2.5536 Debye
        Dipole field          0.0019 Ry au,

        Potential amp.       -0.1757 Ry
        Total length         46.3494 bohr

     End of self-consistent calculation

          k = 0.0000 0.0000 0.0000 ( 18029 PWs)   bands (ev):

   -55.6894 -55.6530 -55.5814 -55.5735 -55.5166 -55.5147 -55.5090 -55.5062
   -55.4784 -55.4609 -55.4539 -55.4430 -55.4273 -55.3406 -54.6587 -54.6247
   -32.1785 -32.1654 -32.0552 -32.0256 -32.0033 -31.9768 -31.9564 -31.9440
   -31.9307 -31.8703 -31.8439 -31.8370 -31.8335 -31.8243 -31.7961 -31.7874
   -31.7836 -31.7645 -31.7595 -31.7487 -31.7372 -31.7317 -31.6982 -31.6927
   -31.6904 -31.6836 -31.6782 -31.6703 -31.6651 -31.6604 -31.6527 -31.6359
   -31.6321 -31.6292 -31.6242 -31.6215 -31.6138 -31.6122 -31.5869 -31.5640
   -31.5541 -31.4286 -31.0657 -30.9773 -30.9548 -30.8825 -30.7961 -30.6848
   -19.3276 -18.7442 -16.3744 -16.1777 -15.9729 -15.8593 -15.8398 -15.6585
   -15.5347 -15.3883 -15.3354 -15.3073 -15.2862 -15.2171 -15.2103 -15.1952
   -15.1601 -15.1548 -15.1188 -15.0991 -15.0930 -15.0652 -15.0138 -14.9921
   -14.9422 -14.8823 -14.8138 -14.7936 -14.7845 -14.7093 -14.6157 -13.1593
   -13.0427  -9.4269  -6.5014  -6.2470  -4.0572  -3.8172  -3.6788  -3.6409
    -3.6118  -3.5756  -3.4098  -3.3039  -3.1229  -3.0158  -2.9529  -2.8981
    -2.8655  -2.7884  -2.7468  -2.6221  -2.5992  -2.5483  -2.5163  -2.4805
    -2.4733  -2.4524  -2.4072  -2.3877  -2.3732  -2.2171  -2.2065  -2.1722
    -2.1084  -2.0770  -2.0498  -2.0130  -1.9914  -1.9642  -1.9461  -1.8994
    -1.8810  -1.8086  -1.8009  -1.7582  -1.6908  -1.6586  -1.3938  -1.3176
    -1.2954  -1.2572  -1.1931  -1.0963  -1.0923  -1.0861  -1.0857  -1.0290
    -1.0140  -0.8624  -0.8484  -0.8339  -0.7534  -0.6746  -0.5952  -0.5582
    -0.4938  -0.4443  -0.4117  -0.3835  -0.3577  -0.3028  -0.2341  -0.2098
    -0.1401  -0.0657  -0.0328   0.0194   0.0456   0.0900   0.1209   0.1964
     0.2357   0.2697   0.2977   0.3156   0.3258   0.3697   0.3890   0.4784
     0.5560   0.5839   0.5900   0.6651   0.7914   0.8740   0.9854   1.0769
     1.2987   1.3655   1.4156   1.5230   1.5546   1.9373   1.9878   3.4520
     3.5210   3.5803   3.5809   3.6158   3.6964   3.8994   3.9459   4.0050
     4.0377

[...]

          k = 0.0380-0.0419 0.0000 ( 17876 PWs)   bands (ev):

[...]

          k =-0.0760-0.0000 0.0000 ( 17886 PWs)   bands (ev):

[...]

          k =-0.0760-0.0839 0.0000 ( 17948 PWs)   bands (ev):

   -55.6777 -55.6645 -55.5760 -55.5688 -55.5207 -55.5136 -55.5113 -55.5027
   -55.4632 -55.4600 -55.4574 -55.4461 -55.4425 -55.3421 -54.6416 -54.6416
   -32.0974 -31.9868 -31.9761 -31.9742 -31.9521 -31.9013 -31.8748 -31.8530
   -31.8467 -31.8416 -31.8388 -31.8154 -31.8142 -31.7996 -31.7987 -31.7893
   -31.7882 -31.7798 -31.7782 -31.7751 -31.7722 -31.7625 -31.7411 -31.7357
   -31.7298 -31.7178 -31.7110 -31.7039 -31.7019 -31.6876 -31.6732 -31.6676
   -31.6652 -31.6625 -31.6607 -31.6543 -31.6528 -31.6509 -31.6489 -31.6463
   -31.6301 -31.4307 -30.9676 -30.9675 -30.8789 -30.8782 -30.8395 -30.8390
   -19.3209 -18.7432 -15.9921 -15.6539 -15.6408 -15.6356 -15.6048 -15.4831
   -15.4596 -15.4370 -15.3915 -15.3615 -15.3556 -15.3323 -15.2879 -15.2316
   -15.2125 -15.2048 -15.1951 -15.1427 -15.1284 -15.1175 -15.0717 -15.0311
   -15.0280 -15.0049 -14.9785 -14.9733 -14.9728 -14.9452 -14.8761 -13.1461
   -13.1429  -9.4331  -6.5006  -6.2275  -4.0133  -3.6848  -3.1603  -3.0387
    -2.8711  -2.8480  -2.7978  -2.7752  -2.7230  -2.6542  -2.6255  -2.6140
    -2.6123  -2.5785  -2.5158  -2.4819  -2.4779  -2.4386  -2.4202  -2.4124
    -2.3920  -2.3670  -2.3421  -2.3234  -2.3175  -2.2818  -2.2692  -2.2540
    -2.2481  -2.2370  -2.2172  -2.1769  -2.0703  -1.9482  -1.9142  -1.8790
    -1.8388  -1.7799  -1.7738  -1.7596  -1.7256  -1.7249  -1.7087  -1.6309
    -1.4649  -1.4025  -1.3429  -1.3209  -1.2462  -1.2344  -1.2192  -1.1755
    -1.1352  -1.0890  -1.0464  -1.0212  -0.9647  -0.9201  -0.7942  -0.7385
    -0.6535  -0.6483  -0.6258  -0.6108  -0.5567  -0.5321  -0.5067  -0.4624
    -0.4285  -0.3845  -0.3519  -0.3428  -0.3207  -0.2602  -0.1599  -0.1108
    -0.0480  -0.0429   0.0419   0.1698   0.3553   0.3854   0.4441   0.4948
     0.5848   0.6066   0.6554   0.6752   0.7327   0.7599   0.8010   0.8612
     0.9219   0.9499   1.4822   1.7288   1.7353   1.7985   1.8079   3.7433
     3.8311   3.9234   3.9374   3.9715   3.9840   3.9897   4.0189   4.0758
     4.1130

     the Fermi energy is     3.4494 ev

!    total energy              =   -2966.15821108 Ry
     estimated scf accuracy    <       0.00000003 Ry
     smearing contrib. (-TS)   =      -0.02140085 Ry
     internal energy E=F+TS    =   -2966.13681023 Ry

     The total energy is F=E-TS. E is the sum of the following terms:
     one-electron contribution =  -24755.52854033 Ry
     hartree contribution      =   12470.29032771 Ry
     xc contribution           =    -490.95500409 Ry
     ewald contribution        =    9810.05450173 Ry
     electric field correction =       0.00190475 Ry

     convergence has been achieved in  65 iterations

     Forces acting on atoms (cartesian axes, Ry/au):

     atom    1 type  1   force =     0.00075791   -0.00018231    0.09532543
     atom    2 type  1   force =     0.00024392   -0.00220975   -0.17570271
     atom    3 type  2   force =    -0.00066246   -0.00040950   -0.03008477
     atom    4 type  2   force =    -0.00085161    0.00063506    0.05235697
     atom    5 type  2   force =    -0.01385127   -0.00099935    0.00146899
     atom    6 type  2   force =     0.01581191    0.00240986    0.00319099
     atom    7 type  1   force =     0.00033876    0.00038855   -0.00026756
     atom    8 type  1   force =    -0.00036555    0.00140342    0.00066837
     atom    9 type  2   force =     0.00010787   -0.00002313    0.00023380
     atom   10 type  2   force =     0.00017740    0.00017215   -0.00057517
     atom   11 type  2   force =    -0.00022798    0.00023897    0.00017954
     atom   12 type  2   force =    -0.00038780    0.00008546    0.00007513
     atom   13 type  1   force =     0.00023017   -0.00017394   -0.00055834
     atom   14 type  1   force =    -0.00101075    0.00002498    0.00027114
     atom   15 type  2   force =     0.00005460   -0.00108773   -0.00020145
     atom   16 type  2   force =    -0.00000491   -0.00006416   -0.00016252
     atom   17 type  2   force =    -0.00050628   -0.00016313   -0.00008731
     atom   18 type  2   force =     0.00048118   -0.00029867   -0.00003656
     atom   19 type  1   force =    -0.00079823    0.00025599   -0.00061585
     atom   20 type  1   force =     0.00014711    0.00125496    0.00078472
     atom   21 type  2   force =     0.00014752    0.00019863    0.10302436
     atom   22 type  2   force =     0.00018652   -0.00109004    0.00009045
     atom   23 type  2   force =    -0.07131680    0.00094022   -0.02830338
     atom   24 type  2   force =     0.07137065    0.00133606   -0.02833803
     atom   25 type  1   force =     0.00022341    0.00038335    0.10643319
     atom   26 type  1   force =     0.00000792    0.00252835   -0.17559848
     atom   27 type  2   force =    -0.00037782    0.00013467   -0.02786602
     atom   28 type  2   force =    -0.00096281    0.00076120    0.05166274
     atom   29 type  2   force =    -0.01300137   -0.00123298    0.00107144
     atom   30 type  2   force =     0.01545570    0.00036891    0.00295315
     atom   31 type  1   force =     0.00052391    0.00002443   -0.00000593
     atom   32 type  1   force =    -0.00041489   -0.00140698    0.00018012
     atom   33 type  2   force =    -0.00016189   -0.00030929    0.00019166
     atom   34 type  2   force =     0.00000895    0.00010708   -0.00015315
     atom   35 type  2   force =    -0.00061219   -0.00018715    0.00065518
     atom   36 type  2   force =     0.00002224   -0.00036832    0.00023805
     atom   37 type  1   force =     0.00059739    0.00027876    0.00055247
     atom   38 type  1   force =    -0.00092442    0.00012331    0.00045435
     atom   39 type  2   force =    -0.00015936    0.00066645    0.00010896
     atom   40 type  2   force =    -0.00006612   -0.00051809   -0.00079340
     atom   41 type  2   force =     0.00104723   -0.00018545   -0.00001770
     atom   42 type  2   force =    -0.00078275   -0.00016579    0.00006023
     atom   43 type  1   force =     0.00009824   -0.00099887   -0.00007526
     atom   44 type  1   force =    -0.00044738   -0.00010567    0.00031285
     atom   45 type  2   force =     0.00012209    0.00015403    0.10329503
     atom   46 type  2   force =    -0.07124186   -0.00125969   -0.02829839
     atom   47 type  2   force =     0.07131200   -0.00086194   -0.02833649
     atom   48 type  3   force =     0.00623405   -0.00054743   -0.00076437
     atom   49 type  2   force =    -0.00210088   -0.00016597   -0.00084417
     atom   50 type  4   force =    -0.00083640   -0.00039317    0.00015082
     atom   51 type  4   force =    -0.00180357   -0.00037777    0.00072916
     atom   52 type  4   force =    -0.00159417    0.00076331    0.00046797
     atom   53 type  2   force =     0.00154166   -0.00035861    0.00086664
     atom   54 type  4   force =    -0.00029328    0.00040282    0.00005256
     atom   55 type  4   force =    -0.00148550    0.00010389   -0.00041945

     Total force =     0.367460     Total SCF correction =     0.000409
  @ DRIVER MODE: Message from server: STATUS
  @ DRIVER MODE: Message from server: GETFORCE
  @ DRIVER MODE: Returning v,forces,stress,ensemble

     Writing output data file ./calc.save/
  @ DRIVER MODE: Message from server: EXIT
  @ DRIVE MODE: Exiting

     General routines

     Parallel routines

   This run was terminated on:  16:13: 4  15Sep2021

   JOB DONE.