     Program PWSCF v.6.7GPU starts on 16Jul2021 at 18:41:49

     R & G space division:  proc/nbgrp/npool/nimage =      16
     Reading input from /storage/home/hcoda1/3/ntian30/research/carbon/15Jul_vib/ads_slab/CH3NNHHH_a/out_0032/pw.inp
Warning: card &CELL ignored
Warning: card   CELL_DYNAMICS='IPI', ignored
Warning: card / ignored

     Current dimensions of program PWSCF are:
     Max number of different atomic species (ntypx) = 10
     Max number of k-points (npk) =  40000
     Max angular momentum in pseudopotentials (lmaxx) =  3
     Presently no symmetry can be used with electric field

     Message from routine cell_base_init:
     DEPRECATED: use true lattice parameter, not A to a.u. conversion factor

     IMPORTANT: XC functional enforced from input :
     Exchange-correlation= BEEF-VDW
                           (   1   4  43  14   2   0   0)
     Any further DFT definition will be discarded
     Please, verify this is what you really want

  @ DRIVER MODE: Connecting to
 qe_1139763_2351652.sched-torque.pace.gatech.edunpj5_lcg_scratch
  using UNIX socket
  @ DRIVER MODE: Message from server: STATUS
  @ DRIVER MODE: Message from server: INIT
  @ DRIVER MODE: Receiving replica           0          -1
  @ DRIVER MODE: Receiving encoded integer          25
  @ DRIVER MODE:  SCF:  T  FORCE:  T  STRESS:  F  VC:  F  ENSEMBLE:  F
  @ DRIVER MODE:  SCF:  T  FORCE:  T  STRESS:  F  VC:  F  ENSEMBLE:  F

     Using Slab Decomposition

     bravais-lattice index     =            0
     lattice parameter (alat)  =       1.8897  a.u.
     unit-cell volume          =    6658.9804 (a.u.)^3
     number of atoms/cell      =           56
     number of atomic types    =            5
     number of electrons       =       398.00
     number of Kohn-Sham states=          209
     kinetic-energy cutoff     =      29.3995  Ry
     charge density cutoff     =     293.9946  Ry
     scf convergence threshold =      7.3E-08
     mixing beta               =       0.0500
     number of iterations used =            8  plain     mixing
     Exchange-correlation= BEEF-VDW
                           (   1   4  43  14   2   0   0)

     celldm(1)=   1.889726  celldm(2)=   0.000000  celldm(3)=   0.000000
     celldm(4)=   0.000000  celldm(5)=   0.000000  celldm(6)=   0.000000

     crystal axes: (cart. coord. in units of alat)
               a(1) = (   6.579727   0.000000   0.000000 )
               a(2) = (  -0.000775   5.961596   0.000000 )
               a(3) = (   0.000000   0.000000  25.155947 )

     reciprocal axes: (cart. coord. in units 2 pi/alat)
               b(1) = (  0.151982  0.000020  0.000000 )
               b(2) = (  0.000000  0.167740  0.000000 )
               b(3) = (  0.000000  0.000000  0.039752 )

     PseudoPot. # 1 for Ti read from file:
     /storage/coda1/p-amedford6/0/shared/rich_project_chbe-medford/medford-share/data/pseudos_module/espresso/nninc/pbe/van/Ti.UPF
     MD5 check sum: 8e4df49b7f0d34bbd5052bf3f5ea0213
     Pseudo is Ultrasoft, Zval = 12.0
     Generated by new atomic code, or converted to UPF format
     Using radial grid of  851 points,  6 beta functions with:
                l(1) =   0
                l(2) =   0
                l(3) =   1
                l(4) =   1
                l(5) =   2
                l(6) =   2
     Q(r) pseudized with  8 coefficients,  rinner =    1.000   1.000   1.000
                                                       1.000   1.000

     PseudoPot. # 2 for O  read from file:
     /storage/coda1/p-amedford6/0/shared/rich_project_chbe-medford/medford-share/data/pseudos_module/espresso/nninc/pbe/van/O.UPF
     MD5 check sum: 78c19812648e8988a0fe644b0f25305e
     Pseudo is Ultrasoft, Zval =  6.0
     Generated by new atomic code, or converted to UPF format
     Using radial grid of  737 points,  4 beta functions with:
                l(1) =   0
                l(2) =   0
                l(3) =   1
                l(4) =   1
     Q(r) pseudized with  8 coefficients,  rinner =    0.800   0.800   0.800

     PseudoPot. # 3 for N  read from file:
     /storage/coda1/p-amedford6/0/shared/rich_project_chbe-medford/medford-share/data/pseudos_module/espresso/nninc/pbe/van/N.UPF
     MD5 check sum: 90d10febe142ad51ac9d5be1deb811c4
     Pseudo is Ultrasoft, Zval =  5.0
     Generated by new atomic code, or converted to UPF format
     Using radial grid of  729 points,  4 beta functions with:
                l(1) =   0
                l(2) =   0
                l(3) =   1
                l(4) =   1
     Q(r) pseudized with  8 coefficients,  rinner =    0.800   0.800   0.800

     PseudoPot. # 4 for C  read from file:
     /storage/coda1/p-amedford6/0/shared/rich_project_chbe-medford/medford-share/data/pseudos_module/espresso/nninc/pbe/van/C.UPF
     MD5 check sum: 1a69bf6b8db32088f5b2163dbdb77a27
     Pseudo is Ultrasoft, Zval =  4.0
     Generated by new atomic code, or converted to UPF format
     Using radial grid of  721 points,  4 beta functions with:
                l(1) =   0
                l(2) =   0
                l(3) =   1
                l(4) =   1
     Q(r) pseudized with  8 coefficients,  rinner =    0.800   0.800   0.800

     PseudoPot. # 5 for H  read from file:
     /storage/coda1/p-amedford6/0/shared/rich_project_chbe-medford/medford-share/data/pseudos_module/espresso/nninc/pbe/van/H.UPF
     MD5 check sum: b5ee9d7bfd3a09ee7748110bda690ff7
     Pseudo is Ultrasoft, Zval =  1.0
     Generated by new atomic code, or converted to UPF format
     Using radial grid of  615 points,  1 beta functions with:
                l(1) =   0
     Q(r) pseudized with  8 coefficients,  rinner =    0.800

     atomic species   valence    mass     pseudopotential
        Ti1           12.00    47.86700     Ti( 1.00)
        O1             6.00    15.99900     O ( 1.00)
        N1             5.00    14.00700     N ( 1.00)
        C1             4.00    12.01100     C ( 1.00)
        H1             1.00     1.00800     H ( 1.00)

     Starting magnetic structure
     atomic species   magnetization
        Ti1          0.000
        O1           0.000
        N1           0.000
        C1           0.025
        H1           0.000

     No symmetry found

   Cartesian axes

     site n.     atom                  positions (alat units)
         1           Ti1 tau(   1) = (   0.0004258   2.9801865   6.0000000  )
         2           Ti1 tau(   2) = (   3.2906075   1.4906267   6.0002472  )
         3           O1  tau(   3) = (   0.0006271   0.0005054   7.9858123  )
         4           O1  tau(   4) = (   3.2906025   0.0005020   7.3038282  )
         5           O1  tau(   5) = (   4.5942328   1.4918067   9.2879030  )
         6           O1  tau(   6) = (   1.9868534   1.4903216   9.2879459  )
         7           Ti1 tau(   7) = (   3.2907910   2.8959150   9.1758416  )
         8           Ti1 tau(   8) = (   0.0015273   1.4827037   9.2680791  )
         9           O1  tau(   9) = (   3.2969863   5.9453513  11.3493076  )
        10           O1  tau(  10) = (   0.0116148   5.9584955  10.6183126  )
        11           O1  tau(  11) = (   1.3059050   1.4736943  12.6642453  )
        12           O1  tau(  12) = (   5.3003793   1.4775083  12.6459419  )
        13           Ti1 tau(  13) = (   0.0167275   2.9625105  12.5508078  )
        14           Ti1 tau(  14) = (   3.3131340   1.4712512  12.4909780  )
        15           O1  tau(  15) = (   6.5517612   5.9325698  14.7566896  )
        16           O1  tau(  16) = (   3.3302114   5.9429442  13.9823395  )
        17           O1  tau(  17) = (   4.5243935   1.5056208  16.2316672  )
        18           O1  tau(  18) = (   2.0170937   1.4633510  16.1378485  )
        19           Ti1 tau(  19) = (   3.2500237   2.9242626  15.6920970  )
        20           Ti1 tau(  20) = (   6.5441017   1.2779805  16.1516014  )
        21           O1  tau(  21) = (   3.2904802   0.0005063   4.7018136  )
        22           O1  tau(  22) = (   6.5540411   5.9581837  17.3465722  )
        23           O1  tau(  23) = (   1.3043587   1.4918075   6.0039043  )
        24           O1  tau(  24) = (   5.2767064   1.4903225   6.0039473  )
        25           Ti1 tau(  25) = (   0.0000382   5.9609847   6.0000000  )
        26           Ti1 tau(  26) = (   3.2902200   4.4714249   6.0002472  )
        27           O1  tau(  27) = (   0.0002396   2.9813036   7.9858123  )
        28           O1  tau(  28) = (   3.2902150   2.9813002   7.3038282  )
        29           O1  tau(  29) = (   4.5938453   4.4726049   9.2879030  )
        30           O1  tau(  30) = (   1.9864658   4.4711199   9.2879459  )
        31           Ti1 tau(  31) = (   3.2891106   5.8743827   9.1763621  )
        32           Ti1 tau(  32) = (   0.0006254   4.4649316   9.2693709  )
        33           O1  tau(  33) = (   3.2962403   2.9651072  11.3429128  )
        34           O1  tau(  34) = (   0.0092240   2.9805883  10.6323155  )
        35           O1  tau(  35) = (   1.3076126   4.4641214  12.6643835  )
        36           O1  tau(  36) = (   5.2981430   4.4591552  12.6429889  )
        37           Ti1 tau(  37) = (   0.0194730   5.9489450  12.5196332  )
        38           Ti1 tau(  38) = (   3.3150505   4.4522436  12.4946186  )
        39           O1  tau(  39) = (   6.5702761   2.9869041  14.8038460  )
        40           O1  tau(  40) = (   3.3119818   2.9576719  13.9204832  )
        41           O1  tau(  41) = (   4.5223198   4.3950437  16.2490866  )
        42           O1  tau(  42) = (   2.0356696   4.4339808  16.1311045  )
        43           Ti1 tau(  43) = (   3.3057863   5.9493229  15.7677403  )
        44           Ti1 tau(  44) = (   0.0958844   4.4293496  15.8701971  )
        45           O1  tau(  45) = (   3.2900926   2.9813045   4.7018136  )
        46           O1  tau(  46) = (   1.3039711   4.4726057   6.0039043  )
        47           O1  tau(  47) = (   5.2763189   4.4711207   6.0039473  )
        48           N1  tau(  48) = (   0.0620580   3.0375546  17.6897758  )
        49           C1  tau(  49) = (   1.1116374   2.9693208  18.6984743  )
        50           H1  tau(  50) = (   1.2951007   3.9532040  19.1583453  )
        51           H1  tau(  51) = (   0.8627774   2.2426413  19.4871689  )
        52           H1  tau(  52) = (   2.0263963   2.6228967  18.2308865  )
        53           N1  tau(  53) = (   5.4379256   3.3744730  18.4033390  )
        54           H1  tau(  54) = (   5.6103604   4.1199394  19.0852601  )
        55           H1  tau(  55) = (   4.7934260   3.8076565  17.6395878  )
        56           H1  tau(  56) = (   5.0090149   2.5598412  18.8678436  )

     number of k points=    10  Fermi-Dirac smearing, width (Ry)=  0.0073
                       cart. coord. in units 2pi/alat
        k(    1) = (   0.0000000   0.0000000   0.0000000), wk =   0.0625000
        k(    2) = (   0.0000000   0.0419351   0.0000000), wk =   0.1250000
        k(    3) = (   0.0000000  -0.0838702   0.0000000), wk =   0.0625000
        k(    4) = (   0.0379955   0.0000049   0.0000000), wk =   0.1250000
        k(    5) = (   0.0379955   0.0419400   0.0000000), wk =   0.1250000
[...]
     % You are using vdW-DF, which was implemented by the Thonhauser group. %
     % Please cite the following two papers that made this development      %
     % possible and the two reviews that describe the various versions:     %
     %                                                                      %
     %   T. Thonhauser et al., PRL 115, 136402 (2015).                      %
     %   T. Thonhauser et al., PRB 76, 125112 (2007).                       %
     %   K. Berland et al., Rep. Prog. Phys. 78, 066501 (2015).             %
     %   D.C. Langreth et al., J. Phys.: Condens. Matter 21, 084203 (2009). %
     %                                                                      %
     %                                                                      %
     % If you are calculating the stress with vdW-DF, please also cite:     %
     %                                                                      %
     %   R. Sabatini et al., J. Phys.: Condens. Matter 24, 424209 (2012).   %
     %                                                                      %
     %%%%%%%%%%%%%%%%%%%%%%%%%%%%%%%%%%%%%%%%%%%%%%%%%%%%%%%%%%%%%%%%%%%%%%%%

     Adding external electric field

     Computed dipole along edir(3) :
        Dipole              -10.5729 Ry au,        -26.8736 Debye
        Dipole field         -0.0200 Ry au,

        Potential amp.        1.8496 Ry
        Total length         46.3494 bohr

[...]

     Starting wfcs are  302 atomic wfcs
  @ DRIVER MODE: Message from server: STATUS
  @ DRIVER MODE: Message from server: POSDATA
  @ DRIVER MODE: Reading and sharing cell
  @ DRIVER MODE: Reading and sharing positions
  @ DRIVER MODE: Received positions

     Self-consistent Calculation

     iteration #  1     ecut=    29.40 Ry     beta= 0.05
     Davidson diagonalization with overlap
     c_bands:  4 eigenvalues not converged
     c_bands:  3 eigenvalues not converged
     c_bands:  1 eigenvalues not converged
     c_bands:  4 eigenvalues not converged
     c_bands:  5 eigenvalues not converged
     c_bands:  5 eigenvalues not converged
     c_bands:  5 eigenvalues not converged
     c_bands:  3 eigenvalues not converged
     c_bands:  3 eigenvalues not converged
     c_bands:  2 eigenvalues not converged
     c_bands:  1 eigenvalues not converged
     c_bands:  4 eigenvalues not converged
     c_bands:  5 eigenvalues not converged
     c_bands:  4 eigenvalues not converged
     c_bands:  5 eigenvalues not converged
     c_bands:  3 eigenvalues not converged
     ethr =  1.00E-05,  avg # of iterations = 20.0

[...]

     total energy              =   -2443.28645218 Ry
     estimated scf accuracy    <    5586.05730025 Ry

     total magnetization       =     0.00 Bohr mag/cell
     absolute magnetization    =     0.01 Bohr mag/cell

     iteration #  2     ecut=    29.40 Ry     beta= 0.05
     Davidson diagonalization with overlap
     ethr =  1.00E-02,  avg # of iterations = 24.2

[...]

     iteration #127     ecut=    29.40 Ry     beta= 0.05
     Davidson diagonalization with overlap
     c_bands:  2 eigenvalues not converged
     ethr =  2.28E-11,  avg # of iterations = 15.7

[...]

     total energy              =   -2942.82540220 Ry
     estimated scf accuracy    <       0.00000007 Ry

[...]

     iteration #129     ecut=    29.40 Ry     beta= 0.05
     Davidson diagonalization with overlap
     ethr =  1.88E-11,  avg # of iterations =  7.7

     negative rho (up, down):  7.305E-03 7.309E-03

[...]

     Adding external electric field

     Computed dipole along edir(3) :
        Dipole                1.6168 Ry au,          4.1096 Debye
        Dipole field          0.0031 Ry au,

        Potential amp.       -0.2828 Ry
        Total length         46.3494 bohr

     Magnetic moment per site  (integrated on atomic sphere of radius R)
     atom   1 (R=0.723)  charge=  7.9140  magn=  0.0083
     atom   2 (R=0.723)  charge=  7.8963  magn=  0.0004
     atom   3 (R=0.633)  charge=  4.2080  magn= -0.0010
     atom   4 (R=0.633)  charge=  4.2373  magn= -0.0001
     atom   5 (R=0.633)  charge=  4.2138  magn= -0.0002
     atom   6 (R=0.633)  charge=  4.2139  magn= -0.0002
     atom   7 (R=0.723)  charge=  7.8964  magn=  0.0006
     atom   8 (R=0.723)  charge=  7.8945  magn=  0.0069
     atom   9 (R=0.633)  charge=  4.2238  magn= -0.0002
     atom  10 (R=0.633)  charge=  4.2125  magn= -0.0006
     atom  11 (R=0.633)  charge=  4.2093  magn= -0.0003
     atom  12 (R=0.633)  charge=  4.2112  magn= -0.0003
     atom  13 (R=0.723)  charge=  7.8926  magn=  0.0024
     atom  14 (R=0.723)  charge=  7.9040  magn=  0.0018
     atom  15 (R=0.633)  charge=  4.2098  magn= -0.0000
     atom  16 (R=0.633)  charge=  4.2161  magn= -0.0002
     atom  17 (R=0.633)  charge=  4.2035  magn= -0.0000
     atom  18 (R=0.633)  charge=  4.2034  magn= -0.0000
     atom  19 (R=0.723)  charge=  7.9505  magn=  0.0018
     atom  20 (R=0.723)  charge=  7.9298  magn=  0.0004
     atom  21 (R=0.633)  charge=  4.1284  magn= -0.0002
     atom  22 (R=0.633)  charge=  4.1764  magn=  0.0000
     atom  23 (R=0.633)  charge=  4.2073  magn= -0.0008
     atom  24 (R=0.633)  charge=  4.2074  magn= -0.0008
     atom  25 (R=0.723)  charge=  7.9141  magn=  0.0082
     atom  26 (R=0.723)  charge=  7.8964  magn=  0.0004
     atom  27 (R=0.633)  charge=  4.2076  magn= -0.0011
     atom  28 (R=0.633)  charge=  4.2375  magn= -0.0001
     atom  29 (R=0.633)  charge=  4.2143  magn= -0.0003
     atom  30 (R=0.633)  charge=  4.2144  magn= -0.0003
     atom  31 (R=0.723)  charge=  7.8969  magn=  0.0006
     atom  32 (R=0.723)  charge=  7.8947  magn=  0.0070
     atom  33 (R=0.633)  charge=  4.2222  magn= -0.0002
     atom  34 (R=0.633)  charge=  4.2053  magn= -0.0006
     atom  35 (R=0.633)  charge=  4.2090  magn= -0.0003
     atom  36 (R=0.633)  charge=  4.2115  magn= -0.0003
     atom  37 (R=0.723)  charge=  7.8964  magn=  0.0024
     atom  38 (R=0.723)  charge=  7.9034  magn=  0.0017
     atom  39 (R=0.633)  charge=  4.1926  magn= -0.0000
     atom  40 (R=0.633)  charge=  4.2343  magn= -0.0001
     atom  41 (R=0.633)  charge=  4.2023  magn= -0.0000
     atom  42 (R=0.633)  charge=  4.2135  magn= -0.0000
     atom  43 (R=0.723)  charge=  7.9399  magn=  0.0025
     atom  44 (R=0.723)  charge=  7.9263  magn=  0.0004
     atom  45 (R=0.633)  charge=  4.1284  magn= -0.0004
     atom  46 (R=0.633)  charge=  4.2073  magn= -0.0008
     atom  47 (R=0.633)  charge=  4.2074  magn= -0.0007
     atom  48 (R=0.423)  charge=  1.3314  magn=  0.0000
     atom  49 (R=0.447)  charge=  0.8386  magn= -0.0000
     atom  50 (R=0.423)  charge=  0.4471  magn=  0.0000
     atom  51 (R=0.423)  charge=  0.4484  magn=  0.0000
     atom  52 (R=0.423)  charge=  0.4538  magn=  0.0000
     atom  53 (R=0.423)  charge=  1.3687  magn=  0.0000
     atom  54 (R=0.423)  charge=  0.4520  magn=  0.0000
     atom  55 (R=0.423)  charge=  0.3938  magn= -0.0000
     atom  56 (R=0.423)  charge=  0.4475  magn=  0.0000

     End of self-consistent calculation

 ------ SPIN UP ------------

          k = 0.0000 0.0000 0.0000 ( 18029 PWs)   bands (ev):

   -55.1375 -55.1045 -55.1008 -55.0705 -55.0207 -55.0043 -54.9826 -54.9386
   -54.9304 -54.9173 -54.9028 -54.8982 -54.8591 -54.7882 -54.1096 -54.0755
   -31.7165 -31.5897 -31.5062 -31.4738 -31.4345 -31.4280 -31.4260 -31.3966
   -31.3956 -31.3928 -31.3614 -31.3503 -31.3475 -31.3150 -31.2967 -31.2722
   -31.2582 -31.2568 -31.2416 -31.2361 -31.2113 -31.2049 -31.1977 -31.1693
   -31.1627 -31.1501 -31.1408 -31.1376 -31.1361 -31.1244 -31.1232 -31.1150
   -31.0985 -31.0882 -31.0831 -31.0621 -31.0546 -31.0416 -31.0389 -31.0308
   -31.0194 -30.9776 -30.5178 -30.4260 -30.4038 -30.3345 -30.2477 -30.1366
   -18.9758 -16.0004 -15.7466 -15.6101 -15.3751 -15.3227 -15.2668 -15.0639
   -15.0574 -14.9872 -14.9716 -14.9227 -14.9022 -14.8356 -14.7510 -14.7320
   -14.6617 -14.6604 -14.6311 -14.6211 -14.6183 -14.5557 -14.5463 -14.5165
   -14.5033 -14.4783 -14.3604 -14.2757 -14.2171 -13.9690 -13.5845 -12.6113
   -12.4942  -9.7761  -7.6979  -7.1830  -5.4784  -3.8106  -3.3377  -3.2632
    -3.1639  -3.1337  -3.0570  -3.0273  -2.8433  -2.8215  -2.4804  -2.4463
    -2.3940  -2.3761  -2.3560  -2.3371  -2.1702  -2.1438  -2.0706  -2.0379
    -2.0196  -1.9782  -1.9616  -1.9514  -1.9177  -1.9127  -1.9027  -1.6954
    -1.6394  -1.5444  -1.5221  -1.5073  -1.4628  -1.4278  -1.4184  -1.4149
    -1.4091  -1.3958  -1.3834  -1.3028  -1.2450  -1.1639  -1.1552  -1.1196
    -1.0151  -0.9679  -0.7680  -0.7534  -0.7076  -0.6651  -0.6023  -0.5825
    -0.5147  -0.4838  -0.4658  -0.3438  -0.3150  -0.2752  -0.2473  -0.1795
    -0.1486  -0.1034  -0.0200   0.0510   0.0874   0.1063   0.1644   0.2938
     0.3060   0.3354   0.3966   0.4605   0.5003   0.5208   0.5392   0.5760
     0.6265   0.7522   0.7963   0.8167   0.8209   0.8551   0.8773   0.9281
     0.9525   1.0134   1.0193   1.1362   1.2058   1.4315   1.4671   1.4936
     1.8259   1.8496   1.9136   2.0996   2.4880   2.5349   3.9621   4.0257
     4.0833   4.0949   4.1181   4.2076   4.2487   4.4302   4.4573   4.4586
     4.4629

[...]

          k =-0.0760-0.0000 0.0000 ( 17886 PWs)   bands (ev):

[...]

 ------ SPIN DOWN ----------

[...]

          k = 0.0380-0.0419 0.0000 ( 17876 PWs)   bands (ev):

[...]

          k =-0.0760-0.0839 0.0000 ( 17948 PWs)   bands (ev):

   -55.1187 -55.1128 -55.0727 -55.0725 -55.0052 -54.9976 -54.9884 -54.9205
   -54.9184 -54.9165 -54.9029 -54.9013 -54.8547 -54.7914 -54.0918 -54.0916
   -31.5184 -31.5154 -31.4385 -31.4165 -31.3988 -31.3986 -31.3638 -31.3634
   -31.3450 -31.3393 -31.3366 -31.3359 -31.3050 -31.2668 -31.2603 -31.2559
   -31.2554 -31.2514 -31.2462 -31.2397 -31.2117 -31.2043 -31.2019 -31.2015
   -31.1907 -31.1904 -31.1835 -31.1809 -31.1550 -31.1504 -31.1349 -31.1308
   -31.1287 -31.1256 -31.1251 -31.1188 -31.0948 -31.0831 -31.0811 -31.0667
   -31.0420 -31.0241 -30.4156 -30.4155 -30.3300 -30.3298 -30.2903 -30.2903
   -18.9711 -15.5076 -15.3979 -15.2919 -15.2247 -15.1814 -15.1310 -15.1125
   -15.1021 -15.0571 -15.0276 -14.9584 -14.8939 -14.8406 -14.8396 -14.8056
   -14.7267 -14.7129 -14.7057 -14.6954 -14.6385 -14.6318 -14.6004 -14.5796
   -14.5765 -14.5466 -14.4725 -14.4701 -14.3846 -14.1782 -13.6197 -12.5966
   -12.5965  -9.7459  -7.6924  -7.1301  -5.4818  -3.8331  -3.4183  -2.7553
    -2.6445  -2.4337  -2.4084  -2.3481  -2.3279  -2.2469  -2.1831  -2.1605
    -2.1372  -2.1032  -2.1000  -2.0779  -2.0545  -2.0000  -1.9726  -1.9602
    -1.9542  -1.9395  -1.9267  -1.9069  -1.8499  -1.8400  -1.8325  -1.7901
    -1.7788  -1.7474  -1.7411  -1.7022  -1.6856  -1.6123  -1.5170  -1.4930
    -1.4354  -1.3331  -1.3180  -1.3123  -1.2204  -1.2109  -1.1814  -1.1505
    -1.0963  -0.9976  -0.9426  -0.8654  -0.8620  -0.8332  -0.7456  -0.6819
    -0.6482  -0.6392  -0.5993  -0.5415  -0.5204  -0.4854  -0.4029  -0.3612
    -0.3346  -0.2993  -0.2053  -0.1431  -0.1207  -0.0888  -0.0853   0.0039
     0.0369   0.0741   0.0950   0.1329   0.1595   0.2254   0.2463   0.3564
     0.4247   0.4556   0.5749   0.5993   0.6633   0.7953   0.8671   0.9078
     0.9599   1.0182   1.0457   1.1760   1.1830   1.2001   1.3017   1.3425
     1.3493   1.3619   2.2721   2.2731   2.3546   2.3549   4.1020   4.1888
     4.2330   4.2706   4.3761   4.4896   4.5080   4.5499   4.5505   4.6266
     4.6336

     the Fermi energy is     4.0211 ev

!    total energy              =   -2942.82540262 Ry
     estimated scf accuracy    <       0.00000007 Ry
     smearing contrib. (-TS)   =      -0.03682790 Ry
     internal energy E=F+TS    =   -2942.78857473 Ry

     The total energy is F=E-TS. E is the sum of the following terms:
     one-electron contribution =  -23972.45162716 Ry
     hartree contribution      =   12081.79112740 Ry
     xc contribution           =    -487.77511712 Ry
     ewald contribution        =    9435.64210887 Ry
     electric field correction =       0.00493328 Ry

     total magnetization       =     0.06 Bohr mag/cell
     absolute magnetization    =     0.09 Bohr mag/cell

     convergence has been achieved in 129 iterations

     Forces acting on atoms (cartesian axes, Ry/au):

     atom    1 type  1   force =     0.00015265   -0.00022476    0.09431166
     atom    2 type  1   force =    -0.00009734   -0.00033054   -0.17740198
     atom    3 type  2   force =     0.00005629   -0.00016245   -0.02137014
     atom    4 type  2   force =    -0.00001472   -0.00172579    0.05658726
     atom    5 type  2   force =    -0.01054762   -0.00127840    0.00623844
     atom    6 type  2   force =     0.01221635   -0.00074499    0.00571071
     atom    7 type  1   force =    -0.00032914    0.00172753   -0.01618164
     atom    8 type  1   force =    -0.00011529    0.00439140    0.00560370
     atom    9 type  2   force =     0.00001017   -0.00004415   -0.00005130
     atom   10 type  2   force =    -0.00074141   -0.00021744   -0.00043040
     atom   11 type  2   force =     0.00034797    0.00012507   -0.00017839
     atom   12 type  2   force =    -0.00051857    0.00000194   -0.00011793
     atom   13 type  1   force =     0.00004791   -0.00035478    0.00011287
     atom   14 type  1   force =     0.00055760    0.00012157   -0.00032309
     atom   15 type  2   force =    -0.00043631    0.00024288   -0.00012554
     atom   16 type  2   force =    -0.00031403    0.00018015   -0.00002239
     atom   17 type  2   force =    -0.00009564    0.00010884    0.00044595
     atom   18 type  2   force =     0.00009216    0.00029653   -0.00013362
     atom   19 type  1   force =     0.00002869   -0.00009081    0.00010961
     atom   20 type  1   force =     0.00015569    0.00043606   -0.00061846
     atom   21 type  2   force =     0.00003678    0.00004170    0.10364036
     atom   22 type  2   force =    -0.00003720   -0.00079847   -0.00037117
     atom   23 type  2   force =    -0.07082392   -0.00010044   -0.02719679
     atom   24 type  2   force =     0.07068808    0.00034003   -0.02722446
     atom   25 type  1   force =    -0.00009794   -0.00019364    0.09373372
     atom   26 type  1   force =    -0.00015345   -0.00032101   -0.17732190
     atom   27 type  2   force =     0.00008701   -0.00035382   -0.02047289
     atom   28 type  2   force =     0.00003183   -0.00144011    0.05589425
     atom   29 type  2   force =    -0.01091361   -0.00073788    0.00608755
     atom   30 type  2   force =     0.01246472   -0.00029383    0.00556579
     atom   31 type  1   force =    -0.00017060    0.00462550   -0.01721013
     atom   32 type  1   force =    -0.00003971   -0.00480686    0.00557753
     atom   33 type  2   force =     0.00005782    0.00012374    0.00026578
     atom   34 type  2   force =     0.00005787   -0.00085573   -0.00295716
     atom   35 type  2   force =     0.00023452    0.00003251    0.00009126
     atom   36 type  2   force =    -0.00042836    0.00015853   -0.00005181
     atom   37 type  1   force =    -0.00012735   -0.00010235   -0.00021453
     atom   38 type  1   force =     0.00042662   -0.00028969    0.00036500
     atom   39 type  2   force =    -0.00046495    0.00012485    0.00075621
     atom   40 type  2   force =    -0.00010781    0.00019891   -0.00019471
     atom   41 type  2   force =     0.00031137   -0.00012824    0.00109120
     atom   42 type  2   force =    -0.00006660    0.00024742   -0.00007347
     atom   43 type  1   force =    -0.00059036    0.00076233   -0.00008048
     atom   44 type  1   force =     0.00007701    0.00040304   -0.00045427
     atom   45 type  2   force =     0.00002593    0.00001092    0.10364299
     atom   46 type  2   force =    -0.07082608   -0.00003618   -0.02719428
     atom   47 type  2   force =     0.07069277    0.00038073   -0.02720015
     atom   48 type  3   force =     0.00501445   -0.00099033    0.00034597
     atom   49 type  4   force =     0.00187040   -0.00051772   -0.00151783
     atom   50 type  5   force =    -0.00011242   -0.00002116   -0.00005421
     atom   51 type  5   force =    -0.00043127   -0.00028898   -0.00004629
     atom   52 type  5   force =    -0.00010112    0.00001270    0.00041614
     atom   53 type  3   force =    -0.01674645   -0.00229049   -0.00106512
     atom   54 type  5   force =     0.00257890    0.00208487    0.00146622
     atom   55 type  5   force =     0.00400724   -0.00106838    0.00169408
     atom   56 type  5   force =     0.00312047    0.00362966   -0.00189771

     Total force =     0.366108     Total SCF correction =     0.000294
  @ DRIVER MODE: Message from server: STATUS
  @ DRIVER MODE: Message from server: GETFORCE
  @ DRIVER MODE: Returning v,forces,stress,ensemble

     Writing output data file ./calc.save/
  @ DRIVER MODE: Message from server: EXIT
  @ DRIVE MODE: Exiting

     General routines

     Parallel routines

   This run was terminated on:  19:35:56  16Jul2021

   JOB DONE.