     Program PWSCF v.6.7GPU starts on 24Sep2021 at 12:50:41

     R & G space division:  proc/nbgrp/npool/nimage =       8
     Reading input from /storage/home/hcoda1/3/ntian30/research/carbon/CxH_vib/H2O_calc/ads_slab/CH2NNHHHHO_a/out_0059/pw.inp
Warning: card &CELL ignored
Warning: card   CELL_DYNAMICS='IPI', ignored
Warning: card / ignored

     Current dimensions of program PWSCF are:
     Max number of different atomic species (ntypx) = 10
     Max number of k-points (npk) =  40000
     Max angular momentum in pseudopotentials (lmaxx) =  3
     Presently no symmetry can be used with electric field

     Message from routine cell_base_init:
     DEPRECATED: use true lattice parameter, not A to a.u. conversion factor

     IMPORTANT: XC functional enforced from input :
     Exchange-correlation= BEEF-VDW
                           (   1   4  43  14   2   0   0)
     Any further DFT definition will be discarded
     Please, verify this is what you really want

  @ DRIVER MODE: Connecting to
 qe_1139763_2947316.sched-torque.pace.gatech.edui_h3_8sv_scratch
  using UNIX socket
  @ DRIVER MODE: Message from server: STATUS
  @ DRIVER MODE: Message from server: INIT
  @ DRIVER MODE: Receiving replica           0          -1
  @ DRIVER MODE: Receiving encoded integer          25
  @ DRIVER MODE:  SCF:  T  FORCE:  T  STRESS:  F  VC:  F  ENSEMBLE:  F
  @ DRIVER MODE:  SCF:  T  FORCE:  T  STRESS:  F  VC:  F  ENSEMBLE:  F

     Using Slab Decomposition

     bravais-lattice index     =            0
     lattice parameter (alat)  =       1.8897  a.u.
     unit-cell volume          =    6658.9804 (a.u.)^3
     number of atoms/cell      =           57
     number of atomic types    =            5
     number of electrons       =       404.00
     number of Kohn-Sham states=          212
     kinetic-energy cutoff     =      29.3995  Ry
     charge density cutoff     =     293.9946  Ry
     scf convergence threshold =      7.3E-08
     mixing beta               =       0.0500
     number of iterations used =            8  plain     mixing
     Exchange-correlation= BEEF-VDW
                           (   1   4  43  14   2   0   0)

     celldm(1)=   1.889726  celldm(2)=   0.000000  celldm(3)=   0.000000
     celldm(4)=   0.000000  celldm(5)=   0.000000  celldm(6)=   0.000000

     crystal axes: (cart. coord. in units of alat)
               a(1) = (   6.579727   0.000000   0.000000 )
               a(2) = (  -0.000775   5.961596   0.000000 )
               a(3) = (   0.000000   0.000000  25.155947 )

     reciprocal axes: (cart. coord. in units 2 pi/alat)
               b(1) = (  0.151982  0.000020  0.000000 )
               b(2) = (  0.000000  0.167740  0.000000 )
               b(3) = (  0.000000  0.000000  0.039752 )

     PseudoPot. # 1 for Ti read from file:
     /storage/coda1/p-amedford6/0/shared/rich_project_chbe-medford/medford-share/data/pseudos_module/espresso/nninc/pbe/van/Ti.UPF
     MD5 check sum: 8e4df49b7f0d34bbd5052bf3f5ea0213
     Pseudo is Ultrasoft, Zval = 12.0
     Generated by new atomic code, or converted to UPF format
     Using radial grid of  851 points,  6 beta functions with:
                l(1) =   0
                l(2) =   0
                l(3) =   1
                l(4) =   1
                l(5) =   2
                l(6) =   2
     Q(r) pseudized with  8 coefficients,  rinner =    1.000   1.000   1.000
                                                       1.000   1.000

     PseudoPot. # 2 for O  read from file:
     /storage/coda1/p-amedford6/0/shared/rich_project_chbe-medford/medford-share/data/pseudos_module/espresso/nninc/pbe/van/O.UPF
     MD5 check sum: 78c19812648e8988a0fe644b0f25305e
     Pseudo is Ultrasoft, Zval =  6.0
     Generated by new atomic code, or converted to UPF format
     Using radial grid of  737 points,  4 beta functions with:
                l(1) =   0
                l(2) =   0
                l(3) =   1
                l(4) =   1
     Q(r) pseudized with  8 coefficients,  rinner =    0.800   0.800   0.800

     PseudoPot. # 3 for N  read from file:
     /storage/coda1/p-amedford6/0/shared/rich_project_chbe-medford/medford-share/data/pseudos_module/espresso/nninc/pbe/van/N.UPF
     MD5 check sum: 90d10febe142ad51ac9d5be1deb811c4
     Pseudo is Ultrasoft, Zval =  5.0
     Generated by new atomic code, or converted to UPF format
     Using radial grid of  729 points,  4 beta functions with:
                l(1) =   0
                l(2) =   0
                l(3) =   1
                l(4) =   1
     Q(r) pseudized with  8 coefficients,  rinner =    0.800   0.800   0.800

     PseudoPot. # 4 for C  read from file:
     /storage/coda1/p-amedford6/0/shared/rich_project_chbe-medford/medford-share/data/pseudos_module/espresso/nninc/pbe/van/C.UPF
     MD5 check sum: 1a69bf6b8db32088f5b2163dbdb77a27
     Pseudo is Ultrasoft, Zval =  4.0
     Generated by new atomic code, or converted to UPF format
     Using radial grid of  721 points,  4 beta functions with:
                l(1) =   0
                l(2) =   0
                l(3) =   1
                l(4) =   1
     Q(r) pseudized with  8 coefficients,  rinner =    0.800   0.800   0.800

     PseudoPot. # 5 for H  read from file:
     /storage/coda1/p-amedford6/0/shared/rich_project_chbe-medford/medford-share/data/pseudos_module/espresso/nninc/pbe/van/H.UPF
     MD5 check sum: b5ee9d7bfd3a09ee7748110bda690ff7
     Pseudo is Ultrasoft, Zval =  1.0
     Generated by new atomic code, or converted to UPF format
     Using radial grid of  615 points,  1 beta functions with:
                l(1) =   0
     Q(r) pseudized with  8 coefficients,  rinner =    0.800

     atomic species   valence    mass     pseudopotential
        Ti1           12.00    47.86700     Ti( 1.00)
        O1             6.00    15.99900     O ( 1.00)
        N1             5.00    14.00700     N ( 1.00)
        C1             4.00    12.01100     C ( 1.00)
        H1             1.00     1.00800     H ( 1.00)

     No symmetry found

   Cartesian axes

     site n.     atom                  positions (alat units)
         1           Ti1 tau(   1) = (   0.0004258   2.9801865   6.0000000  )
         2           Ti1 tau(   2) = (   3.2906075   1.4906267   6.0002472  )
         3           O1  tau(   3) = (   0.0006271   0.0005054   7.9858123  )
         4           O1  tau(   4) = (   3.2906025   0.0005020   7.3038282  )
         5           O1  tau(   5) = (   4.5942328   1.4918067   9.2879030  )
         6           O1  tau(   6) = (   1.9868534   1.4903216   9.2879459  )
         7           Ti1 tau(   7) = (   3.2907910   2.8959150   9.1758416  )
         8           Ti1 tau(   8) = (   0.0015273   1.4827037   9.2680791  )
         9           O1  tau(   9) = (   3.3027076   5.9092304  11.3732431  )
        10           O1  tau(  10) = (   0.0116148   5.9584955  10.6183126  )
        11           O1  tau(  11) = (   1.2953868   1.4751764  12.6403503  )
        12           O1  tau(  12) = (   5.3168701   1.4807623  12.6366210  )
        13           Ti1 tau(  13) = (   0.0172323   2.9996225  12.5311828  )
        14           Ti1 tau(  14) = (   3.3257086   1.2755711  12.7138078  )
        15           O1  tau(  15) = (   6.5733368   0.1082846  14.6600873  )
        16           O1  tau(  16) = (   3.3238075   0.0838359  14.0473399  )
        17           O1  tau(  17) = (   4.5575128   1.5393005  16.2317518  )
        18           O1  tau(  18) = (   2.0302387   1.4963625  16.2670071  )
        19           Ti1 tau(  19) = (   3.2366114   2.9448900  15.6849520  )
        20           Ti1 tau(  20) = (   6.5300729   1.3987400  16.1165465  )
        21           O1  tau(  21) = (   3.2904802   0.0005063   4.7018136  )
        22           O1  tau(  22) = (   0.0022030   5.7760056  17.1861099  )
        23           O1  tau(  23) = (   1.3043587   1.4918075   6.0039043  )
        24           O1  tau(  24) = (   5.2767064   1.4903225   6.0039473  )
        25           Ti1 tau(  25) = (   0.0000382   5.9609847   6.0000000  )
        26           Ti1 tau(  26) = (   3.2902200   4.4714249   6.0002472  )
        27           O1  tau(  27) = (   0.0002396   2.9813036   7.9858123  )
        28           O1  tau(  28) = (   3.2902150   2.9813002   7.3038282  )
        29           O1  tau(  29) = (   4.5938453   4.4726049   9.2879030  )
        30           O1  tau(  30) = (   1.9864658   4.4711199   9.2879459  )
        31           Ti1 tau(  31) = (   3.2891106   5.8743827   9.1763621  )
        32           Ti1 tau(  32) = (   0.0006254   4.4649316   9.2693709  )
        33           O1  tau(  33) = (   3.3012885   2.9833904  11.3212188  )
        34           O1  tau(  34) = (   0.0092240   2.9805883  10.6323155  )
        35           O1  tau(  35) = (   1.2895456   4.4501540  12.7025460  )
        36           O1  tau(  36) = (   5.3143371   4.4382646  12.6927937  )
        37           Ti1 tau(  37) = (   0.0343555   0.0433052  12.5107970  )
        38           Ti1 tau(  38) = (   3.3217552   4.3482123  12.4486840  )
        39           O1  tau(  39) = (   0.0141661   2.9064423  14.8877341  )
        40           O1  tau(  40) = (   3.2920978   2.9424077  13.9176102  )
        41           O1  tau(  41) = (   4.5506947   4.3398720  16.1100615  )
        42           O1  tau(  42) = (   2.0210198   4.4131678  16.0160425  )
        43           Ti1 tau(  43) = (   3.3132698   5.9358869  16.2610495  )
        44           Ti1 tau(  44) = (   0.0826266   4.5979890  15.7080129  )
        45           O1  tau(  45) = (   3.2900926   2.9813045   4.7018136  )
        46           O1  tau(  46) = (   1.3039711   4.4726057   6.0039043  )
        47           O1  tau(  47) = (   5.2763189   4.4711207   6.0039473  )
        48           N1  tau(  48) = (   6.5643472   2.7424576  18.0625816  )
        49           C1  tau(  49) = (   0.8744728   2.5686873  19.0232366  )
        50           H1  tau(  50) = (   0.8543601   3.1364980  19.9465443  )
        51           H1  tau(  51) = (   1.6733950   1.8773151  18.8242213  )
        52           N1  tau(  52) = (   5.5366205   3.6779994  18.4753393  )
        53           H1  tau(  53) = (   5.9486539   4.6347284  18.5635686  )
        54           H1  tau(  54) = (   4.8775701   3.8234783  17.6645784  )
        55           H1  tau(  55) = (   5.0440791   3.3775604  19.3232938  )
        56           O1  tau(  56) = (   3.4091604   5.6710612  18.1544331  )
        57           H1  tau(  57) = (   3.1368125   0.4262250  18.7304830  )

     number of k points=    10  Fermi-Dirac smearing, width (Ry)=  0.0073
                       cart. coord. in units 2pi/alat
        k(    1) = (   0.0000000   0.0000000   0.0000000), wk =   0.1250000
        k(    2) = (   0.0000000   0.0419351   0.0000000), wk =   0.2500000
        k(    3) = (   0.0000000  -0.0838702   0.0000000), wk =   0.1250000
        k(    4) = (   0.0379955   0.0000049   0.0000000), wk =   0.2500000
        k(    5) = (   0.0379955   0.0419400   0.0000000), wk =   0.2500000
        k(    6) = (   0.0379955  -0.0838652   0.0000000), wk =   0.2500000
        k(    7) = (   0.0379955  -0.0419301   0.0000000), wk =   0.2500000
        k(    8) = (  -0.0759910  -0.0000099   0.0000000), wk =   0.1250000
        k(    9) = (  -0.0759910   0.0419252   0.0000000), wk =   0.2500000
        k(   10) = (  -0.0759910  -0.0838800   0.0000000), wk =   0.1250000

     Initial potential from superposition of free atoms

     starting charge  387.99913, renormalised to  404.00000

     negative rho (up, down):  1.546E-02 0.000E+00

     %%%%%%%%%%%%%%%%%%%%%%%%%%%%%%%%%%%%%%%%%%%%%%%%%%%%%%%%%%%%%%%%%%%%%%%%
     %                                                                      %
     % You are using vdW-DF, which was implemented by the Thonhauser group. %
     % Please cite the following two papers that made this development      %
     % possible and the two reviews that describe the various versions:     %
     %                                                                      %
     %   T. Thonhauser et al., PRL 115, 136402 (2015).                      %
     %   T. Thonhauser et al., PRB 76, 125112 (2007).                       %
     %   K. Berland et al., Rep. Prog. Phys. 78, 066501 (2015).             %
     %   D.C. Langreth et al., J. Phys.: Condens. Matter 21, 084203 (2009). %
     %                                                                      %
     %                                                                      %
     % If you are calculating the stress with vdW-DF, please also cite:     %
     %                                                                      %
     %   R. Sabatini et al., J. Phys.: Condens. Matter 24, 424209 (2012).   %
     %                                                                      %
     %%%%%%%%%%%%%%%%%%%%%%%%%%%%%%%%%%%%%%%%%%%%%%%%%%%%%%%%%%%%%%%%%%%%%%%%

     Adding external electric field

     Computed dipole along edir(3) :
        Dipole              -13.5854 Ry au,        -34.5306 Debye
        Dipole field         -0.0256 Ry au,

        Potential amp.        2.3766 Ry
        Total length         46.3494 bohr

     Starting wfcs are  306 atomic wfcs
  @ DRIVER MODE: Message from server: STATUS
  @ DRIVER MODE: Message from server: POSDATA
  @ DRIVER MODE: Reading and sharing cell
  @ DRIVER MODE: Reading and sharing positions
  @ DRIVER MODE: Received positions

     Self-consistent Calculation

     iteration #  1     ecut=    29.40 Ry     beta= 0.05
     Davidson diagonalization with overlap
     c_bands:  5 eigenvalues not converged
     c_bands:  1 eigenvalues not converged
     c_bands:  1 eigenvalues not converged
     c_bands:  1 eigenvalues not converged
     c_bands:  3 eigenvalues not converged
     c_bands:  4 eigenvalues not converged
     c_bands:  5 eigenvalues not converged
     c_bands:  2 eigenvalues not converged
     ethr =  1.00E-05,  avg # of iterations = 29.8

[...]

     total energy              =   -2247.89551073 Ry
     estimated scf accuracy    <    8241.85169303 Ry

     iteration #  2     ecut=    29.40 Ry     beta= 0.05
     Davidson diagonalization with overlap
     ethr =  1.00E-02,  avg # of iterations = 26.5

[...]

     iteration # 78     ecut=    29.40 Ry     beta= 0.05
     Davidson diagonalization with overlap
     c_bands:  1 eigenvalues not converged
     ethr =  2.27E-11,  avg # of iterations = 14.3

[...]

     total energy              =   -2975.12439205 Ry
     estimated scf accuracy    <       0.00000008 Ry

     iteration # 79     ecut=    29.40 Ry     beta= 0.05
     Davidson diagonalization with overlap
     ethr =  2.02E-11,  avg # of iterations = 12.2

     negative rho (up, down):  1.382E-02 0.000E+00

     Adding external electric field

     Computed dipole along edir(3) :
        Dipole                1.3734 Ry au,          3.4908 Debye
        Dipole field          0.0026 Ry au,

        Potential amp.       -0.2403 Ry
        Total length         46.3494 bohr

     End of self-consistent calculation

          k = 0.0000 0.0000 0.0000 ( 18029 PWs)   bands (ev):

   -55.3862 -55.2468 -55.2127 -55.1214 -55.0862 -55.0807 -55.0761 -55.0421
   -55.0359 -54.9877 -54.9602 -54.9235 -54.8711 -54.7425 -54.2268 -54.1928
   -31.7322 -31.7156 -31.6135 -31.6060 -31.5848 -31.5779 -31.5377 -31.5296
   -31.5195 -31.4928 -31.4499 -31.4454 -31.3993 -31.3716 -31.3701 -31.3599
   -31.3541 -31.3131 -31.3041 -31.3026 -31.2856 -31.2746 -31.2702 -31.2650
   -31.2631 -31.2241 -31.2202 -31.2197 -31.2162 -31.2034 -31.1942 -31.1888
   -31.1817 -31.1490 -31.1419 -31.1109 -31.1030 -31.0876 -31.0811 -31.0771
   -31.0037 -30.9101 -30.6332 -30.5459 -30.5235 -30.4506 -30.3641 -30.2525
   -19.1885 -16.3538 -15.9265 -15.7705 -15.5893 -15.4499 -15.4094 -15.1860
   -15.1303 -15.0435 -15.0235 -14.9062 -14.7886 -14.7878 -14.7672 -14.7604
   -14.7453 -14.6997 -14.6946 -14.6923 -14.6726 -14.6512 -14.6305 -14.6206
   -14.5830 -14.5416 -14.3907 -14.3695 -14.3510 -14.3077 -14.1708 -14.0038
   -12.7260 -12.6095  -9.1904  -7.6891  -6.8964  -6.1354  -4.3152  -3.6127
    -3.2741  -3.1766  -3.1536  -3.1440  -3.0105  -2.8401  -2.6449  -2.5831
    -2.5206  -2.4057  -2.3772  -2.2814  -2.2592  -2.2186  -2.1628  -2.1399
    -2.1118  -2.0578  -2.0444  -2.0362  -1.9460  -1.9263  -1.8245  -1.8027
    -1.7701  -1.7118  -1.6846  -1.6182  -1.5860  -1.5635  -1.5618  -1.5536
    -1.5307  -1.5168  -1.4948  -1.4425  -1.4115  -1.3484  -1.2835  -1.2075
    -1.1339  -0.9106  -0.8636  -0.8450  -0.7909  -0.7522  -0.6897  -0.6688
    -0.6447  -0.6332  -0.5648  -0.4536  -0.4054  -0.3650  -0.3095  -0.2851
    -0.2539  -0.1473  -0.0704  -0.0526  -0.0073   0.0326   0.0576   0.1230
     0.1586   0.2000   0.2672   0.2814   0.3596   0.3977   0.4226   0.4691
     0.5090   0.5729   0.6178   0.6675   0.6746   0.7035   0.7220   0.7532
     0.8389   0.8561   0.8977   0.9309   0.9924   1.0467   1.0716   1.2450
     1.3697   1.4053   1.4741   1.7415   1.7992   1.8149   1.9899   2.3674
     2.4130   3.8395   3.9798   3.9905   3.9984   4.0673   4.1210   4.1435
     4.3256   4.3649   4.4833   4.5235

[...]

          k = 0.0380-0.0419 0.0000 ( 17876 PWs)   bands (ev):

[...]

          k =-0.0760-0.0000 0.0000 ( 17886 PWs)   bands (ev):

[...]

          k =-0.0760-0.0839 0.0000 ( 17948 PWs)   bands (ev):

   -55.3855 -55.2298 -55.2296 -55.1068 -55.1006 -55.0812 -55.0593 -55.0584
   -55.0291 -54.9945 -54.9590 -54.9178 -54.8768 -54.7436 -54.2101 -54.2094
   -31.6550 -31.5965 -31.5878 -31.5475 -31.5474 -31.5233 -31.5230 -31.5028
   -31.4410 -31.4157 -31.3946 -31.3823 -31.3795 -31.3757 -31.3679 -31.3497
   -31.3491 -31.3451 -31.3423 -31.3317 -31.3283 -31.3096 -31.3023 -31.2816
   -31.2684 -31.2610 -31.2548 -31.2452 -31.2362 -31.2343 -31.2311 -31.2241
   -31.2159 -31.2105 -31.1839 -31.1472 -31.1207 -31.1073 -31.0949 -31.0836
   -31.0054 -30.9823 -30.5365 -30.5359 -30.4466 -30.4455 -30.4077 -30.4071
   -19.1846 -16.3421 -15.4575 -15.4101 -15.2231 -15.2198 -15.1945 -15.1314
   -15.0933 -15.0419 -15.0249 -14.9892 -14.9511 -14.9339 -14.9097 -14.8376
   -14.7940 -14.7677 -14.7563 -14.7201 -14.7041 -14.7034 -14.6719 -14.6495
   -14.6393 -14.5730 -14.5606 -14.4942 -14.4376 -14.4132 -14.2837 -14.2411
   -12.7115 -12.7110  -9.1782  -7.7005  -6.8818  -6.1443  -4.3450  -3.6014
    -2.6474  -2.6431  -2.4446  -2.4120  -2.3461  -2.2759  -2.2418  -2.2219
    -2.1747  -2.1676  -2.1281  -2.1058  -2.0692  -2.0411  -2.0335  -2.0160
    -1.9993  -1.9768  -1.9548  -1.9376  -1.9318  -1.9024  -1.8811  -1.8707
    -1.8280  -1.8209  -1.7960  -1.7779  -1.7438  -1.6802  -1.6193  -1.5002
    -1.4612  -1.4331  -1.4123  -1.3978  -1.3698  -1.3335  -1.3179  -1.3050
    -1.2744  -1.2613  -1.1533  -1.0053  -0.9937  -0.8984  -0.8643  -0.8593
    -0.7536  -0.7212  -0.6878  -0.6626  -0.6109  -0.5691  -0.4684  -0.4567
    -0.4167  -0.3487  -0.2518  -0.2404  -0.2247  -0.1959  -0.1724  -0.1661
    -0.1078  -0.0697  -0.0329   0.0173   0.0386   0.0611   0.0933   0.1868
     0.2165   0.3300   0.4531   0.4912   0.5161   0.5473   0.6808   0.7335
     0.7798   0.8533   0.9172   0.9371   1.0401   1.0588   1.0900   1.1449
     1.2158   1.2658   1.2819   1.3099   1.3229   2.1601   2.1682   2.2332
     2.2335   3.7965   4.0024   4.2537   4.3272   4.3485   4.3780   4.4001
     4.4325   4.4583   4.5027   4.5200

     the Fermi energy is     3.8753 ev

!    total energy              =   -2975.12440055 Ry
     estimated scf accuracy    <       0.00000003 Ry
     smearing contrib. (-TS)   =      -0.03103182 Ry
     internal energy E=F+TS    =   -2975.09336873 Ry

     The total energy is F=E-TS. E is the sum of the following terms:
     one-electron contribution =  -23510.81498027 Ry
     hartree contribution      =   11853.70500391 Ry
     xc contribution           =    -494.86434166 Ry
     ewald contribution        =    9176.87738986 Ry
     electric field correction =       0.00355944 Ry

     convergence has been achieved in  79 iterations

     Forces acting on atoms (cartesian axes, Ry/au):

     atom    1 type  1   force =     0.00014269   -0.00021077    0.09450574
     atom    2 type  1   force =    -0.00007672    0.00040116   -0.17564380
     atom    3 type  2   force =     0.00003460   -0.00002675   -0.02144668
     atom    4 type  2   force =     0.00000397   -0.00223484    0.05508988
     atom    5 type  2   force =    -0.00783956   -0.00313595    0.00368177
     atom    6 type  2   force =     0.00956137   -0.00256337    0.00357348
     atom    7 type  1   force =     0.00003229   -0.00298399    0.00574554
     atom    8 type  1   force =    -0.00023349    0.00256268    0.00563708
     atom    9 type  2   force =    -0.00035247   -0.00027711    0.00001979
     atom   10 type  2   force =    -0.00116025   -0.00256707   -0.00855722
     atom   11 type  2   force =    -0.00071169   -0.00069013   -0.00014480
     atom   12 type  2   force =     0.00031084   -0.00069724   -0.00006052
     atom   13 type  1   force =     0.00009258    0.00005547    0.00041646
     atom   14 type  1   force =    -0.00015453   -0.00036289    0.00016445
     atom   15 type  2   force =     0.00012464   -0.00042515    0.00007675
     atom   16 type  2   force =     0.00006317   -0.00073330   -0.00032758
     atom   17 type  2   force =     0.00008135    0.00030488   -0.00021140
     atom   18 type  2   force =    -0.00044266    0.00027748   -0.00029797
     atom   19 type  1   force =     0.00035271    0.00039802   -0.00014544
     atom   20 type  1   force =     0.00017351   -0.00046359   -0.00011605
     atom   21 type  2   force =     0.00005495    0.00002576    0.10330564
     atom   22 type  2   force =    -0.00000085    0.00083643   -0.00067557
     atom   23 type  2   force =    -0.07176144   -0.00019727   -0.02725468
     atom   24 type  2   force =     0.07159794    0.00024403   -0.02731755
     atom   25 type  1   force =     0.00006427   -0.00034229    0.09389398
     atom   26 type  1   force =    -0.00017127   -0.00123068   -0.17591924
     atom   27 type  2   force =     0.00013764   -0.00024246   -0.02017338
     atom   28 type  2   force =     0.00003693   -0.00056109    0.05061383
     atom   29 type  2   force =    -0.00679222    0.00147824    0.00204495
     atom   30 type  2   force =     0.00848843    0.00183323    0.00195998
     atom   31 type  1   force =     0.00015112    0.00699972   -0.00371038
     atom   32 type  1   force =    -0.00027899   -0.00257820    0.00510019
     atom   33 type  2   force =    -0.00000525    0.00031249   -0.00012354
     atom   34 type  2   force =    -0.00011835    0.00279089   -0.00827536
     atom   35 type  2   force =     0.00025975    0.00066418   -0.00029269
     atom   36 type  2   force =    -0.00101472    0.00053823   -0.00043833
     atom   37 type  1   force =     0.00013478   -0.00043615    0.00011892
     atom   38 type  1   force =    -0.00015828   -0.00007012   -0.00008314
     atom   39 type  2   force =    -0.00008726   -0.00002729    0.00016546
     atom   40 type  2   force =    -0.00047101    0.00014264   -0.00001595
     atom   41 type  2   force =    -0.00003770    0.00028779   -0.00027027
     atom   42 type  2   force =     0.00040356    0.00026737    0.00027528
     atom   43 type  1   force =     0.00041243    0.00029131   -0.00041859
     atom   44 type  1   force =    -0.00008182   -0.00035707   -0.00003605
     atom   45 type  2   force =     0.00001739   -0.00011066    0.10306757
     atom   46 type  2   force =    -0.07182547   -0.00004359   -0.02731296
     atom   47 type  2   force =     0.07166305    0.00034960   -0.02735211
     atom   48 type  3   force =     0.00037521    0.00017638   -0.00085073
     atom   49 type  4   force =     0.00026111    0.00010682   -0.00021775
     atom   50 type  5   force =     0.00027106   -0.00039238   -0.00070204
     atom   51 type  5   force =    -0.00124125    0.00027041   -0.00029363
     atom   52 type  3   force =     0.00011984   -0.00003436   -0.00075905
     atom   53 type  5   force =    -0.00068832    0.00048386   -0.00048705
     atom   54 type  5   force =     0.00035395    0.00021759    0.00084309
     atom   55 type  5   force =     0.00030941    0.00023590    0.00009700
     atom   56 type  2   force =     0.00378109   -0.00741187   -0.00737151
     atom   57 type  5   force =    -0.00416206    0.00885508    0.00690618

     Total force =     0.363054     Total SCF correction =     0.000428
  @ DRIVER MODE: Message from server: STATUS
  @ DRIVER MODE: Message from server: GETFORCE
  @ DRIVER MODE: Returning v,forces,stress,ensemble

     Writing output data file ./calc.save/
  @ DRIVER MODE: Message from server: EXIT
  @ DRIVE MODE: Exiting

     General routines

     Parallel routines

   This run was terminated on:  13:19:38  24Sep2021

   JOB DONE.