     Program PWSCF v.6.7GPU starts on 25Sep2021 at 14: 7:29

     R & G space division:  proc/nbgrp/npool/nimage =       8
     Reading input from /storage/home/hcoda1/3/ntian30/research/carbon/CxH_vib/H2O_calc/ads_slab/CH3OHN2HO_a/out_0000/pw.inp
Warning: card &CELL ignored
Warning: card   CELL_DYNAMICS='IPI', ignored
Warning: card / ignored

     Current dimensions of program PWSCF are:
     Max number of different atomic species (ntypx) = 10
     Max number of k-points (npk) =  40000
     Max angular momentum in pseudopotentials (lmaxx) =  3
     Presently no symmetry can be used with electric field

     Message from routine cell_base_init:
     DEPRECATED: use true lattice parameter, not A to a.u. conversion factor

     IMPORTANT: XC functional enforced from input :
     Exchange-correlation= BEEF-VDW
                           (   1   4  43  14   2   0   0)
     Any further DFT definition will be discarded
     Please, verify this is what you really want

  @ DRIVER MODE: Connecting to
 qe_1139763_2971668.sched-torque.pace.gatech.edupnzwt_08_scratch
  using UNIX socket
  @ DRIVER MODE: Message from server: STATUS
  @ DRIVER MODE: Message from server: INIT
  @ DRIVER MODE: Receiving replica           0          -1
  @ DRIVER MODE: Receiving encoded integer          25
  @ DRIVER MODE:  SCF:  T  FORCE:  T  STRESS:  F  VC:  F  ENSEMBLE:  F
  @ DRIVER MODE:  SCF:  T  FORCE:  T  STRESS:  F  VC:  F  ENSEMBLE:  F

     Using Slab Decomposition

     bravais-lattice index     =            0
     lattice parameter (alat)  =       1.8897  a.u.
     unit-cell volume          =    6658.9804 (a.u.)^3
     number of atoms/cell      =           57
     number of atomic types    =            5
     number of electrons       =       409.00
     number of Kohn-Sham states=          214
     kinetic-energy cutoff     =      29.3995  Ry
     charge density cutoff     =     293.9946  Ry
     scf convergence threshold =      7.3E-08
     mixing beta               =       0.0500
     number of iterations used =            8  plain     mixing
     Exchange-correlation= BEEF-VDW
                           (   1   4  43  14   2   0   0)

     celldm(1)=   1.889726  celldm(2)=   0.000000  celldm(3)=   0.000000
     celldm(4)=   0.000000  celldm(5)=   0.000000  celldm(6)=   0.000000

     crystal axes: (cart. coord. in units of alat)
               a(1) = (   6.579727   0.000000   0.000000 )
               a(2) = (  -0.000775   5.961596   0.000000 )
               a(3) = (   0.000000   0.000000  25.155947 )

     reciprocal axes: (cart. coord. in units 2 pi/alat)
               b(1) = (  0.151982  0.000020  0.000000 )
               b(2) = (  0.000000  0.167740  0.000000 )
               b(3) = (  0.000000  0.000000  0.039752 )

     PseudoPot. # 1 for Ti read from file:
     /storage/coda1/p-amedford6/0/shared/rich_project_chbe-medford/medford-share/data/pseudos_module/espresso/nninc/pbe/van/Ti.UPF
     MD5 check sum: 8e4df49b7f0d34bbd5052bf3f5ea0213
     Pseudo is Ultrasoft, Zval = 12.0
     Generated by new atomic code, or converted to UPF format
     Using radial grid of  851 points,  6 beta functions with:
                l(1) =   0
                l(2) =   0
                l(3) =   1
                l(4) =   1
                l(5) =   2
                l(6) =   2
     Q(r) pseudized with  8 coefficients,  rinner =    1.000   1.000   1.000
                                                       1.000   1.000

     PseudoPot. # 2 for O  read from file:
     /storage/coda1/p-amedford6/0/shared/rich_project_chbe-medford/medford-share/data/pseudos_module/espresso/nninc/pbe/van/O.UPF
     MD5 check sum: 78c19812648e8988a0fe644b0f25305e
     Pseudo is Ultrasoft, Zval =  6.0
     Generated by new atomic code, or converted to UPF format
     Using radial grid of  737 points,  4 beta functions with:
                l(1) =   0
                l(2) =   0
                l(3) =   1
                l(4) =   1
     Q(r) pseudized with  8 coefficients,  rinner =    0.800   0.800   0.800

     PseudoPot. # 3 for C  read from file:
     /storage/coda1/p-amedford6/0/shared/rich_project_chbe-medford/medford-share/data/pseudos_module/espresso/nninc/pbe/van/C.UPF
     MD5 check sum: 1a69bf6b8db32088f5b2163dbdb77a27
     Pseudo is Ultrasoft, Zval =  4.0
     Generated by new atomic code, or converted to UPF format
     Using radial grid of  721 points,  4 beta functions with:
                l(1) =   0
                l(2) =   0
                l(3) =   1
                l(4) =   1
     Q(r) pseudized with  8 coefficients,  rinner =    0.800   0.800   0.800

     PseudoPot. # 4 for H  read from file:
     /storage/coda1/p-amedford6/0/shared/rich_project_chbe-medford/medford-share/data/pseudos_module/espresso/nninc/pbe/van/H.UPF
     MD5 check sum: b5ee9d7bfd3a09ee7748110bda690ff7
     Pseudo is Ultrasoft, Zval =  1.0
     Generated by new atomic code, or converted to UPF format
     Using radial grid of  615 points,  1 beta functions with:
                l(1) =   0
     Q(r) pseudized with  8 coefficients,  rinner =    0.800

     PseudoPot. # 5 for N  read from file:
     /storage/coda1/p-amedford6/0/shared/rich_project_chbe-medford/medford-share/data/pseudos_module/espresso/nninc/pbe/van/N.UPF
     MD5 check sum: 90d10febe142ad51ac9d5be1deb811c4
     Pseudo is Ultrasoft, Zval =  5.0
     Generated by new atomic code, or converted to UPF format
     Using radial grid of  729 points,  4 beta functions with:
                l(1) =   0
                l(2) =   0
                l(3) =   1
                l(4) =   1
     Q(r) pseudized with  8 coefficients,  rinner =    0.800   0.800   0.800

     atomic species   valence    mass     pseudopotential
        Ti1           12.00    47.86700     Ti( 1.00)
        O1             6.00    15.99900     O ( 1.00)
        C1             4.00    12.01100     C ( 1.00)
        H1             1.00     1.00800     H ( 1.00)
        N1             5.00    14.00700     N ( 1.00)

     No symmetry found

   Cartesian axes

     site n.     atom                  positions (alat units)
         1           Ti1 tau(   1) = (   0.0004258   2.9801865   6.0000000  )
         2           Ti1 tau(   2) = (   3.2906075   1.4906267   6.0002472  )
         3           O1  tau(   3) = (   0.0006271   0.0005054   7.9858123  )
         4           O1  tau(   4) = (   3.2906025   0.0005020   7.3038282  )
         5           O1  tau(   5) = (   4.5942328   1.4918067   9.2879030  )
         6           O1  tau(   6) = (   1.9868534   1.4903216   9.2879459  )
         7           Ti1 tau(   7) = (   3.3371032   3.0268772   9.1887580  )
         8           Ti1 tau(   8) = (   0.0611061   1.5258697   9.2809523  )
         9           O1  tau(   9) = (   3.3143856   0.0188946  11.3581724  )
        10           O1  tau(  10) = (   0.0164151   0.0031400  10.5895864  )
        11           O1  tau(  11) = (   1.3088961   1.4994640  12.6347600  )
        12           O1  tau(  12) = (   5.3347766   1.4946156  12.6347356  )
        13           Ti1 tau(  13) = (   0.0202478   3.0292801  12.5720800  )
        14           Ti1 tau(  14) = (   3.3188568   1.5851219  12.4260843  )
        15           O1  tau(  15) = (   0.0445434   5.9450813  14.6510506  )
        16           O1  tau(  16) = (   3.3207065   5.8849141  14.0104376  )
        17           O1  tau(  17) = (   4.6249962   1.5116716  16.1313945  )
        18           O1  tau(  18) = (   2.0639035   1.5439872  16.0680944  )
        19           Ti1 tau(  19) = (   3.3360141   2.9454253  15.6763505  )
        20           Ti1 tau(  20) = (   0.0686920   1.3314864  15.9334539  )
        21           O1  tau(  21) = (   3.2904802   0.0005063   4.7018136  )
        22           O1  tau(  22) = (   0.0979609   0.0039778  17.1657837  )
        23           O1  tau(  23) = (   1.3043587   1.4918075   6.0039043  )
        24           O1  tau(  24) = (   5.2767064   1.4903225   6.0039473  )
        25           Ti1 tau(  25) = (   0.0000382   5.9609847   6.0000000  )
        26           Ti1 tau(  26) = (   3.2902200   4.4714249   6.0002472  )
        27           O1  tau(  27) = (   0.0002396   2.9813036   7.9858123  )
        28           O1  tau(  28) = (   3.2902150   2.9813002   7.3038282  )
        29           O1  tau(  29) = (   4.5938453   4.4726049   9.2879030  )
        30           O1  tau(  30) = (   1.9864658   4.4711199   9.2879459  )
        31           Ti1 tau(  31) = (   3.3368545   0.0404040   9.1664313  )
        32           Ti1 tau(  32) = (   0.0604674   4.4799263   9.2696248  )
        33           O1  tau(  33) = (   3.3137611   2.9662427  11.3084074  )
        34           O1  tau(  34) = (   0.0134136   2.9850836  10.6046154  )
        35           O1  tau(  35) = (   1.3054726   4.4719986  12.6384794  )
        36           O1  tau(  36) = (   5.3362180   4.4781181  12.6390536  )
        37           Ti1 tau(  37) = (   0.0365240   0.0487139  12.4702884  )
        38           Ti1 tau(  38) = (   3.3180881   4.6653017  12.7087268  )
        39           O1  tau(  39) = (   0.0228105   2.9918545  14.7761892  )
        40           O1  tau(  40) = (   3.3431522   2.9700269  13.9040455  )
        41           O1  tau(  41) = (   4.6265974   4.4152401  16.1544535  )
        42           O1  tau(  42) = (   2.0571238   4.3592187  16.1146037  )
        43           Ti1 tau(  43) = (   3.3848590   5.9294639  16.2700006  )
        44           Ti1 tau(  44) = (   0.0517009   4.5268197  15.8466567  )
        45           O1  tau(  45) = (   3.2900926   2.9813045   4.7018136  )
        46           O1  tau(  46) = (   1.3039711   4.4726057   6.0039043  )
        47           O1  tau(  47) = (   5.2763189   4.4711207   6.0039473  )
        48           C1  tau(  48) = (   5.9450987   3.0517216  18.8599509  )
        49           O1  tau(  49) = (   0.1802289   3.0084098  17.6484507  )
        50           H1  tau(  50) = (   4.9625852   2.6832861  18.5889656  )
        51           H1  tau(  51) = (   1.1163247   3.1442434  17.8758057  )
        52           H1  tau(  52) = (   6.3899442   2.3914015  19.6026461  )
        53           H1  tau(  53) = (   5.8846647   4.0795385  19.2151274  )
        54           N1  tau(  54) = (   5.7598779   3.1323611  22.9045362  )
        55           N1  tau(  55) = (   4.9845974   3.1850264  22.1203839  )
        56           O1  tau(  56) = (   3.1467188   0.0118795  18.1166202  )
        57           H1  tau(  57) = (   2.2164505   0.0865285  18.3868412  )

     number of k points=    10  Fermi-Dirac smearing, width (Ry)=  0.0073
                       cart. coord. in units 2pi/alat
        k(    1) = (   0.0000000   0.0000000   0.0000000), wk =   0.1250000
        k(    2) = (   0.0000000   0.0419351   0.0000000), wk =   0.2500000
        k(    3) = (   0.0000000  -0.0838702   0.0000000), wk =   0.1250000
        k(    4) = (   0.0379955   0.0000049   0.0000000), wk =   0.2500000
        k(    5) = (   0.0379955   0.0419400   0.0000000), wk =   0.2500000
        k(    6) = (   0.0379955  -0.0838652   0.0000000), wk =   0.2500000
        k(    7) = (   0.0379955  -0.0419301   0.0000000), wk =   0.2500000
        k(    8) = (  -0.0759910  -0.0000099   0.0000000), wk =   0.1250000
        k(    9) = (  -0.0759910   0.0419252   0.0000000), wk =   0.2500000
        k(   10) = (  -0.0759910  -0.0838800   0.0000000), wk =   0.1250000

     Initial potential from superposition of free atoms

     starting charge  392.99914, renormalised to  409.00000

     negative rho (up, down):  9.139E-03 0.000E+00

     %%%%%%%%%%%%%%%%%%%%%%%%%%%%%%%%%%%%%%%%%%%%%%%%%%%%%%%%%%%%%%%%%%%%%%%%
     %                                                                      %
     % You are using vdW-DF, which was implemented by the Thonhauser group. %
     % Please cite the following two papers that made this development      %
     % possible and the two reviews that describe the various versions:     %
     %                                                                      %
     %   T. Thonhauser et al., PRL 115, 136402 (2015).                      %
     %   T. Thonhauser et al., PRB 76, 125112 (2007).                       %
     %   K. Berland et al., Rep. Prog. Phys. 78, 066501 (2015).             %
     %   D.C. Langreth et al., J. Phys.: Condens. Matter 21, 084203 (2009). %
     %                                                                      %
     %                                                                      %
     % If you are calculating the stress with vdW-DF, please also cite:     %
     %                                                                      %
     %   R. Sabatini et al., J. Phys.: Condens. Matter 24, 424209 (2012).   %
     %                                                                      %
     %%%%%%%%%%%%%%%%%%%%%%%%%%%%%%%%%%%%%%%%%%%%%%%%%%%%%%%%%%%%%%%%%%%%%%%%

     Adding external electric field

     Computed dipole along edir(3) :
        Dipole              -18.8687 Ry au,        -47.9594 Debye
        Dipole field         -0.0356 Ry au,

        Potential amp.        3.3008 Ry
        Total length         46.3494 bohr

     Starting wfcs are  309 atomic wfcs
  @ DRIVER MODE: Message from server: STATUS
  @ DRIVER MODE: Message from server: POSDATA
  @ DRIVER MODE: Reading and sharing cell
  @ DRIVER MODE: Reading and sharing positions
  @ DRIVER MODE: Received positions

     Self-consistent Calculation

     iteration #  1     ecut=    29.40 Ry     beta= 0.05
     Davidson diagonalization with overlap
     ethr =  1.00E-02,  avg # of iterations =  9.7

[...]

     total energy              =   -2127.83578168 Ry
     estimated scf accuracy    <   10173.41880934 Ry

[...]

     iteration # 11     ecut=    29.40 Ry     beta= 0.05
     Davidson diagonalization with overlap
     c_bands:  2 eigenvalues not converged
     ethr =  1.00E-02,  avg # of iterations = 14.5

[...]

     iteration # 81     ecut=    29.40 Ry     beta= 0.05
     Davidson diagonalization with overlap
     c_bands:  1 eigenvalues not converged
     ethr =  1.44E-10,  avg # of iterations = 16.0

[...]

     total energy              =   -3006.45834243 Ry
     estimated scf accuracy    <       0.00000008 Ry

     iteration # 86     ecut=    29.40 Ry     beta= 0.05
     Davidson diagonalization with overlap
     ethr =  1.94E-11,  avg # of iterations =  8.3

     negative rho (up, down):  1.064E-02 0.000E+00

     Adding external electric field

     Computed dipole along edir(3) :
        Dipole                1.0501 Ry au,          2.6691 Debye
        Dipole field          0.0020 Ry au,

        Potential amp.       -0.1837 Ry
        Total length         46.3494 bohr

     End of self-consistent calculation

          k = 0.0000 0.0000 0.0000 ( 18029 PWs)   bands (ev):

   -55.3288 -55.2535 -55.2183 -55.1441 -55.1222 -55.0874 -55.0515 -55.0468
   -55.0450 -55.0260 -55.0160 -54.9860 -54.8990 -54.8229 -54.2133 -54.1793
   -31.7314 -31.7228 -31.6351 -31.6236 -31.5823 -31.5692 -31.5442 -31.5427
   -31.5079 -31.4964 -31.4850 -31.4203 -31.4072 -31.4070 -31.3803 -31.3621
   -31.3536 -31.3366 -31.3355 -31.3241 -31.3170 -31.3123 -31.2663 -31.2641
   -31.2624 -31.2557 -31.2526 -31.2399 -31.2334 -31.2147 -31.2081 -31.1976
   -31.1959 -31.1759 -31.1712 -31.1634 -31.1620 -31.1282 -31.0878 -31.0683
   -31.0372 -31.0268 -30.6195 -30.5332 -30.5106 -30.4364 -30.3501 -30.2386
   -21.5057 -19.7118 -16.1358 -15.9055 -15.7263 -15.5243 -15.4674 -15.4011
   -15.2138 -15.1404 -14.9846 -14.8593 -14.8446 -14.7881 -14.7868 -14.7767
   -14.7478 -14.7230 -14.6776 -14.6663 -14.6609 -14.6572 -14.5957 -14.5533
   -14.5506 -14.5236 -14.5029 -14.3756 -14.3287 -14.2742 -14.1040 -14.0821
   -12.7129 -12.5968 -10.5724  -6.6858  -6.4095  -4.6674  -4.6296  -4.5910
    -4.4085  -3.6520  -3.3699  -3.2548  -3.1544  -3.1357  -3.0709  -3.0202
    -2.8052  -2.6989  -2.6359  -2.5233  -2.3961  -2.3599  -2.3078  -2.2778
    -2.1860  -2.1679  -2.1361  -2.1062  -2.0508  -2.0229  -2.0153  -2.0024
    -1.9269  -1.9204  -1.7904  -1.7854  -1.7291  -1.6372  -1.6193  -1.5964
    -1.5892  -1.5549  -1.5525  -1.5102  -1.4865  -1.4625  -1.4339  -1.3589
    -1.3394  -1.2764  -1.2392  -1.0068  -0.8524  -0.8278  -0.7474  -0.7311
    -0.7002  -0.6711  -0.6511  -0.6402  -0.6032  -0.5878  -0.4840  -0.3807
    -0.3720  -0.3124  -0.2746  -0.2698  -0.1342  -0.0893  -0.0150   0.0076
     0.0400   0.0610   0.1453   0.1940   0.2157   0.2824   0.3137   0.4191
     0.4566   0.4759   0.5172   0.5726   0.6330   0.6668   0.7062   0.7096
     0.7424   0.7916   0.8210   0.8556   0.8779   0.9250   1.0279   1.0652
     1.0757   1.2163   1.2274   1.3096   1.4343   1.4862   1.7592   1.8117
     1.8585   2.0040   2.3805   2.4274   3.8704   3.9730   3.9940   4.0153
     4.0830   4.1649   4.3303   4.3536   4.4179   4.5192

[...]

          k = 0.0380-0.0419 0.0000 ( 17876 PWs)   bands (ev):

[...]

          k =-0.0760-0.0000 0.0000 ( 17886 PWs)   bands (ev):

[...]

          k =-0.0760-0.0839 0.0000 ( 17948 PWs)   bands (ev):

   -55.3281 -55.2404 -55.2313 -55.1381 -55.1179 -55.0931 -55.0507 -55.0460
   -55.0376 -55.0293 -55.0170 -54.9953 -54.8953 -54.8265 -54.1965 -54.1959
   -31.6424 -31.5785 -31.5687 -31.5513 -31.5425 -31.5420 -31.5365 -31.5207
   -31.4584 -31.4537 -31.4148 -31.3935 -31.3820 -31.3768 -31.3604 -31.3581
   -31.3547 -31.3527 -31.3460 -31.3400 -31.3350 -31.3331 -31.3177 -31.3155
   -31.2967 -31.2859 -31.2566 -31.2502 -31.2475 -31.2433 -31.2354 -31.2339
   -31.2275 -31.2227 -31.2188 -31.2144 -31.2120 -31.1734 -31.1548 -31.0918
   -31.0743 -31.0307 -30.5235 -30.5231 -30.4333 -30.4317 -30.3935 -30.3924
   -21.5056 -19.7080 -16.1122 -15.5354 -15.3789 -15.2081 -15.1942 -15.1148
   -15.0233 -15.0056 -14.9749 -14.9616 -14.9445 -14.9200 -14.9119 -14.8767
   -14.8138 -14.7719 -14.7488 -14.7405 -14.6936 -14.6884 -14.6849 -14.6221
   -14.6147 -14.5966 -14.5721 -14.5123 -14.5031 -14.4026 -14.3876 -14.2152
   -12.6992 -12.6982 -10.5745  -6.6860  -6.4114  -4.6628  -4.6364  -4.5786
    -4.4008  -3.6173  -3.3604  -2.6839  -2.5993  -2.5364  -2.4319  -2.3534
    -2.2998  -2.2501  -2.2290  -2.1841  -2.1630  -2.0935  -2.0588  -2.0500
    -2.0307  -2.0285  -1.9979  -1.9826  -1.9698  -1.9486  -1.9203  -1.9030
    -1.8924  -1.8715  -1.8516  -1.8257  -1.8136  -1.8037  -1.7888  -1.7728
    -1.6620  -1.6453  -1.6126  -1.4500  -1.4386  -1.3694  -1.3378  -1.3113
    -1.3076  -1.2772  -1.2621  -1.2202  -1.1148  -1.0867  -1.0375  -0.9965
    -0.9031  -0.8873  -0.8364  -0.7854  -0.7396  -0.7111  -0.6805  -0.6653
    -0.6115  -0.4732  -0.4524  -0.4073  -0.2882  -0.2149  -0.1992  -0.1867
    -0.1649  -0.1418  -0.0953  -0.0872  -0.0253  -0.0127   0.0582   0.0621
     0.0912   0.1128   0.2153   0.3374   0.4160   0.4598   0.5047   0.5541
     0.5878   0.6702   0.7465   0.8328   0.9088   0.9383   0.9521   1.0697
     1.1022   1.1548   1.2008   1.2210   1.2792   1.3149   1.3552   1.3883
     2.1727   2.1864   2.2426   2.2484   4.0512   4.3012   4.3612   4.3783
     4.3879   4.4203   4.4413   4.4927   4.5092   4.5331

     the Fermi energy is     3.8806 ev

!    total energy              =   -3006.45834863 Ry
     estimated scf accuracy    <       0.00000007 Ry
     smearing contrib. (-TS)   =      -0.02082579 Ry
     internal energy E=F+TS    =   -3006.43752285 Ry

     The total energy is F=E-TS. E is the sum of the following terms:
     one-electron contribution =  -22317.79349796 Ry
     hartree contribution      =   11258.41680093 Ry
     xc contribution           =    -501.14614021 Ry
     ewald contribution        =    8554.08323349 Ry
     electric field correction =       0.00208091 Ry

     convergence has been achieved in  86 iterations

     Forces acting on atoms (cartesian axes, Ry/au):

     atom    1 type  1   force =    -0.00037543   -0.00017466    0.09496484
     atom    2 type  1   force =    -0.00035610    0.00513530   -0.17481678
     atom    3 type  2   force =     0.00070668    0.00012936   -0.02672492
     atom    4 type  2   force =     0.00129007    0.00083687    0.05208629
     atom    5 type  2   force =    -0.01096832   -0.00256029    0.00078514
     atom    6 type  2   force =     0.01193960   -0.00381005    0.00179363
     atom    7 type  1   force =    -0.00021975    0.00038971    0.00069333
     atom    8 type  1   force =     0.00014001    0.00022667    0.00018711
     atom    9 type  2   force =     0.00024950    0.00075636   -0.00065851
     atom   10 type  2   force =    -0.00038983    0.00016095    0.00013542
     atom   11 type  2   force =     0.00044584   -0.00015354    0.00010045
     atom   12 type  2   force =    -0.00085337   -0.00015367    0.00035318
     atom   13 type  1   force =     0.00043720    0.00035375   -0.00022091
     atom   14 type  1   force =    -0.00034251   -0.00071519    0.00093964
     atom   15 type  2   force =    -0.00014151   -0.00053507   -0.00100855
     atom   16 type  2   force =    -0.00027717    0.00000769   -0.00022289
     atom   17 type  2   force =    -0.00098606    0.00030425   -0.00001715
     atom   18 type  2   force =     0.00048890    0.00068366   -0.00008262
     atom   19 type  1   force =     0.00024832   -0.00082161    0.00017927
     atom   20 type  1   force =    -0.00024750    0.00009602    0.00038825
     atom   21 type  2   force =    -0.00000352    0.00007501    0.10303135
     atom   22 type  2   force =    -0.00002653   -0.00014769    0.00099758
     atom   23 type  2   force =    -0.07195010    0.00013867   -0.02803106
     atom   24 type  2   force =     0.07178504    0.00063581   -0.02813664
     atom   25 type  1   force =    -0.00036431    0.00025989    0.10241886
     atom   26 type  1   force =    -0.00010703   -0.00475814   -0.17506187
     atom   27 type  2   force =     0.00084762    0.00117005   -0.02485380
     atom   28 type  2   force =     0.00119565    0.00024855    0.05171526
     atom   29 type  2   force =    -0.01192722    0.00381646    0.00172851
     atom   30 type  2   force =     0.01376774    0.00146672    0.00246002
     atom   31 type  1   force =    -0.00029099   -0.00015973    0.00082917
     atom   32 type  1   force =     0.00028269    0.00028848    0.00061684
     atom   33 type  2   force =     0.00000525    0.00020765    0.00008295
     atom   34 type  2   force =    -0.00027356   -0.00032388   -0.00057018
     atom   35 type  2   force =    -0.00022518    0.00004960   -0.00048189
     atom   36 type  2   force =    -0.00038547    0.00009464   -0.00009947
     atom   37 type  1   force =    -0.00005616   -0.00035164    0.00004100
     atom   38 type  1   force =    -0.00056811    0.00028663    0.00000918
     atom   39 type  2   force =    -0.00025528   -0.00025314    0.00076032
     atom   40 type  2   force =    -0.00019904    0.00011817    0.00028126
     atom   41 type  2   force =    -0.00140945   -0.00025760   -0.00006133
     atom   42 type  2   force =     0.00108222   -0.00013096   -0.00050714
     atom   43 type  1   force =    -0.00020228    0.00055100    0.00017185
     atom   44 type  1   force =    -0.00006940    0.00012732    0.00008406
     atom   45 type  2   force =     0.00000252    0.00013739    0.10261917
     atom   46 type  2   force =    -0.07184571   -0.00062861   -0.02797599
     atom   47 type  2   force =     0.07170383   -0.00013825   -0.02805199
     atom   48 type  3   force =    -0.00032769   -0.00014432    0.00002688
     atom   49 type  2   force =    -0.00120654   -0.00078942    0.00019909
     atom   50 type  4   force =    -0.00006829   -0.00044795   -0.00020636
     atom   51 type  4   force =     0.00035818    0.00039345   -0.00067529
     atom   52 type  4   force =    -0.00020438    0.00008754   -0.00046461
     atom   53 type  4   force =    -0.00001936   -0.00040161   -0.00106450
     atom   54 type  5   force =     0.00014337   -0.00007950    0.00035991
     atom   55 type  5   force =    -0.00049740    0.00006234   -0.00031957
     atom   56 type  2   force =     0.00081355   -0.00055727    0.00047213
     atom   57 type  4   force =    -0.00029324   -0.00080216   -0.00119800

     Total force =     0.364815     Total SCF correction =     0.000688
  @ DRIVER MODE: Message from server: STATUS
  @ DRIVER MODE: Message from server: GETFORCE
  @ DRIVER MODE: Returning v,forces,stress,ensemble

     Writing output data file ./calc.save/
  @ DRIVER MODE: Message from server: EXIT
  @ DRIVE MODE: Exiting

     General routines

     Parallel routines

   This run was terminated on:  14:47:19  25Sep2021

   JOB DONE.