     Program PWSCF v.6.7GPU starts on 18Oct2021 at 20:21:15

     R & G space division:  proc/nbgrp/npool/nimage =       8
     Reading input from /storage/home/hcoda1/3/ntian30/research/carbon/CxH_vib/Thiel_calc/ads_slab/NH2NHH_perslab/out_0019/pw.inp
Warning: card &CELL ignored
Warning: card   CELL_DYNAMICS='IPI', ignored
Warning: card / ignored

     Current dimensions of program PWSCF are:
     Max number of different atomic species (ntypx) = 10
     Max number of k-points (npk) =  40000
     Max angular momentum in pseudopotentials (lmaxx) =  3
     Presently no symmetry can be used with electric field

     Message from routine cell_base_init:
     DEPRECATED: use true lattice parameter, not A to a.u. conversion factor

     IMPORTANT: XC functional enforced from input :
     Exchange-correlation= BEEF-VDW
                           (   1   4  43  14   2   0   0)
     Any further DFT definition will be discarded
     Please, verify this is what you really want

  @ DRIVER MODE: Connecting to
 qe_1139763_3255134.sched-torque.pace.gatech.edu_w03u4dv_scratch
  using UNIX socket
  @ DRIVER MODE: Message from server: STATUS
  @ DRIVER MODE: Message from server: INIT
  @ DRIVER MODE: Receiving replica           0          -1
  @ DRIVER MODE: Receiving encoded integer          25
  @ DRIVER MODE:  SCF:  T  FORCE:  T  STRESS:  F  VC:  F  ENSEMBLE:  F
  @ DRIVER MODE:  SCF:  T  FORCE:  T  STRESS:  F  VC:  F  ENSEMBLE:  F

     Using Slab Decomposition

     bravais-lattice index     =            0
     lattice parameter (alat)  =       1.8897  a.u.
     unit-cell volume          =    9988.4706 (a.u.)^3
     number of atoms/cell      =           59
     number of atomic types    =            4
     number of electrons       =       440.00
     number of Kohn-Sham states=          230
     kinetic-energy cutoff     =      29.3995  Ry
     charge density cutoff     =     293.9946  Ry
     scf convergence threshold =      7.3E-08
     mixing beta               =       0.0500
     number of iterations used =            8  plain     mixing
     Exchange-correlation= BEEF-VDW
                           (   1   4  43  14   2   0   0)

     celldm(1)=   1.889726  celldm(2)=   0.000000  celldm(3)=   0.000000
     celldm(4)=   0.000000  celldm(5)=   0.000000  celldm(6)=   0.000000

     crystal axes: (cart. coord. in units of alat)
               a(1) = (   6.579727   0.000000   0.000000 )
               a(2) = (  -0.001163   8.942395   0.000000 )
               a(3) = (   0.000000   0.000000  25.155947 )

     reciprocal axes: (cart. coord. in units 2 pi/alat)
               b(1) = (  0.151982  0.000020  0.000000 )
               b(2) = (  0.000000  0.111827  0.000000 )
               b(3) = (  0.000000  0.000000  0.039752 )

     PseudoPot. # 1 for O  read from file:
     /storage/coda1/p-amedford6/0/shared/rich_project_chbe-medford/medford-share/data/pseudos_module/espresso/nninc/pbe/van/O.UPF
     MD5 check sum: 78c19812648e8988a0fe644b0f25305e
     Pseudo is Ultrasoft, Zval =  6.0
     Generated by new atomic code, or converted to UPF format
     Using radial grid of  737 points,  4 beta functions with:
                l(1) =   0
                l(2) =   0
                l(3) =   1
                l(4) =   1
     Q(r) pseudized with  8 coefficients,  rinner =    0.800   0.800   0.800

     PseudoPot. # 2 for Ti read from file:
     /storage/coda1/p-amedford6/0/shared/rich_project_chbe-medford/medford-share/data/pseudos_module/espresso/nninc/pbe/van/Ti.UPF
     MD5 check sum: 8e4df49b7f0d34bbd5052bf3f5ea0213
     Pseudo is Ultrasoft, Zval = 12.0
     Generated by new atomic code, or converted to UPF format
     Using radial grid of  851 points,  6 beta functions with:
                l(1) =   0
                l(2) =   0
                l(3) =   1
                l(4) =   1
                l(5) =   2
                l(6) =   2
     Q(r) pseudized with  8 coefficients,  rinner =    1.000   1.000   1.000
                                                       1.000   1.000

     PseudoPot. # 3 for H  read from file:
     /storage/coda1/p-amedford6/0/shared/rich_project_chbe-medford/medford-share/data/pseudos_module/espresso/nninc/pbe/van/H.UPF
     MD5 check sum: b5ee9d7bfd3a09ee7748110bda690ff7
     Pseudo is Ultrasoft, Zval =  1.0
     Generated by new atomic code, or converted to UPF format
     Using radial grid of  615 points,  1 beta functions with:
                l(1) =   0
     Q(r) pseudized with  8 coefficients,  rinner =    0.800

     PseudoPot. # 4 for N  read from file:
     /storage/coda1/p-amedford6/0/shared/rich_project_chbe-medford/medford-share/data/pseudos_module/espresso/nninc/pbe/van/N.UPF
     MD5 check sum: 90d10febe142ad51ac9d5be1deb811c4
     Pseudo is Ultrasoft, Zval =  5.0
     Generated by new atomic code, or converted to UPF format
     Using radial grid of  729 points,  4 beta functions with:
                l(1) =   0
                l(2) =   0
                l(3) =   1
                l(4) =   1
     Q(r) pseudized with  8 coefficients,  rinner =    0.800   0.800   0.800

     atomic species   valence    mass     pseudopotential
        O1             6.00    15.99900     O ( 1.00)
        Ti1           12.00    47.86700     Ti( 1.00)
        H1             1.00     1.00800     H ( 1.00)
        N1             5.00    14.00700     N ( 1.00)

     No symmetry found

   Cartesian axes

     site n.     atom                  positions (alat units)
         1           O1  tau(   1) = (   0.0007354   0.0005023  10.5931620  )
         2           O1  tau(   2) = (   3.2887669   8.9343558  13.7857904  )
         3           O1  tau(   3) = (  -0.0004435   8.9037079  17.1656601  )
         4           O1  tau(   4) = (   0.0006271   0.0005054   7.9858123  )
         5           O1  tau(   5) = (   3.2907596   0.0056730  11.1454013  )
         6           O1  tau(   6) = (   0.0000918   8.9024801  14.5153886  )
         7           O1  tau(   7) = (   1.9868534   1.4903216   9.2879459  )
         8           O1  tau(   8) = (   5.2129768   1.5767634  12.5412193  )
         9           O1  tau(   9) = (   2.0410104   1.4081166  15.9738913  )
        10           Ti1 tau(  10) = (   0.0007404   1.4906270   9.2895810  )
        11           Ti1 tau(  11) = (   3.2923993   1.3029312  12.4395176  )
        12           Ti1 tau(  12) = (   6.5786190   1.6682186  16.0479855  )
        13           O1  tau(  13) = (   4.5942328   1.4918067   9.2879030  )
        14           O1  tau(  14) = (   1.3693608   1.5763615  12.5409223  )
        15           O1  tau(  15) = (   4.5388119   1.4066068  15.9736107  )
        16           Ti1 tau(  16) = (   3.2902859   2.9801868   9.2893338  )
        17           Ti1 tau(  17) = (   0.0025983   2.7818652  12.5490862  )
        18           Ti1 tau(  18) = (   3.2890997   3.0957086  15.6341045  )
        19           O1  tau(  19) = (   0.0003479   2.9813005  10.5931620  )
        20           O1  tau(  20) = (   3.2906043   2.9558292  13.7911244  )
        21           O1  tau(  21) = (   0.0002396   2.9813036   7.9858123  )
        22           O1  tau(  22) = (   3.2907828   2.9846389  11.1656624  )
        23           O1  tau(  23) = (   0.0000664   2.9755257  14.5967958  )
        24           O1  tau(  24) = (   1.9864658   4.4711199   9.2879459  )
        25           O1  tau(  25) = (   5.2254851   4.5442098  12.5530165  )
        26           O1  tau(  26) = (   2.0413797   4.3804877  15.9810922  )
        27           Ti1 tau(  27) = (   0.0003529   4.4714252   9.2895810  )
        28           Ti1 tau(  28) = (   3.2927641   4.3249026  12.5337624  )
        29           Ti1 tau(  29) = (  -0.0001393   4.3779101  16.0758329  )
        30           O1  tau(  30) = (   4.5938453   4.4726049   9.2879030  )
        31           O1  tau(  31) = (   1.3554856   4.5423027  12.5528228  )
        32           O1  tau(  32) = (   4.5375453   4.3808357  15.9816482  )
        33           Ti1 tau(  33) = (   3.2898983   5.9609850   9.2893338  )
        34           Ti1 tau(  34) = (   0.0022780   5.7553130  12.5179661  )
        35           Ti1 tau(  35) = (   3.2911749   6.0723021  16.2828521  )
        36           O1  tau(  36) = (  -0.0000397   5.9620987  10.5931620  )
        37           O1  tau(  37) = (   3.2898444   5.9099340  13.7874885  )
        38           O1  tau(  38) = (  -0.0002305   5.9963729  17.1613877  )
        39           O1  tau(  39) = (  -0.0001480   5.9621018   7.9858123  )
        40           O1  tau(  40) = (   3.2898933   5.9403142  11.1650959  )
        41           O1  tau(  41) = (   0.0001730   6.0398540  14.5337486  )
        42           O1  tau(  42) = (   1.9860782   7.4519181   9.2879459  )
        43           O1  tau(  43) = (   5.2203866   7.5240042  12.5266709  )
        44           O1  tau(  44) = (   2.0308607   7.4363189  15.9936472  )
        45           Ti1 tau(  45) = (  -0.0000347   7.4522234   9.2895810  )
        46           Ti1 tau(  46) = (   3.2897547   7.2013570  12.5904776  )
        47           Ti1 tau(  47) = (  -0.0001197   7.5007381  15.6461876  )
        48           O1  tau(  48) = (   4.5934577   7.4534031   9.2879030  )
        49           O1  tau(  49) = (   1.3580612   7.5226468  12.5263262  )
        50           O1  tau(  50) = (   4.5486487   7.4363691  15.9933312  )
        51           Ti1 tau(  51) = (   3.2895107   8.9417832   9.2893338  )
        52           Ti1 tau(  52) = (  -0.0005051   8.7269297  12.4809553  )
        53           Ti1 tau(  53) = (   3.2886672   0.0795926  15.6360096  )
        54           H1  tau(  54) = (   6.5784023   6.0277306  18.1241331  )
        55           H1  tau(  55) = (   6.5784455   8.8634660  18.1266539  )
        56           N1  tau(  56) = (   6.5791914   3.0063145  17.2269018  )
        57           N1  tau(  57) = (   3.2802358   5.9939226  18.1904466  )
        58           H1  tau(  58) = (   3.2886139   5.1344262  18.7255412  )
        59           H1  tau(  59) = (   3.2892998   6.7958846  18.8069972  )

     number of k points=    10  Fermi-Dirac smearing, width (Ry)=  0.0073
                       cart. coord. in units 2pi/alat
        k(    1) = (   0.0000000   0.0000000   0.0000000), wk =   0.1250000
        k(    2) = (   0.0000000   0.0279567   0.0000000), wk =   0.2500000
        k(    3) = (   0.0000000  -0.0559134   0.0000000), wk =   0.1250000
        k(    4) = (   0.0379955   0.0000049   0.0000000), wk =   0.2500000
        k(    5) = (   0.0379955   0.0279617   0.0000000), wk =   0.2500000
        k(    6) = (   0.0379955  -0.0559085   0.0000000), wk =   0.2500000
        k(    7) = (   0.0379955  -0.0279518   0.0000000), wk =   0.2500000
        k(    8) = (  -0.0759910  -0.0000099   0.0000000), wk =   0.1250000
        k(    9) = (  -0.0759910   0.0279468   0.0000000), wk =   0.2500000
        k(   10) = (  -0.0759910  -0.0559233   0.0000000), wk =   0.1250000

     Initial potential from superposition of free atoms

     starting charge  421.99910, renormalised to  440.00000

     negative rho (up, down):  3.748E-02 0.000E+00

     %%%%%%%%%%%%%%%%%%%%%%%%%%%%%%%%%%%%%%%%%%%%%%%%%%%%%%%%%%%%%%%%%%%%%%%%
     %                                                                      %
     % You are using vdW-DF, which was implemented by the Thonhauser group. %
     % Please cite the following two papers that made this development      %
     % possible and the two reviews that describe the various versions:     %
     %                                                                      %
     %   T. Thonhauser et al., PRL 115, 136402 (2015).                      %
     %   T. Thonhauser et al., PRB 76, 125112 (2007).                       %
     %   K. Berland et al., Rep. Prog. Phys. 78, 066501 (2015).             %
     %   D.C. Langreth et al., J. Phys.: Condens. Matter 21, 084203 (2009). %
     %                                                                      %
     %                                                                      %
     % If you are calculating the stress with vdW-DF, please also cite:     %
     %                                                                      %
     %   R. Sabatini et al., J. Phys.: Condens. Matter 24, 424209 (2012).   %
     %                                                                      %
     %%%%%%%%%%%%%%%%%%%%%%%%%%%%%%%%%%%%%%%%%%%%%%%%%%%%%%%%%%%%%%%%%%%%%%%%

     Adding external electric field

     Computed dipole along edir(3) :
        Dipole               -3.9322 Ry au,         -9.9948 Debye
        Dipole field         -0.0049 Ry au,

        Potential amp.        0.4586 Ry
        Total length         46.3494 bohr

     Starting wfcs are  332 atomic wfcs
  @ DRIVER MODE: Message from server: STATUS
  @ DRIVER MODE: Message from server: POSDATA
  @ DRIVER MODE: Reading and sharing cell
  @ DRIVER MODE: Reading and sharing positions
  @ DRIVER MODE: Received positions

     Self-consistent Calculation

     iteration #  1     ecut=    29.40 Ry     beta= 0.05
     Davidson diagonalization with overlap
     c_bands:  2 eigenvalues not converged
     c_bands:  3 eigenvalues not converged
     c_bands:  5 eigenvalues not converged
     c_bands:  4 eigenvalues not converged
     c_bands:  1 eigenvalues not converged
     c_bands:  4 eigenvalues not converged
     c_bands:  5 eigenvalues not converged
     c_bands:  4 eigenvalues not converged
     c_bands:  3 eigenvalues not converged
     ethr =  1.00E-05,  avg # of iterations = 19.8

[...]

     total energy              =   -3294.69842627 Ry
     estimated scf accuracy    <      19.95547372 Ry

     iteration #  2     ecut=    29.40 Ry     beta= 0.05
     Davidson diagonalization with overlap
     ethr =  4.54E-03,  avg # of iterations =  1.5

[...]

     iteration # 24     ecut=    29.40 Ry     beta= 0.05
     Davidson diagonalization with overlap
     c_bands:  1 eigenvalues not converged
     ethr =  1.90E-06,  avg # of iterations = 10.9

[...]

     total energy              =   -3293.27274579 Ry
     estimated scf accuracy    <       0.00000027 Ry

     iteration # 55     ecut=    29.40 Ry     beta= 0.05
     Davidson diagonalization with overlap
     ethr =  2.87E-11,  avg # of iterations =  5.0

     negative rho (up, down):  3.595E-02 0.000E+00

     Adding external electric field

     Computed dipole along edir(3) :
        Dipole                1.3168 Ry au,          3.3469 Debye
        Dipole field          0.0017 Ry au,

        Potential amp.       -0.1536 Ry
        Total length         46.3494 bohr

     End of self-consistent calculation

          k = 0.0000 0.0000 0.0000 ( 26871 PWs)   bands (ev):

   -58.2799 -58.2566 -58.2512 -58.2266 -58.1672 -57.7779 -57.7742 -57.7542
   -57.6695 -57.5726 -57.5686 -57.5461 -57.3362 -56.8619 -56.8379 -56.8212
   -56.7388 -56.6387 -34.6900 -34.6504 -34.6176 -34.6021 -34.5979 -34.5965
   -34.5473 -34.4927 -34.4552 -34.4117 -34.4055 -34.3892 -34.3843 -34.3641
   -34.3165 -34.1922 -34.1413 -34.1348 -34.1262 -34.1216 -34.0768 -34.0550
   -34.0541 -34.0136 -34.0012 -33.9575 -33.9562 -33.8581 -33.8536 -33.8266
   -33.8193 -33.8037 -33.7693 -33.7575 -33.7513 -33.7328 -33.6841 -33.5762
   -33.5445 -33.2340 -33.2066 -33.1884 -33.1718 -33.1657 -33.1486 -33.0699
   -33.0570 -33.0115 -32.9930 -32.9839 -32.9509 -32.8882 -32.8705 -32.7667
   -18.9500 -18.8275 -18.7368 -18.3607 -18.3013 -18.1685 -18.1115 -18.1045
   -18.0110 -17.9420 -17.7181 -17.6700 -17.6581 -17.6336 -17.5380 -17.5252
   -17.5158 -17.4839 -17.4596 -17.4536 -17.3512 -17.3137 -17.2992 -17.2942
   -17.2627 -17.1840 -17.1346 -17.0396 -17.0066 -17.0042 -16.8347 -16.7947
   -15.3386 -15.2975 -15.2888 -15.2482 -11.6043  -6.9831  -6.8108  -6.6985
    -6.1802  -5.9693  -5.7730  -5.6108  -5.5136  -5.4470  -5.3772  -5.3106
    -5.2756  -5.2543  -5.2033  -5.1631  -5.0629  -5.0546  -4.9621  -4.9059
    -4.8764  -4.8451  -4.7666  -4.7446  -4.7281  -4.6788  -4.6180  -4.6084
    -4.5693  -4.4939  -4.4854  -4.4706  -4.4321  -4.4260  -4.3717  -4.2828
    -4.1943  -4.1638  -4.1540  -4.1130  -4.0408  -4.0317  -4.0085  -3.9816
    -3.9750  -3.9448  -3.8684  -3.8425  -3.7362  -3.6449  -3.6155  -3.6003
    -3.5116  -3.4298  -3.3732  -3.3468  -3.1725  -3.1459  -3.1030  -3.0396
    -3.0289  -2.9674  -2.9441  -2.9200  -2.8906  -2.8681  -2.8034  -2.7945
    -2.7933  -2.7729  -2.7483  -2.7010  -2.6513  -2.6305  -2.5681  -2.5386
    -2.5241  -2.4996  -2.4545  -2.4344  -2.3191  -2.2687  -2.2564  -2.2376
    -2.2323  -2.1531  -2.0753  -2.0179  -1.9993  -1.8718  -1.8666  -1.7512
    -1.7081  -1.7023  -1.6493  -1.5765  -1.5308  -1.4832  -1.3722  -1.2408
    -1.1755  -1.0930  -1.0281  -0.7641  -0.6709  -0.5548  -0.5478  -0.5351
    -0.5150  -0.3666  -0.3521  -0.2558   0.9953   1.1313   1.2894   1.3127
     1.5131   1.6010   1.6244   1.6665   1.7662   1.8167

[...]

          k = 0.0380-0.0280 0.0000 ( 26873 PWs)   bands (ev):

[...]

          k =-0.0760-0.0000 0.0000 ( 26902 PWs)   bands (ev):

[...]

          k =-0.0760-0.0559 0.0000 ( 26868 PWs)   bands (ev):

   -58.2735 -58.2689 -58.2452 -58.2264 -58.1672 -57.7776 -57.7741 -57.7546
   -57.6693 -57.5726 -57.5695 -57.5453 -57.3362 -56.8587 -56.8439 -56.8183
   -56.7388 -56.6386 -34.7182 -34.6928 -34.6510 -34.6233 -34.5918 -34.5062
   -34.4916 -34.4326 -34.4277 -34.4179 -34.4100 -34.4065 -34.4017 -34.3657
   -34.3640 -34.2325 -34.1729 -34.1588 -34.1291 -34.1212 -34.0607 -34.0078
   -33.9938 -33.9896 -33.9668 -33.9586 -33.9261 -33.9012 -33.8834 -33.8752
   -33.8309 -33.8033 -33.7693 -33.7552 -33.7500 -33.7337 -33.6860 -33.5758
   -33.5492 -33.2490 -33.2209 -33.2076 -33.1938 -33.1691 -33.0595 -33.0563
   -33.0392 -32.9837 -32.9816 -32.9737 -32.9586 -32.9514 -32.8886 -32.7737
   -18.9098 -18.7524 -18.6282 -18.4711 -18.2345 -18.1319 -17.9704 -17.8868
   -17.8626 -17.8598 -17.8439 -17.7445 -17.7386 -17.7032 -17.6458 -17.6188
   -17.6082 -17.6038 -17.5548 -17.5519 -17.3569 -17.3475 -17.2921 -17.2507
   -17.2262 -17.2038 -17.1038 -17.1023 -17.0318 -16.9571 -16.8537 -16.7705
   -15.3491 -15.3385 -15.2486 -15.2275 -11.6012  -6.9236  -6.8338  -6.6992
    -5.9557  -5.7460  -5.7185  -5.6692  -5.3508  -5.2968  -5.1959  -5.1679
    -5.1293  -5.1130  -5.0726  -5.0706  -5.0006  -4.9562  -4.9422  -4.9154
    -4.9012  -4.8715  -4.8411  -4.8163  -4.7538  -4.7497  -4.7348  -4.6914
    -4.6444  -4.5594  -4.5366  -4.5183  -4.4677  -4.4285  -4.2539  -4.2078
    -4.1816  -4.1667  -4.0809  -4.0562  -3.9796  -3.9497  -3.9060  -3.8303
    -3.7358  -3.6884  -3.6386  -3.5833  -3.5577  -3.5270  -3.5215  -3.4690
    -3.4407  -3.3910  -3.3587  -3.3529  -3.3019  -3.2453  -3.1992  -3.1805
    -3.1541  -3.1491  -3.1261  -3.1003  -3.0698  -3.0471  -3.0426  -2.9846
    -2.9369  -2.9241  -2.8495  -2.8176  -2.7636  -2.7104  -2.6868  -2.6308
    -2.6236  -2.5697  -2.5641  -2.4996  -2.4716  -2.4231  -2.4102  -2.3389
    -2.1601  -2.0960  -1.9913  -1.9465  -1.9356  -1.8664  -1.8332  -1.8208
    -1.6814  -1.6708  -1.6077  -1.6046  -1.5794  -1.3674  -1.3399  -1.3039
    -1.2738  -1.2356  -1.2023  -1.0901  -0.7976  -0.7099  -0.6740  -0.4840
    -0.4620  -0.4178  -0.3871  -0.3727   1.0404   1.2089   1.2772   1.3584
     1.3795   1.4217   1.4515   1.6378   1.6688   1.6998

     the Fermi energy is     0.3952 ev

!    total energy              =   -3293.27280922 Ry
     estimated scf accuracy    <       0.00000006 Ry
     smearing contrib. (-TS)   =      -0.00047501 Ry
     internal energy E=F+TS    =   -3293.27233421 Ry

     The total energy is F=E-TS. E is the sum of the following terms:
     one-electron contribution =  -34645.91076463 Ry
     hartree contribution      =   17387.49503460 Ry
     xc contribution           =    -542.13003665 Ry
     ewald contribution        =   14507.27125115 Ry
     electric field correction =       0.00218132 Ry

     convergence has been achieved in  55 iterations

     Forces acting on atoms (cartesian axes, Ry/au):

     atom    1 type  1   force =     0.00002391    0.00608830    0.04336121
     atom    2 type  1   force =     0.00001727   -0.00403429   -0.00308402
     atom    3 type  1   force =    -0.00000344    0.00280362   -0.00208923
     atom    4 type  1   force =     0.00004937   -0.00044914    0.10165561
     atom    5 type  1   force =    -0.00000370    0.00013616    0.00747794
     atom    6 type  1   force =    -0.00002513    0.00311344    0.00047442
     atom    7 type  1   force =     0.07786395    0.00122555   -0.03553805
     atom    8 type  1   force =     0.00795323   -0.02605770    0.00024258
     atom    9 type  1   force =     0.00931574    0.01906610    0.00057666
     atom   10 type  2   force =    -0.00004935    0.00812268   -0.15939772
     atom   11 type  2   force =    -0.00006509    0.02226156   -0.00327396
     atom   12 type  2   force =     0.00003887   -0.02377103   -0.00518294
     atom   13 type  1   force =    -0.07794915    0.00076001   -0.03552751
     atom   14 type  1   force =    -0.00807567   -0.02593356    0.00026447
     atom   15 type  1   force =    -0.00939434    0.01915492    0.00062822
     atom   16 type  2   force =     0.00009510    0.00151820    0.07236451
     atom   17 type  2   force =     0.00008900    0.03130337    0.00147282
     atom   18 type  2   force =    -0.00006967   -0.02631519    0.00310244
     atom   19 type  1   force =     0.00005597    0.00277709    0.05722194
     atom   20 type  1   force =     0.00001573   -0.00179313    0.00096755
     atom   21 type  1   force =     0.00005030   -0.00089392    0.10058120
     atom   22 type  1   force =     0.00000747   -0.00255854    0.00650139
     atom   23 type  1   force =    -0.00003769    0.00310523    0.00435255
     atom   24 type  1   force =     0.07898039    0.00059535   -0.03635386
     atom   25 type  1   force =     0.00962010   -0.02997454    0.00062568
     atom   26 type  1   force =     0.01029346    0.01547066    0.00388636
     atom   27 type  2   force =    -0.00008992   -0.00571446   -0.15462137
     atom   28 type  2   force =     0.00001551    0.02796847   -0.00280549
     atom   29 type  2   force =     0.00010040   -0.01128353   -0.01281987
     atom   30 type  1   force =    -0.07906010    0.00019410   -0.03635858
     atom   31 type  1   force =    -0.00969982   -0.02980811    0.00062886
     atom   32 type  1   force =    -0.01024739    0.01566372    0.00412906
     atom   33 type  2   force =     0.00011060   -0.00294834    0.07718688
     atom   34 type  2   force =     0.00004233    0.03528811    0.00329196
     atom   35 type  2   force =    -0.00065824   -0.01750165   -0.00024155
     atom   36 type  1   force =     0.00008471    0.00417103    0.05150927
     atom   37 type  1   force =     0.00001528   -0.00284392   -0.00283969
     atom   38 type  1   force =    -0.00031107    0.00203339    0.00345310
     atom   39 type  1   force =     0.00004811    0.00293548    0.10098848
     atom   40 type  1   force =    -0.00000572   -0.00194698    0.00747872
     atom   41 type  1   force =    -0.00000165    0.00063722    0.00074173
     atom   42 type  1   force =     0.07839005    0.00162867   -0.03445780
     atom   43 type  1   force =     0.00608522   -0.02323096   -0.00033172
     atom   44 type  1   force =     0.01009787    0.01594540   -0.00691395
     atom   45 type  2   force =    -0.00006551   -0.00740406   -0.16393984
     atom   46 type  2   force =    -0.00003418    0.01847780    0.00056581
     atom   47 type  2   force =     0.00013480   -0.01468647    0.01692160
     atom   48 type  1   force =    -0.07849035    0.00118507   -0.03444055
     atom   49 type  1   force =    -0.00607219   -0.02325654   -0.00033068
     atom   50 type  1   force =    -0.01009285    0.01572312   -0.00641665
     atom   51 type  2   force =     0.00009486   -0.00344379    0.06018434
     atom   52 type  2   force =     0.00004515    0.02832116    0.00339706
     atom   53 type  2   force =     0.00000330   -0.02106560    0.00089588
     atom   54 type  3   force =     0.00016239    0.00068748   -0.00179020
     atom   55 type  3   force =     0.00000048   -0.00074570   -0.00042739
     atom   56 type  4   force =    -0.00003630    0.00037321    0.00163748
     atom   57 type  4   force =     0.00085179   -0.00075298    0.00060180
     atom   58 type  3   force =    -0.00009023   -0.00040848   -0.00037906
     atom   59 type  3   force =    -0.00012397    0.00008698    0.00019212

     Total force =     0.434798     Total SCF correction =     0.000821
  @ DRIVER MODE: Message from server: STATUS
  @ DRIVER MODE: Message from server: GETFORCE
  @ DRIVER MODE: Returning v,forces,stress,ensemble

     Writing output data file ./calc.save/
  @ DRIVER MODE: Message from server: EXIT
  @ DRIVE MODE: Exiting

     General routines

     Parallel routines

   This run was terminated on:  20:49:18  18Oct2021

   JOB DONE.