     Program PWSCF v.6.7GPU starts on 15Sep2021 at 16:43:35

     R & G space division:  proc/nbgrp/npool/nimage =      10
     Reading input from /storage/home/hcoda1/3/ntian30/research/carbon/CxH_vib/H2O_calc/ads_slab/CH2NNHHHH2O_a/out_0003/pw.inp
Warning: card &CELL ignored
Warning: card   CELL_DYNAMICS='IPI', ignored
Warning: card / ignored

     Current dimensions of program PWSCF are:
     Max number of different atomic species (ntypx) = 10
     Max number of k-points (npk) =  40000
     Max angular momentum in pseudopotentials (lmaxx) =  3
     Presently no symmetry can be used with electric field

     Message from routine cell_base_init:
     DEPRECATED: use true lattice parameter, not A to a.u. conversion factor

     IMPORTANT: XC functional enforced from input :
     Exchange-correlation= BEEF-VDW
                           (   1   4  43  14   2   0   0)
     Any further DFT definition will be discarded
     Please, verify this is what you really want

  @ DRIVER MODE: Connecting to
 qe_1139763_2852612.sched-torque.pace.gatech.edu3lqulr55_scratch
  using UNIX socket
  @ DRIVER MODE: Message from server: STATUS
  @ DRIVER MODE: Message from server: INIT
  @ DRIVER MODE: Receiving replica           0          -1
  @ DRIVER MODE: Receiving encoded integer          25
  @ DRIVER MODE:  SCF:  T  FORCE:  T  STRESS:  F  VC:  F  ENSEMBLE:  F
  @ DRIVER MODE:  SCF:  T  FORCE:  T  STRESS:  F  VC:  F  ENSEMBLE:  F

     Using Slab Decomposition

     bravais-lattice index     =            0
     lattice parameter (alat)  =       1.8897  a.u.
     unit-cell volume          =    6658.9804 (a.u.)^3
     number of atoms/cell      =           58
     number of atomic types    =            5
     number of electrons       =       405.00
     number of Kohn-Sham states=          212
     kinetic-energy cutoff     =      29.3995  Ry
     charge density cutoff     =     293.9946  Ry
     scf convergence threshold =      7.3E-08
     mixing beta               =       0.0500
     number of iterations used =            8  plain     mixing
     Exchange-correlation= BEEF-VDW
                           (   1   4  43  14   2   0   0)

     celldm(1)=   1.889726  celldm(2)=   0.000000  celldm(3)=   0.000000
     celldm(4)=   0.000000  celldm(5)=   0.000000  celldm(6)=   0.000000

     crystal axes: (cart. coord. in units of alat)
               a(1) = (   6.579727   0.000000   0.000000 )
               a(2) = (  -0.000775   5.961596   0.000000 )
               a(3) = (   0.000000   0.000000  25.155947 )

     reciprocal axes: (cart. coord. in units 2 pi/alat)
               b(1) = (  0.151982  0.000020  0.000000 )
               b(2) = (  0.000000  0.167740  0.000000 )
               b(3) = (  0.000000  0.000000  0.039752 )

     PseudoPot. # 1 for Ti read from file:
     /storage/coda1/p-amedford6/0/shared/rich_project_chbe-medford/medford-share/data/pseudos_module/espresso/nninc/pbe/van/Ti.UPF
     MD5 check sum: 8e4df49b7f0d34bbd5052bf3f5ea0213
     Pseudo is Ultrasoft, Zval = 12.0
     Generated by new atomic code, or converted to UPF format
     Using radial grid of  851 points,  6 beta functions with:
                l(1) =   0
                l(2) =   0
                l(3) =   1
                l(4) =   1
                l(5) =   2
                l(6) =   2
     Q(r) pseudized with  8 coefficients,  rinner =    1.000   1.000   1.000
                                                       1.000   1.000

     PseudoPot. # 2 for O  read from file:
     /storage/coda1/p-amedford6/0/shared/rich_project_chbe-medford/medford-share/data/pseudos_module/espresso/nninc/pbe/van/O.UPF
     MD5 check sum: 78c19812648e8988a0fe644b0f25305e
     Pseudo is Ultrasoft, Zval =  6.0
     Generated by new atomic code, or converted to UPF format
     Using radial grid of  737 points,  4 beta functions with:
                l(1) =   0
                l(2) =   0
                l(3) =   1
                l(4) =   1
     Q(r) pseudized with  8 coefficients,  rinner =    0.800   0.800   0.800

     PseudoPot. # 3 for N  read from file:
     /storage/coda1/p-amedford6/0/shared/rich_project_chbe-medford/medford-share/data/pseudos_module/espresso/nninc/pbe/van/N.UPF
     MD5 check sum: 90d10febe142ad51ac9d5be1deb811c4
     Pseudo is Ultrasoft, Zval =  5.0
     Generated by new atomic code, or converted to UPF format
     Using radial grid of  729 points,  4 beta functions with:
                l(1) =   0
                l(2) =   0
                l(3) =   1
                l(4) =   1
     Q(r) pseudized with  8 coefficients,  rinner =    0.800   0.800   0.800

     PseudoPot. # 4 for C  read from file:
     /storage/coda1/p-amedford6/0/shared/rich_project_chbe-medford/medford-share/data/pseudos_module/espresso/nninc/pbe/van/C.UPF
     MD5 check sum: 1a69bf6b8db32088f5b2163dbdb77a27
     Pseudo is Ultrasoft, Zval =  4.0
     Generated by new atomic code, or converted to UPF format
     Using radial grid of  721 points,  4 beta functions with:
                l(1) =   0
                l(2) =   0
                l(3) =   1
                l(4) =   1
     Q(r) pseudized with  8 coefficients,  rinner =    0.800   0.800   0.800

     PseudoPot. # 5 for H  read from file:
     /storage/coda1/p-amedford6/0/shared/rich_project_chbe-medford/medford-share/data/pseudos_module/espresso/nninc/pbe/van/H.UPF
     MD5 check sum: b5ee9d7bfd3a09ee7748110bda690ff7
     Pseudo is Ultrasoft, Zval =  1.0
     Generated by new atomic code, or converted to UPF format
     Using radial grid of  615 points,  1 beta functions with:
                l(1) =   0
     Q(r) pseudized with  8 coefficients,  rinner =    0.800

     atomic species   valence    mass     pseudopotential
        Ti1           12.00    47.86700     Ti( 1.00)
        O1             6.00    15.99900     O ( 1.00)
        N1             5.00    14.00700     N ( 1.00)
        C1             4.00    12.01100     C ( 1.00)
        H1             1.00     1.00800     H ( 1.00)

     No symmetry found

   Cartesian axes

     site n.     atom                  positions (alat units)
         1           Ti1 tau(   1) = (   0.0004258   2.9801865   6.0000000  )
         2           Ti1 tau(   2) = (   3.2906075   1.4906267   6.0002472  )
         3           O1  tau(   3) = (   0.0006271   0.0005054   7.9858123  )
         4           O1  tau(   4) = (   3.2906025   0.0005020   7.3038282  )
         5           O1  tau(   5) = (   4.5942328   1.4918067   9.2879030  )
         6           O1  tau(   6) = (   1.9868534   1.4903216   9.2879459  )
         7           Ti1 tau(   7) = (   3.2907910   2.8959150   9.1758416  )
         8           Ti1 tau(   8) = (   0.0015273   1.4827037   9.2680791  )
         9           O1  tau(   9) = (   3.2987819   5.9401718  11.3551833  )
        10           O1  tau(  10) = (   0.0116148   5.9584955  10.6183126  )
        11           O1  tau(  11) = (   1.3094369   1.4889762  12.6418845  )
        12           O1  tau(  12) = (   5.3041503   1.4933078  12.6143371  )
        13           Ti1 tau(  13) = (   0.0302489   2.9730182  12.5448133  )
        14           Ti1 tau(  14) = (   3.3273137   1.4751619  12.4920661  )
        15           O1  tau(  15) = (   6.5331299   0.0759724  14.6728253  )
        16           O1  tau(  16) = (   3.3443954   0.0128112  13.9985917  )
        17           O1  tau(  17) = (   4.5384157   1.5150964  16.2525342  )
        18           O1  tau(  18) = (   2.0107438   1.5096167  16.1239609  )
        19           Ti1 tau(  19) = (   3.2468703   2.9375149  15.6823127  )
        20           Ti1 tau(  20) = (   6.5402329   1.3810098  16.1103674  )
        21           O1  tau(  21) = (   3.2904802   0.0005063   4.7018136  )
        22           O1  tau(  22) = (   0.0855018   5.8309792  17.2460454  )
        23           O1  tau(  23) = (   1.3043587   1.4918075   6.0039043  )
        24           O1  tau(  24) = (   5.2767064   1.4903225   6.0039473  )
        25           Ti1 tau(  25) = (   0.0000382   5.9609847   6.0000000  )
        26           Ti1 tau(  26) = (   3.2902200   4.4714249   6.0002472  )
        27           O1  tau(  27) = (   0.0002396   2.9813036   7.9858123  )
        28           O1  tau(  28) = (   3.2902150   2.9813002   7.3038282  )
        29           O1  tau(  29) = (   4.5938453   4.4726049   9.2879030  )
        30           O1  tau(  30) = (   1.9864658   4.4711199   9.2879459  )
        31           Ti1 tau(  31) = (   3.2891106   5.8743827   9.1763621  )
        32           Ti1 tau(  32) = (   0.0006254   4.4649316   9.2693709  )
        33           O1  tau(  33) = (   3.2978634   2.9839445  11.3486163  )
        34           O1  tau(  34) = (   0.0092240   2.9805883  10.6323155  )
        35           O1  tau(  35) = (   1.3057425   4.4725738  12.6940039  )
        36           O1  tau(  36) = (   5.3035974   4.4670288  12.6562451  )
        37           Ti1 tau(  37) = (   0.0240142   0.0094741  12.5095027  )
        38           Ti1 tau(  38) = (   3.3290383   4.4615466  12.5202027  )
        39           O1  tau(  39) = (   6.5484913   2.9337383  14.8377676  )
        40           O1  tau(  40) = (   3.3243726   2.9440003  13.9069550  )
        41           O1  tau(  41) = (   4.5478640   4.3999133  16.1372545  )
        42           O1  tau(  42) = (   2.0209518   4.4226222  15.9786897  )
        43           Ti1 tau(  43) = (   3.3220059   5.9437776  15.8132296  )
        44           Ti1 tau(  44) = (   0.0730556   4.5544523  15.7304118  )
        45           O1  tau(  45) = (   3.2900926   2.9813045   4.7018136  )
        46           O1  tau(  46) = (   1.3039711   4.4726057   6.0039043  )
        47           O1  tau(  47) = (   5.2763189   4.4711207   6.0039473  )
        48           N1  tau(  48) = (   0.0453545   2.8688619  17.9090770  )
        49           C1  tau(  49) = (   1.0089482   2.8008358  18.8431878  )
        50           H1  tau(  50) = (   1.0080222   3.4413729  19.7168629  )
        51           H1  tau(  51) = (   1.8954070   2.2543435  18.5800802  )
        52           N1  tau(  52) = (   5.5320326   3.6725468  18.4365114  )
        53           H1  tau(  53) = (   5.8975581   4.6271042  18.6377988  )
        54           H1  tau(  54) = (   4.8553295   3.8628436  17.6443034  )
        55           H1  tau(  55) = (   5.1025442   3.2364756  19.2632064  )
        56           O1  tau(  56) = (   2.8928424   5.6518753  18.2681889  )
        57           H1  tau(  57) = (   3.0708471   0.5134993  18.7460362  )
        58           H1  tau(  58) = (   1.9180978   5.6479514  18.1114729  )

     number of k points=    10  Fermi-Dirac smearing, width (Ry)=  0.0073
                       cart. coord. in units 2pi/alat
        k(    1) = (   0.0000000   0.0000000   0.0000000), wk =   0.1250000
        k(    2) = (   0.0000000   0.0419351   0.0000000), wk =   0.2500000
        k(    3) = (   0.0000000  -0.0838702   0.0000000), wk =   0.1250000
        k(    4) = (   0.0379955   0.0000049   0.0000000), wk =   0.2500000
        k(    5) = (   0.0379955   0.0419400   0.0000000), wk =   0.2500000
        k(    6) = (   0.0379955  -0.0838652   0.0000000), wk =   0.2500000
        k(    7) = (   0.0379955  -0.0419301   0.0000000), wk =   0.2500000
        k(    8) = (  -0.0759910  -0.0000099   0.0000000), wk =   0.1250000
        k(    9) = (  -0.0759910   0.0419252   0.0000000), wk =   0.2500000
        k(   10) = (  -0.0759910  -0.0838800   0.0000000), wk =   0.1250000

     Initial potential from superposition of free atoms

     starting charge  388.99913, renormalised to  405.00000

     negative rho (up, down):  1.580E-02 0.000E+00

     %%%%%%%%%%%%%%%%%%%%%%%%%%%%%%%%%%%%%%%%%%%%%%%%%%%%%%%%%%%%%%%%%%%%%%%%
     %                                                                      %
     % You are using vdW-DF, which was implemented by the Thonhauser group. %
     % Please cite the following two papers that made this development      %
     % possible and the two reviews that describe the various versions:     %
     %                                                                      %
     %   T. Thonhauser et al., PRL 115, 136402 (2015).                      %
     %   T. Thonhauser et al., PRB 76, 125112 (2007).                       %
     %   K. Berland et al., Rep. Prog. Phys. 78, 066501 (2015).             %
     %   D.C. Langreth et al., J. Phys.: Condens. Matter 21, 084203 (2009). %
     %                                                                      %
     %                                                                      %
     % If you are calculating the stress with vdW-DF, please also cite:     %
     %                                                                      %
     %   R. Sabatini et al., J. Phys.: Condens. Matter 24, 424209 (2012).   %
     %                                                                      %
     %%%%%%%%%%%%%%%%%%%%%%%%%%%%%%%%%%%%%%%%%%%%%%%%%%%%%%%%%%%%%%%%%%%%%%%%

     Adding external electric field

     Computed dipole along edir(3) :
        Dipole              -14.4816 Ry au,        -36.8086 Debye
        Dipole field         -0.0273 Ry au,

        Potential amp.        2.5333 Ry
        Total length         46.3494 bohr

     Starting wfcs are  307 atomic wfcs
  @ DRIVER MODE: Message from server: STATUS
  @ DRIVER MODE: Message from server: POSDATA
  @ DRIVER MODE: Reading and sharing cell
  @ DRIVER MODE: Reading and sharing positions
  @ DRIVER MODE: Received positions

     Self-consistent Calculation

     iteration #  1     ecut=    29.40 Ry     beta= 0.05
     Davidson diagonalization with overlap
     c_bands:  2 eigenvalues not converged
     c_bands:  5 eigenvalues not converged
     c_bands:  1 eigenvalues not converged
     c_bands:  3 eigenvalues not converged
     c_bands:  3 eigenvalues not converged
     c_bands:  4 eigenvalues not converged
     ethr =  1.00E-05,  avg # of iterations = 27.0

[...]

     total energy              =   -2173.27286252 Ry
     estimated scf accuracy    <    9121.34283406 Ry

     iteration #  2     ecut=    29.40 Ry     beta= 0.05
     Davidson diagonalization with overlap
     ethr =  1.00E-02,  avg # of iterations = 27.0

[...]

     iteration # 57     ecut=    29.40 Ry     beta= 0.05
     Davidson diagonalization with overlap
     c_bands:  1 eigenvalues not converged
     c_bands:  2 eigenvalues not converged
     ethr =  3.99E-11,  avg # of iterations = 15.0

[...]

     total energy              =   -2976.32710142 Ry
     estimated scf accuracy    <       0.00000016 Ry

     iteration # 59     ecut=    29.40 Ry     beta= 0.05
     Davidson diagonalization with overlap
     ethr =  3.86E-11,  avg # of iterations =  6.3

     negative rho (up, down):  1.315E-02 0.000E+00

     Adding external electric field

     Computed dipole along edir(3) :
        Dipole                1.3420 Ry au,          3.4110 Debye
        Dipole field          0.0025 Ry au,

        Potential amp.       -0.2348 Ry
        Total length         46.3494 bohr

     End of self-consistent calculation

          k = 0.0000 0.0000 0.0000 ( 18029 PWs)   bands (ev):

   -55.1696 -55.1405 -55.1286 -55.1064 -55.0903 -55.0468 -55.0057 -54.9795
   -54.9686 -54.9535 -54.9439 -54.9359 -54.8648 -54.7227 -54.1526 -54.1185
   -31.7363 -31.6303 -31.5342 -31.5007 -31.4793 -31.4718 -31.4686 -31.4303
   -31.4073 -31.3854 -31.3794 -31.3772 -31.3620 -31.3440 -31.3173 -31.3145
   -31.3046 -31.2932 -31.2871 -31.2827 -31.2518 -31.2343 -31.2280 -31.2086
   -31.1974 -31.1796 -31.1776 -31.1771 -31.1667 -31.1646 -31.1486 -31.1396
   -31.1296 -31.1270 -31.1063 -31.0989 -31.0948 -31.0771 -31.0481 -31.0128
   -30.9992 -30.8664 -30.5610 -30.4691 -30.4469 -30.3777 -30.2910 -30.1799
   -19.0523 -18.8002 -16.0064 -15.7487 -15.6214 -15.4437 -15.3643 -15.2106
   -15.1399 -15.0582 -15.0309 -14.9664 -14.9278 -14.8972 -14.7843 -14.7770
   -14.7042 -14.7035 -14.6948 -14.6627 -14.6592 -14.6552 -14.5988 -14.5963
   -14.5570 -14.5457 -14.5333 -14.3912 -14.3164 -14.2594 -14.1005 -13.9776
   -12.6550 -12.5379  -8.9846  -7.6821  -6.9311  -6.5505  -5.7661  -3.7982
    -3.3441  -3.2102  -3.1733  -3.1141  -3.0699  -2.9865  -2.8923  -2.7711
    -2.5521  -2.4770  -2.4350  -2.3863  -2.3783  -2.3311  -2.2430  -2.1595
    -2.1261  -2.0904  -2.0410  -2.0256  -1.9848  -1.9584  -1.9392  -1.8977
    -1.8889  -1.7434  -1.6863  -1.6333  -1.5840  -1.5617  -1.5571  -1.5001
    -1.4856  -1.4641  -1.4613  -1.4510  -1.4204  -1.3853  -1.3792  -1.3260
    -1.2885  -1.1620  -1.0892  -0.9739  -0.9174  -0.8825  -0.7986  -0.7295
    -0.7134  -0.6413  -0.5766  -0.5576  -0.5002  -0.4624  -0.3720  -0.3383
    -0.2886  -0.2627  -0.1541  -0.1409  -0.1253  -0.0545   0.0348   0.0435
     0.0676   0.1128   0.1975   0.2324   0.2860   0.3126   0.4122   0.4434
     0.4853   0.5028   0.5290   0.6100   0.6811   0.7179   0.7787   0.7881
     0.8230   0.8279   0.8509   0.9454   0.9762   0.9808   1.0289   1.1958
     1.2536   1.4519   1.4543   1.7842   1.8201   1.8703   2.0565   2.4441
     2.4914   3.9293   3.9956   4.0445   4.0611   4.0794   4.1354   4.1723
     4.3998   4.4227   4.4369   4.4500

[...]

          k = 0.0380-0.0419 0.0000 ( 17876 PWs)   bands (ev):

[...]

          k =-0.0760-0.0000 0.0000 ( 17886 PWs)   bands (ev):

[...]

          k =-0.0760-0.0839 0.0000 ( 17948 PWs)   bands (ev):

   -55.1589 -55.1392 -55.1234 -55.1233 -55.0882 -55.0375 -55.0149 -54.9639
   -54.9582 -54.9554 -54.9537 -54.9518 -54.8629 -54.7244 -54.1355 -54.1355
   -31.5474 -31.5325 -31.4455 -31.4454 -31.4453 -31.4356 -31.4157 -31.4156
   -31.3811 -31.3757 -31.3660 -31.3644 -31.3343 -31.3048 -31.2986 -31.2963
   -31.2939 -31.2903 -31.2877 -31.2830 -31.2723 -31.2601 -31.2460 -31.2427
   -31.2426 -31.2397 -31.2379 -31.2118 -31.1971 -31.1891 -31.1782 -31.1737
   -31.1732 -31.1727 -31.1528 -31.1501 -31.1336 -31.1311 -31.0672 -31.0054
   -31.0006 -30.9417 -30.4595 -30.4595 -30.3737 -30.3735 -30.3343 -30.3343
   -19.0440 -18.8039 -15.5084 -15.3715 -15.3334 -15.2436 -15.1617 -15.1454
   -15.1375 -15.1033 -15.0509 -14.9911 -14.9465 -14.9116 -14.8711 -14.8695
   -14.8566 -14.7563 -14.7453 -14.7377 -14.7208 -14.6728 -14.6631 -14.6463
   -14.6211 -14.6194 -14.5941 -14.5137 -14.5127 -14.4132 -14.3106 -14.0494
   -12.6396 -12.6394  -8.9727  -7.6975  -6.8871  -6.5402  -5.7802  -3.8797
    -3.0058  -2.7662  -2.5721  -2.5432  -2.4246  -2.3734  -2.3271  -2.3076
    -2.2189  -2.1788  -2.1618  -2.1561  -2.1363  -2.0801  -2.0579  -2.0191
    -1.9992  -1.9849  -1.9776  -1.9519  -1.9473  -1.9156  -1.9005  -1.8807
    -1.8749  -1.8384  -1.7996  -1.7886  -1.7507  -1.7311  -1.7218  -1.6646
    -1.5651  -1.5348  -1.4883  -1.4253  -1.3595  -1.3558  -1.2885  -1.2730
    -1.2500  -1.2295  -1.1936  -1.1819  -1.0751  -1.0109  -0.9076  -0.8954
    -0.8902  -0.7855  -0.7500  -0.7084  -0.6773  -0.6408  -0.5853  -0.5075
    -0.4996  -0.4253  -0.3875  -0.3755  -0.3565  -0.2169  -0.1852  -0.1519
    -0.1279  -0.1233  -0.0694  -0.0261   0.0040   0.0415   0.0684   0.1013
     0.1173   0.1937   0.3300   0.3624   0.4049   0.5375   0.5647   0.6800
     0.7054   0.8255   0.8993   0.9439   0.9637   1.0417   1.1191   1.1404
     1.1461   1.2569   1.3075   1.3096   1.3271   2.2290   2.2306   2.3114
     2.3116   3.7836   4.0753   4.2002   4.2169   4.2578   4.3817   4.4468
     4.4823   4.5041   4.5069   4.5906

     the Fermi energy is     3.9782 ev

!    total energy              =   -2976.32716244 Ry
     estimated scf accuracy    <       0.00000006 Ry
     smearing contrib. (-TS)   =      -0.04068374 Ry
     internal energy E=F+TS    =   -2976.28647870 Ry

     The total energy is F=E-TS. E is the sum of the following terms:
     one-electron contribution =  -23820.62562538 Ry
     hartree contribution      =   12009.17449987 Ry
     xc contribution           =    -495.75539519 Ry
     ewald contribution        =    9330.91664339 Ry
     electric field correction =       0.00339861 Ry

     convergence has been achieved in  59 iterations

     Forces acting on atoms (cartesian axes, Ry/au):

     atom    1 type  1   force =     0.00015955   -0.00020584    0.09426455
     atom    2 type  1   force =    -0.00010785   -0.00035641   -0.17722513
     atom    3 type  2   force =     0.00008619    0.00003614   -0.02132543
     atom    4 type  2   force =     0.00001948   -0.00174098    0.05668151
     atom    5 type  2   force =    -0.01044385   -0.00127803    0.00674529
     atom    6 type  2   force =     0.01220467   -0.00072376    0.00626216
     atom    7 type  1   force =    -0.00028781    0.00287375   -0.01262441
     atom    8 type  1   force =    -0.00014257    0.00440243    0.00454671
     atom    9 type  2   force =    -0.00036298    0.00009080    0.00077245
     atom   10 type  2   force =    -0.00008077   -0.00089385   -0.00642364
     atom   11 type  2   force =    -0.00041724   -0.00032976    0.00006121
     atom   12 type  2   force =    -0.00032255   -0.00042634    0.00014770
     atom   13 type  1   force =    -0.00035814   -0.00016540   -0.00029769
     atom   14 type  1   force =     0.00005019   -0.00044156   -0.00035154
     atom   15 type  2   force =    -0.00014463   -0.00038010   -0.00018031
     atom   16 type  2   force =    -0.00065943    0.00022591   -0.00031745
     atom   17 type  2   force =    -0.00028231    0.00003289    0.00008054
     atom   18 type  2   force =     0.00048312   -0.00010548    0.00029292
     atom   19 type  1   force =     0.00026965   -0.00106284   -0.00002200
     atom   20 type  1   force =     0.00000226   -0.00013782    0.00090541
     atom   21 type  2   force =     0.00004912    0.00001646    0.10360858
     atom   22 type  2   force =    -0.00019121   -0.00079845    0.00058541
     atom   23 type  2   force =    -0.07083329   -0.00011189   -0.02715111
     atom   24 type  2   force =     0.07073198    0.00032674   -0.02718250
     atom   25 type  1   force =    -0.00006892   -0.00022916    0.09372056
     atom   26 type  1   force =    -0.00013105   -0.00042856   -0.17734208
     atom   27 type  2   force =     0.00015112   -0.00039546   -0.02028263
     atom   28 type  2   force =     0.00005523   -0.00137668    0.05583021
     atom   29 type  2   force =    -0.01031050   -0.00029757    0.00539997
     atom   30 type  2   force =     0.01198359    0.00009844    0.00503742
     atom   31 type  1   force =    -0.00017898    0.00359196   -0.01530193
     atom   32 type  1   force =    -0.00019845   -0.00487914    0.00436944
     atom   33 type  2   force =    -0.00006372   -0.00017179    0.00032629
     atom   34 type  2   force =     0.00120485    0.00258271   -0.00430766
     atom   35 type  2   force =    -0.00070926   -0.00016840    0.00017669
     atom   36 type  2   force =    -0.00001278   -0.00003364    0.00045179
     atom   37 type  1   force =     0.00037862    0.00040383   -0.00024554
     atom   38 type  1   force =    -0.00000532    0.00053203   -0.00158152
     atom   39 type  2   force =     0.00026227   -0.00028637   -0.00024571
     atom   40 type  2   force =     0.00004222    0.00005271    0.00059767
     atom   41 type  2   force =    -0.00024838   -0.00027762   -0.00018064
     atom   42 type  2   force =     0.00042744   -0.00040132    0.00011829
     atom   43 type  1   force =    -0.00063266    0.00078041    0.00051355
     atom   44 type  1   force =    -0.00017349    0.00051878   -0.00066691
     atom   45 type  2   force =     0.00004029   -0.00002407    0.10360852
     atom   46 type  2   force =    -0.07086534   -0.00006077   -0.02715004
     atom   47 type  2   force =     0.07076395    0.00033729   -0.02718152
     atom   48 type  3   force =    -0.00313499    0.00692072    0.00261164
     atom   49 type  4   force =     0.00232348   -0.00236845    0.00039086
     atom   50 type  5   force =     0.00076358    0.00000813   -0.00091361
     atom   51 type  5   force =    -0.00042896    0.00065509    0.00003579
     atom   52 type  3   force =     0.00145033   -0.00364990   -0.00091009
     atom   53 type  5   force =    -0.00016083   -0.00088046   -0.00025908
     atom   54 type  5   force =     0.00039575   -0.00053785    0.00047503
     atom   55 type  5   force =    -0.00065927    0.00033071   -0.00007435
     atom   56 type  2   force =    -0.00027439    0.00121991   -0.00048494
     atom   57 type  5   force =    -0.00028493   -0.00077586    0.00035586
     atom   58 type  5   force =    -0.00112208    0.00036377    0.00125545

     Total force =     0.365421     Total SCF correction =     0.000827
  @ DRIVER MODE: Message from server: STATUS
  @ DRIVER MODE: Message from server: GETFORCE
  @ DRIVER MODE: Returning v,forces,stress,ensemble

     Writing output data file ./calc.save/
  @ DRIVER MODE: Message from server: EXIT
  @ DRIVE MODE: Exiting

     General routines

     Parallel routines

   This run was terminated on:  17: 1:12  15Sep2021

   JOB DONE.