     Program PWSCF v.6.7GPU starts on 24Aug2021 at 23:50:46

     R & G space division:  proc/nbgrp/npool/nimage =      72
     Reading input from /storage/home/hcoda1/3/ntian30/research/carbon/CH2_vib/ads_slab/CH2NHHH_a/out_0036/pw.inp
Warning: card &CELL ignored
Warning: card   CELL_DYNAMICS='IPI', ignored
Warning: card / ignored

     Current dimensions of program PWSCF are:
     Max number of different atomic species (ntypx) = 10
     Max number of k-points (npk) =  40000
     Max angular momentum in pseudopotentials (lmaxx) =  3
     Presently no symmetry can be used with electric field

     Message from routine cell_base_init:
     DEPRECATED: use true lattice parameter, not A to a.u. conversion factor

     IMPORTANT: XC functional enforced from input :
     Exchange-correlation= BEEF-VDW
                           (   1   4  43  14   2   0   0)
     Any further DFT definition will be discarded
     Please, verify this is what you really want

  @ DRIVER MODE: Connecting to
 qe_1139763_2641440.sched-torque.pace.gatech.edu91fj6d3m_scratch
  using UNIX socket
  @ DRIVER MODE: Message from server: STATUS
  @ DRIVER MODE: Message from server: INIT
  @ DRIVER MODE: Receiving replica           0          -1
  @ DRIVER MODE: Receiving encoded integer          25
  @ DRIVER MODE:  SCF:  T  FORCE:  T  STRESS:  F  VC:  F  ENSEMBLE:  F
  @ DRIVER MODE:  SCF:  T  FORCE:  T  STRESS:  F  VC:  F  ENSEMBLE:  F

     Using Slab Decomposition

     bravais-lattice index     =            0
     lattice parameter (alat)  =       1.8897  a.u.
     unit-cell volume          =    6658.9804 (a.u.)^3
     number of atoms/cell      =           54
     number of atomic types    =            5
     number of electrons       =       392.00
     number of Kohn-Sham states=          206
     kinetic-energy cutoff     =      29.3995  Ry
     charge density cutoff     =     293.9946  Ry
     scf convergence threshold =      7.3E-08
     mixing beta               =       0.0500
     number of iterations used =            8  plain     mixing
     Exchange-correlation= BEEF-VDW
                           (   1   4  43  14   2   0   0)

     celldm(1)=   1.889726  celldm(2)=   0.000000  celldm(3)=   0.000000
     celldm(4)=   0.000000  celldm(5)=   0.000000  celldm(6)=   0.000000

     crystal axes: (cart. coord. in units of alat)
               a(1) = (   6.579727   0.000000   0.000000 )
               a(2) = (  -0.000775   5.961596   0.000000 )
               a(3) = (   0.000000   0.000000  25.155947 )

     reciprocal axes: (cart. coord. in units 2 pi/alat)
               b(1) = (  0.151982  0.000020  0.000000 )
               b(2) = (  0.000000  0.167740  0.000000 )
               b(3) = (  0.000000  0.000000  0.039752 )

     PseudoPot. # 1 for Ti read from file:
     /storage/coda1/p-amedford6/0/shared/rich_project_chbe-medford/medford-share/data/pseudos_module/espresso/nninc/pbe/van/Ti.UPF
     MD5 check sum: 8e4df49b7f0d34bbd5052bf3f5ea0213
     Pseudo is Ultrasoft, Zval = 12.0
     Generated by new atomic code, or converted to UPF format
     Using radial grid of  851 points,  6 beta functions with:
                l(1) =   0
                l(2) =   0
                l(3) =   1
                l(4) =   1
                l(5) =   2
                l(6) =   2
     Q(r) pseudized with  8 coefficients,  rinner =    1.000   1.000   1.000
                                                       1.000   1.000

     PseudoPot. # 2 for O  read from file:
     /storage/coda1/p-amedford6/0/shared/rich_project_chbe-medford/medford-share/data/pseudos_module/espresso/nninc/pbe/van/O.UPF
     MD5 check sum: 78c19812648e8988a0fe644b0f25305e
     Pseudo is Ultrasoft, Zval =  6.0
     Generated by new atomic code, or converted to UPF format
     Using radial grid of  737 points,  4 beta functions with:
                l(1) =   0
                l(2) =   0
                l(3) =   1
                l(4) =   1
     Q(r) pseudized with  8 coefficients,  rinner =    0.800   0.800   0.800

     PseudoPot. # 3 for N  read from file:
     /storage/coda1/p-amedford6/0/shared/rich_project_chbe-medford/medford-share/data/pseudos_module/espresso/nninc/pbe/van/N.UPF
     MD5 check sum: 90d10febe142ad51ac9d5be1deb811c4
     Pseudo is Ultrasoft, Zval =  5.0
     Generated by new atomic code, or converted to UPF format
     Using radial grid of  729 points,  4 beta functions with:
                l(1) =   0
                l(2) =   0
                l(3) =   1
                l(4) =   1
     Q(r) pseudized with  8 coefficients,  rinner =    0.800   0.800   0.800

     PseudoPot. # 4 for C  read from file:
     /storage/coda1/p-amedford6/0/shared/rich_project_chbe-medford/medford-share/data/pseudos_module/espresso/nninc/pbe/van/C.UPF
     MD5 check sum: 1a69bf6b8db32088f5b2163dbdb77a27
     Pseudo is Ultrasoft, Zval =  4.0
     Generated by new atomic code, or converted to UPF format
     Using radial grid of  721 points,  4 beta functions with:
                l(1) =   0
                l(2) =   0
                l(3) =   1
                l(4) =   1
     Q(r) pseudized with  8 coefficients,  rinner =    0.800   0.800   0.800

     PseudoPot. # 5 for H  read from file:
     /storage/coda1/p-amedford6/0/shared/rich_project_chbe-medford/medford-share/data/pseudos_module/espresso/nninc/pbe/van/H.UPF
     MD5 check sum: b5ee9d7bfd3a09ee7748110bda690ff7
     Pseudo is Ultrasoft, Zval =  1.0
     Generated by new atomic code, or converted to UPF format
     Using radial grid of  615 points,  1 beta functions with:
                l(1) =   0
     Q(r) pseudized with  8 coefficients,  rinner =    0.800

     atomic species   valence    mass     pseudopotential
        Ti1           12.00    47.86700     Ti( 1.00)
        O1             6.00    15.99900     O ( 1.00)
        N1             5.00    14.00700     N ( 1.00)
        C1             4.00    12.01100     C ( 1.00)
        H1             1.00     1.00800     H ( 1.00)

     No symmetry found

   Cartesian axes

     site n.     atom                  positions (alat units)
         1           Ti1 tau(   1) = (   0.0004258   2.9801865   6.0000000  )
         2           Ti1 tau(   2) = (   3.2906075   1.4906267   6.0002472  )
         3           O1  tau(   3) = (   0.0006271   0.0005054   7.9858123  )
         4           O1  tau(   4) = (   3.2906025   0.0005020   7.3038282  )
         5           O1  tau(   5) = (   4.5942328   1.4918067   9.2879030  )
         6           O1  tau(   6) = (   1.9868534   1.4903216   9.2879459  )
         7           Ti1 tau(   7) = (   3.2907910   2.8959150   9.1758416  )
         8           Ti1 tau(   8) = (   0.0015273   1.4827037   9.2680791  )
         9           O1  tau(   9) = (   3.2947057   0.0061428  11.3716447  )
        10           O1  tau(  10) = (   0.0116148   5.9584955  10.6183126  )
        11           O1  tau(  11) = (   1.2915649   1.4936813  12.6925814  )
        12           O1  tau(  12) = (   5.2970661   1.4944705  12.6810846  )
        13           Ti1 tau(  13) = (   0.0178387   2.9746902  12.5081746  )
        14           Ti1 tau(  14) = (   3.3154821   1.4870708  12.5273966  )
        15           O1  tau(  15) = (   6.5751158   5.8850184  14.6937530  )
        16           O1  tau(  16) = (   3.3021755   5.9482827  13.9948957  )
        17           O1  tau(  17) = (   4.5403780   1.5298489  16.1548813  )
        18           O1  tau(  18) = (   2.0255877   1.5226301  16.1187562  )
        19           Ti1 tau(  19) = (   3.2919084   3.0021400  15.7465462  )
        20           Ti1 tau(  20) = (   0.0121818   1.3098915  15.8601907  )
        21           O1  tau(  21) = (   3.2904802   0.0005063   4.7018136  )
        22           O1  tau(  22) = (   6.5726150   0.1553292  17.2405045  )
        23           O1  tau(  23) = (   1.3043587   1.4918075   6.0039043  )
        24           O1  tau(  24) = (   5.2767064   1.4903225   6.0039473  )
        25           Ti1 tau(  25) = (   0.0000382   5.9609847   6.0000000  )
        26           Ti1 tau(  26) = (   3.2902200   4.4714249   6.0002472  )
        27           O1  tau(  27) = (   0.0002396   2.9813036   7.9858123  )
        28           O1  tau(  28) = (   3.2902150   2.9813002   7.3038282  )
        29           O1  tau(  29) = (   4.5938453   4.4726049   9.2879030  )
        30           O1  tau(  30) = (   1.9864658   4.4711199   9.2879459  )
        31           Ti1 tau(  31) = (   3.2891106   5.8743827   9.1763621  )
        32           Ti1 tau(  32) = (   0.0006254   4.4649316   9.2693709  )
        33           O1  tau(  33) = (   3.2927311   2.9710310  11.3658552  )
        34           O1  tau(  34) = (   0.0092240   2.9805883  10.6323155  )
        35           O1  tau(  35) = (   1.2954064   4.4636889  12.6531092  )
        36           O1  tau(  36) = (   5.2951753   4.4642890  12.6444158  )
        37           Ti1 tau(  37) = (   0.0208150   5.9452171  12.5004641  )
        38           Ti1 tau(  38) = (   3.3163264   4.4646888  12.5160798  )
        39           O1  tau(  39) = (   6.5606049   3.0383603  14.9590055  )
        40           O1  tau(  40) = (   3.3003749   3.0012653  13.9593002  )
        41           O1  tau(  41) = (   4.5325621   4.4784225  16.2386555  )
        42           O1  tau(  42) = (   2.0180351   4.4745910  16.2101397  )
        43           Ti1 tau(  43) = (   3.2993765   0.0184524  15.7908042  )
        44           Ti1 tau(  44) = (   0.0223033   4.5207704  16.0490861  )
        45           O1  tau(  45) = (   3.2900926   2.9813045   4.7018136  )
        46           O1  tau(  46) = (   1.3039711   4.4726057   6.0039043  )
        47           O1  tau(  47) = (   5.2763189   4.4711207   6.0039473  )
        48           N1  tau(  48) = (   6.4337409   3.4053151  18.1409392  )
        49           C1  tau(  49) = (   1.0285230   3.1422446  19.0018829  )
        50           H1  tau(  50) = (   0.7475518   3.0234394  20.0507379  )
        51           H1  tau(  51) = (   1.7227964   3.9744885  18.9089305  )
        52           H1  tau(  52) = (   5.9280473   4.2150708  18.4935385  )
        53           H1  tau(  53) = (   5.7900178   2.6175148  18.1980975  )
        54           H1  tau(  54) = (   1.5159085   2.2300880  18.6641165  )

     number of k points=    10  Fermi-Dirac smearing, width (Ry)=  0.0073
                       cart. coord. in units 2pi/alat
        k(    1) = (   0.0000000   0.0000000   0.0000000), wk =   0.1250000
        k(    2) = (   0.0000000   0.0419351   0.0000000), wk =   0.2500000
        k(    3) = (   0.0000000  -0.0838702   0.0000000), wk =   0.1250000
        k(    4) = (   0.0379955   0.0000049   0.0000000), wk =   0.2500000
        k(    5) = (   0.0379955   0.0419400   0.0000000), wk =   0.2500000
        k(    6) = (   0.0379955  -0.0838652   0.0000000), wk =   0.2500000
        k(    7) = (   0.0379955  -0.0419301   0.0000000), wk =   0.2500000
        k(    8) = (  -0.0759910  -0.0000099   0.0000000), wk =   0.1250000
        k(    9) = (  -0.0759910   0.0419252   0.0000000), wk =   0.2500000
        k(   10) = (  -0.0759910  -0.0838800   0.0000000), wk =   0.1250000

     Initial potential from superposition of free atoms

     starting charge  375.99915, renormalised to  392.00000

     negative rho (up, down):  1.645E-02 0.000E+00

     %%%%%%%%%%%%%%%%%%%%%%%%%%%%%%%%%%%%%%%%%%%%%%%%%%%%%%%%%%%%%%%%%%%%%%%%
     %                                                                      %
     % You are using vdW-DF, which was implemented by the Thonhauser group. %
     % Please cite the following two papers that made this development      %
     % possible and the two reviews that describe the various versions:     %
     %                                                                      %
     %   T. Thonhauser et al., PRL 115, 136402 (2015).                      %
     %   T. Thonhauser et al., PRB 76, 125112 (2007).                       %
     %   K. Berland et al., Rep. Prog. Phys. 78, 066501 (2015).             %
     %   D.C. Langreth et al., J. Phys.: Condens. Matter 21, 084203 (2009). %
     %                                                                      %
     %                                                                      %
     % If you are calculating the stress with vdW-DF, please also cite:     %
     %                                                                      %
     %   R. Sabatini et al., J. Phys.: Condens. Matter 24, 424209 (2012).   %
     %                                                                      %
     %%%%%%%%%%%%%%%%%%%%%%%%%%%%%%%%%%%%%%%%%%%%%%%%%%%%%%%%%%%%%%%%%%%%%%%%

     Adding external electric field

     Computed dipole along edir(3) :
        Dipole               -7.5131 Ry au,        -19.0965 Debye
        Dipole field         -0.0142 Ry au,

        Potential amp.        1.3143 Ry
        Total length         46.3494 bohr

     Starting wfcs are  297 atomic wfcs
  @ DRIVER MODE: Message from server: STATUS
  @ DRIVER MODE: Message from server: POSDATA
  @ DRIVER MODE: Reading and sharing cell
  @ DRIVER MODE: Reading and sharing positions
  @ DRIVER MODE: Received positions

     Self-consistent Calculation

     iteration #  1     ecut=    29.40 Ry     beta= 0.05
     Davidson diagonalization with overlap
     c_bands:  1 eigenvalues not converged
     c_bands:  1 eigenvalues not converged
     c_bands:  2 eigenvalues not converged
     c_bands:  1 eigenvalues not converged
     c_bands:  1 eigenvalues not converged
     c_bands:  1 eigenvalues not converged
     ethr =  1.00E-05,  avg # of iterations = 19.3

[...]

     total energy              =   -2681.20034996 Ry
     estimated scf accuracy    <    2661.12364633 Ry

[...]

     iteration #  3     ecut=    29.40 Ry     beta= 0.05
     Davidson diagonalization with overlap
     ethr =  1.00E-02,  avg # of iterations = 15.3

[...]

     iteration # 83     ecut=    29.40 Ry     beta= 0.05
     Davidson diagonalization with overlap
     ethr =  5.00E-11,  avg # of iterations =  7.5

[...]

     total energy              =   -2921.63254368 Ry
     estimated scf accuracy    <       0.00000008 Ry

     iteration # 84     ecut=    29.40 Ry     beta= 0.05
     Davidson diagonalization with overlap
     c_bands:  2 eigenvalues not converged
     ethr =  1.99E-11,  avg # of iterations = 16.9

     negative rho (up, down):  1.722E-02 0.000E+00

     Adding external electric field

     Computed dipole along edir(3) :
        Dipole                1.3061 Ry au,          3.3199 Debye
        Dipole field          0.0025 Ry au,

        Potential amp.       -0.2285 Ry
        Total length         46.3494 bohr

     End of self-consistent calculation

          k = 0.0000 0.0000 0.0000 ( 18029 PWs)   bands (ev):

   -55.4296 -55.3926 -55.3799 -55.3552 -55.3458 -55.3121 -55.3072 -55.2728
   -55.2466 -55.2296 -55.2121 -55.2109 -55.1773 -55.0978 -54.4080 -54.3740
   -31.9990 -31.8845 -31.8725 -31.7960 -31.7466 -31.7365 -31.7339 -31.7170
   -31.6718 -31.6688 -31.6400 -31.6377 -31.6248 -31.6179 -31.5997 -31.5928
   -31.5850 -31.5730 -31.5676 -31.5444 -31.5326 -31.5287 -31.5008 -31.4939
   -31.4850 -31.4773 -31.4726 -31.4491 -31.4379 -31.4372 -31.4295 -31.4107
   -31.4100 -31.4036 -31.3977 -31.3945 -31.3607 -31.3512 -31.3393 -31.3223
   -31.3036 -31.2937 -30.8173 -30.7233 -30.7012 -30.6337 -30.5470 -30.4360
   -16.2931 -16.1650 -15.9750 -15.8305 -15.7470 -15.6278 -15.5163 -15.5023
   -15.3619 -15.2802 -15.1643 -15.1394 -15.1107 -15.0880 -15.0793 -15.0625
   -14.9717 -14.9670 -14.9546 -14.9222 -14.9210 -14.8767 -14.8662 -14.8241
   -14.8030 -14.8003 -14.6808 -14.5872 -14.5151 -14.2859 -12.9106 -12.7931
   -10.2152  -6.3034  -4.8181  -3.9503  -3.6083  -3.4501  -3.3671  -3.3325
    -3.3204  -3.1888  -3.0519  -2.9041  -2.8518  -2.8196  -2.7216  -2.6448
    -2.6375  -2.6181  -2.4639  -2.4291  -2.3847  -2.3357  -2.2977  -2.2396
    -2.2190  -2.2106  -2.1980  -2.1806  -2.1721  -2.0546  -1.9985  -1.9147
    -1.8556  -1.8327  -1.7825  -1.7623  -1.7423  -1.7186  -1.7094  -1.6682
    -1.6430  -1.6231  -1.5697  -1.4585  -1.3546  -1.3042  -1.1848  -1.0642
    -1.0271  -1.0151  -0.9649  -0.9367  -0.9146  -0.8573  -0.8058  -0.7765
    -0.7292  -0.6612  -0.5997  -0.5501  -0.4771  -0.4744  -0.4148  -0.3657
    -0.2454  -0.2123  -0.1954  -0.1683  -0.0768  -0.0387   0.0052   0.0850
     0.0962   0.1156   0.2088   0.2199   0.2939   0.3423   0.3586   0.4525
     0.4871   0.4997   0.5043   0.5266   0.5563   0.6065   0.6482   0.6746
     0.7415   0.8680   1.0808   1.1613   1.1852   1.5112   1.5211   1.6148
     1.7985   2.1905   2.2387   3.6683   3.7389   3.8145   3.8209   3.8337
     3.9065   4.1410   4.1647   4.1723   4.1791   4.2000

[...]

          k = 0.0380-0.0419 0.0000 ( 17876 PWs)   bands (ev):

[...]

          k =-0.0760-0.0000 0.0000 ( 17886 PWs)   bands (ev):

[...]

          k =-0.0760-0.0839 0.0000 ( 17948 PWs)   bands (ev):

   -55.4153 -55.4066 -55.3630 -55.3626 -55.3537 -55.3085 -55.2914 -55.2886
   -55.2331 -55.2309 -55.2273 -55.1946 -55.1938 -55.0990 -54.3910 -54.3909
   -31.8060 -31.8021 -31.7990 -31.7164 -31.6905 -31.6878 -31.6874 -31.6542
   -31.6540 -31.6385 -31.6319 -31.6291 -31.6225 -31.6008 -31.5852 -31.5685
   -31.5644 -31.5620 -31.5602 -31.5552 -31.5551 -31.5521 -31.5092 -31.5071
   -31.5042 -31.5002 -31.4977 -31.4846 -31.4828 -31.4824 -31.4803 -31.4640
   -31.4605 -31.4445 -31.4408 -31.4269 -31.4239 -31.4214 -31.3756 -31.3755
   -31.3694 -31.3084 -30.7139 -30.7139 -30.6298 -30.6298 -30.5904 -30.5903
   -16.1377 -15.7803 -15.6939 -15.6381 -15.4626 -15.4348 -15.4206 -15.4010
   -15.2720 -15.2459 -15.2208 -15.1981 -15.1770 -15.1396 -15.1319 -15.1271
   -15.0493 -15.0362 -15.0306 -15.0159 -14.9467 -14.9377 -14.9338 -14.9276
   -14.8774 -14.8736 -14.8301 -14.7798 -14.7766 -14.5622 -12.8946 -12.8946
   -10.2184  -6.2741  -4.8149  -3.9141  -2.9639  -2.9366  -2.8944  -2.8941
    -2.6788  -2.6412  -2.6057  -2.5818  -2.4902  -2.4479  -2.4290  -2.4283
    -2.3539  -2.3336  -2.3220  -2.2705  -2.2655  -2.2537  -2.2301  -2.1982
    -2.1724  -2.1579  -2.1481  -2.1296  -2.0862  -2.0723  -2.0528  -2.0322
    -2.0262  -2.0139  -1.9847  -1.9448  -1.8139  -1.8028  -1.7421  -1.6348
    -1.6298  -1.5547  -1.5445  -1.4996  -1.4859  -1.4613  -1.4271  -1.2471
    -1.2049  -1.1742  -1.1647  -1.1112  -1.0343  -1.0175  -0.9548  -0.9334
    -0.9153  -0.8106  -0.7675  -0.7526  -0.6628  -0.6539  -0.5711  -0.5250
    -0.4611  -0.4348  -0.4023  -0.3845  -0.3824  -0.3346  -0.3288  -0.2450
    -0.1992  -0.1631  -0.1496  -0.1173   0.0814   0.0883   0.1111   0.2567
     0.2754   0.4118   0.4391   0.4904   0.5702   0.6029   0.6837   0.7167
     0.8458   0.8767   0.8792   0.9490   0.9633   1.0253   1.0358   1.9715
     1.9722   2.0586   2.0589   3.8190   3.9109   3.9308   3.9734   4.0863
     4.1603   4.1855   4.2071   4.2541   4.2573   4.3190

     the Fermi energy is     3.7321 ev

!    total energy              =   -2921.63255139 Ry
     estimated scf accuracy    <       0.00000006 Ry
     smearing contrib. (-TS)   =      -0.03703018 Ry
     internal energy E=F+TS    =   -2921.59552120 Ry

     The total energy is F=E-TS. E is the sum of the following terms:
     one-electron contribution =  -24081.71301086 Ry
     hartree contribution      =   12130.01426423 Ry
     xc contribution           =    -481.76042804 Ry
     ewald contribution        =    9511.86043400 Ry
     electric field correction =       0.00321945 Ry

     convergence has been achieved in  84 iterations

     Forces acting on atoms (cartesian axes, Ry/au):

     atom    1 type  1   force =     0.00005631   -0.00024679    0.09321244
     atom    2 type  1   force =    -0.00012519   -0.00044480   -0.17821191
     atom    3 type  2   force =     0.00002137   -0.00040623   -0.02023665
     atom    4 type  2   force =    -0.00001340   -0.00187021    0.05852712
     atom    5 type  2   force =    -0.00994408   -0.00082690    0.00749666
     atom    6 type  2   force =     0.01146189   -0.00027573    0.00679408
     atom    7 type  1   force =    -0.00038839    0.00194850   -0.01463192
     atom    8 type  1   force =     0.00011108   -0.00011536   -0.00499989
     atom    9 type  2   force =    -0.00011825   -0.00005160    0.00000977
     atom   10 type  2   force =    -0.00117854    0.00218828   -0.00033222
     atom   11 type  2   force =    -0.00001032   -0.00019681    0.00006544
     atom   12 type  2   force =     0.00058507   -0.00051539    0.00012321
     atom   13 type  1   force =    -0.00071757    0.00034357   -0.00032665
     atom   14 type  1   force =    -0.00000684   -0.00060039    0.00005555
     atom   15 type  2   force =     0.00003952   -0.00063823   -0.00039494
     atom   16 type  2   force =     0.00023172    0.00059632    0.00047680
     atom   17 type  2   force =    -0.00005806   -0.00061771    0.00024797
     atom   18 type  2   force =     0.00016555   -0.00009978    0.00033896
     atom   19 type  1   force =     0.00017603   -0.00038818    0.00180163
     atom   20 type  1   force =    -0.00034760    0.00071994    0.00045129
     atom   21 type  2   force =     0.00001062   -0.00009433    0.10393789
     atom   22 type  2   force =     0.00019816   -0.00031114    0.00058732
     atom   23 type  2   force =    -0.07050124   -0.00018160   -0.02694875
     atom   24 type  2   force =     0.07032134    0.00025650   -0.02698685
     atom   25 type  1   force =    -0.00000676   -0.00016097    0.09271847
     atom   26 type  1   force =    -0.00020089   -0.00049337   -0.17823677
     atom   27 type  2   force =     0.00007422   -0.00024209   -0.01929256
     atom   28 type  2   force =     0.00001662   -0.00166290    0.05788034
     atom   29 type  2   force =    -0.01051067   -0.00098096    0.00819707
     atom   30 type  2   force =     0.01191203   -0.00053680    0.00742387
     atom   31 type  1   force =    -0.00033982    0.00605361   -0.01541834
     atom   32 type  1   force =     0.00011628   -0.00039455   -0.00542475
     atom   33 type  2   force =     0.00030827   -0.00010403   -0.00031840
     atom   34 type  2   force =    -0.00063578   -0.00204427   -0.00051472
     atom   35 type  2   force =    -0.00039427   -0.00001900    0.00023625
     atom   36 type  2   force =     0.00066374   -0.00006883   -0.00004190
     atom   37 type  1   force =    -0.00035579   -0.00024066    0.00027146
     atom   38 type  1   force =     0.00001659    0.00041607   -0.00002641
     atom   39 type  2   force =     0.00024157   -0.00010203    0.00014197
     atom   40 type  2   force =     0.00016983    0.00026354    0.00008201
     atom   41 type  2   force =    -0.00049064    0.00031259   -0.00011663
     atom   42 type  2   force =     0.00042916    0.00082990   -0.00008377
     atom   43 type  1   force =     0.00052728    0.00066674    0.00024778
     atom   44 type  1   force =     0.00036748    0.00046822    0.00007809
     atom   45 type  2   force =     0.00001961   -0.00009795    0.10390570
     atom   46 type  2   force =    -0.07046619   -0.00012686   -0.02688463
     atom   47 type  2   force =     0.07029592    0.00029876   -0.02693856
     atom   48 type  3   force =    -0.00100972   -0.00296466    0.00168568
     atom   49 type  4   force =     0.00133686   -0.00014268   -0.00002560
     atom   50 type  5   force =    -0.00051450    0.00022901    0.00046938
     atom   51 type  5   force =    -0.00013031    0.00015161    0.00010176
     atom   52 type  5   force =    -0.00055905    0.00010120    0.00022557
     atom   53 type  5   force =    -0.00066715    0.00100515   -0.00159666
     atom   54 type  5   force =    -0.00018312    0.00141428    0.00019794

     Total force =     0.366066     Total SCF correction =     0.001051
  @ DRIVER MODE: Message from server: STATUS
  @ DRIVER MODE: Message from server: GETFORCE
  @ DRIVER MODE: Returning v,forces,stress,ensemble

     Writing output data file ./calc.save/
  @ DRIVER MODE: Message from server: EXIT
  @ DRIVE MODE: Exiting

     General routines

     Parallel routines

   This run was terminated on:   0:18: 7  25Aug2021

   JOB DONE.