     Program PWSCF v.6.7GPU starts on 16Sep2021 at 16:32:23

     R & G space division:  proc/nbgrp/npool/nimage =      10
     Reading input from /storage/home/hcoda1/3/ntian30/research/carbon/CxH_vib/H2O_calc/ads_slab/CH3NNH3H2O_a/out_0070/pw.inp
Warning: card &CELL ignored
Warning: card   CELL_DYNAMICS='IPI', ignored
Warning: card / ignored

     Current dimensions of program PWSCF are:
     Max number of different atomic species (ntypx) = 10
     Max number of k-points (npk) =  40000
     Max angular momentum in pseudopotentials (lmaxx) =  3
     Presently no symmetry can be used with electric field

     Message from routine cell_base_init:
     DEPRECATED: use true lattice parameter, not A to a.u. conversion factor

     IMPORTANT: XC functional enforced from input :
     Exchange-correlation= BEEF-VDW
                           (   1   4  43  14   2   0   0)
     Any further DFT definition will be discarded
     Please, verify this is what you really want

  @ DRIVER MODE: Connecting to
 qe_1139763_2852621.sched-torque.pace.gatech.edu806bcfz4_scratch
  using UNIX socket
  @ DRIVER MODE: Message from server: STATUS
  @ DRIVER MODE: Message from server: INIT
  @ DRIVER MODE: Receiving replica           0          -1
  @ DRIVER MODE: Receiving encoded integer          25
  @ DRIVER MODE:  SCF:  T  FORCE:  T  STRESS:  F  VC:  F  ENSEMBLE:  F
  @ DRIVER MODE:  SCF:  T  FORCE:  T  STRESS:  F  VC:  F  ENSEMBLE:  F

     Using Slab Decomposition

     bravais-lattice index     =            0
     lattice parameter (alat)  =       1.8897  a.u.
     unit-cell volume          =    6658.9804 (a.u.)^3
     number of atoms/cell      =           59
     number of atomic types    =            5
     number of electrons       =       406.00
     number of Kohn-Sham states=          213
     kinetic-energy cutoff     =      29.3995  Ry
     charge density cutoff     =     293.9946  Ry
     scf convergence threshold =      7.3E-08
     mixing beta               =       0.0500
     number of iterations used =            8  plain     mixing
     Exchange-correlation= BEEF-VDW
                           (   1   4  43  14   2   0   0)

     celldm(1)=   1.889726  celldm(2)=   0.000000  celldm(3)=   0.000000
     celldm(4)=   0.000000  celldm(5)=   0.000000  celldm(6)=   0.000000

     crystal axes: (cart. coord. in units of alat)
               a(1) = (   6.579727   0.000000   0.000000 )
               a(2) = (  -0.000775   5.961596   0.000000 )
               a(3) = (   0.000000   0.000000  25.155947 )

     reciprocal axes: (cart. coord. in units 2 pi/alat)
               b(1) = (  0.151982  0.000020  0.000000 )
               b(2) = (  0.000000  0.167740  0.000000 )
               b(3) = (  0.000000  0.000000  0.039752 )

     PseudoPot. # 1 for Ti read from file:
     /storage/coda1/p-amedford6/0/shared/rich_project_chbe-medford/medford-share/data/pseudos_module/espresso/nninc/pbe/van/Ti.UPF
     MD5 check sum: 8e4df49b7f0d34bbd5052bf3f5ea0213
     Pseudo is Ultrasoft, Zval = 12.0
     Generated by new atomic code, or converted to UPF format
     Using radial grid of  851 points,  6 beta functions with:
                l(1) =   0
                l(2) =   0
                l(3) =   1
                l(4) =   1
                l(5) =   2
                l(6) =   2
     Q(r) pseudized with  8 coefficients,  rinner =    1.000   1.000   1.000
                                                       1.000   1.000

     PseudoPot. # 2 for O  read from file:
     /storage/coda1/p-amedford6/0/shared/rich_project_chbe-medford/medford-share/data/pseudos_module/espresso/nninc/pbe/van/O.UPF
     MD5 check sum: 78c19812648e8988a0fe644b0f25305e
     Pseudo is Ultrasoft, Zval =  6.0
     Generated by new atomic code, or converted to UPF format
     Using radial grid of  737 points,  4 beta functions with:
                l(1) =   0
                l(2) =   0
                l(3) =   1
                l(4) =   1
     Q(r) pseudized with  8 coefficients,  rinner =    0.800   0.800   0.800

     PseudoPot. # 3 for N  read from file:
     /storage/coda1/p-amedford6/0/shared/rich_project_chbe-medford/medford-share/data/pseudos_module/espresso/nninc/pbe/van/N.UPF
     MD5 check sum: 90d10febe142ad51ac9d5be1deb811c4
     Pseudo is Ultrasoft, Zval =  5.0
     Generated by new atomic code, or converted to UPF format
     Using radial grid of  729 points,  4 beta functions with:
                l(1) =   0
                l(2) =   0
                l(3) =   1
                l(4) =   1
     Q(r) pseudized with  8 coefficients,  rinner =    0.800   0.800   0.800

     PseudoPot. # 4 for C  read from file:
     /storage/coda1/p-amedford6/0/shared/rich_project_chbe-medford/medford-share/data/pseudos_module/espresso/nninc/pbe/van/C.UPF
     MD5 check sum: 1a69bf6b8db32088f5b2163dbdb77a27
     Pseudo is Ultrasoft, Zval =  4.0
     Generated by new atomic code, or converted to UPF format
     Using radial grid of  721 points,  4 beta functions with:
                l(1) =   0
                l(2) =   0
                l(3) =   1
                l(4) =   1
     Q(r) pseudized with  8 coefficients,  rinner =    0.800   0.800   0.800

     PseudoPot. # 5 for H  read from file:
     /storage/coda1/p-amedford6/0/shared/rich_project_chbe-medford/medford-share/data/pseudos_module/espresso/nninc/pbe/van/H.UPF
     MD5 check sum: b5ee9d7bfd3a09ee7748110bda690ff7
     Pseudo is Ultrasoft, Zval =  1.0
     Generated by new atomic code, or converted to UPF format
     Using radial grid of  615 points,  1 beta functions with:
                l(1) =   0
     Q(r) pseudized with  8 coefficients,  rinner =    0.800

     atomic species   valence    mass     pseudopotential
        Ti1           12.00    47.86700     Ti( 1.00)
        O1             6.00    15.99900     O ( 1.00)
        N1             5.00    14.00700     N ( 1.00)
        C1             4.00    12.01100     C ( 1.00)
        H1             1.00     1.00800     H ( 1.00)

     No symmetry found

   Cartesian axes

     site n.     atom                  positions (alat units)
         1           Ti1 tau(   1) = (   0.0004258   2.9801865   6.0000000  )
         2           Ti1 tau(   2) = (   3.2906075   1.4906267   6.0002472  )
         3           O1  tau(   3) = (   0.0006271   0.0005054   7.9858123  )
         4           O1  tau(   4) = (   3.2906025   0.0005020   7.3038282  )
         5           O1  tau(   5) = (   4.5942328   1.4918067   9.2879030  )
         6           O1  tau(   6) = (   1.9868534   1.4903216   9.2879459  )
         7           Ti1 tau(   7) = (   3.2907910   2.8959150   9.1758416  )
         8           Ti1 tau(   8) = (   0.0015273   1.4827037   9.2680791  )
         9           O1  tau(   9) = (   3.2954490   0.0159868  11.2922163  )
        10           O1  tau(  10) = (   0.0116148   5.9584955  10.6183126  )
        11           O1  tau(  11) = (   1.3242731   1.5050266  12.6143764  )
        12           O1  tau(  12) = (   5.3073597   1.5103589  12.6267567  )
        13           Ti1 tau(  13) = (   6.4831477   3.0011104  12.7364612  )
        14           Ti1 tau(  14) = (   3.1751638   1.4975352  12.4748964  )
        15           O1  tau(  15) = (   0.0212859   5.9607631  14.5987152  )
        16           O1  tau(  16) = (   3.3058086   0.0238703  13.8910224  )
        17           O1  tau(  17) = (   4.5539421   1.5574750  15.9960573  )
        18           O1  tau(  18) = (   2.0731809   1.5597727  15.9888445  )
        19           Ti1 tau(  19) = (   3.3176354   3.0289328  15.6523405  )
        20           Ti1 tau(  20) = (   0.0198791   1.6227889  16.0606591  )
        21           O1  tau(  21) = (   3.2904802   0.0005063   4.7018136  )
        22           O1  tau(  22) = (   0.0290054   0.0533443  17.2129705  )
        23           O1  tau(  23) = (   1.3043587   1.4918075   6.0039043  )
        24           O1  tau(  24) = (   5.2767064   1.4903225   6.0039473  )
        25           Ti1 tau(  25) = (   0.0000382   5.9609847   6.0000000  )
        26           Ti1 tau(  26) = (   3.2902200   4.4714249   6.0002472  )
        27           O1  tau(  27) = (   0.0002396   2.9813036   7.9858123  )
        28           O1  tau(  28) = (   3.2902150   2.9813002   7.3038282  )
        29           O1  tau(  29) = (   4.5938453   4.4726049   9.2879030  )
        30           O1  tau(  30) = (   1.9864658   4.4711199   9.2879459  )
        31           Ti1 tau(  31) = (   3.2891106   5.8743827   9.1763621  )
        32           Ti1 tau(  32) = (   0.0006254   4.4649316   9.2693709  )
        33           O1  tau(  33) = (   3.2918316   2.9938763  11.2915017  )
        34           O1  tau(  34) = (   0.0092240   2.9805883  10.6323155  )
        35           O1  tau(  35) = (   1.3226278   4.4784642  12.6110361  )
        36           O1  tau(  36) = (   5.3078083   4.4770455  12.6250823  )
        37           Ti1 tau(  37) = (   6.5141033   0.0190828  12.7620745  )
        38           Ti1 tau(  38) = (   3.1722404   4.4939287  12.4712879  )
        39           O1  tau(  39) = (   0.0035410   2.9850241  14.6487316  )
        40           O1  tau(  40) = (   3.3118331   3.0109266  13.8519036  )
        41           O1  tau(  41) = (   4.5522870   4.5059159  16.0259181  )
        42           O1  tau(  42) = (   2.0778134   4.5048723  16.0185459  )
        43           Ti1 tau(  43) = (   3.3116469   0.0596163  15.7453941  )
        44           Ti1 tau(  44) = (   0.0183239   4.5967015  16.1059876  )
        45           O1  tau(  45) = (   3.2900926   2.9813045   4.7018136  )
        46           O1  tau(  46) = (   1.3039711   4.4726057   6.0039043  )
        47           O1  tau(  47) = (   5.2763189   4.4711207   6.0039473  )
        48           N1  tau(  48) = (   0.0600715   3.0265251  17.3188267  )
        49           N1  tau(  49) = (   6.2826239   2.5295367  22.6224490  )
        50           C1  tau(  50) = (   0.2859397   3.0149959  18.7399364  )
        51           H1  tau(  51) = (   0.1411154   4.0060466  19.1894648  )
        52           H1  tau(  52) = (   6.1913215   2.3105648  19.2421896  )
        53           H1  tau(  53) = (   1.3125146   2.6868920  18.9691123  )
        54           H1  tau(  54) = (   6.1000088   3.2491606  23.3142794  )
        55           H1  tau(  55) = (   0.1456284   1.7586669  23.1118534  )
        56           H1  tau(  56) = (   0.3974265   2.9048463  21.9856970  )
        57           O1  tau(  57) = (   3.2908421   0.1144680  18.1630233  )
        58           H1  tau(  58) = (   4.0679411   5.5688996  18.4486002  )
        59           H1  tau(  59) = (   2.5060966   5.5811546  18.4327789  )

     number of k points=    10  Fermi-Dirac smearing, width (Ry)=  0.0073
                       cart. coord. in units 2pi/alat
        k(    1) = (   0.0000000   0.0000000   0.0000000), wk =   0.1250000
        k(    2) = (   0.0000000   0.0419351   0.0000000), wk =   0.2500000
        k(    3) = (   0.0000000  -0.0838702   0.0000000), wk =   0.1250000
        k(    4) = (   0.0379955   0.0000049   0.0000000), wk =   0.2500000
        k(    5) = (   0.0379955   0.0419400   0.0000000), wk =   0.2500000
        k(    6) = (   0.0379955  -0.0838652   0.0000000), wk =   0.2500000
        k(    7) = (   0.0379955  -0.0419301   0.0000000), wk =   0.2500000
        k(    8) = (  -0.0759910  -0.0000099   0.0000000), wk =   0.1250000
        k(    9) = (  -0.0759910   0.0419252   0.0000000), wk =   0.2500000
        k(   10) = (  -0.0759910  -0.0838800   0.0000000), wk =   0.1250000

     Initial potential from superposition of free atoms

     starting charge  389.99912, renormalised to  406.00000

     negative rho (up, down):  6.916E-03 0.000E+00

     %%%%%%%%%%%%%%%%%%%%%%%%%%%%%%%%%%%%%%%%%%%%%%%%%%%%%%%%%%%%%%%%%%%%%%%%
     %                                                                      %
     % You are using vdW-DF, which was implemented by the Thonhauser group. %
     % Please cite the following two papers that made this development      %
     % possible and the two reviews that describe the various versions:     %
     %                                                                      %
     %   T. Thonhauser et al., PRL 115, 136402 (2015).                      %
     %   T. Thonhauser et al., PRB 76, 125112 (2007).                       %
     %   K. Berland et al., Rep. Prog. Phys. 78, 066501 (2015).             %
     %   D.C. Langreth et al., J. Phys.: Condens. Matter 21, 084203 (2009). %
     %                                                                      %
     %                                                                      %
     % If you are calculating the stress with vdW-DF, please also cite:     %
     %                                                                      %
     %   R. Sabatini et al., J. Phys.: Condens. Matter 24, 424209 (2012).   %
     %                                                                      %
     %%%%%%%%%%%%%%%%%%%%%%%%%%%%%%%%%%%%%%%%%%%%%%%%%%%%%%%%%%%%%%%%%%%%%%%%

     Adding external electric field

     Computed dipole along edir(3) :
        Dipole              -16.2336 Ry au,        -41.2616 Debye
        Dipole field         -0.0306 Ry au,

        Potential amp.        2.8398 Ry
        Total length         46.3494 bohr

     Starting wfcs are  308 atomic wfcs
  @ DRIVER MODE: Message from server: STATUS
  @ DRIVER MODE: Message from server: POSDATA
  @ DRIVER MODE: Reading and sharing cell
  @ DRIVER MODE: Reading and sharing positions
  @ DRIVER MODE: Received positions

     Self-consistent Calculation

     iteration #  1     ecut=    29.40 Ry     beta= 0.05
     Davidson diagonalization with overlap
     c_bands:  2 eigenvalues not converged
     c_bands:  3 eigenvalues not converged
     c_bands:  5 eigenvalues not converged
     c_bands:  3 eigenvalues not converged
     c_bands:  3 eigenvalues not converged
     c_bands:  3 eigenvalues not converged
     c_bands:  1 eigenvalues not converged
     c_bands:  4 eigenvalues not converged
     c_bands:  3 eigenvalues not converged
     ethr =  1.00E-05,  avg # of iterations = 20.6

[...]

     total energy              =   -2254.13696377 Ry
     estimated scf accuracy    <    8255.92684605 Ry

     iteration #  2     ecut=    29.40 Ry     beta= 0.05
     Davidson diagonalization with overlap
     ethr =  1.00E-02,  avg # of iterations = 25.5

[...]

     iteration # 65     ecut=    29.40 Ry     beta= 0.05
     Davidson diagonalization with overlap
     c_bands:  1 eigenvalues not converged
     c_bands:  3 eigenvalues not converged
     ethr =  1.10E-06,  avg # of iterations =  8.8

[...]

     total energy              =   -2977.74435326 Ry
     estimated scf accuracy    <       0.00000012 Ry

     iteration # 85     ecut=    29.40 Ry     beta= 0.05
     Davidson diagonalization with overlap
     ethr =  2.87E-11,  avg # of iterations =  5.4

     negative rho (up, down):  8.781E-03 0.000E+00

     Adding external electric field

     Computed dipole along edir(3) :
        Dipole                0.7657 Ry au,          1.9462 Debye
        Dipole field          0.0014 Ry au,

        Potential amp.       -0.1339 Ry
        Total length         46.3494 bohr

     End of self-consistent calculation

          k = 0.0000 0.0000 0.0000 ( 18029 PWs)   bands (ev):

   -56.2616 -56.2280 -55.3787 -55.3447 -55.3364 -55.3014 -55.1534 -55.1181
   -55.0315 -54.9112 -54.8927 -54.8910 -54.8773 -54.8064 -54.3909 -54.3410
   -32.6883 -32.5359 -32.5077 -32.4378 -32.3469 -32.3144 -31.8464 -31.8186
   -31.6888 -31.6444 -31.5956 -31.5776 -31.5475 -31.5384 -31.5094 -31.5044
   -31.4858 -31.4795 -31.4570 -31.4428 -31.4294 -31.3802 -31.3699 -31.3312
   -31.3187 -31.3022 -31.2932 -31.2797 -31.2554 -31.2548 -31.2507 -31.2265
   -31.1316 -31.1211 -31.0809 -31.0707 -31.0430 -31.0380 -31.0291 -31.0106
   -30.9799 -30.9272 -30.9055 -30.6345 -30.6123 -30.5809 -30.5600 -30.4513
   -18.4691 -16.4173 -15.9511 -15.7077 -15.6181 -15.5350 -15.4962 -15.4522
   -15.3000 -15.2326 -15.2099 -15.2095 -15.1388 -14.9906 -14.9435 -14.8456
   -14.7518 -14.6170 -14.6000 -14.5667 -14.5488 -14.5160 -14.5091 -14.4571
   -14.2940 -14.2582 -14.2101 -14.1469 -14.0618 -14.0404 -13.8372 -13.4097
   -13.3000 -12.6434  -7.4496  -6.2823  -4.1065  -4.0859  -3.9846  -3.4508
    -3.1813  -3.1539  -3.0253  -3.0205  -2.9750  -2.8345  -2.8250  -2.7538
    -2.7301  -2.6899  -2.6166  -2.5837  -2.5338  -2.4449  -2.4324  -2.4125
    -2.3993  -2.3833  -2.2617  -2.2203  -2.1678  -2.0644  -1.9562  -1.9132
    -1.8862  -1.8423  -1.8042  -1.7571  -1.7446  -1.7301  -1.7235  -1.6127
    -1.4981  -1.4656  -1.4505  -1.4042  -1.3859  -1.3771  -1.3550  -1.2702
    -1.1605  -1.0667  -0.9996  -0.9872  -0.9199  -0.9120  -0.8529  -0.7375
    -0.6763  -0.6722  -0.6558  -0.5521  -0.5256  -0.4541  -0.3912  -0.3332
    -0.2786  -0.2160  -0.1658  -0.1431  -0.1303  -0.0313   0.0404   0.0638
     0.1149   0.1243   0.1321   0.1540   0.2502   0.2864   0.3601   0.4047
     0.4409   0.4852   0.5679   0.6183   0.6861   0.7359   0.7589   0.8205
     0.8738   0.9293   1.0246   1.0729   1.0789   1.0873   1.1103   1.1706
     1.1844   1.2606   1.3436   1.3589   1.4312   1.4998   1.6606   1.6997
     1.9495   2.0210   2.6474   3.0156   3.1768   3.4720   3.6619   3.7994
     3.9948   4.0052   4.0123   4.2387   4.2621

[...]

          k = 0.0380-0.0419 0.0000 ( 17876 PWs)   bands (ev):

[...]

          k =-0.0760-0.0000 0.0000 ( 17886 PWs)   bands (ev):

[...]

          k =-0.0760-0.0839 0.0000 ( 17948 PWs)   bands (ev):

   -56.2449 -56.2444 -55.3636 -55.3593 -55.3238 -55.3141 -55.1368 -55.1346
   -55.0292 -54.8942 -54.8941 -54.8931 -54.8891 -54.8099 -54.3839 -54.3479
   -32.5218 -32.5214 -32.5053 -32.5050 -32.3910 -32.3906 -31.6701 -31.6642
   -31.6544 -31.6469 -31.5705 -31.5555 -31.5536 -31.5494 -31.5430 -31.5415
   -31.5358 -31.5271 -31.4949 -31.4784 -31.3824 -31.3803 -31.3467 -31.3409
   -31.3217 -31.2855 -31.2470 -31.2396 -31.2394 -31.2387 -31.2142 -31.1919
   -31.1494 -31.1191 -31.1189 -31.1153 -31.0921 -31.0798 -31.0797 -31.0649
   -31.0481 -31.0127 -30.7663 -30.7034 -30.6102 -30.5858 -30.5679 -30.5217
   -18.4682 -15.7679 -15.7659 -15.7307 -15.7300 -15.4631 -15.4598 -15.3663
   -15.3610 -15.2265 -15.1096 -15.0080 -14.9952 -14.9597 -14.9326 -14.8206
   -14.7998 -14.7906 -14.7805 -14.6688 -14.6488 -14.6036 -14.5923 -14.5759
   -14.5657 -14.2720 -14.2589 -14.1559 -14.1322 -14.0396 -13.9905 -13.4036
   -13.4035 -12.6620  -7.4433  -6.2749  -4.1165  -4.0877  -2.8634  -2.8572
    -2.8156  -2.8028  -2.8019  -2.7435  -2.6374  -2.5980  -2.5960  -2.5948
    -2.5120  -2.4462  -2.4383  -2.3669  -2.3340  -2.3146  -2.2560  -2.2459
    -2.1805  -2.1542  -2.1460  -2.1294  -2.1059  -2.1046  -2.0085  -1.9459
    -1.8940  -1.8906  -1.8233  -1.8050  -1.7412  -1.7203  -1.7089  -1.6773
    -1.6355  -1.6124  -1.5808  -1.5471  -1.5061  -1.4466  -1.2798  -1.2707
    -1.2614  -1.2397  -1.1145  -1.1074  -1.0767  -1.0465  -1.0407  -0.9669
    -0.9172  -0.8821  -0.8246  -0.7411  -0.7186  -0.6170  -0.5657  -0.5195
    -0.4639  -0.3572  -0.3397  -0.3297  -0.3197  -0.2897  -0.2232  -0.1946
    -0.1785  -0.0578  -0.0384   0.0148   0.0359   0.0919   0.1185   0.1830
     0.2099   0.2815   0.2933   0.3325   0.4064   0.4876   0.5218   0.5701
     0.5748   0.8510   0.9247   1.0549   1.0637   1.1227   1.1810   1.2528
     1.3124   1.3445   1.3716   1.4947   1.4989   1.5083   1.5089   1.5802
     1.5853   1.9270   2.5247   3.5915   3.5918   3.6582   3.6589   3.9798
     3.9860   4.0930   4.1033   4.2641   4.2792

     the Fermi energy is     2.8435 ev

!    total energy              =   -2977.74436682 Ry
     estimated scf accuracy    <       0.00000005 Ry
     smearing contrib. (-TS)   =      -0.00445656 Ry
     internal energy E=F+TS    =   -2977.73991026 Ry

     The total energy is F=E-TS. E is the sum of the following terms:
     one-electron contribution =  -22876.01725540 Ry
     hartree contribution      =   11535.72346281 Ry
     xc contribution           =    -496.33130526 Ry
     ewald contribution        =    8858.88408121 Ry
     electric field correction =       0.00110638 Ry

     convergence has been achieved in  85 iterations

     Forces acting on atoms (cartesian axes, Ry/au):

     atom    1 type  1   force =    -0.00003785   -0.00045994    0.12450346
     atom    2 type  1   force =    -0.00008751   -0.00048527   -0.15981194
     atom    3 type  2   force =     0.00019092   -0.00024419   -0.06790573
     atom    4 type  2   force =    -0.00000684   -0.00011502    0.02622017
     atom    5 type  2   force =    -0.01448679    0.00181616   -0.00989964
     atom    6 type  2   force =     0.01626433    0.00224040   -0.01024379
     atom    7 type  1   force =     0.00071706   -0.00387393    0.02889795
     atom    8 type  1   force =    -0.00035304   -0.00439541    0.10955694
     atom    9 type  2   force =     0.00023650   -0.00028738   -0.00051217
     atom   10 type  2   force =    -0.00231612    0.00256441   -0.07333860
     atom   11 type  2   force =    -0.00002396   -0.00033518   -0.00000126
     atom   12 type  2   force =    -0.00016126   -0.00082475    0.00002186
     atom   13 type  1   force =     0.00106679   -0.00041340    0.00011182
     atom   14 type  1   force =    -0.00064596    0.00064956   -0.00009885
     atom   15 type  2   force =    -0.00029052   -0.00038885   -0.00073252
     atom   16 type  2   force =    -0.00001437   -0.00010544    0.00067710
     atom   17 type  2   force =     0.00017925   -0.00090104   -0.00024550
     atom   18 type  2   force =     0.00047605   -0.00054415    0.00014643
     atom   19 type  1   force =    -0.00114104   -0.00005907   -0.00091950
     atom   20 type  1   force =     0.00076998   -0.00010634   -0.00050232
     atom   21 type  2   force =     0.00004527   -0.00003658    0.09942063
     atom   22 type  2   force =     0.00005378   -0.00019329   -0.00033129
     atom   23 type  2   force =    -0.07966647   -0.00005956   -0.03250232
     atom   24 type  2   force =     0.07950881    0.00037854   -0.03254929
     atom   25 type  1   force =    -0.00000772   -0.00057279    0.12415922
     atom   26 type  1   force =    -0.00008696   -0.00062658   -0.15995269
     atom   27 type  2   force =     0.00029874   -0.00036496   -0.06695714
     atom   28 type  2   force =    -0.00002014    0.00014965    0.02513925
     atom   29 type  2   force =    -0.01511007    0.00192437   -0.00983665
     atom   30 type  2   force =     0.01678513    0.00242359   -0.01015024
     atom   31 type  1   force =     0.00074145   -0.00075702    0.02407110
     atom   32 type  1   force =    -0.00028028    0.00204188    0.11017502
     atom   33 type  2   force =     0.00007546    0.00029027    0.00058605
     atom   34 type  2   force =    -0.00193863    0.00199820   -0.07165134
     atom   35 type  2   force =    -0.00002307    0.00034161   -0.00001383
     atom   36 type  2   force =    -0.00053909    0.00060857   -0.00005429
     atom   37 type  1   force =     0.00120629    0.00043807    0.00029496
     atom   38 type  1   force =    -0.00054025   -0.00088585   -0.00021854
     atom   39 type  2   force =    -0.00027395   -0.00014710    0.00089936
     atom   40 type  2   force =     0.00017944   -0.00013282    0.00023088
     atom   41 type  2   force =     0.00103858    0.00018002    0.00017146
     atom   42 type  2   force =    -0.00048680   -0.00021695    0.00048119
     atom   43 type  1   force =    -0.00159208   -0.00002859   -0.00031609
     atom   44 type  1   force =     0.00095444   -0.00018251   -0.00041055
     atom   45 type  2   force =     0.00001877   -0.00005047    0.09938202
     atom   46 type  2   force =    -0.07968256    0.00000446   -0.03251408
     atom   47 type  2   force =     0.07953276    0.00043781   -0.03253955
     atom   48 type  3   force =    -0.00087845   -0.00077960   -0.00042729
     atom   49 type  3   force =    -0.00029444   -0.00047437    0.00133556
     atom   50 type  4   force =    -0.00025220   -0.00011232    0.00005711
     atom   51 type  5   force =    -0.00018919    0.00037256    0.00027720
     atom   52 type  5   force =    -0.00008071   -0.00053925    0.00072301
     atom   53 type  5   force =     0.00051292   -0.00011076    0.00020314
     atom   54 type  5   force =     0.00006824   -0.00023740   -0.00059938
     atom   55 type  5   force =     0.00003197    0.00032099   -0.00029717
     atom   56 type  5   force =     0.00028701    0.00036205   -0.00181973
     atom   57 type  2   force =     0.00998271    0.00551126   -0.00374319
     atom   58 type  5   force =    -0.00141291    0.00058298    0.00024921
     atom   59 type  5   force =    -0.00830141   -0.00558927    0.00310437

     Total force =     0.423807     Total SCF correction =     0.000407
  @ DRIVER MODE: Message from server: STATUS
  @ DRIVER MODE: Message from server: GETFORCE
  @ DRIVER MODE: Returning v,forces,stress,ensemble

     Writing output data file ./calc.save/
  @ DRIVER MODE: Message from server: EXIT
  @ DRIVE MODE: Exiting

     General routines

     Parallel routines

   This run was terminated on:  16:55:39  16Sep2021

   JOB DONE.