     Program PWSCF v.6.7GPU starts on  4Aug2021 at  5:54: 5

     R & G space division:  proc/nbgrp/npool/nimage =      16
     Reading input from /storage/home/hcoda1/3/ntian30/research/carbon/02Aug_vib_paired/ads_slab/CH3NH3NH3_a/out_0048/pw.inp
Warning: card &CELL ignored
Warning: card   CELL_DYNAMICS='IPI', ignored
Warning: card / ignored

     Current dimensions of program PWSCF are:
     Max number of different atomic species (ntypx) = 10
     Max number of k-points (npk) =  40000
     Max angular momentum in pseudopotentials (lmaxx) =  3
     Presently no symmetry can be used with electric field

     Message from routine cell_base_init:
     DEPRECATED: use true lattice parameter, not A to a.u. conversion factor

     IMPORTANT: XC functional enforced from input :
     Exchange-correlation= BEEF-VDW
                           (   1   4  43  14   2   0   0)
     Any further DFT definition will be discarded
     Please, verify this is what you really want

  @ DRIVER MODE: Connecting to
 qe_1139763_2492108.sched-torque.pace.gatech.eduyarbrpzq_scratch
  using UNIX socket
  @ DRIVER MODE: Message from server: STATUS
  @ DRIVER MODE: Message from server: INIT
  @ DRIVER MODE: Receiving replica           0          -1
  @ DRIVER MODE: Receiving encoded integer          25
  @ DRIVER MODE:  SCF:  T  FORCE:  T  STRESS:  F  VC:  F  ENSEMBLE:  F
  @ DRIVER MODE:  SCF:  T  FORCE:  T  STRESS:  F  VC:  F  ENSEMBLE:  F

     Using Slab Decomposition

     bravais-lattice index     =            0
     lattice parameter (alat)  =       1.8897  a.u.
     unit-cell volume          =    6658.9804 (a.u.)^3
     number of atoms/cell      =           59
     number of atomic types    =            5
     number of electrons       =       401.00
     number of Kohn-Sham states=          210
     kinetic-energy cutoff     =      29.3995  Ry
     charge density cutoff     =     293.9946  Ry
     scf convergence threshold =      7.3E-08
     mixing beta               =       0.0500
     number of iterations used =            8  plain     mixing
     Exchange-correlation= BEEF-VDW
                           (   1   4  43  14   2   0   0)

     celldm(1)=   1.889726  celldm(2)=   0.000000  celldm(3)=   0.000000
     celldm(4)=   0.000000  celldm(5)=   0.000000  celldm(6)=   0.000000

     crystal axes: (cart. coord. in units of alat)
               a(1) = (   6.579727   0.000000   0.000000 )
               a(2) = (  -0.000775   5.961596   0.000000 )
               a(3) = (   0.000000   0.000000  25.155947 )

     reciprocal axes: (cart. coord. in units 2 pi/alat)
               b(1) = (  0.151982  0.000020  0.000000 )
               b(2) = (  0.000000  0.167740  0.000000 )
               b(3) = (  0.000000  0.000000  0.039752 )

     PseudoPot. # 1 for Ti read from file:
     /storage/coda1/p-amedford6/0/shared/rich_project_chbe-medford/medford-share/data/pseudos_module/espresso/nninc/pbe/van/Ti.UPF
     MD5 check sum: 8e4df49b7f0d34bbd5052bf3f5ea0213
     Pseudo is Ultrasoft, Zval = 12.0
     Generated by new atomic code, or converted to UPF format
     Using radial grid of  851 points,  6 beta functions with:
                l(1) =   0
                l(2) =   0
                l(3) =   1
                l(4) =   1
                l(5) =   2
                l(6) =   2
     Q(r) pseudized with  8 coefficients,  rinner =    1.000   1.000   1.000
                                                       1.000   1.000

     PseudoPot. # 2 for O  read from file:
     /storage/coda1/p-amedford6/0/shared/rich_project_chbe-medford/medford-share/data/pseudos_module/espresso/nninc/pbe/van/O.UPF
     MD5 check sum: 78c19812648e8988a0fe644b0f25305e
     Pseudo is Ultrasoft, Zval =  6.0
     Generated by new atomic code, or converted to UPF format
     Using radial grid of  737 points,  4 beta functions with:
                l(1) =   0
                l(2) =   0
                l(3) =   1
                l(4) =   1
     Q(r) pseudized with  8 coefficients,  rinner =    0.800   0.800   0.800

     PseudoPot. # 3 for C  read from file:
     /storage/coda1/p-amedford6/0/shared/rich_project_chbe-medford/medford-share/data/pseudos_module/espresso/nninc/pbe/van/C.UPF
     MD5 check sum: 1a69bf6b8db32088f5b2163dbdb77a27
     Pseudo is Ultrasoft, Zval =  4.0
     Generated by new atomic code, or converted to UPF format
     Using radial grid of  721 points,  4 beta functions with:
                l(1) =   0
                l(2) =   0
                l(3) =   1
                l(4) =   1
     Q(r) pseudized with  8 coefficients,  rinner =    0.800   0.800   0.800

     PseudoPot. # 4 for H  read from file:
     /storage/coda1/p-amedford6/0/shared/rich_project_chbe-medford/medford-share/data/pseudos_module/espresso/nninc/pbe/van/H.UPF
     MD5 check sum: b5ee9d7bfd3a09ee7748110bda690ff7
     Pseudo is Ultrasoft, Zval =  1.0
     Generated by new atomic code, or converted to UPF format
     Using radial grid of  615 points,  1 beta functions with:
                l(1) =   0
     Q(r) pseudized with  8 coefficients,  rinner =    0.800

     PseudoPot. # 5 for N  read from file:
     /storage/coda1/p-amedford6/0/shared/rich_project_chbe-medford/medford-share/data/pseudos_module/espresso/nninc/pbe/van/N.UPF
     MD5 check sum: 90d10febe142ad51ac9d5be1deb811c4
     Pseudo is Ultrasoft, Zval =  5.0
     Generated by new atomic code, or converted to UPF format
     Using radial grid of  729 points,  4 beta functions with:
                l(1) =   0
                l(2) =   0
                l(3) =   1
                l(4) =   1
     Q(r) pseudized with  8 coefficients,  rinner =    0.800   0.800   0.800

     atomic species   valence    mass     pseudopotential
        Ti1           12.00    47.86700     Ti( 1.00)
        O1             6.00    15.99900     O ( 1.00)
        C1             4.00    12.01100     C ( 1.00)
        H1             1.00     1.00800     H ( 1.00)
        N1             5.00    14.00700     N ( 1.00)

     No symmetry found

   Cartesian axes

     site n.     atom                  positions (alat units)
         1           Ti1 tau(   1) = (   0.0004258   2.9801865   6.0000000  )
         2           Ti1 tau(   2) = (   3.2906075   1.4906267   6.0002472  )
         3           O1  tau(   3) = (   0.0006271   0.0005054   7.9858123  )
         4           O1  tau(   4) = (   3.2906025   0.0005020   7.3038282  )
         5           O1  tau(   5) = (   4.5942328   1.4918067   9.2879030  )
         6           O1  tau(   6) = (   1.9868534   1.4903216   9.2879459  )
         7           Ti1 tau(   7) = (   3.2907910   2.8959150   9.1758416  )
         8           Ti1 tau(   8) = (   0.0015273   1.4827037   9.2680791  )
         9           O1  tau(   9) = (   3.3006472   5.9526327  11.3326431  )
        10           O1  tau(  10) = (   0.0116148   5.9584955  10.6183126  )
        11           O1  tau(  11) = (   1.2986171   1.4856602  12.6180737  )
        12           O1  tau(  12) = (   5.2832837   1.4869688  12.6136912  )
        13           Ti1 tau(  13) = (   0.0716907   2.9700601  12.6329626  )
        14           Ti1 tau(  14) = (   3.3921379   1.4824266  12.4783935  )
        15           O1  tau(  15) = (   0.0098915   0.0277142  14.6273811  )
        16           O1  tau(  16) = (   3.2980527   0.0034327  13.9214941  )
        17           O1  tau(  17) = (   4.5491770   1.5035522  16.0668258  )
        18           O1  tau(  18) = (   2.0540802   1.5011373  16.0688643  )
        19           Ti1 tau(  19) = (   3.2973159   2.9845483  15.7023000  )
        20           Ti1 tau(  20) = (   6.5754392   1.4353193  15.8239573  )
        21           O1  tau(  21) = (   3.2904802   0.0005063   4.7018136  )
        22           O1  tau(  22) = (   0.0048264   5.9571524  17.1588256  )
        23           O1  tau(  23) = (   1.3043587   1.4918075   6.0039043  )
        24           O1  tau(  24) = (   5.2767064   1.4903225   6.0039473  )
        25           Ti1 tau(  25) = (   0.0000382   5.9609847   6.0000000  )
        26           Ti1 tau(  26) = (   3.2902200   4.4714249   6.0002472  )
        27           O1  tau(  27) = (   0.0002396   2.9813036   7.9858123  )
        28           O1  tau(  28) = (   3.2902150   2.9813002   7.3038282  )
        29           O1  tau(  29) = (   4.5938453   4.4726049   9.2879030  )
        30           O1  tau(  30) = (   1.9864658   4.4711199   9.2879459  )
        31           Ti1 tau(  31) = (   3.2891106   5.8743827   9.1763621  )
        32           Ti1 tau(  32) = (   0.0006254   4.4649316   9.2693709  )
        33           O1  tau(  33) = (   3.3024910   2.9811918  11.3312481  )
        34           O1  tau(  34) = (   0.0092240   2.9805883  10.6323155  )
        35           O1  tau(  35) = (   1.2967186   4.4682081  12.6345707  )
        36           O1  tau(  36) = (   5.2888097   4.4704914  12.6297389  )
        37           Ti1 tau(  37) = (   0.0778612   5.9457776  12.5489457  )
        38           Ti1 tau(  38) = (   3.3928769   4.4622707  12.4864817  )
        39           O1  tau(  39) = (   0.0140712   2.9461142  14.6842920  )
        40           O1  tau(  40) = (   3.2991745   2.9776924  13.9065265  )
        41           O1  tau(  41) = (   4.5418516   4.4678888  16.0645815  )
        42           O1  tau(  42) = (   2.0574864   4.4691885  16.0636024  )
        43           Ti1 tau(  43) = (   3.2861726   0.0051191  15.7195692  )
        44           Ti1 tau(  44) = (   6.5761434   4.5285208  16.1368719  )
        45           O1  tau(  45) = (   3.2900926   2.9813045   4.7018136  )
        46           O1  tau(  46) = (   1.3039711   4.4726057   6.0039043  )
        47           O1  tau(  47) = (   5.2763189   4.4711207   6.0039473  )
        48           C1  tau(  48) = (   0.0175971   3.0427671  17.7901079  )
        49           H1  tau(  49) = (   5.6823727   3.3959267  18.2745233  )
        50           H1  tau(  50) = (   0.1100020   1.9921885  18.0671921  )
        51           H1  tau(  51) = (   0.8707680   3.5346006  18.2680029  )
        52           N1  tau(  52) = (   6.1495222   1.5591847  21.8098380  )
        53           H1  tau(  53) = (   6.1793786   2.4848735  21.3946126  )
        54           H1  tau(  54) = (   6.2462200   0.9013766  21.0428083  )
        55           H1  tau(  55) = (   5.2088654   1.4380024  22.1828036  )
        56           N1  tau(  56) = (   2.8510371   0.9663425  23.1735989  )
        57           H1  tau(  57) = (   2.8683653   5.9129692  23.1556095  )
        58           H1  tau(  58) = (   1.9074079   1.2374795  22.8938124  )
        59           H1  tau(  59) = (   2.9640119   1.2328864  24.1466208  )

     number of k points=    10  Fermi-Dirac smearing, width (Ry)=  0.0073
                       cart. coord. in units 2pi/alat
        k(    1) = (   0.0000000   0.0000000   0.0000000), wk =   0.1250000
        k(    2) = (   0.0000000   0.0419351   0.0000000), wk =   0.2500000
        k(    3) = (   0.0000000  -0.0838702   0.0000000), wk =   0.1250000
        k(    4) = (   0.0379955   0.0000049   0.0000000), wk =   0.2500000
        k(    5) = (   0.0379955   0.0419400   0.0000000), wk =   0.2500000
        k(    6) = (   0.0379955  -0.0838652   0.0000000), wk =   0.2500000
        k(    7) = (   0.0379955  -0.0419301   0.0000000), wk =   0.2500000
        k(    8) = (  -0.0759910  -0.0000099   0.0000000), wk =   0.1250000
        k(    9) = (  -0.0759910   0.0419252   0.0000000), wk =   0.2500000
        k(   10) = (  -0.0759910  -0.0838800   0.0000000), wk =   0.1250000

     Initial potential from superposition of free atoms

     starting charge  384.99911, renormalised to  401.00000

     negative rho (up, down):  4.923E-03 0.000E+00

     %%%%%%%%%%%%%%%%%%%%%%%%%%%%%%%%%%%%%%%%%%%%%%%%%%%%%%%%%%%%%%%%%%%%%%%%
     %                                                                      %
     % You are using vdW-DF, which was implemented by the Thonhauser group. %
     % Please cite the following two papers that made this development      %
     % possible and the two reviews that describe the various versions:     %
     %                                                                      %
     %   T. Thonhauser et al., PRL 115, 136402 (2015).                      %
     %   T. Thonhauser et al., PRB 76, 125112 (2007).                       %
     %   K. Berland et al., Rep. Prog. Phys. 78, 066501 (2015).             %
     %   D.C. Langreth et al., J. Phys.: Condens. Matter 21, 084203 (2009). %
     %                                                                      %
     %                                                                      %
     % If you are calculating the stress with vdW-DF, please also cite:     %
     %                                                                      %
     %   R. Sabatini et al., J. Phys.: Condens. Matter 24, 424209 (2012).   %
     %                                                                      %
     %%%%%%%%%%%%%%%%%%%%%%%%%%%%%%%%%%%%%%%%%%%%%%%%%%%%%%%%%%%%%%%%%%%%%%%%

     Adding external electric field

     Computed dipole along edir(3) :
        Dipole              -16.7045 Ry au,        -42.4586 Debye
        Dipole field         -0.0315 Ry au,

        Potential amp.        2.9222 Ry
        Total length         46.3494 bohr

     Starting wfcs are  305 atomic wfcs
  @ DRIVER MODE: Message from server: STATUS
  @ DRIVER MODE: Message from server: POSDATA
  @ DRIVER MODE: Reading and sharing cell
  @ DRIVER MODE: Reading and sharing positions
  @ DRIVER MODE: Received positions

     Self-consistent Calculation

     iteration #  1     ecut=    29.40 Ry     beta= 0.05
     Davidson diagonalization with overlap
     c_bands:  2 eigenvalues not converged
     c_bands:  3 eigenvalues not converged
     c_bands:  1 eigenvalues not converged
     c_bands:  4 eigenvalues not converged
     c_bands:  4 eigenvalues not converged
     c_bands:  2 eigenvalues not converged
     c_bands:  3 eigenvalues not converged
     c_bands:  3 eigenvalues not converged
     c_bands:  4 eigenvalues not converged
     ethr =  1.00E-05,  avg # of iterations = 19.8

[...]

     total energy              =   -2364.27353563 Ry
     estimated scf accuracy    <    6692.60195972 Ry

     iteration #  2     ecut=    29.40 Ry     beta= 0.05
     Davidson diagonalization with overlap
     ethr =  1.00E-02,  avg # of iterations = 22.0

[...]

     iteration # 67     ecut=    29.40 Ry     beta= 0.05
     Davidson diagonalization with overlap
     c_bands:  1 eigenvalues not converged
     c_bands:  1 eigenvalues not converged
     ethr =  2.29E-11,  avg # of iterations = 14.8

[...]

     total energy              =   -2946.58249455 Ry
     estimated scf accuracy    <       0.00000011 Ry

     iteration # 69     ecut=    29.40 Ry     beta= 0.05
     Davidson diagonalization with overlap
     ethr =  2.29E-11,  avg # of iterations = 11.7

     negative rho (up, down):  6.997E-03 0.000E+00

     Adding external electric field

     Computed dipole along edir(3) :
        Dipole                0.3114 Ry au,          0.7915 Debye
        Dipole field          0.0006 Ry au,

        Potential amp.       -0.0545 Ry
        Total length         46.3494 bohr

     End of self-consistent calculation

          k = 0.0000 0.0000 0.0000 ( 18029 PWs)   bands (ev):

   -55.9990 -55.9893 -55.9649 -55.9522 -55.8798 -55.8552 -55.8344 -55.8161
   -55.8063 -55.7728 -55.7722 -55.7390 -55.6137 -55.3920 -54.9797 -54.9457
   -32.5431 -32.4815 -32.3541 -32.3341 -32.3056 -32.3033 -32.2918 -32.2632
   -32.2411 -32.2179 -32.2110 -32.1964 -32.1690 -32.1511 -32.1423 -32.1283
   -32.1121 -32.1033 -32.0884 -32.0600 -32.0564 -32.0560 -32.0284 -32.0090
   -32.0085 -32.0036 -31.9944 -31.9904 -31.9771 -31.9750 -31.9666 -31.9469
   -31.9448 -31.9383 -31.9256 -31.9119 -31.8846 -31.8670 -31.8294 -31.6687
   -31.6424 -31.5298 -31.3869 -31.2981 -31.2757 -31.2035 -31.1170 -31.0061
   -16.7442 -16.4748 -16.2485 -16.1523 -16.1253 -16.0061 -15.8408 -15.7188
   -15.6706 -15.5703 -15.5609 -15.5360 -15.5033 -15.4796 -15.4788 -15.4445
   -15.4414 -15.4222 -15.4107 -15.3606 -15.3375 -15.3259 -15.2107 -15.1769
   -15.1344 -15.1135 -15.0557 -15.0431 -14.6208 -13.4829 -13.3666 -13.0316
   -12.9140  -9.1038  -4.1174  -3.9606  -3.9061  -3.8613  -3.8306  -3.6136
    -3.5476  -3.2499  -3.1858  -3.1711  -3.1538  -3.1233  -3.1213  -3.0860
    -3.0264  -2.9880  -2.9029  -2.8355  -2.8271  -2.8105  -2.8075  -2.7781
    -2.7685  -2.7564  -2.7157  -2.6902  -2.6641  -2.6139  -2.5591  -2.4968
    -2.4135  -2.3955  -2.3137  -2.2914  -2.2853  -2.2423  -2.2280  -2.2200
    -2.2011  -2.1760  -2.1629  -1.9795  -1.9410  -1.8383  -1.7821  -1.7800
    -1.6085  -1.5087  -1.4670  -1.4559  -1.4265  -1.3928  -1.3862  -1.3000
    -1.1832  -1.1520  -1.1191  -1.0471  -1.0033  -0.9716  -0.8741  -0.8467
    -0.7636  -0.7612  -0.7391  -0.6513  -0.5976  -0.4839  -0.4360  -0.4259
    -0.3880  -0.3588  -0.2895  -0.2753  -0.2185  -0.1460  -0.1253  -0.0624
    -0.0319  -0.0179  -0.0067   0.0101   0.0365   0.0669   0.1708   0.2013
     0.2808   0.3485   0.4437   0.5413   0.6470   0.6561   0.7574   0.9667
     1.0404   1.1387   1.1970   1.2345   1.6136   1.6594   1.7517   2.1967
     3.1380   3.2220   3.2695   3.2803   3.3713   3.3877   3.5882   3.6125
     3.6335   3.6858

[...]

          k = 0.0380-0.0419 0.0000 ( 17876 PWs)   bands (ev):

[...]

          k =-0.0760-0.0000 0.0000 ( 17886 PWs)   bands (ev):

[...]

          k =-0.0760-0.0839 0.0000 ( 17948 PWs)   bands (ev):

   -55.9825 -55.9813 -55.9752 -55.9661 -55.8718 -55.8450 -55.8422 -55.8263
   -55.7903 -55.7877 -55.7572 -55.7548 -55.6125 -55.3930 -54.9627 -54.9626
   -32.3508 -32.3421 -32.2972 -32.2963 -32.2776 -32.2766 -32.2608 -32.2518
   -32.2054 -32.1936 -32.1875 -32.1848 -32.1469 -32.1310 -32.1293 -32.1201
   -32.1095 -32.1019 -32.1019 -32.1006 -32.0953 -32.0926 -32.0718 -32.0617
   -32.0426 -32.0398 -32.0303 -32.0133 -31.9903 -31.9894 -31.9879 -31.9862
   -31.9715 -31.9702 -31.9670 -31.9630 -31.9345 -31.8581 -31.8327 -31.6824
   -31.6706 -31.5741 -31.2884 -31.2884 -31.1997 -31.1996 -31.1603 -31.1602
   -16.1770 -16.1576 -15.9499 -15.9132 -15.9102 -15.9010 -15.7892 -15.7041
   -15.6941 -15.6934 -15.6111 -15.5990 -15.5827 -15.5384 -15.5343 -15.5249
   -15.5153 -15.5034 -15.4601 -15.4552 -15.4362 -15.4287 -15.3468 -15.3164
   -15.3127 -15.2745 -15.1423 -15.0110 -14.8627 -13.4685 -13.4683 -12.9983
   -12.9469  -9.1203  -3.4691  -3.4434  -3.1932  -3.1570  -3.1477  -3.1149
    -3.0836  -3.0588  -2.9889  -2.9341  -2.9232  -2.8969  -2.8821  -2.8775
    -2.8411  -2.8287  -2.8189  -2.8069  -2.7887  -2.7546  -2.7457  -2.7132
    -2.7024  -2.6823  -2.6689  -2.6534  -2.6287  -2.6161  -2.6099  -2.5786
    -2.5643  -2.5476  -2.5270  -2.5041  -2.4211  -2.2318  -2.2020  -2.1373
    -2.1282  -2.0979  -2.0862  -2.0626  -2.0483  -2.0300  -1.9831  -1.8302
    -1.7281  -1.7019  -1.6741  -1.5990  -1.5781  -1.5304  -1.4163  -1.3816
    -1.3542  -1.3284  -1.2783  -1.2272  -1.2099  -1.1870  -1.1179  -1.1043
    -1.0267  -0.9833  -0.9605  -0.9562  -0.8914  -0.8485  -0.7664  -0.7611
    -0.7171  -0.6815  -0.6341  -0.5939  -0.5892  -0.5021  -0.4764  -0.3599
    -0.3052  -0.0455   0.0040   0.0554   0.0817   0.1405   0.1909   0.2057
     0.3148   0.3191   0.3554   0.3992   0.4399   0.5276   0.5468   0.5816
     0.7277   1.3013   1.4050   1.4056   1.4788   1.4792   1.9524   1.9806
     3.4228   3.4381   3.4685   3.5010   3.6425   3.6462   3.6677   3.6694
     3.7955   3.8098

     the Fermi energy is     3.1356 ev

!    total energy              =   -2946.58251471 Ry
     estimated scf accuracy    <       0.00000001 Ry
     smearing contrib. (-TS)   =      -0.02179316 Ry
     internal energy E=F+TS    =   -2946.56072155 Ry

     The total energy is F=E-TS. E is the sum of the following terms:
     one-electron contribution =  -22199.67192120 Ry
     hartree contribution      =   11188.82864059 Ry
     xc contribution           =    -489.84464654 Ry
     ewald contribution        =    8554.12702260 Ry
     electric field correction =       0.00018300 Ry

     convergence has been achieved in  69 iterations

     Forces acting on atoms (cartesian axes, Ry/au):

     atom    1 type  1   force =     0.00012893   -0.00025651    0.09668836
     atom    2 type  1   force =    -0.00013923   -0.00055004   -0.17510340
     atom    3 type  2   force =    -0.00000228   -0.00002891   -0.02500875
     atom    4 type  2   force =     0.00007560   -0.00144188    0.05271504
     atom    5 type  2   force =    -0.01211220   -0.00083285    0.00340193
     atom    6 type  2   force =     0.01402416   -0.00014878    0.00291082
     atom    7 type  1   force =    -0.00082060    0.00068820   -0.01136655
     atom    8 type  1   force =     0.00025890    0.01148940    0.02861105
     atom    9 type  2   force =    -0.00010200    0.00008783   -0.00001521
     atom   10 type  2   force =    -0.00085156    0.00077181   -0.01661484
     atom   11 type  2   force =    -0.00031542    0.00010090    0.00002293
     atom   12 type  2   force =    -0.00001225    0.00021063    0.00004489
     atom   13 type  1   force =    -0.00011743   -0.00020178    0.00007764
     atom   14 type  1   force =    -0.00021357    0.00000399   -0.00004633
     atom   15 type  2   force =    -0.00003265    0.00006022   -0.00010338
     atom   16 type  2   force =    -0.00012332   -0.00004010    0.00002886
     atom   17 type  2   force =    -0.00003447   -0.00015559   -0.00002014
     atom   18 type  2   force =    -0.00019477   -0.00017353   -0.00002244
     atom   19 type  1   force =     0.00000853   -0.00021446    0.00013841
     atom   20 type  1   force =     0.00009971   -0.00036899   -0.00004747
     atom   21 type  2   force =     0.00006405    0.00000938    0.10294127
     atom   22 type  2   force =    -0.00010635   -0.00008090   -0.00041104
     atom   23 type  2   force =    -0.07138159   -0.00009960   -0.02771686
     atom   24 type  2   force =     0.07134032    0.00030551   -0.02775130
     atom   25 type  1   force =     0.00001095   -0.00029953    0.09646980
     atom   26 type  1   force =    -0.00018246   -0.00027473   -0.17528347
     atom   27 type  2   force =     0.00009186   -0.00019922   -0.02391405
     atom   28 type  2   force =     0.00011373   -0.00120051    0.05275219
     atom   29 type  2   force =    -0.01214494    0.00045764    0.00288621
     atom   30 type  2   force =     0.01397672    0.00080271    0.00243232
     atom   31 type  1   force =    -0.00076632    0.00310499   -0.01228431
     atom   32 type  1   force =     0.00027546   -0.01311553    0.02919019
     atom   33 type  2   force =    -0.00009909   -0.00002967    0.00003911
     atom   34 type  2   force =    -0.00028891    0.00077221   -0.02206792
     atom   35 type  2   force =    -0.00016905    0.00008121   -0.00005005
     atom   36 type  2   force =    -0.00010739    0.00020181   -0.00003835
     atom   37 type  1   force =    -0.00001525   -0.00031707   -0.00018970
     atom   38 type  1   force =     0.00003186    0.00000494   -0.00000196
     atom   39 type  2   force =    -0.00008128    0.00012629    0.00028188
     atom   40 type  2   force =    -0.00013428   -0.00001325   -0.00006162
     atom   41 type  2   force =    -0.00000272   -0.00021595    0.00000741
     atom   42 type  2   force =    -0.00019137   -0.00022210    0.00017702
     atom   43 type  1   force =     0.00031089   -0.00015460   -0.00018045
     atom   44 type  1   force =     0.00017994   -0.00026819    0.00018593
     atom   45 type  2   force =     0.00006403   -0.00007095    0.10293922
     atom   46 type  2   force =    -0.07139417   -0.00009231   -0.02772464
     atom   47 type  2   force =     0.07135122    0.00036678   -0.02773495
     atom   48 type  3   force =    -0.00018345    0.00038255    0.00004645
     atom   49 type  4   force =    -0.00007762    0.00041944    0.00021517
     atom   50 type  4   force =    -0.00008373    0.00012773    0.00005285
     atom   51 type  4   force =     0.00008685    0.00029790    0.00038494
     atom   52 type  5   force =    -0.00043737   -0.00028956    0.00135982
     atom   53 type  4   force =     0.00007311    0.00056653   -0.00048938
     atom   54 type  4   force =    -0.00047082   -0.00041401   -0.00136707
     atom   55 type  4   force =     0.00062874    0.00020128   -0.00041515
     atom   56 type  5   force =    -0.00205907    0.00053368   -0.00294095
     atom   57 type  4   force =     0.00015173   -0.00030135    0.00031037
     atom   58 type  4   force =     0.00353374   -0.00067860    0.00225982
     atom   59 type  4   force =    -0.00143203    0.00057548   -0.00060016

     Total force =     0.367753     Total SCF correction =     0.000345
  @ DRIVER MODE: Message from server: STATUS
  @ DRIVER MODE: Message from server: GETFORCE
  @ DRIVER MODE: Returning v,forces,stress,ensemble

     Writing output data file ./calc.save/
  @ DRIVER MODE: Message from server: EXIT
  @ DRIVE MODE: Exiting

     General routines

     Parallel routines

   This run was terminated on:   6: 9:36   4Aug2021

   JOB DONE.