     Program PWSCF v.6.7GPU starts on 23Sep2021 at 23:26:38

     R & G space division:  proc/nbgrp/npool/nimage =       8
     Reading input from /storage/home/hcoda1/3/ntian30/research/carbon/CxH_vib/H2O_calc/ads_slab/CH3NHHHO_a/out_0031/pw.inp
Warning: card &CELL ignored
Warning: card   CELL_DYNAMICS='IPI', ignored
Warning: card / ignored

     Current dimensions of program PWSCF are:
     Max number of different atomic species (ntypx) = 10
     Max number of k-points (npk) =  40000
     Max angular momentum in pseudopotentials (lmaxx) =  3
     Presently no symmetry can be used with electric field

     Message from routine cell_base_init:
     DEPRECATED: use true lattice parameter, not A to a.u. conversion factor

     IMPORTANT: XC functional enforced from input :
     Exchange-correlation= BEEF-VDW
                           (   1   4  43  14   2   0   0)
     Any further DFT definition will be discarded
     Please, verify this is what you really want

  @ DRIVER MODE: Connecting to
 qe_1139763_2947311.sched-torque.pace.gatech.eduysufanho_scratch
  using UNIX socket
  @ DRIVER MODE: Message from server: STATUS
  @ DRIVER MODE: Message from server: INIT
  @ DRIVER MODE: Receiving replica           0          -1
  @ DRIVER MODE: Receiving encoded integer          25
  @ DRIVER MODE:  SCF:  T  FORCE:  T  STRESS:  F  VC:  F  ENSEMBLE:  F
  @ DRIVER MODE:  SCF:  T  FORCE:  T  STRESS:  F  VC:  F  ENSEMBLE:  F

     Using Slab Decomposition

     bravais-lattice index     =            0
     lattice parameter (alat)  =       1.8897  a.u.
     unit-cell volume          =    6658.9804 (a.u.)^3
     number of atoms/cell      =           56
     number of atomic types    =            5
     number of electrons       =       399.00
     number of Kohn-Sham states=          209
     kinetic-energy cutoff     =      29.3995  Ry
     charge density cutoff     =     293.9946  Ry
     scf convergence threshold =      7.3E-08
     mixing beta               =       0.0500
     number of iterations used =            8  plain     mixing
     Exchange-correlation= BEEF-VDW
                           (   1   4  43  14   2   0   0)

     celldm(1)=   1.889726  celldm(2)=   0.000000  celldm(3)=   0.000000
     celldm(4)=   0.000000  celldm(5)=   0.000000  celldm(6)=   0.000000

     crystal axes: (cart. coord. in units of alat)
               a(1) = (   6.579727   0.000000   0.000000 )
               a(2) = (  -0.000775   5.961596   0.000000 )
               a(3) = (   0.000000   0.000000  25.155947 )

     reciprocal axes: (cart. coord. in units 2 pi/alat)
               b(1) = (  0.151982  0.000020  0.000000 )
               b(2) = (  0.000000  0.167740  0.000000 )
               b(3) = (  0.000000  0.000000  0.039752 )

     PseudoPot. # 1 for Ti read from file:
     /storage/coda1/p-amedford6/0/shared/rich_project_chbe-medford/medford-share/data/pseudos_module/espresso/nninc/pbe/van/Ti.UPF
     MD5 check sum: 8e4df49b7f0d34bbd5052bf3f5ea0213
     Pseudo is Ultrasoft, Zval = 12.0
     Generated by new atomic code, or converted to UPF format
     Using radial grid of  851 points,  6 beta functions with:
                l(1) =   0
                l(2) =   0
                l(3) =   1
                l(4) =   1
                l(5) =   2
                l(6) =   2
     Q(r) pseudized with  8 coefficients,  rinner =    1.000   1.000   1.000
                                                       1.000   1.000

     PseudoPot. # 2 for O  read from file:
     /storage/coda1/p-amedford6/0/shared/rich_project_chbe-medford/medford-share/data/pseudos_module/espresso/nninc/pbe/van/O.UPF
     MD5 check sum: 78c19812648e8988a0fe644b0f25305e
     Pseudo is Ultrasoft, Zval =  6.0
     Generated by new atomic code, or converted to UPF format
     Using radial grid of  737 points,  4 beta functions with:
                l(1) =   0
                l(2) =   0
                l(3) =   1
                l(4) =   1
     Q(r) pseudized with  8 coefficients,  rinner =    0.800   0.800   0.800

     PseudoPot. # 3 for N  read from file:
     /storage/coda1/p-amedford6/0/shared/rich_project_chbe-medford/medford-share/data/pseudos_module/espresso/nninc/pbe/van/N.UPF
     MD5 check sum: 90d10febe142ad51ac9d5be1deb811c4
     Pseudo is Ultrasoft, Zval =  5.0
     Generated by new atomic code, or converted to UPF format
     Using radial grid of  729 points,  4 beta functions with:
                l(1) =   0
                l(2) =   0
                l(3) =   1
                l(4) =   1
     Q(r) pseudized with  8 coefficients,  rinner =    0.800   0.800   0.800

     PseudoPot. # 4 for C  read from file:
     /storage/coda1/p-amedford6/0/shared/rich_project_chbe-medford/medford-share/data/pseudos_module/espresso/nninc/pbe/van/C.UPF
     MD5 check sum: 1a69bf6b8db32088f5b2163dbdb77a27
     Pseudo is Ultrasoft, Zval =  4.0
     Generated by new atomic code, or converted to UPF format
     Using radial grid of  721 points,  4 beta functions with:
                l(1) =   0
                l(2) =   0
                l(3) =   1
                l(4) =   1
     Q(r) pseudized with  8 coefficients,  rinner =    0.800   0.800   0.800

     PseudoPot. # 5 for H  read from file:
     /storage/coda1/p-amedford6/0/shared/rich_project_chbe-medford/medford-share/data/pseudos_module/espresso/nninc/pbe/van/H.UPF
     MD5 check sum: b5ee9d7bfd3a09ee7748110bda690ff7
     Pseudo is Ultrasoft, Zval =  1.0
     Generated by new atomic code, or converted to UPF format
     Using radial grid of  615 points,  1 beta functions with:
                l(1) =   0
     Q(r) pseudized with  8 coefficients,  rinner =    0.800

     atomic species   valence    mass     pseudopotential
        Ti1           12.00    47.86700     Ti( 1.00)
        O1             6.00    15.99900     O ( 1.00)
        N1             5.00    14.00700     N ( 1.00)
        C1             4.00    12.01100     C ( 1.00)
        H1             1.00     1.00800     H ( 1.00)

     No symmetry found

   Cartesian axes

     site n.     atom                  positions (alat units)
         1           Ti1 tau(   1) = (   0.0004258   2.9801865   6.0000000  )
         2           Ti1 tau(   2) = (   3.2906075   1.4906267   6.0002472  )
         3           O1  tau(   3) = (   0.0006271   0.0005054   7.9858123  )
         4           O1  tau(   4) = (   3.2906025   0.0005020   7.3038282  )
         5           O1  tau(   5) = (   4.5942328   1.4918067   9.2879030  )
         6           O1  tau(   6) = (   1.9868534   1.4903216   9.2879459  )
         7           Ti1 tau(   7) = (   3.2907910   2.8959150   9.1758416  )
         8           Ti1 tau(   8) = (   0.0015273   1.4827037   9.2680791  )
         9           O1  tau(   9) = (   3.2949530   5.9481847  11.3666340  )
        10           O1  tau(  10) = (   0.0116148   5.9584955  10.6183126  )
        11           O1  tau(  11) = (   1.2732546   1.4916747  12.6876809  )
        12           O1  tau(  12) = (   5.3119445   1.4892451  12.6851550  )
        13           Ti1 tau(  13) = (   6.5688325   2.9465269  12.5174317  )
        14           Ti1 tau(  14) = (   3.2996026   1.2975375  12.7241829  )
        15           O1  tau(  15) = (   0.0172205   5.8793003  14.6619373  )
        16           O1  tau(  16) = (   3.2917661   0.0702926  14.0149596  )
        17           O1  tau(  17) = (   4.5643074   1.5920826  16.1346482  )
        18           O1  tau(  18) = (   2.0131957   1.5841813  16.0575481  )
        19           Ti1 tau(  19) = (   3.2662748   3.0407108  15.6947786  )
        20           Ti1 tau(  20) = (   0.0618610   1.3206105  15.7998127  )
        21           O1  tau(  21) = (   3.2904802   0.0005063   4.7018136  )
        22           O1  tau(  22) = (   0.0233933   0.1570098  17.1842078  )
        23           O1  tau(  23) = (   1.3043587   1.4918075   6.0039043  )
        24           O1  tau(  24) = (   5.2767064   1.4903225   6.0039473  )
        25           Ti1 tau(  25) = (   0.0000382   5.9609847   6.0000000  )
        26           Ti1 tau(  26) = (   3.2902200   4.4714249   6.0002472  )
        27           O1  tau(  27) = (   0.0002396   2.9813036   7.9858123  )
        28           O1  tau(  28) = (   3.2902150   2.9813002   7.3038282  )
        29           O1  tau(  29) = (   4.5938453   4.4726049   9.2879030  )
        30           O1  tau(  30) = (   1.9864658   4.4711199   9.2879459  )
        31           Ti1 tau(  31) = (   3.2891106   5.8743827   9.1763621  )
        32           Ti1 tau(  32) = (   0.0006254   4.4649316   9.2693709  )
        33           O1  tau(  33) = (   3.2948289   2.9949798  11.3176834  )
        34           O1  tau(  34) = (   0.0092240   2.9805883  10.6323155  )
        35           O1  tau(  35) = (   1.2828652   4.4571597  12.6432593  )
        36           O1  tau(  36) = (   5.3079144   4.4605214  12.6419564  )
        37           Ti1 tau(  37) = (   0.0266940   5.9154698  12.5044250  )
        38           Ti1 tau(  38) = (   3.3008436   4.3760658  12.4353554  )
        39           O1  tau(  39) = (   6.5507285   3.0461080  14.9005035  )
        40           O1  tau(  40) = (   3.2938476   3.0131494  13.9233183  )
        41           O1  tau(  41) = (   4.5350990   4.4864192  16.1518712  )
        42           O1  tau(  42) = (   1.9883536   4.4285065  16.1690201  )
        43           Ti1 tau(  43) = (   3.3916644   0.0784854  16.2809578  )
        44           Ti1 tau(  44) = (   0.0590441   4.5159846  16.0209683  )
        45           O1  tau(  45) = (   3.2900926   2.9813045   4.7018136  )
        46           O1  tau(  46) = (   1.3039711   4.4726057   6.0039043  )
        47           O1  tau(  47) = (   5.2763189   4.4711207   6.0039473  )
        48           N1  tau(  48) = (   6.2706434   3.3837210  18.0754458  )
        49           C1  tau(  49) = (   0.7642246   3.1223808  19.0622891  )
        50           H1  tau(  50) = (   1.3158356   4.0410886  19.2409436  )
        51           H1  tau(  51) = (   0.3597117   2.7583523  20.0089400  )
        52           H1  tau(  52) = (   1.4517744   2.3810259  18.6668870  )
        53           H1  tau(  53) = (   5.6645199   4.1349376  18.4206214  )
        54           H1  tau(  54) = (   5.6587021   2.5696541  18.0151127  )
        55           O1  tau(  55) = (   3.1972372   0.0910451  18.1323504  )
        56           H1  tau(  56) = (   2.2767176   0.1080423  18.4377142  )

     number of k points=    10  Fermi-Dirac smearing, width (Ry)=  0.0073
                       cart. coord. in units 2pi/alat
        k(    1) = (   0.0000000   0.0000000   0.0000000), wk =   0.1250000
        k(    2) = (   0.0000000   0.0419351   0.0000000), wk =   0.2500000
        k(    3) = (   0.0000000  -0.0838702   0.0000000), wk =   0.1250000
        k(    4) = (   0.0379955   0.0000049   0.0000000), wk =   0.2500000
        k(    5) = (   0.0379955   0.0419400   0.0000000), wk =   0.2500000
        k(    6) = (   0.0379955  -0.0838652   0.0000000), wk =   0.2500000
        k(    7) = (   0.0379955  -0.0419301   0.0000000), wk =   0.2500000
        k(    8) = (  -0.0759910  -0.0000099   0.0000000), wk =   0.1250000
        k(    9) = (  -0.0759910   0.0419252   0.0000000), wk =   0.2500000
        k(   10) = (  -0.0759910  -0.0838800   0.0000000), wk =   0.1250000

     Initial potential from superposition of free atoms

     starting charge  382.99914, renormalised to  399.00000

     negative rho (up, down):  1.588E-02 0.000E+00

     %%%%%%%%%%%%%%%%%%%%%%%%%%%%%%%%%%%%%%%%%%%%%%%%%%%%%%%%%%%%%%%%%%%%%%%%
     %                                                                      %
     % You are using vdW-DF, which was implemented by the Thonhauser group. %
     % Please cite the following two papers that made this development      %
     % possible and the two reviews that describe the various versions:     %
     %                                                                      %
     %   T. Thonhauser et al., PRL 115, 136402 (2015).                      %
     %   T. Thonhauser et al., PRB 76, 125112 (2007).                       %
     %   K. Berland et al., Rep. Prog. Phys. 78, 066501 (2015).             %
     %   D.C. Langreth et al., J. Phys.: Condens. Matter 21, 084203 (2009). %
     %                                                                      %
     %                                                                      %
     % If you are calculating the stress with vdW-DF, please also cite:     %
     %                                                                      %
     %   R. Sabatini et al., J. Phys.: Condens. Matter 24, 424209 (2012).   %
     %                                                                      %
     %%%%%%%%%%%%%%%%%%%%%%%%%%%%%%%%%%%%%%%%%%%%%%%%%%%%%%%%%%%%%%%%%%%%%%%%

     Adding external electric field

     Computed dipole along edir(3) :
        Dipole              -10.6962 Ry au,        -27.1870 Debye
        Dipole field         -0.0202 Ry au,

        Potential amp.        1.8711 Ry
        Total length         46.3494 bohr

     Starting wfcs are  302 atomic wfcs
  @ DRIVER MODE: Message from server: STATUS
  @ DRIVER MODE: Message from server: POSDATA
  @ DRIVER MODE: Reading and sharing cell
  @ DRIVER MODE: Reading and sharing positions
  @ DRIVER MODE: Received positions

     Self-consistent Calculation

     iteration #  1     ecut=    29.40 Ry     beta= 0.05
     Davidson diagonalization with overlap
     c_bands:  3 eigenvalues not converged
     c_bands:  2 eigenvalues not converged
     c_bands:  2 eigenvalues not converged
     c_bands:  5 eigenvalues not converged
     c_bands:  2 eigenvalues not converged
     c_bands:  5 eigenvalues not converged
     c_bands:  4 eigenvalues not converged
     c_bands:  3 eigenvalues not converged
     ethr =  1.00E-05,  avg # of iterations = 21.6

[...]

     total energy              =   -2438.26226715 Ry
     estimated scf accuracy    <    5770.45446214 Ry

     iteration #  2     ecut=    29.40 Ry     beta= 0.05
     Davidson diagonalization with overlap
     ethr =  1.00E-02,  avg # of iterations = 23.1

[...]

     iteration # 47     ecut=    29.40 Ry     beta= 0.05
     Davidson diagonalization with overlap
     c_bands:  1 eigenvalues not converged
     c_bands:  1 eigenvalues not converged
     ethr =  2.55E-06,  avg # of iterations =  8.3

[...]

     total energy              =   -2955.26287182 Ry
     estimated scf accuracy    <       0.00000009 Ry

     iteration # 68     ecut=    29.40 Ry     beta= 0.05
     Davidson diagonalization with overlap
     ethr =  2.29E-11,  avg # of iterations = 13.7

     negative rho (up, down):  1.647E-02 0.000E+00

     Adding external electric field

     Computed dipole along edir(3) :
        Dipole                0.9743 Ry au,          2.4765 Debye
        Dipole field          0.0018 Ry au,

        Potential amp.       -0.1704 Ry
        Total length         46.3494 bohr

     End of self-consistent calculation

          k = 0.0000 0.0000 0.0000 ( 18029 PWs)   bands (ev):

   -55.6831 -55.6364 -55.6024 -55.5119 -55.5017 -55.4664 -55.4656 -55.4634
   -55.4316 -55.4180 -55.3673 -55.2723 -55.2260 -55.2123 -54.6123 -54.5783
   -32.1219 -32.0198 -32.0114 -31.9878 -31.9685 -31.9564 -31.9272 -31.9012
   -31.8944 -31.8827 -31.8824 -31.7896 -31.7891 -31.7740 -31.7488 -31.7451
   -31.7438 -31.7424 -31.7415 -31.7054 -31.6940 -31.6646 -31.6619 -31.6557
   -31.6501 -31.6439 -31.6358 -31.6056 -31.6033 -31.5978 -31.5927 -31.5893
   -31.5785 -31.5633 -31.5487 -31.5234 -31.4637 -31.4551 -31.4452 -31.4216
   -31.4188 -31.4142 -31.0184 -30.9319 -30.9095 -30.8359 -30.7496 -30.6377
   -16.5120 -16.2958 -16.1478 -15.9730 -15.8369 -15.8072 -15.7627 -15.5986
   -15.5058 -15.4422 -15.2416 -15.2209 -15.1751 -15.1638 -15.1585 -15.1356
   -15.1258 -15.0809 -15.0624 -15.0590 -15.0492 -15.0315 -14.9951 -14.9527
   -14.9098 -14.8886 -14.7761 -14.7197 -14.6790 -14.4679 -14.3987 -13.1107
   -12.9943  -9.9855  -5.9819  -4.5933  -4.0634  -3.7647  -3.6442  -3.5465
    -3.5351  -3.4156  -3.4061  -3.1654  -3.0418  -2.9827  -2.9045  -2.7822
    -2.7502  -2.6767  -2.6367  -2.5869  -2.5683  -2.5315  -2.4908  -2.4482
    -2.4229  -2.3952  -2.3615  -2.3055  -2.2942  -2.1955  -2.1815  -2.1582
    -2.0532  -2.0120  -1.9719  -1.9540  -1.9490  -1.9298  -1.8912  -1.8849
    -1.8652  -1.7870  -1.7180  -1.6717  -1.6368  -1.6090  -1.3313  -1.2462
    -1.2024  -1.1878  -1.0839  -1.0602  -1.0320  -1.0184  -0.9814  -0.9651
    -0.8532  -0.8364  -0.7683  -0.7186  -0.7045  -0.6666  -0.5476  -0.5110
    -0.4602  -0.4201  -0.3699  -0.3523  -0.3476  -0.2528  -0.2261  -0.1911
    -0.0831  -0.0663  -0.0036   0.0815   0.0913   0.1425   0.1666   0.2265
     0.2312   0.2854   0.3152   0.3374   0.3908   0.4232   0.4596   0.4925
     0.5097   0.6120   0.6872   0.7001   0.7965   0.8718   0.9254   1.0291
     1.0969   1.3607   1.4143   1.4381   1.6063   1.9816   2.0270   3.4452
     3.5942   3.6098   3.6842   3.6969   3.7741   3.9347   3.9595   4.0945
     4.1342

[...]

          k = 0.0380-0.0419 0.0000 ( 17876 PWs)   bands (ev):

[...]

          k =-0.0760-0.0000 0.0000 ( 17886 PWs)   bands (ev):

[...]

          k =-0.0760-0.0839 0.0000 ( 17948 PWs)   bands (ev):

   -55.6821 -55.6196 -55.6191 -55.5107 -55.4905 -55.4746 -55.4672 -55.4493
   -55.4475 -55.4117 -55.3738 -55.2675 -55.2271 -55.2170 -54.5957 -54.5947
   -31.9528 -31.9450 -31.9373 -31.9370 -31.9298 -31.9129 -31.9124 -31.8968
   -31.8522 -31.8106 -31.7926 -31.7799 -31.7760 -31.7744 -31.7526 -31.7427
   -31.7395 -31.7389 -31.7285 -31.7246 -31.7171 -31.7161 -31.7014 -31.6775
   -31.6713 -31.6671 -31.6576 -31.6472 -31.6318 -31.6309 -31.6288 -31.6235
   -31.6218 -31.5965 -31.5959 -31.5549 -31.5303 -31.4945 -31.4680 -31.4633
   -31.4475 -31.4182 -30.9226 -30.9218 -30.8319 -30.8306 -30.7932 -30.7924
   -16.4822 -15.9249 -15.8532 -15.7442 -15.6213 -15.6080 -15.4969 -15.4137
   -15.4103 -15.3799 -15.3491 -15.3215 -15.3116 -15.2948 -15.2479 -15.2044
   -15.1691 -15.1414 -15.1394 -15.0936 -15.0865 -15.0750 -15.0625 -15.0402
   -15.0064 -14.9568 -14.9423 -14.9033 -14.7656 -14.6884 -14.5902 -13.0964
   -13.0959  -9.9875  -5.9619  -4.5907  -4.0268  -3.7225  -3.0557  -2.9596
    -2.8477  -2.7228  -2.7142  -2.6991  -2.6421  -2.6112  -2.5851  -2.5438
    -2.4866  -2.4669  -2.4463  -2.4299  -2.4081  -2.3901  -2.3813  -2.3762
    -2.3397  -2.3220  -2.3136  -2.2726  -2.2650  -2.2482  -2.2282  -2.2110
    -2.1803  -2.1758  -2.1466  -2.0946  -2.0458  -1.9719  -1.8788  -1.7976
    -1.7865  -1.7680  -1.7185  -1.7119  -1.6664  -1.6586  -1.6339  -1.5477
    -1.4362  -1.3859  -1.2751  -1.2550  -1.2285  -1.1883  -1.1360  -1.1216
    -1.0763  -1.0457  -0.9860  -0.8847  -0.8548  -0.7998  -0.6862  -0.6486
    -0.6102  -0.5902  -0.5781  -0.5530  -0.5364  -0.4967  -0.4686  -0.4205
    -0.3809  -0.3469  -0.3200  -0.2945  -0.2485  -0.1459  -0.0516  -0.0143
     0.0873   0.1334   0.1754   0.2075   0.2694   0.4039   0.4310   0.5268
     0.5415   0.5706   0.6722   0.6824   0.7834   0.8078   0.8458   0.8868
     0.9115   0.9326   0.9523   1.7759   1.7845   1.8474   1.8475   3.7380
     3.9305   3.9457   3.9619   4.0066   4.0138   4.0409   4.0465   4.1131
     4.1241

     the Fermi energy is     3.4841 ev

!    total energy              =   -2955.26289746 Ry
     estimated scf accuracy    <       0.00000007 Ry
     smearing contrib. (-TS)   =      -0.01953214 Ry
     internal energy E=F+TS    =   -2955.24336531 Ry

     The total energy is F=E-TS. E is the sum of the following terms:
     one-electron contribution =  -23741.50275427 Ry
     hartree contribution      =   11962.86517360 Ry
     xc contribution           =    -489.73229591 Ry
     ewald contribution        =    9313.12471971 Ry
     electric field correction =       0.00179156 Ry

     convergence has been achieved in  68 iterations

     Forces acting on atoms (cartesian axes, Ry/au):

     atom    1 type  1   force =     0.00009264   -0.00029427    0.09416459
     atom    2 type  1   force =    -0.00003831    0.00043441   -0.17541695
     atom    3 type  2   force =     0.00003979   -0.00033428   -0.02110564
     atom    4 type  2   force =     0.00002340   -0.00197792    0.05462437
     atom    5 type  2   force =    -0.00673808   -0.00245145    0.00301390
     atom    6 type  2   force =     0.00834345   -0.00187481    0.00243341
     atom    7 type  1   force =    -0.00017830   -0.00404669    0.00898501
     atom    8 type  1   force =     0.00031569    0.00082370    0.00312831
     atom    9 type  2   force =    -0.00058202    0.00058391   -0.00017948
     atom   10 type  2   force =    -0.00139259    0.00173313   -0.00927240
     atom   11 type  2   force =     0.00004325   -0.00015838    0.00036556
     atom   12 type  2   force =    -0.00006016   -0.00011329   -0.00031796
     atom   13 type  1   force =    -0.00048727   -0.00025252    0.00005395
     atom   14 type  1   force =     0.00000791   -0.00033729   -0.00007530
     atom   15 type  2   force =    -0.00031669   -0.00004562   -0.00019064
     atom   16 type  2   force =     0.00032221   -0.00054724   -0.00039840
     atom   17 type  2   force =     0.00040751   -0.00015756   -0.00079313
     atom   18 type  2   force =    -0.00045036    0.00015268   -0.00012368
     atom   19 type  1   force =     0.00046780   -0.00064690    0.00065157
     atom   20 type  1   force =     0.00047601    0.00024310    0.00048114
     atom   21 type  2   force =     0.00007576    0.00004724    0.10326961
     atom   22 type  2   force =    -0.00045921    0.00045313    0.00010928
     atom   23 type  2   force =    -0.07192126   -0.00018672   -0.02719949
     atom   24 type  2   force =     0.07184944    0.00025327   -0.02724283
     atom   25 type  1   force =     0.00002428   -0.00023904    0.09382648
     atom   26 type  1   force =    -0.00006341   -0.00132857   -0.17560327
     atom   27 type  2   force =     0.00015596   -0.00011518   -0.01987290
     atom   28 type  2   force =     0.00006947   -0.00032239    0.04989871
     atom   29 type  2   force =    -0.00613175    0.00232351    0.00252017
     atom   30 type  2   force =     0.00762524    0.00268815    0.00196942
     atom   31 type  1   force =     0.00002444    0.00840064   -0.00273611
     atom   32 type  1   force =     0.00011975   -0.00236088    0.00260653
     atom   33 type  2   force =     0.00005118   -0.00001272   -0.00006274
     atom   34 type  2   force =    -0.00211794   -0.00248870   -0.01004436
     atom   35 type  2   force =    -0.00013998   -0.00001687    0.00052212
     atom   36 type  2   force =    -0.00007776    0.00007171   -0.00008691
     atom   37 type  1   force =     0.00016557   -0.00008750   -0.00022900
     atom   38 type  1   force =     0.00005433   -0.00016984    0.00023812
     atom   39 type  2   force =    -0.00013576    0.00011267   -0.00031186
     atom   40 type  2   force =     0.00017142   -0.00024940   -0.00010233
     atom   41 type  2   force =    -0.00040295   -0.00072471    0.00062849
     atom   42 type  2   force =     0.00052252    0.00004376   -0.00018479
     atom   43 type  1   force =    -0.00080135   -0.00057203    0.00018945
     atom   44 type  1   force =     0.00039274    0.00048200   -0.00002244
     atom   45 type  2   force =     0.00006745   -0.00007094    0.10306604
     atom   46 type  2   force =    -0.07193937   -0.00004620   -0.02723086
     atom   47 type  2   force =     0.07190345    0.00039227   -0.02728126
     atom   48 type  3   force =    -0.00638745    0.00615505    0.00251263
     atom   49 type  4   force =    -0.00005999    0.00111657    0.00085379
     atom   50 type  5   force =     0.00052658    0.00087729   -0.00013960
     atom   51 type  5   force =    -0.00002947    0.00069145    0.00015462
     atom   52 type  5   force =     0.00020927   -0.00021743   -0.00086019
     atom   53 type  5   force =     0.00623915   -0.00528899   -0.00296600
     atom   54 type  5   force =     0.00083568   -0.00077060   -0.00028700
     atom   55 type  2   force =    -0.00043943    0.00035828    0.00050442
     atom   56 type  5   force =    -0.00027248    0.00006903   -0.00043417

     Total force =     0.362448     Total SCF correction =     0.000549
  @ DRIVER MODE: Message from server: STATUS
  @ DRIVER MODE: Message from server: GETFORCE
  @ DRIVER MODE: Returning v,forces,stress,ensemble

     Writing output data file ./calc.save/
  @ DRIVER MODE: Message from server: EXIT
  @ DRIVE MODE: Exiting

     General routines

     Parallel routines

   This run was terminated on:  23:49:36  23Sep2021

   JOB DONE.