     Program PWSCF v.6.7GPU starts on  9Sep2021 at  6: 2:16

     R & G space division:  proc/nbgrp/npool/nimage =      10
     Reading input from /storage/home/hcoda1/3/ntian30/research/carbon/CxH_vib/CH3_calc/ads_slab/CH3NHNH2_a/out_0025/pw.inp
Warning: card &CELL ignored
Warning: card   CELL_DYNAMICS='IPI', ignored
Warning: card / ignored

     Current dimensions of program PWSCF are:
     Max number of different atomic species (ntypx) = 10
     Max number of k-points (npk) =  40000
     Max angular momentum in pseudopotentials (lmaxx) =  3
     Presently no symmetry can be used with electric field

     Message from routine cell_base_init:
     DEPRECATED: use true lattice parameter, not A to a.u. conversion factor

     IMPORTANT: XC functional enforced from input :
     Exchange-correlation= BEEF-VDW
                           (   1   4  43  14   2   0   0)
     Any further DFT definition will be discarded
     Please, verify this is what you really want

  @ DRIVER MODE: Connecting to
 qe_1139763_2767398.sched-torque.pace.gatech.edud653dk6p_scratch
  using UNIX socket
  @ DRIVER MODE: Message from server: STATUS
  @ DRIVER MODE: Message from server: INIT
  @ DRIVER MODE: Receiving replica           0          -1
  @ DRIVER MODE: Receiving encoded integer          25
  @ DRIVER MODE:  SCF:  T  FORCE:  T  STRESS:  F  VC:  F  ENSEMBLE:  F
  @ DRIVER MODE:  SCF:  T  FORCE:  T  STRESS:  F  VC:  F  ENSEMBLE:  F

     Using Slab Decomposition

     bravais-lattice index     =            0
     lattice parameter (alat)  =       1.8897  a.u.
     unit-cell volume          =    6658.9804 (a.u.)^3
     number of atoms/cell      =           56
     number of atomic types    =            5
     number of electrons       =       398.00
     number of Kohn-Sham states=          209
     kinetic-energy cutoff     =      29.3995  Ry
     charge density cutoff     =     293.9946  Ry
     scf convergence threshold =      7.3E-08
     mixing beta               =       0.0500
     number of iterations used =            8  plain     mixing
     Exchange-correlation= BEEF-VDW
                           (   1   4  43  14   2   0   0)

     celldm(1)=   1.889726  celldm(2)=   0.000000  celldm(3)=   0.000000
     celldm(4)=   0.000000  celldm(5)=   0.000000  celldm(6)=   0.000000

     crystal axes: (cart. coord. in units of alat)
               a(1) = (   6.579727   0.000000   0.000000 )
               a(2) = (  -0.000775   5.961596   0.000000 )
               a(3) = (   0.000000   0.000000  25.155947 )

     reciprocal axes: (cart. coord. in units 2 pi/alat)
               b(1) = (  0.151982  0.000020  0.000000 )
               b(2) = (  0.000000  0.167740  0.000000 )
               b(3) = (  0.000000  0.000000  0.039752 )

     PseudoPot. # 1 for Ti read from file:
     /storage/coda1/p-amedford6/0/shared/rich_project_chbe-medford/medford-share/data/pseudos_module/espresso/nninc/pbe/van/Ti.UPF
     MD5 check sum: 8e4df49b7f0d34bbd5052bf3f5ea0213
     Pseudo is Ultrasoft, Zval = 12.0
     Generated by new atomic code, or converted to UPF format
     Using radial grid of  851 points,  6 beta functions with:
                l(1) =   0
                l(2) =   0
                l(3) =   1
                l(4) =   1
                l(5) =   2
                l(6) =   2
     Q(r) pseudized with  8 coefficients,  rinner =    1.000   1.000   1.000
                                                       1.000   1.000

     PseudoPot. # 2 for O  read from file:
     /storage/coda1/p-amedford6/0/shared/rich_project_chbe-medford/medford-share/data/pseudos_module/espresso/nninc/pbe/van/O.UPF
     MD5 check sum: 78c19812648e8988a0fe644b0f25305e
     Pseudo is Ultrasoft, Zval =  6.0
     Generated by new atomic code, or converted to UPF format
     Using radial grid of  737 points,  4 beta functions with:
                l(1) =   0
                l(2) =   0
                l(3) =   1
                l(4) =   1
     Q(r) pseudized with  8 coefficients,  rinner =    0.800   0.800   0.800

     PseudoPot. # 3 for N  read from file:
     /storage/coda1/p-amedford6/0/shared/rich_project_chbe-medford/medford-share/data/pseudos_module/espresso/nninc/pbe/van/N.UPF
     MD5 check sum: 90d10febe142ad51ac9d5be1deb811c4
     Pseudo is Ultrasoft, Zval =  5.0
     Generated by new atomic code, or converted to UPF format
     Using radial grid of  729 points,  4 beta functions with:
                l(1) =   0
                l(2) =   0
                l(3) =   1
                l(4) =   1
     Q(r) pseudized with  8 coefficients,  rinner =    0.800   0.800   0.800

     PseudoPot. # 4 for C  read from file:
     /storage/coda1/p-amedford6/0/shared/rich_project_chbe-medford/medford-share/data/pseudos_module/espresso/nninc/pbe/van/C.UPF
     MD5 check sum: 1a69bf6b8db32088f5b2163dbdb77a27
     Pseudo is Ultrasoft, Zval =  4.0
     Generated by new atomic code, or converted to UPF format
     Using radial grid of  721 points,  4 beta functions with:
                l(1) =   0
                l(2) =   0
                l(3) =   1
                l(4) =   1
     Q(r) pseudized with  8 coefficients,  rinner =    0.800   0.800   0.800

     PseudoPot. # 5 for H  read from file:
     /storage/coda1/p-amedford6/0/shared/rich_project_chbe-medford/medford-share/data/pseudos_module/espresso/nninc/pbe/van/H.UPF
     MD5 check sum: b5ee9d7bfd3a09ee7748110bda690ff7
     Pseudo is Ultrasoft, Zval =  1.0
     Generated by new atomic code, or converted to UPF format
     Using radial grid of  615 points,  1 beta functions with:
                l(1) =   0
     Q(r) pseudized with  8 coefficients,  rinner =    0.800

     atomic species   valence    mass     pseudopotential
        Ti1           12.00    47.86700     Ti( 1.00)
        O1             6.00    15.99900     O ( 1.00)
        N1             5.00    14.00700     N ( 1.00)
        C1             4.00    12.01100     C ( 1.00)
        H1             1.00     1.00800     H ( 1.00)

     No symmetry found

   Cartesian axes

     site n.     atom                  positions (alat units)
         1           Ti1 tau(   1) = (   0.0004258   2.9801865   6.0000000  )
         2           Ti1 tau(   2) = (   3.2906075   1.4906267   6.0002472  )
         3           O1  tau(   3) = (   0.0006271   0.0005054   7.9858123  )
         4           O1  tau(   4) = (   3.2906025   0.0005020   7.3038282  )
         5           O1  tau(   5) = (   4.5942328   1.4918067   9.2879030  )
         6           O1  tau(   6) = (   1.9868534   1.4903216   9.2879459  )
         7           Ti1 tau(   7) = (   3.2907910   2.8959150   9.1758416  )
         8           Ti1 tau(   8) = (   0.0015273   1.4827037   9.2680791  )
         9           O1  tau(   9) = (   3.2714441   0.0289406  11.3813764  )
        10           O1  tau(  10) = (   0.0116148   5.9584955  10.6183126  )
        11           O1  tau(  11) = (   1.2692032   1.5162281  12.7122965  )
        12           O1  tau(  12) = (   5.2779133   1.5159715  12.6811497  )
        13           Ti1 tau(  13) = (   6.5579218   3.0031650  12.5037829  )
        14           Ti1 tau(  14) = (   3.2791490   1.5128154  12.5375672  )
        15           O1  tau(  15) = (   6.5208524   5.8954130  14.6845636  )
        16           O1  tau(  16) = (   3.2849572   0.0099931  14.0031570  )
        17           O1  tau(  17) = (   4.4884262   1.5607690  16.1641467  )
        18           O1  tau(  18) = (   1.9729656   1.5430890  16.0903287  )
        19           Ti1 tau(  19) = (   3.2372663   3.0309179  15.7728032  )
        20           Ti1 tau(  20) = (   6.5553692   1.3539605  15.8053163  )
        21           O1  tau(  21) = (   3.2904802   0.0005063   4.7018136  )
        22           O1  tau(  22) = (   6.5123495   0.2165906  17.2215032  )
        23           O1  tau(  23) = (   1.3043587   1.4918075   6.0039043  )
        24           O1  tau(  24) = (   5.2767064   1.4903225   6.0039473  )
        25           Ti1 tau(  25) = (   0.0000382   5.9609847   6.0000000  )
        26           Ti1 tau(  26) = (   3.2902200   4.4714249   6.0002472  )
        27           O1  tau(  27) = (   0.0002396   2.9813036   7.9858123  )
        28           O1  tau(  28) = (   3.2902150   2.9813002   7.3038282  )
        29           O1  tau(  29) = (   4.5938453   4.4726049   9.2879030  )
        30           O1  tau(  30) = (   1.9864658   4.4711199   9.2879459  )
        31           Ti1 tau(  31) = (   3.2891106   5.8743827   9.1763621  )
        32           Ti1 tau(  32) = (   0.0006254   4.4649316   9.2693709  )
        33           O1  tau(  33) = (   3.2699379   2.9911670  11.3762017  )
        34           O1  tau(  34) = (   0.0092240   2.9805883  10.6323155  )
        35           O1  tau(  35) = (   1.2730946   4.4825978  12.6662957  )
        36           O1  tau(  36) = (   5.2742290   4.4829497  12.6320226  )
        37           Ti1 tau(  37) = (   6.5783117   0.0079037  12.5026730  )
        38           Ti1 tau(  38) = (   3.2784283   4.4905194  12.5286134  )
        39           O1  tau(  39) = (   6.5033290   3.0824797  14.9867588  )
        40           O1  tau(  40) = (   3.2824109   3.0350539  13.9807796  )
        41           O1  tau(  41) = (   4.4804250   4.5097483  16.2808085  )
        42           O1  tau(  42) = (   1.9642025   4.5165872  16.2225063  )
        43           Ti1 tau(  43) = (   3.2609991   0.0502580  15.7998297  )
        44           Ti1 tau(  44) = (   6.5501253   4.5826093  16.0954727  )
        45           O1  tau(  45) = (   3.2900926   2.9813045   4.7018136  )
        46           O1  tau(  46) = (   1.3039711   4.4726057   6.0039043  )
        47           O1  tau(  47) = (   5.2763189   4.4711207   6.0039473  )
        48           N1  tau(  48) = (   0.8845045   3.2634721  19.1145209  )
        49           N1  tau(  49) = (   6.3504243   3.3997271  18.1887592  )
        50           C1  tau(  50) = (   1.2927081   4.5631590  19.6429350  )
        51           H1  tau(  51) = (   0.4658632   5.1229972  20.1056819  )
        52           H1  tau(  52) = (   2.0500825   4.3818216  20.3958833  )
        53           H1  tau(  53) = (   1.7018904   5.1738364  18.8453250  )
        54           H1  tau(  54) = (   0.5628611   2.6866381  19.8888112  )
        55           H1  tau(  55) = (   5.6051421   3.9827062  18.5884547  )
        56           H1  tau(  56) = (   5.9567982   2.4624696  18.0937858  )

     number of k points=    10  Fermi-Dirac smearing, width (Ry)=  0.0073
                       cart. coord. in units 2pi/alat
        k(    1) = (   0.0000000   0.0000000   0.0000000), wk =   0.1250000
        k(    2) = (   0.0000000   0.0419351   0.0000000), wk =   0.2500000
        k(    3) = (   0.0000000  -0.0838702   0.0000000), wk =   0.1250000
        k(    4) = (   0.0379955   0.0000049   0.0000000), wk =   0.2500000
        k(    5) = (   0.0379955   0.0419400   0.0000000), wk =   0.2500000
        k(    6) = (   0.0379955  -0.0838652   0.0000000), wk =   0.2500000
        k(    7) = (   0.0379955  -0.0419301   0.0000000), wk =   0.2500000
        k(    8) = (  -0.0759910  -0.0000099   0.0000000), wk =   0.1250000
        k(    9) = (  -0.0759910   0.0419252   0.0000000), wk =   0.2500000
        k(   10) = (  -0.0759910  -0.0838800   0.0000000), wk =   0.1250000

     Initial potential from superposition of free atoms

     starting charge  381.99914, renormalised to  398.00000

     negative rho (up, down):  1.416E-02 0.000E+00

     %%%%%%%%%%%%%%%%%%%%%%%%%%%%%%%%%%%%%%%%%%%%%%%%%%%%%%%%%%%%%%%%%%%%%%%%
     %                                                                      %
     % You are using vdW-DF, which was implemented by the Thonhauser group. %
     % Please cite the following two papers that made this development      %
     % possible and the two reviews that describe the various versions:     %
     %                                                                      %
     %   T. Thonhauser et al., PRL 115, 136402 (2015).                      %
     %   T. Thonhauser et al., PRB 76, 125112 (2007).                       %
     %   K. Berland et al., Rep. Prog. Phys. 78, 066501 (2015).             %
     %   D.C. Langreth et al., J. Phys.: Condens. Matter 21, 084203 (2009). %
     %                                                                      %
     %                                                                      %
     % If you are calculating the stress with vdW-DF, please also cite:     %
     %                                                                      %
     %   R. Sabatini et al., J. Phys.: Condens. Matter 24, 424209 (2012).   %
     %                                                                      %
     %%%%%%%%%%%%%%%%%%%%%%%%%%%%%%%%%%%%%%%%%%%%%%%%%%%%%%%%%%%%%%%%%%%%%%%%

     Adding external electric field

     Computed dipole along edir(3) :
        Dipole              -11.7171 Ry au,        -29.7818 Debye
        Dipole field         -0.0221 Ry au,

        Potential amp.        2.0497 Ry
        Total length         46.3494 bohr

     Starting wfcs are  302 atomic wfcs
  @ DRIVER MODE: Message from server: STATUS
  @ DRIVER MODE: Message from server: POSDATA
  @ DRIVER MODE: Reading and sharing cell
  @ DRIVER MODE: Reading and sharing positions
  @ DRIVER MODE: Received positions

     Self-consistent Calculation

     iteration #  1     ecut=    29.40 Ry     beta= 0.05
     Davidson diagonalization with overlap
     c_bands:  3 eigenvalues not converged
     c_bands:  1 eigenvalues not converged
     c_bands:  1 eigenvalues not converged
     c_bands:  4 eigenvalues not converged
     c_bands:  1 eigenvalues not converged
     c_bands:  4 eigenvalues not converged
     c_bands:  5 eigenvalues not converged
     c_bands:  2 eigenvalues not converged
     ethr =  1.00E-05,  avg # of iterations = 21.9

[...]

     total energy              =   -2424.54986640 Ry
     estimated scf accuracy    <    5830.27183893 Ry

     iteration #  2     ecut=    29.40 Ry     beta= 0.05
     Davidson diagonalization with overlap
     ethr =  1.00E-02,  avg # of iterations = 22.7

[...]

     iteration # 67     ecut=    29.40 Ry     beta= 0.05
     Davidson diagonalization with overlap
     c_bands:  1 eigenvalues not converged
     c_bands:  1 eigenvalues not converged
     ethr =  4.01E-11,  avg # of iterations = 13.9

[...]

     total energy              =   -2942.84384136 Ry
     estimated scf accuracy    <       0.00000020 Ry

     iteration # 68     ecut=    29.40 Ry     beta= 0.05
     Davidson diagonalization with overlap
     ethr =  4.01E-11,  avg # of iterations =  7.3

     negative rho (up, down):  1.514E-02 0.000E+00

     Adding external electric field

     Computed dipole along edir(3) :
        Dipole                1.4974 Ry au,          3.8059 Debye
        Dipole field          0.0028 Ry au,

        Potential amp.       -0.2619 Ry
        Total length         46.3494 bohr

     End of self-consistent calculation

          k = 0.0000 0.0000 0.0000 ( 18029 PWs)   bands (ev):

   -55.2008 -55.1636 -55.1526 -55.1241 -55.1185 -55.0820 -55.0790 -55.0441
   -55.0248 -55.0119 -54.9904 -54.9855 -54.9518 -54.8553 -54.1850 -54.1510
   -31.7671 -31.6509 -31.6454 -31.5671 -31.5141 -31.5130 -31.5102 -31.4916
   -31.4418 -31.4382 -31.4104 -31.4082 -31.3978 -31.3811 -31.3680 -31.3623
   -31.3552 -31.3454 -31.3381 -31.3212 -31.3053 -31.3027 -31.2709 -31.2668
   -31.2565 -31.2555 -31.2371 -31.2274 -31.2099 -31.2094 -31.2050 -31.1844
   -31.1842 -31.1810 -31.1741 -31.1715 -31.1382 -31.1285 -31.1138 -31.0969
   -31.0685 -31.0492 -30.5945 -30.5001 -30.4780 -30.4109 -30.3241 -30.2132
   -17.9589 -16.0342 -15.7719 -15.6265 -15.5143 -15.4030 -15.2835 -15.2527
   -15.1330 -15.0569 -14.9230 -14.8966 -14.8742 -14.8507 -14.8387 -14.8261
   -14.7503 -14.7438 -14.7279 -14.6996 -14.6977 -14.6525 -14.6427 -14.6033
   -14.5783 -14.5571 -14.4525 -14.3643 -14.2903 -14.0737 -13.4436 -12.6879
   -12.5704  -9.7189  -6.6027  -6.0865  -4.5885  -3.3726  -3.2534  -3.2245
    -3.1379  -3.1036  -3.0950  -3.0194  -2.9527  -2.7911  -2.6489  -2.6233
    -2.4919  -2.4169  -2.4006  -2.3761  -2.2463  -2.2112  -2.1601  -2.1211
    -2.0618  -2.0315  -2.0075  -1.9918  -1.9608  -1.9517  -1.9266  -1.8376
    -1.7779  -1.6849  -1.6677  -1.6003  -1.5922  -1.5596  -1.5385  -1.4932
    -1.4828  -1.4332  -1.4260  -1.4134  -1.3935  -1.2650  -1.2220  -1.1122
    -1.0510  -0.9633  -0.8425  -0.8025  -0.7884  -0.6978  -0.6889  -0.6570
    -0.5804  -0.5774  -0.5466  -0.4384  -0.3735  -0.3098  -0.2509  -0.2246
    -0.1914  -0.1140  -0.0232   0.0130   0.0298   0.0528   0.1530   0.1881
     0.2437   0.3106   0.3221   0.3353   0.4150   0.4561   0.5313   0.5679
     0.5856   0.6743   0.7007   0.7286   0.7291   0.7669   0.7812   0.8207
     0.8695   0.8963   0.9827   1.0456   1.1038   1.3484   1.4010   1.4071
     1.7332   1.7410   1.8374   2.0209   2.4141   2.4624   3.8958   3.9645
     4.0403   4.0453   4.0677   4.1316   4.3694   4.3925   4.4015   4.4037
     4.4302

[...]

          k = 0.0380-0.0419 0.0000 ( 17876 PWs)   bands (ev):

[...]

          k =-0.0760-0.0000 0.0000 ( 17886 PWs)   bands (ev):

[...]

          k =-0.0760-0.0839 0.0000 ( 17948 PWs)   bands (ev):

   -55.1870 -55.1772 -55.1356 -55.1353 -55.1228 -55.0777 -55.0646 -55.0585
   -55.0161 -55.0090 -55.0058 -54.9690 -54.9685 -54.8564 -54.1681 -54.1678
   -31.5753 -31.5743 -31.5674 -31.4827 -31.4606 -31.4604 -31.4577 -31.4270
   -31.4270 -31.4116 -31.4008 -31.3992 -31.3904 -31.3649 -31.3555 -31.3425
   -31.3415 -31.3376 -31.3345 -31.3288 -31.3269 -31.3209 -31.2818 -31.2786
   -31.2784 -31.2770 -31.2593 -31.2579 -31.2554 -31.2551 -31.2505 -31.2419
   -31.2390 -31.2221 -31.2187 -31.2028 -31.2020 -31.1991 -31.1497 -31.1493
   -31.1251 -31.0730 -30.4908 -30.4905 -30.4071 -30.4069 -30.3676 -30.3675
   -17.9557 -15.5592 -15.4292 -15.4001 -15.2437 -15.2075 -15.1742 -15.1609
   -15.0399 -15.0027 -14.9780 -14.9686 -14.9510 -14.9106 -14.9049 -14.8980
   -14.8275 -14.8083 -14.8040 -14.7817 -14.7235 -14.7146 -14.7107 -14.7031
   -14.6525 -14.6489 -14.5684 -14.5581 -14.5549 -14.3752 -13.4470 -12.6718
   -12.6718  -9.7349  -6.5872  -6.0866  -4.5676  -3.2271  -2.9778  -2.6916
    -2.6870  -2.6587  -2.4576  -2.3949  -2.3643  -2.3588  -2.2614  -2.2248
    -2.2003  -2.1968  -2.1315  -2.1169  -2.0861  -2.0559  -2.0397  -2.0258
    -2.0101  -1.9960  -1.9706  -1.9331  -1.9250  -1.9167  -1.8850  -1.8633
    -1.8402  -1.8179  -1.8045  -1.7860  -1.7600  -1.7375  -1.6008  -1.5692
    -1.4988  -1.4558  -1.4124  -1.4081  -1.3364  -1.2999  -1.2498  -1.2376
    -1.2205  -1.0807  -1.0225  -0.9716  -0.9516  -0.9406  -0.8117  -0.7975
    -0.7246  -0.7068  -0.6905  -0.6156  -0.5649  -0.5266  -0.5130  -0.4197
    -0.4043  -0.3380  -0.2358  -0.2131  -0.1992  -0.1585  -0.1555  -0.1083
    -0.1012  -0.0171   0.0272   0.0622   0.0730   0.1088   0.3016   0.3176
     0.3277   0.4807   0.4965   0.6381   0.6817   0.7482   0.8071   0.8460
     0.9076   0.9449   1.0556   1.0876   1.1027   1.1106   1.1724   1.1843
     1.2471   1.2579   2.1935   2.1941   2.2823   2.2826   4.0417   4.1491
     4.1567   4.1983   4.3183   4.3485   4.4108   4.4380   4.4797   4.4830
     4.5429

     the Fermi energy is     3.9591 ev

!    total energy              =   -2942.84386368 Ry
     estimated scf accuracy    <       0.00000007 Ry
     smearing contrib. (-TS)   =      -0.03707854 Ry
     internal energy E=F+TS    =   -2942.80678514 Ry

     The total energy is F=E-TS. E is the sum of the following terms:
     one-electron contribution =  -23366.75787530 Ry
     hartree contribution      =   11777.55935034 Ry
     xc contribution           =    -487.74594624 Ry
     ewald contribution        =    9134.13345496 Ry
     electric field correction =       0.00423109 Ry

     convergence has been achieved in  68 iterations

     Forces acting on atoms (cartesian axes, Ry/au):

     atom    1 type  1   force =     0.00017340   -0.00033159    0.09327838
     atom    2 type  1   force =    -0.00006079   -0.00041890   -0.17824160
     atom    3 type  2   force =     0.00002730   -0.00031933   -0.02000859
     atom    4 type  2   force =     0.00002137   -0.00183524    0.05926647
     atom    5 type  2   force =    -0.01045668   -0.00026135    0.00863885
     atom    6 type  2   force =     0.01147144    0.00041040    0.00645036
     atom    7 type  1   force =    -0.00100249    0.00213131   -0.01400129
     atom    8 type  1   force =     0.00081242   -0.00094431   -0.00574862
     atom    9 type  2   force =    -0.00009880    0.00012723   -0.00000523
     atom   10 type  2   force =    -0.00185405    0.00411395    0.00024626
     atom   11 type  2   force =    -0.00006395   -0.00064602    0.00027948
     atom   12 type  2   force =    -0.00001447   -0.00041607    0.00053411
     atom   13 type  1   force =     0.00004249    0.00009536    0.00032927
     atom   14 type  1   force =    -0.00037744   -0.00000225    0.00008918
     atom   15 type  2   force =     0.00052123    0.00023080   -0.00033550
     atom   16 type  2   force =     0.00032149   -0.00035268   -0.00008191
     atom   17 type  2   force =    -0.00057509   -0.00002079   -0.00002039
     atom   18 type  2   force =     0.00052928   -0.00019486    0.00001574
     atom   19 type  1   force =    -0.00002502   -0.00053238    0.00021280
     atom   20 type  1   force =     0.00069002    0.00010723    0.00092234
     atom   21 type  2   force =     0.00012549   -0.00012903    0.10402832
     atom   22 type  2   force =    -0.00038712    0.00020006   -0.00026967
     atom   23 type  2   force =    -0.07027016   -0.00021831   -0.02685576
     atom   24 type  2   force =     0.07026011    0.00021847   -0.02687894
     atom   25 type  1   force =     0.00007780   -0.00032095    0.09259288
     atom   26 type  1   force =    -0.00003661   -0.00059385   -0.17835667
     atom   27 type  2   force =     0.00012990   -0.00016926   -0.01906398
     atom   28 type  2   force =     0.00005161   -0.00163500    0.05862297
     atom   29 type  2   force =    -0.01105963   -0.00055421    0.00931817
     atom   30 type  2   force =     0.01197859   -0.00001713    0.00720810
     atom   31 type  1   force =    -0.00093150    0.00647475   -0.01507178
     atom   32 type  1   force =     0.00085684    0.00101874   -0.00588555
     atom   33 type  2   force =     0.00017621   -0.00057265   -0.00003841
     atom   34 type  2   force =    -0.00185740   -0.00052346   -0.00051266
     atom   35 type  2   force =    -0.00045164    0.00006507   -0.00043864
     atom   36 type  2   force =     0.00035243   -0.00011513    0.00017833
     atom   37 type  1   force =    -0.00051274   -0.00025436    0.00019485
     atom   38 type  1   force =    -0.00004696   -0.00015038   -0.00007044
     atom   39 type  2   force =     0.00029749   -0.00059413   -0.00001263
     atom   40 type  2   force =    -0.00060220   -0.00051324    0.00024749
     atom   41 type  2   force =    -0.00022397   -0.00073486   -0.00068931
     atom   42 type  2   force =     0.00045283   -0.00009026   -0.00010245
     atom   43 type  1   force =     0.00023509   -0.00020519   -0.00021075
     atom   44 type  1   force =     0.00053007    0.00005079    0.00082793
     atom   45 type  2   force =     0.00013402   -0.00014209    0.10398721
     atom   46 type  2   force =    -0.07027626   -0.00016562   -0.02683052
     atom   47 type  2   force =     0.07024487    0.00025768   -0.02688736
     atom   48 type  3   force =     0.00072280    0.00145403   -0.00080865
     atom   49 type  3   force =    -0.00013710   -0.00108928    0.00003756
     atom   50 type  4   force =    -0.00613671   -0.00039738   -0.00463343
     atom   51 type  5   force =    -0.00137879    0.00165531    0.00004419
     atom   52 type  5   force =     0.00743124   -0.00153553    0.00515199
     atom   53 type  5   force =     0.00118104    0.00038937   -0.00091144
     atom   54 type  5   force =    -0.00004554   -0.00175581    0.00072514
     atom   55 type  5   force =     0.00008934   -0.00052714   -0.00015797
     atom   56 type  5   force =    -0.00105510    0.00027950   -0.00029823

     Total force =     0.366529     Total SCF correction =     0.000884
  @ DRIVER MODE: Message from server: STATUS
  @ DRIVER MODE: Message from server: GETFORCE
  @ DRIVER MODE: Returning v,forces,stress,ensemble

     Writing output data file ./calc.save/
  @ DRIVER MODE: Message from server: EXIT
  @ DRIVE MODE: Exiting

     General routines

     Parallel routines

   This run was terminated on:   6:19:42   9Sep2021

   JOB DONE.