     Program PWSCF v.6.7GPU starts on 12Oct2021 at  4:21: 8

     R & G space division:  proc/nbgrp/npool/nimage =       8
     Reading input from /storage/home/hcoda1/3/ntian30/research/carbon/CxH_vib/CH2_calc/ads_slab/CH2NHH_b/out_0033/pw.inp
Warning: card &CELL ignored
Warning: card   CELL_DYNAMICS='IPI', ignored
Warning: card / ignored

     Current dimensions of program PWSCF are:
     Max number of different atomic species (ntypx) = 10
     Max number of k-points (npk) =  40000
     Max angular momentum in pseudopotentials (lmaxx) =  3
     Presently no symmetry can be used with electric field

     Message from routine cell_base_init:
     DEPRECATED: use true lattice parameter, not A to a.u. conversion factor

     IMPORTANT: XC functional enforced from input :
     Exchange-correlation= BEEF-VDW
                           (   1   4  43  14   2   0   0)
     Any further DFT definition will be discarded
     Please, verify this is what you really want

  @ DRIVER MODE: Connecting to
 qe_1139763_3171005.sched-torque.pace.gatech.eduqtv9il87_scratch
  using UNIX socket
  @ DRIVER MODE: Message from server: STATUS
  @ DRIVER MODE: Message from server: INIT
  @ DRIVER MODE: Receiving replica           0          -1
  @ DRIVER MODE: Receiving encoded integer          25
  @ DRIVER MODE:  SCF:  T  FORCE:  T  STRESS:  F  VC:  F  ENSEMBLE:  F
  @ DRIVER MODE:  SCF:  T  FORCE:  T  STRESS:  F  VC:  F  ENSEMBLE:  F

     Using Slab Decomposition

     bravais-lattice index     =            0
     lattice parameter (alat)  =       1.8897  a.u.
     unit-cell volume          =    6658.9804 (a.u.)^3
     number of atoms/cell      =           53
     number of atomic types    =            5
     number of electrons       =       391.00
     number of Kohn-Sham states=          205
     kinetic-energy cutoff     =      29.3995  Ry
     charge density cutoff     =     293.9946  Ry
     scf convergence threshold =      7.3E-08
     mixing beta               =       0.0500
     number of iterations used =            8  plain     mixing
     Exchange-correlation= BEEF-VDW
                           (   1   4  43  14   2   0   0)

     celldm(1)=   1.889726  celldm(2)=   0.000000  celldm(3)=   0.000000
     celldm(4)=   0.000000  celldm(5)=   0.000000  celldm(6)=   0.000000

     crystal axes: (cart. coord. in units of alat)
               a(1) = (   6.579727   0.000000   0.000000 )
               a(2) = (  -0.000775   5.961596   0.000000 )
               a(3) = (   0.000000   0.000000  25.155947 )

     reciprocal axes: (cart. coord. in units 2 pi/alat)
               b(1) = (  0.151982  0.000020  0.000000 )
               b(2) = (  0.000000  0.167740  0.000000 )
               b(3) = (  0.000000  0.000000  0.039752 )

     PseudoPot. # 1 for Ti read from file:
     /storage/coda1/p-amedford6/0/shared/rich_project_chbe-medford/medford-share/data/pseudos_module/espresso/nninc/pbe/van/Ti.UPF
     MD5 check sum: 8e4df49b7f0d34bbd5052bf3f5ea0213
     Pseudo is Ultrasoft, Zval = 12.0
     Generated by new atomic code, or converted to UPF format
     Using radial grid of  851 points,  6 beta functions with:
                l(1) =   0
                l(2) =   0
                l(3) =   1
                l(4) =   1
                l(5) =   2
                l(6) =   2
     Q(r) pseudized with  8 coefficients,  rinner =    1.000   1.000   1.000
                                                       1.000   1.000

     PseudoPot. # 2 for O  read from file:
     /storage/coda1/p-amedford6/0/shared/rich_project_chbe-medford/medford-share/data/pseudos_module/espresso/nninc/pbe/van/O.UPF
     MD5 check sum: 78c19812648e8988a0fe644b0f25305e
     Pseudo is Ultrasoft, Zval =  6.0
     Generated by new atomic code, or converted to UPF format
     Using radial grid of  737 points,  4 beta functions with:
                l(1) =   0
                l(2) =   0
                l(3) =   1
                l(4) =   1
     Q(r) pseudized with  8 coefficients,  rinner =    0.800   0.800   0.800

     PseudoPot. # 3 for H  read from file:
     /storage/coda1/p-amedford6/0/shared/rich_project_chbe-medford/medford-share/data/pseudos_module/espresso/nninc/pbe/van/H.UPF
     MD5 check sum: b5ee9d7bfd3a09ee7748110bda690ff7
     Pseudo is Ultrasoft, Zval =  1.0
     Generated by new atomic code, or converted to UPF format
     Using radial grid of  615 points,  1 beta functions with:
                l(1) =   0
     Q(r) pseudized with  8 coefficients,  rinner =    0.800

     PseudoPot. # 4 for N  read from file:
     /storage/coda1/p-amedford6/0/shared/rich_project_chbe-medford/medford-share/data/pseudos_module/espresso/nninc/pbe/van/N.UPF
     MD5 check sum: 90d10febe142ad51ac9d5be1deb811c4
     Pseudo is Ultrasoft, Zval =  5.0
     Generated by new atomic code, or converted to UPF format
     Using radial grid of  729 points,  4 beta functions with:
                l(1) =   0
                l(2) =   0
                l(3) =   1
                l(4) =   1
     Q(r) pseudized with  8 coefficients,  rinner =    0.800   0.800   0.800

     PseudoPot. # 5 for C  read from file:
     /storage/coda1/p-amedford6/0/shared/rich_project_chbe-medford/medford-share/data/pseudos_module/espresso/nninc/pbe/van/C.UPF
     MD5 check sum: 1a69bf6b8db32088f5b2163dbdb77a27
     Pseudo is Ultrasoft, Zval =  4.0
     Generated by new atomic code, or converted to UPF format
     Using radial grid of  721 points,  4 beta functions with:
                l(1) =   0
                l(2) =   0
                l(3) =   1
                l(4) =   1
     Q(r) pseudized with  8 coefficients,  rinner =    0.800   0.800   0.800

     atomic species   valence    mass     pseudopotential
        Ti1           12.00    47.86700     Ti( 1.00)
        O1             6.00    15.99900     O ( 1.00)
        H1             1.00     1.00800     H ( 1.00)
        N1             5.00    14.00700     N ( 1.00)
        C1             4.00    12.01100     C ( 1.00)

     No symmetry found

   Cartesian axes

     site n.     atom                  positions (alat units)
         1           Ti1 tau(   1) = (   0.0004258   2.9801865   6.0000000  )
         2           Ti1 tau(   2) = (   3.2906075   1.4906267   6.0002472  )
         3           O1  tau(   3) = (   0.0006271   0.0005054   7.9858123  )
         4           O1  tau(   4) = (   3.2906025   0.0005020   7.3038282  )
         5           O1  tau(   5) = (   4.5942328   1.4918067   9.2879030  )
         6           O1  tau(   6) = (   1.9868534   1.4903216   9.2879459  )
         7           Ti1 tau(   7) = (   3.2907910   2.8959150   9.1758416  )
         8           Ti1 tau(   8) = (   0.0015273   1.4827037   9.2680791  )
         9           O1  tau(   9) = (   3.3750462   0.0034689  11.3324641  )
        10           O1  tau(  10) = (   0.0116148   5.9584955  10.6183126  )
        11           O1  tau(  11) = (   1.3977860   1.4758343  12.6375763  )
        12           O1  tau(  12) = (   5.4232152   1.4913549  12.6657899  )
        13           Ti1 tau(  13) = (   0.0691229   2.9530050  12.5389017  )
        14           Ti1 tau(  14) = (   3.3643908   1.4039863  12.4577757  )
        15           O1  tau(  15) = (   0.1477665   0.0132832  14.6652528  )
        16           O1  tau(  16) = (   3.5189244   0.0045933  13.9158019  )
        17           O1  tau(  17) = (   4.7861523   1.5333885  16.1913275  )
        18           O1  tau(  18) = (   2.2541876   1.4026900  15.9427082  )
        19           Ti1 tau(  19) = (   3.5811307   2.9972434  16.0687679  )
        20           Ti1 tau(  20) = (   0.2998503   1.4255696  15.8726171  )
        21           O1  tau(  21) = (   3.2904802   0.0005063   4.7018136  )
        22           O1  tau(  22) = (   0.2643450   0.0038197  17.1846268  )
        23           O1  tau(  23) = (   1.3043587   1.4918075   6.0039043  )
        24           O1  tau(  24) = (   5.2767064   1.4903225   6.0039473  )
        25           Ti1 tau(  25) = (   0.0000382   5.9609847   6.0000000  )
        26           Ti1 tau(  26) = (   3.2902200   4.4714249   6.0002472  )
        27           O1  tau(  27) = (   0.0002396   2.9813036   7.9858123  )
        28           O1  tau(  28) = (   3.2902150   2.9813002   7.3038282  )
        29           O1  tau(  29) = (   4.5938453   4.4726049   9.2879030  )
        30           O1  tau(  30) = (   1.9864658   4.4711199   9.2879459  )
        31           Ti1 tau(  31) = (   3.2891106   5.8743827   9.1763621  )
        32           Ti1 tau(  32) = (   0.0006254   4.4649316   9.2693709  )
        33           O1  tau(  33) = (   3.3836021   2.9593565  11.3526375  )
        34           O1  tau(  34) = (   0.0092240   2.9805883  10.6323155  )
        35           O1  tau(  35) = (   1.3957467   4.4736095  12.6396340  )
        36           O1  tau(  36) = (   5.4261019   4.4541359  12.6685409  )
        37           Ti1 tau(  37) = (   0.0939275   5.9312067  12.4916740  )
        38           Ti1 tau(  38) = (   3.3665170   4.3046527  12.6650499  )
        39           O1  tau(  39) = (   0.1734719   2.9828917  14.8532074  )
        40           O1  tau(  40) = (   3.4150578   3.0309863  13.9715028  )
        41           O1  tau(  41) = (   4.7877001   4.4493464  16.1994792  )
        42           O1  tau(  42) = (   2.2536850   4.5881152  15.9586447  )
        43           Ti1 tau(  43) = (   3.5332629   0.0183730  15.6991940  )
        44           Ti1 tau(  44) = (   0.2986595   4.6220906  15.9451660  )
        45           O1  tau(  45) = (   3.2900926   2.9813045   4.7018136  )
        46           O1  tau(  46) = (   1.3039711   4.4726057   6.0039043  )
        47           O1  tau(  47) = (   5.2763189   4.4711207   6.0039473  )
        48           H1  tau(  48) = (   0.6716682   3.7174429  18.3617054  )
        49           H1  tau(  49) = (   0.7299512   2.1188458  18.2939656  )
        50           N1  tau(  50) = (   1.0883034   2.9530349  17.8291855  )
        51           C1  tau(  51) = (   2.6610371   2.9951180  18.0825860  )
        52           H1  tau(  52) = (   2.6895649   3.8224559  18.7561578  )
        53           H1  tau(  53) = (   2.7295784   2.2042559  18.8115579  )

     number of k points=    10  Fermi-Dirac smearing, width (Ry)=  0.0073
                       cart. coord. in units 2pi/alat
        k(    1) = (   0.0000000   0.0000000   0.0000000), wk =   0.1250000
        k(    2) = (   0.0000000   0.0419351   0.0000000), wk =   0.2500000
        k(    3) = (   0.0000000  -0.0838702   0.0000000), wk =   0.1250000
        k(    4) = (   0.0379955   0.0000049   0.0000000), wk =   0.2500000
        k(    5) = (   0.0379955   0.0419400   0.0000000), wk =   0.2500000
        k(    6) = (   0.0379955  -0.0838652   0.0000000), wk =   0.2500000
        k(    7) = (   0.0379955  -0.0419301   0.0000000), wk =   0.2500000
        k(    8) = (  -0.0759910  -0.0000099   0.0000000), wk =   0.1250000
        k(    9) = (  -0.0759910   0.0419252   0.0000000), wk =   0.2500000
        k(   10) = (  -0.0759910  -0.0838800   0.0000000), wk =   0.1250000

     Initial potential from superposition of free atoms

     starting charge  374.99916, renormalised to  391.00000

     negative rho (up, down):  1.820E-02 0.000E+00

     %%%%%%%%%%%%%%%%%%%%%%%%%%%%%%%%%%%%%%%%%%%%%%%%%%%%%%%%%%%%%%%%%%%%%%%%
     %                                                                      %
     % You are using vdW-DF, which was implemented by the Thonhauser group. %
     % Please cite the following two papers that made this development      %
     % possible and the two reviews that describe the various versions:     %
     %                                                                      %
     %   T. Thonhauser et al., PRL 115, 136402 (2015).                      %
     %   T. Thonhauser et al., PRB 76, 125112 (2007).                       %
     %   K. Berland et al., Rep. Prog. Phys. 78, 066501 (2015).             %
     %   D.C. Langreth et al., J. Phys.: Condens. Matter 21, 084203 (2009). %
     %                                                                      %
     %                                                                      %
     % If you are calculating the stress with vdW-DF, please also cite:     %
     %                                                                      %
     %   R. Sabatini et al., J. Phys.: Condens. Matter 24, 424209 (2012).   %
     %                                                                      %
     %%%%%%%%%%%%%%%%%%%%%%%%%%%%%%%%%%%%%%%%%%%%%%%%%%%%%%%%%%%%%%%%%%%%%%%%

     Adding external electric field

     Computed dipole along edir(3) :
        Dipole               -5.7422 Ry au,        -14.5952 Debye
        Dipole field         -0.0108 Ry au,

        Potential amp.        1.0045 Ry
        Total length         46.3494 bohr

     Starting wfcs are  296 atomic wfcs
  @ DRIVER MODE: Message from server: STATUS
  @ DRIVER MODE: Message from server: POSDATA
  @ DRIVER MODE: Reading and sharing cell
  @ DRIVER MODE: Reading and sharing positions
  @ DRIVER MODE: Received positions

     Self-consistent Calculation

     iteration #  1     ecut=    29.40 Ry     beta= 0.05
     Davidson diagonalization with overlap
     c_bands:  2 eigenvalues not converged
     c_bands:  1 eigenvalues not converged
     c_bands:  5 eigenvalues not converged
     c_bands:  1 eigenvalues not converged
     c_bands:  2 eigenvalues not converged
     c_bands:  2 eigenvalues not converged
     c_bands:  2 eigenvalues not converged
     ethr =  1.00E-05,  avg # of iterations = 20.8

[...]

     total energy              =   -2767.07041381 Ry
     estimated scf accuracy    <    1682.27130459 Ry

     iteration #  2     ecut=    29.40 Ry     beta= 0.05
     Davidson diagonalization with overlap
     ethr =  1.00E-02,  avg # of iterations = 19.1

[...]

     iteration # 68     ecut=    29.40 Ry     beta= 0.05
     Davidson diagonalization with overlap
     c_bands:  1 eigenvalues not converged
     ethr =  3.79E-11,  avg # of iterations = 11.4

[...]

     total energy              =   -2920.27155825 Ry
     estimated scf accuracy    <       0.00000009 Ry

     iteration # 69     ecut=    29.40 Ry     beta= 0.05
     Davidson diagonalization with overlap
     ethr =  2.20E-11,  avg # of iterations = 10.6

     negative rho (up, down):  1.844E-02 0.000E+00

     Adding external electric field

     Computed dipole along edir(3) :
        Dipole                0.8687 Ry au,          2.2080 Debye
        Dipole field          0.0016 Ry au,

        Potential amp.       -0.1520 Ry
        Total length         46.3494 bohr

     End of self-consistent calculation

          k = 0.0000 0.0000 0.0000 ( 18029 PWs)   bands (ev):

   -55.8848 -55.8508 -55.7550 -55.7166 -55.7116 -55.7095 -55.6981 -55.6776
   -55.6705 -55.6335 -55.6315 -55.6281 -55.5950 -55.5630 -54.8653 -54.8313
   -32.3706 -32.2820 -32.2449 -32.2141 -32.1784 -32.1755 -32.1574 -32.1566
   -32.1304 -32.0787 -32.0375 -32.0195 -32.0102 -31.9969 -31.9954 -31.9925
   -31.9802 -31.9491 -31.9424 -31.9321 -31.9232 -31.9112 -31.9005 -31.8917
   -31.8803 -31.8767 -31.8552 -31.8546 -31.8480 -31.8465 -31.8396 -31.8300
   -31.8237 -31.8235 -31.8213 -31.8065 -31.7936 -31.7815 -31.7802 -31.7690
   -31.7134 -31.6264 -31.2718 -31.1844 -31.1620 -31.0892 -31.0027 -30.8910
   -16.5746 -16.4037 -16.1969 -16.0699 -16.0521 -15.8587 -15.7660 -15.6885
   -15.4942 -15.4548 -15.4263 -15.4107 -15.3995 -15.3979 -15.3810 -15.3616
   -15.3412 -15.3317 -15.3100 -15.2577 -15.2516 -15.2415 -15.2178 -15.2148
   -15.0311 -15.0222 -14.9820 -14.9455 -14.8674 -14.5671 -13.3644 -13.2478
    -8.8989  -5.6316  -3.9564  -3.8890  -3.8177  -3.7923  -3.7748  -3.6576
    -3.4851  -3.2974  -3.2088  -3.1749  -3.0591  -3.0135  -2.9174  -2.8395
    -2.8255  -2.7635  -2.7224  -2.6996  -2.6734  -2.6619  -2.6084  -2.5855
    -2.5785  -2.4444  -2.3866  -2.3678  -2.3047  -2.2792  -2.2513  -2.2080
    -2.2019  -2.1882  -2.1714  -2.1344  -2.1056  -2.0888  -2.0076  -1.9368
    -1.8970  -1.8578  -1.6315  -1.5264  -1.5011  -1.4695  -1.4142  -1.3808
    -1.3359  -1.2972  -1.2811  -1.2624  -1.1943  -1.1046  -1.0233  -1.0155
    -0.9139  -0.8890  -0.8024  -0.7274  -0.7096  -0.6466  -0.6240  -0.6194
    -0.6152  -0.5228  -0.4721  -0.3891  -0.3396  -0.3023  -0.2366  -0.1704
    -0.1133  -0.1029  -0.0640  -0.0212   0.0214   0.0321   0.0569   0.0869
     0.1252   0.1630   0.2023   0.2839   0.3260   0.3611   0.4068   0.4194
     0.5219   0.7321   0.7724   0.9110   1.0924   1.1607   1.1860   1.2104
     1.3522   1.7290   1.7747   3.1970   3.3416   3.3595   3.4311   3.4613
     3.5138   3.6848   3.7712   3.8119   3.8686

[...]

          k = 0.0380-0.0419 0.0000 ( 17876 PWs)   bands (ev):

[...]

          k =-0.0760-0.0000 0.0000 ( 17886 PWs)   bands (ev):

[...]

          k =-0.0760-0.0839 0.0000 ( 17948 PWs)   bands (ev):

   -55.8679 -55.8675 -55.7438 -55.7275 -55.7070 -55.6946 -55.6943 -55.6936
   -55.6623 -55.6365 -55.6364 -55.6238 -55.6046 -55.5647 -54.8485 -54.8480
   -32.2062 -32.1860 -32.1857 -32.1612 -32.1608 -32.1012 -32.0682 -32.0501
   -32.0349 -32.0280 -32.0251 -32.0181 -32.0023 -31.9882 -31.9873 -31.9856
   -31.9778 -31.9700 -31.9627 -31.9486 -31.9470 -31.9378 -31.9346 -31.9264
   -31.9132 -31.9042 -31.9001 -31.8956 -31.8830 -31.8789 -31.8710 -31.8701
   -31.8696 -31.8615 -31.8582 -31.8480 -31.8453 -31.8331 -31.8145 -31.8142
   -31.7992 -31.6267 -31.1749 -31.1746 -31.0849 -31.0842 -31.0462 -31.0458
   -16.1470 -15.9785 -15.8693 -15.8545 -15.7912 -15.6816 -15.6685 -15.6415
   -15.6222 -15.5856 -15.5662 -15.5530 -15.5045 -15.4652 -15.4284 -15.4039
   -15.4001 -15.3534 -15.3490 -15.3393 -15.3171 -15.2828 -15.2742 -15.2097
   -15.2011 -15.1038 -15.0889 -15.0691 -15.0188 -14.8993 -13.3497 -13.3496
    -8.9050  -5.6020  -3.8018  -3.3054  -3.2078  -3.0712  -3.0034  -2.9631
    -2.9148  -2.8820  -2.8606  -2.8419  -2.7918  -2.7779  -2.7465  -2.7031
    -2.6849  -2.6677  -2.6476  -2.6209  -2.5999  -2.5882  -2.5696  -2.5518
    -2.5191  -2.5039  -2.4773  -2.4627  -2.4523  -2.4403  -2.4310  -2.4213
    -2.2361  -2.1445  -2.0527  -2.0444  -2.0340  -2.0087  -1.9819  -1.9661
    -1.9489  -1.9268  -1.9016  -1.8724  -1.8418  -1.5913  -1.5595  -1.5246
    -1.4667  -1.4297  -1.3815  -1.3676  -1.3354  -1.3059  -1.2248  -1.1889
    -1.1616  -1.0835  -1.0119  -0.9475  -0.9016  -0.8642  -0.8336  -0.8217
    -0.7823  -0.7436  -0.7347  -0.7102  -0.6943  -0.5874  -0.5855  -0.5827
    -0.4375  -0.3998  -0.3803  -0.2878  -0.2678  -0.0887  -0.0276   0.0005
     0.1346   0.1456   0.1826   0.2921   0.3191   0.3649   0.4212   0.4423
     0.5284   0.5808   0.6225   0.6621   0.6859   0.7026   1.1699   1.5230
     1.5288   1.5950   1.5951   3.5975   3.6386   3.7050   3.7309   3.7509
     3.7865   3.8091   3.8202   3.8658   3.8761

     the Fermi energy is     3.2357 ev

!    total energy              =   -2920.27158531 Ry
     estimated scf accuracy    <       0.00000005 Ry
     smearing contrib. (-TS)   =      -0.01953121 Ry
     internal energy E=F+TS    =   -2920.25205409 Ry

     The total energy is F=E-TS. E is the sum of the following terms:
     one-electron contribution =  -24543.62862542 Ry
     hartree contribution      =   12357.61009996 Ry
     xc contribution           =    -480.80731323 Ry
     ewald contribution        =    9746.57236055 Ry
     electric field correction =       0.00142406 Ry

     convergence has been achieved in  69 iterations

     Forces acting on atoms (cartesian axes, Ry/au):

     atom    1 type  1   force =     0.00007725   -0.00037651    0.09437866
     atom    2 type  1   force =    -0.00007840   -0.00123475   -0.17585514
     atom    3 type  2   force =     0.00046712   -0.00020730   -0.02135523
     atom    4 type  2   force =     0.00017272   -0.00092972    0.05145409
     atom    5 type  2   force =    -0.00540937    0.00099902   -0.00034690
     atom    6 type  2   force =     0.00989895    0.00143061    0.00528270
     atom    7 type  1   force =     0.00311946    0.00407149   -0.00384033
     atom    8 type  1   force =    -0.00264108    0.00537129    0.00464812
     atom    9 type  2   force =     0.00031800    0.00017983    0.00043230
     atom   10 type  2   force =     0.00290093    0.00077096   -0.01335743
     atom   11 type  2   force =     0.00010566    0.00028050   -0.00000646
     atom   12 type  2   force =    -0.00017214   -0.00005125   -0.00007771
     atom   13 type  1   force =    -0.00028194   -0.00029348    0.00139027
     atom   14 type  1   force =    -0.00061878    0.00041998   -0.00125028
     atom   15 type  2   force =     0.00027584   -0.00003653   -0.00006460
     atom   16 type  2   force =     0.00005387   -0.00016570    0.00023647
     atom   17 type  2   force =     0.00032130   -0.00090455    0.00072625
     atom   18 type  2   force =     0.00019487    0.00009016   -0.00017511
     atom   19 type  1   force =    -0.00021991    0.00031736   -0.00103726
     atom   20 type  1   force =    -0.00007645    0.00192353   -0.00035541
     atom   21 type  2   force =     0.00005050   -0.00009695    0.10312360
     atom   22 type  2   force =    -0.00062228    0.00071349    0.00088405
     atom   23 type  2   force =    -0.07169974   -0.00014443   -0.02721202
     atom   24 type  2   force =     0.07175910    0.00034703   -0.02735550
     atom   25 type  1   force =    -0.00008004   -0.00021767    0.09386353
     atom   26 type  1   force =     0.00003508    0.00040720   -0.17581389
     atom   27 type  2   force =     0.00046633   -0.00026570   -0.02044528
     atom   28 type  2   force =     0.00023638   -0.00170725    0.05407953
     atom   29 type  2   force =    -0.00646287   -0.00170001    0.00029525
     atom   30 type  2   force =     0.01070235   -0.00155843    0.00560645
     atom   31 type  1   force =     0.00345678    0.00043776    0.00535769
     atom   32 type  1   force =    -0.00266796   -0.00668153    0.00506257
     atom   33 type  2   force =     0.00025149    0.00032281    0.00055196
     atom   34 type  2   force =     0.00503788   -0.00078931   -0.00877805
     atom   35 type  2   force =     0.00012808   -0.00001309    0.00000722
     atom   36 type  2   force =    -0.00013253   -0.00002635   -0.00001487
     atom   37 type  1   force =     0.00074396   -0.00042791    0.00090787
     atom   38 type  1   force =    -0.00027758   -0.00119332   -0.00000644
     atom   39 type  2   force =    -0.00074704   -0.00016123    0.00042520
     atom   40 type  2   force =     0.00035653    0.00041785   -0.00006989
     atom   41 type  2   force =     0.00022384    0.00156685    0.00076185
     atom   42 type  2   force =     0.00055932    0.00035578    0.00013370
     atom   43 type  1   force =     0.00079109    0.00012001    0.00007795
     atom   44 type  1   force =    -0.00004566   -0.00179777   -0.00072613
     atom   45 type  2   force =     0.00005282   -0.00002165    0.10330186
     atom   46 type  2   force =    -0.07168443   -0.00014975   -0.02724112
     atom   47 type  2   force =     0.07172248    0.00030198   -0.02734515
     atom   48 type  3   force =     0.00034142   -0.00018500   -0.00042010
     atom   49 type  3   force =     0.00019163   -0.00076341   -0.00015699
     atom   50 type  4   force =    -0.00015445    0.00095432    0.00035339
     atom   51 type  5   force =    -0.08480500   -0.01121828    0.00487462
     atom   52 type  3   force =     0.03126273    0.05053705    0.00078872
     atom   53 type  3   force =     0.03260184   -0.03901802   -0.00569856

     Total force =     0.381105     Total SCF correction =     0.000768
  @ DRIVER MODE: Message from server: STATUS
  @ DRIVER MODE: Message from server: GETFORCE
  @ DRIVER MODE: Returning v,forces,stress,ensemble

     Writing output data file ./calc.save/
  @ DRIVER MODE: Message from server: EXIT
  @ DRIVE MODE: Exiting

     General routines

     Parallel routines

   This run was terminated on:   4:42:49  12Oct2021

   JOB DONE.