     Program PWSCF v.6.7GPU starts on  9Sep2021 at 15: 7:28

     R & G space division:  proc/nbgrp/npool/nimage =      10
     Reading input from /storage/home/hcoda1/3/ntian30/research/carbon/CxH_vib/CH3_calc/ads_slab/CH3NHNH2_a/out_0053/pw.inp
Warning: card &CELL ignored
Warning: card   CELL_DYNAMICS='IPI', ignored
Warning: card / ignored

     Current dimensions of program PWSCF are:
     Max number of different atomic species (ntypx) = 10
     Max number of k-points (npk) =  40000
     Max angular momentum in pseudopotentials (lmaxx) =  3
     Presently no symmetry can be used with electric field

     Message from routine cell_base_init:
     DEPRECATED: use true lattice parameter, not A to a.u. conversion factor

     IMPORTANT: XC functional enforced from input :
     Exchange-correlation= BEEF-VDW
                           (   1   4  43  14   2   0   0)
     Any further DFT definition will be discarded
     Please, verify this is what you really want

  @ DRIVER MODE: Connecting to
 qe_1139763_2767398.sched-torque.pace.gatech.edumz3otwn0_scratch
  using UNIX socket
  @ DRIVER MODE: Message from server: STATUS
  @ DRIVER MODE: Message from server: INIT
  @ DRIVER MODE: Receiving replica           0          -1
  @ DRIVER MODE: Receiving encoded integer          25
  @ DRIVER MODE:  SCF:  T  FORCE:  T  STRESS:  F  VC:  F  ENSEMBLE:  F
  @ DRIVER MODE:  SCF:  T  FORCE:  T  STRESS:  F  VC:  F  ENSEMBLE:  F

     Using Slab Decomposition

     bravais-lattice index     =            0
     lattice parameter (alat)  =       1.8897  a.u.
     unit-cell volume          =    6658.9804 (a.u.)^3
     number of atoms/cell      =           56
     number of atomic types    =            5
     number of electrons       =       398.00
     number of Kohn-Sham states=          209
     kinetic-energy cutoff     =      29.3995  Ry
     charge density cutoff     =     293.9946  Ry
     scf convergence threshold =      7.3E-08
     mixing beta               =       0.0500
     number of iterations used =            8  plain     mixing
     Exchange-correlation= BEEF-VDW
                           (   1   4  43  14   2   0   0)

     celldm(1)=   1.889726  celldm(2)=   0.000000  celldm(3)=   0.000000
     celldm(4)=   0.000000  celldm(5)=   0.000000  celldm(6)=   0.000000

     crystal axes: (cart. coord. in units of alat)
               a(1) = (   6.579727   0.000000   0.000000 )
               a(2) = (  -0.000775   5.961596   0.000000 )
               a(3) = (   0.000000   0.000000  25.155947 )

     reciprocal axes: (cart. coord. in units 2 pi/alat)
               b(1) = (  0.151982  0.000020  0.000000 )
               b(2) = (  0.000000  0.167740  0.000000 )
               b(3) = (  0.000000  0.000000  0.039752 )

     PseudoPot. # 1 for Ti read from file:
     /storage/coda1/p-amedford6/0/shared/rich_project_chbe-medford/medford-share/data/pseudos_module/espresso/nninc/pbe/van/Ti.UPF
     MD5 check sum: 8e4df49b7f0d34bbd5052bf3f5ea0213
     Pseudo is Ultrasoft, Zval = 12.0
     Generated by new atomic code, or converted to UPF format
     Using radial grid of  851 points,  6 beta functions with:
                l(1) =   0
                l(2) =   0
                l(3) =   1
                l(4) =   1
                l(5) =   2
                l(6) =   2
     Q(r) pseudized with  8 coefficients,  rinner =    1.000   1.000   1.000
                                                       1.000   1.000

     PseudoPot. # 2 for O  read from file:
     /storage/coda1/p-amedford6/0/shared/rich_project_chbe-medford/medford-share/data/pseudos_module/espresso/nninc/pbe/van/O.UPF
     MD5 check sum: 78c19812648e8988a0fe644b0f25305e
     Pseudo is Ultrasoft, Zval =  6.0
     Generated by new atomic code, or converted to UPF format
     Using radial grid of  737 points,  4 beta functions with:
                l(1) =   0
                l(2) =   0
                l(3) =   1
                l(4) =   1
     Q(r) pseudized with  8 coefficients,  rinner =    0.800   0.800   0.800

     PseudoPot. # 3 for N  read from file:
     /storage/coda1/p-amedford6/0/shared/rich_project_chbe-medford/medford-share/data/pseudos_module/espresso/nninc/pbe/van/N.UPF
     MD5 check sum: 90d10febe142ad51ac9d5be1deb811c4
     Pseudo is Ultrasoft, Zval =  5.0
     Generated by new atomic code, or converted to UPF format
     Using radial grid of  729 points,  4 beta functions with:
                l(1) =   0
                l(2) =   0
                l(3) =   1
                l(4) =   1
     Q(r) pseudized with  8 coefficients,  rinner =    0.800   0.800   0.800

     PseudoPot. # 4 for C  read from file:
     /storage/coda1/p-amedford6/0/shared/rich_project_chbe-medford/medford-share/data/pseudos_module/espresso/nninc/pbe/van/C.UPF
     MD5 check sum: 1a69bf6b8db32088f5b2163dbdb77a27
     Pseudo is Ultrasoft, Zval =  4.0
     Generated by new atomic code, or converted to UPF format
     Using radial grid of  721 points,  4 beta functions with:
                l(1) =   0
                l(2) =   0
                l(3) =   1
                l(4) =   1
     Q(r) pseudized with  8 coefficients,  rinner =    0.800   0.800   0.800

     PseudoPot. # 5 for H  read from file:
     /storage/coda1/p-amedford6/0/shared/rich_project_chbe-medford/medford-share/data/pseudos_module/espresso/nninc/pbe/van/H.UPF
     MD5 check sum: b5ee9d7bfd3a09ee7748110bda690ff7
     Pseudo is Ultrasoft, Zval =  1.0
     Generated by new atomic code, or converted to UPF format
     Using radial grid of  615 points,  1 beta functions with:
                l(1) =   0
     Q(r) pseudized with  8 coefficients,  rinner =    0.800

     atomic species   valence    mass     pseudopotential
        Ti1           12.00    47.86700     Ti( 1.00)
        O1             6.00    15.99900     O ( 1.00)
        N1             5.00    14.00700     N ( 1.00)
        C1             4.00    12.01100     C ( 1.00)
        H1             1.00     1.00800     H ( 1.00)

     No symmetry found

   Cartesian axes

     site n.     atom                  positions (alat units)
         1           Ti1 tau(   1) = (   0.0004258   2.9801865   6.0000000  )
         2           Ti1 tau(   2) = (   3.2906075   1.4906267   6.0002472  )
         3           O1  tau(   3) = (   0.0006271   0.0005054   7.9858123  )
         4           O1  tau(   4) = (   3.2906025   0.0005020   7.3038282  )
         5           O1  tau(   5) = (   4.5942328   1.4918067   9.2879030  )
         6           O1  tau(   6) = (   1.9868534   1.4903216   9.2879459  )
         7           Ti1 tau(   7) = (   3.2907910   2.8959150   9.1758416  )
         8           Ti1 tau(   8) = (   0.0015273   1.4827037   9.2680791  )
         9           O1  tau(   9) = (   3.2714441   0.0289406  11.3813764  )
        10           O1  tau(  10) = (   0.0116148   5.9584955  10.6183126  )
        11           O1  tau(  11) = (   1.2692032   1.5162281  12.7122965  )
        12           O1  tau(  12) = (   5.2779133   1.5159715  12.6811497  )
        13           Ti1 tau(  13) = (   6.5579218   3.0031650  12.5037829  )
        14           Ti1 tau(  14) = (   3.2791490   1.5128154  12.5375672  )
        15           O1  tau(  15) = (   6.5208524   5.8954130  14.6845636  )
        16           O1  tau(  16) = (   3.2849572   0.0099931  14.0031570  )
        17           O1  tau(  17) = (   4.4884262   1.5607690  16.1641467  )
        18           O1  tau(  18) = (   1.9729656   1.5430890  16.0903287  )
        19           Ti1 tau(  19) = (   3.2372663   3.0309179  15.7728032  )
        20           Ti1 tau(  20) = (   6.5553692   1.3539605  15.8053163  )
        21           O1  tau(  21) = (   3.2904802   0.0005063   4.7018136  )
        22           O1  tau(  22) = (   6.5123495   0.2165906  17.2215032  )
        23           O1  tau(  23) = (   1.3043587   1.4918075   6.0039043  )
        24           O1  tau(  24) = (   5.2767064   1.4903225   6.0039473  )
        25           Ti1 tau(  25) = (   0.0000382   5.9609847   6.0000000  )
        26           Ti1 tau(  26) = (   3.2902200   4.4714249   6.0002472  )
        27           O1  tau(  27) = (   0.0002396   2.9813036   7.9858123  )
        28           O1  tau(  28) = (   3.2902150   2.9813002   7.3038282  )
        29           O1  tau(  29) = (   4.5938453   4.4726049   9.2879030  )
        30           O1  tau(  30) = (   1.9864658   4.4711199   9.2879459  )
        31           Ti1 tau(  31) = (   3.2891106   5.8743827   9.1763621  )
        32           Ti1 tau(  32) = (   0.0006254   4.4649316   9.2693709  )
        33           O1  tau(  33) = (   3.2699379   2.9911670  11.3762017  )
        34           O1  tau(  34) = (   0.0092240   2.9805883  10.6323155  )
        35           O1  tau(  35) = (   1.2730946   4.4825978  12.6662957  )
        36           O1  tau(  36) = (   5.2742290   4.4829497  12.6320226  )
        37           Ti1 tau(  37) = (   6.5783117   0.0079037  12.5026730  )
        38           Ti1 tau(  38) = (   3.2784283   4.4905194  12.5286134  )
        39           O1  tau(  39) = (   6.5033290   3.0824797  14.9867588  )
        40           O1  tau(  40) = (   3.2824109   3.0350539  13.9807796  )
        41           O1  tau(  41) = (   4.4804250   4.5097483  16.2808085  )
        42           O1  tau(  42) = (   1.9642025   4.5165872  16.2225063  )
        43           Ti1 tau(  43) = (   3.2609991   0.0502580  15.7998297  )
        44           Ti1 tau(  44) = (   6.5501253   4.5826093  16.0954727  )
        45           O1  tau(  45) = (   3.2900926   2.9813045   4.7018136  )
        46           O1  tau(  46) = (   1.3039711   4.4726057   6.0039043  )
        47           O1  tau(  47) = (   5.2763189   4.4711207   6.0039473  )
        48           N1  tau(  48) = (   0.8845045   3.2634721  19.1145209  )
        49           N1  tau(  49) = (   6.3504243   3.3997271  18.1887592  )
        50           C1  tau(  50) = (   1.2927081   4.5631590  19.6429350  )
        51           H1  tau(  51) = (   0.4658632   5.1229972  20.1056819  )
        52           H1  tau(  52) = (   2.0600825   4.3818216  20.3958833  )
        53           H1  tau(  53) = (   1.7018904   5.1738364  18.8453250  )
        54           H1  tau(  54) = (   0.5628611   2.6866381  19.8888112  )
        55           H1  tau(  55) = (   5.6051421   3.9827062  18.5884547  )
        56           H1  tau(  56) = (   5.9567982   2.4624696  18.0837858  )

     number of k points=    10  Fermi-Dirac smearing, width (Ry)=  0.0073
                       cart. coord. in units 2pi/alat
        k(    1) = (   0.0000000   0.0000000   0.0000000), wk =   0.1250000
        k(    2) = (   0.0000000   0.0419351   0.0000000), wk =   0.2500000
        k(    3) = (   0.0000000  -0.0838702   0.0000000), wk =   0.1250000
        k(    4) = (   0.0379955   0.0000049   0.0000000), wk =   0.2500000
        k(    5) = (   0.0379955   0.0419400   0.0000000), wk =   0.2500000
        k(    6) = (   0.0379955  -0.0838652   0.0000000), wk =   0.2500000
        k(    7) = (   0.0379955  -0.0419301   0.0000000), wk =   0.2500000
        k(    8) = (  -0.0759910  -0.0000099   0.0000000), wk =   0.1250000
        k(    9) = (  -0.0759910   0.0419252   0.0000000), wk =   0.2500000
        k(   10) = (  -0.0759910  -0.0838800   0.0000000), wk =   0.1250000

     Initial potential from superposition of free atoms

     starting charge  381.99914, renormalised to  398.00000

     negative rho (up, down):  1.416E-02 0.000E+00

     %%%%%%%%%%%%%%%%%%%%%%%%%%%%%%%%%%%%%%%%%%%%%%%%%%%%%%%%%%%%%%%%%%%%%%%%
     %                                                                      %
     % You are using vdW-DF, which was implemented by the Thonhauser group. %
     % Please cite the following two papers that made this development      %
     % possible and the two reviews that describe the various versions:     %
     %                                                                      %
     %   T. Thonhauser et al., PRL 115, 136402 (2015).                      %
     %   T. Thonhauser et al., PRB 76, 125112 (2007).                       %
     %   K. Berland et al., Rep. Prog. Phys. 78, 066501 (2015).             %
     %   D.C. Langreth et al., J. Phys.: Condens. Matter 21, 084203 (2009). %
     %                                                                      %
     %                                                                      %
     % If you are calculating the stress with vdW-DF, please also cite:     %
     %                                                                      %
     %   R. Sabatini et al., J. Phys.: Condens. Matter 24, 424209 (2012).   %
     %                                                                      %
     %%%%%%%%%%%%%%%%%%%%%%%%%%%%%%%%%%%%%%%%%%%%%%%%%%%%%%%%%%%%%%%%%%%%%%%%

     Adding external electric field

     Computed dipole along edir(3) :
        Dipole              -11.7163 Ry au,        -29.7798 Debye
        Dipole field         -0.0221 Ry au,

        Potential amp.        2.0496 Ry
        Total length         46.3494 bohr

     Starting wfcs are  302 atomic wfcs
  @ DRIVER MODE: Message from server: STATUS
  @ DRIVER MODE: Message from server: POSDATA
  @ DRIVER MODE: Reading and sharing cell
  @ DRIVER MODE: Reading and sharing positions
  @ DRIVER MODE: Received positions

     Self-consistent Calculation

     iteration #  1     ecut=    29.40 Ry     beta= 0.05
     Davidson diagonalization with overlap
     c_bands:  3 eigenvalues not converged
     c_bands:  1 eigenvalues not converged
     c_bands:  1 eigenvalues not converged
     c_bands:  4 eigenvalues not converged
     c_bands:  1 eigenvalues not converged
     c_bands:  4 eigenvalues not converged
     c_bands:  5 eigenvalues not converged
     c_bands:  2 eigenvalues not converged
     ethr =  1.00E-05,  avg # of iterations = 21.9

[...]

     total energy              =   -2424.54093003 Ry
     estimated scf accuracy    <    5830.48056621 Ry

     iteration #  2     ecut=    29.40 Ry     beta= 0.05
     Davidson diagonalization with overlap
     ethr =  1.00E-02,  avg # of iterations = 22.7

[...]

     iteration # 83     ecut=    29.40 Ry     beta= 0.05
     Davidson diagonalization with overlap
     c_bands:  1 eigenvalues not converged
     ethr =  8.63E-11,  avg # of iterations = 13.5

[...]

     total energy              =   -2942.84391810 Ry
     estimated scf accuracy    <       0.00000009 Ry

     iteration # 85     ecut=    29.40 Ry     beta= 0.05
     Davidson diagonalization with overlap
     ethr =  2.36E-11,  avg # of iterations = 11.0

     negative rho (up, down):  1.513E-02 0.000E+00

     Adding external electric field

     Computed dipole along edir(3) :
        Dipole                1.4938 Ry au,          3.7968 Debye
        Dipole field          0.0028 Ry au,

        Potential amp.       -0.2613 Ry
        Total length         46.3494 bohr

     End of self-consistent calculation

          k = 0.0000 0.0000 0.0000 ( 18029 PWs)   bands (ev):

   -55.2032 -55.1661 -55.1552 -55.1264 -55.1210 -55.0845 -55.0813 -55.0465
   -55.0272 -55.0143 -54.9928 -54.9880 -54.9543 -54.8578 -54.1873 -54.1533
   -31.7696 -31.6534 -31.6481 -31.5694 -31.5165 -31.5155 -31.5127 -31.4941
   -31.4443 -31.4408 -31.4129 -31.4107 -31.4003 -31.3833 -31.3704 -31.3647
   -31.3577 -31.3477 -31.3406 -31.3236 -31.3078 -31.3051 -31.2734 -31.2694
   -31.2589 -31.2580 -31.2398 -31.2299 -31.2124 -31.2118 -31.2075 -31.1869
   -31.1867 -31.1833 -31.1766 -31.1739 -31.1407 -31.1310 -31.1163 -31.0994
   -31.0710 -31.0517 -30.5969 -30.5023 -30.4803 -30.4132 -30.3264 -30.2156
   -17.9504 -16.0367 -15.7744 -15.6291 -15.5169 -15.4054 -15.2860 -15.2552
   -15.1354 -15.0593 -14.9256 -14.8992 -14.8766 -14.8532 -14.8412 -14.8292
   -14.7527 -14.7462 -14.7303 -14.7020 -14.7001 -14.6549 -14.6451 -14.6057
   -14.5808 -14.5598 -14.4549 -14.3666 -14.2927 -14.0764 -13.4357 -12.6903
   -12.5727  -9.7063  -6.5941  -6.0874  -4.5926  -3.3751  -3.2582  -3.2269
    -3.1395  -3.1061  -3.0975  -2.9997  -2.9506  -2.7935  -2.6510  -2.6252
    -2.4944  -2.4193  -2.4030  -2.3786  -2.2489  -2.2133  -2.1624  -2.1228
    -2.0643  -2.0329  -2.0099  -1.9943  -1.9633  -1.9541  -1.9290  -1.8395
    -1.7803  -1.6863  -1.6689  -1.6027  -1.5936  -1.5620  -1.5409  -1.4957
    -1.4854  -1.4346  -1.4280  -1.4156  -1.3959  -1.2640  -1.2243  -1.1147
    -1.0528  -0.9657  -0.8449  -0.8050  -0.7909  -0.7001  -0.6913  -0.6594
    -0.5829  -0.5800  -0.5491  -0.4409  -0.3760  -0.3124  -0.2534  -0.2265
    -0.1938  -0.1165  -0.0251   0.0106   0.0273   0.0507   0.1505   0.1856
     0.2411   0.3081   0.3196   0.3329   0.4126   0.4536   0.5288   0.5654
     0.5833   0.6719   0.6983   0.7261   0.7266   0.7644   0.7787   0.8182
     0.8671   0.8939   0.9803   1.0467   1.1016   1.3459   1.3984   1.4047
     1.7307   1.7386   1.8351   2.0185   2.4116   2.4600   3.8933   3.9621
     4.0379   4.0429   4.0653   4.1291   4.3669   4.3902   4.3991   4.4013
     4.4278

[...]

          k = 0.0380-0.0419 0.0000 ( 17876 PWs)   bands (ev):

[...]

          k =-0.0760-0.0000 0.0000 ( 17886 PWs)   bands (ev):

[...]

          k =-0.0760-0.0839 0.0000 ( 17948 PWs)   bands (ev):

   -55.1895 -55.1796 -55.1383 -55.1378 -55.1251 -55.0802 -55.0669 -55.0609
   -55.0186 -55.0114 -55.0082 -54.9716 -54.9709 -54.8589 -54.1704 -54.1701
   -31.5777 -31.5768 -31.5699 -31.4852 -31.4633 -31.4630 -31.4602 -31.4296
   -31.4294 -31.4140 -31.4032 -31.4017 -31.3929 -31.3672 -31.3580 -31.3449
   -31.3440 -31.3401 -31.3368 -31.3313 -31.3293 -31.3234 -31.2843 -31.2811
   -31.2809 -31.2795 -31.2620 -31.2603 -31.2580 -31.2575 -31.2529 -31.2444
   -31.2414 -31.2246 -31.2211 -31.2053 -31.2046 -31.2015 -31.1522 -31.1518
   -31.1275 -31.0754 -30.4931 -30.4928 -30.4095 -30.4093 -30.3699 -30.3698
   -17.9471 -15.5618 -15.4317 -15.4026 -15.2461 -15.2099 -15.1768 -15.1633
   -15.0425 -15.0056 -14.9803 -14.9712 -14.9537 -14.9130 -14.9074 -14.9006
   -14.8300 -14.8107 -14.8065 -14.7842 -14.7259 -14.7170 -14.7131 -14.7055
   -14.6550 -14.6513 -14.5713 -14.5605 -14.5573 -14.3777 -13.4391 -12.6742
   -12.6742  -9.7224  -6.5782  -6.0876  -4.5713  -3.2298  -2.9554  -2.6941
    -2.6891  -2.6612  -2.4600  -2.3974  -2.3667  -2.3608  -2.2637  -2.2272
    -2.2025  -2.1992  -2.1339  -2.1193  -2.0874  -2.0584  -2.0421  -2.0280
    -2.0114  -1.9969  -1.9730  -1.9355  -1.9274  -1.9187  -1.8862  -1.8657
    -1.8427  -1.8201  -1.8069  -1.7884  -1.7624  -1.7399  -1.6030  -1.5716
    -1.5012  -1.4554  -1.4148  -1.4105  -1.3389  -1.3024  -1.2524  -1.2400
    -1.2226  -1.0824  -1.0247  -0.9741  -0.9540  -0.9430  -0.8141  -0.7999
    -0.7266  -0.7092  -0.6930  -0.6175  -0.5672  -0.5291  -0.5156  -0.4223
    -0.4066  -0.3403  -0.2382  -0.2156  -0.2016  -0.1610  -0.1580  -0.1108
    -0.1036  -0.0195   0.0247   0.0598   0.0706   0.1063   0.2992   0.3153
     0.3252   0.4783   0.4944   0.6358   0.6790   0.7456   0.8044   0.8436
     0.9053   0.9424   1.0559   1.0859   1.1003   1.1085   1.1700   1.1818
     1.2447   1.2555   2.1912   2.1918   2.2798   2.2801   4.0393   4.1465
     4.1544   4.1960   4.3159   4.3464   4.4083   4.4356   4.4773   4.4806
     4.5472

     the Fermi energy is     3.9567 ev

!    total energy              =   -2942.84392194 Ry
     estimated scf accuracy    <       0.00000005 Ry
     smearing contrib. (-TS)   =      -0.03707549 Ry
     internal energy E=F+TS    =   -2942.80684645 Ry

     The total energy is F=E-TS. E is the sum of the following terms:
     one-electron contribution =  -23367.12758033 Ry
     hartree contribution      =   11777.72128266 Ry
     xc contribution           =    -487.73987533 Ry
     ewald contribution        =    9134.33511568 Ry
     electric field correction =       0.00421087 Ry

     convergence has been achieved in  85 iterations

     Forces acting on atoms (cartesian axes, Ry/au):

     atom    1 type  1   force =     0.00017158   -0.00033661    0.09326431
     atom    2 type  1   force =    -0.00005789   -0.00042424   -0.17824998
     atom    3 type  2   force =     0.00002483   -0.00032316   -0.02002735
     atom    4 type  2   force =     0.00002208   -0.00183453    0.05925496
     atom    5 type  2   force =    -0.01046483   -0.00026351    0.00864370
     atom    6 type  2   force =     0.01147937    0.00040857    0.00645630
     atom    7 type  1   force =    -0.00100211    0.00212326   -0.01400079
     atom    8 type  1   force =     0.00082002   -0.00094963   -0.00573000
     atom    9 type  2   force =    -0.00010180    0.00012773   -0.00000551
     atom   10 type  2   force =    -0.00185332    0.00411301    0.00028183
     atom   11 type  2   force =    -0.00008153   -0.00064369    0.00029143
     atom   12 type  2   force =     0.00000136   -0.00041187    0.00054745
     atom   13 type  1   force =     0.00004201    0.00010201    0.00031155
     atom   14 type  1   force =    -0.00037373    0.00000102    0.00007945
     atom   15 type  2   force =     0.00051759    0.00029569   -0.00034474
     atom   16 type  2   force =     0.00032552   -0.00034638   -0.00006237
     atom   17 type  2   force =    -0.00047177    0.00003632    0.00001757
     atom   18 type  2   force =     0.00052534   -0.00018685   -0.00000332
     atom   19 type  1   force =    -0.00008477   -0.00047944    0.00020178
     atom   20 type  1   force =     0.00081286   -0.00016415    0.00062510
     atom   21 type  2   force =     0.00012561   -0.00012736    0.10402698
     atom   22 type  2   force =    -0.00040626    0.00039154   -0.00037791
     atom   23 type  2   force =    -0.07026057   -0.00022143   -0.02684873
     atom   24 type  2   force =     0.07025359    0.00021608   -0.02687420
     atom   25 type  1   force =     0.00007856   -0.00031790    0.09257812
     atom   26 type  1   force =    -0.00003322   -0.00059185   -0.17837401
     atom   27 type  2   force =     0.00012828   -0.00016620   -0.01907688
     atom   28 type  2   force =     0.00005233   -0.00163465    0.05861306
     atom   29 type  2   force =    -0.01106022   -0.00055962    0.00932538
     atom   30 type  2   force =     0.01197969   -0.00002083    0.00721529
     atom   31 type  1   force =    -0.00092867    0.00646667   -0.01506899
     atom   32 type  1   force =     0.00086084    0.00102562   -0.00587806
     atom   33 type  2   force =     0.00017582   -0.00057370   -0.00003787
     atom   34 type  2   force =    -0.00185856   -0.00052132   -0.00047854
     atom   35 type  2   force =    -0.00046455    0.00006291   -0.00042607
     atom   36 type  2   force =     0.00036371   -0.00011695    0.00019044
     atom   37 type  1   force =    -0.00051265   -0.00025401    0.00018781
     atom   38 type  1   force =    -0.00004725   -0.00014456   -0.00007979
     atom   39 type  2   force =     0.00028731   -0.00058191    0.00003051
     atom   40 type  2   force =    -0.00060029   -0.00051675    0.00025613
     atom   41 type  2   force =    -0.00020090   -0.00076165   -0.00071179
     atom   42 type  2   force =     0.00048497   -0.00008424   -0.00016195
     atom   43 type  1   force =     0.00017561   -0.00026383   -0.00019182
     atom   44 type  1   force =     0.00061752    0.00012177    0.00099754
     atom   45 type  2   force =     0.00013295   -0.00014167    0.10397655
     atom   46 type  2   force =    -0.07026405   -0.00016515   -0.02682158
     atom   47 type  2   force =     0.07023328    0.00026235   -0.02687816
     atom   48 type  3   force =     0.00036466    0.00049568   -0.00091462
     atom   49 type  3   force =    -0.00019801   -0.00082493   -0.00105448
     atom   50 type  4   force =     0.00022958   -0.00156804   -0.00003775
     atom   51 type  5   force =    -0.00074490    0.00149104    0.00067154
     atom   52 type  5   force =     0.00034468   -0.00029101   -0.00019830
     atom   53 type  5   force =     0.00080332    0.00042735   -0.00122013
     atom   54 type  5   force =    -0.00003303   -0.00181105    0.00070538
     atom   55 type  5   force =    -0.00011359   -0.00120035   -0.00030639
     atom   56 type  5   force =    -0.00021638    0.00165640    0.00169192

     Total force =     0.366332     Total SCF correction =     0.000766
  @ DRIVER MODE: Message from server: STATUS
  @ DRIVER MODE: Message from server: GETFORCE
  @ DRIVER MODE: Returning v,forces,stress,ensemble

     Writing output data file ./calc.save/
  @ DRIVER MODE: Message from server: EXIT
  @ DRIVE MODE: Exiting

     General routines

     Parallel routines

   This run was terminated on:  15:28:57   9Sep2021

   JOB DONE.