     Program PWSCF v.6.7GPU starts on 23Sep2021 at  1:36:34

     R & G space division:  proc/nbgrp/npool/nimage =      10
     Reading input from /storage/home/hcoda1/3/ntian30/research/carbon/CxH_vib/H2O_calc/ads_slab/CHNHHO_a/out_0030/pw.inp
Warning: card &CELL ignored
Warning: card   CELL_DYNAMICS='IPI', ignored
Warning: card / ignored

     Current dimensions of program PWSCF are:
     Max number of different atomic species (ntypx) = 10
     Max number of k-points (npk) =  40000
     Max angular momentum in pseudopotentials (lmaxx) =  3
     Presently no symmetry can be used with electric field

     Message from routine cell_base_init:
     DEPRECATED: use true lattice parameter, not A to a.u. conversion factor

     IMPORTANT: XC functional enforced from input :
     Exchange-correlation= BEEF-VDW
                           (   1   4  43  14   2   0   0)
     Any further DFT definition will be discarded
     Please, verify this is what you really want

  @ DRIVER MODE: Connecting to
 qe_1139763_2937314.sched-torque.pace.gatech.eduzg_9_q3q_scratch
  using UNIX socket
  @ DRIVER MODE: Message from server: STATUS
  @ DRIVER MODE: Message from server: INIT
  @ DRIVER MODE: Receiving replica           0          -1
  @ DRIVER MODE: Receiving encoded integer          25
  @ DRIVER MODE:  SCF:  T  FORCE:  T  STRESS:  F  VC:  F  ENSEMBLE:  F
  @ DRIVER MODE:  SCF:  T  FORCE:  T  STRESS:  F  VC:  F  ENSEMBLE:  F

     Using Slab Decomposition

     bravais-lattice index     =            0
     lattice parameter (alat)  =       1.8897  a.u.
     unit-cell volume          =    6658.9804 (a.u.)^3
     number of atoms/cell      =           53
     number of atomic types    =            5
     number of electrons       =       396.00
     number of Kohn-Sham states=          208
     kinetic-energy cutoff     =      29.3995  Ry
     charge density cutoff     =     293.9946  Ry
     scf convergence threshold =      7.3E-08
     mixing beta               =       0.0500
     number of iterations used =            8  plain     mixing
     Exchange-correlation= BEEF-VDW
                           (   1   4  43  14   2   0   0)

     celldm(1)=   1.889726  celldm(2)=   0.000000  celldm(3)=   0.000000
     celldm(4)=   0.000000  celldm(5)=   0.000000  celldm(6)=   0.000000

     crystal axes: (cart. coord. in units of alat)
               a(1) = (   6.579727   0.000000   0.000000 )
               a(2) = (  -0.000775   5.961596   0.000000 )
               a(3) = (   0.000000   0.000000  25.155947 )

     reciprocal axes: (cart. coord. in units 2 pi/alat)
               b(1) = (  0.151982  0.000020  0.000000 )
               b(2) = (  0.000000  0.167740  0.000000 )
               b(3) = (  0.000000  0.000000  0.039752 )

     PseudoPot. # 1 for Ti read from file:
     /storage/coda1/p-amedford6/0/shared/rich_project_chbe-medford/medford-share/data/pseudos_module/espresso/nninc/pbe/van/Ti.UPF
     MD5 check sum: 8e4df49b7f0d34bbd5052bf3f5ea0213
     Pseudo is Ultrasoft, Zval = 12.0
     Generated by new atomic code, or converted to UPF format
     Using radial grid of  851 points,  6 beta functions with:
                l(1) =   0
                l(2) =   0
                l(3) =   1
                l(4) =   1
                l(5) =   2
                l(6) =   2
     Q(r) pseudized with  8 coefficients,  rinner =    1.000   1.000   1.000
                                                       1.000   1.000

     PseudoPot. # 2 for O  read from file:
     /storage/coda1/p-amedford6/0/shared/rich_project_chbe-medford/medford-share/data/pseudos_module/espresso/nninc/pbe/van/O.UPF
     MD5 check sum: 78c19812648e8988a0fe644b0f25305e
     Pseudo is Ultrasoft, Zval =  6.0
     Generated by new atomic code, or converted to UPF format
     Using radial grid of  737 points,  4 beta functions with:
                l(1) =   0
                l(2) =   0
                l(3) =   1
                l(4) =   1
     Q(r) pseudized with  8 coefficients,  rinner =    0.800   0.800   0.800

     PseudoPot. # 3 for N  read from file:
     /storage/coda1/p-amedford6/0/shared/rich_project_chbe-medford/medford-share/data/pseudos_module/espresso/nninc/pbe/van/N.UPF
     MD5 check sum: 90d10febe142ad51ac9d5be1deb811c4
     Pseudo is Ultrasoft, Zval =  5.0
     Generated by new atomic code, or converted to UPF format
     Using radial grid of  729 points,  4 beta functions with:
                l(1) =   0
                l(2) =   0
                l(3) =   1
                l(4) =   1
     Q(r) pseudized with  8 coefficients,  rinner =    0.800   0.800   0.800

     PseudoPot. # 4 for C  read from file:
     /storage/coda1/p-amedford6/0/shared/rich_project_chbe-medford/medford-share/data/pseudos_module/espresso/nninc/pbe/van/C.UPF
     MD5 check sum: 1a69bf6b8db32088f5b2163dbdb77a27
     Pseudo is Ultrasoft, Zval =  4.0
     Generated by new atomic code, or converted to UPF format
     Using radial grid of  721 points,  4 beta functions with:
                l(1) =   0
                l(2) =   0
                l(3) =   1
                l(4) =   1
     Q(r) pseudized with  8 coefficients,  rinner =    0.800   0.800   0.800

     PseudoPot. # 5 for H  read from file:
     /storage/coda1/p-amedford6/0/shared/rich_project_chbe-medford/medford-share/data/pseudos_module/espresso/nninc/pbe/van/H.UPF
     MD5 check sum: b5ee9d7bfd3a09ee7748110bda690ff7
     Pseudo is Ultrasoft, Zval =  1.0
     Generated by new atomic code, or converted to UPF format
     Using radial grid of  615 points,  1 beta functions with:
                l(1) =   0
     Q(r) pseudized with  8 coefficients,  rinner =    0.800

     atomic species   valence    mass     pseudopotential
        Ti1           12.00    47.86700     Ti( 1.00)
        O1             6.00    15.99900     O ( 1.00)
        N1             5.00    14.00700     N ( 1.00)
        C1             4.00    12.01100     C ( 1.00)
        H1             1.00     1.00800     H ( 1.00)

     No symmetry found

   Cartesian axes

     site n.     atom                  positions (alat units)
         1           Ti1 tau(   1) = (   0.0004258   2.9801865   6.0000000  )
         2           Ti1 tau(   2) = (   3.2906075   1.4906267   6.0002472  )
         3           O1  tau(   3) = (   0.0006271   0.0005054   7.9858123  )
         4           O1  tau(   4) = (   3.2906025   0.0005020   7.3038282  )
         5           O1  tau(   5) = (   4.5942328   1.4918067   9.2879030  )
         6           O1  tau(   6) = (   1.9868534   1.4903216   9.2879459  )
         7           Ti1 tau(   7) = (   3.2907910   2.8959150   9.1758416  )
         8           Ti1 tau(   8) = (   0.0015273   1.4827037   9.2680791  )
         9           O1  tau(   9) = (   3.2817170   5.9459930  11.3074998  )
        10           O1  tau(  10) = (   0.0116148   5.9584955  10.6183126  )
        11           O1  tau(  11) = (   1.2737360   1.4926482  12.6406718  )
        12           O1  tau(  12) = (   5.2902952   1.4950437  12.6299455  )
        13           Ti1 tau(  13) = (   6.5743562   2.8588748  12.6391164  )
        14           Ti1 tau(  14) = (   3.2840152   1.3010445  12.6757008  )
        15           O1  tau(  15) = (   6.5722207   0.0022838  14.6395268  )
        16           O1  tau(  16) = (   3.2882888   0.0547267  13.9272720  )
        17           O1  tau(  17) = (   4.5277618   1.5549090  16.0796657  )
        18           O1  tau(  18) = (   1.9889223   1.5445724  16.0964948  )
        19           Ti1 tau(  19) = (   3.2710169   3.0098750  15.6493427  )
        20           Ti1 tau(  20) = (   0.0212523   1.3583160  16.0154628  )
        21           O1  tau(  21) = (   3.2904802   0.0005063   4.7018136  )
        22           O1  tau(  22) = (   6.5278121   5.9442159  17.1408904  )
        23           O1  tau(  23) = (   1.3043587   1.4918075   6.0039043  )
        24           O1  tau(  24) = (   5.2767064   1.4903225   6.0039473  )
        25           Ti1 tau(  25) = (   0.0000382   5.9609847   6.0000000  )
        26           Ti1 tau(  26) = (   3.2902200   4.4714249   6.0002472  )
        27           O1  tau(  27) = (   0.0002396   2.9813036   7.9858123  )
        28           O1  tau(  28) = (   3.2902150   2.9813002   7.3038282  )
        29           O1  tau(  29) = (   4.5938453   4.4726049   9.2879030  )
        30           O1  tau(  30) = (   1.9864658   4.4711199   9.2879459  )
        31           Ti1 tau(  31) = (   3.2891106   5.8743827   9.1763621  )
        32           Ti1 tau(  32) = (   0.0006254   4.4649316   9.2693709  )
        33           O1  tau(  33) = (   3.2809651   3.0158959  11.2742024  )
        34           O1  tau(  34) = (   0.0092240   2.9805883  10.6323155  )
        35           O1  tau(  35) = (   1.2801966   4.4796301  12.6363892  )
        36           O1  tau(  36) = (   5.2833020   4.4787161  12.6245292  )
        37           Ti1 tau(  37) = (   6.5725262   5.8449372  12.5269696  )
        38           Ti1 tau(  38) = (   3.2830651   4.3950422  12.4122791  )
        39           O1  tau(  39) = (   6.5612936   2.9998473  14.7091997  )
        40           O1  tau(  40) = (   3.2734765   2.9867355  13.8776313  )
        41           O1  tau(  41) = (   4.5260587   4.4294304  16.0527172  )
        42           O1  tau(  42) = (   1.9919704   4.4458081  16.0639873  )
        43           Ti1 tau(  43) = (   3.3135318   0.0270965  16.3071496  )
        44           Ti1 tau(  44) = (   0.0294795   4.5257316  15.8201724  )
        45           O1  tau(  45) = (   3.2900926   2.9813045   4.7018136  )
        46           O1  tau(  46) = (   1.3039711   4.4726057   6.0039043  )
        47           O1  tau(  47) = (   5.2763189   4.4711207   6.0039473  )
        48           N1  tau(  48) = (   6.4282372   2.9740631  17.7102171  )
        49           C1  tau(  49) = (   0.6535733   3.0176064  18.7020832  )
        50           H1  tau(  50) = (   1.7291544   2.9413089  18.4820742  )
        51           H1  tau(  51) = (   5.4410488   3.0579230  17.9716058  )
        52           O1  tau(  52) = (   3.3635319   0.0010587  18.1293045  )
        53           H1  tau(  53) = (   4.1580425   0.0400832  18.6733683  )

     number of k points=    10  Fermi-Dirac smearing, width (Ry)=  0.0073
                       cart. coord. in units 2pi/alat
        k(    1) = (   0.0000000   0.0000000   0.0000000), wk =   0.1250000
        k(    2) = (   0.0000000   0.0419351   0.0000000), wk =   0.2500000
        k(    3) = (   0.0000000  -0.0838702   0.0000000), wk =   0.1250000
        k(    4) = (   0.0379955   0.0000049   0.0000000), wk =   0.2500000
        k(    5) = (   0.0379955   0.0419400   0.0000000), wk =   0.2500000
        k(    6) = (   0.0379955  -0.0838652   0.0000000), wk =   0.2500000
        k(    7) = (   0.0379955  -0.0419301   0.0000000), wk =   0.2500000
        k(    8) = (  -0.0759910  -0.0000099   0.0000000), wk =   0.1250000
        k(    9) = (  -0.0759910   0.0419252   0.0000000), wk =   0.2500000
        k(   10) = (  -0.0759910  -0.0838800   0.0000000), wk =   0.1250000

     Initial potential from superposition of free atoms

     starting charge  379.99917, renormalised to  396.00000

     negative rho (up, down):  1.778E-02 0.000E+00

     %%%%%%%%%%%%%%%%%%%%%%%%%%%%%%%%%%%%%%%%%%%%%%%%%%%%%%%%%%%%%%%%%%%%%%%%
     %                                                                      %
     % You are using vdW-DF, which was implemented by the Thonhauser group. %
     % Please cite the following two papers that made this development      %
     % possible and the two reviews that describe the various versions:     %
     %                                                                      %
     %   T. Thonhauser et al., PRL 115, 136402 (2015).                      %
     %   T. Thonhauser et al., PRB 76, 125112 (2007).                       %
     %   K. Berland et al., Rep. Prog. Phys. 78, 066501 (2015).             %
     %   D.C. Langreth et al., J. Phys.: Condens. Matter 21, 084203 (2009). %
     %                                                                      %
     %                                                                      %
     % If you are calculating the stress with vdW-DF, please also cite:     %
     %                                                                      %
     %   R. Sabatini et al., J. Phys.: Condens. Matter 24, 424209 (2012).   %
     %                                                                      %
     %%%%%%%%%%%%%%%%%%%%%%%%%%%%%%%%%%%%%%%%%%%%%%%%%%%%%%%%%%%%%%%%%%%%%%%%

     Adding external electric field

     Computed dipole along edir(3) :
        Dipole               -8.0701 Ry au,        -20.5121 Debye
        Dipole field         -0.0152 Ry au,

        Potential amp.        1.4117 Ry
        Total length         46.3494 bohr

     Starting wfcs are  299 atomic wfcs
  @ DRIVER MODE: Message from server: STATUS
  @ DRIVER MODE: Message from server: POSDATA
  @ DRIVER MODE: Reading and sharing cell
  @ DRIVER MODE: Reading and sharing positions
  @ DRIVER MODE: Received positions

     Self-consistent Calculation

     iteration #  1     ecut=    29.40 Ry     beta= 0.05
     Davidson diagonalization with overlap
     c_bands:  1 eigenvalues not converged
     c_bands:  1 eigenvalues not converged
     c_bands:  2 eigenvalues not converged
     c_bands:  1 eigenvalues not converged
     c_bands:  1 eigenvalues not converged
     c_bands:  1 eigenvalues not converged
     ethr =  1.00E-05,  avg # of iterations = 18.6

[...]

     total energy              =   -2618.20778420 Ry
     estimated scf accuracy    <    3681.83606353 Ry

[...]

     iteration #  3     ecut=    29.40 Ry     beta= 0.05
     Davidson diagonalization with overlap
     ethr =  1.00E-02,  avg # of iterations = 14.6

[...]

     iteration # 54     ecut=    29.40 Ry     beta= 0.05
     Davidson diagonalization with overlap
     c_bands:  1 eigenvalues not converged
     ethr =  1.48E-07,  avg # of iterations =  9.5

[...]

     total energy              =   -2951.37636743 Ry
     estimated scf accuracy    <       0.00000019 Ry

     iteration # 80     ecut=    29.40 Ry     beta= 0.05
     Davidson diagonalization with overlap
     ethr =  2.60E-11,  avg # of iterations =  5.8

     negative rho (up, down):  1.666E-02 0.000E+00

     Adding external electric field

     Computed dipole along edir(3) :
        Dipole                0.1714 Ry au,          0.4358 Debye
        Dipole field          0.0003 Ry au,

        Potential amp.       -0.0300 Ry
        Total length         46.3494 bohr

     End of self-consistent calculation

          k = 0.0000 0.0000 0.0000 ( 18029 PWs)   bands (ev):

   -56.4319 -56.3980 -56.1715 -56.1548 -56.1210 -55.9559 -55.9028 -55.8728
   -55.8689 -55.8593 -55.8242 -55.7328 -55.6817 -55.5420 -55.2836 -55.2496
   -32.8964 -32.7261 -32.7059 -32.6276 -32.5862 -32.5196 -32.4926 -32.4636
   -32.4396 -32.4380 -32.3830 -32.3730 -32.3711 -32.3705 -32.3606 -32.3154
   -32.2935 -32.2758 -32.2599 -32.1865 -32.1723 -32.1656 -32.1537 -32.1300
   -32.1128 -32.1118 -32.1040 -32.0795 -32.0721 -32.0629 -32.0471 -32.0243
   -32.0074 -31.9856 -31.9758 -31.9668 -31.9514 -31.8784 -31.8768 -31.8012
   -31.7723 -31.7537 -31.6839 -31.6117 -31.5885 -31.5023 -31.4168 -31.3047
   -16.9113 -16.8296 -16.6008 -16.4472 -16.2818 -16.1892 -16.0608 -16.0342
   -15.9278 -15.9053 -15.8225 -15.7850 -15.7469 -15.6727 -15.6157 -15.5949
   -15.5659 -15.5336 -15.5251 -15.5169 -15.5100 -15.4981 -15.4636 -15.3456
   -15.3048 -15.2578 -15.2396 -15.2254 -15.0959 -14.8375 -14.7956 -13.7813
   -13.6674  -8.2106  -4.6454  -4.2841  -4.2245  -4.1267  -3.9506  -3.8948
    -3.8364  -3.6092  -3.5604  -3.5585  -3.3645  -3.3036  -3.2115  -3.1667
    -3.1511  -3.1073  -3.0354  -3.0248  -2.9942  -2.9061  -2.8662  -2.8587
    -2.8309  -2.7852  -2.7780  -2.6928  -2.6514  -2.6302  -2.5615  -2.5103
    -2.4792  -2.4657  -2.4437  -2.4324  -2.3896  -2.3760  -2.3550  -2.2069
    -2.1913  -2.1689  -2.0893  -2.0189  -1.8599  -1.7777  -1.7671  -1.6698
    -1.5916  -1.5798  -1.5292  -1.4740  -1.3950  -1.3818  -1.3745  -1.3321
    -1.2497  -1.2252  -1.1716  -1.1314  -1.0580  -0.9644  -0.9635  -0.9155
    -0.8779  -0.8154  -0.7249  -0.6926  -0.6355  -0.5945  -0.5623  -0.4824
    -0.4406  -0.4127  -0.3872  -0.3796  -0.3183  -0.2579  -0.2099  -0.1863
    -0.1146  -0.1039  -0.0598   0.0107   0.0313   0.0338   0.1534   0.1960
     0.2086   0.2584   0.3748   0.4275   0.5160   0.5735   0.6447   0.7421
     0.7483   0.9562   1.0620   1.2964   1.3369   2.5759   2.7567   2.8784
     2.9470   3.1477   3.1952   3.2217   3.5033   3.5176   3.5257   3.6196

[...]

          k = 0.0380-0.0419 0.0000 ( 17876 PWs)   bands (ev):

[...]

          k =-0.0760-0.0000 0.0000 ( 17886 PWs)   bands (ev):

[...]

          k =-0.0760-0.0839 0.0000 ( 17948 PWs)   bands (ev):

   -56.4154 -56.4144 -56.1708 -56.1396 -56.1360 -55.9498 -55.9088 -55.8704
   -55.8696 -55.8460 -55.8374 -55.7347 -55.6797 -55.5439 -55.2672 -55.2659
   -32.7129 -32.7127 -32.7110 -32.7105 -32.5381 -32.5368 -32.4595 -32.4548
   -32.4378 -32.3994 -32.3823 -32.3479 -32.3430 -32.3317 -32.3252 -32.2942
   -32.2542 -32.2519 -32.2228 -32.1788 -32.1756 -32.1751 -32.1704 -32.1642
   -32.1347 -32.1306 -32.1261 -32.0816 -32.0791 -32.0728 -32.0693 -32.0681
   -32.0529 -32.0178 -31.9955 -31.9710 -31.9574 -31.9433 -31.8906 -31.8824
   -31.8040 -31.7573 -31.6018 -31.6009 -31.4984 -31.4969 -31.4601 -31.4591
   -16.8956 -16.2495 -16.2241 -16.1351 -16.1035 -16.0788 -16.0567 -16.0350
   -15.8996 -15.8892 -15.8751 -15.8078 -15.7576 -15.7394 -15.7083 -15.7031
   -15.6445 -15.6309 -15.6195 -15.5664 -15.5576 -15.5352 -15.5209 -15.4875
   -15.4567 -15.4289 -15.2632 -15.2094 -15.1537 -15.1265 -14.9291 -13.7702
   -13.7696  -8.2221  -4.6367  -4.1132  -3.5276  -3.4951  -3.3742  -3.3653
    -3.2366  -3.2322  -3.1529  -3.0811  -3.0796  -3.0057  -2.9918  -2.9825
    -2.9439  -2.9257  -2.9185  -2.9165  -2.8775  -2.8670  -2.8454  -2.8294
    -2.8263  -2.8114  -2.7725  -2.7344  -2.7119  -2.6996  -2.6448  -2.6317
    -2.5109  -2.4436  -2.4156  -2.4151  -2.3949  -2.3575  -2.3258  -2.3094
    -2.2804  -2.2415  -2.1648  -2.0451  -2.0240  -1.8266  -1.8086  -1.7782
    -1.7534  -1.7119  -1.7069  -1.6415  -1.5896  -1.5751  -1.5589  -1.5353
    -1.4341  -1.3768  -1.3321  -1.3267  -1.2754  -1.2500  -1.1964  -1.1045
    -1.0563  -1.0255  -0.9996  -0.9888  -0.9521  -0.9261  -0.8707  -0.8325
    -0.8284  -0.7978  -0.7536  -0.5886  -0.4192  -0.3758  -0.3527  -0.2821
    -0.2579  -0.2130  -0.0779  -0.0372  -0.0246   0.0086   0.0500   0.0777
     0.0941   0.1540   0.3361   0.3520   0.4232   0.4679   0.4740   0.5599
     0.6575   1.1208   1.1285   1.1557   1.1565   2.6044   3.3015   3.3035
     3.3051   3.3215   3.3932   3.4618   3.4711   3.5051   3.5858   3.6210

     the Fermi energy is     2.7205 ev

!    total energy              =   -2951.37637483 Ry
     estimated scf accuracy    <       0.00000005 Ry
     smearing contrib. (-TS)   =      -0.01736326 Ry
     internal energy E=F+TS    =   -2951.35901157 Ry

     The total energy is F=E-TS. E is the sum of the following terms:
     one-electron contribution =  -24269.84491732 Ry
     hartree contribution      =   12220.87244057 Ry
     xc contribution           =    -487.04437705 Ry
     ewald contribution        =    9584.65778677 Ry
     electric field correction =       0.00005547 Ry

     convergence has been achieved in  80 iterations

     Forces acting on atoms (cartesian axes, Ry/au):

     atom    1 type  1   force =     0.00006814   -0.00028180    0.10080671
     atom    2 type  1   force =    -0.00005051    0.00024381   -0.16924622
     atom    3 type  2   force =     0.00000458   -0.00004510   -0.02989753
     atom    4 type  2   force =     0.00000126   -0.00099889    0.04194895
     atom    5 type  2   force =    -0.00521602   -0.00241769   -0.00301998
     atom    6 type  2   force =     0.00636696   -0.00183595   -0.00462887
     atom    7 type  1   force =    -0.00065827   -0.00537618    0.02519298
     atom    8 type  1   force =     0.00077617    0.01605089    0.04122113
     atom    9 type  2   force =    -0.00021503    0.00026591    0.00030118
     atom   10 type  2   force =    -0.00258195    0.00083087   -0.03424854
     atom   11 type  2   force =     0.00016059    0.00002025    0.00010471
     atom   12 type  2   force =     0.00017202   -0.00036640    0.00008466
     atom   13 type  1   force =    -0.00070364   -0.00007861   -0.00031011
     atom   14 type  1   force =     0.00018267    0.00017345    0.00000629
     atom   15 type  2   force =     0.00021437    0.00008783    0.00009226
     atom   16 type  2   force =     0.00004139   -0.00019233    0.00026606
     atom   17 type  2   force =    -0.00043160   -0.00034219    0.00024242
     atom   18 type  2   force =     0.00053695   -0.00042156    0.00017684
     atom   19 type  1   force =    -0.00001391    0.00020570    0.00024844
     atom   20 type  1   force =    -0.00004359    0.00012299    0.00076980
     atom   21 type  2   force =     0.00007142    0.00015128    0.10150038
     atom   22 type  2   force =     0.00001564    0.00023593   -0.00003534
     atom   23 type  2   force =    -0.07487055   -0.00008795   -0.02880643
     atom   24 type  2   force =     0.07480155    0.00036415   -0.02883856
     atom   25 type  1   force =     0.00018846   -0.00035710    0.10066394
     atom   26 type  1   force =     0.00001352   -0.00114267   -0.16945540
     atom   27 type  2   force =     0.00004494   -0.00040002   -0.02838452
     atom   28 type  2   force =     0.00000945    0.00074381    0.03793248
     atom   29 type  2   force =    -0.00390773    0.00436060   -0.00524898
     atom   30 type  2   force =     0.00498614    0.00488470   -0.00691970
     atom   31 type  1   force =    -0.00064162    0.00466887    0.01101284
     atom   32 type  1   force =     0.00088750   -0.01905385    0.04059030
     atom   33 type  2   force =     0.00044159   -0.00000171    0.00036464
     atom   34 type  2   force =    -0.00214342    0.00070353   -0.03949950
     atom   35 type  2   force =     0.00015458   -0.00049396   -0.00010985
     atom   36 type  2   force =     0.00011585   -0.00022718    0.00013333
     atom   37 type  1   force =    -0.00004230   -0.00010035   -0.00007815
     atom   38 type  1   force =     0.00001775    0.00001655   -0.00003058
     atom   39 type  2   force =    -0.00004120    0.00035516   -0.00019411
     atom   40 type  2   force =     0.00032621   -0.00007922    0.00038888
     atom   41 type  2   force =    -0.00025494    0.00051053    0.00039242
     atom   42 type  2   force =     0.00022499    0.00043203    0.00037159
     atom   43 type  1   force =     0.00059454   -0.00006524    0.00764405
     atom   44 type  1   force =    -0.00023521    0.00020099   -0.00040971
     atom   45 type  2   force =     0.00006667   -0.00000237    0.10128195
     atom   46 type  2   force =    -0.07491772   -0.00001465   -0.02883736
     atom   47 type  2   force =     0.07483136    0.00041240   -0.02886417
     atom   48 type  3   force =    -0.00049168   -0.00002457    0.00140929
     atom   49 type  4   force =    -0.00010082    0.00001322   -0.00113102
     atom   50 type  5   force =    -0.00052620   -0.00046171    0.00032641
     atom   51 type  5   force =     0.00171914   -0.00073234   -0.00004770
     atom   52 type  2   force =    -0.01004344   -0.00055414   -0.01285053
     atom   53 type  5   force =     0.01009495    0.00010028    0.00561790

     Total force =     0.370291     Total SCF correction =     0.000479
  @ DRIVER MODE: Message from server: STATUS
  @ DRIVER MODE: Message from server: GETFORCE
  @ DRIVER MODE: Returning v,forces,stress,ensemble

     Writing output data file ./calc.save/
  @ DRIVER MODE: Message from server: EXIT
  @ DRIVE MODE: Exiting

     General routines

     Parallel routines

   This run was terminated on:   1:56:14  23Sep2021

   JOB DONE.