     Program PWSCF v.6.7GPU starts on 16Sep2021 at  8:30:10

     R & G space division:  proc/nbgrp/npool/nimage =      10
     Reading input from /storage/home/hcoda1/3/ntian30/research/carbon/CxH_vib/H2O_calc/ads_slab/CH2NNHHH2O_a/out_0050/pw.inp
Warning: card &CELL ignored
Warning: card   CELL_DYNAMICS='IPI', ignored
Warning: card / ignored

     Current dimensions of program PWSCF are:
     Max number of different atomic species (ntypx) = 10
     Max number of k-points (npk) =  40000
     Max angular momentum in pseudopotentials (lmaxx) =  3
     Presently no symmetry can be used with electric field

     Message from routine cell_base_init:
     DEPRECATED: use true lattice parameter, not A to a.u. conversion factor

     IMPORTANT: XC functional enforced from input :
     Exchange-correlation= BEEF-VDW
                           (   1   4  43  14   2   0   0)
     Any further DFT definition will be discarded
     Please, verify this is what you really want

  @ DRIVER MODE: Connecting to
 qe_1139763_2852611.sched-torque.pace.gatech.edul33w_j2l_scratch
  using UNIX socket
  @ DRIVER MODE: Message from server: STATUS
  @ DRIVER MODE: Message from server: INIT
  @ DRIVER MODE: Receiving replica           0          -1
  @ DRIVER MODE: Receiving encoded integer          25
  @ DRIVER MODE:  SCF:  T  FORCE:  T  STRESS:  F  VC:  F  ENSEMBLE:  F
  @ DRIVER MODE:  SCF:  T  FORCE:  T  STRESS:  F  VC:  F  ENSEMBLE:  F

     Using Slab Decomposition

     bravais-lattice index     =            0
     lattice parameter (alat)  =       1.8897  a.u.
     unit-cell volume          =    6658.9804 (a.u.)^3
     number of atoms/cell      =           57
     number of atomic types    =            5
     number of electrons       =       404.00
     number of Kohn-Sham states=          212
     kinetic-energy cutoff     =      29.3995  Ry
     charge density cutoff     =     293.9946  Ry
     scf convergence threshold =      7.3E-08
     mixing beta               =       0.0500
     number of iterations used =            8  plain     mixing
     Exchange-correlation= BEEF-VDW
                           (   1   4  43  14   2   0   0)

     celldm(1)=   1.889726  celldm(2)=   0.000000  celldm(3)=   0.000000
     celldm(4)=   0.000000  celldm(5)=   0.000000  celldm(6)=   0.000000

     crystal axes: (cart. coord. in units of alat)
               a(1) = (   6.579727   0.000000   0.000000 )
               a(2) = (  -0.000775   5.961596   0.000000 )
               a(3) = (   0.000000   0.000000  25.155947 )

     reciprocal axes: (cart. coord. in units 2 pi/alat)
               b(1) = (  0.151982  0.000020  0.000000 )
               b(2) = (  0.000000  0.167740  0.000000 )
               b(3) = (  0.000000  0.000000  0.039752 )

     PseudoPot. # 1 for Ti read from file:
     /storage/coda1/p-amedford6/0/shared/rich_project_chbe-medford/medford-share/data/pseudos_module/espresso/nninc/pbe/van/Ti.UPF
     MD5 check sum: 8e4df49b7f0d34bbd5052bf3f5ea0213
     Pseudo is Ultrasoft, Zval = 12.0
     Generated by new atomic code, or converted to UPF format
     Using radial grid of  851 points,  6 beta functions with:
                l(1) =   0
                l(2) =   0
                l(3) =   1
                l(4) =   1
                l(5) =   2
                l(6) =   2
     Q(r) pseudized with  8 coefficients,  rinner =    1.000   1.000   1.000
                                                       1.000   1.000

     PseudoPot. # 2 for O  read from file:
     /storage/coda1/p-amedford6/0/shared/rich_project_chbe-medford/medford-share/data/pseudos_module/espresso/nninc/pbe/van/O.UPF
     MD5 check sum: 78c19812648e8988a0fe644b0f25305e
     Pseudo is Ultrasoft, Zval =  6.0
     Generated by new atomic code, or converted to UPF format
     Using radial grid of  737 points,  4 beta functions with:
                l(1) =   0
                l(2) =   0
                l(3) =   1
                l(4) =   1
     Q(r) pseudized with  8 coefficients,  rinner =    0.800   0.800   0.800

     PseudoPot. # 3 for N  read from file:
     /storage/coda1/p-amedford6/0/shared/rich_project_chbe-medford/medford-share/data/pseudos_module/espresso/nninc/pbe/van/N.UPF
     MD5 check sum: 90d10febe142ad51ac9d5be1deb811c4
     Pseudo is Ultrasoft, Zval =  5.0
     Generated by new atomic code, or converted to UPF format
     Using radial grid of  729 points,  4 beta functions with:
                l(1) =   0
                l(2) =   0
                l(3) =   1
                l(4) =   1
     Q(r) pseudized with  8 coefficients,  rinner =    0.800   0.800   0.800

     PseudoPot. # 4 for C  read from file:
     /storage/coda1/p-amedford6/0/shared/rich_project_chbe-medford/medford-share/data/pseudos_module/espresso/nninc/pbe/van/C.UPF
     MD5 check sum: 1a69bf6b8db32088f5b2163dbdb77a27
     Pseudo is Ultrasoft, Zval =  4.0
     Generated by new atomic code, or converted to UPF format
     Using radial grid of  721 points,  4 beta functions with:
                l(1) =   0
                l(2) =   0
                l(3) =   1
                l(4) =   1
     Q(r) pseudized with  8 coefficients,  rinner =    0.800   0.800   0.800

     PseudoPot. # 5 for H  read from file:
     /storage/coda1/p-amedford6/0/shared/rich_project_chbe-medford/medford-share/data/pseudos_module/espresso/nninc/pbe/van/H.UPF
     MD5 check sum: b5ee9d7bfd3a09ee7748110bda690ff7
     Pseudo is Ultrasoft, Zval =  1.0
     Generated by new atomic code, or converted to UPF format
     Using radial grid of  615 points,  1 beta functions with:
                l(1) =   0
     Q(r) pseudized with  8 coefficients,  rinner =    0.800

     atomic species   valence    mass     pseudopotential
        Ti1           12.00    47.86700     Ti( 1.00)
        O1             6.00    15.99900     O ( 1.00)
        N1             5.00    14.00700     N ( 1.00)
        C1             4.00    12.01100     C ( 1.00)
        H1             1.00     1.00800     H ( 1.00)

     No symmetry found

   Cartesian axes

     site n.     atom                  positions (alat units)
         1           Ti1 tau(   1) = (   0.0004258   2.9801865   6.0000000  )
         2           Ti1 tau(   2) = (   3.2906075   1.4906267   6.0002472  )
         3           O1  tau(   3) = (   0.0006271   0.0005054   7.9858123  )
         4           O1  tau(   4) = (   3.2906025   0.0005020   7.3038282  )
         5           O1  tau(   5) = (   4.5942328   1.4918067   9.2879030  )
         6           O1  tau(   6) = (   1.9868534   1.4903216   9.2879459  )
         7           Ti1 tau(   7) = (   3.2907910   2.8959150   9.1758416  )
         8           Ti1 tau(   8) = (   0.0015273   1.4827037   9.2680791  )
         9           O1  tau(   9) = (   3.3121314   5.9338840  11.3691909  )
        10           O1  tau(  10) = (   0.0116148   5.9584955  10.6183126  )
        11           O1  tau(  11) = (   1.3134021   1.4784130  12.6451072  )
        12           O1  tau(  12) = (   5.3172625   1.4801399  12.6491864  )
        13           Ti1 tau(  13) = (   0.0380378   2.9573341  12.5222382  )
        14           Ti1 tau(  14) = (   3.3404755   1.4532591  12.5245293  )
        15           O1  tau(  15) = (   0.0239237   0.0366503  14.6894071  )
        16           O1  tau(  16) = (   3.3255740   5.9570089  14.0129324  )
        17           O1  tau(  17) = (   4.5846449   1.4795273  16.1858442  )
        18           O1  tau(  18) = (   2.0539891   1.4908220  16.1938258  )
        19           Ti1 tau(  19) = (   3.3028508   2.9322526  15.7076921  )
        20           Ti1 tau(  20) = (   0.0088316   1.3655950  16.0522487  )
        21           O1  tau(  21) = (   3.2904802   0.0005063   4.7018136  )
        22           O1  tau(  22) = (   0.0586005   5.8320325  17.2288864  )
        23           O1  tau(  23) = (   1.3043587   1.4918075   6.0039043  )
        24           O1  tau(  24) = (   5.2767064   1.4903225   6.0039473  )
        25           Ti1 tau(  25) = (   0.0000382   5.9609847   6.0000000  )
        26           Ti1 tau(  26) = (   3.2902200   4.4714249   6.0002472  )
        27           O1  tau(  27) = (   0.0002396   2.9813036   7.9858123  )
        28           O1  tau(  28) = (   3.2902150   2.9813002   7.3038282  )
        29           O1  tau(  29) = (   4.5938453   4.4726049   9.2879030  )
        30           O1  tau(  30) = (   1.9864658   4.4711199   9.2879459  )
        31           Ti1 tau(  31) = (   3.2891106   5.8743827   9.1763621  )
        32           Ti1 tau(  32) = (   0.0006254   4.4649316   9.2693709  )
        33           O1  tau(  33) = (   3.3142679   2.9660735  11.3641874  )
        34           O1  tau(  34) = (   0.0092240   2.9805883  10.6323155  )
        35           O1  tau(  35) = (   1.3108675   4.4558178  12.6782323  )
        36           O1  tau(  36) = (   5.3175068   4.4537340  12.6790822  )
        37           Ti1 tau(  37) = (   0.0418451   5.9490355  12.4996082  )
        38           Ti1 tau(  38) = (   3.3402151   4.4429940  12.5219265  )
        39           O1  tau(  39) = (   0.0332256   2.9148708  14.9327709  )
        40           O1  tau(  40) = (   3.3156017   2.9437717  13.9283311  )
        41           O1  tau(  41) = (   4.5915719   4.3868214  16.1197993  )
        42           O1  tau(  42) = (   2.0539401   4.4017640  16.0846163  )
        43           Ti1 tau(  43) = (   3.3369130   5.9116756  15.8392261  )
        44           Ti1 tau(  44) = (   0.0533093   4.5818758  15.8415549  )
        45           O1  tau(  45) = (   3.2900926   2.9813045   4.7018136  )
        46           O1  tau(  46) = (   1.3039711   4.4726057   6.0039043  )
        47           O1  tau(  47) = (   5.2763189   4.4711207   6.0039473  )
        48           N1  tau(  48) = (   6.5287229   2.7802708  18.1865785  )
        49           C1  tau(  49) = (   0.9724842   2.7744648  18.9576868  )
        50           H1  tau(  50) = (   0.9153086   3.0669255  20.0057840  )
        51           H1  tau(  51) = (   1.9225290   2.4867234  18.5393133  )
        52           N1  tau(  52) = (   5.2958906   3.1014149  18.7352402  )
        53           H1  tau(  53) = (   5.3913054   3.6367428  19.5974321  )
        54           H1  tau(  54) = (   4.7863746   3.6605970  18.0522289  )
        55           O1  tau(  55) = (   3.2511457   5.8152340  18.3397965  )
        56           H1  tau(  56) = (   3.7567739   0.6636339  18.5518981  )
        57           H1  tau(  57) = (   2.3053106   0.0674530  18.4201010  )

     number of k points=    10  Fermi-Dirac smearing, width (Ry)=  0.0073
                       cart. coord. in units 2pi/alat
        k(    1) = (   0.0000000   0.0000000   0.0000000), wk =   0.1250000
        k(    2) = (   0.0000000   0.0419351   0.0000000), wk =   0.2500000
        k(    3) = (   0.0000000  -0.0838702   0.0000000), wk =   0.1250000
        k(    4) = (   0.0379955   0.0000049   0.0000000), wk =   0.2500000
        k(    5) = (   0.0379955   0.0419400   0.0000000), wk =   0.2500000
        k(    6) = (   0.0379955  -0.0838652   0.0000000), wk =   0.2500000
        k(    7) = (   0.0379955  -0.0419301   0.0000000), wk =   0.2500000
        k(    8) = (  -0.0759910  -0.0000099   0.0000000), wk =   0.1250000
        k(    9) = (  -0.0759910   0.0419252   0.0000000), wk =   0.2500000
        k(   10) = (  -0.0759910  -0.0838800   0.0000000), wk =   0.1250000

     Initial potential from superposition of free atoms

     starting charge  387.99913, renormalised to  404.00000

     negative rho (up, down):  1.527E-02 0.000E+00

     %%%%%%%%%%%%%%%%%%%%%%%%%%%%%%%%%%%%%%%%%%%%%%%%%%%%%%%%%%%%%%%%%%%%%%%%
     %                                                                      %
     % You are using vdW-DF, which was implemented by the Thonhauser group. %
     % Please cite the following two papers that made this development      %
     % possible and the two reviews that describe the various versions:     %
     %                                                                      %
     %   T. Thonhauser et al., PRL 115, 136402 (2015).                      %
     %   T. Thonhauser et al., PRB 76, 125112 (2007).                       %
     %   K. Berland et al., Rep. Prog. Phys. 78, 066501 (2015).             %
     %   D.C. Langreth et al., J. Phys.: Condens. Matter 21, 084203 (2009). %
     %                                                                      %
     %                                                                      %
     % If you are calculating the stress with vdW-DF, please also cite:     %
     %                                                                      %
     %   R. Sabatini et al., J. Phys.: Condens. Matter 24, 424209 (2012).   %
     %                                                                      %
     %%%%%%%%%%%%%%%%%%%%%%%%%%%%%%%%%%%%%%%%%%%%%%%%%%%%%%%%%%%%%%%%%%%%%%%%

     Adding external electric field

     Computed dipole along edir(3) :
        Dipole              -14.3244 Ry au,        -36.4090 Debye
        Dipole field         -0.0270 Ry au,

        Potential amp.        2.5058 Ry
        Total length         46.3494 bohr

     Starting wfcs are  306 atomic wfcs
  @ DRIVER MODE: Message from server: STATUS
  @ DRIVER MODE: Message from server: POSDATA
  @ DRIVER MODE: Reading and sharing cell
  @ DRIVER MODE: Reading and sharing positions
  @ DRIVER MODE: Received positions

     Self-consistent Calculation

     iteration #  1     ecut=    29.40 Ry     beta= 0.05
     Davidson diagonalization with overlap
     c_bands:  4 eigenvalues not converged
     c_bands:  3 eigenvalues not converged
     c_bands:  5 eigenvalues not converged
     c_bands:  1 eigenvalues not converged
     c_bands:  2 eigenvalues not converged
     c_bands:  1 eigenvalues not converged
     c_bands:  2 eigenvalues not converged
     c_bands:  1 eigenvalues not converged
     c_bands:  5 eigenvalues not converged
     ethr =  1.00E-05,  avg # of iterations = 24.6

[...]

     total energy              =   -2233.94981086 Ry
     estimated scf accuracy    <    8445.38770664 Ry

     iteration #  2     ecut=    29.40 Ry     beta= 0.05
     Davidson diagonalization with overlap
     ethr =  1.00E-02,  avg # of iterations = 27.2

[...]

     iteration # 84     ecut=    29.40 Ry     beta= 0.05
     Davidson diagonalization with overlap
     c_bands:  2 eigenvalues not converged
     c_bands:  1 eigenvalues not converged
     ethr =  2.34E-11,  avg # of iterations = 18.4

[...]

     total energy              =   -2975.20591527 Ry
     estimated scf accuracy    <       0.00000009 Ry

     iteration # 85     ecut=    29.40 Ry     beta= 0.05
     Davidson diagonalization with overlap
     ethr =  2.19E-11,  avg # of iterations = 12.2

     negative rho (up, down):  1.520E-02 0.000E+00

     Adding external electric field

     Computed dipole along edir(3) :
        Dipole                1.4013 Ry au,          3.5616 Debye
        Dipole field          0.0026 Ry au,

        Potential amp.       -0.2451 Ry
        Total length         46.3494 bohr

     End of self-consistent calculation

          k = 0.0000 0.0000 0.0000 ( 18029 PWs)   bands (ev):

   -55.1885 -55.1526 -55.1490 -55.1149 -55.1008 -55.0692 -55.0352 -55.0311
   -55.0074 -54.9780 -54.9724 -54.9691 -54.9444 -54.8740 -54.1722 -54.1382
   -31.7538 -31.6406 -31.5991 -31.5578 -31.5070 -31.4968 -31.4898 -31.4826
   -31.4381 -31.4034 -31.3999 -31.3936 -31.3914 -31.3651 -31.3423 -31.3334
   -31.3325 -31.3262 -31.3067 -31.3009 -31.2814 -31.2768 -31.2620 -31.2482
   -31.2374 -31.2349 -31.2143 -31.2080 -31.2061 -31.1993 -31.1935 -31.1757
   -31.1710 -31.1606 -31.1556 -31.1427 -31.1216 -31.1175 -31.1061 -31.0894
   -31.0885 -31.0037 -30.5813 -30.4878 -30.4657 -30.3977 -30.3110 -30.2000
   -18.8776 -18.5447 -16.0143 -15.7492 -15.6132 -15.5032 -15.3875 -15.2577
   -15.2100 -15.0788 -15.0193 -14.9058 -14.8781 -14.8354 -14.8168 -14.8113
   -14.7534 -14.7259 -14.7192 -14.6937 -14.6836 -14.6621 -14.6228 -14.6164
   -14.5807 -14.5695 -14.5658 -14.4207 -14.3432 -14.2789 -13.9681 -13.6691
   -12.6746 -12.5572  -8.8001  -6.7004  -6.4629  -6.0614  -4.1427  -3.3571
    -3.2018  -3.1864  -3.1235  -3.0856  -3.0705  -2.9907  -2.9394  -2.7321
    -2.6014  -2.5742  -2.4552  -2.3891  -2.3842  -2.3311  -2.1887  -2.1841
    -2.1287  -2.0888  -2.0390  -2.0185  -1.9958  -1.9721  -1.9377  -1.9186
    -1.8918  -1.7571  -1.7370  -1.6625  -1.6009  -1.5904  -1.5322  -1.5084
    -1.4894  -1.4829  -1.4756  -1.4614  -1.4243  -1.4102  -1.3673  -1.3100
    -1.2075  -1.1195  -1.0268  -0.9480  -0.8841  -0.8233  -0.7615  -0.7523
    -0.6754  -0.6630  -0.5720  -0.5486  -0.5181  -0.4052  -0.3414  -0.3385
    -0.2753  -0.1735  -0.1448  -0.1281  -0.0572   0.0209   0.0398   0.0475
     0.0556   0.1793   0.2324   0.2646   0.2981   0.3688   0.3904   0.4398
     0.4865   0.4931   0.5725   0.6321   0.6862   0.7355   0.7531   0.7776
     0.7953   0.8049   0.8220   0.9032   0.9259   0.9588   1.0121   1.1678
     1.3266   1.4264   1.4426   1.7604   1.7739   1.8507   2.0351   2.4260
     2.4740   3.9074   3.9844   4.0433   4.0496   4.0587   4.1447   4.3892
     4.4047   4.4176   4.4297   4.4735

[...]

          k = 0.0380-0.0419 0.0000 ( 17876 PWs)   bands (ev):

[...]

          k =-0.0760-0.0000 0.0000 ( 17886 PWs)   bands (ev):

[...]

          k =-0.0760-0.0839 0.0000 ( 17948 PWs)   bands (ev):

   -55.1714 -55.1694 -55.1319 -55.1318 -55.0984 -55.0583 -55.0420 -55.0332
   -54.9930 -54.9864 -54.9712 -54.9616 -54.9611 -54.8759 -54.1552 -54.1551
   -31.5631 -31.5529 -31.5240 -31.4558 -31.4556 -31.4492 -31.4401 -31.4235
   -31.4233 -31.4021 -31.3913 -31.3885 -31.3761 -31.3502 -31.3260 -31.3204
   -31.3203 -31.3200 -31.3176 -31.3082 -31.3024 -31.2841 -31.2709 -31.2681
   -31.2543 -31.2515 -31.2514 -31.2505 -31.2407 -31.2363 -31.2265 -31.2249
   -31.2171 -31.2061 -31.2002 -31.1903 -31.1890 -31.1525 -31.1416 -31.1413
   -31.0976 -31.0900 -30.4784 -30.4784 -30.3939 -30.3937 -30.3544 -30.3544
   -18.8750 -18.5442 -15.5315 -15.4849 -15.3294 -15.1950 -15.1918 -15.1516
   -15.0960 -15.0246 -15.0034 -14.9604 -14.9496 -14.9310 -14.8942 -14.8869
   -14.8605 -14.7898 -14.7803 -14.7719 -14.7380 -14.6991 -14.6884 -14.6870
   -14.6701 -14.6404 -14.6372 -14.5399 -14.5377 -14.4455 -14.3079 -13.6843
   -12.6588 -12.6587  -8.7643  -6.7000  -6.4126  -6.0895  -4.1848  -3.2059
    -2.9119  -2.7489  -2.6436  -2.5401  -2.4145  -2.4088  -2.3233  -2.3150
    -2.2342  -2.1998  -2.1876  -2.1718  -2.0808  -2.0671  -2.0566  -2.0351
    -2.0188  -2.0007  -1.9690  -1.9628  -1.9390  -1.9125  -1.9022  -1.9006
    -1.8814  -1.8483  -1.8172  -1.7979  -1.7776  -1.7470  -1.7350  -1.6663
    -1.6274  -1.5398  -1.5050  -1.3901  -1.3881  -1.3663  -1.3083  -1.2912
    -1.2701  -1.2212  -1.2119  -1.1658  -1.0236  -0.9369  -0.9261  -0.8881
    -0.8380  -0.7905  -0.7434  -0.7281  -0.6616  -0.6409  -0.5481  -0.5325
    -0.4305  -0.3890  -0.3773  -0.3616  -0.2784  -0.2149  -0.1680  -0.1481
    -0.1436  -0.0926  -0.0787  -0.0654   0.0063   0.0535   0.0773   0.0919
     0.1334   0.3018   0.3621   0.3755   0.4949   0.5439   0.6478   0.7081
     0.7838   0.8041   0.8402   0.9305   0.9371   1.0137   1.1084   1.1224
     1.1585   1.2031   1.2520   1.2748   1.2797   2.2081   2.2094   2.2939
     2.2941   4.0514   4.1276   4.1856   4.2336   4.2420   4.3630   4.4248
     4.4675   4.4898   4.4916   4.5663

     the Fermi energy is     3.9655 ev

!    total energy              =   -2975.20592346 Ry
     estimated scf accuracy    <       0.00000002 Ry
     smearing contrib. (-TS)   =      -0.03732194 Ry
     internal energy E=F+TS    =   -2975.16860152 Ry

     The total energy is F=E-TS. E is the sum of the following terms:
     one-electron contribution =  -23538.13520538 Ry
     hartree contribution      =   11867.08886211 Ry
     xc contribution           =    -494.96721055 Ry
     ewald contribution        =    9190.84124686 Ry
     electric field correction =       0.00370543 Ry

     convergence has been achieved in  85 iterations

     Forces acting on atoms (cartesian axes, Ry/au):

     atom    1 type  1   force =     0.00006460   -0.00019907    0.09355099
     atom    2 type  1   force =    -0.00021079   -0.00021538   -0.17805667
     atom    3 type  2   force =     0.00011080   -0.00020818   -0.02067188
     atom    4 type  2   force =     0.00004946   -0.00197667    0.05806777
     atom    5 type  2   force =    -0.01001849   -0.00167010    0.00694360
     atom    6 type  2   force =     0.01216514   -0.00103783    0.00745640
     atom    7 type  1   force =     0.00022366    0.00248145   -0.01207617
     atom    8 type  1   force =    -0.00049561    0.00202438   -0.00192581
     atom    9 type  2   force =     0.00006917    0.00006078   -0.00005173
     atom   10 type  2   force =    -0.00044165   -0.00135481   -0.00315453
     atom   11 type  2   force =     0.00016449   -0.00008611   -0.00007430
     atom   12 type  2   force =    -0.00067437   -0.00012629    0.00008583
     atom   13 type  1   force =     0.00052049    0.00098267    0.00023688
     atom   14 type  1   force =    -0.00140662    0.00026317    0.00015994
     atom   15 type  2   force =    -0.00018693    0.00094190    0.00023662
     atom   16 type  2   force =    -0.00000977   -0.00043526    0.00012503
     atom   17 type  2   force =     0.00075306    0.00003541   -0.00020501
     atom   18 type  2   force =     0.00052235    0.00016846   -0.00042140
     atom   19 type  1   force =    -0.00123842    0.00091742    0.00054154
     atom   20 type  1   force =     0.00067982   -0.00002061   -0.00090079
     atom   21 type  2   force =     0.00001265   -0.00001966    0.10385837
     atom   22 type  2   force =     0.00003314    0.00089158   -0.00002840
     atom   23 type  2   force =    -0.07053788   -0.00011963   -0.02697352
     atom   24 type  2   force =     0.07047529    0.00030782   -0.02703502
     atom   25 type  1   force =     0.00001761   -0.00018685    0.09301111
     atom   26 type  1   force =    -0.00010275   -0.00048474   -0.17797675
     atom   27 type  2   force =     0.00017151   -0.00036306   -0.01955220
     atom   28 type  2   force =     0.00011003   -0.00160302    0.05714657
     atom   29 type  2   force =    -0.01006459   -0.00086220    0.00632170
     atom   30 type  2   force =     0.01212967   -0.00061675    0.00688110
     atom   31 type  1   force =     0.00031968    0.00502799   -0.01524760
     atom   32 type  1   force =    -0.00038995   -0.00266997   -0.00234945
     atom   33 type  2   force =    -0.00003125   -0.00025827   -0.00005178
     atom   34 type  2   force =     0.00046231    0.00031845   -0.00054687
     atom   35 type  2   force =    -0.00010896   -0.00036398   -0.00006986
     atom   36 type  2   force =    -0.00045433   -0.00035701    0.00024882
     atom   37 type  1   force =     0.00027555   -0.00104003    0.00050791
     atom   38 type  1   force =    -0.00122602    0.00025881    0.00128266
     atom   39 type  2   force =    -0.00013206   -0.00046357    0.00026631
     atom   40 type  2   force =     0.00003498   -0.00041798    0.00044827
     atom   41 type  2   force =    -0.00013625   -0.00002174    0.00009485
     atom   42 type  2   force =     0.00126538   -0.00025576    0.00004103
     atom   43 type  1   force =    -0.00130934   -0.00069682    0.00007055
     atom   44 type  1   force =     0.00096450    0.00057242   -0.00004519
     atom   45 type  2   force =     0.00004111   -0.00002087    0.10379657
     atom   46 type  2   force =    -0.07056717   -0.00007195   -0.02698091
     atom   47 type  2   force =     0.07047348    0.00039259   -0.02701303
     atom   48 type  3   force =    -0.00051864    0.00007855    0.00086846
     atom   49 type  4   force =     0.00060841    0.00055142   -0.00029975
     atom   50 type  5   force =    -0.00045587    0.00006144   -0.00055351
     atom   51 type  5   force =    -0.00040659   -0.00011563   -0.00001273
     atom   52 type  3   force =    -0.00032010    0.00054636    0.00000377
     atom   53 type  5   force =     0.00019045    0.00051159   -0.00029307
     atom   54 type  5   force =    -0.00060566    0.00074960    0.00017562
     atom   55 type  2   force =     0.00536754    0.00669680    0.00132488
     atom   56 type  5   force =    -0.00697066   -0.00774226   -0.00111974
     atom   57 type  5   force =     0.00074440    0.00124102   -0.00006546

     Total force =     0.365995     Total SCF correction =     0.000378
  @ DRIVER MODE: Message from server: STATUS
  @ DRIVER MODE: Message from server: GETFORCE
  @ DRIVER MODE: Returning v,forces,stress,ensemble

     Writing output data file ./calc.save/
  @ DRIVER MODE: Message from server: EXIT
  @ DRIVE MODE: Exiting

     General routines

     Parallel routines

   This run was terminated on:   8:52:56  16Sep2021

   JOB DONE.