     Program PWSCF v.6.7GPU starts on 19Oct2021 at  2: 5:37

     R & G space division:  proc/nbgrp/npool/nimage =       8
     Reading input from /storage/home/hcoda1/3/ntian30/research/carbon/CxH_vib/Thiel_calc/ads_slab/NNH2HH_perslab/out_0030/pw.inp
Warning: card &CELL ignored
Warning: card   CELL_DYNAMICS='IPI', ignored
Warning: card / ignored

     Current dimensions of program PWSCF are:
     Max number of different atomic species (ntypx) = 10
     Max number of k-points (npk) =  40000
     Max angular momentum in pseudopotentials (lmaxx) =  3
     Presently no symmetry can be used with electric field

     Message from routine cell_base_init:
     DEPRECATED: use true lattice parameter, not A to a.u. conversion factor

     IMPORTANT: XC functional enforced from input :
     Exchange-correlation= BEEF-VDW
                           (   1   4  43  14   2   0   0)
     Any further DFT definition will be discarded
     Please, verify this is what you really want

  @ DRIVER MODE: Connecting to
 qe_1139763_3255133.sched-torque.pace.gatech.edum38npov9_scratch
  using UNIX socket
  @ DRIVER MODE: Message from server: STATUS
  @ DRIVER MODE: Message from server: INIT
  @ DRIVER MODE: Receiving replica           0          -1
  @ DRIVER MODE: Receiving encoded integer          25
  @ DRIVER MODE:  SCF:  T  FORCE:  T  STRESS:  F  VC:  F  ENSEMBLE:  F
  @ DRIVER MODE:  SCF:  T  FORCE:  T  STRESS:  F  VC:  F  ENSEMBLE:  F

     Using Slab Decomposition

     bravais-lattice index     =            0
     lattice parameter (alat)  =       1.8897  a.u.
     unit-cell volume          =    9988.4706 (a.u.)^3
     number of atoms/cell      =           59
     number of atomic types    =            4
     number of electrons       =       440.00
     number of Kohn-Sham states=          230
     kinetic-energy cutoff     =      29.3995  Ry
     charge density cutoff     =     293.9946  Ry
     scf convergence threshold =      7.3E-08
     mixing beta               =       0.0500
     number of iterations used =            8  plain     mixing
     Exchange-correlation= BEEF-VDW
                           (   1   4  43  14   2   0   0)

     celldm(1)=   1.889726  celldm(2)=   0.000000  celldm(3)=   0.000000
     celldm(4)=   0.000000  celldm(5)=   0.000000  celldm(6)=   0.000000

     crystal axes: (cart. coord. in units of alat)
               a(1) = (   6.579727   0.000000   0.000000 )
               a(2) = (  -0.001163   8.942395   0.000000 )
               a(3) = (   0.000000   0.000000  25.155947 )

     reciprocal axes: (cart. coord. in units 2 pi/alat)
               b(1) = (  0.151982  0.000020  0.000000 )
               b(2) = (  0.000000  0.111827  0.000000 )
               b(3) = (  0.000000  0.000000  0.039752 )

     PseudoPot. # 1 for O  read from file:
     /storage/coda1/p-amedford6/0/shared/rich_project_chbe-medford/medford-share/data/pseudos_module/espresso/nninc/pbe/van/O.UPF
     MD5 check sum: 78c19812648e8988a0fe644b0f25305e
     Pseudo is Ultrasoft, Zval =  6.0
     Generated by new atomic code, or converted to UPF format
     Using radial grid of  737 points,  4 beta functions with:
                l(1) =   0
                l(2) =   0
                l(3) =   1
                l(4) =   1
     Q(r) pseudized with  8 coefficients,  rinner =    0.800   0.800   0.800

     PseudoPot. # 2 for Ti read from file:
     /storage/coda1/p-amedford6/0/shared/rich_project_chbe-medford/medford-share/data/pseudos_module/espresso/nninc/pbe/van/Ti.UPF
     MD5 check sum: 8e4df49b7f0d34bbd5052bf3f5ea0213
     Pseudo is Ultrasoft, Zval = 12.0
     Generated by new atomic code, or converted to UPF format
     Using radial grid of  851 points,  6 beta functions with:
                l(1) =   0
                l(2) =   0
                l(3) =   1
                l(4) =   1
                l(5) =   2
                l(6) =   2
     Q(r) pseudized with  8 coefficients,  rinner =    1.000   1.000   1.000
                                                       1.000   1.000

     PseudoPot. # 3 for H  read from file:
     /storage/coda1/p-amedford6/0/shared/rich_project_chbe-medford/medford-share/data/pseudos_module/espresso/nninc/pbe/van/H.UPF
     MD5 check sum: b5ee9d7bfd3a09ee7748110bda690ff7
     Pseudo is Ultrasoft, Zval =  1.0
     Generated by new atomic code, or converted to UPF format
     Using radial grid of  615 points,  1 beta functions with:
                l(1) =   0
     Q(r) pseudized with  8 coefficients,  rinner =    0.800

     PseudoPot. # 4 for N  read from file:
     /storage/coda1/p-amedford6/0/shared/rich_project_chbe-medford/medford-share/data/pseudos_module/espresso/nninc/pbe/van/N.UPF
     MD5 check sum: 90d10febe142ad51ac9d5be1deb811c4
     Pseudo is Ultrasoft, Zval =  5.0
     Generated by new atomic code, or converted to UPF format
     Using radial grid of  729 points,  4 beta functions with:
                l(1) =   0
                l(2) =   0
                l(3) =   1
                l(4) =   1
     Q(r) pseudized with  8 coefficients,  rinner =    0.800   0.800   0.800

     atomic species   valence    mass     pseudopotential
        O1             6.00    15.99900     O ( 1.00)
        Ti1           12.00    47.86700     Ti( 1.00)
        H1             1.00     1.00800     H ( 1.00)
        N1             5.00    14.00700     N ( 1.00)

     No symmetry found

   Cartesian axes

     site n.     atom                  positions (alat units)
         1           O1  tau(   1) = (   0.0007354   0.0005023  10.5931620  )
         2           O1  tau(   2) = (   3.3122003   8.9411730  13.9078397  )
         3           O1  tau(   3) = (   0.0119464   0.1585559  17.3480684  )
         4           O1  tau(   4) = (   0.0006271   0.0005054   7.9858123  )
         5           O1  tau(   5) = (   3.2844644   8.9346379  11.1901754  )
         6           O1  tau(   6) = (   6.5618141   0.0157575  14.6617184  )
         7           O1  tau(   7) = (   1.9868534   1.4903216   9.2879459  )
         8           O1  tau(   8) = (   5.2413352   1.5994427  12.5710249  )
         9           O1  tau(   9) = (   2.0249271   1.5994163  16.0383581  )
        10           Ti1 tau(  10) = (   0.0007404   1.4906270   9.2895810  )
        11           Ti1 tau(  11) = (   3.2875257   1.3541315  12.5031546  )
        12           Ti1 tau(  12) = (   0.1037617   1.4803996  15.8781706  )
        13           O1  tau(  13) = (   4.5942328   1.4918067   9.2879030  )
        14           O1  tau(  14) = (   1.3445879   1.6225681  12.6047105  )
        15           O1  tau(  15) = (   4.5270247   1.5277052  16.0690704  )
        16           Ti1 tau(  16) = (   3.2902859   2.9801868   9.2893338  )
        17           Ti1 tau(  17) = (   6.5717848   2.8351652  12.4611715  )
        18           Ti1 tau(  18) = (   3.3615503   2.9380122  15.7113248  )
        19           O1  tau(  19) = (   0.0003479   2.9813005  10.5931620  )
        20           O1  tau(  20) = (   3.3257229   2.9884659  13.9122956  )
        21           O1  tau(  21) = (   0.0002396   2.9813036   7.9858123  )
        22           O1  tau(  22) = (   3.2846765   2.9682620  11.1924388  )
        23           O1  tau(  23) = (   6.5193973   3.0012958  14.6893217  )
        24           O1  tau(  24) = (   1.9864658   4.4711199   9.2879459  )
        25           O1  tau(  25) = (   5.2358842   4.5821056  12.5715879  )
        26           O1  tau(  26) = (   1.9668816   4.5963109  15.9958849  )
        27           Ti1 tau(  27) = (   0.0003529   4.4714252   9.2895810  )
        28           Ti1 tau(  28) = (   3.2817300   4.3379106  12.5030846  )
        29           Ti1 tau(  29) = (   6.5286400   4.3105241  16.0387364  )
        30           O1  tau(  30) = (   4.5938453   4.4726049   9.2879030  )
        31           O1  tau(  31) = (   1.3350840   4.5883300  12.6034823  )
        32           O1  tau(  32) = (   4.4768606   4.5746599  16.1328061  )
        33           Ti1 tau(  33) = (   3.2898983   5.9609850   9.2893338  )
        34           Ti1 tau(  34) = (   6.5687693   5.8095266  12.4696282  )
        35           Ti1 tau(  35) = (   3.1936624   5.9077503  15.7132784  )
        36           O1  tau(  36) = (  -0.0000397   5.9620987  10.5931620  )
        37           O1  tau(  37) = (   3.2950800   5.9615338  13.9080848  )
        38           O1  tau(  38) = (   6.5705097   6.0321180  17.3127682  )
        39           O1  tau(  39) = (  -0.0001480   5.9621018   7.9858123  )
        40           O1  tau(  40) = (   3.2829949   5.9473389  11.1919414  )
        41           O1  tau(  41) = (   6.5313079   6.0695169  14.6234680  )
        42           O1  tau(  42) = (   1.9860782   7.4519181   9.2879459  )
        43           O1  tau(  43) = (   5.2305909   7.5696458  12.5615615  )
        44           O1  tau(  44) = (   1.9930026   7.5537276  16.0441964  )
        45           Ti1 tau(  45) = (  -0.0000347   7.4522234   9.2895810  )
        46           Ti1 tau(  46) = (   3.2809715   7.3153274  12.5063831  )
        47           Ti1 tau(  47) = (  -0.0000777   7.3827053  15.8005402  )
        48           O1  tau(  48) = (   4.5934577   7.4534031   9.2879030  )
        49           O1  tau(  49) = (   1.3440923   7.5800077  12.5804573  )
        50           O1  tau(  50) = (   4.5564015   7.5743432  16.1458831  )
        51           Ti1 tau(  51) = (   3.2895107   8.9417832   9.2893338  )
        52           Ti1 tau(  52) = (   6.5681474   8.7932977  12.4619754  )
        53           Ti1 tau(  53) = (   3.3227810   8.9003220  15.7121742  )
        54           H1  tau(  54) = (   5.8375475   6.1301351  17.9339333  )
        55           H1  tau(  55) = (   5.7673184   0.1799947  17.8523786  )
        56           H1  tau(  56) = (   0.0490247   3.6154164  19.2291769  )
        57           N1  tau(  57) = (   6.4107751   2.7916545  18.6713363  )
        58           N1  tau(  58) = (   6.5444414   3.0434393  17.3442366  )
        59           H1  tau(  59) = (   0.3957958   1.9971216  18.9670883  )

     number of k points=    10  Fermi-Dirac smearing, width (Ry)=  0.0073
                       cart. coord. in units 2pi/alat
        k(    1) = (   0.0000000   0.0000000   0.0000000), wk =   0.1250000
        k(    2) = (   0.0000000   0.0279567   0.0000000), wk =   0.2500000
        k(    3) = (   0.0000000  -0.0559134   0.0000000), wk =   0.1250000
        k(    4) = (   0.0379955   0.0000049   0.0000000), wk =   0.2500000
        k(    5) = (   0.0379955   0.0279617   0.0000000), wk =   0.2500000
        k(    6) = (   0.0379955  -0.0559085   0.0000000), wk =   0.2500000
        k(    7) = (   0.0379955  -0.0279518   0.0000000), wk =   0.2500000
        k(    8) = (  -0.0759910  -0.0000099   0.0000000), wk =   0.1250000
        k(    9) = (  -0.0759910   0.0279468   0.0000000), wk =   0.2500000
        k(   10) = (  -0.0759910  -0.0559233   0.0000000), wk =   0.1250000

     Initial potential from superposition of free atoms

     starting charge  421.99910, renormalised to  440.00000

     negative rho (up, down):  3.725E-02 0.000E+00

     %%%%%%%%%%%%%%%%%%%%%%%%%%%%%%%%%%%%%%%%%%%%%%%%%%%%%%%%%%%%%%%%%%%%%%%%
     %                                                                      %
     % You are using vdW-DF, which was implemented by the Thonhauser group. %
     % Please cite the following two papers that made this development      %
     % possible and the two reviews that describe the various versions:     %
     %                                                                      %
     %   T. Thonhauser et al., PRL 115, 136402 (2015).                      %
     %   T. Thonhauser et al., PRB 76, 125112 (2007).                       %
     %   K. Berland et al., Rep. Prog. Phys. 78, 066501 (2015).             %
     %   D.C. Langreth et al., J. Phys.: Condens. Matter 21, 084203 (2009). %
     %                                                                      %
     %                                                                      %
     % If you are calculating the stress with vdW-DF, please also cite:     %
     %                                                                      %
     %   R. Sabatini et al., J. Phys.: Condens. Matter 24, 424209 (2012).   %
     %                                                                      %
     %%%%%%%%%%%%%%%%%%%%%%%%%%%%%%%%%%%%%%%%%%%%%%%%%%%%%%%%%%%%%%%%%%%%%%%%

     Adding external electric field

     Computed dipole along edir(3) :
        Dipole               -5.7881 Ry au,        -14.7119 Debye
        Dipole field         -0.0073 Ry au,

        Potential amp.        0.6750 Ry
        Total length         46.3494 bohr

     Starting wfcs are  332 atomic wfcs
  @ DRIVER MODE: Message from server: STATUS
  @ DRIVER MODE: Message from server: POSDATA
  @ DRIVER MODE: Reading and sharing cell
  @ DRIVER MODE: Reading and sharing positions
  @ DRIVER MODE: Received positions

     Self-consistent Calculation

     iteration #  1     ecut=    29.40 Ry     beta= 0.05
     Davidson diagonalization with overlap
     c_bands:  1 eigenvalues not converged
     c_bands:  2 eigenvalues not converged
     c_bands:  4 eigenvalues not converged
     c_bands:  1 eigenvalues not converged
     c_bands:  1 eigenvalues not converged
     c_bands:  5 eigenvalues not converged
     c_bands:  1 eigenvalues not converged
     c_bands:  4 eigenvalues not converged
     c_bands:  4 eigenvalues not converged
     c_bands:  4 eigenvalues not converged
     ethr =  1.00E-05,  avg # of iterations = 20.0

[...]

     total energy              =   -3276.44550677 Ry
     estimated scf accuracy    <     229.27142003 Ry

     iteration #  2     ecut=    29.40 Ry     beta= 0.05
     Davidson diagonalization with overlap
     ethr =  1.00E-02,  avg # of iterations = 16.0

[...]

     iteration # 58     ecut=    29.40 Ry     beta= 0.05
     Davidson diagonalization with overlap
     c_bands:  1 eigenvalues not converged
     ethr =  3.83E-10,  avg # of iterations =  8.3

[...]

     total energy              =   -3293.24424052 Ry
     estimated scf accuracy    <       0.00000007 Ry

     iteration # 73     ecut=    29.40 Ry     beta= 0.05
     Davidson diagonalization with overlap
     ethr =  1.70E-11,  avg # of iterations =  5.1

     negative rho (up, down):  3.569E-02 0.000E+00

     Adding external electric field

     Computed dipole along edir(3) :
        Dipole                1.5680 Ry au,          3.9855 Debye
        Dipole field          0.0020 Ry au,

        Potential amp.       -0.1829 Ry
        Total length         46.3494 bohr

     End of self-consistent calculation

          k = 0.0000 0.0000 0.0000 ( 26871 PWs)   bands (ev):

   -57.7009 -57.6935 -57.6761 -57.6742 -57.6502 -57.6079 -57.5626 -57.5236
   -57.4996 -57.4959 -57.4941 -57.4914 -57.4630 -57.4529 -56.7831 -56.7220
   -56.6978 -56.6943 -34.0978 -34.0835 -34.0816 -34.0795 -34.0554 -34.0373
   -34.0317 -34.0178 -34.0130 -33.9935 -33.9616 -33.9583 -33.9476 -33.9425
   -33.8972 -33.8945 -33.8882 -33.8809 -33.8680 -33.8448 -33.8381 -33.8271
   -33.8234 -33.8185 -33.7975 -33.7963 -33.7941 -33.7768 -33.7619 -33.7378
   -33.7353 -33.7312 -33.7200 -33.7121 -33.7035 -33.6889 -33.6842 -33.6828
   -33.6798 -33.6738 -33.6669 -33.6397 -33.2403 -33.0367 -33.0366 -33.0324
   -33.0209 -33.0177 -32.9868 -32.9761 -32.9482 -32.8855 -32.8814 -32.7478
   -19.2192 -19.0547 -18.8895 -18.5595 -18.1569 -17.9889 -17.9663 -17.9483
   -17.9086 -17.8087 -17.8075 -17.6291 -17.5708 -17.5375 -17.5084 -17.5023
   -17.4318 -17.3934 -17.3780 -17.3600 -17.3537 -17.3472 -17.3303 -17.2869
   -17.2506 -17.1956 -17.1801 -17.1446 -17.1327 -17.1310 -17.1303 -17.0621
   -16.8259 -15.1886 -15.1309 -15.1292 -12.1055  -7.9392  -6.7930  -6.5423
    -6.3541  -5.8881  -5.6718  -5.6187  -5.5376  -5.1814  -5.1674  -5.0998
    -5.0876  -5.0607  -4.9942  -4.9801  -4.9763  -4.9614  -4.8800  -4.8438
    -4.8317  -4.7854  -4.7662  -4.7128  -4.6428  -4.6329  -4.5733  -4.5369
    -4.5013  -4.4959  -4.4909  -4.4820  -4.4660  -4.4320  -4.3577  -4.3096
    -4.1732  -4.1706  -4.1156  -4.0485  -4.0206  -4.0126  -3.9529  -3.8770
    -3.8349  -3.8269  -3.7860  -3.7559  -3.7198  -3.7043  -3.6738  -3.5876
    -3.5025  -3.4558  -3.4506  -3.4153  -3.3960  -3.3440  -3.2289  -3.1740
    -3.1073  -3.0490  -2.9844  -2.9619  -2.9202  -2.8667  -2.8437  -2.7928
    -2.7710  -2.7192  -2.6790  -2.6238  -2.5318  -2.4729  -2.4677  -2.4557
    -2.4001  -2.3846  -2.3698  -2.3469  -2.3225  -2.2672  -2.2348  -2.2038
    -2.1698  -2.1380  -2.0942  -2.0589  -2.0477  -1.9398  -1.9061  -1.8779
    -1.7530  -1.7261  -1.6832  -1.6520  -1.5582  -1.5425  -1.5415  -1.4269
    -1.4112  -1.0770  -0.9962  -0.7423  -0.4718  -0.4265  -0.4257  -0.1618
    -0.1591  -0.0297   0.5601   1.2704   1.5256   1.6717   1.7300   1.7473
     1.7943   1.8791   1.8957   1.9259   1.9443   1.9793

[...]

          k = 0.0380-0.0280 0.0000 ( 26873 PWs)   bands (ev):

[...]

          k =-0.0760-0.0000 0.0000 ( 26902 PWs)   bands (ev):

[...]

          k =-0.0760-0.0559 0.0000 ( 26868 PWs)   bands (ev):

   -57.6931 -57.6928 -57.6914 -57.6666 -57.6515 -57.6072 -57.5626 -57.5170
   -57.5122 -57.4942 -57.4895 -57.4892 -57.4692 -57.4492 -56.7831 -56.7150
   -56.7116 -56.6875 -34.1761 -34.1680 -34.0828 -34.0567 -34.0478 -34.0324
   -34.0273 -34.0252 -33.9932 -33.9836 -33.9498 -33.9266 -33.8997 -33.8922
   -33.8901 -33.8760 -33.8695 -33.8421 -33.8412 -33.8370 -33.8330 -33.8313
   -33.8191 -33.8092 -33.7849 -33.7836 -33.7753 -33.7734 -33.7706 -33.7616
   -33.7523 -33.7438 -33.7309 -33.7294 -33.7175 -33.7148 -33.7117 -33.7064
   -33.6895 -33.6718 -33.6638 -33.6634 -33.2467 -33.1262 -33.0368 -33.0337
   -33.0106 -32.9880 -32.9771 -32.9288 -32.9246 -32.8619 -32.8466 -32.8428
   -19.1717 -19.0952 -18.8783 -18.2531 -18.2361 -17.9228 -17.8812 -17.8324
   -17.8285 -17.8042 -17.7337 -17.7171 -17.6835 -17.6200 -17.5359 -17.5078
   -17.4799 -17.4482 -17.4337 -17.4268 -17.4170 -17.3944 -17.3527 -17.3491
   -17.2999 -17.2528 -17.2178 -17.1679 -17.1366 -17.0871 -17.0610 -17.0343
   -16.8596 -15.1867 -15.1845 -15.0678 -12.1040  -7.9422  -6.7856  -6.5665
    -6.3115  -5.5010  -5.4917  -5.4839  -5.4352  -5.1465  -5.0371  -4.9895
    -4.9843  -4.9582  -4.9006  -4.8859  -4.8728  -4.8573  -4.8458  -4.8097
    -4.8049  -4.7613  -4.7502  -4.7354  -4.6853  -4.6275  -4.6219  -4.5977
    -4.5885  -4.5148  -4.5075  -4.4563  -4.3626  -4.3214  -4.2996  -4.2944
    -4.2573  -4.2234  -4.2151  -4.1439  -3.9005  -3.8868  -3.8639  -3.8476
    -3.8207  -3.7606  -3.7363  -3.7105  -3.6541  -3.5488  -3.4258  -3.3904
    -3.3771  -3.3598  -3.3352  -3.2985  -3.2842  -3.2793  -3.2295  -3.1983
    -3.1957  -3.1526  -3.1110  -3.0210  -2.9872  -2.9334  -2.8847  -2.8453
    -2.8310  -2.8178  -2.8114  -2.7945  -2.7656  -2.7525  -2.7366  -2.7001
    -2.6825  -2.6180  -2.5650  -2.5026  -2.4808  -2.4256  -2.3537  -2.2734
    -2.2501  -2.1878  -2.0965  -2.0375  -1.9987  -1.9646  -1.9465  -1.9256
    -1.8460  -1.8209  -1.7934  -1.7793  -1.5153  -1.5129  -1.3683  -1.3342
    -1.2824  -1.2755  -1.1899  -1.0489  -0.6381  -0.3525  -0.3456  -0.3171
    -0.1615  -0.1612   0.5109   1.4416   1.5065   1.5192   1.6103   1.6172
     1.6318   1.7287   1.7698   1.7732   1.9088   1.9855

     the Fermi energy is     1.3803 ev

!    total energy              =   -3293.24425227 Ry
     estimated scf accuracy    <       0.00000002 Ry
     smearing contrib. (-TS)   =      -0.03195687 Ry
     internal energy E=F+TS    =   -3293.21229539 Ry

     The total energy is F=E-TS. E is the sum of the following terms:
     one-electron contribution =  -34432.61247539 Ry
     hartree contribution      =   17281.50241258 Ry
     xc contribution           =    -542.29795635 Ry
     ewald contribution        =   14400.19263060 Ry
     electric field correction =       0.00309317 Ry

     convergence has been achieved in  73 iterations

     Forces acting on atoms (cartesian axes, Ry/au):

     atom    1 type  1   force =     0.00085148    0.00632066    0.05756361
     atom    2 type  1   force =    -0.00003260   -0.00070825   -0.00476526
     atom    3 type  1   force =     0.00000879   -0.00166763   -0.00112538
     atom    4 type  1   force =     0.00007066    0.00076654    0.10712664
     atom    5 type  1   force =    -0.00015499   -0.00060152    0.00931881
     atom    6 type  1   force =     0.00139126   -0.00263008    0.00370159
     atom    7 type  1   force =     0.06705715   -0.00000444   -0.02953525
     atom    8 type  1   force =     0.00335482   -0.02853164    0.00246852
     atom    9 type  1   force =     0.01227383   -0.01740004    0.00152032
     atom   10 type  2   force =     0.00006794   -0.00242172   -0.18537313
     atom   11 type  2   force =     0.00015351    0.02112957   -0.00710608
     atom   12 type  2   force =    -0.00570390    0.01534663   -0.00222746
     atom   13 type  1   force =    -0.06727166   -0.00039496   -0.02893100
     atom   14 type  1   force =    -0.00361905   -0.02911905    0.00252344
     atom   15 type  1   force =    -0.00676640   -0.01124058    0.00275701
     atom   16 type  2   force =    -0.00022138   -0.00127017    0.06487055
     atom   17 type  2   force =     0.00031089    0.03525862    0.00380141
     atom   18 type  2   force =    -0.00267612    0.02261969    0.00134137
     atom   19 type  1   force =     0.00075248    0.00408077    0.06084437
     atom   20 type  1   force =     0.00002802   -0.00007829   -0.00396673
     atom   21 type  1   force =     0.00005975   -0.00004564    0.10729348
     atom   22 type  1   force =     0.00002853   -0.00085850    0.00936544
     atom   23 type  1   force =    -0.00000878   -0.00352593    0.00544274
     atom   24 type  1   force =     0.06733139   -0.00051233   -0.02945110
     atom   25 type  1   force =     0.00348994   -0.02947810    0.00313969
     atom   26 type  1   force =     0.00636242   -0.02221708    0.00390210
     atom   27 type  2   force =    -0.00001022    0.00173267   -0.18405719
     atom   28 type  2   force =    -0.00039189    0.02140295   -0.00706685
     atom   29 type  2   force =    -0.00105819    0.02046042    0.00097230
     atom   30 type  1   force =    -0.06752710   -0.00097332   -0.02876274
     atom   31 type  1   force =    -0.00417358   -0.02931432    0.00229872
     atom   32 type  1   force =    -0.00637618   -0.01870060   -0.00032649
     atom   33 type  2   force =    -0.00033873   -0.00091945    0.06450041
     atom   34 type  2   force =     0.00045001    0.03628276    0.00373191
     atom   35 type  2   force =     0.00233082    0.02411931    0.00265233
     atom   36 type  1   force =     0.00068539    0.00483519    0.05918034
     atom   37 type  1   force =    -0.00014192    0.00146232   -0.00771534
     atom   38 type  1   force =    -0.00034817   -0.00297106    0.00076516
     atom   39 type  1   force =     0.00010831   -0.00015474    0.10688186
     atom   40 type  1   force =     0.00007782   -0.00089570    0.00974830
     atom   41 type  1   force =     0.00075215   -0.00263170    0.00157976
     atom   42 type  1   force =     0.06758259   -0.00029148   -0.02940426
     atom   43 type  1   force =     0.00371334   -0.02888876    0.00188319
     atom   44 type  1   force =     0.00869867   -0.01705069    0.00066735
     atom   45 type  2   force =     0.00022554   -0.00246561   -0.18295165
     atom   46 type  2   force =     0.00023782    0.01986679   -0.00665449
     atom   47 type  2   force =    -0.00009472    0.02237705    0.00181817
     atom   48 type  1   force =    -0.06772873   -0.00079029   -0.02866518
     atom   49 type  1   force =    -0.00362537   -0.02861023    0.00244932
     atom   50 type  1   force =    -0.00817252   -0.01837779   -0.00135733
     atom   51 type  2   force =    -0.00036488   -0.00109601    0.06449535
     atom   52 type  2   force =    -0.00015145    0.03596204    0.00429331
     atom   53 type  2   force =    -0.00171627    0.01462263   -0.00209124
     atom   54 type  3   force =    -0.00070698   -0.00023499    0.00050216
     atom   55 type  3   force =    -0.00091201   -0.00086816    0.00170186
     atom   56 type  3   force =     0.00073338   -0.00152257    0.00140704
     atom   57 type  4   force =     0.00123250    0.00073207    0.01126870
     atom   58 type  4   force =     0.00057680    0.00135112   -0.01997141
     atom   59 type  3   force =    -0.00070425   -0.00126640    0.00172692

     Total force =     0.456099     Total SCF correction =     0.000449
  @ DRIVER MODE: Message from server: STATUS
  @ DRIVER MODE: Message from server: GETFORCE
  @ DRIVER MODE: Returning v,forces,stress,ensemble

     Writing output data file ./calc.save/
  @ DRIVER MODE: Message from server: EXIT
  @ DRIVE MODE: Exiting

     General routines

     Parallel routines

   This run was terminated on:   2:41:46  19Oct2021

   JOB DONE.