     Program PWSCF v.6.7GPU starts on 27Jul2021 at  4:51:14

     R & G space division:  proc/nbgrp/npool/nimage =      16
     Reading input from /storage/home/hcoda1/3/ntian30/research/carbon/15Jul_vib/ads_slab/CH3NHHH_a/out_0008/pw.inp
Warning: card &CELL ignored
Warning: card   CELL_DYNAMICS='IPI', ignored
Warning: card / ignored

     Current dimensions of program PWSCF are:
     Max number of different atomic species (ntypx) = 10
     Max number of k-points (npk) =  40000
     Max angular momentum in pseudopotentials (lmaxx) =  3
     Presently no symmetry can be used with electric field

     Message from routine cell_base_init:
     DEPRECATED: use true lattice parameter, not A to a.u. conversion factor

     IMPORTANT: XC functional enforced from input :
     Exchange-correlation= BEEF-VDW
                           (   1   4  43  14   2   0   0)
     Any further DFT definition will be discarded
     Please, verify this is what you really want

  @ DRIVER MODE: Connecting to
 qe_1139763_2431568.sched-torque.pace.gatech.eduicf6ud3c_scratch
  using UNIX socket
  @ DRIVER MODE: Message from server: STATUS
  @ DRIVER MODE: Message from server: INIT
  @ DRIVER MODE: Receiving replica           0          -1
  @ DRIVER MODE: Receiving encoded integer          25
  @ DRIVER MODE:  SCF:  T  FORCE:  T  STRESS:  F  VC:  F  ENSEMBLE:  F
  @ DRIVER MODE:  SCF:  T  FORCE:  T  STRESS:  F  VC:  F  ENSEMBLE:  F

     Using Slab Decomposition

     bravais-lattice index     =            0
     lattice parameter (alat)  =       1.8897  a.u.
     unit-cell volume          =    6658.9804 (a.u.)^3
     number of atoms/cell      =           55
     number of atomic types    =            5
     number of electrons       =       393.00
     number of Kohn-Sham states=          206
     kinetic-energy cutoff     =      29.3995  Ry
     charge density cutoff     =     293.9946  Ry
     scf convergence threshold =      7.3E-08
     mixing beta               =       0.0500
     number of iterations used =            8  plain     mixing
     Exchange-correlation= BEEF-VDW
                           (   1   4  43  14   2   0   0)

     celldm(1)=   1.889726  celldm(2)=   0.000000  celldm(3)=   0.000000
     celldm(4)=   0.000000  celldm(5)=   0.000000  celldm(6)=   0.000000

     crystal axes: (cart. coord. in units of alat)
               a(1) = (   6.579727   0.000000   0.000000 )
               a(2) = (  -0.000775   5.961596   0.000000 )
               a(3) = (   0.000000   0.000000  25.155947 )

     reciprocal axes: (cart. coord. in units 2 pi/alat)
               b(1) = (  0.151982  0.000020  0.000000 )
               b(2) = (  0.000000  0.167740  0.000000 )
               b(3) = (  0.000000  0.000000  0.039752 )

     PseudoPot. # 1 for Ti read from file:
     /storage/coda1/p-amedford6/0/shared/rich_project_chbe-medford/medford-share/data/pseudos_module/espresso/nninc/pbe/van/Ti.UPF
     MD5 check sum: 8e4df49b7f0d34bbd5052bf3f5ea0213
     Pseudo is Ultrasoft, Zval = 12.0
     Generated by new atomic code, or converted to UPF format
     Using radial grid of  851 points,  6 beta functions with:
                l(1) =   0
                l(2) =   0
                l(3) =   1
                l(4) =   1
                l(5) =   2
                l(6) =   2
     Q(r) pseudized with  8 coefficients,  rinner =    1.000   1.000   1.000
                                                       1.000   1.000

     PseudoPot. # 2 for O  read from file:
     /storage/coda1/p-amedford6/0/shared/rich_project_chbe-medford/medford-share/data/pseudos_module/espresso/nninc/pbe/van/O.UPF
     MD5 check sum: 78c19812648e8988a0fe644b0f25305e
     Pseudo is Ultrasoft, Zval =  6.0
     Generated by new atomic code, or converted to UPF format
     Using radial grid of  737 points,  4 beta functions with:
                l(1) =   0
                l(2) =   0
                l(3) =   1
                l(4) =   1
     Q(r) pseudized with  8 coefficients,  rinner =    0.800   0.800   0.800

     PseudoPot. # 3 for N  read from file:
     /storage/coda1/p-amedford6/0/shared/rich_project_chbe-medford/medford-share/data/pseudos_module/espresso/nninc/pbe/van/N.UPF
     MD5 check sum: 90d10febe142ad51ac9d5be1deb811c4
     Pseudo is Ultrasoft, Zval =  5.0
     Generated by new atomic code, or converted to UPF format
     Using radial grid of  729 points,  4 beta functions with:
                l(1) =   0
                l(2) =   0
                l(3) =   1
                l(4) =   1
     Q(r) pseudized with  8 coefficients,  rinner =    0.800   0.800   0.800

     PseudoPot. # 4 for C  read from file:
     /storage/coda1/p-amedford6/0/shared/rich_project_chbe-medford/medford-share/data/pseudos_module/espresso/nninc/pbe/van/C.UPF
     MD5 check sum: 1a69bf6b8db32088f5b2163dbdb77a27
     Pseudo is Ultrasoft, Zval =  4.0
     Generated by new atomic code, or converted to UPF format
     Using radial grid of  721 points,  4 beta functions with:
                l(1) =   0
                l(2) =   0
                l(3) =   1
                l(4) =   1
     Q(r) pseudized with  8 coefficients,  rinner =    0.800   0.800   0.800

     PseudoPot. # 5 for H  read from file:
     /storage/coda1/p-amedford6/0/shared/rich_project_chbe-medford/medford-share/data/pseudos_module/espresso/nninc/pbe/van/H.UPF
     MD5 check sum: b5ee9d7bfd3a09ee7748110bda690ff7
     Pseudo is Ultrasoft, Zval =  1.0
     Generated by new atomic code, or converted to UPF format
     Using radial grid of  615 points,  1 beta functions with:
                l(1) =   0
     Q(r) pseudized with  8 coefficients,  rinner =    0.800

     atomic species   valence    mass     pseudopotential
        Ti1           12.00    47.86700     Ti( 1.00)
        O1             6.00    15.99900     O ( 1.00)
        N1             5.00    14.00700     N ( 1.00)
        C1             4.00    12.01100     C ( 1.00)
        H1             1.00     1.00800     H ( 1.00)

     Starting magnetic structure
     atomic species   magnetization
        Ti1          0.000
        O1           0.000
        N1           0.040
        C1           0.025
        H1           0.000

     No symmetry found

   Cartesian axes

     site n.     atom                  positions (alat units)
         1           Ti1 tau(   1) = (   0.0004258   2.9801865   6.0000000  )
         2           Ti1 tau(   2) = (   3.2906075   1.4906267   6.0002472  )
         3           O1  tau(   3) = (   0.0006271   0.0005054   7.9858123  )
         4           O1  tau(   4) = (   3.2906025   0.0005020   7.3038282  )
         5           O1  tau(   5) = (   4.5942328   1.4918067   9.2879030  )
         6           O1  tau(   6) = (   1.9868534   1.4903216   9.2879459  )
         7           Ti1 tau(   7) = (   3.2907910   2.8959150   9.1758416  )
         8           Ti1 tau(   8) = (   0.0015273   1.4827037   9.2680791  )
         9           O1  tau(   9) = (   3.2636084   5.9406443  11.4082010  )
        10           O1  tau(  10) = (   0.0116148   5.9584955  10.6183126  )
        11           O1  tau(  11) = (   1.2642105   1.4849797  12.6947803  )
        12           O1  tau(  12) = (   5.2691575   1.4821021  12.6650678  )
        13           Ti1 tau(  13) = (   6.5574234   2.9640577  12.4921542  )
        14           Ti1 tau(  14) = (   3.2619390   1.4709553  12.5527290  )
        15           O1  tau(  15) = (   6.5247406   5.9594380  14.6832748  )
        16           O1  tau(  16) = (   3.2695906   5.9428997  14.0562986  )
        17           O1  tau(  17) = (   4.5175969   1.4707097  16.2986306  )
        18           O1  tau(  18) = (   1.9406912   1.4777946  16.2473769  )
        19           Ti1 tau(  19) = (   3.2491105   2.9422209  15.8109686  )
        20           Ti1 tau(  20) = (   6.5361480   1.3378720  15.9626387  )
        21           O1  tau(  21) = (   3.2904802   0.0005063   4.7018136  )
        22           O1  tau(  22) = (   6.5280740   5.8897732  17.4332532  )
        23           O1  tau(  23) = (   1.3043587   1.4918075   6.0039043  )
        24           O1  tau(  24) = (   5.2767064   1.4903225   6.0039473  )
        25           Ti1 tau(  25) = (   0.0000382   5.9609847   6.0000000  )
        26           Ti1 tau(  26) = (   3.2902200   4.4714249   6.0002472  )
        27           O1  tau(  27) = (   0.0002396   2.9813036   7.9858123  )
        28           O1  tau(  28) = (   3.2902150   2.9813002   7.3038282  )
        29           O1  tau(  29) = (   4.5938453   4.4726049   9.2879030  )
        30           O1  tau(  30) = (   1.9864658   4.4711199   9.2879459  )
        31           Ti1 tau(  31) = (   3.2891106   5.8743827   9.1763621  )
        32           Ti1 tau(  32) = (   0.0006254   4.4649316   9.2693709  )
        33           O1  tau(  33) = (   3.2649920   2.9642658  11.3997388  )
        34           O1  tau(  34) = (   0.0092240   2.9805883  10.6323155  )
        35           O1  tau(  35) = (   1.2634527   4.4478426  12.7061968  )
        36           O1  tau(  36) = (   5.2693862   4.4495813  12.6755241  )
        37           Ti1 tau(  37) = (   6.5522441   5.9483113  12.5008436  )
        38           Ti1 tau(  38) = (   3.2626494   4.4468850  12.5575576  )
        39           O1  tau(  39) = (   6.4970557   2.9363996  15.0046851  )
        40           O1  tau(  40) = (   3.2722650   2.9529576  14.0194401  )
        41           O1  tau(  41) = (   4.5170401   4.4205294  16.2730734  )
        42           O1  tau(  42) = (   1.9466746   4.4191161  16.2235312  )
        43           Ti1 tau(  43) = (   3.2419262   5.9323414  15.8513663  )
        44           Ti1 tau(  44) = (   6.5549466   4.5556212  15.8889459  )
        45           O1  tau(  45) = (   3.2900926   2.9813045   4.7018136  )
        46           O1  tau(  46) = (   1.3039711   4.4726057   6.0039043  )
        47           O1  tau(  47) = (   5.2763189   4.4711207   6.0039473  )
        48           N1  tau(  48) = (   4.8657738   4.5798987  19.4796958  )
        49           C1  tau(  49) = (   5.7371871   3.4329544  19.8049648  )
        50           H1  tau(  50) = (   6.3241292   3.1721029  18.9298488  )
        51           H1  tau(  51) = (   6.4229137   3.7195585  20.5942015  )
        52           H1  tau(  52) = (   5.1874390   2.5328885  20.1195193  )
        53           H1  tau(  53) = (   5.9066942   5.7389963  18.1772939  )
        54           H1  tau(  54) = (   4.2103208   4.3266459  18.7469397  )
        55           H1  tau(  55) = (   4.3187305   4.8545830  20.2870342  )

     number of k points=    10  Fermi-Dirac smearing, width (Ry)=  0.0073
                       cart. coord. in units 2pi/alat
        k(    1) = (   0.0000000   0.0000000   0.0000000), wk =   0.0625000
        k(    2) = (   0.0000000   0.0419351   0.0000000), wk =   0.1250000
        k(    3) = (   0.0000000  -0.0838702   0.0000000), wk =   0.0625000
        k(    4) = (   0.0379955   0.0000049   0.0000000), wk =   0.1250000
        k(    5) = (   0.0379955   0.0419400   0.0000000), wk =   0.1250000
        k(    6) = (   0.0379955  -0.0838652   0.0000000), wk =   0.1250000
[...]
     % possible and the two reviews that describe the various versions:     %
     %                                                                      %
     %   T. Thonhauser et al., PRL 115, 136402 (2015).                      %
     %   T. Thonhauser et al., PRB 76, 125112 (2007).                       %
     %   K. Berland et al., Rep. Prog. Phys. 78, 066501 (2015).             %
     %   D.C. Langreth et al., J. Phys.: Condens. Matter 21, 084203 (2009). %
     %                                                                      %
     %                                                                      %
     % If you are calculating the stress with vdW-DF, please also cite:     %
     %                                                                      %
     %   R. Sabatini et al., J. Phys.: Condens. Matter 24, 424209 (2012).   %
     %                                                                      %
     %%%%%%%%%%%%%%%%%%%%%%%%%%%%%%%%%%%%%%%%%%%%%%%%%%%%%%%%%%%%%%%%%%%%%%%%

     Adding external electric field

     Computed dipole along edir(3) :
        Dipole               -9.4918 Ry au,        -24.1257 Debye
        Dipole field         -0.0179 Ry au,

        Potential amp.        1.6604 Ry
        Total length         46.3494 bohr

[...]

     Starting wfcs are  298 atomic wfcs
  @ DRIVER MODE: Message from server: STATUS
  @ DRIVER MODE: Message from server: POSDATA
  @ DRIVER MODE: Reading and sharing cell
  @ DRIVER MODE: Reading and sharing positions
  @ DRIVER MODE: Received positions

     Self-consistent Calculation

     iteration #  1     ecut=    29.40 Ry     beta= 0.05
     Davidson diagonalization with overlap
     c_bands:  2 eigenvalues not converged
     c_bands:  1 eigenvalues not converged
     c_bands:  2 eigenvalues not converged
     c_bands:  3 eigenvalues not converged
     c_bands:  3 eigenvalues not converged
     c_bands:  1 eigenvalues not converged
     c_bands:  2 eigenvalues not converged
     c_bands:  1 eigenvalues not converged
     c_bands:  2 eigenvalues not converged
     c_bands:  3 eigenvalues not converged
     c_bands:  3 eigenvalues not converged
     c_bands:  1 eigenvalues not converged
     ethr =  1.00E-05,  avg # of iterations = 18.9

[...]

     total energy              =   -2620.50456575 Ry
     estimated scf accuracy    <    3389.64471000 Ry

     total magnetization       =     0.00 Bohr mag/cell
     absolute magnetization    =     0.01 Bohr mag/cell

[...]

     iteration #  3     ecut=    29.40 Ry     beta= 0.05
     Davidson diagonalization with overlap
     ethr =  1.00E-02,  avg # of iterations = 14.9

[...]

     iteration #350     ecut=    29.40 Ry     beta= 0.05
     Davidson diagonalization with overlap
     ethr =  7.93E-11,  avg # of iterations =  7.2

[...]

     total energy              =   -2922.77410215 Ry
     estimated scf accuracy    <       0.00000009 Ry

[...]

     iteration #394     ecut=    29.40 Ry     beta= 0.05
     Davidson diagonalization with overlap
     c_bands:  4 eigenvalues not converged
     c_bands:  2 eigenvalues not converged
     c_bands:  3 eigenvalues not converged
     c_bands:  4 eigenvalues not converged
     c_bands:  1 eigenvalues not converged
     c_bands:  2 eigenvalues not converged
     c_bands:  4 eigenvalues not converged
     c_bands:  2 eigenvalues not converged
     c_bands:  3 eigenvalues not converged
     c_bands:  4 eigenvalues not converged
     c_bands:  1 eigenvalues not converged
     c_bands:  3 eigenvalues not converged
     ethr =  2.04E-11,  avg # of iterations = 19.2

     negative rho (up, down):  7.252E-03 7.251E-03

[...]

     Adding external electric field

     Computed dipole along edir(3) :
        Dipole                1.4069 Ry au,          3.5759 Debye
        Dipole field          0.0027 Ry au,

        Potential amp.       -0.2461 Ry
        Total length         46.3494 bohr

     Magnetic moment per site  (integrated on atomic sphere of radius R)
     atom   1 (R=0.739)  charge=  8.0547  magn= -0.0075
     atom   2 (R=0.739)  charge=  8.0362  magn= -0.0003
     atom   3 (R=0.405)  charge=  2.0075  magn=  0.0003
     atom   4 (R=0.405)  charge=  2.0190  magn=  0.0000
     atom   5 (R=0.405)  charge=  2.0104  magn=  0.0000
     atom   6 (R=0.405)  charge=  2.0107  magn=  0.0000
     atom   7 (R=0.739)  charge=  8.0371  magn= -0.0004
     atom   8 (R=0.739)  charge=  8.0393  magn= -0.0038
     atom   9 (R=0.405)  charge=  2.0112  magn= -0.0000
     atom  10 (R=0.405)  charge=  2.0118  magn=  0.0001
     atom  11 (R=0.405)  charge=  2.0092  magn= -0.0000
     atom  12 (R=0.405)  charge=  2.0092  magn= -0.0000
     atom  13 (R=0.739)  charge=  8.0500  magn= -0.0003
     atom  14 (R=0.739)  charge=  8.0432  magn=  0.0004
     atom  15 (R=0.405)  charge=  2.0128  magn= -0.0000
     atom  16 (R=0.405)  charge=  2.0108  magn= -0.0000
     atom  17 (R=0.405)  charge=  2.0009  magn= -0.0000
     atom  18 (R=0.405)  charge=  2.0012  magn= -0.0000
     atom  19 (R=0.739)  charge=  8.0824  magn= -0.0000
     atom  20 (R=0.739)  charge=  8.1004  magn= -0.0008
     atom  21 (R=0.405)  charge=  1.9825  magn=  0.0001
     atom  22 (R=0.405)  charge=  2.0201  magn= -0.0000
     atom  23 (R=0.405)  charge=  2.0078  magn=  0.0004
     atom  24 (R=0.405)  charge=  2.0078  magn=  0.0004
     atom  25 (R=0.739)  charge=  8.0548  magn= -0.0074
     atom  26 (R=0.739)  charge=  8.0362  magn= -0.0003
     atom  27 (R=0.405)  charge=  2.0075  magn=  0.0003
     atom  28 (R=0.405)  charge=  2.0191  magn=  0.0000
     atom  29 (R=0.405)  charge=  2.0107  magn=  0.0000
     atom  30 (R=0.405)  charge=  2.0109  magn=  0.0000
     atom  31 (R=0.739)  charge=  8.0373  magn= -0.0004
     atom  32 (R=0.739)  charge=  8.0392  magn= -0.0038
     atom  33 (R=0.405)  charge=  2.0120  magn= -0.0000
     atom  34 (R=0.405)  charge=  2.0122  magn=  0.0001
     atom  35 (R=0.405)  charge=  2.0082  magn= -0.0000
     atom  36 (R=0.405)  charge=  2.0092  magn= -0.0000
     atom  37 (R=0.739)  charge=  8.0419  magn= -0.0003
     atom  38 (R=0.739)  charge=  8.0432  magn=  0.0004
     atom  39 (R=0.405)  charge=  2.0116  magn=  0.0000
     atom  40 (R=0.405)  charge=  2.0126  magn= -0.0000
     atom  41 (R=0.405)  charge=  2.0020  magn= -0.0000
     atom  42 (R=0.405)  charge=  2.0020  magn= -0.0000
     atom  43 (R=0.739)  charge=  8.0813  magn= -0.0005
     atom  44 (R=0.739)  charge=  8.1023  magn= -0.0008
     atom  45 (R=0.405)  charge=  1.9825  magn=  0.0000
     atom  46 (R=0.405)  charge=  2.0078  magn=  0.0004
     atom  47 (R=0.405)  charge=  2.0078  magn=  0.0004
     atom  48 (R=0.418)  charge=  1.3238  magn=  0.0000
     atom  49 (R=0.447)  charge=  0.8357  magn=  0.0000
     atom  50 (R=0.405)  charge=  0.4165  magn= -0.0000
     atom  51 (R=0.405)  charge=  0.4172  magn= -0.0000
     atom  52 (R=0.405)  charge=  0.4102  magn= -0.0000
     atom  53 (R=0.405)  charge=  0.3971  magn= -0.0000
     atom  54 (R=0.405)  charge=  0.4209  magn= -0.0000
     atom  55 (R=0.405)  charge=  0.4255  magn= -0.0000

     End of self-consistent calculation

 ------ SPIN UP ------------

          k = 0.0000 0.0000 0.0000 ( 18029 PWs)   bands (ev):

   -55.3083 -55.2725 -55.2495 -55.2154 -55.1717 -55.1475 -55.1465 -55.1373
   -55.1131 -55.0804 -55.0726 -55.0464 -55.0299 -54.9718 -54.2997 -54.2656
   -31.8750 -31.7476 -31.6874 -31.6603 -31.6354 -31.6150 -31.5867 -31.5495
   -31.5456 -31.5365 -31.5154 -31.5040 -31.4927 -31.4758 -31.4651 -31.4591
   -31.4470 -31.4356 -31.4011 -31.4000 -31.3959 -31.3796 -31.3687 -31.3544
   -31.3514 -31.3130 -31.3052 -31.3039 -31.3014 -31.2876 -31.2815 -31.2803
   -31.2752 -31.2736 -31.2592 -31.2555 -31.2243 -31.2076 -31.1988 -31.1908
   -31.1809 -31.1052 -30.7099 -30.6132 -30.5914 -30.5257 -30.4388 -30.3285
   -16.8219 -16.1465 -15.8904 -15.7694 -15.6600 -15.5489 -15.5200 -15.4406
   -15.3567 -15.2563 -15.1949 -15.0896 -15.0551 -15.0155 -15.0005 -14.9818
   -14.9547 -14.8750 -14.8641 -14.8532 -14.8278 -14.8099 -14.7809 -14.7725
   -14.7656 -14.7263 -14.6895 -14.5764 -14.4862 -14.4011 -12.8029 -12.6852
   -10.0315  -5.8459  -4.7323  -4.3805  -3.5154  -3.4735  -3.3424  -3.2374
    -3.2037  -3.1963  -3.0747  -2.8933  -2.7967  -2.7717  -2.7500  -2.6290
    -2.5332  -2.5293  -2.4888  -2.3885  -2.3506  -2.3241  -2.2408  -2.2143
    -2.1678  -2.1166  -2.1065  -2.1033  -2.0827  -2.0421  -2.0037  -1.8849
    -1.7998  -1.7780  -1.7044  -1.6881  -1.6821  -1.6538  -1.6109  -1.5913
    -1.5424  -1.5253  -1.4847  -1.4160  -1.3545  -1.2725  -1.2355  -1.1986
    -0.9923  -0.9638  -0.9132  -0.9107  -0.8822  -0.8140  -0.7840  -0.7545
    -0.6886  -0.6861  -0.6579  -0.5516  -0.5087  -0.3877  -0.3175  -0.2378
    -0.1163  -0.1030  -0.0790  -0.0293  -0.0059   0.0538   0.1139   0.1506
     0.1898   0.2026   0.2899   0.3201   0.3972   0.4129   0.4536   0.5125
     0.5302   0.5553   0.5776   0.5852   0.6187   0.6347   0.6683   0.7356
     0.7673   0.8690   0.9176   1.2012   1.2868   1.5956   1.6192   1.7225
     1.9038   2.3008   2.3502   3.7900   3.8485   3.8887   3.9328   3.9429
     4.0192   4.1470   4.2895   4.3033   4.3106   4.3179

[...]

          k =-0.0760-0.0000 0.0000 ( 17886 PWs)   bands (ev):

[...]

 ------ SPIN DOWN ----------

[...]

          k = 0.0380-0.0419 0.0000 ( 17876 PWs)   bands (ev):

[...]

          k =-0.0760-0.0839 0.0000 ( 17948 PWs)   bands (ev):

   -55.2908 -55.2879 -55.2462 -55.2452 -55.1550 -55.1540 -55.1432 -55.1329
   -55.1286 -55.0760 -55.0706 -55.0680 -55.0236 -54.9796 -54.2831 -54.2828
   -31.6822 -31.6771 -31.5871 -31.5818 -31.5685 -31.5678 -31.5557 -31.5373
   -31.5364 -31.5080 -31.5032 -31.5013 -31.4881 -31.4627 -31.4578 -31.4567
   -31.4307 -31.4298 -31.4230 -31.4028 -31.3824 -31.3802 -31.3683 -31.3673
   -31.3656 -31.3636 -31.3629 -31.3493 -31.3476 -31.3424 -31.3386 -31.3228
   -31.3203 -31.3091 -31.3060 -31.2927 -31.2642 -31.2499 -31.2479 -31.2425
   -31.2257 -31.1726 -30.6046 -30.6044 -30.5225 -30.5223 -30.4827 -30.4826
   -16.7604 -15.8194 -15.5530 -15.5364 -15.4982 -15.4037 -15.3299 -15.2990
   -15.2887 -15.2758 -15.1496 -15.1217 -15.1118 -15.0838 -15.0521 -15.0275
   -15.0237 -14.9887 -14.9317 -14.9256 -14.9178 -14.9095 -14.8457 -14.8375
   -14.8337 -14.8269 -14.7609 -14.7585 -14.6770 -14.6750 -12.7866 -12.7865
   -10.0410  -5.8463  -4.8616  -4.3605  -3.5278  -2.8243  -2.7963  -2.7724
    -2.7396  -2.6126  -2.5272  -2.4996  -2.4630  -2.4053  -2.3529  -2.3056
    -2.3034  -2.2678  -2.2483  -2.2296  -2.1857  -2.1641  -2.1417  -2.1234
    -2.1087  -2.0550  -2.0522  -2.0431  -2.0187  -1.9845  -1.9674  -1.9543
    -1.9376  -1.9192  -1.8938  -1.8746  -1.7315  -1.7105  -1.6700  -1.5526
    -1.5349  -1.5315  -1.4983  -1.4545  -1.4298  -1.4223  -1.3483  -1.3412
    -1.3086  -1.1515  -1.0792  -1.0775  -1.0541  -1.0300  -0.9351  -0.8836
    -0.8432  -0.7933  -0.7175  -0.6862  -0.6675  -0.5950  -0.5680  -0.4765
    -0.3871  -0.3604  -0.3522  -0.2745  -0.2730  -0.2398  -0.2267  -0.1577
    -0.0978  -0.0457  -0.0418  -0.0381   0.0908   0.1278   0.2080   0.3223
     0.4025   0.4111   0.4629   0.5225   0.6144   0.6529   0.6733   0.7891
     0.7910   0.9777   0.9810   1.0295   1.0445   1.1247   1.1298   2.0765
     2.0772   2.1695   2.1699   3.7613   3.9453   3.9989   4.0724   4.0979
     4.1953   4.2784   4.3121   4.3435   4.3642   4.3698

     the Fermi energy is     3.8552 ev

!    total energy              =   -2922.77410286 Ry
     estimated scf accuracy    <       0.00000006 Ry
     smearing contrib. (-TS)   =      -0.04551464 Ry
     internal energy E=F+TS    =   -2922.72858822 Ry

     The total energy is F=E-TS. E is the sum of the following terms:
     one-electron contribution =  -23201.59736407 Ry
     hartree contribution      =   11691.09569722 Ry
     xc contribution           =    -482.54869996 Ry
     ewald contribution        =    9070.31804347 Ry
     electric field correction =       0.00373512 Ry

     total magnetization       =    -0.04 Bohr mag/cell
     absolute magnetization    =     0.05 Bohr mag/cell

     convergence has been achieved in 394 iterations

     Forces acting on atoms (cartesian axes, Ry/au):

     atom    1 type  1   force =     0.00016917   -0.00008454    0.09304528
     atom    2 type  1   force =     0.00001577   -0.00015751   -0.17885923
     atom    3 type  2   force =     0.00002405   -0.00029830   -0.02022101
     atom    4 type  2   force =    -0.00000064   -0.00224092    0.06098415
     atom    5 type  2   force =    -0.01149289   -0.00128056    0.01054682
     atom    6 type  2   force =     0.01240691   -0.00058696    0.00811118
     atom    7 type  1   force =    -0.00122020    0.00344211   -0.01491033
     atom    8 type  1   force =     0.00122704   -0.00358374   -0.00843772
     atom    9 type  2   force =     0.00001178   -0.00005074   -0.00025045
     atom   10 type  2   force =    -0.00281409   -0.00048041    0.00153951
     atom   11 type  2   force =     0.00012888   -0.00023299   -0.00028011
     atom   12 type  2   force =    -0.00000739    0.00008939   -0.00009251
     atom   13 type  1   force =    -0.00019360   -0.00031700   -0.00063102
     atom   14 type  1   force =    -0.00005059   -0.00005231    0.00023571
     atom   15 type  2   force =    -0.00010892   -0.00023435   -0.00010478
     atom   16 type  2   force =     0.00032776    0.00035487   -0.00009460
     atom   17 type  2   force =     0.00079387    0.00030905   -0.00025844
     atom   18 type  2   force =     0.00009613   -0.00026388   -0.00005110
     atom   19 type  1   force =     0.00026715    0.00044352   -0.00044734
     atom   20 type  1   force =     0.00012184   -0.00001877    0.00043410
     atom   21 type  2   force =     0.00012753   -0.00003025    0.10424802
     atom   22 type  2   force =    -0.00042716    0.00019006    0.00005280
     atom   23 type  2   force =    -0.06990575   -0.00011088   -0.02678616
     atom   24 type  2   force =     0.06987939    0.00035067   -0.02678516
     atom   25 type  1   force =     0.00018517   -0.00020023    0.09235478
     atom   26 type  1   force =    -0.00006572   -0.00035716   -0.17904081
     atom   27 type  2   force =     0.00004280   -0.00025618   -0.01895367
     atom   28 type  2   force =     0.00006460   -0.00192572    0.06023762
     atom   29 type  2   force =    -0.01168399   -0.00162499    0.01034145
     atom   30 type  2   force =     0.01247006   -0.00120878    0.00787172
     atom   31 type  1   force =    -0.00101372    0.00609339   -0.01577524
     atom   32 type  1   force =     0.00118456    0.00334041   -0.00865356
     atom   33 type  2   force =     0.00002763    0.00020052   -0.00023898
     atom   34 type  2   force =    -0.00240777   -0.00053839    0.00059684
     atom   35 type  2   force =     0.00001010    0.00000218    0.00006200
     atom   36 type  2   force =     0.00002709   -0.00007197    0.00037574
     atom   37 type  1   force =     0.00034965   -0.00004594   -0.00007258
     atom   38 type  1   force =    -0.00035563   -0.00031992    0.00048319
     atom   39 type  2   force =     0.00036415   -0.00014450    0.00064662
     atom   40 type  2   force =     0.00025163   -0.00017618    0.00005238
     atom   41 type  2   force =     0.00005160    0.00034306   -0.00043746
     atom   42 type  2   force =     0.00051024    0.00021232   -0.00018350
     atom   43 type  1   force =     0.00026108   -0.00021598   -0.00036311
     atom   44 type  1   force =     0.00013813   -0.00119275    0.00057866
     atom   45 type  2   force =     0.00012067   -0.00004862    0.10420493
     atom   46 type  2   force =    -0.06991676   -0.00005152   -0.02677526
     atom   47 type  2   force =     0.06990654    0.00034978   -0.02679451
     atom   48 type  3   force =     0.00537977   -0.00131787   -0.00089299
     atom   49 type  4   force =    -0.01895947   -0.00041626   -0.00030493
     atom   50 type  5   force =     0.00447609   -0.00096436   -0.00430479
     atom   51 type  5   force =     0.00480139    0.00161005    0.00461622
     atom   52 type  5   force =     0.00429682    0.00347811   -0.00104457
     atom   53 type  5   force =    -0.00002601    0.00070392   -0.00087079
     atom   54 type  5   force =     0.00027040   -0.00062979   -0.00023381
     atom   55 type  5   force =    -0.00013713    0.00021784    0.00153078

     Total force =     0.368324     Total SCF correction =     0.000486
  @ DRIVER MODE: Message from server: STATUS
  @ DRIVER MODE: Message from server: GETFORCE
  @ DRIVER MODE: Returning v,forces,stress,ensemble

     Writing output data file ./calc.save/
  @ DRIVER MODE: Message from server: EXIT
  @ DRIVE MODE: Exiting

     General routines

     Parallel routines

   This run was terminated on:   8:20:17  27Jul2021

   JOB DONE.