     Program PWSCF v.6.7GPU starts on 22Sep2021 at 23:31:35

     R & G space division:  proc/nbgrp/npool/nimage =      10
     Reading input from /storage/home/hcoda1/3/ntian30/research/carbon/CxH_vib/H2O_calc/ads_slab/CHON2HO_d/out_0022/pw.inp
Warning: card &CELL ignored
Warning: card   CELL_DYNAMICS='IPI', ignored
Warning: card / ignored

     Current dimensions of program PWSCF are:
     Max number of different atomic species (ntypx) = 10
     Max number of k-points (npk) =  40000
     Max angular momentum in pseudopotentials (lmaxx) =  3
     Presently no symmetry can be used with electric field

     Message from routine cell_base_init:
     DEPRECATED: use true lattice parameter, not A to a.u. conversion factor

     IMPORTANT: XC functional enforced from input :
     Exchange-correlation= BEEF-VDW
                           (   1   4  43  14   2   0   0)
     Any further DFT definition will be discarded
     Please, verify this is what you really want

  @ DRIVER MODE: Connecting to
 qe_1139763_2937317.sched-torque.pace.gatech.eduip7rlvwl_scratch
  using UNIX socket
  @ DRIVER MODE: Message from server: STATUS
  @ DRIVER MODE: Message from server: INIT
  @ DRIVER MODE: Receiving replica           0          -1
  @ DRIVER MODE: Receiving encoded integer          25
  @ DRIVER MODE:  SCF:  T  FORCE:  T  STRESS:  F  VC:  F  ENSEMBLE:  F
  @ DRIVER MODE:  SCF:  T  FORCE:  T  STRESS:  F  VC:  F  ENSEMBLE:  F

     Using Slab Decomposition

     bravais-lattice index     =            0
     lattice parameter (alat)  =       1.8897  a.u.
     unit-cell volume          =    6658.9804 (a.u.)^3
     number of atoms/cell      =           54
     number of atomic types    =            5
     number of electrons       =       406.00
     number of Kohn-Sham states=          213
     kinetic-energy cutoff     =      29.3995  Ry
     charge density cutoff     =     293.9946  Ry
     scf convergence threshold =      7.3E-08
     mixing beta               =       0.0500
     number of iterations used =            8  plain     mixing
     Exchange-correlation= BEEF-VDW
                           (   1   4  43  14   2   0   0)

     celldm(1)=   1.889726  celldm(2)=   0.000000  celldm(3)=   0.000000
     celldm(4)=   0.000000  celldm(5)=   0.000000  celldm(6)=   0.000000

     crystal axes: (cart. coord. in units of alat)
               a(1) = (   6.579727   0.000000   0.000000 )
               a(2) = (  -0.000775   5.961596   0.000000 )
               a(3) = (   0.000000   0.000000  25.155947 )

     reciprocal axes: (cart. coord. in units 2 pi/alat)
               b(1) = (  0.151982  0.000020  0.000000 )
               b(2) = (  0.000000  0.167740  0.000000 )
               b(3) = (  0.000000  0.000000  0.039752 )

     PseudoPot. # 1 for O  read from file:
     /storage/coda1/p-amedford6/0/shared/rich_project_chbe-medford/medford-share/data/pseudos_module/espresso/nninc/pbe/van/O.UPF
     MD5 check sum: 78c19812648e8988a0fe644b0f25305e
     Pseudo is Ultrasoft, Zval =  6.0
     Generated by new atomic code, or converted to UPF format
     Using radial grid of  737 points,  4 beta functions with:
                l(1) =   0
                l(2) =   0
                l(3) =   1
                l(4) =   1
     Q(r) pseudized with  8 coefficients,  rinner =    0.800   0.800   0.800

     PseudoPot. # 2 for Ti read from file:
     /storage/coda1/p-amedford6/0/shared/rich_project_chbe-medford/medford-share/data/pseudos_module/espresso/nninc/pbe/van/Ti.UPF
     MD5 check sum: 8e4df49b7f0d34bbd5052bf3f5ea0213
     Pseudo is Ultrasoft, Zval = 12.0
     Generated by new atomic code, or converted to UPF format
     Using radial grid of  851 points,  6 beta functions with:
                l(1) =   0
                l(2) =   0
                l(3) =   1
                l(4) =   1
                l(5) =   2
                l(6) =   2
     Q(r) pseudized with  8 coefficients,  rinner =    1.000   1.000   1.000
                                                       1.000   1.000

     PseudoPot. # 3 for C  read from file:
     /storage/coda1/p-amedford6/0/shared/rich_project_chbe-medford/medford-share/data/pseudos_module/espresso/nninc/pbe/van/C.UPF
     MD5 check sum: 1a69bf6b8db32088f5b2163dbdb77a27
     Pseudo is Ultrasoft, Zval =  4.0
     Generated by new atomic code, or converted to UPF format
     Using radial grid of  721 points,  4 beta functions with:
                l(1) =   0
                l(2) =   0
                l(3) =   1
                l(4) =   1
     Q(r) pseudized with  8 coefficients,  rinner =    0.800   0.800   0.800

     PseudoPot. # 4 for H  read from file:
     /storage/coda1/p-amedford6/0/shared/rich_project_chbe-medford/medford-share/data/pseudos_module/espresso/nninc/pbe/van/H.UPF
     MD5 check sum: b5ee9d7bfd3a09ee7748110bda690ff7
     Pseudo is Ultrasoft, Zval =  1.0
     Generated by new atomic code, or converted to UPF format
     Using radial grid of  615 points,  1 beta functions with:
                l(1) =   0
     Q(r) pseudized with  8 coefficients,  rinner =    0.800

     PseudoPot. # 5 for N  read from file:
     /storage/coda1/p-amedford6/0/shared/rich_project_chbe-medford/medford-share/data/pseudos_module/espresso/nninc/pbe/van/N.UPF
     MD5 check sum: 90d10febe142ad51ac9d5be1deb811c4
     Pseudo is Ultrasoft, Zval =  5.0
     Generated by new atomic code, or converted to UPF format
     Using radial grid of  729 points,  4 beta functions with:
                l(1) =   0
                l(2) =   0
                l(3) =   1
                l(4) =   1
     Q(r) pseudized with  8 coefficients,  rinner =    0.800   0.800   0.800

     atomic species   valence    mass     pseudopotential
        O1             6.00    15.99900     O ( 1.00)
        Ti1           12.00    47.86700     Ti( 1.00)
        C1             4.00    12.01100     C ( 1.00)
        H1             1.00     1.00800     H ( 1.00)
        N1             5.00    14.00700     N ( 1.00)

     No symmetry found

   Cartesian axes

     site n.     atom                  positions (alat units)
         1           O1  tau(   1) = (   3.2904802   0.0005063   4.7018136  )
         2           O1  tau(   2) = (   3.2900926   2.9813045   4.7018136  )
         3           Ti1 tau(   3) = (   0.0004258   2.9801865   6.0000000  )
         4           Ti1 tau(   4) = (   0.0000382   5.9609847   6.0000000  )
         5           Ti1 tau(   5) = (   3.2906075   1.4906267   6.0002472  )
         6           Ti1 tau(   6) = (   3.2902200   4.4714249   6.0002472  )
         7           O1  tau(   7) = (   1.3043587   1.4918075   6.0039043  )
         8           O1  tau(   8) = (   1.3039711   4.4726057   6.0039043  )
         9           O1  tau(   9) = (   5.2767064   1.4903225   6.0039473  )
        10           O1  tau(  10) = (   5.2763189   4.4711207   6.0039473  )
        11           O1  tau(  11) = (   3.2906025   0.0005020   7.3038282  )
        12           O1  tau(  12) = (   3.2902150   2.9813002   7.3038282  )
        13           O1  tau(  13) = (   0.0006271   0.0005054   7.9858123  )
        14           O1  tau(  14) = (   0.0002396   2.9813036   7.9858123  )
        15           Ti1 tau(  15) = (   3.2350752   0.0608747   9.1773017  )
        16           Ti1 tau(  16) = (   3.2297482   3.0449837   9.2258248  )
        17           Ti1 tau(  17) = (   6.5035314   4.4790947   9.3419400  )
        18           O1  tau(  18) = (   4.5942328   1.4918067   9.2879030  )
        19           O1  tau(  19) = (   4.5938453   4.4726049   9.2879030  )
        20           O1  tau(  20) = (   1.9868534   1.4903216   9.2879459  )
        21           O1  tau(  21) = (   1.9864658   4.4711199   9.2879459  )
        22           Ti1 tau(  22) = (   6.5047199   1.5482117   9.3251357  )
        23           O1  tau(  23) = (   6.5709586   2.9893791  10.5365161  )
        24           O1  tau(  24) = (   6.5791863   0.0068326  10.5847705  )
        25           O1  tau(  25) = (   3.2737170   2.9471243  11.2864913  )
        26           O1  tau(  26) = (   3.2757665   0.0160177  11.3056520  )
        27           Ti1 tau(  27) = (   3.3024496   1.5456137  12.4328335  )
        28           Ti1 tau(  28) = (   0.0381823   0.0558990  12.5328616  )
        29           Ti1 tau(  29) = (   3.2867454   4.6490159  12.6676011  )
        30           O1  tau(  30) = (   1.2579511   1.4933188  12.6274103  )
        31           O1  tau(  31) = (   5.2930440   1.4968169  12.6131059  )
        32           O1  tau(  32) = (   1.2503383   4.4760527  12.6363980  )
        33           O1  tau(  33) = (   5.2887019   4.4660859  12.6249461  )
        34           Ti1 tau(  34) = (   6.5320965   3.0346479  12.8073368  )
        35           O1  tau(  35) = (   3.2762579   2.9735537  13.8874883  )
        36           O1  tau(  36) = (   3.2793791   5.9387796  13.8789893  )
        37           O1  tau(  37) = (   6.5412754   2.9812497  14.6926498  )
        38           O1  tau(  38) = (   6.5531526   0.0082392  14.6823945  )
        39           Ti1 tau(  39) = (   3.2668636   2.9663550  15.6683660  )
        40           Ti1 tau(  40) = (   3.2982107   5.9440960  16.3508785  )
        41           Ti1 tau(  41) = (   0.0141158   4.5598071  15.9269461  )
        42           O1  tau(  42) = (   4.5124726   4.4172202  16.0573870  )
        43           O1  tau(  43) = (   1.9821766   4.4208814  16.0404589  )
        44           O1  tau(  44) = (   4.4954461   1.5000296  16.1066544  )
        45           O1  tau(  45) = (   1.9782815   1.5221889  16.0619205  )
        46           Ti1 tau(  46) = (   0.0269324   1.3869748  16.0447141  )
        47           O1  tau(  47) = (   6.5379229   5.9414530  17.1901000  )
        48           O1  tau(  48) = (   6.5175113   2.9840192  17.3772383  )
        49           C1  tau(  49) = (   5.9742390   3.1768082  18.5865123  )
        50           H1  tau(  50) = (   5.8341806   4.1706531  18.9840957  )
        51           N1  tau(  51) = (   5.5886240   2.1783037  19.3003467  )
        52           N1  tau(  52) = (   5.2398892   1.2394158  19.8970451  )
        53           O1  tau(  53) = (   3.2183551   5.8834210  18.1446619  )
        54           H1  tau(  54) = (   3.7026433   0.4006729  18.8445816  )

     number of k points=    10  Fermi-Dirac smearing, width (Ry)=  0.0073
                       cart. coord. in units 2pi/alat
        k(    1) = (   0.0000000   0.0000000   0.0000000), wk =   0.1250000
        k(    2) = (   0.0000000   0.0419351   0.0000000), wk =   0.2500000
        k(    3) = (   0.0000000  -0.0838702   0.0000000), wk =   0.1250000
        k(    4) = (   0.0379955   0.0000049   0.0000000), wk =   0.2500000
        k(    5) = (   0.0379955   0.0419400   0.0000000), wk =   0.2500000
        k(    6) = (   0.0379955  -0.0838652   0.0000000), wk =   0.2500000
        k(    7) = (   0.0379955  -0.0419301   0.0000000), wk =   0.2500000
        k(    8) = (  -0.0759910  -0.0000099   0.0000000), wk =   0.1250000
        k(    9) = (  -0.0759910   0.0419252   0.0000000), wk =   0.2500000
        k(   10) = (  -0.0759910  -0.0838800   0.0000000), wk =   0.1250000

     Initial potential from superposition of free atoms

     starting charge  389.99917, renormalised to  406.00000

     negative rho (up, down):  1.659E-02 0.000E+00

     %%%%%%%%%%%%%%%%%%%%%%%%%%%%%%%%%%%%%%%%%%%%%%%%%%%%%%%%%%%%%%%%%%%%%%%%
     %                                                                      %
     % You are using vdW-DF, which was implemented by the Thonhauser group. %
     % Please cite the following two papers that made this development      %
     % possible and the two reviews that describe the various versions:     %
     %                                                                      %
     %   T. Thonhauser et al., PRL 115, 136402 (2015).                      %
     %   T. Thonhauser et al., PRB 76, 125112 (2007).                       %
     %   K. Berland et al., Rep. Prog. Phys. 78, 066501 (2015).             %
     %   D.C. Langreth et al., J. Phys.: Condens. Matter 21, 084203 (2009). %
     %                                                                      %
     %                                                                      %
     % If you are calculating the stress with vdW-DF, please also cite:     %
     %                                                                      %
     %   R. Sabatini et al., J. Phys.: Condens. Matter 24, 424209 (2012).   %
     %                                                                      %
     %%%%%%%%%%%%%%%%%%%%%%%%%%%%%%%%%%%%%%%%%%%%%%%%%%%%%%%%%%%%%%%%%%%%%%%%

     Adding external electric field

     Computed dipole along edir(3) :
        Dipole              -13.7787 Ry au,        -35.0219 Debye
        Dipole field         -0.0260 Ry au,

        Potential amp.        2.4104 Ry
        Total length         46.3494 bohr

     Starting wfcs are  306 atomic wfcs
  @ DRIVER MODE: Message from server: STATUS
  @ DRIVER MODE: Message from server: POSDATA
  @ DRIVER MODE: Reading and sharing cell
  @ DRIVER MODE: Reading and sharing positions
  @ DRIVER MODE: Received positions

     Self-consistent Calculation

     iteration #  1     ecut=    29.40 Ry     beta= 0.05
     Davidson diagonalization with overlap
     c_bands:  1 eigenvalues not converged
     c_bands:  1 eigenvalues not converged
     c_bands:  5 eigenvalues not converged
     c_bands:  5 eigenvalues not converged
     ethr =  1.00E-05,  avg # of iterations = 30.9

[...]

     total energy              =   -2308.92995546 Ry
     estimated scf accuracy    <    7885.05306881 Ry

     iteration #  2     ecut=    29.40 Ry     beta= 0.05
     Davidson diagonalization with overlap
     ethr =  1.00E-02,  avg # of iterations = 25.5

[...]

     iteration # 36     ecut=    29.40 Ry     beta= 0.05
     Davidson diagonalization with overlap
     c_bands:  1 eigenvalues not converged
     ethr =  1.32E-06,  avg # of iterations =  8.5

[...]

     total energy              =   -3002.64601269 Ry
     estimated scf accuracy    <       0.00000009 Ry

     iteration # 60     ecut=    29.40 Ry     beta= 0.05
     Davidson diagonalization with overlap
     ethr =  2.15E-11,  avg # of iterations =  1.9

     negative rho (up, down):  1.647E-02 0.000E+00

     Adding external electric field

     Computed dipole along edir(3) :
        Dipole                0.3996 Ry au,          1.0156 Debye
        Dipole field          0.0008 Ry au,

        Potential amp.       -0.0699 Ry
        Total length         46.3494 bohr

     End of self-consistent calculation

          k = 0.0000 0.0000 0.0000 ( 18029 PWs)   bands (ev):

   -56.2643 -56.2075 -55.7734 -55.7169 -55.7128 -55.6976 -55.6693 -55.6593
   -55.6301 -55.6228 -55.5820 -55.5600 -55.4982 -55.3267 -54.9141 -54.8802
   -32.6791 -32.5403 -32.4748 -32.4344 -32.3360 -32.3038 -32.2538 -32.2277
   -32.2098 -32.1095 -32.0698 -32.0146 -32.0104 -32.0024 -31.9859 -31.9696
   -31.9599 -31.9579 -31.9384 -31.9267 -31.8771 -31.8746 -31.8709 -31.8643
   -31.8623 -31.8449 -31.8448 -31.8242 -31.8237 -31.8193 -31.8131 -31.7804
   -31.7800 -31.7798 -31.7497 -31.7395 -31.7314 -31.7296 -31.6999 -31.5866
   -31.5453 -31.5368 -31.3107 -31.2521 -31.2279 -31.1272 -31.0420 -30.9308
   -20.4252 -18.6633 -16.5034 -16.4730 -16.3177 -16.1118 -15.9502 -15.8796
   -15.6885 -15.6032 -15.5390 -15.5118 -15.4818 -15.3976 -15.3645 -15.3107
   -15.2673 -15.2524 -15.2241 -15.2110 -15.1972 -15.1962 -15.1955 -15.1638
   -15.1225 -15.0253 -14.9568 -14.9179 -14.8995 -14.8894 -14.8502 -14.5406
   -13.5845 -13.4164 -13.3068  -6.9347  -5.8959  -4.8886  -4.3415  -3.9721
    -3.7949  -3.7022  -3.6216  -3.5640  -3.5372  -3.3469  -3.2318  -3.1572
    -3.0355  -2.9541  -2.8810  -2.8605  -2.8414  -2.7999  -2.7400  -2.7084
    -2.6778  -2.6453  -2.5890  -2.5505  -2.5195  -2.4891  -2.4773  -2.4412
    -2.4214  -2.4194  -2.2750  -2.2289  -2.1873  -2.1791  -2.1542  -2.1328
    -2.1089  -2.0782  -2.0664  -2.0092  -1.9361  -1.8510  -1.8366  -1.7472
    -1.7177  -1.5446  -1.4861  -1.4100  -1.3785  -1.2101  -1.1843  -1.1784
    -1.1554  -1.1340  -1.0093  -0.9791  -0.9406  -0.9306  -0.8952  -0.8762
    -0.8483  -0.7452  -0.6787  -0.6383  -0.6241  -0.5596  -0.4617  -0.3883
    -0.3632  -0.3292  -0.2952  -0.1932  -0.1628  -0.1207  -0.1132  -0.0516
    -0.0160   0.0056   0.0616   0.0894   0.1430   0.1599   0.1766   0.2176
     0.2266   0.2720   0.3419   0.4045   0.5012   0.5225   0.5488   0.5836
     0.6653   0.7384   0.8176   1.0016   1.1036   1.1442   1.3100   1.3540
     1.6542   1.7019   2.5135   3.0266   3.1789   3.4429   3.4947   3.5314
     3.5761   3.6286   3.7595   3.8708   3.9279

[...]

          k = 0.0380-0.0419 0.0000 ( 17876 PWs)   bands (ev):

[...]

          k =-0.0760-0.0000 0.0000 ( 17886 PWs)   bands (ev):

[...]

          k =-0.0760-0.0839 0.0000 ( 17948 PWs)   bands (ev):

   -56.2587 -56.2129 -55.7708 -55.7113 -55.7092 -55.6932 -55.6767 -55.6616
   -55.6346 -55.6138 -55.5911 -55.5610 -55.4965 -55.3282 -54.8973 -54.8969
   -32.5367 -32.5147 -32.4773 -32.4757 -32.4027 -32.3646 -32.1574 -32.0754
   -32.0678 -32.0298 -32.0155 -31.9875 -31.9834 -31.9823 -31.9600 -31.9562
   -31.9447 -31.9414 -31.9353 -31.9307 -31.9140 -31.9125 -31.8874 -31.8865
   -31.8815 -31.8774 -31.8751 -31.8685 -31.8531 -31.8451 -31.8304 -31.8292
   -31.8268 -31.8167 -31.8060 -31.7841 -31.7644 -31.7328 -31.7036 -31.6608
   -31.5853 -31.5395 -31.2410 -31.2408 -31.1263 -31.1241 -31.0840 -31.0829
   -20.4235 -18.6518 -16.4781 -15.8408 -15.8290 -15.8007 -15.7604 -15.7137
   -15.6989 -15.6299 -15.6214 -15.5924 -15.5133 -15.4497 -15.3930 -15.3698
   -15.3670 -15.3445 -15.3159 -15.2775 -15.2546 -15.2471 -15.2357 -15.1815
   -15.1604 -15.1546 -15.1324 -15.1106 -15.0814 -15.0440 -14.9058 -14.6984
   -13.5918 -13.4112 -13.4094  -6.9061  -5.9105  -4.8873  -4.3308  -3.5913
    -3.2193  -3.0927  -3.0682  -2.9877  -2.9328  -2.8345  -2.8110  -2.7876
    -2.7815  -2.7653  -2.7430  -2.7114  -2.6620  -2.6355  -2.6005  -2.5909
    -2.5820  -2.5629  -2.5528  -2.5228  -2.5069  -2.4896  -2.4711  -2.4532
    -2.4361  -2.4237  -2.3521  -2.3196  -2.2818  -2.1203  -2.1101  -2.1075
    -2.0794  -2.0595  -2.0496  -1.9897  -1.9289  -1.9202  -1.8681  -1.8533
    -1.7619  -1.7081  -1.5394  -1.5061  -1.4821  -1.4027  -1.3468  -1.3111
    -1.2894  -1.2564  -1.2227  -1.2120  -1.1717  -1.1190  -1.0424  -1.0174
    -0.9715  -0.9616  -0.9526  -0.8650  -0.7961  -0.7800  -0.7364  -0.7174
    -0.6932  -0.6535  -0.6010  -0.5679  -0.5539  -0.5397  -0.4435  -0.3929
    -0.3390  -0.2341  -0.1997  -0.1407  -0.0273   0.0539   0.0680   0.1647
     0.2066   0.3039   0.3448   0.3970   0.4350   0.4610   0.4921   0.6083
     0.6270   0.6730   0.7511   0.7673   0.7969   0.8453   1.4926   1.4999
     1.5105   1.5119   2.4336   3.5491   3.5770   3.5954   3.6345   3.8347
     3.8655   3.8810   3.9124   3.9286   3.9811

     the Fermi energy is     2.8273 ev

!    total energy              =   -3002.64606299 Ry
     estimated scf accuracy    <       0.00000005 Ry
     smearing contrib. (-TS)   =      -0.00420857 Ry
     internal energy E=F+TS    =   -3002.64185442 Ry

     The total energy is F=E-TS. E is the sum of the following terms:
     one-electron contribution =  -23370.01021189 Ry
     hartree contribution      =   11778.77287162 Ry
     xc contribution           =    -498.78561015 Ry
     ewald contribution        =    9087.38079469 Ry
     electric field correction =       0.00030131 Ry

     convergence has been achieved in  60 iterations

     Forces acting on atoms (cartesian axes, Ry/au):

     atom    1 type  1   force =     0.00016572    0.00010277    0.09953934
     atom    2 type  1   force =     0.00014674    0.00020909    0.09903218
     atom    3 type  2   force =     0.00019377    0.00033967    0.12397247
     atom    4 type  2   force =     0.00044536    0.00004248    0.13855199
     atom    5 type  2   force =    -0.00010003    0.00964468   -0.15992114
     atom    6 type  2   force =     0.00009124   -0.00874026   -0.15970429
     atom    7 type  1   force =    -0.07912509    0.00146257   -0.03323430
     atom    8 type  1   force =    -0.07915682   -0.00181834   -0.03327267
     atom    9 type  1   force =     0.07908334    0.00179300   -0.03331686
     atom   10 type  1   force =     0.07911277   -0.00147118   -0.03329514
     atom   11 type  1   force =    -0.00114280    0.00062654    0.04286629
     atom   12 type  1   force =    -0.00114984    0.00003623    0.04551765
     atom   13 type  1   force =    -0.00039513   -0.00173858   -0.05072004
     atom   14 type  1   force =    -0.00085775    0.00123779   -0.04792462
     atom   15 type  2   force =    -0.00034978   -0.00005548    0.00020704
     atom   16 type  2   force =    -0.00033201    0.00005180   -0.00006165
     atom   17 type  2   force =     0.00022075   -0.00038517   -0.00006325
     atom   18 type  1   force =    -0.01154667   -0.00689810   -0.00025486
     atom   19 type  1   force =    -0.01367699    0.00098172    0.00210196
     atom   20 type  1   force =     0.01285849   -0.00248883   -0.00227402
     atom   21 type  1   force =     0.01411501    0.00576405    0.00035306
     atom   22 type  2   force =     0.00030597    0.00003449    0.00034419
     atom   23 type  1   force =    -0.00010269   -0.00009187   -0.00016045
     atom   24 type  1   force =    -0.00025941   -0.00000684    0.00025320
     atom   25 type  1   force =     0.00023282    0.00032259   -0.00026267
     atom   26 type  1   force =     0.00035157    0.00013510   -0.00041601
     atom   27 type  2   force =    -0.00030840   -0.00041944    0.00047497
     atom   28 type  2   force =     0.00051586   -0.00030084    0.00008602
     atom   29 type  2   force =    -0.00015572    0.00024326    0.00033997
     atom   30 type  1   force =    -0.00035373   -0.00036950   -0.00028617
     atom   31 type  1   force =     0.00051179   -0.00005137    0.00009140
     atom   32 type  1   force =    -0.00033027    0.00040918   -0.00003556
     atom   33 type  1   force =     0.00026535    0.00034500    0.00007110
     atom   34 type  2   force =     0.00041724    0.00016706   -0.00015896
     atom   35 type  1   force =     0.00006019   -0.00011769   -0.00059992
     atom   36 type  1   force =     0.00007821   -0.00006868    0.00011055
     atom   37 type  1   force =    -0.00002310   -0.00022354    0.00044757
     atom   38 type  1   force =     0.00005091    0.00047558   -0.00014727
     atom   39 type  2   force =     0.00006757    0.00033971    0.00056183
     atom   40 type  2   force =    -0.00016372   -0.00020890    0.00045177
     atom   41 type  2   force =    -0.00021757    0.00066560    0.00005907
     atom   42 type  1   force =     0.00033723    0.00004792   -0.00016878
     atom   43 type  1   force =    -0.00056716    0.00003294   -0.00021299
     atom   44 type  1   force =     0.00047779    0.00010855    0.00036108
     atom   45 type  1   force =    -0.00086261    0.00010236    0.00031878
     atom   46 type  2   force =    -0.00008780   -0.00010499    0.00020578
     atom   47 type  1   force =     0.00005393    0.00021971   -0.00029012
     atom   48 type  1   force =     0.00066418    0.00016438   -0.00095794
     atom   49 type  3   force =     0.00325021    0.01174467   -0.00555569
     atom   50 type  4   force =     0.00046617    0.00158773   -0.00043644
     atom   51 type  5   force =    -0.01226131   -0.03624678    0.02076462
     atom   52 type  5   force =     0.00831976    0.02225711   -0.01364333
     atom   53 type  1   force =     0.00028830    0.00016085   -0.00029922
     atom   54 type  4   force =     0.00037816   -0.00004978    0.00059050

     Total force =     0.383953     Total SCF correction =     0.000918
  @ DRIVER MODE: Message from server: STATUS
  @ DRIVER MODE: Message from server: GETFORCE
  @ DRIVER MODE: Returning v,forces,stress,ensemble

     Writing output data file ./calc.save/
  @ DRIVER MODE: Message from server: EXIT
  @ DRIVE MODE: Exiting

     General routines

     Parallel routines

   This run was terminated on:  23:48:53  22Sep2021

   JOB DONE.