     Program PWSCF v.6.7GPU starts on 23Sep2021 at  5: 4: 7

     R & G space division:  proc/nbgrp/npool/nimage =       8
     Reading input from /storage/home/hcoda1/3/ntian30/research/carbon/CxH_vib/H2O_calc/ads_slab/CH2NHHO_a/out_0017/pw.inp
Warning: card &CELL ignored
Warning: card   CELL_DYNAMICS='IPI', ignored
Warning: card / ignored

     Current dimensions of program PWSCF are:
     Max number of different atomic species (ntypx) = 10
     Max number of k-points (npk) =  40000
     Max angular momentum in pseudopotentials (lmaxx) =  3
     Presently no symmetry can be used with electric field

     Message from routine cell_base_init:
     DEPRECATED: use true lattice parameter, not A to a.u. conversion factor

     IMPORTANT: XC functional enforced from input :
     Exchange-correlation= BEEF-VDW
                           (   1   4  43  14   2   0   0)
     Any further DFT definition will be discarded
     Please, verify this is what you really want

  @ DRIVER MODE: Connecting to
 qe_1139763_2941012.sched-torque.pace.gatech.edu7rx6eiq__scratch
  using UNIX socket
  @ DRIVER MODE: Message from server: STATUS
  @ DRIVER MODE: Message from server: INIT
  @ DRIVER MODE: Receiving replica           0          -1
  @ DRIVER MODE: Receiving encoded integer          25
  @ DRIVER MODE:  SCF:  T  FORCE:  T  STRESS:  F  VC:  F  ENSEMBLE:  F
  @ DRIVER MODE:  SCF:  T  FORCE:  T  STRESS:  F  VC:  F  ENSEMBLE:  F

     Using Slab Decomposition

     bravais-lattice index     =            0
     lattice parameter (alat)  =       1.8897  a.u.
     unit-cell volume          =    6658.9804 (a.u.)^3
     number of atoms/cell      =           54
     number of atomic types    =            5
     number of electrons       =       397.00
     number of Kohn-Sham states=          208
     kinetic-energy cutoff     =      29.3995  Ry
     charge density cutoff     =     293.9946  Ry
     scf convergence threshold =      7.3E-08
     mixing beta               =       0.0500
     number of iterations used =            8  plain     mixing
     Exchange-correlation= BEEF-VDW
                           (   1   4  43  14   2   0   0)

     celldm(1)=   1.889726  celldm(2)=   0.000000  celldm(3)=   0.000000
     celldm(4)=   0.000000  celldm(5)=   0.000000  celldm(6)=   0.000000

     crystal axes: (cart. coord. in units of alat)
               a(1) = (   6.579727   0.000000   0.000000 )
               a(2) = (  -0.000775   5.961596   0.000000 )
               a(3) = (   0.000000   0.000000  25.155947 )

     reciprocal axes: (cart. coord. in units 2 pi/alat)
               b(1) = (  0.151982  0.000020  0.000000 )
               b(2) = (  0.000000  0.167740  0.000000 )
               b(3) = (  0.000000  0.000000  0.039752 )

     PseudoPot. # 1 for Ti read from file:
     /storage/coda1/p-amedford6/0/shared/rich_project_chbe-medford/medford-share/data/pseudos_module/espresso/nninc/pbe/van/Ti.UPF
     MD5 check sum: 8e4df49b7f0d34bbd5052bf3f5ea0213
     Pseudo is Ultrasoft, Zval = 12.0
     Generated by new atomic code, or converted to UPF format
     Using radial grid of  851 points,  6 beta functions with:
                l(1) =   0
                l(2) =   0
                l(3) =   1
                l(4) =   1
                l(5) =   2
                l(6) =   2
     Q(r) pseudized with  8 coefficients,  rinner =    1.000   1.000   1.000
                                                       1.000   1.000

     PseudoPot. # 2 for O  read from file:
     /storage/coda1/p-amedford6/0/shared/rich_project_chbe-medford/medford-share/data/pseudos_module/espresso/nninc/pbe/van/O.UPF
     MD5 check sum: 78c19812648e8988a0fe644b0f25305e
     Pseudo is Ultrasoft, Zval =  6.0
     Generated by new atomic code, or converted to UPF format
     Using radial grid of  737 points,  4 beta functions with:
                l(1) =   0
                l(2) =   0
                l(3) =   1
                l(4) =   1
     Q(r) pseudized with  8 coefficients,  rinner =    0.800   0.800   0.800

     PseudoPot. # 3 for N  read from file:
     /storage/coda1/p-amedford6/0/shared/rich_project_chbe-medford/medford-share/data/pseudos_module/espresso/nninc/pbe/van/N.UPF
     MD5 check sum: 90d10febe142ad51ac9d5be1deb811c4
     Pseudo is Ultrasoft, Zval =  5.0
     Generated by new atomic code, or converted to UPF format
     Using radial grid of  729 points,  4 beta functions with:
                l(1) =   0
                l(2) =   0
                l(3) =   1
                l(4) =   1
     Q(r) pseudized with  8 coefficients,  rinner =    0.800   0.800   0.800

     PseudoPot. # 4 for C  read from file:
     /storage/coda1/p-amedford6/0/shared/rich_project_chbe-medford/medford-share/data/pseudos_module/espresso/nninc/pbe/van/C.UPF
     MD5 check sum: 1a69bf6b8db32088f5b2163dbdb77a27
     Pseudo is Ultrasoft, Zval =  4.0
     Generated by new atomic code, or converted to UPF format
     Using radial grid of  721 points,  4 beta functions with:
                l(1) =   0
                l(2) =   0
                l(3) =   1
                l(4) =   1
     Q(r) pseudized with  8 coefficients,  rinner =    0.800   0.800   0.800

     PseudoPot. # 5 for H  read from file:
     /storage/coda1/p-amedford6/0/shared/rich_project_chbe-medford/medford-share/data/pseudos_module/espresso/nninc/pbe/van/H.UPF
     MD5 check sum: b5ee9d7bfd3a09ee7748110bda690ff7
     Pseudo is Ultrasoft, Zval =  1.0
     Generated by new atomic code, or converted to UPF format
     Using radial grid of  615 points,  1 beta functions with:
                l(1) =   0
     Q(r) pseudized with  8 coefficients,  rinner =    0.800

     atomic species   valence    mass     pseudopotential
        Ti1           12.00    47.86700     Ti( 1.00)
        O1             6.00    15.99900     O ( 1.00)
        N1             5.00    14.00700     N ( 1.00)
        C1             4.00    12.01100     C ( 1.00)
        H1             1.00     1.00800     H ( 1.00)

     No symmetry found

   Cartesian axes

     site n.     atom                  positions (alat units)
         1           Ti1 tau(   1) = (   0.0004258   2.9801865   6.0000000  )
         2           Ti1 tau(   2) = (   3.2906075   1.4906267   6.0002472  )
         3           O1  tau(   3) = (   0.0006271   0.0005054   7.9858123  )
         4           O1  tau(   4) = (   3.2906025   0.0005020   7.3038282  )
         5           O1  tau(   5) = (   4.5942328   1.4918067   9.2879030  )
         6           O1  tau(   6) = (   1.9868534   1.4903216   9.2879459  )
         7           Ti1 tau(   7) = (   3.2907910   2.8959150   9.1758416  )
         8           Ti1 tau(   8) = (   0.0015273   1.4827037   9.2680791  )
         9           O1  tau(   9) = (   3.2872377   5.9372537  11.3619719  )
        10           O1  tau(  10) = (   0.0116148   5.9584955  10.6183126  )
        11           O1  tau(  11) = (   1.2678424   1.4880610  12.6451974  )
        12           O1  tau(  12) = (   5.2928823   1.5036634  12.6399001  )
        13           Ti1 tau(  13) = (   6.5521701   2.9315368  12.5404127  )
        14           Ti1 tau(  14) = (   3.2895327   1.2997526  12.7137971  )
        15           O1  tau(  15) = (   6.5477037   0.0845492  14.6505624  )
        16           O1  tau(  16) = (   3.2827468   0.0880329  14.0175491  )
        17           O1  tau(  17) = (   4.5427558   1.5765460  16.1196870  )
        18           O1  tau(  18) = (   1.9971221   1.5491956  16.2097298  )
        19           Ti1 tau(  19) = (   3.2670693   3.0250103  15.6873951  )
        20           Ti1 tau(  20) = (   6.4806419   1.4532933  16.0069425  )
        21           O1  tau(  21) = (   3.2904802   0.0005063   4.7018136  )
        22           O1  tau(  22) = (   6.5100566   5.8635464  17.1664964  )
        23           O1  tau(  23) = (   1.3043587   1.4918075   6.0039043  )
        24           O1  tau(  24) = (   5.2767064   1.4903225   6.0039473  )
        25           Ti1 tau(  25) = (   0.0000382   5.9609847   6.0000000  )
        26           Ti1 tau(  26) = (   3.2902200   4.4714249   6.0002472  )
        27           O1  tau(  27) = (   0.0002396   2.9813036   7.9858123  )
        28           O1  tau(  28) = (   3.2902150   2.9813002   7.3038282  )
        29           O1  tau(  29) = (   4.5938453   4.4726049   9.2879030  )
        30           O1  tau(  30) = (   1.9864658   4.4711199   9.2879459  )
        31           Ti1 tau(  31) = (   3.2891106   5.8743827   9.1763621  )
        32           Ti1 tau(  32) = (   0.0006254   4.4649316   9.2693709  )
        33           O1  tau(  33) = (   3.2826969   3.0075535  11.3127327  )
        34           O1  tau(  34) = (   0.0092240   2.9805883  10.6323155  )
        35           O1  tau(  35) = (   1.2713698   4.4757098  12.6731835  )
        36           O1  tau(  36) = (   5.2977781   4.4601507  12.6712348  )
        37           Ti1 tau(  37) = (   0.0330522   5.9225719  12.5042524  )
        38           Ti1 tau(  38) = (   3.2990360   4.3766664  12.4405836  )
        39           O1  tau(  39) = (   0.0150134   2.9421642  14.8567636  )
        40           O1  tau(  40) = (   3.2596324   2.9836344  13.9148061  )
        41           O1  tau(  41) = (   4.5490916   4.3969069  16.0525170  )
        42           O1  tau(  42) = (   1.9960638   4.4622821  16.0939853  )
        43           Ti1 tau(  43) = (   3.1777156   0.0378257  16.2738330  )
        44           Ti1 tau(  44) = (   6.5243348   4.6462111  15.7996153  )
        45           O1  tau(  45) = (   3.2900926   2.9813045   4.7018136  )
        46           O1  tau(  46) = (   1.3039711   4.4726057   6.0039043  )
        47           O1  tau(  47) = (   5.2763189   4.4711207   6.0039473  )
        48           N1  tau(  48) = (   6.4646383   2.7559932  17.9272311  )
        49           C1  tau(  49) = (   0.7552072   2.7164238  18.8602713  )
        50           H1  tau(  50) = (   0.5916026   3.1878006  19.8166510  )
        51           H1  tau(  51) = (   1.6887153   2.1901376  18.6919226  )
        52           H1  tau(  52) = (   5.6107037   3.2511282  18.1874541  )
        53           O1  tau(  53) = (   3.4589997   5.9358250  18.1144358  )
        54           H1  tau(  54) = (   4.3999295   5.9567086  18.3589960  )

     number of k points=    10  Fermi-Dirac smearing, width (Ry)=  0.0073
                       cart. coord. in units 2pi/alat
        k(    1) = (   0.0000000   0.0000000   0.0000000), wk =   0.1250000
        k(    2) = (   0.0000000   0.0419351   0.0000000), wk =   0.2500000
        k(    3) = (   0.0000000  -0.0838702   0.0000000), wk =   0.1250000
        k(    4) = (   0.0379955   0.0000049   0.0000000), wk =   0.2500000
        k(    5) = (   0.0379955   0.0419400   0.0000000), wk =   0.2500000
        k(    6) = (   0.0379955  -0.0838652   0.0000000), wk =   0.2500000
        k(    7) = (   0.0379955  -0.0419301   0.0000000), wk =   0.2500000
        k(    8) = (  -0.0759910  -0.0000099   0.0000000), wk =   0.1250000
        k(    9) = (  -0.0759910   0.0419252   0.0000000), wk =   0.2500000
        k(   10) = (  -0.0759910  -0.0838800   0.0000000), wk =   0.1250000

     Initial potential from superposition of free atoms

     starting charge  380.99916, renormalised to  397.00000

     negative rho (up, down):  1.655E-02 0.000E+00

     %%%%%%%%%%%%%%%%%%%%%%%%%%%%%%%%%%%%%%%%%%%%%%%%%%%%%%%%%%%%%%%%%%%%%%%%
     %                                                                      %
     % You are using vdW-DF, which was implemented by the Thonhauser group. %
     % Please cite the following two papers that made this development      %
     % possible and the two reviews that describe the various versions:     %
     %                                                                      %
     %   T. Thonhauser et al., PRL 115, 136402 (2015).                      %
     %   T. Thonhauser et al., PRB 76, 125112 (2007).                       %
     %   K. Berland et al., Rep. Prog. Phys. 78, 066501 (2015).             %
     %   D.C. Langreth et al., J. Phys.: Condens. Matter 21, 084203 (2009). %
     %                                                                      %
     %                                                                      %
     % If you are calculating the stress with vdW-DF, please also cite:     %
     %                                                                      %
     %   R. Sabatini et al., J. Phys.: Condens. Matter 24, 424209 (2012).   %
     %                                                                      %
     %%%%%%%%%%%%%%%%%%%%%%%%%%%%%%%%%%%%%%%%%%%%%%%%%%%%%%%%%%%%%%%%%%%%%%%%

     Adding external electric field

     Computed dipole along edir(3) :
        Dipole               -9.2990 Ry au,        -23.6358 Debye
        Dipole field         -0.0175 Ry au,

        Potential amp.        1.6267 Ry
        Total length         46.3494 bohr

     Starting wfcs are  300 atomic wfcs
  @ DRIVER MODE: Message from server: STATUS
  @ DRIVER MODE: Message from server: POSDATA
  @ DRIVER MODE: Reading and sharing cell
  @ DRIVER MODE: Reading and sharing positions
  @ DRIVER MODE: Received positions

     Self-consistent Calculation

     iteration #  1     ecut=    29.40 Ry     beta= 0.05
     Davidson diagonalization with overlap
     c_bands:  1 eigenvalues not converged
     c_bands:  1 eigenvalues not converged
     c_bands:  2 eigenvalues not converged
     c_bands:  1 eigenvalues not converged
     c_bands:  1 eigenvalues not converged
     c_bands:  2 eigenvalues not converged
     c_bands:  1 eigenvalues not converged
     c_bands:  1 eigenvalues not converged
     c_bands:  3 eigenvalues not converged
     ethr =  1.00E-05,  avg # of iterations = 19.6

[...]

     total energy              =   -2534.80771489 Ry
     estimated scf accuracy    <    4639.06809104 Ry

     iteration #  2     ecut=    29.40 Ry     beta= 0.05
     Davidson diagonalization with overlap
     ethr =  1.00E-02,  avg # of iterations = 24.8

[...]

     iteration # 47     ecut=    29.40 Ry     beta= 0.05
     Davidson diagonalization with overlap
     c_bands:  1 eigenvalues not converged
     ethr =  1.19E-07,  avg # of iterations = 12.3

[...]

     total energy              =   -2952.74688371 Ry
     estimated scf accuracy    <       0.00000008 Ry

     iteration # 69     ecut=    29.40 Ry     beta= 0.05
     Davidson diagonalization with overlap
     ethr =  1.89E-11,  avg # of iterations =  8.8

     negative rho (up, down):  1.674E-02 0.000E+00

     Adding external electric field

     Computed dipole along edir(3) :
        Dipole                1.0864 Ry au,          2.7614 Debye
        Dipole field          0.0021 Ry au,

        Potential amp.       -0.1900 Ry
        Total length         46.3494 bohr

     End of self-consistent calculation

          k = 0.0000 0.0000 0.0000 ( 18029 PWs)   bands (ev):

   -55.6625 -55.6404 -55.6064 -55.4693 -55.4620 -55.4345 -55.4340 -55.4286
   -55.4115 -55.4003 -55.3511 -55.2429 -55.2261 -55.1750 -54.6059 -54.5719
   -32.1240 -31.9909 -31.9652 -31.9578 -31.9528 -31.9317 -31.9316 -31.8857
   -31.8839 -31.8680 -31.8353 -31.7929 -31.7551 -31.7461 -31.7368 -31.7343
   -31.7160 -31.6979 -31.6780 -31.6669 -31.6640 -31.6574 -31.6364 -31.6254
   -31.6179 -31.6106 -31.6011 -31.5917 -31.5907 -31.5785 -31.5765 -31.5715
   -31.5667 -31.5472 -31.5219 -31.5067 -31.4393 -31.4309 -31.4176 -31.3878
   -31.3806 -31.3804 -31.0114 -30.9262 -30.9037 -30.8291 -30.7428 -30.6309
   -16.7181 -16.4374 -16.2567 -16.0829 -15.8692 -15.7949 -15.7577 -15.5607
   -15.4745 -15.4100 -15.1780 -15.1727 -15.1615 -15.1395 -15.1126 -15.1025
   -15.0924 -15.0575 -15.0556 -15.0334 -15.0075 -14.9741 -14.9655 -14.9179
   -14.8688 -14.8518 -14.7711 -14.6980 -14.6513 -14.4497 -14.3241 -13.1043
   -12.9881  -9.3434  -6.3737  -4.7381  -3.9554  -3.6257  -3.5398  -3.5054
    -3.4304  -3.3800  -3.1442  -3.0080  -2.9606  -2.8761  -2.7629  -2.7379
    -2.6760  -2.6208  -2.5531  -2.5301  -2.4873  -2.4316  -2.4089  -2.3786
    -2.3695  -2.3373  -2.2863  -2.2230  -2.1624  -2.1369  -2.0785  -2.0024
    -1.9539  -1.9494  -1.9428  -1.9218  -1.8977  -1.8755  -1.8524  -1.8414
    -1.7381  -1.6847  -1.6658  -1.6126  -1.5679  -1.3117  -1.2346  -1.2227
    -1.1537  -1.1036  -1.0715  -1.0533  -1.0246  -0.9795  -0.9268  -0.8934
    -0.8128  -0.7586  -0.6995  -0.6866  -0.6405  -0.5640  -0.4811  -0.4235
    -0.4066  -0.3489  -0.3405  -0.3149  -0.1926  -0.1545  -0.1448  -0.0898
    -0.0631   0.0398   0.0838   0.1228   0.1540   0.2428   0.2647   0.3059
     0.3115   0.3416   0.3482   0.4382   0.4476   0.4737   0.5358   0.5625
     0.6401   0.7114   0.7189   0.8744   0.9220   1.0125   1.0450   1.1345
     1.3713   1.4206   1.4784   1.6143   1.9869   2.0318   3.4529   3.5982
     3.6155   3.7073   3.7125   3.8184   3.9275   3.9824   4.0193   4.1302

[...]

          k = 0.0380-0.0419 0.0000 ( 17876 PWs)   bands (ev):

[...]

          k =-0.0760-0.0000 0.0000 ( 17886 PWs)   bands (ev):

[...]

          k =-0.0760-0.0839 0.0000 ( 17948 PWs)   bands (ev):

   -55.6617 -55.6236 -55.6230 -55.4532 -55.4501 -55.4454 -55.4447 -55.4329
   -55.4123 -55.3936 -55.3578 -55.2387 -55.2275 -55.1791 -54.5892 -54.5884
   -31.9395 -31.9392 -31.9264 -31.9179 -31.9173 -31.9168 -31.8761 -31.8685
   -31.8056 -31.7771 -31.7763 -31.7671 -31.7617 -31.7435 -31.7428 -31.7367
   -31.7188 -31.7159 -31.7025 -31.6820 -31.6697 -31.6577 -31.6546 -31.6473
   -31.6443 -31.6402 -31.6369 -31.6208 -31.6168 -31.6133 -31.6111 -31.6107
   -31.5977 -31.5805 -31.5779 -31.5219 -31.5059 -31.4608 -31.4427 -31.4345
   -31.4262 -31.3849 -30.9167 -30.9162 -30.8249 -30.8238 -30.7863 -30.7857
   -16.6976 -16.4182 -15.8232 -15.7146 -15.5937 -15.5851 -15.4725 -15.3998
   -15.3651 -15.3359 -15.3183 -15.3079 -15.2844 -15.2450 -15.1973 -15.1766
   -15.1444 -15.1263 -15.1141 -15.0730 -15.0577 -15.0482 -15.0291 -14.9848
   -14.9710 -14.9415 -14.9286 -14.7969 -14.7436 -14.6367 -14.5658 -13.0903
   -13.0898  -9.3484  -6.3701  -4.7231  -3.9372  -3.0273  -2.9316  -2.8013
    -2.7069  -2.6709  -2.6320  -2.6061  -2.5828  -2.5420  -2.5248  -2.4759
    -2.4319  -2.4144  -2.4031  -2.3735  -2.3691  -2.3602  -2.3285  -2.3078
    -2.3008  -2.2881  -2.2643  -2.2535  -2.2363  -2.2119  -2.1990  -2.1729
    -2.1523  -2.1059  -1.9958  -1.9427  -1.9144  -1.7855  -1.7720  -1.7510
    -1.7359  -1.7220  -1.7009  -1.6824  -1.6153  -1.5970  -1.5696  -1.3932
    -1.3743  -1.2851  -1.2526  -1.2071  -1.1424  -1.1289  -1.0790  -1.0513
    -0.9970  -0.9715  -0.8792  -0.8253  -0.7952  -0.7588  -0.6347  -0.5831
    -0.5773  -0.5671  -0.5378  -0.5174  -0.4732  -0.4524  -0.4224  -0.3569
    -0.3274  -0.3104  -0.2647  -0.2527  -0.1286  -0.0109   0.0735   0.1169
     0.1784   0.1991   0.2382   0.3431   0.4185   0.4993   0.5417   0.5599
     0.5912   0.6822   0.6978   0.8407   0.8702   0.8753   0.9116   0.9431
     0.9721   1.0169   1.7838   1.7918   1.8520   1.8523   3.6999   3.8306
     3.9604   3.9804   3.9928   4.0252   4.0291   4.0528   4.1032   4.1368

     the Fermi energy is     3.4844 ev

!    total energy              =   -2952.74690235 Ry
     estimated scf accuracy    <       0.00000005 Ry
     smearing contrib. (-TS)   =      -0.02003564 Ry
     internal energy E=F+TS    =   -2952.72686672 Ry

     The total energy is F=E-TS. E is the sum of the following terms:
     one-electron contribution =  -23992.01156268 Ry
     hartree contribution      =   12087.50213235 Ry
     xc contribution           =    -488.03589122 Ry
     ewald contribution        =    9439.81622750 Ry
     electric field correction =       0.00222732 Ry

     convergence has been achieved in  69 iterations

     Forces acting on atoms (cartesian axes, Ry/au):

     atom    1 type  1   force =     0.00015915   -0.00027499    0.09474722
     atom    2 type  1   force =    -0.00000674    0.00040314   -0.17491961
     atom    3 type  2   force =    -0.00001393   -0.00013063   -0.02197195
     atom    4 type  2   force =     0.00006252   -0.00191423    0.05341232
     atom    5 type  2   force =    -0.00734524   -0.00240152    0.00310449
     atom    6 type  2   force =     0.00860924   -0.00197799    0.00181994
     atom    7 type  1   force =    -0.00058973   -0.00348703    0.00958418
     atom    8 type  1   force =     0.00060740    0.00468885    0.00862412
     atom    9 type  2   force =     0.00009053    0.00016442   -0.00016711
     atom   10 type  2   force =    -0.00268821   -0.00030825   -0.01302431
     atom   11 type  2   force =    -0.00039737   -0.00035582   -0.00011569
     atom   12 type  2   force =     0.00017382   -0.00017449    0.00030183
     atom   13 type  1   force =     0.00039908    0.00019683   -0.00068258
     atom   14 type  1   force =    -0.00014817    0.00008751   -0.00002729
     atom   15 type  2   force =     0.00025759   -0.00029811   -0.00042917
     atom   16 type  2   force =     0.00039591    0.00011142   -0.00005451
     atom   17 type  2   force =    -0.00021424   -0.00002330    0.00030894
     atom   18 type  2   force =     0.00009643   -0.00092403   -0.00023886
     atom   19 type  1   force =     0.00030331    0.00046193    0.00017960
     atom   20 type  1   force =    -0.00001150    0.00004984    0.00019557
     atom   21 type  2   force =     0.00009672    0.00008015    0.10309655
     atom   22 type  2   force =     0.00008441   -0.00048377    0.00003702
     atom   23 type  2   force =    -0.07213900   -0.00014073   -0.02737211
     atom   24 type  2   force =     0.07209190    0.00027222   -0.02739418
     atom   25 type  1   force =     0.00003426   -0.00009263    0.09451390
     atom   26 type  1   force =    -0.00007757   -0.00132157   -0.17509462
     atom   27 type  2   force =     0.00014881   -0.00020218   -0.02074007
     atom   28 type  2   force =     0.00002313   -0.00019026    0.04899915
     atom   29 type  2   force =    -0.00616709    0.00259644    0.00154962
     atom   30 type  2   force =     0.00738855    0.00321877    0.00010954
     atom   31 type  1   force =    -0.00055178    0.00715514   -0.00090715
     atom   32 type  1   force =     0.00055621   -0.00650805    0.00787049
     atom   33 type  2   force =     0.00025464   -0.00025438   -0.00033147
     atom   34 type  2   force =    -0.00212522    0.00146798   -0.01183152
     atom   35 type  2   force =    -0.00008895    0.00000123    0.00017649
     atom   36 type  2   force =    -0.00023084    0.00010815    0.00029995
     atom   37 type  1   force =     0.00054623   -0.00011944   -0.00026071
     atom   38 type  1   force =    -0.00019353   -0.00014761    0.00031538
     atom   39 type  2   force =     0.00012597    0.00038230   -0.00041730
     atom   40 type  2   force =    -0.00015377    0.00028319   -0.00048875
     atom   41 type  2   force =     0.00014160    0.00038840   -0.00021746
     atom   42 type  2   force =    -0.00011724    0.00040599    0.00026407
     atom   43 type  1   force =    -0.00007430   -0.00091370   -0.00033272
     atom   44 type  1   force =     0.00014371    0.00069532    0.00028918
     atom   45 type  2   force =     0.00009770   -0.00009154    0.10291790
     atom   46 type  2   force =    -0.07215905   -0.00005358   -0.02740147
     atom   47 type  2   force =     0.07216112    0.00039747   -0.02743375
     atom   48 type  3   force =    -0.00009170   -0.00099148   -0.00119687
     atom   49 type  4   force =     0.00212180   -0.00433028   -0.01001396
     atom   50 type  5   force =    -0.00156926    0.00452856    0.01047640
     atom   51 type  5   force =     0.00023571   -0.00003562   -0.00035280
     atom   52 type  5   force =     0.00008190   -0.00002561   -0.00006986
     atom   53 type  2   force =     0.00000740    0.00007486    0.00158558
     atom   54 type  5   force =    -0.00034230   -0.00004731   -0.00129158

     Total force =     0.362756     Total SCF correction =     0.000761
  @ DRIVER MODE: Message from server: STATUS
  @ DRIVER MODE: Message from server: GETFORCE
  @ DRIVER MODE: Returning v,forces,stress,ensemble

     Writing output data file ./calc.save/
  @ DRIVER MODE: Message from server: EXIT
  @ DRIVE MODE: Exiting

     General routines

     Parallel routines

   This run was terminated on:   5:27:58  23Sep2021

   JOB DONE.