     Program PWSCF v.6.7GPU starts on 10Sep2021 at  6: 0:29

     R & G space division:  proc/nbgrp/npool/nimage =      10
     Reading input from /storage/home/hcoda1/3/ntian30/research/carbon/CxH_vib/CH3_calc/ads_slab/CH3N2H2O_g/out_0028/pw.inp
Warning: card &CELL ignored
Warning: card   CELL_DYNAMICS='IPI', ignored
Warning: card / ignored

     Current dimensions of program PWSCF are:
     Max number of different atomic species (ntypx) = 10
     Max number of k-points (npk) =  40000
     Max angular momentum in pseudopotentials (lmaxx) =  3
     Presently no symmetry can be used with electric field

     Message from routine cell_base_init:
     DEPRECATED: use true lattice parameter, not A to a.u. conversion factor

     IMPORTANT: XC functional enforced from input :
     Exchange-correlation= BEEF-VDW
                           (   1   4  43  14   2   0   0)
     Any further DFT definition will be discarded
     Please, verify this is what you really want

  @ DRIVER MODE: Connecting to
 qe_1139763_2779714.sched-torque.pace.gatech.eduawyfdjwf_scratch
  using UNIX socket
  @ DRIVER MODE: Message from server: STATUS
  @ DRIVER MODE: Message from server: INIT
  @ DRIVER MODE: Receiving replica           0          -1
  @ DRIVER MODE: Receiving encoded integer          25
  @ DRIVER MODE:  SCF:  T  FORCE:  T  STRESS:  F  VC:  F  ENSEMBLE:  F
  @ DRIVER MODE:  SCF:  T  FORCE:  T  STRESS:  F  VC:  F  ENSEMBLE:  F

     Using Slab Decomposition

     bravais-lattice index     =            0
     lattice parameter (alat)  =       1.8897  a.u.
     unit-cell volume          =    6658.9804 (a.u.)^3
     number of atoms/cell      =           56
     number of atomic types    =            5
     number of electrons       =       403.00
     number of Kohn-Sham states=          211
     kinetic-energy cutoff     =      29.3995  Ry
     charge density cutoff     =     293.9946  Ry
     scf convergence threshold =      7.3E-08
     mixing beta               =       0.0500
     number of iterations used =            8  plain     mixing
     Exchange-correlation= BEEF-VDW
                           (   1   4  43  14   2   0   0)

     celldm(1)=   1.889726  celldm(2)=   0.000000  celldm(3)=   0.000000
     celldm(4)=   0.000000  celldm(5)=   0.000000  celldm(6)=   0.000000

     crystal axes: (cart. coord. in units of alat)
               a(1) = (   6.579727   0.000000   0.000000 )
               a(2) = (  -0.000775   5.961596   0.000000 )
               a(3) = (   0.000000   0.000000  25.155947 )

     reciprocal axes: (cart. coord. in units 2 pi/alat)
               b(1) = (  0.151982  0.000020  0.000000 )
               b(2) = (  0.000000  0.167740  0.000000 )
               b(3) = (  0.000000  0.000000  0.039752 )

     PseudoPot. # 1 for Ti read from file:
     /storage/coda1/p-amedford6/0/shared/rich_project_chbe-medford/medford-share/data/pseudos_module/espresso/nninc/pbe/van/Ti.UPF
     MD5 check sum: 8e4df49b7f0d34bbd5052bf3f5ea0213
     Pseudo is Ultrasoft, Zval = 12.0
     Generated by new atomic code, or converted to UPF format
     Using radial grid of  851 points,  6 beta functions with:
                l(1) =   0
                l(2) =   0
                l(3) =   1
                l(4) =   1
                l(5) =   2
                l(6) =   2
     Q(r) pseudized with  8 coefficients,  rinner =    1.000   1.000   1.000
                                                       1.000   1.000

     PseudoPot. # 2 for O  read from file:
     /storage/coda1/p-amedford6/0/shared/rich_project_chbe-medford/medford-share/data/pseudos_module/espresso/nninc/pbe/van/O.UPF
     MD5 check sum: 78c19812648e8988a0fe644b0f25305e
     Pseudo is Ultrasoft, Zval =  6.0
     Generated by new atomic code, or converted to UPF format
     Using radial grid of  737 points,  4 beta functions with:
                l(1) =   0
                l(2) =   0
                l(3) =   1
                l(4) =   1
     Q(r) pseudized with  8 coefficients,  rinner =    0.800   0.800   0.800

     PseudoPot. # 3 for N  read from file:
     /storage/coda1/p-amedford6/0/shared/rich_project_chbe-medford/medford-share/data/pseudos_module/espresso/nninc/pbe/van/N.UPF
     MD5 check sum: 90d10febe142ad51ac9d5be1deb811c4
     Pseudo is Ultrasoft, Zval =  5.0
     Generated by new atomic code, or converted to UPF format
     Using radial grid of  729 points,  4 beta functions with:
                l(1) =   0
                l(2) =   0
                l(3) =   1
                l(4) =   1
     Q(r) pseudized with  8 coefficients,  rinner =    0.800   0.800   0.800

     PseudoPot. # 4 for C  read from file:
     /storage/coda1/p-amedford6/0/shared/rich_project_chbe-medford/medford-share/data/pseudos_module/espresso/nninc/pbe/van/C.UPF
     MD5 check sum: 1a69bf6b8db32088f5b2163dbdb77a27
     Pseudo is Ultrasoft, Zval =  4.0
     Generated by new atomic code, or converted to UPF format
     Using radial grid of  721 points,  4 beta functions with:
                l(1) =   0
                l(2) =   0
                l(3) =   1
                l(4) =   1
     Q(r) pseudized with  8 coefficients,  rinner =    0.800   0.800   0.800

     PseudoPot. # 5 for H  read from file:
     /storage/coda1/p-amedford6/0/shared/rich_project_chbe-medford/medford-share/data/pseudos_module/espresso/nninc/pbe/van/H.UPF
     MD5 check sum: b5ee9d7bfd3a09ee7748110bda690ff7
     Pseudo is Ultrasoft, Zval =  1.0
     Generated by new atomic code, or converted to UPF format
     Using radial grid of  615 points,  1 beta functions with:
                l(1) =   0
     Q(r) pseudized with  8 coefficients,  rinner =    0.800

     atomic species   valence    mass     pseudopotential
        Ti1           12.00    47.86700     Ti( 1.00)
        O1             6.00    15.99900     O ( 1.00)
        N1             5.00    14.00700     N ( 1.00)
        C1             4.00    12.01100     C ( 1.00)
        H1             1.00     1.00800     H ( 1.00)

     No symmetry found

   Cartesian axes

     site n.     atom                  positions (alat units)
         1           Ti1 tau(   1) = (   0.0004258   2.9801865   6.0000000  )
         2           Ti1 tau(   2) = (   3.2906075   1.4906267   6.0002472  )
         3           O1  tau(   3) = (   0.0006271   0.0005054   7.9858123  )
         4           O1  tau(   4) = (   3.2906025   0.0005020   7.3038282  )
         5           O1  tau(   5) = (   4.5942328   1.4918067   9.2879030  )
         6           O1  tau(   6) = (   1.9868534   1.4903216   9.2879459  )
         7           Ti1 tau(   7) = (   3.2907910   2.8959150   9.1758416  )
         8           Ti1 tau(   8) = (   0.0015273   1.4827037   9.2680791  )
         9           O1  tau(   9) = (   3.3002115   5.9463602  11.3460011  )
        10           O1  tau(  10) = (   0.0116148   5.9584955  10.6183126  )
        11           O1  tau(  11) = (   1.3192008   1.4768417  12.6238339  )
        12           O1  tau(  12) = (   5.3062067   1.4698383  12.6193417  )
        13           Ti1 tau(  13) = (   6.5330844   2.9444840  12.6148558  )
        14           Ti1 tau(  14) = (   3.2222230   1.4676475  12.5013840  )
        15           O1  tau(  15) = (   0.0064324   5.9471174  14.6352917  )
        16           O1  tau(  16) = (   3.3028336   5.9445487  13.9678148  )
        17           O1  tau(  17) = (   4.5628415   1.5226527  16.0793330  )
        18           O1  tau(  18) = (   2.0474444   1.5206590  16.0184434  )
        19           Ti1 tau(  19) = (   3.3141275   2.9607752  15.6908890  )
        20           Ti1 tau(  20) = (   6.5660065   1.5097775  15.7997320  )
        21           O1  tau(  21) = (   3.2904802   0.0005063   4.7018136  )
        22           O1  tau(  22) = (   0.0269361   0.0086655  17.1987262  )
        23           O1  tau(  23) = (   1.3043587   1.4918075   6.0039043  )
        24           O1  tau(  24) = (   5.2767064   1.4903225   6.0039473  )
        25           Ti1 tau(  25) = (   0.0000382   5.9609847   6.0000000  )
        26           Ti1 tau(  26) = (   3.2902200   4.4714249   6.0002472  )
        27           O1  tau(  27) = (   0.0002396   2.9813036   7.9858123  )
        28           O1  tau(  28) = (   3.2902150   2.9813002   7.3038282  )
        29           O1  tau(  29) = (   4.5938453   4.4726049   9.2879030  )
        30           O1  tau(  30) = (   1.9864658   4.4711199   9.2879459  )
        31           Ti1 tau(  31) = (   3.2891106   5.8743827   9.1763621  )
        32           Ti1 tau(  32) = (   0.0006254   4.4649316   9.2693709  )
        33           O1  tau(  33) = (   3.2944391   2.9688829  11.3444728  )
        34           O1  tau(  34) = (   0.0092240   2.9805883  10.6323155  )
        35           O1  tau(  35) = (   1.3142520   4.4635248  12.6275686  )
        36           O1  tau(  36) = (   5.3078217   4.4601700  12.6226734  )
        37           Ti1 tau(  37) = (   6.5374036   5.9186568  12.5467527  )
        38           Ti1 tau(  38) = (   3.2213306   4.4595164  12.5065882  )
        39           O1  tau(  39) = (   6.5756885   2.9534048  14.6511233  )
        40           O1  tau(  40) = (   3.3206316   2.9687378  13.8980937  )
        41           O1  tau(  41) = (   4.5543359   4.4428353  16.0905846  )
        42           O1  tau(  42) = (   2.0427057   4.4323087  16.0570365  )
        43           Ti1 tau(  43) = (   3.2570595   5.9269474  15.8069103  )
        44           Ti1 tau(  44) = (   6.5609319   4.6488967  16.0725391  )
        45           O1  tau(  45) = (   3.2900926   2.9813045   4.7018136  )
        46           O1  tau(  46) = (   1.3039711   4.4726057   6.0039043  )
        47           O1  tau(  47) = (   5.2763189   4.4711207   6.0039473  )
        48           N1  tau(  48) = (   0.2492319   2.6641403  18.6309932  )
        49           N1  tau(  49) = (   0.0782707   2.8835230  17.4382120  )
        50           C1  tau(  50) = (   0.2622466   3.8234900  19.5663878  )
        51           H1  tau(  51) = (   6.1755609   4.6233469  19.2444151  )
        52           H1  tau(  52) = (   6.5754044   3.4577461  20.5519103  )
        53           H1  tau(  53) = (   1.2857956   4.2073973  19.6006198  )
        54           O1  tau(  54) = (   3.1761146   0.0362278  18.2233714  )
        55           H1  tau(  55) = (   3.9097821   0.6076051  18.5038283  )
        56           H1  tau(  56) = (   2.3516031   0.5117379  18.4309238  )

     number of k points=    10  Fermi-Dirac smearing, width (Ry)=  0.0073
                       cart. coord. in units 2pi/alat
        k(    1) = (   0.0000000   0.0000000   0.0000000), wk =   0.1250000
        k(    2) = (   0.0000000   0.0419351   0.0000000), wk =   0.2500000
        k(    3) = (   0.0000000  -0.0838702   0.0000000), wk =   0.1250000
        k(    4) = (   0.0379955   0.0000049   0.0000000), wk =   0.2500000
        k(    5) = (   0.0379955   0.0419400   0.0000000), wk =   0.2500000
        k(    6) = (   0.0379955  -0.0838652   0.0000000), wk =   0.2500000
        k(    7) = (   0.0379955  -0.0419301   0.0000000), wk =   0.2500000
        k(    8) = (  -0.0759910  -0.0000099   0.0000000), wk =   0.1250000
        k(    9) = (  -0.0759910   0.0419252   0.0000000), wk =   0.2500000
        k(   10) = (  -0.0759910  -0.0838800   0.0000000), wk =   0.1250000

     Initial potential from superposition of free atoms

     starting charge  386.99914, renormalised to  403.00000

     negative rho (up, down):  1.449E-02 0.000E+00

     %%%%%%%%%%%%%%%%%%%%%%%%%%%%%%%%%%%%%%%%%%%%%%%%%%%%%%%%%%%%%%%%%%%%%%%%
     %                                                                      %
     % You are using vdW-DF, which was implemented by the Thonhauser group. %
     % Please cite the following two papers that made this development      %
     % possible and the two reviews that describe the various versions:     %
     %                                                                      %
     %   T. Thonhauser et al., PRL 115, 136402 (2015).                      %
     %   T. Thonhauser et al., PRB 76, 125112 (2007).                       %
     %   K. Berland et al., Rep. Prog. Phys. 78, 066501 (2015).             %
     %   D.C. Langreth et al., J. Phys.: Condens. Matter 21, 084203 (2009). %
     %                                                                      %
     %                                                                      %
     % If you are calculating the stress with vdW-DF, please also cite:     %
     %                                                                      %
     %   R. Sabatini et al., J. Phys.: Condens. Matter 24, 424209 (2012).   %
     %                                                                      %
     %%%%%%%%%%%%%%%%%%%%%%%%%%%%%%%%%%%%%%%%%%%%%%%%%%%%%%%%%%%%%%%%%%%%%%%%

     Adding external electric field

     Computed dipole along edir(3) :
        Dipole              -13.2089 Ry au,        -33.5737 Debye
        Dipole field         -0.0249 Ry au,

        Potential amp.        2.3107 Ry
        Total length         46.3494 bohr

     Starting wfcs are  305 atomic wfcs
  @ DRIVER MODE: Message from server: STATUS
  @ DRIVER MODE: Message from server: POSDATA
  @ DRIVER MODE: Reading and sharing cell
  @ DRIVER MODE: Reading and sharing positions
  @ DRIVER MODE: Received positions

     Self-consistent Calculation

     iteration #  1     ecut=    29.40 Ry     beta= 0.05
     Davidson diagonalization with overlap
     c_bands:  4 eigenvalues not converged
     c_bands:  2 eigenvalues not converged
     c_bands:  2 eigenvalues not converged
     c_bands:  5 eigenvalues not converged
     c_bands:  1 eigenvalues not converged
     c_bands:  1 eigenvalues not converged
     c_bands:  4 eigenvalues not converged
     c_bands:  1 eigenvalues not converged
     c_bands:  1 eigenvalues not converged
     ethr =  1.00E-05,  avg # of iterations = 28.0

[...]

     total energy              =   -2367.56410380 Ry
     estimated scf accuracy    <    6916.07219096 Ry

     iteration #  2     ecut=    29.40 Ry     beta= 0.05
     Davidson diagonalization with overlap
     ethr =  1.00E-02,  avg # of iterations = 23.4

[...]

     iteration # 51     ecut=    29.40 Ry     beta= 0.05
     Davidson diagonalization with overlap
     c_bands:  1 eigenvalues not converged
     ethr =  8.81E-09,  avg # of iterations = 16.1

[...]

     total energy              =   -2974.00268861 Ry
     estimated scf accuracy    <       0.00000042 Ry

     iteration # 63     ecut=    29.40 Ry     beta= 0.05
     Davidson diagonalization with overlap
     ethr =  9.32E-11,  avg # of iterations =  7.0

     negative rho (up, down):  1.477E-02 0.000E+00

     Adding external electric field

     Computed dipole along edir(3) :
        Dipole                0.8915 Ry au,          2.2660 Debye
        Dipole field          0.0017 Ry au,

        Potential amp.       -0.1560 Ry
        Total length         46.3494 bohr

     End of self-consistent calculation

          k = 0.0000 0.0000 0.0000 ( 18029 PWs)   bands (ev):

   -55.6190 -55.5849 -55.5772 -55.5596 -55.5405 -55.4470 -55.4290 -55.4079
   -55.3950 -55.3940 -55.3654 -55.3603 -55.0029 -54.8621 -54.5980 -54.5639
   -32.1194 -32.1015 -31.9613 -31.9445 -31.9277 -31.9119 -31.8835 -31.8777
   -31.8619 -31.8080 -31.8019 -31.7833 -31.7712 -31.7554 -31.7391 -31.7305
   -31.7234 -31.7104 -31.7047 -31.6761 -31.6673 -31.6500 -31.6213 -31.6172
   -31.6013 -31.5987 -31.5981 -31.5929 -31.5689 -31.5640 -31.5613 -31.5562
   -31.5466 -31.5417 -31.5356 -31.5086 -31.5057 -31.2729 -31.1985 -31.1225
   -31.1056 -31.0713 -31.0052 -30.9166 -30.8942 -30.8218 -30.7353 -30.6244
   -18.8633 -18.3059 -16.3108 -16.0824 -15.8525 -15.7650 -15.7163 -15.5168
   -15.4149 -15.3426 -15.2198 -15.1572 -15.1451 -15.1310 -15.1119 -15.1097
   -15.0577 -15.0507 -15.0465 -15.0389 -15.0055 -14.9653 -14.9503 -14.9397
   -14.8458 -14.7723 -14.7553 -14.7313 -14.6859 -14.6696 -14.1958 -13.1004
   -12.9839 -11.2570  -6.8807  -6.6376  -4.2014  -3.8410  -3.8011  -3.6834
    -3.5561  -3.5230  -3.4412  -3.3666  -3.2311  -3.1980  -3.0363  -2.8465
    -2.7858  -2.7597  -2.7068  -2.6400  -2.5263  -2.4671  -2.4227  -2.4156
    -2.3983  -2.3906  -2.3670  -2.3544  -2.2524  -2.2313  -2.1531  -2.1487
    -2.0968  -1.9802  -1.9655  -1.9312  -1.9179  -1.8949  -1.8731  -1.8521
    -1.8421  -1.8181  -1.7671  -1.6989  -1.6321  -1.5948  -1.5084  -1.4390
    -1.3972  -1.3502  -1.2291  -1.1356  -1.1011  -1.0602  -1.0526  -1.0394
    -1.0109  -0.9929  -0.8802  -0.7661  -0.7491  -0.6839  -0.6241  -0.5428
    -0.5158  -0.4364  -0.3825  -0.3642  -0.3607  -0.3148  -0.2851  -0.2255
    -0.0922  -0.0405  -0.0067   0.0025   0.0617   0.1049   0.1335   0.2211
     0.2274   0.2725   0.3105   0.3431   0.3562   0.3714   0.3899   0.4194
     0.4341   0.6258   0.6618   0.7010   0.7386   0.7816   0.9198   0.9444
     1.0421   1.1516   1.3504   1.4241   1.5294   1.6163   1.9957   2.0415
     2.7455   3.5163   3.6034   3.6483   3.6774   3.7611   3.7756   3.9709
     3.9871   4.0254   4.1599

[...]

          k = 0.0380-0.0419 0.0000 ( 17876 PWs)   bands (ev):

[...]

          k =-0.0760-0.0000 0.0000 ( 17886 PWs)   bands (ev):

[...]

          k =-0.0760-0.0839 0.0000 ( 17948 PWs)   bands (ev):

   -55.6024 -55.6014 -55.5630 -55.5581 -55.5545 -55.4367 -55.4184 -55.4125
   -55.4108 -55.3789 -55.3756 -55.3668 -55.0010 -54.8639 -54.5810 -54.5808
   -31.9330 -31.9171 -31.9168 -31.9164 -31.8978 -31.8968 -31.8467 -31.8407
   -31.8200 -31.7947 -31.7826 -31.7732 -31.7689 -31.7313 -31.7264 -31.7251
   -31.7219 -31.7208 -31.7184 -31.7158 -31.7133 -31.7075 -31.6710 -31.6539
   -31.6354 -31.6312 -31.6237 -31.6119 -31.6114 -31.6085 -31.6029 -31.5936
   -31.5900 -31.5792 -31.5783 -31.5697 -31.4198 -31.2748 -31.2142 -31.1619
   -31.1236 -31.0978 -30.9070 -30.9068 -30.8181 -30.8178 -30.7786 -30.7786
   -18.8622 -18.3022 -15.7691 -15.6589 -15.5684 -15.5343 -15.4766 -15.4075
   -15.3996 -15.3129 -15.2970 -15.2939 -15.2279 -15.2074 -15.1700 -15.1632
   -15.1405 -15.1247 -15.1183 -15.0688 -15.0568 -15.0540 -15.0472 -15.0423
   -14.9660 -14.9358 -14.9319 -14.9227 -14.7951 -14.6704 -14.3674 -13.0858
   -13.0856 -11.2546  -6.9075  -6.6152  -4.1267  -3.8726  -3.7644  -3.2150
    -3.0516  -2.8382  -2.8194  -2.7234  -2.7117  -2.6771  -2.5463  -2.5055
    -2.4645  -2.4482  -2.4294  -2.4279  -2.4106  -2.4049  -2.3841  -2.3581
    -2.3340  -2.3137  -2.2848  -2.2813  -2.2685  -2.2553  -2.2321  -2.2200
    -2.2034  -2.1729  -2.1472  -2.1311  -2.0637  -1.9917  -1.8318  -1.7933
    -1.7543  -1.7480  -1.7311  -1.7002  -1.6849  -1.6670  -1.6205  -1.5854
    -1.4996  -1.3569  -1.3374  -1.3139  -1.2922  -1.2823  -1.2098  -1.1016
    -1.0826  -1.0115  -1.0030  -0.8966  -0.8884  -0.8031  -0.7955  -0.7848
    -0.7100  -0.6830  -0.6678  -0.5794  -0.5773  -0.5530  -0.5037  -0.4760
    -0.4118  -0.3697  -0.3391  -0.3358  -0.2898  -0.2676  -0.2235  -0.1569
    -0.1037  -0.0675   0.0291   0.1334   0.2341   0.3492   0.4640   0.4784
     0.5605   0.5937   0.6786   0.6941   0.7025   0.7749   0.7799   0.8789
     0.9231   0.9377   0.9783   1.1009   1.7874   1.7888   1.8610   1.8613
     2.7700   3.7339   3.8538   3.8960   3.9137   3.9879   4.0305   4.0504
     4.0527   4.0870   4.1947

     the Fermi energy is     3.5151 ev

!    total energy              =   -2974.00273032 Ry
     estimated scf accuracy    <       0.00000005 Ry
     smearing contrib. (-TS)   =      -0.02181294 Ry
     internal energy E=F+TS    =   -2973.98091738 Ry

     The total energy is F=E-TS. E is the sum of the following terms:
     one-electron contribution =  -23848.00767212 Ry
     hartree contribution      =   12018.42113275 Ry
     xc contribution           =    -494.03110971 Ry
     ewald contribution        =    9349.63523183 Ry
     electric field correction =       0.00149987 Ry

     convergence has been achieved in  63 iterations

     Forces acting on atoms (cartesian axes, Ry/au):

     atom    1 type  1   force =     0.00003683   -0.00024447    0.09649353
     atom    2 type  1   force =     0.00005381   -0.00043936   -0.17543040
     atom    3 type  2   force =     0.00011532   -0.00010101   -0.02475667
     atom    4 type  2   force =     0.00004224   -0.00157813    0.05349778
     atom    5 type  2   force =    -0.01198431   -0.00100551    0.00308367
     atom    6 type  2   force =     0.01373222   -0.00064365    0.00292187
     atom    7 type  1   force =     0.00074515    0.00068641   -0.00679549
     atom    8 type  1   force =     0.00021736    0.00949215    0.02714991
     atom    9 type  2   force =    -0.00014423   -0.00006593   -0.00007279
     atom   10 type  2   force =    -0.00204850    0.00047394   -0.01820115
     atom   11 type  2   force =    -0.00057609    0.00033037    0.00011810
     atom   12 type  2   force =     0.00069568    0.00012806    0.00030688
     atom   13 type  1   force =    -0.00016039   -0.00009320   -0.00013904
     atom   14 type  1   force =    -0.00041595   -0.00015250    0.00027000
     atom   15 type  2   force =     0.00003027   -0.00058905    0.00068331
     atom   16 type  2   force =    -0.00025937   -0.00007367   -0.00038254
     atom   17 type  2   force =    -0.00022842    0.00018147   -0.00029827
     atom   18 type  2   force =     0.00001193    0.00019664   -0.00030136
     atom   19 type  1   force =    -0.00031529    0.00018496   -0.00004759
     atom   20 type  1   force =    -0.00044598   -0.00006307    0.00032675
     atom   21 type  2   force =     0.00008625    0.00001393    0.10324850
     atom   22 type  2   force =     0.00014139    0.00041524   -0.00005366
     atom   23 type  2   force =    -0.07146117   -0.00009230   -0.02773523
     atom   24 type  2   force =     0.07141706    0.00036303   -0.02780703
     atom   25 type  1   force =     0.00017853   -0.00033546    0.09616205
     atom   26 type  1   force =     0.00000673   -0.00037662   -0.17576626
     atom   27 type  2   force =     0.00021138   -0.00020314   -0.02374778
     atom   28 type  2   force =     0.00002398   -0.00127988    0.05295916
     atom   29 type  2   force =    -0.01221883    0.00023965    0.00291523
     atom   30 type  2   force =     0.01388438    0.00082223    0.00273162
     atom   31 type  1   force =     0.00041325    0.00343988   -0.00982464
     atom   32 type  1   force =     0.00036468   -0.01131383    0.02755005
     atom   33 type  2   force =     0.00010271    0.00014811   -0.00002310
     atom   34 type  2   force =    -0.00188264   -0.00044132   -0.02414627
     atom   35 type  2   force =     0.00041113    0.00003260   -0.00027272
     atom   36 type  2   force =    -0.00028192   -0.00006044    0.00007517
     atom   37 type  1   force =    -0.00031096   -0.00013599    0.00010142
     atom   38 type  1   force =    -0.00080687    0.00013239   -0.00048475
     atom   39 type  2   force =     0.00009461   -0.00030992   -0.00023106
     atom   40 type  2   force =     0.00020003    0.00034373    0.00045293
     atom   41 type  2   force =     0.00022912    0.00010317   -0.00033465
     atom   42 type  2   force =    -0.00043387   -0.00008275   -0.00034030
     atom   43 type  1   force =     0.00031808    0.00078239    0.00034198
     atom   44 type  1   force =    -0.00010398    0.00114404   -0.00064991
     atom   45 type  2   force =     0.00008403   -0.00002509    0.10323652
     atom   46 type  2   force =    -0.07147500   -0.00002437   -0.02775100
     atom   47 type  2   force =     0.07143455    0.00040303   -0.02780932
     atom   48 type  3   force =    -0.00069623   -0.00021889   -0.00045329
     atom   49 type  3   force =    -0.00004130   -0.00027214    0.00153228
     atom   50 type  4   force =     0.00096214    0.00367607   -0.00317175
     atom   51 type  5   force =     0.00140794   -0.00053109   -0.00097539
     atom   52 type  5   force =    -0.00105604   -0.00319257    0.00320916
     atom   53 type  5   force =     0.00001649   -0.00054156   -0.00024307
     atom   54 type  2   force =     0.00015120    0.00056734   -0.00077154
     atom   55 type  5   force =    -0.00007553   -0.00008838   -0.00003895
     atom   56 type  5   force =    -0.00039756    0.00027445   -0.00031087

     Total force =     0.368055     Total SCF correction =     0.000537
  @ DRIVER MODE: Message from server: STATUS
  @ DRIVER MODE: Message from server: GETFORCE
  @ DRIVER MODE: Returning v,forces,stress,ensemble

     Writing output data file ./calc.save/
  @ DRIVER MODE: Message from server: EXIT
  @ DRIVE MODE: Exiting

     General routines

     Parallel routines

   This run was terminated on:   6:22:25  10Sep2021

   JOB DONE.