     Program PWSCF v.6.7GPU starts on 24Sep2021 at  7:25: 4

     R & G space division:  proc/nbgrp/npool/nimage =       8
     Reading input from /storage/home/hcoda1/3/ntian30/research/carbon/CxH_vib/H2O_calc/ads_slab/CH2NNHHHO_a/out_0047/pw.inp
Warning: card &CELL ignored
Warning: card   CELL_DYNAMICS='IPI', ignored
Warning: card / ignored

     Current dimensions of program PWSCF are:
     Max number of different atomic species (ntypx) = 10
     Max number of k-points (npk) =  40000
     Max angular momentum in pseudopotentials (lmaxx) =  3
     Presently no symmetry can be used with electric field

     Message from routine cell_base_init:
     DEPRECATED: use true lattice parameter, not A to a.u. conversion factor

     IMPORTANT: XC functional enforced from input :
     Exchange-correlation= BEEF-VDW
                           (   1   4  43  14   2   0   0)
     Any further DFT definition will be discarded
     Please, verify this is what you really want

  @ DRIVER MODE: Connecting to
 qe_1139763_2947314.sched-torque.pace.gatech.edu67c35x1f_scratch
  using UNIX socket
  @ DRIVER MODE: Message from server: STATUS
  @ DRIVER MODE: Message from server: INIT
  @ DRIVER MODE: Receiving replica           0          -1
  @ DRIVER MODE: Receiving encoded integer          25
  @ DRIVER MODE:  SCF:  T  FORCE:  T  STRESS:  F  VC:  F  ENSEMBLE:  F
  @ DRIVER MODE:  SCF:  T  FORCE:  T  STRESS:  F  VC:  F  ENSEMBLE:  F

     Using Slab Decomposition

     bravais-lattice index     =            0
     lattice parameter (alat)  =       1.8897  a.u.
     unit-cell volume          =    6658.9804 (a.u.)^3
     number of atoms/cell      =           56
     number of atomic types    =            5
     number of electrons       =       403.00
     number of Kohn-Sham states=          211
     kinetic-energy cutoff     =      29.3995  Ry
     charge density cutoff     =     293.9946  Ry
     scf convergence threshold =      7.3E-08
     mixing beta               =       0.0500
     number of iterations used =            8  plain     mixing
     Exchange-correlation= BEEF-VDW
                           (   1   4  43  14   2   0   0)

     celldm(1)=   1.889726  celldm(2)=   0.000000  celldm(3)=   0.000000
     celldm(4)=   0.000000  celldm(5)=   0.000000  celldm(6)=   0.000000

     crystal axes: (cart. coord. in units of alat)
               a(1) = (   6.579727   0.000000   0.000000 )
               a(2) = (  -0.000775   5.961596   0.000000 )
               a(3) = (   0.000000   0.000000  25.155947 )

     reciprocal axes: (cart. coord. in units 2 pi/alat)
               b(1) = (  0.151982  0.000020  0.000000 )
               b(2) = (  0.000000  0.167740  0.000000 )
               b(3) = (  0.000000  0.000000  0.039752 )

     PseudoPot. # 1 for Ti read from file:
     /storage/coda1/p-amedford6/0/shared/rich_project_chbe-medford/medford-share/data/pseudos_module/espresso/nninc/pbe/van/Ti.UPF
     MD5 check sum: 8e4df49b7f0d34bbd5052bf3f5ea0213
     Pseudo is Ultrasoft, Zval = 12.0
     Generated by new atomic code, or converted to UPF format
     Using radial grid of  851 points,  6 beta functions with:
                l(1) =   0
                l(2) =   0
                l(3) =   1
                l(4) =   1
                l(5) =   2
                l(6) =   2
     Q(r) pseudized with  8 coefficients,  rinner =    1.000   1.000   1.000
                                                       1.000   1.000

     PseudoPot. # 2 for O  read from file:
     /storage/coda1/p-amedford6/0/shared/rich_project_chbe-medford/medford-share/data/pseudos_module/espresso/nninc/pbe/van/O.UPF
     MD5 check sum: 78c19812648e8988a0fe644b0f25305e
     Pseudo is Ultrasoft, Zval =  6.0
     Generated by new atomic code, or converted to UPF format
     Using radial grid of  737 points,  4 beta functions with:
                l(1) =   0
                l(2) =   0
                l(3) =   1
                l(4) =   1
     Q(r) pseudized with  8 coefficients,  rinner =    0.800   0.800   0.800

     PseudoPot. # 3 for N  read from file:
     /storage/coda1/p-amedford6/0/shared/rich_project_chbe-medford/medford-share/data/pseudos_module/espresso/nninc/pbe/van/N.UPF
     MD5 check sum: 90d10febe142ad51ac9d5be1deb811c4
     Pseudo is Ultrasoft, Zval =  5.0
     Generated by new atomic code, or converted to UPF format
     Using radial grid of  729 points,  4 beta functions with:
                l(1) =   0
                l(2) =   0
                l(3) =   1
                l(4) =   1
     Q(r) pseudized with  8 coefficients,  rinner =    0.800   0.800   0.800

     PseudoPot. # 4 for C  read from file:
     /storage/coda1/p-amedford6/0/shared/rich_project_chbe-medford/medford-share/data/pseudos_module/espresso/nninc/pbe/van/C.UPF
     MD5 check sum: 1a69bf6b8db32088f5b2163dbdb77a27
     Pseudo is Ultrasoft, Zval =  4.0
     Generated by new atomic code, or converted to UPF format
     Using radial grid of  721 points,  4 beta functions with:
                l(1) =   0
                l(2) =   0
                l(3) =   1
                l(4) =   1
     Q(r) pseudized with  8 coefficients,  rinner =    0.800   0.800   0.800

     PseudoPot. # 5 for H  read from file:
     /storage/coda1/p-amedford6/0/shared/rich_project_chbe-medford/medford-share/data/pseudos_module/espresso/nninc/pbe/van/H.UPF
     MD5 check sum: b5ee9d7bfd3a09ee7748110bda690ff7
     Pseudo is Ultrasoft, Zval =  1.0
     Generated by new atomic code, or converted to UPF format
     Using radial grid of  615 points,  1 beta functions with:
                l(1) =   0
     Q(r) pseudized with  8 coefficients,  rinner =    0.800

     atomic species   valence    mass     pseudopotential
        Ti1           12.00    47.86700     Ti( 1.00)
        O1             6.00    15.99900     O ( 1.00)
        N1             5.00    14.00700     N ( 1.00)
        C1             4.00    12.01100     C ( 1.00)
        H1             1.00     1.00800     H ( 1.00)

     No symmetry found

   Cartesian axes

     site n.     atom                  positions (alat units)
         1           Ti1 tau(   1) = (   0.0004258   2.9801865   6.0000000  )
         2           Ti1 tau(   2) = (   3.2906075   1.4906267   6.0002472  )
         3           O1  tau(   3) = (   0.0006271   0.0005054   7.9858123  )
         4           O1  tau(   4) = (   3.2906025   0.0005020   7.3038282  )
         5           O1  tau(   5) = (   4.5942328   1.4918067   9.2879030  )
         6           O1  tau(   6) = (   1.9868534   1.4903216   9.2879459  )
         7           Ti1 tau(   7) = (   3.2907910   2.8959150   9.1758416  )
         8           Ti1 tau(   8) = (   0.0015273   1.4827037   9.2680791  )
         9           O1  tau(   9) = (   3.2834828   5.9254549  11.3560997  )
        10           O1  tau(  10) = (   0.0116148   5.9584955  10.6183126  )
        11           O1  tau(  11) = (   1.2632982   1.4794151  12.6467768  )
        12           O1  tau(  12) = (   5.2979234   1.4912170  12.6376735  )
        13           Ti1 tau(  13) = (   6.5593102   2.9584919  12.5255918  )
        14           Ti1 tau(  14) = (   3.2941082   1.2876829  12.7086691  )
        15           O1  tau(  15) = (   6.5459232   0.0848410  14.6672212  )
        16           O1  tau(  16) = (   3.2899079   0.0686032  13.9983899  )
        17           O1  tau(  17) = (   4.5347701   1.5447734  16.1667714  )
        18           O1  tau(  18) = (   1.9898569   1.5359154  16.1924900  )
        19           Ti1 tau(  19) = (   3.2532585   2.9792413  15.6887139  )
        20           Ti1 tau(  20) = (   6.5162390   1.4193964  16.0443711  )
        21           O1  tau(  21) = (   3.2904802   0.0005063   4.7018136  )
        22           O1  tau(  22) = (   6.5314393   5.8470953  17.1670503  )
        23           O1  tau(  23) = (   1.3043587   1.4918075   6.0039043  )
        24           O1  tau(  24) = (   5.2767064   1.4903225   6.0039473  )
        25           Ti1 tau(  25) = (   0.0000382   5.9609847   6.0000000  )
        26           Ti1 tau(  26) = (   3.2902200   4.4714249   6.0002472  )
        27           O1  tau(  27) = (   0.0002396   2.9813036   7.9858123  )
        28           O1  tau(  28) = (   3.2902150   2.9813002   7.3038282  )
        29           O1  tau(  29) = (   4.5938453   4.4726049   9.2879030  )
        30           O1  tau(  30) = (   1.9864658   4.4711199   9.2879459  )
        31           Ti1 tau(  31) = (   3.2891106   5.8743827   9.1763621  )
        32           Ti1 tau(  32) = (   0.0006254   4.4649316   9.2693709  )
        33           O1  tau(  33) = (   3.2801501   3.0037454  11.3162440  )
        34           O1  tau(  34) = (   0.0092240   2.9805883  10.6323155  )
        35           O1  tau(  35) = (   1.2628463   4.4620516  12.6871769  )
        36           O1  tau(  36) = (   5.2965349   4.4479299  12.6783795  )
        37           Ti1 tau(  37) = (   0.0245004   5.9521619  12.5031165  )
        38           Ti1 tau(  38) = (   3.2934334   4.3725749  12.4478892  )
        39           O1  tau(  39) = (   0.0012172   2.9324930  14.9038371  )
        40           O1  tau(  40) = (   3.2612729   2.9642313  13.9201381  )
        41           O1  tau(  41) = (   4.5459169   4.3864222  16.0774642  )
        42           O1  tau(  42) = (   2.0085495   4.4473877  16.1057765  )
        43           Ti1 tau(  43) = (   3.2275989   5.9528725  16.3079466  )
        44           Ti1 tau(  44) = (   6.5418721   4.6299905  15.7990834  )
        45           O1  tau(  45) = (   3.2900926   2.9813045   4.7018136  )
        46           O1  tau(  46) = (   1.3039711   4.4726057   6.0039043  )
        47           O1  tau(  47) = (   5.2763189   4.4711207   6.0039473  )
        48           N1  tau(  48) = (   6.5153795   2.7269917  18.1720481  )
        49           C1  tau(  49) = (   0.9714328   2.6352729  18.9176740  )
        50           H1  tau(  50) = (   0.9613011   2.9697384  19.9541300  )
        51           H1  tau(  51) = (   1.8619620   2.1844435  18.5121220  )
        52           N1  tau(  52) = (   5.3313596   3.1722530  18.7397816  )
        53           H1  tau(  53) = (   5.4931776   3.7097374  19.5894643  )
        54           H1  tau(  54) = (   4.8256156   3.7472006  18.0707398  )
        55           O1  tau(  55) = (   3.3867674   5.8992794  18.1510867  )
        56           H1  tau(  56) = (   4.0349165   0.5560778  18.5374839  )

     number of k points=    10  Fermi-Dirac smearing, width (Ry)=  0.0073
                       cart. coord. in units 2pi/alat
        k(    1) = (   0.0000000   0.0000000   0.0000000), wk =   0.1250000
        k(    2) = (   0.0000000   0.0419351   0.0000000), wk =   0.2500000
        k(    3) = (   0.0000000  -0.0838702   0.0000000), wk =   0.1250000
        k(    4) = (   0.0379955   0.0000049   0.0000000), wk =   0.2500000
        k(    5) = (   0.0379955   0.0419400   0.0000000), wk =   0.2500000
        k(    6) = (   0.0379955  -0.0838652   0.0000000), wk =   0.2500000
        k(    7) = (   0.0379955  -0.0419301   0.0000000), wk =   0.2500000
        k(    8) = (  -0.0759910  -0.0000099   0.0000000), wk =   0.1250000
        k(    9) = (  -0.0759910   0.0419252   0.0000000), wk =   0.2500000
        k(   10) = (  -0.0759910  -0.0838800   0.0000000), wk =   0.1250000

     Initial potential from superposition of free atoms

     starting charge  386.99914, renormalised to  403.00000

     negative rho (up, down):  1.547E-02 0.000E+00

     %%%%%%%%%%%%%%%%%%%%%%%%%%%%%%%%%%%%%%%%%%%%%%%%%%%%%%%%%%%%%%%%%%%%%%%%
     %                                                                      %
     % You are using vdW-DF, which was implemented by the Thonhauser group. %
     % Please cite the following two papers that made this development      %
     % possible and the two reviews that describe the various versions:     %
     %                                                                      %
     %   T. Thonhauser et al., PRL 115, 136402 (2015).                      %
     %   T. Thonhauser et al., PRB 76, 125112 (2007).                       %
     %   K. Berland et al., Rep. Prog. Phys. 78, 066501 (2015).             %
     %   D.C. Langreth et al., J. Phys.: Condens. Matter 21, 084203 (2009). %
     %                                                                      %
     %                                                                      %
     % If you are calculating the stress with vdW-DF, please also cite:     %
     %                                                                      %
     %   R. Sabatini et al., J. Phys.: Condens. Matter 24, 424209 (2012).   %
     %                                                                      %
     %%%%%%%%%%%%%%%%%%%%%%%%%%%%%%%%%%%%%%%%%%%%%%%%%%%%%%%%%%%%%%%%%%%%%%%%

     Adding external electric field

     Computed dipole along edir(3) :
        Dipole              -13.0182 Ry au,        -33.0889 Debye
        Dipole field         -0.0246 Ry au,

        Potential amp.        2.2773 Ry
        Total length         46.3494 bohr

     Starting wfcs are  305 atomic wfcs
  @ DRIVER MODE: Message from server: STATUS
  @ DRIVER MODE: Message from server: POSDATA
  @ DRIVER MODE: Reading and sharing cell
  @ DRIVER MODE: Reading and sharing positions
  @ DRIVER MODE: Received positions

     Self-consistent Calculation

     iteration #  1     ecut=    29.40 Ry     beta= 0.05
     Davidson diagonalization with overlap
     c_bands:  4 eigenvalues not converged
     c_bands:  5 eigenvalues not converged
     c_bands:  3 eigenvalues not converged
     c_bands:  5 eigenvalues not converged
     c_bands:  1 eigenvalues not converged
     c_bands:  5 eigenvalues not converged
     c_bands:  2 eigenvalues not converged
     c_bands:  3 eigenvalues not converged
     ethr =  1.00E-05,  avg # of iterations = 26.8

[...]

     total energy              =   -2311.56852130 Ry
     estimated scf accuracy    <    7504.13891227 Ry

     iteration #  2     ecut=    29.40 Ry     beta= 0.05
     Davidson diagonalization with overlap
     ethr =  1.00E-02,  avg # of iterations = 25.2

[...]

     iteration # 70     ecut=    29.40 Ry     beta= 0.05
     Davidson diagonalization with overlap
     c_bands:  1 eigenvalues not converged
     c_bands:  2 eigenvalues not converged
     ethr =  8.72E-11,  avg # of iterations = 17.1

[...]

     total energy              =   -2974.00148719 Ry
     estimated scf accuracy    <       0.00000023 Ry

     iteration # 72     ecut=    29.40 Ry     beta= 0.05
     Davidson diagonalization with overlap
     ethr =  5.76E-11,  avg # of iterations =  5.5

     negative rho (up, down):  1.592E-02 0.000E+00

     Adding external electric field

     Computed dipole along edir(3) :
        Dipole                1.1044 Ry au,          2.8071 Debye
        Dipole field          0.0021 Ry au,

        Potential amp.       -0.1932 Ry
        Total length         46.3494 bohr

     End of self-consistent calculation

          k = 0.0000 0.0000 0.0000 ( 18029 PWs)   bands (ev):

   -55.5812 -55.5191 -55.4850 -55.3682 -55.3649 -55.3455 -55.3318 -55.3199
   -55.3116 -55.2837 -55.2362 -55.1359 -55.1240 -55.0435 -54.4873 -54.4532
   -32.0033 -31.9191 -31.8893 -31.8534 -31.8484 -31.8132 -31.8099 -31.7995
   -31.7686 -31.7648 -31.7466 -31.6715 -31.6449 -31.6379 -31.6253 -31.6216
   -31.6101 -31.6028 -31.5785 -31.5765 -31.5700 -31.5420 -31.5317 -31.5262
   -31.5086 -31.5043 -31.5008 -31.4887 -31.4759 -31.4732 -31.4651 -31.4560
   -31.4559 -31.4324 -31.4100 -31.3914 -31.3360 -31.3249 -31.2919 -31.2856
   -31.2622 -31.2499 -30.8928 -30.8074 -30.7849 -30.7105 -30.6242 -30.5122
   -18.3947 -16.4553 -16.1563 -15.9896 -15.7770 -15.6967 -15.6581 -15.4647
   -15.3722 -15.3105 -15.0834 -15.0604 -15.0532 -15.0279 -15.0191 -15.0022
   -14.9853 -14.9455 -14.9369 -14.9283 -14.9047 -14.8901 -14.8579 -14.8063
   -14.7649 -14.7469 -14.6524 -14.5838 -14.5373 -14.3016 -14.2089 -13.5127
   -12.9853 -12.8691  -8.5746  -6.2790  -5.8642  -4.0795  -3.8733  -3.5177
    -3.4222  -3.4010  -3.3423  -3.2771  -3.0356  -2.9795  -2.8771  -2.8296
    -2.7503  -2.6354  -2.5879  -2.5160  -2.4446  -2.4353  -2.3894  -2.3596
    -2.2971  -2.2850  -2.2498  -2.2428  -2.1708  -2.1510  -2.0502  -2.0400
    -2.0259  -1.8895  -1.8764  -1.8327  -1.8249  -1.8245  -1.7861  -1.7672
    -1.7527  -1.7352  -1.6330  -1.5921  -1.5729  -1.4996  -1.4682  -1.1554
    -1.1185  -1.0874  -1.0561  -1.0082  -0.9528  -0.9307  -0.9072  -0.8503
    -0.8102  -0.7665  -0.7305  -0.6951  -0.6097  -0.5724  -0.5299  -0.4504
    -0.3727  -0.3044  -0.2929  -0.2480  -0.2202  -0.1967  -0.0960  -0.0745
    -0.0581   0.0377   0.0554   0.1380   0.1775   0.2144   0.2587   0.3002
     0.3717   0.3879   0.4164   0.4521   0.4599   0.5135   0.5352   0.5939
     0.6463   0.6611   0.7600   0.8171   0.8300   0.8458   0.9404   1.0338
     1.1567   1.1625   1.2646   1.4917   1.5397   1.5834   1.7329   2.1059
     2.1509   3.5676   3.7163   3.7330   3.7778   3.8242   3.9084   4.0545
     4.1188   4.2556   4.2602

[...]

          k = 0.0380-0.0419 0.0000 ( 17876 PWs)   bands (ev):

[...]

          k =-0.0760-0.0000 0.0000 ( 17886 PWs)   bands (ev):

[...]

          k =-0.0760-0.0839 0.0000 ( 17948 PWs)   bands (ev):

   -55.5804 -55.5022 -55.5017 -55.3637 -55.3548 -55.3448 -55.3286 -55.3281
   -55.3206 -55.2767 -55.2432 -55.1329 -55.1252 -55.0464 -54.4706 -54.4698
   -31.8646 -31.8193 -31.8188 -31.8185 -31.8098 -31.7956 -31.7952 -31.7865
   -31.7212 -31.6738 -31.6649 -31.6545 -31.6495 -31.6221 -31.6220 -31.6202
   -31.6193 -31.6045 -31.6011 -31.5868 -31.5766 -31.5649 -31.5571 -31.5444
   -31.5355 -31.5316 -31.5246 -31.5221 -31.5075 -31.5014 -31.4998 -31.4948
   -31.4944 -31.4663 -31.4624 -31.4038 -31.3848 -31.3652 -31.3386 -31.3286
   -31.2983 -31.2539 -30.7979 -30.7974 -30.7063 -30.7051 -30.6677 -30.6671
   -18.3917 -16.4407 -15.7389 -15.6117 -15.4861 -15.4816 -15.3609 -15.2836
   -15.2666 -15.2377 -15.2256 -15.1921 -15.1741 -15.1390 -15.1078 -15.0753
   -15.0354 -15.0145 -15.0010 -14.9618 -14.9511 -14.9341 -14.9242 -14.9013
   -14.8598 -14.8244 -14.8135 -14.6724 -14.6151 -14.5740 -14.4279 -13.5217
   -12.9711 -12.9707  -8.5511  -6.2453  -5.8836  -4.0379  -3.9421  -2.9936
    -2.9125  -2.8077  -2.7023  -2.6074  -2.5542  -2.5182  -2.4807  -2.4362
    -2.4140  -2.3635  -2.3233  -2.3022  -2.2943  -2.2614  -2.2523  -2.2381
    -2.2174  -2.2030  -2.1869  -2.1769  -2.1490  -2.1318  -2.1312  -2.0977
    -2.0858  -2.0580  -2.0504  -1.9978  -1.9019  -1.8749  -1.7813  -1.6781
    -1.6711  -1.6566  -1.6327  -1.5959  -1.5844  -1.5602  -1.5223  -1.4672
    -1.4552  -1.2929  -1.2420  -1.2124  -1.1323  -1.0772  -1.0477  -1.0191
    -0.9757  -0.9506  -0.8822  -0.8594  -0.7552  -0.7001  -0.6769  -0.6177
    -0.5393  -0.4703  -0.4616  -0.4558  -0.4285  -0.4060  -0.3819  -0.3574
    -0.3250  -0.2551  -0.2167  -0.1981  -0.1942  -0.1377  -0.0910   0.0134
     0.1402   0.2509   0.2645   0.2912   0.3341   0.4820   0.5284   0.5902
     0.6375   0.6712   0.7018   0.7955   0.8063   0.8860   0.9056   0.9379
     0.9955   1.0225   1.0547   1.0841   1.0928   1.9031   1.9104   1.9712
     1.9715   3.7856   4.0641   4.0887   4.0968   4.1115   4.1349   4.1491
     4.1697   4.2383   4.2453

     the Fermi energy is     3.6031 ev

!    total energy              =   -2974.00150288 Ry
     estimated scf accuracy    <       0.00000007 Ry
     smearing contrib. (-TS)   =      -0.01962581 Ry
     internal energy E=F+TS    =   -2973.98187707 Ry

     The total energy is F=E-TS. E is the sum of the following terms:
     one-electron contribution =  -23475.44776274 Ry
     hartree contribution      =   11833.24564169 Ry
     xc contribution           =    -494.06763889 Ry
     ewald contribution        =    9162.28558110 Ry
     electric field correction =       0.00230178 Ry

     convergence has been achieved in  72 iterations

     Forces acting on atoms (cartesian axes, Ry/au):

     atom    1 type  1   force =     0.00012739   -0.00018917    0.09456486
     atom    2 type  1   force =    -0.00003217    0.00034689   -0.17512614
     atom    3 type  2   force =    -0.00002526   -0.00002776   -0.02134767
     atom    4 type  2   force =     0.00001453   -0.00189579    0.05325474
     atom    5 type  2   force =    -0.00694081   -0.00239575    0.00356085
     atom    6 type  2   force =     0.00805099   -0.00193069    0.00203958
     atom    7 type  1   force =    -0.00070416   -0.00278178    0.01003354
     atom    8 type  1   force =     0.00060885    0.00276262    0.00501740
     atom    9 type  2   force =     0.00003141   -0.00048476    0.00021941
     atom   10 type  2   force =    -0.00253767   -0.00140749   -0.01075750
     atom   11 type  2   force =     0.00125902   -0.00017553    0.00057047
     atom   12 type  2   force =    -0.00078943   -0.00022287    0.00067776
     atom   13 type  1   force =    -0.00095067   -0.00096099    0.00037035
     atom   14 type  1   force =     0.00031393    0.00022791    0.00015528
     atom   15 type  2   force =     0.00011511    0.00028380   -0.00024727
     atom   16 type  2   force =    -0.00043163    0.00027043   -0.00019976
     atom   17 type  2   force =     0.00012075    0.00062615    0.00008803
     atom   18 type  2   force =     0.00071681    0.00014294   -0.00026373
     atom   19 type  1   force =     0.00113843    0.00064129   -0.00022681
     atom   20 type  1   force =    -0.00076114    0.00003221   -0.00057984
     atom   21 type  2   force =     0.00006354    0.00009659    0.10309649
     atom   22 type  2   force =     0.00056050    0.00074525    0.00092206
     atom   23 type  2   force =    -0.07213410   -0.00013767   -0.02734137
     atom   24 type  2   force =     0.07201919    0.00029496   -0.02734137
     atom   25 type  1   force =     0.00002174   -0.00014138    0.09406145
     atom   26 type  1   force =    -0.00015553   -0.00109418   -0.17522320
     atom   27 type  2   force =     0.00012144   -0.00024713   -0.02013746
     atom   28 type  2   force =    -0.00000348   -0.00026941    0.04933028
     atom   29 type  2   force =    -0.00563604    0.00192295    0.00157824
     atom   30 type  2   force =     0.00666364    0.00249339   -0.00001953
     atom   31 type  1   force =    -0.00072700    0.00677245   -0.00107301
     atom   32 type  1   force =     0.00050451   -0.00385441    0.00433410
     atom   33 type  2   force =     0.00016237   -0.00008788   -0.00080653
     atom   34 type  2   force =    -0.00187411    0.00169738   -0.01044799
     atom   35 type  2   force =     0.00115897    0.00029134   -0.00015220
     atom   36 type  2   force =    -0.00055084    0.00043019   -0.00023727
     atom   37 type  1   force =    -0.00064391    0.00044489   -0.00035006
     atom   38 type  1   force =     0.00055185    0.00020012    0.00013112
     atom   39 type  2   force =     0.00032182   -0.00037477    0.00055886
     atom   40 type  2   force =     0.00020546    0.00014747   -0.00031237
     atom   41 type  2   force =     0.00032852   -0.00043696   -0.00107672
     atom   42 type  2   force =     0.00007519   -0.00068159    0.00030928
     atom   43 type  1   force =    -0.00034074   -0.00061871   -0.00559901
     atom   44 type  1   force =    -0.00043583   -0.00022057   -0.00026561
     atom   45 type  2   force =     0.00007659   -0.00006678    0.10288253
     atom   46 type  2   force =    -0.07217793   -0.00002656   -0.02733888
     atom   47 type  2   force =     0.07209890    0.00041001   -0.02737527
     atom   48 type  3   force =     0.00049922   -0.00001676   -0.00006300
     atom   49 type  4   force =     0.00010634   -0.00040222   -0.00016292
     atom   50 type  5   force =    -0.00012362   -0.00033082   -0.00005107
     atom   51 type  5   force =    -0.00028276    0.00016660   -0.00005208
     atom   52 type  3   force =    -0.00049787   -0.00045109    0.00035106
     atom   53 type  5   force =     0.00012919   -0.00007042    0.00023903
     atom   54 type  5   force =    -0.00008030    0.00023095   -0.00083662
     atom   55 type  2   force =     0.00529675    0.00556943    0.01018693
     atom   56 type  5   force =    -0.00462592   -0.00524629   -0.00352146

     Total force =     0.362312     Total SCF correction =     0.000657
  @ DRIVER MODE: Message from server: STATUS
  @ DRIVER MODE: Message from server: GETFORCE
  @ DRIVER MODE: Returning v,forces,stress,ensemble

     Writing output data file ./calc.save/
  @ DRIVER MODE: Message from server: EXIT
  @ DRIVE MODE: Exiting

     General routines

     Parallel routines

   This run was terminated on:   7:52: 2  24Sep2021

   JOB DONE.