     Program PWSCF v.6.7GPU starts on  9Sep2021 at  8:35:54

     R & G space division:  proc/nbgrp/npool/nimage =      10
     Reading input from /storage/home/hcoda1/3/ntian30/research/carbon/CxH_vib/CH2_calc/ads_slab/CH2NNHH_a/out_0032/pw.inp
Warning: card &CELL ignored
Warning: card   CELL_DYNAMICS='IPI', ignored
Warning: card / ignored

     Current dimensions of program PWSCF are:
     Max number of different atomic species (ntypx) = 10
     Max number of k-points (npk) =  40000
     Max angular momentum in pseudopotentials (lmaxx) =  3
     Presently no symmetry can be used with electric field

     Message from routine cell_base_init:
     DEPRECATED: use true lattice parameter, not A to a.u. conversion factor

     IMPORTANT: XC functional enforced from input :
     Exchange-correlation= BEEF-VDW
                           (   1   4  43  14   2   0   0)
     Any further DFT definition will be discarded
     Please, verify this is what you really want

  @ DRIVER MODE: Connecting to
 qe_1139763_2767391.sched-torque.pace.gatech.edugz21t_nq_scratch
  using UNIX socket
  @ DRIVER MODE: Message from server: STATUS
  @ DRIVER MODE: Message from server: INIT
  @ DRIVER MODE: Receiving replica           0          -1
  @ DRIVER MODE: Receiving encoded integer          25
  @ DRIVER MODE:  SCF:  T  FORCE:  T  STRESS:  F  VC:  F  ENSEMBLE:  F
  @ DRIVER MODE:  SCF:  T  FORCE:  T  STRESS:  F  VC:  F  ENSEMBLE:  F

     Using Slab Decomposition

     bravais-lattice index     =            0
     lattice parameter (alat)  =       1.8897  a.u.
     unit-cell volume          =    6658.9804 (a.u.)^3
     number of atoms/cell      =           54
     number of atomic types    =            5
     number of electrons       =       396.00
     number of Kohn-Sham states=          208
     kinetic-energy cutoff     =      29.3995  Ry
     charge density cutoff     =     293.9946  Ry
     scf convergence threshold =      7.3E-08
     mixing beta               =       0.0500
     number of iterations used =            8  plain     mixing
     Exchange-correlation= BEEF-VDW
                           (   1   4  43  14   2   0   0)

     celldm(1)=   1.889726  celldm(2)=   0.000000  celldm(3)=   0.000000
     celldm(4)=   0.000000  celldm(5)=   0.000000  celldm(6)=   0.000000

     crystal axes: (cart. coord. in units of alat)
               a(1) = (   6.579727   0.000000   0.000000 )
               a(2) = (  -0.000775   5.961596   0.000000 )
               a(3) = (   0.000000   0.000000  25.155947 )

     reciprocal axes: (cart. coord. in units 2 pi/alat)
               b(1) = (  0.151982  0.000020  0.000000 )
               b(2) = (  0.000000  0.167740  0.000000 )
               b(3) = (  0.000000  0.000000  0.039752 )

     PseudoPot. # 1 for Ti read from file:
     /storage/coda1/p-amedford6/0/shared/rich_project_chbe-medford/medford-share/data/pseudos_module/espresso/nninc/pbe/van/Ti.UPF
     MD5 check sum: 8e4df49b7f0d34bbd5052bf3f5ea0213
     Pseudo is Ultrasoft, Zval = 12.0
     Generated by new atomic code, or converted to UPF format
     Using radial grid of  851 points,  6 beta functions with:
                l(1) =   0
                l(2) =   0
                l(3) =   1
                l(4) =   1
                l(5) =   2
                l(6) =   2
     Q(r) pseudized with  8 coefficients,  rinner =    1.000   1.000   1.000
                                                       1.000   1.000

     PseudoPot. # 2 for O  read from file:
     /storage/coda1/p-amedford6/0/shared/rich_project_chbe-medford/medford-share/data/pseudos_module/espresso/nninc/pbe/van/O.UPF
     MD5 check sum: 78c19812648e8988a0fe644b0f25305e
     Pseudo is Ultrasoft, Zval =  6.0
     Generated by new atomic code, or converted to UPF format
     Using radial grid of  737 points,  4 beta functions with:
                l(1) =   0
                l(2) =   0
                l(3) =   1
                l(4) =   1
     Q(r) pseudized with  8 coefficients,  rinner =    0.800   0.800   0.800

     PseudoPot. # 3 for N  read from file:
     /storage/coda1/p-amedford6/0/shared/rich_project_chbe-medford/medford-share/data/pseudos_module/espresso/nninc/pbe/van/N.UPF
     MD5 check sum: 90d10febe142ad51ac9d5be1deb811c4
     Pseudo is Ultrasoft, Zval =  5.0
     Generated by new atomic code, or converted to UPF format
     Using radial grid of  729 points,  4 beta functions with:
                l(1) =   0
                l(2) =   0
                l(3) =   1
                l(4) =   1
     Q(r) pseudized with  8 coefficients,  rinner =    0.800   0.800   0.800

     PseudoPot. # 4 for C  read from file:
     /storage/coda1/p-amedford6/0/shared/rich_project_chbe-medford/medford-share/data/pseudos_module/espresso/nninc/pbe/van/C.UPF
     MD5 check sum: 1a69bf6b8db32088f5b2163dbdb77a27
     Pseudo is Ultrasoft, Zval =  4.0
     Generated by new atomic code, or converted to UPF format
     Using radial grid of  721 points,  4 beta functions with:
                l(1) =   0
                l(2) =   0
                l(3) =   1
                l(4) =   1
     Q(r) pseudized with  8 coefficients,  rinner =    0.800   0.800   0.800

     PseudoPot. # 5 for H  read from file:
     /storage/coda1/p-amedford6/0/shared/rich_project_chbe-medford/medford-share/data/pseudos_module/espresso/nninc/pbe/van/H.UPF
     MD5 check sum: b5ee9d7bfd3a09ee7748110bda690ff7
     Pseudo is Ultrasoft, Zval =  1.0
     Generated by new atomic code, or converted to UPF format
     Using radial grid of  615 points,  1 beta functions with:
                l(1) =   0
     Q(r) pseudized with  8 coefficients,  rinner =    0.800

     atomic species   valence    mass     pseudopotential
        Ti1           12.00    47.86700     Ti( 1.00)
        O1             6.00    15.99900     O ( 1.00)
        N1             5.00    14.00700     N ( 1.00)
        C1             4.00    12.01100     C ( 1.00)
        H1             1.00     1.00800     H ( 1.00)

     No symmetry found

   Cartesian axes

     site n.     atom                  positions (alat units)
         1           Ti1 tau(   1) = (   0.0004258   2.9801865   6.0000000  )
         2           Ti1 tau(   2) = (   3.2906075   1.4906267   6.0002472  )
         3           O1  tau(   3) = (   0.0006271   0.0005054   7.9858123  )
         4           O1  tau(   4) = (   3.2906025   0.0005020   7.3038282  )
         5           O1  tau(   5) = (   4.5942328   1.4918067   9.2879030  )
         6           O1  tau(   6) = (   1.9868534   1.4903216   9.2879459  )
         7           Ti1 tau(   7) = (   3.2907910   2.8959150   9.1758416  )
         8           Ti1 tau(   8) = (   0.0015273   1.4827037   9.2680791  )
         9           O1  tau(   9) = (   3.2741875   5.9357071  11.3735532  )
        10           O1  tau(  10) = (   0.0116148   5.9584955  10.6183126  )
        11           O1  tau(  11) = (   1.2759687   1.4857368  12.6615302  )
        12           O1  tau(  12) = (   5.2764777   1.4850508  12.6403612  )
        13           Ti1 tau(  13) = (   6.5724762   2.9646551  12.5117882  )
        14           Ti1 tau(  14) = (   3.2886223   1.4652571  12.5194246  )
        15           O1  tau(  15) = (   6.5416971   0.0664024  14.6986244  )
        16           O1  tau(  16) = (   3.2828258   5.9593040  13.9967703  )
        17           O1  tau(  17) = (   4.5136565   1.4796660  16.2299008  )
        18           O1  tau(  18) = (   2.0038615   1.4742267  16.2123189  )
        19           Ti1 tau(  19) = (   3.2480181   2.9445974  15.7466143  )
        20           Ti1 tau(  20) = (   6.5118905   1.3801257  16.1190456  )
        21           O1  tau(  21) = (   3.2904802   0.0005063   4.7018136  )
        22           O1  tau(  22) = (   6.5538845   5.8109167  17.2256470  )
        23           O1  tau(  23) = (   1.3043587   1.4918075   6.0039043  )
        24           O1  tau(  24) = (   5.2767064   1.4903225   6.0039473  )
        25           Ti1 tau(  25) = (   0.0000382   5.9609847   6.0000000  )
        26           Ti1 tau(  26) = (   3.2902200   4.4714249   6.0002472  )
        27           O1  tau(  27) = (   0.0002396   2.9813036   7.9858123  )
        28           O1  tau(  28) = (   3.2902150   2.9813002   7.3038282  )
        29           O1  tau(  29) = (   4.5938453   4.4726049   9.2879030  )
        30           O1  tau(  30) = (   1.9864658   4.4711199   9.2879459  )
        31           Ti1 tau(  31) = (   3.2891106   5.8743827   9.1763621  )
        32           Ti1 tau(  32) = (   0.0006254   4.4649316   9.2693709  )
        33           O1  tau(  33) = (   3.2754078   2.9701464  11.3677572  )
        34           O1  tau(  34) = (   0.0092240   2.9805883  10.6323155  )
        35           O1  tau(  35) = (   1.2711598   4.4556272  12.7031535  )
        36           O1  tau(  36) = (   5.2783420   4.4558858  12.6781970  )
        37           Ti1 tau(  37) = (   0.0002938   5.9583472  12.5066983  )
        38           Ti1 tau(  38) = (   3.2916940   4.4447674  12.5292973  )
        39           O1  tau(  39) = (   6.5347695   2.9176514  14.9891124  )
        40           O1  tau(  40) = (   3.2818703   2.9467213  13.9608579  )
        41           O1  tau(  41) = (   4.5039121   4.4250859  16.1805084  )
        42           O1  tau(  42) = (   2.0002864   4.4376668  16.1101511  )
        43           Ti1 tau(  43) = (   3.2613398   5.9375382  15.7939200  )
        44           Ti1 tau(  44) = (   0.0097882   4.6113729  15.8292928  )
        45           O1  tau(  45) = (   3.2900926   2.9813045   4.7018136  )
        46           O1  tau(  46) = (   1.3039711   4.4726057   6.0039043  )
        47           O1  tau(  47) = (   5.2763189   4.4711207   6.0039473  )
        48           N1  tau(  48) = (   6.5527080   2.6566917  18.2311642  )
        49           C1  tau(  49) = (   0.9950107   2.5313988  18.9921798  )
        50           H1  tau(  50) = (   0.9966315   2.9146593  20.0110098  )
        51           H1  tau(  51) = (   1.8622571   2.0164067  18.6108951  )
        52           N1  tau(  52) = (   5.4094651   3.2293427  18.7544413  )
        53           H1  tau(  53) = (   5.6316840   3.8708726  19.5154782  )
        54           H1  tau(  54) = (   4.9168071   3.7283298  18.0160565  )

     number of k points=    10  Fermi-Dirac smearing, width (Ry)=  0.0073
                       cart. coord. in units 2pi/alat
        k(    1) = (   0.0000000   0.0000000   0.0000000), wk =   0.1250000
        k(    2) = (   0.0000000   0.0419351   0.0000000), wk =   0.2500000
        k(    3) = (   0.0000000  -0.0838702   0.0000000), wk =   0.1250000
        k(    4) = (   0.0379955   0.0000049   0.0000000), wk =   0.2500000
        k(    5) = (   0.0379955   0.0419400   0.0000000), wk =   0.2500000
        k(    6) = (   0.0379955  -0.0838652   0.0000000), wk =   0.2500000
        k(    7) = (   0.0379955  -0.0419301   0.0000000), wk =   0.2500000
        k(    8) = (  -0.0759910  -0.0000099   0.0000000), wk =   0.1250000
        k(    9) = (  -0.0759910   0.0419252   0.0000000), wk =   0.2500000
        k(   10) = (  -0.0759910  -0.0838800   0.0000000), wk =   0.1250000

     Initial potential from superposition of free atoms

     starting charge  379.99915, renormalised to  396.00000

     negative rho (up, down):  1.580E-02 0.000E+00

     %%%%%%%%%%%%%%%%%%%%%%%%%%%%%%%%%%%%%%%%%%%%%%%%%%%%%%%%%%%%%%%%%%%%%%%%
     %                                                                      %
     % You are using vdW-DF, which was implemented by the Thonhauser group. %
     % Please cite the following two papers that made this development      %
     % possible and the two reviews that describe the various versions:     %
     %                                                                      %
     %   T. Thonhauser et al., PRL 115, 136402 (2015).                      %
     %   T. Thonhauser et al., PRB 76, 125112 (2007).                       %
     %   K. Berland et al., Rep. Prog. Phys. 78, 066501 (2015).             %
     %   D.C. Langreth et al., J. Phys.: Condens. Matter 21, 084203 (2009). %
     %                                                                      %
     %                                                                      %
     % If you are calculating the stress with vdW-DF, please also cite:     %
     %                                                                      %
     %   R. Sabatini et al., J. Phys.: Condens. Matter 24, 424209 (2012).   %
     %                                                                      %
     %%%%%%%%%%%%%%%%%%%%%%%%%%%%%%%%%%%%%%%%%%%%%%%%%%%%%%%%%%%%%%%%%%%%%%%%

     Adding external electric field

     Computed dipole along edir(3) :
        Dipole               -9.9798 Ry au,        -25.3661 Debye
        Dipole field         -0.0188 Ry au,

        Potential amp.        1.7458 Ry
        Total length         46.3494 bohr

     Starting wfcs are  300 atomic wfcs
  @ DRIVER MODE: Message from server: STATUS
  @ DRIVER MODE: Message from server: POSDATA
  @ DRIVER MODE: Reading and sharing cell
  @ DRIVER MODE: Reading and sharing positions
  @ DRIVER MODE: Received positions

     Self-consistent Calculation

     iteration #  1     ecut=    29.40 Ry     beta= 0.05
     Davidson diagonalization with overlap
     c_bands:  1 eigenvalues not converged
     c_bands:  2 eigenvalues not converged
     c_bands:  2 eigenvalues not converged
     c_bands:  1 eigenvalues not converged
     c_bands:  3 eigenvalues not converged
     c_bands:  2 eigenvalues not converged
     c_bands:  3 eigenvalues not converged
     c_bands:  2 eigenvalues not converged
     c_bands:  1 eigenvalues not converged
     c_bands:  1 eigenvalues not converged
     ethr =  1.00E-05,  avg # of iterations = 20.0

[...]

     total energy              =   -2515.78964578 Ry
     estimated scf accuracy    <    4741.20957843 Ry

     iteration #  2     ecut=    29.40 Ry     beta= 0.05
     Davidson diagonalization with overlap
     ethr =  1.00E-02,  avg # of iterations = 24.0

[...]

     iteration # 68     ecut=    29.40 Ry     beta= 0.05
     Davidson diagonalization with overlap
     ethr =  4.87E-11,  avg # of iterations =  9.4

[...]

     total energy              =   -2940.36665234 Ry
     estimated scf accuracy    <       0.00000010 Ry

     iteration # 69     ecut=    29.40 Ry     beta= 0.05
     Davidson diagonalization with overlap
     c_bands:  1 eigenvalues not converged
     ethr =  2.47E-11,  avg # of iterations = 13.5

     negative rho (up, down):  1.644E-02 0.000E+00

     Adding external electric field

     Computed dipole along edir(3) :
        Dipole                1.2635 Ry au,          3.2114 Debye
        Dipole field          0.0024 Ry au,

        Potential amp.       -0.2210 Ry
        Total length         46.3494 bohr

     End of self-consistent calculation

          k = 0.0000 0.0000 0.0000 ( 18029 PWs)   bands (ev):

   -55.4184 -55.3817 -55.3703 -55.3362 -55.2976 -55.2939 -55.2880 -55.2631
   -55.2363 -55.2200 -55.2019 -55.2016 -55.1681 -55.0512 -54.3980 -54.3640
   -31.9874 -31.8627 -31.8198 -31.7858 -31.7318 -31.7259 -31.7211 -31.7072
   -31.6593 -31.6520 -31.6286 -31.6275 -31.6152 -31.5885 -31.5734 -31.5684
   -31.5560 -31.5552 -31.5339 -31.5282 -31.5227 -31.5127 -31.4841 -31.4750
   -31.4669 -31.4644 -31.4387 -31.4286 -31.4274 -31.4214 -31.4191 -31.4004
   -31.3995 -31.3942 -31.3869 -31.3842 -31.3503 -31.3371 -31.3300 -31.3130
   -31.2727 -31.2156 -30.8074 -30.7134 -30.6913 -30.6238 -30.5370 -30.4261
   -18.5956 -16.2503 -15.9816 -15.8391 -15.7147 -15.6158 -15.4911 -15.4690
   -15.3416 -15.2567 -15.1432 -15.0991 -15.0874 -15.0842 -15.0512 -15.0244
   -14.9601 -14.9555 -14.9377 -14.9115 -14.9008 -14.8577 -14.8545 -14.8131
   -14.7926 -14.7904 -14.6641 -14.5753 -14.5050 -14.1818 -13.6664 -12.9009
   -12.7835  -8.7383  -6.4928  -6.0451  -3.9972  -3.5911  -3.4351  -3.3796
    -3.3372  -3.3104  -3.2045  -3.1637  -3.0238  -2.8270  -2.7781  -2.6883
    -2.6261  -2.6175  -2.5984  -2.4176  -2.4101  -2.3537  -2.3032  -2.2615
    -2.2394  -2.2249  -2.2058  -2.1806  -2.1700  -2.1597  -1.9866  -1.9709
    -1.8997  -1.8261  -1.8161  -1.7658  -1.7450  -1.7143  -1.7063  -1.6983
    -1.6529  -1.6335  -1.6034  -1.5551  -1.4297  -1.3385  -1.3071  -1.2253
    -1.0987  -1.0539  -1.0018  -0.9986  -0.9057  -0.9016  -0.8811  -0.7960
    -0.7625  -0.7125  -0.6407  -0.5724  -0.5155  -0.4571  -0.4097  -0.3995
    -0.3446  -0.2274  -0.2019  -0.1831  -0.1610  -0.0407  -0.0219   0.0182
     0.0928   0.1230   0.1239   0.2406   0.2669   0.3245   0.3291   0.4055
     0.4664   0.5110   0.5199   0.5389   0.5679   0.5710   0.6455   0.6588
     0.6891   0.7592   0.8258   0.9174   1.1470   1.1832   1.1962   1.5292
     1.5312   1.6245   1.8082   2.2002   2.2483   3.6807   3.7507   3.8253
     3.8316   3.8499   3.9182   4.1548   4.1730   4.1810   4.1865   4.2294

[...]

          k = 0.0380-0.0419 0.0000 ( 17876 PWs)   bands (ev):

[...]

          k =-0.0760-0.0000 0.0000 ( 17886 PWs)   bands (ev):

[...]

          k =-0.0760-0.0839 0.0000 ( 17948 PWs)   bands (ev):

   -55.4037 -55.3961 -55.3532 -55.3531 -55.2887 -55.2876 -55.2820 -55.2785
   -55.2241 -55.2206 -55.2169 -55.1857 -55.1843 -55.0524 -54.3810 -54.3809
   -31.7937 -31.7883 -31.7470 -31.6945 -31.6808 -31.6779 -31.6777 -31.6448
   -31.6445 -31.6285 -31.6195 -31.6147 -31.6102 -31.5635 -31.5561 -31.5539
   -31.5516 -31.5496 -31.5443 -31.5390 -31.5239 -31.5110 -31.4944 -31.4938
   -31.4899 -31.4757 -31.4741 -31.4729 -31.4728 -31.4708 -31.4539 -31.4498
   -31.4437 -31.4337 -31.4304 -31.4159 -31.4142 -31.4109 -31.3660 -31.3654
   -31.2939 -31.2763 -30.7040 -30.7039 -30.6199 -30.6198 -30.5805 -30.5803
   -18.5932 -15.7124 -15.6794 -15.6220 -15.4417 -15.4141 -15.4073 -15.3882
   -15.2580 -15.2415 -15.2106 -15.1813 -15.1502 -15.1249 -15.1208 -15.1028
   -15.0329 -15.0220 -15.0139 -14.9963 -14.9310 -14.9270 -14.9182 -14.9134
   -14.8666 -14.8638 -14.7685 -14.7670 -14.6665 -14.5507 -13.6722 -12.8850
   -12.8850  -8.7198  -6.4666  -6.0596  -4.0063  -3.2670  -2.9455  -2.8788
    -2.8503  -2.6535  -2.6298  -2.5871  -2.5317  -2.4517  -2.4257  -2.4190
    -2.4102  -2.3391  -2.3276  -2.2780  -2.2689  -2.2498  -2.2345  -2.2239
    -2.1944  -2.1685  -2.1446  -2.1356  -2.1243  -2.0703  -2.0599  -2.0423
    -2.0119  -1.9922  -1.9830  -1.9663  -1.8670  -1.7827  -1.7532  -1.7260
    -1.6220  -1.6177  -1.5373  -1.5214  -1.4902  -1.4494  -1.4365  -1.4159
    -1.2339  -1.2050  -1.1729  -1.1602  -1.1518  -1.0125  -0.9988  -0.9425
    -0.9016  -0.8956  -0.7870  -0.7621  -0.7376  -0.6613  -0.6257  -0.5917
    -0.5401  -0.4350  -0.4176  -0.4070  -0.3736  -0.3696  -0.3135  -0.3015
    -0.2263  -0.1842  -0.1513  -0.1374  -0.0945   0.0937   0.1169   0.1318
     0.2751   0.3306   0.4241   0.5241   0.5342   0.5899   0.6287   0.6951
     0.7562   0.8171   0.8694   0.8909   0.8922   0.9708   0.9885   1.0419
     1.0438   1.9814   1.9820   2.0682   2.0686   3.8233   3.9318   3.9431
     3.9836   4.0653   4.1241   4.1969   4.2254   4.2643   4.2672   4.3325

     the Fermi energy is     3.7426 ev

!    total energy              =   -2940.36667491 Ry
     estimated scf accuracy    <       0.00000007 Ry
     smearing contrib. (-TS)   =      -0.03728268 Ry
     internal energy E=F+TS    =   -2940.32939223 Ry

     The total energy is F=E-TS. E is the sum of the following terms:
     one-electron contribution =  -23759.00756364 Ry
     hartree contribution      =   11970.83135900 Ry
     xc contribution           =    -486.11519052 Ry
     ewald contribution        =    9333.95899048 Ry
     electric field correction =       0.00301246 Ry

     convergence has been achieved in  69 iterations

     Forces acting on atoms (cartesian axes, Ry/au):

     atom    1 type  1   force =     0.00006155   -0.00013799    0.09328676
     atom    2 type  1   force =    -0.00005482   -0.00026363   -0.17804249
     atom    3 type  2   force =     0.00002111   -0.00016589   -0.02025521
     atom    4 type  2   force =     0.00000916   -0.00195728    0.05851091
     atom    5 type  2   force =    -0.01066955   -0.00127208    0.00870318
     atom    6 type  2   force =     0.01176630   -0.00061717    0.00682331
     atom    7 type  1   force =    -0.00091848    0.00298028   -0.01442805
     atom    8 type  1   force =     0.00063887   -0.00049427   -0.00370993
     atom    9 type  2   force =     0.00014486    0.00010445    0.00008866
     atom   10 type  2   force =    -0.00209714   -0.00123201    0.00063411
     atom   11 type  2   force =     0.00008179    0.00021932   -0.00013050
     atom   12 type  2   force =     0.00056973    0.00028869   -0.00007609
     atom   13 type  1   force =    -0.00014144    0.00029636    0.00009521
     atom   14 type  1   force =     0.00013459    0.00046762   -0.00039648
     atom   15 type  2   force =     0.00001607    0.00041090   -0.00009089
     atom   16 type  2   force =     0.00042036    0.00016932   -0.00033652
     atom   17 type  2   force =     0.00026806   -0.00032391   -0.00035669
     atom   18 type  2   force =     0.00020108   -0.00053374    0.00007895
     atom   19 type  1   force =    -0.00095208   -0.00009106    0.00018720
     atom   20 type  1   force =     0.00024675   -0.00000071   -0.00013130
     atom   21 type  2   force =     0.00009733    0.00000428    0.10392095
     atom   22 type  2   force =    -0.00019678    0.00005870    0.00019191
     atom   23 type  2   force =    -0.07040456   -0.00011867   -0.02688642
     atom   24 type  2   force =     0.07033508    0.00033848   -0.02692363
     atom   25 type  1   force =     0.00008501   -0.00021988    0.09284533
     atom   26 type  1   force =    -0.00005280   -0.00034312   -0.17803816
     atom   27 type  2   force =     0.00011044   -0.00035753   -0.01931653
     atom   28 type  2   force =     0.00004176   -0.00165285    0.05792970
     atom   29 type  2   force =    -0.01064758   -0.00127945    0.00802917
     atom   30 type  2   force =     0.01165244   -0.00088583    0.00608999
     atom   31 type  1   force =    -0.00090299    0.00491007   -0.01541281
     atom   32 type  1   force =     0.00083820    0.00019350   -0.00391821
     atom   33 type  2   force =     0.00010361    0.00046321    0.00021113
     atom   34 type  2   force =    -0.00177339    0.00110755    0.00069128
     atom   35 type  2   force =     0.00031645    0.00006299    0.00007072
     atom   36 type  2   force =     0.00026376   -0.00025082    0.00018127
     atom   37 type  1   force =    -0.00035680    0.00001645   -0.00009337
     atom   38 type  1   force =    -0.00023956    0.00049823   -0.00015566
     atom   39 type  2   force =     0.00048684   -0.00072069   -0.00006185
     atom   40 type  2   force =    -0.00015465    0.00007147   -0.00002823
     atom   41 type  2   force =     0.00011278   -0.00014078   -0.00013757
     atom   42 type  2   force =     0.00017880    0.00010205   -0.00002778
     atom   43 type  1   force =    -0.00026125   -0.00011176    0.00011943
     atom   44 type  1   force =     0.00013661    0.00009749   -0.00020290
     atom   45 type  2   force =     0.00010642   -0.00003616    0.10388839
     atom   46 type  2   force =    -0.07042066   -0.00005944   -0.02688666
     atom   47 type  2   force =     0.07037131    0.00036595   -0.02689566
     atom   48 type  3   force =    -0.00053066   -0.00103941   -0.00189847
     atom   49 type  4   force =     0.00100523   -0.00045536   -0.00018894
     atom   50 type  5   force =     0.00053933   -0.00012331    0.00052624
     atom   51 type  5   force =    -0.00034477   -0.00003375   -0.00035560
     atom   52 type  3   force =     0.00308920    0.00258795    0.00385087
     atom   53 type  5   force =    -0.00320368   -0.00152139   -0.00163074
     atom   54 type  5   force =    -0.00012724    0.00062465    0.00005863

     Total force =     0.365926     Total SCF correction =     0.000583
  @ DRIVER MODE: Message from server: STATUS
  @ DRIVER MODE: Message from server: GETFORCE
  @ DRIVER MODE: Returning v,forces,stress,ensemble

     Writing output data file ./calc.save/
  @ DRIVER MODE: Message from server: EXIT
  @ DRIVE MODE: Exiting

     General routines

     Parallel routines

   This run was terminated on:   8:54:44   9Sep2021

   JOB DONE.