     Program PWSCF v.6.7GPU starts on 16Sep2021 at  5:43:33

     R & G space division:  proc/nbgrp/npool/nimage =      10
     Reading input from /storage/home/hcoda1/3/ntian30/research/carbon/CxH_vib/H2O_calc/ads_slab/CH3NH2O_a/out_0046/pw.inp
Warning: card &CELL ignored
Warning: card   CELL_DYNAMICS='IPI', ignored
Warning: card / ignored

     Current dimensions of program PWSCF are:
     Max number of different atomic species (ntypx) = 10
     Max number of k-points (npk) =  40000
     Max angular momentum in pseudopotentials (lmaxx) =  3
     Presently no symmetry can be used with electric field

     Message from routine cell_base_init:
     DEPRECATED: use true lattice parameter, not A to a.u. conversion factor

     IMPORTANT: XC functional enforced from input :
     Exchange-correlation= BEEF-VDW
                           (   1   4  43  14   2   0   0)
     Any further DFT definition will be discarded
     Please, verify this is what you really want

  @ DRIVER MODE: Connecting to
 qe_1139763_2852618.sched-torque.pace.gatech.edulv0f534x_scratch
  using UNIX socket
  @ DRIVER MODE: Message from server: STATUS
  @ DRIVER MODE: Message from server: INIT
  @ DRIVER MODE: Receiving replica           0          -1
  @ DRIVER MODE: Receiving encoded integer          25
  @ DRIVER MODE:  SCF:  T  FORCE:  T  STRESS:  F  VC:  F  ENSEMBLE:  F
  @ DRIVER MODE:  SCF:  T  FORCE:  T  STRESS:  F  VC:  F  ENSEMBLE:  F

     Using Slab Decomposition

     bravais-lattice index     =            0
     lattice parameter (alat)  =       1.8897  a.u.
     unit-cell volume          =    6658.9804 (a.u.)^3
     number of atoms/cell      =           55
     number of atomic types    =            5
     number of electrons       =       398.00
     number of Kohn-Sham states=          209
     kinetic-energy cutoff     =      29.3995  Ry
     charge density cutoff     =     293.9946  Ry
     scf convergence threshold =      7.3E-08
     mixing beta               =       0.0500
     number of iterations used =            8  plain     mixing
     Exchange-correlation= BEEF-VDW
                           (   1   4  43  14   2   0   0)

     celldm(1)=   1.889726  celldm(2)=   0.000000  celldm(3)=   0.000000
     celldm(4)=   0.000000  celldm(5)=   0.000000  celldm(6)=   0.000000

     crystal axes: (cart. coord. in units of alat)
               a(1) = (   6.579727   0.000000   0.000000 )
               a(2) = (  -0.000775   5.961596   0.000000 )
               a(3) = (   0.000000   0.000000  25.155947 )

     reciprocal axes: (cart. coord. in units 2 pi/alat)
               b(1) = (  0.151982  0.000020  0.000000 )
               b(2) = (  0.000000  0.167740  0.000000 )
               b(3) = (  0.000000  0.000000  0.039752 )

     PseudoPot. # 1 for Ti read from file:
     /storage/coda1/p-amedford6/0/shared/rich_project_chbe-medford/medford-share/data/pseudos_module/espresso/nninc/pbe/van/Ti.UPF
     MD5 check sum: 8e4df49b7f0d34bbd5052bf3f5ea0213
     Pseudo is Ultrasoft, Zval = 12.0
     Generated by new atomic code, or converted to UPF format
     Using radial grid of  851 points,  6 beta functions with:
                l(1) =   0
                l(2) =   0
                l(3) =   1
                l(4) =   1
                l(5) =   2
                l(6) =   2
     Q(r) pseudized with  8 coefficients,  rinner =    1.000   1.000   1.000
                                                       1.000   1.000

     PseudoPot. # 2 for O  read from file:
     /storage/coda1/p-amedford6/0/shared/rich_project_chbe-medford/medford-share/data/pseudos_module/espresso/nninc/pbe/van/O.UPF
     MD5 check sum: 78c19812648e8988a0fe644b0f25305e
     Pseudo is Ultrasoft, Zval =  6.0
     Generated by new atomic code, or converted to UPF format
     Using radial grid of  737 points,  4 beta functions with:
                l(1) =   0
                l(2) =   0
                l(3) =   1
                l(4) =   1
     Q(r) pseudized with  8 coefficients,  rinner =    0.800   0.800   0.800

     PseudoPot. # 3 for N  read from file:
     /storage/coda1/p-amedford6/0/shared/rich_project_chbe-medford/medford-share/data/pseudos_module/espresso/nninc/pbe/van/N.UPF
     MD5 check sum: 90d10febe142ad51ac9d5be1deb811c4
     Pseudo is Ultrasoft, Zval =  5.0
     Generated by new atomic code, or converted to UPF format
     Using radial grid of  729 points,  4 beta functions with:
                l(1) =   0
                l(2) =   0
                l(3) =   1
                l(4) =   1
     Q(r) pseudized with  8 coefficients,  rinner =    0.800   0.800   0.800

     PseudoPot. # 4 for C  read from file:
     /storage/coda1/p-amedford6/0/shared/rich_project_chbe-medford/medford-share/data/pseudos_module/espresso/nninc/pbe/van/C.UPF
     MD5 check sum: 1a69bf6b8db32088f5b2163dbdb77a27
     Pseudo is Ultrasoft, Zval =  4.0
     Generated by new atomic code, or converted to UPF format
     Using radial grid of  721 points,  4 beta functions with:
                l(1) =   0
                l(2) =   0
                l(3) =   1
                l(4) =   1
     Q(r) pseudized with  8 coefficients,  rinner =    0.800   0.800   0.800

     PseudoPot. # 5 for H  read from file:
     /storage/coda1/p-amedford6/0/shared/rich_project_chbe-medford/medford-share/data/pseudos_module/espresso/nninc/pbe/van/H.UPF
     MD5 check sum: b5ee9d7bfd3a09ee7748110bda690ff7
     Pseudo is Ultrasoft, Zval =  1.0
     Generated by new atomic code, or converted to UPF format
     Using radial grid of  615 points,  1 beta functions with:
                l(1) =   0
     Q(r) pseudized with  8 coefficients,  rinner =    0.800

     atomic species   valence    mass     pseudopotential
        Ti1           12.00    47.86700     Ti( 1.00)
        O1             6.00    15.99900     O ( 1.00)
        N1             5.00    14.00700     N ( 1.00)
        C1             4.00    12.01100     C ( 1.00)
        H1             1.00     1.00800     H ( 1.00)

     No symmetry found

   Cartesian axes

     site n.     atom                  positions (alat units)
         1           Ti1 tau(   1) = (   0.0004258   2.9801865   6.0000000  )
         2           Ti1 tau(   2) = (   3.2906075   1.4906267   6.0002472  )
         3           O1  tau(   3) = (   0.0006271   0.0005054   7.9858123  )
         4           O1  tau(   4) = (   3.2906025   0.0005020   7.3038282  )
         5           O1  tau(   5) = (   4.5942328   1.4918067   9.2879030  )
         6           O1  tau(   6) = (   1.9868534   1.4903216   9.2879459  )
         7           Ti1 tau(   7) = (   3.2907910   2.8959150   9.1758416  )
         8           Ti1 tau(   8) = (   0.0015273   1.4827037   9.2680791  )
         9           O1  tau(   9) = (   3.2951577   0.0167633  11.2896499  )
        10           O1  tau(  10) = (   0.0116148   5.9584955  10.6183126  )
        11           O1  tau(  11) = (   1.3222759   1.5071707  12.6129440  )
        12           O1  tau(  12) = (   5.3060066   1.5095485  12.6267335  )
        13           Ti1 tau(  13) = (   6.4824898   3.0013615  12.7357613  )
        14           Ti1 tau(  14) = (   3.1735365   1.4973312  12.4739500  )
        15           O1  tau(  15) = (   0.0245190   0.0017265  14.5963640  )
        16           O1  tau(  16) = (   3.2983568   0.0259644  13.8884976  )
        17           O1  tau(  17) = (   4.5535709   1.5599051  15.9919625  )
        18           O1  tau(  18) = (   2.0723989   1.5598234  15.9883263  )
        19           Ti1 tau(  19) = (   3.3263631   3.0313633  15.6478355  )
        20           Ti1 tau(  20) = (   0.0083359   1.6222165  16.0589653  )
        21           O1  tau(  21) = (   3.2904802   0.0005063   4.7018136  )
        22           O1  tau(  22) = (   0.0206953   0.0548308  17.2083480  )
        23           O1  tau(  23) = (   1.3043587   1.4918075   6.0039043  )
        24           O1  tau(  24) = (   5.2767064   1.4903225   6.0039473  )
        25           Ti1 tau(  25) = (   0.0000382   5.9609847   6.0000000  )
        26           Ti1 tau(  26) = (   3.2902200   4.4714249   6.0002472  )
        27           O1  tau(  27) = (   0.0002396   2.9813036   7.9858123  )
        28           O1  tau(  28) = (   3.2902150   2.9813002   7.3038282  )
        29           O1  tau(  29) = (   4.5938453   4.4726049   9.2879030  )
        30           O1  tau(  30) = (   1.9864658   4.4711199   9.2879459  )
        31           Ti1 tau(  31) = (   3.2891106   5.8743827   9.1763621  )
        32           Ti1 tau(  32) = (   0.0006254   4.4649316   9.2693709  )
        33           O1  tau(  33) = (   3.2909539   2.9954008  11.2901670  )
        34           O1  tau(  34) = (   0.0092240   2.9805883  10.6323155  )
        35           O1  tau(  35) = (   1.3211080   4.4795309  12.6092917  )
        36           O1  tau(  36) = (   5.3058445   4.4798052  12.6251394  )
        37           Ti1 tau(  37) = (   6.5140999   0.0198189  12.7603067  )
        38           Ti1 tau(  38) = (   3.1705570   4.4938763  12.4677136  )
        39           O1  tau(  39) = (   0.0016069   2.9863809  14.6467327  )
        40           O1  tau(  40) = (   3.3112668   3.0122049  13.8485686  )
        41           O1  tau(  41) = (   4.5534170   4.5051619  16.0179686  )
        42           O1  tau(  42) = (   2.0797414   4.5084034  16.0201905  )
        43           Ti1 tau(  43) = (   3.2815144   0.0627375  15.7417980  )
        44           Ti1 tau(  44) = (   0.0076503   4.5954094  16.1032789  )
        45           O1  tau(  45) = (   3.2900926   2.9813045   4.7018136  )
        46           O1  tau(  46) = (   1.3039711   4.4726057   6.0039043  )
        47           O1  tau(  47) = (   5.2763189   4.4711207   6.0039473  )
        48           N1  tau(  48) = (   0.0651939   3.0276870  17.3150544  )
        49           C1  tau(  49) = (   0.3375872   3.0185870  18.7284822  )
        50           H1  tau(  50) = (   0.4544735   4.0311245  19.1352477  )
        51           H1  tau(  51) = (   6.1015407   2.5302758  19.2785169  )
        52           H1  tau(  52) = (   1.2508204   2.4494767  18.9518403  )
        53           O1  tau(  53) = (   3.3357083   0.1159715  18.1615364  )
        54           H1  tau(  54) = (   4.1514219   5.6051498  18.3929375  )
        55           H1  tau(  55) = (   2.5926282   5.5437384  18.4710493  )

     number of k points=    10  Fermi-Dirac smearing, width (Ry)=  0.0073
                       cart. coord. in units 2pi/alat
        k(    1) = (   0.0000000   0.0000000   0.0000000), wk =   0.1250000
        k(    2) = (   0.0000000   0.0419351   0.0000000), wk =   0.2500000
        k(    3) = (   0.0000000  -0.0838702   0.0000000), wk =   0.1250000
        k(    4) = (   0.0379955   0.0000049   0.0000000), wk =   0.2500000
        k(    5) = (   0.0379955   0.0419400   0.0000000), wk =   0.2500000
        k(    6) = (   0.0379955  -0.0838652   0.0000000), wk =   0.2500000
        k(    7) = (   0.0379955  -0.0419301   0.0000000), wk =   0.2500000
        k(    8) = (  -0.0759910  -0.0000099   0.0000000), wk =   0.1250000
        k(    9) = (  -0.0759910   0.0419252   0.0000000), wk =   0.2500000
        k(   10) = (  -0.0759910  -0.0838800   0.0000000), wk =   0.1250000

     Initial potential from superposition of free atoms

     starting charge  381.99915, renormalised to  398.00000

     negative rho (up, down):  1.656E-02 0.000E+00

     %%%%%%%%%%%%%%%%%%%%%%%%%%%%%%%%%%%%%%%%%%%%%%%%%%%%%%%%%%%%%%%%%%%%%%%%
     %                                                                      %
     % You are using vdW-DF, which was implemented by the Thonhauser group. %
     % Please cite the following two papers that made this development      %
     % possible and the two reviews that describe the various versions:     %
     %                                                                      %
     %   T. Thonhauser et al., PRL 115, 136402 (2015).                      %
     %   T. Thonhauser et al., PRB 76, 125112 (2007).                       %
     %   K. Berland et al., Rep. Prog. Phys. 78, 066501 (2015).             %
     %   D.C. Langreth et al., J. Phys.: Condens. Matter 21, 084203 (2009). %
     %                                                                      %
     %                                                                      %
     % If you are calculating the stress with vdW-DF, please also cite:     %
     %                                                                      %
     %   R. Sabatini et al., J. Phys.: Condens. Matter 24, 424209 (2012).   %
     %                                                                      %
     %%%%%%%%%%%%%%%%%%%%%%%%%%%%%%%%%%%%%%%%%%%%%%%%%%%%%%%%%%%%%%%%%%%%%%%%

     Adding external electric field

     Computed dipole along edir(3) :
        Dipole               -9.1079 Ry au,        -23.1500 Debye
        Dipole field         -0.0172 Ry au,

        Potential amp.        1.5933 Ry
        Total length         46.3494 bohr

     Starting wfcs are  301 atomic wfcs
  @ DRIVER MODE: Message from server: STATUS
  @ DRIVER MODE: Message from server: POSDATA
  @ DRIVER MODE: Reading and sharing cell
  @ DRIVER MODE: Reading and sharing positions
  @ DRIVER MODE: Received positions

     Self-consistent Calculation

     iteration #  1     ecut=    29.40 Ry     beta= 0.05
     Davidson diagonalization with overlap
     c_bands:  1 eigenvalues not converged
     c_bands:  1 eigenvalues not converged
     c_bands:  1 eigenvalues not converged
     c_bands:  1 eigenvalues not converged
     c_bands:  1 eigenvalues not converged
     c_bands:  1 eigenvalues not converged
     c_bands:  1 eigenvalues not converged
     c_bands:  2 eigenvalues not converged
     ethr =  1.00E-05,  avg # of iterations = 19.6

[...]

     total energy              =   -2564.50808022 Ry
     estimated scf accuracy    <    4317.20388500 Ry

     iteration #  2     ecut=    29.40 Ry     beta= 0.05
     Davidson diagonalization with overlap
     ethr =  1.00E-02,  avg # of iterations = 23.4

[...]

     iteration # 65     ecut=    29.40 Ry     beta= 0.05
     Davidson diagonalization with overlap
     c_bands:  1 eigenvalues not converged
     ethr =  7.13E-08,  avg # of iterations =  9.0

[...]

     total energy              =   -2953.97104597 Ry
     estimated scf accuracy    <       0.00000012 Ry

     iteration # 83     ecut=    29.40 Ry     beta= 0.05
     Davidson diagonalization with overlap
     ethr =  3.05E-11,  avg # of iterations =  5.5

     negative rho (up, down):  1.668E-02 0.000E+00

     Adding external electric field

     Computed dipole along edir(3) :
        Dipole                0.5311 Ry au,          1.3499 Debye
        Dipole field          0.0010 Ry au,

        Potential amp.       -0.0929 Ry
        Total length         46.3494 bohr

     End of self-consistent calculation

          k = 0.0000 0.0000 0.0000 ( 18029 PWs)   bands (ev):

   -56.5940 -56.5604 -55.7119 -55.6780 -55.6676 -55.6328 -55.4913 -55.4551
   -55.3608 -55.2423 -55.2289 -55.2269 -55.2084 -55.1316 -54.7250 -54.6755
   -33.0207 -32.8685 -32.8403 -32.7704 -32.6795 -32.6468 -32.1798 -32.1502
   -32.0268 -31.9767 -31.9289 -31.9097 -31.8807 -31.8703 -31.8428 -31.8367
   -31.8175 -31.8128 -31.7900 -31.7744 -31.7671 -31.7109 -31.7064 -31.6689
   -31.6553 -31.6333 -31.6257 -31.6175 -31.5941 -31.5857 -31.5821 -31.5579
   -31.4650 -31.4524 -31.4185 -31.4053 -31.3786 -31.3693 -31.3558 -31.3368
   -31.3089 -31.2583 -31.2398 -30.9687 -30.9471 -30.9177 -30.8937 -30.7846
   -18.8116 -16.7494 -16.2857 -16.0446 -15.9501 -15.8679 -15.8282 -15.7848
   -15.6372 -15.5643 -15.5443 -15.5419 -15.4741 -15.3299 -15.2759 -15.1780
   -15.0919 -14.9507 -14.9392 -14.8991 -14.8852 -14.8494 -14.8454 -14.7944
   -14.6262 -14.5903 -14.5445 -14.4855 -14.3939 -14.1737 -13.7408 -13.6311
   -12.9714  -7.7738  -6.6276  -4.3166  -3.7842  -3.5191  -3.4870  -3.3585
    -3.3543  -3.3110  -3.1713  -3.1627  -3.0881  -3.0630  -3.0172  -2.9490
    -2.9042  -2.8680  -2.7780  -2.7646  -2.7451  -2.7363  -2.7158  -2.5989
    -2.5548  -2.5041  -2.4013  -2.2910  -2.2485  -2.2215  -2.1755  -2.1422
    -2.0910  -2.0794  -2.0676  -2.0558  -1.9522  -1.8301  -1.8052  -1.7818
    -1.7355  -1.7208  -1.7125  -1.6890  -1.6042  -1.4963  -1.4024  -1.3347
    -1.3279  -1.2525  -1.2443  -1.1865  -1.0757  -1.0127  -1.0107  -0.9882
    -0.8842  -0.8594  -0.7878  -0.7252  -0.6662  -0.6132  -0.5507  -0.4983
    -0.4753  -0.4658  -0.3680  -0.2984  -0.2734  -0.2183  -0.2108  -0.2049
    -0.1779  -0.0832  -0.0475   0.0291   0.0646   0.1126   0.1478   0.2266
     0.2866   0.3526   0.3994   0.4213   0.4869   0.5423   0.5978   0.6887
     0.7460   0.7518   0.7793   0.8380   0.8514   0.9256   1.0077   1.0277
     1.0941   1.1655   1.3290   1.3681   1.6142   1.6876   2.3122   2.6834
     2.8445   3.1397   3.3293   3.4675   3.6626   3.6729   3.6802   3.9018
     3.9298

[...]

          k = 0.0380-0.0419 0.0000 ( 17876 PWs)   bands (ev):

[...]

          k =-0.0760-0.0000 0.0000 ( 17886 PWs)   bands (ev):

[...]

          k =-0.0760-0.0839 0.0000 ( 17948 PWs)   bands (ev):

   -56.5774 -56.5769 -55.6969 -55.6926 -55.6548 -55.6458 -55.4773 -55.4689
   -55.3584 -55.2312 -55.2254 -55.2252 -55.2237 -55.1348 -54.7178 -54.6825
   -32.8544 -32.8540 -32.8377 -32.8374 -32.7236 -32.7232 -32.0034 -31.9976
   -31.9860 -31.9790 -31.9027 -31.8881 -31.8870 -31.8827 -31.8760 -31.8745
   -31.8670 -31.8589 -31.8326 -31.8156 -31.7223 -31.7158 -31.6843 -31.6764
   -31.6531 -31.6177 -31.5854 -31.5709 -31.5708 -31.5691 -31.5478 -31.5299
   -31.4790 -31.4502 -31.4500 -31.4461 -31.4303 -31.4111 -31.4110 -31.4001
   -31.3738 -31.3383 -31.1008 -31.0382 -30.9447 -30.9190 -30.9034 -30.8564
   -18.8108 -16.1001 -16.0981 -16.0627 -16.0620 -15.7955 -15.7921 -15.7024
   -15.6968 -15.5652 -15.4447 -15.3405 -15.3278 -15.2938 -15.2674 -15.1571
   -15.1362 -15.1249 -15.1146 -15.0067 -14.9875 -14.9397 -14.9255 -14.9097
   -14.9024 -14.6077 -14.5914 -14.4912 -14.4654 -14.3262 -13.7347 -13.7347
   -12.9900  -7.7672  -6.6208  -3.1959  -3.1900  -3.1461  -3.1354  -3.1346
    -3.0764  -2.9769  -2.9299  -2.9278  -2.9269  -2.8433  -2.7818  -2.7740
    -2.7000  -2.6670  -2.6497  -2.5922  -2.5779  -2.5142  -2.4877  -2.4796
    -2.4618  -2.4381  -2.4369  -2.3431  -2.2770  -2.2311  -2.2259  -2.1664
    -2.1370  -2.0773  -2.0548  -2.0437  -2.0115  -1.9696  -1.9574  -1.9192
    -1.8772  -1.8425  -1.7793  -1.6130  -1.6037  -1.5948  -1.5744  -1.4522
    -1.4447  -1.4104  -1.3789  -1.3733  -1.3024  -1.2529  -1.2151  -1.1638
    -1.0762  -1.0548  -0.9504  -0.8981  -0.8548  -0.7996  -0.6939  -0.6734
    -0.6668  -0.6548  -0.6245  -0.5546  -0.5206  -0.5166  -0.3934  -0.3694
    -0.3309  -0.3015  -0.2438  -0.2145  -0.1558  -0.1236  -0.0538  -0.0396
     0.0001   0.0770   0.1523   0.1864   0.2374   0.2438   0.5181   0.5917
     0.7211   0.7842   0.8464   0.9148   0.9800   1.0080   1.0378   1.1632
     1.1674   1.1769   1.1774   1.2477   1.2529   1.5926   2.1903   3.2595
     3.2597   3.3259   3.3266   3.6475   3.6538   3.7608   3.7710   3.9313
     3.9456

     the Fermi energy is     2.5103 ev

!    total energy              =   -2953.97105134 Ry
     estimated scf accuracy    <       0.00000002 Ry
     smearing contrib. (-TS)   =      -0.00443128 Ry
     internal energy E=F+TS    =   -2953.96662006 Ry

     The total energy is F=E-TS. E is the sum of the following terms:
     one-electron contribution =  -24344.00932663 Ry
     hartree contribution      =   12263.89997578 Ry
     xc contribution           =    -488.77636650 Ry
     ewald contribution        =    9614.91856499 Ry
     electric field correction =       0.00053229 Ry

     convergence has been achieved in  83 iterations

     Forces acting on atoms (cartesian axes, Ry/au):

     atom    1 type  1   force =    -0.00002970   -0.00048396    0.12440160
     atom    2 type  1   force =    -0.00003890   -0.00048562   -0.15980294
     atom    3 type  2   force =     0.00020113   -0.00023571   -0.06782798
     atom    4 type  2   force =     0.00000260   -0.00009201    0.02614500
     atom    5 type  2   force =    -0.01437386    0.00191527   -0.00990937
     atom    6 type  2   force =     0.01615823    0.00232563   -0.01028320
     atom    7 type  1   force =     0.00071820   -0.00389872    0.02847030
     atom    8 type  1   force =    -0.00033393   -0.00436102    0.10935117
     atom    9 type  2   force =     0.00002388    0.00001710    0.00007545
     atom   10 type  2   force =    -0.00225626    0.00266735   -0.07361267
     atom   11 type  2   force =     0.00080638   -0.00002893   -0.00023460
     atom   12 type  2   force =    -0.00044056    0.00004925   -0.00019645
     atom   13 type  1   force =    -0.00000730    0.00013736   -0.00010920
     atom   14 type  1   force =    -0.00034298    0.00049055   -0.00040937
     atom   15 type  2   force =     0.00002286   -0.00066301   -0.00021556
     atom   16 type  2   force =    -0.00018325   -0.00000047    0.00042902
     atom   17 type  2   force =    -0.00062416   -0.00031570   -0.00036006
     atom   18 type  2   force =     0.00027395   -0.00021321    0.00011933
     atom   19 type  1   force =     0.00044040    0.00001090   -0.00019323
     atom   20 type  1   force =    -0.00024291   -0.00060081   -0.00086159
     atom   21 type  2   force =     0.00006645   -0.00003902    0.09950775
     atom   22 type  2   force =     0.00007663   -0.00046608    0.00032471
     atom   23 type  2   force =    -0.07969895   -0.00006447   -0.03245243
     atom   24 type  2   force =     0.07957144    0.00037590   -0.03251194
     atom   25 type  1   force =    -0.00000472   -0.00057785    0.12403796
     atom   26 type  1   force =    -0.00010717   -0.00062965   -0.15993422
     atom   27 type  2   force =     0.00033351   -0.00035838   -0.06690003
     atom   28 type  2   force =    -0.00002398    0.00017777    0.02516664
     atom   29 type  2   force =    -0.01496383    0.00189691   -0.00988415
     atom   30 type  2   force =     0.01665152    0.00242463   -0.01021738
     atom   31 type  1   force =     0.00078303   -0.00077445    0.02374912
     atom   32 type  1   force =    -0.00022897    0.00201012    0.10997711
     atom   33 type  2   force =     0.00004439   -0.00026962    0.00034000
     atom   34 type  2   force =    -0.00212346    0.00206974   -0.07173082
     atom   35 type  2   force =     0.00023181   -0.00012280   -0.00008799
     atom   36 type  2   force =    -0.00017270   -0.00024778   -0.00015674
     atom   37 type  1   force =     0.00043404   -0.00001860    0.00035938
     atom   38 type  1   force =     0.00001527   -0.00057122   -0.00018862
     atom   39 type  2   force =     0.00006684    0.00019494    0.00063774
     atom   40 type  2   force =    -0.00008508   -0.00023831    0.00026401
     atom   41 type  2   force =     0.00072200   -0.00030635    0.00012118
     atom   42 type  2   force =    -0.00097600   -0.00037309    0.00055970
     atom   43 type  1   force =     0.00001609   -0.00038088    0.00005848
     atom   44 type  1   force =    -0.00025389   -0.00004948   -0.00096029
     atom   45 type  2   force =     0.00005536   -0.00004677    0.09946951
     atom   46 type  2   force =    -0.07970775    0.00000283   -0.03247344
     atom   47 type  2   force =     0.07958887    0.00043069   -0.03249839
     atom   48 type  3   force =    -0.00049095   -0.00013268   -0.00039460
     atom   49 type  4   force =    -0.00035822    0.00014669    0.00019313
     atom   50 type  5   force =    -0.00045542   -0.00001217    0.00016099
     atom   51 type  5   force =    -0.00014806   -0.00065253    0.00055158
     atom   52 type  5   force =     0.00057327    0.00014288    0.00020590
     atom   53 type  2   force =     0.00789193    0.00667899   -0.00467787
     atom   54 type  5   force =    -0.00005452    0.00005638    0.00091980
     atom   55 type  5   force =    -0.00704260   -0.00651053    0.00348852

     Total force =     0.423617     Total SCF correction =     0.000434
  @ DRIVER MODE: Message from server: STATUS
  @ DRIVER MODE: Message from server: GETFORCE
  @ DRIVER MODE: Returning v,forces,stress,ensemble

     Writing output data file ./calc.save/
  @ DRIVER MODE: Message from server: EXIT
  @ DRIVE MODE: Exiting

     General routines

     Parallel routines

   This run was terminated on:   6: 6: 4  16Sep2021

   JOB DONE.