     Program PWSCF v.6.7GPU starts on 23Sep2021 at 12:10:44

     R & G space division:  proc/nbgrp/npool/nimage =       8
     Reading input from /storage/home/hcoda1/3/ntian30/research/carbon/CxH_vib/H2O_calc/ads_slab/CH2OHHO_a/out_0039/pw.inp
Warning: card &CELL ignored
Warning: card   CELL_DYNAMICS='IPI', ignored
Warning: card / ignored

     Current dimensions of program PWSCF are:
     Max number of different atomic species (ntypx) = 10
     Max number of k-points (npk) =  40000
     Max angular momentum in pseudopotentials (lmaxx) =  3
     Presently no symmetry can be used with electric field

     Message from routine cell_base_init:
     DEPRECATED: use true lattice parameter, not A to a.u. conversion factor

     IMPORTANT: XC functional enforced from input :
     Exchange-correlation= BEEF-VDW
                           (   1   4  43  14   2   0   0)
     Any further DFT definition will be discarded
     Please, verify this is what you really want

  @ DRIVER MODE: Connecting to
 qe_1139763_2941013.sched-torque.pace.gatech.edudk9icqo6_scratch
  using UNIX socket
  @ DRIVER MODE: Message from server: STATUS
  @ DRIVER MODE: Message from server: INIT
  @ DRIVER MODE: Receiving replica           0          -1
  @ DRIVER MODE: Receiving encoded integer          25
  @ DRIVER MODE:  SCF:  T  FORCE:  T  STRESS:  F  VC:  F  ENSEMBLE:  F
  @ DRIVER MODE:  SCF:  T  FORCE:  T  STRESS:  F  VC:  F  ENSEMBLE:  F

     Using Slab Decomposition

     bravais-lattice index     =            0
     lattice parameter (alat)  =       1.8897  a.u.
     unit-cell volume          =    6658.9804 (a.u.)^3
     number of atoms/cell      =           54
     number of atomic types    =            4
     number of electrons       =       398.00
     number of Kohn-Sham states=          209
     kinetic-energy cutoff     =      29.3995  Ry
     charge density cutoff     =     293.9946  Ry
     scf convergence threshold =      7.3E-08
     mixing beta               =       0.0500
     number of iterations used =            8  plain     mixing
     Exchange-correlation= BEEF-VDW
                           (   1   4  43  14   2   0   0)

     celldm(1)=   1.889726  celldm(2)=   0.000000  celldm(3)=   0.000000
     celldm(4)=   0.000000  celldm(5)=   0.000000  celldm(6)=   0.000000

     crystal axes: (cart. coord. in units of alat)
               a(1) = (   6.579727   0.000000   0.000000 )
               a(2) = (  -0.000775   5.961596   0.000000 )
               a(3) = (   0.000000   0.000000  25.155947 )

     reciprocal axes: (cart. coord. in units 2 pi/alat)
               b(1) = (  0.151982  0.000020  0.000000 )
               b(2) = (  0.000000  0.167740  0.000000 )
               b(3) = (  0.000000  0.000000  0.039752 )

     PseudoPot. # 1 for Ti read from file:
     /storage/coda1/p-amedford6/0/shared/rich_project_chbe-medford/medford-share/data/pseudos_module/espresso/nninc/pbe/van/Ti.UPF
     MD5 check sum: 8e4df49b7f0d34bbd5052bf3f5ea0213
     Pseudo is Ultrasoft, Zval = 12.0
     Generated by new atomic code, or converted to UPF format
     Using radial grid of  851 points,  6 beta functions with:
                l(1) =   0
                l(2) =   0
                l(3) =   1
                l(4) =   1
                l(5) =   2
                l(6) =   2
     Q(r) pseudized with  8 coefficients,  rinner =    1.000   1.000   1.000
                                                       1.000   1.000

     PseudoPot. # 2 for O  read from file:
     /storage/coda1/p-amedford6/0/shared/rich_project_chbe-medford/medford-share/data/pseudos_module/espresso/nninc/pbe/van/O.UPF
     MD5 check sum: 78c19812648e8988a0fe644b0f25305e
     Pseudo is Ultrasoft, Zval =  6.0
     Generated by new atomic code, or converted to UPF format
     Using radial grid of  737 points,  4 beta functions with:
                l(1) =   0
                l(2) =   0
                l(3) =   1
                l(4) =   1
     Q(r) pseudized with  8 coefficients,  rinner =    0.800   0.800   0.800

     PseudoPot. # 3 for C  read from file:
     /storage/coda1/p-amedford6/0/shared/rich_project_chbe-medford/medford-share/data/pseudos_module/espresso/nninc/pbe/van/C.UPF
     MD5 check sum: 1a69bf6b8db32088f5b2163dbdb77a27
     Pseudo is Ultrasoft, Zval =  4.0
     Generated by new atomic code, or converted to UPF format
     Using radial grid of  721 points,  4 beta functions with:
                l(1) =   0
                l(2) =   0
                l(3) =   1
                l(4) =   1
     Q(r) pseudized with  8 coefficients,  rinner =    0.800   0.800   0.800

     PseudoPot. # 4 for H  read from file:
     /storage/coda1/p-amedford6/0/shared/rich_project_chbe-medford/medford-share/data/pseudos_module/espresso/nninc/pbe/van/H.UPF
     MD5 check sum: b5ee9d7bfd3a09ee7748110bda690ff7
     Pseudo is Ultrasoft, Zval =  1.0
     Generated by new atomic code, or converted to UPF format
     Using radial grid of  615 points,  1 beta functions with:
                l(1) =   0
     Q(r) pseudized with  8 coefficients,  rinner =    0.800

     atomic species   valence    mass     pseudopotential
        Ti1           12.00    47.86700     Ti( 1.00)
        O1             6.00    15.99900     O ( 1.00)
        C1             4.00    12.01100     C ( 1.00)
        H1             1.00     1.00800     H ( 1.00)

     No symmetry found

   Cartesian axes

     site n.     atom                  positions (alat units)
         1           Ti1 tau(   1) = (   0.0004258   2.9801865   6.0000000  )
         2           Ti1 tau(   2) = (   3.2906075   1.4906267   6.0002472  )
         3           O1  tau(   3) = (   0.0006271   0.0005054   7.9858123  )
         4           O1  tau(   4) = (   3.2906025   0.0005020   7.3038282  )
         5           O1  tau(   5) = (   4.5942328   1.4918067   9.2879030  )
         6           O1  tau(   6) = (   1.9868534   1.4903216   9.2879459  )
         7           Ti1 tau(   7) = (   3.2053781   3.0281819   9.2289109  )
         8           Ti1 tau(   8) = (   6.4789090   1.5422439   9.3246958  )
         9           O1  tau(   9) = (   3.3131828   0.0076525  11.3143355  )
        10           O1  tau(  10) = (   0.0036331   0.0073455  10.5537702  )
        11           O1  tau(  11) = (   1.2849538   1.5262321  12.5678262  )
        12           O1  tau(  12) = (   5.3289628   1.4687457  12.6164477  )
        13           Ti1 tau(  13) = (   0.0494698   3.0469090  12.7547230  )
        14           Ti1 tau(  14) = (   3.2845375   1.6334081  12.5308488  )
        15           O1  tau(  15) = (   0.1943872   0.0117586  14.6058021  )
        16           O1  tau(  16) = (   3.1943342   5.9422946  13.9142442  )
        17           O1  tau(  17) = (   4.6623408   1.4089460  15.7678261  )
        18           O1  tau(  18) = (   2.0428328   1.6351894  16.0888801  )
        19           Ti1 tau(  19) = (   3.4388860   2.9458104  15.8736401  )
        20           Ti1 tau(  20) = (   0.1295272   1.3814375  15.8666627  )
        21           O1  tau(  21) = (   3.2904802   0.0005063   4.7018136  )
        22           O1  tau(  22) = (   0.0846747   0.0144810  17.1090220  )
        23           O1  tau(  23) = (   1.3043587   1.4918075   6.0039043  )
        24           O1  tau(  24) = (   5.2767064   1.4903225   6.0039473  )
        25           Ti1 tau(  25) = (   0.0000382   5.9609847   6.0000000  )
        26           Ti1 tau(  26) = (   3.2902200   4.4714249   6.0002472  )
        27           O1  tau(  27) = (   0.0002396   2.9813036   7.9858123  )
        28           O1  tau(  28) = (   3.2902150   2.9813002   7.3038282  )
        29           O1  tau(  29) = (   4.5938453   4.4726049   9.2879030  )
        30           O1  tau(  30) = (   1.9864658   4.4711199   9.2879459  )
        31           Ti1 tau(  31) = (   3.2224821   0.0470802   9.2230333  )
        32           Ti1 tau(  32) = (   6.4759698   4.4664252   9.3127940  )
        33           O1  tau(  33) = (   3.3094535   2.9663607  11.2852029  )
        34           O1  tau(  34) = (   6.5591786   2.9896559  10.5312464  )
        35           O1  tau(  35) = (   1.2916819   4.4480478  12.5709280  )
        36           O1  tau(  36) = (   5.3369627   4.5124161  12.6303246  )
        37           Ti1 tau(  37) = (   6.5569224   0.0640291  12.4639877  )
        38           Ti1 tau(  38) = (   3.2972653   4.6387695  12.6472152  )
        39           O1  tau(  39) = (   0.0654804   2.9943531  14.6628162  )
        40           O1  tau(  40) = (   3.3673531   2.9793459  13.8791815  )
        41           O1  tau(  41) = (   4.6654837   4.5585741  15.7845026  )
        42           O1  tau(  42) = (   2.0434307   4.3527116  16.0649513  )
        43           Ti1 tau(  43) = (   3.4443475   5.9291804  16.0141943  )
        44           Ti1 tau(  44) = (   0.1552736   4.5966999  15.8683145  )
        45           O1  tau(  45) = (   3.2900926   2.9813045   4.7018136  )
        46           O1  tau(  46) = (   1.3039711   4.4726057   6.0039043  )
        47           O1  tau(  47) = (   5.2763189   4.4711207   6.0039473  )
        48           C1  tau(  48) = (   4.6056898   2.9812133  17.8228851  )
        49           O1  tau(  49) = (   6.0966523   2.9907575  17.4046881  )
        50           H1  tau(  50) = (   0.0599730   2.9907033  18.2108262  )
        51           H1  tau(  51) = (   4.4920754   2.0732530  18.4117920  )
        52           H1  tau(  52) = (   4.4771298   3.8877196  18.4106030  )
        53           O1  tau(  53) = (   3.3127961   5.9530928  17.8757943  )
        54           H1  tau(  54) = (   2.4287022   0.0983392  18.2542858  )

     number of k points=    10  Fermi-Dirac smearing, width (Ry)=  0.0073
                       cart. coord. in units 2pi/alat
        k(    1) = (   0.0000000   0.0000000   0.0000000), wk =   0.1250000
        k(    2) = (   0.0000000   0.0419351   0.0000000), wk =   0.2500000
        k(    3) = (   0.0000000  -0.0838702   0.0000000), wk =   0.1250000
        k(    4) = (   0.0379955   0.0000049   0.0000000), wk =   0.2500000
        k(    5) = (   0.0379955   0.0419400   0.0000000), wk =   0.2500000
        k(    6) = (   0.0379955  -0.0838652   0.0000000), wk =   0.2500000
        k(    7) = (   0.0379955  -0.0419301   0.0000000), wk =   0.2500000
        k(    8) = (  -0.0759910  -0.0000099   0.0000000), wk =   0.1250000
        k(    9) = (  -0.0759910   0.0419252   0.0000000), wk =   0.2500000
        k(   10) = (  -0.0759910  -0.0838800   0.0000000), wk =   0.1250000

     Initial potential from superposition of free atoms

     starting charge  381.99917, renormalised to  398.00000

     negative rho (up, down):  1.911E-02 0.000E+00

     %%%%%%%%%%%%%%%%%%%%%%%%%%%%%%%%%%%%%%%%%%%%%%%%%%%%%%%%%%%%%%%%%%%%%%%%
     %                                                                      %
     % You are using vdW-DF, which was implemented by the Thonhauser group. %
     % Please cite the following two papers that made this development      %
     % possible and the two reviews that describe the various versions:     %
     %                                                                      %
     %   T. Thonhauser et al., PRL 115, 136402 (2015).                      %
     %   T. Thonhauser et al., PRB 76, 125112 (2007).                       %
     %   K. Berland et al., Rep. Prog. Phys. 78, 066501 (2015).             %
     %   D.C. Langreth et al., J. Phys.: Condens. Matter 21, 084203 (2009). %
     %                                                                      %
     %                                                                      %
     % If you are calculating the stress with vdW-DF, please also cite:     %
     %                                                                      %
     %   R. Sabatini et al., J. Phys.: Condens. Matter 24, 424209 (2012).   %
     %                                                                      %
     %%%%%%%%%%%%%%%%%%%%%%%%%%%%%%%%%%%%%%%%%%%%%%%%%%%%%%%%%%%%%%%%%%%%%%%%

     Adding external electric field

     Computed dipole along edir(3) :
        Dipole               -7.9392 Ry au,        -20.1794 Debye
        Dipole field         -0.0150 Ry au,

        Potential amp.        1.3888 Ry
        Total length         46.3494 bohr

     Starting wfcs are  300 atomic wfcs
  @ DRIVER MODE: Message from server: STATUS
  @ DRIVER MODE: Message from server: POSDATA
  @ DRIVER MODE: Reading and sharing cell
  @ DRIVER MODE: Reading and sharing positions
  @ DRIVER MODE: Received positions

     Self-consistent Calculation

     iteration #  1     ecut=    29.40 Ry     beta= 0.05
     Davidson diagonalization with overlap
     c_bands:  1 eigenvalues not converged
     c_bands:  2 eigenvalues not converged
     c_bands:  2 eigenvalues not converged
     c_bands:  1 eigenvalues not converged
     c_bands:  1 eigenvalues not converged
     c_bands:  1 eigenvalues not converged
     ethr =  1.00E-05,  avg # of iterations = 18.8

[...]

     total energy              =   -2649.58905321 Ry
     estimated scf accuracy    <    3499.59086483 Ry

[...]

     iteration #  3     ecut=    29.40 Ry     beta= 0.05
     Davidson diagonalization with overlap
     ethr =  1.00E-02,  avg # of iterations = 14.0

[...]

     iteration # 30     ecut=    29.40 Ry     beta= 0.05
     Davidson diagonalization with overlap
     c_bands:  2 eigenvalues not converged
     c_bands:  1 eigenvalues not converged
     c_bands:  1 eigenvalues not converged
     c_bands:  1 eigenvalues not converged
     ethr =  4.02E-07,  avg # of iterations = 17.7

[...]

     total energy              =   -2964.91882061 Ry
     estimated scf accuracy    <       0.00000008 Ry

     iteration # 63     ecut=    29.40 Ry     beta= 0.05
     Davidson diagonalization with overlap
     ethr =  1.96E-11,  avg # of iterations =  1.0

     negative rho (up, down):  1.875E-02 0.000E+00

     Adding external electric field

     Computed dipole along edir(3) :
        Dipole                0.6445 Ry au,          1.6382 Debye
        Dipole field          0.0012 Ry au,

        Potential amp.       -0.1128 Ry
        Total length         46.3494 bohr

     End of self-consistent calculation

          k = 0.0000 0.0000 0.0000 ( 18029 PWs)   bands (ev):

   -56.4312 -56.3663 -55.7977 -55.7953 -55.7497 -55.7454 -55.7416 -55.7014
   -55.6943 -55.6468 -55.4584 -55.4441 -55.3802 -55.3614 -54.9568 -54.9229
   -32.8336 -32.7068 -32.6300 -32.6022 -32.5003 -32.4583 -32.4108 -32.3223
   -32.2152 -32.1832 -32.1045 -32.0617 -32.0412 -32.0044 -32.0030 -31.9953
   -31.9761 -31.9615 -31.9565 -31.9444 -31.9396 -31.9363 -31.9240 -31.9065
   -31.8936 -31.8916 -31.8733 -31.8634 -31.8518 -31.8339 -31.8239 -31.7990
   -31.7596 -31.7041 -31.6612 -31.6477 -31.6227 -31.5933 -31.5905 -31.5598
   -31.5495 -31.4195 -31.3496 -31.3039 -31.2793 -31.1654 -31.0792 -30.9704
   -19.3231 -16.5891 -16.4384 -16.3099 -16.1737 -15.9571 -15.9282 -15.8249
   -15.7239 -15.6822 -15.6016 -15.5726 -15.4347 -15.3848 -15.3565 -15.3350
   -15.3158 -15.2962 -15.2821 -15.2441 -15.2286 -15.1942 -15.1412 -15.0757
   -15.0544 -15.0016 -14.9706 -14.9538 -14.8698 -14.8052 -14.7244 -13.4640
   -13.3581  -9.1607  -6.1925  -4.0872  -3.9785  -3.9305  -3.8845  -3.7855
    -3.7193  -3.6861  -3.6208  -3.3068  -3.1749  -3.0810  -3.0265  -3.0031
    -2.9280  -2.9267  -2.9126  -2.7946  -2.7356  -2.7095  -2.6479  -2.6311
    -2.5880  -2.5532  -2.5488  -2.5340  -2.4921  -2.4519  -2.4121  -2.3923
    -2.3470  -2.2640  -2.2458  -2.1685  -2.1339  -2.1123  -2.0251  -1.9599
    -1.9504  -1.9131  -1.8891  -1.7823  -1.6063  -1.5195  -1.4623  -1.4075
    -1.3863  -1.3182  -1.3091  -1.2500  -1.1931  -1.1693  -1.1654  -1.0491
    -0.9967  -0.9640  -0.9179  -0.8834  -0.8189  -0.7719  -0.7559  -0.7258
    -0.7117  -0.6036  -0.5170  -0.4977  -0.4687  -0.4355  -0.3148  -0.2686
    -0.2357  -0.2084  -0.1917  -0.1506  -0.1064  -0.0383   0.0067   0.0624
     0.1010   0.1722   0.1824   0.2208   0.2562   0.2923   0.3552   0.3710
     0.4743   0.5035   0.5597   0.5965   0.7412   0.7700   0.9301   0.9909
     1.0538   1.1484   1.2744   1.3366   1.5843   1.6236   1.7827   2.8839
     3.0468   3.3144   3.3592   3.4945   3.5650   3.6224   3.7641   3.7910
     3.8440

[...]

          k = 0.0380-0.0419 0.0000 ( 17876 PWs)   bands (ev):

[...]

          k =-0.0760-0.0000 0.0000 ( 17886 PWs)   bands (ev):

[...]

          k =-0.0760-0.0839 0.0000 ( 17948 PWs)   bands (ev):

   -56.4264 -56.3709 -55.7899 -55.7888 -55.7572 -55.7479 -55.7381 -55.7086
   -55.6871 -55.6540 -55.4554 -55.4393 -55.3849 -55.3644 -54.9400 -54.9396
   -32.7038 -32.6725 -32.6321 -32.6268 -32.5737 -32.5260 -32.3331 -32.1614
   -32.1072 -32.0733 -32.0534 -32.0353 -32.0345 -32.0221 -32.0148 -32.0130
   -31.9977 -31.9814 -31.9760 -31.9567 -31.9551 -31.9530 -31.9498 -31.9371
   -31.9241 -31.9037 -31.8928 -31.8839 -31.8674 -31.8383 -31.7860 -31.7678
   -31.7576 -31.7226 -31.7151 -31.6816 -31.6623 -31.6493 -31.6345 -31.6026
   -31.5966 -31.4205 -31.2925 -31.2923 -31.1634 -31.1629 -31.1226 -31.1222
   -19.3156 -16.2475 -16.1287 -15.9406 -15.9049 -15.8287 -15.8270 -15.7776
   -15.7377 -15.6408 -15.5857 -15.5672 -15.4950 -15.4707 -15.4537 -15.4280
   -15.3776 -15.3523 -15.3287 -15.3178 -15.2739 -15.2494 -15.2461 -15.1989
   -15.1453 -15.1199 -15.1018 -15.0501 -14.9942 -14.9353 -14.8824 -13.4654
   -13.4596  -9.1687  -6.1742  -4.0905  -3.6700  -3.6307  -3.3385  -3.1557
    -2.9763  -2.9646  -2.9510  -2.9431  -2.8742  -2.8675  -2.8185  -2.7784
    -2.7228  -2.7027  -2.6755  -2.6702  -2.6641  -2.6226  -2.6120  -2.5858
    -2.5591  -2.5539  -2.5107  -2.5036  -2.4837  -2.4366  -2.4226  -2.3892
    -2.3602  -2.3334  -2.2813  -2.2245  -2.2054  -2.1920  -2.0645  -1.9957
    -1.9913  -1.9155  -1.9013  -1.8727  -1.8332  -1.7571  -1.6956  -1.6562
    -1.5246  -1.5047  -1.4485  -1.4108  -1.3366  -1.3252  -1.2416  -1.2124
    -1.1678  -1.1391  -1.1066  -1.0853  -1.0653  -1.0615  -0.9376  -0.9061
    -0.8515  -0.8389  -0.8065  -0.7735  -0.7498  -0.6937  -0.6252  -0.6166
    -0.5677  -0.5208  -0.4534  -0.4144  -0.3342  -0.2767  -0.2372  -0.1703
    -0.0637   0.0572   0.0960   0.2006   0.2976   0.3052   0.3713   0.4208
     0.4470   0.4924   0.5780   0.5888   0.6552   0.6675   0.7004   0.7579
     0.8071   0.8773   1.4243   1.4403   1.4618   1.4646   1.7207   3.4275
     3.4542   3.4743   3.5170   3.6636   3.7565   3.7832   3.8494   3.8948
     3.9198

     the Fermi energy is     2.4066 ev

!    total energy              =   -2964.91885003 Ry
     estimated scf accuracy    <       0.00000007 Ry
     smearing contrib. (-TS)   =      -0.00043821 Ry
     internal energy E=F+TS    =   -2964.91841181 Ry

     The total energy is F=E-TS. E is the sum of the following terms:
     one-electron contribution =  -24900.70600428 Ry
     hartree contribution      =   12540.72952992 Ry
     xc contribution           =    -490.06938330 Ry
     ewald contribution        =    9885.12666190 Ry
     electric field correction =       0.00078395 Ry

     convergence has been achieved in  63 iterations

     Forces acting on atoms (cartesian axes, Ry/au):

     atom    1 type  1   force =     0.00009739   -0.00023112    0.12242506
     atom    2 type  1   force =     0.00010475    0.00183615   -0.15179767
     atom    3 type  2   force =    -0.00068188   -0.00092194   -0.05774871
     atom    4 type  2   force =    -0.00119334    0.00052182    0.04765719
     atom    5 type  2   force =    -0.01072436   -0.00519225   -0.00143137
     atom    6 type  2   force =     0.01359823    0.00025583   -0.00014010
     atom    7 type  1   force =    -0.00026522    0.00014572    0.00009979
     atom    8 type  1   force =     0.00039469   -0.00013325   -0.00038277
     atom    9 type  2   force =     0.00001253   -0.00023918    0.00040410
     atom   10 type  2   force =    -0.00012467   -0.00005626    0.00012485
     atom   11 type  2   force =    -0.00045835   -0.00026762    0.00026756
     atom   12 type  2   force =     0.00016960    0.00008277   -0.00000207
     atom   13 type  1   force =     0.00040478   -0.00010694   -0.00000441
     atom   14 type  1   force =    -0.00010880   -0.00027460    0.00000286
     atom   15 type  2   force =    -0.00029095   -0.00017287   -0.00023355
     atom   16 type  2   force =     0.00018477    0.00004613   -0.00007543
     atom   17 type  2   force =    -0.00025960   -0.00020440    0.00007168
     atom   18 type  2   force =    -0.00006262   -0.00016458   -0.00000962
     atom   19 type  1   force =    -0.00036422   -0.00000729   -0.00007335
     atom   20 type  1   force =    -0.00002892    0.00013058   -0.00042570
     atom   21 type  2   force =     0.00026842    0.00012901    0.09728094
     atom   22 type  2   force =    -0.00031138   -0.00038680   -0.00024979
     atom   23 type  2   force =    -0.08312988    0.00238690   -0.03358793
     atom   24 type  2   force =     0.08317732    0.00267558   -0.03365477
     atom   25 type  1   force =     0.00041953    0.00037813    0.13899288
     atom   26 type  1   force =     0.00005400   -0.00119556   -0.15162374
     atom   27 type  2   force =    -0.00069774    0.00143578   -0.05289122
     atom   28 type  2   force =    -0.00117812    0.00017488    0.04596733
     atom   29 type  2   force =    -0.01133448    0.00058746   -0.00072804
     atom   30 type  2   force =     0.01406516    0.00412815    0.00077577
     atom   31 type  1   force =    -0.00049200   -0.00017203    0.00017465
     atom   32 type  1   force =     0.00034564   -0.00004847   -0.00015555
     atom   33 type  2   force =    -0.00024662    0.00011744    0.00007662
     atom   34 type  2   force =     0.00013446    0.00008488    0.00012987
     atom   35 type  2   force =    -0.00019389    0.00054751    0.00035007
     atom   36 type  2   force =     0.00021923   -0.00000828   -0.00016905
     atom   37 type  1   force =    -0.00062812    0.00028215    0.00026711
     atom   38 type  1   force =    -0.00032464   -0.00040241   -0.00017167
     atom   39 type  2   force =     0.00005801   -0.00010193    0.00030974
     atom   40 type  2   force =    -0.00028254   -0.00009820    0.00031084
     atom   41 type  2   force =    -0.00000628   -0.00050545   -0.00010350
     atom   42 type  2   force =    -0.00028105   -0.00013049    0.00036248
     atom   43 type  1   force =    -0.00010019    0.00012441   -0.00030084
     atom   44 type  1   force =    -0.00029708   -0.00005812    0.00002275
     atom   45 type  2   force =     0.00023260    0.00013388    0.09736387
     atom   46 type  2   force =    -0.08305108   -0.00265198   -0.03360598
     atom   47 type  2   force =     0.08308550   -0.00230562   -0.03370893
     atom   48 type  3   force =    -0.00007369   -0.00006814    0.00003017
     atom   49 type  2   force =    -0.00000501    0.00003322   -0.00016704
     atom   50 type  4   force =     0.00030106    0.00003396   -0.00025040
     atom   51 type  4   force =     0.00009614   -0.00013810    0.00022401
     atom   52 type  4   force =    -0.00018241    0.00000276   -0.00014630
     atom   53 type  2   force =     0.00134446    0.00019325   -0.00013771
     atom   54 type  4   force =    -0.00138913   -0.00022446    0.00028503

     Total force =     0.377725     Total SCF correction =     0.000809
  @ DRIVER MODE: Message from server: STATUS
  @ DRIVER MODE: Message from server: GETFORCE
  @ DRIVER MODE: Returning v,forces,stress,ensemble

     Writing output data file ./calc.save/
  @ DRIVER MODE: Message from server: EXIT
  @ DRIVE MODE: Exiting

     General routines

     Parallel routines

   This run was terminated on:  12:31:25  23Sep2021

   JOB DONE.