     Program PWSCF v.6.7GPU starts on 16Sep2021 at  3: 8:52

     R & G space division:  proc/nbgrp/npool/nimage =      10
     Reading input from /storage/home/hcoda1/3/ntian30/research/carbon/CxH_vib/H2O_calc/ads_slab/CH2NHHH2O_a/out_0034/pw.inp
Warning: card &CELL ignored
Warning: card   CELL_DYNAMICS='IPI', ignored
Warning: card / ignored

     Current dimensions of program PWSCF are:
     Max number of different atomic species (ntypx) = 10
     Max number of k-points (npk) =  40000
     Max angular momentum in pseudopotentials (lmaxx) =  3
     Presently no symmetry can be used with electric field

     Message from routine cell_base_init:
     DEPRECATED: use true lattice parameter, not A to a.u. conversion factor

     IMPORTANT: XC functional enforced from input :
     Exchange-correlation= BEEF-VDW
                           (   1   4  43  14   2   0   0)
     Any further DFT definition will be discarded
     Please, verify this is what you really want

  @ DRIVER MODE: Connecting to
 qe_1139763_2852609.sched-torque.pace.gatech.eduebxb1b0j_scratch
  using UNIX socket
  @ DRIVER MODE: Message from server: STATUS
  @ DRIVER MODE: Message from server: INIT
  @ DRIVER MODE: Receiving replica           0          -1
  @ DRIVER MODE: Receiving encoded integer          25
  @ DRIVER MODE:  SCF:  T  FORCE:  T  STRESS:  F  VC:  F  ENSEMBLE:  F
  @ DRIVER MODE:  SCF:  T  FORCE:  T  STRESS:  F  VC:  F  ENSEMBLE:  F

     Using Slab Decomposition

     bravais-lattice index     =            0
     lattice parameter (alat)  =       1.8897  a.u.
     unit-cell volume          =    6658.9804 (a.u.)^3
     number of atoms/cell      =           56
     number of atomic types    =            5
     number of electrons       =       399.00
     number of Kohn-Sham states=          209
     kinetic-energy cutoff     =      29.3995  Ry
     charge density cutoff     =     293.9946  Ry
     scf convergence threshold =      7.3E-08
     mixing beta               =       0.0500
     number of iterations used =            8  plain     mixing
     Exchange-correlation= BEEF-VDW
                           (   1   4  43  14   2   0   0)

     celldm(1)=   1.889726  celldm(2)=   0.000000  celldm(3)=   0.000000
     celldm(4)=   0.000000  celldm(5)=   0.000000  celldm(6)=   0.000000

     crystal axes: (cart. coord. in units of alat)
               a(1) = (   6.579727   0.000000   0.000000 )
               a(2) = (  -0.000775   5.961596   0.000000 )
               a(3) = (   0.000000   0.000000  25.155947 )

     reciprocal axes: (cart. coord. in units 2 pi/alat)
               b(1) = (  0.151982  0.000020  0.000000 )
               b(2) = (  0.000000  0.167740  0.000000 )
               b(3) = (  0.000000  0.000000  0.039752 )

     PseudoPot. # 1 for Ti read from file:
     /storage/coda1/p-amedford6/0/shared/rich_project_chbe-medford/medford-share/data/pseudos_module/espresso/nninc/pbe/van/Ti.UPF
     MD5 check sum: 8e4df49b7f0d34bbd5052bf3f5ea0213
     Pseudo is Ultrasoft, Zval = 12.0
     Generated by new atomic code, or converted to UPF format
     Using radial grid of  851 points,  6 beta functions with:
                l(1) =   0
                l(2) =   0
                l(3) =   1
                l(4) =   1
                l(5) =   2
                l(6) =   2
     Q(r) pseudized with  8 coefficients,  rinner =    1.000   1.000   1.000
                                                       1.000   1.000

     PseudoPot. # 2 for O  read from file:
     /storage/coda1/p-amedford6/0/shared/rich_project_chbe-medford/medford-share/data/pseudos_module/espresso/nninc/pbe/van/O.UPF
     MD5 check sum: 78c19812648e8988a0fe644b0f25305e
     Pseudo is Ultrasoft, Zval =  6.0
     Generated by new atomic code, or converted to UPF format
     Using radial grid of  737 points,  4 beta functions with:
                l(1) =   0
                l(2) =   0
                l(3) =   1
                l(4) =   1
     Q(r) pseudized with  8 coefficients,  rinner =    0.800   0.800   0.800

     PseudoPot. # 3 for N  read from file:
     /storage/coda1/p-amedford6/0/shared/rich_project_chbe-medford/medford-share/data/pseudos_module/espresso/nninc/pbe/van/N.UPF
     MD5 check sum: 90d10febe142ad51ac9d5be1deb811c4
     Pseudo is Ultrasoft, Zval =  5.0
     Generated by new atomic code, or converted to UPF format
     Using radial grid of  729 points,  4 beta functions with:
                l(1) =   0
                l(2) =   0
                l(3) =   1
                l(4) =   1
     Q(r) pseudized with  8 coefficients,  rinner =    0.800   0.800   0.800

     PseudoPot. # 4 for C  read from file:
     /storage/coda1/p-amedford6/0/shared/rich_project_chbe-medford/medford-share/data/pseudos_module/espresso/nninc/pbe/van/C.UPF
     MD5 check sum: 1a69bf6b8db32088f5b2163dbdb77a27
     Pseudo is Ultrasoft, Zval =  4.0
     Generated by new atomic code, or converted to UPF format
     Using radial grid of  721 points,  4 beta functions with:
                l(1) =   0
                l(2) =   0
                l(3) =   1
                l(4) =   1
     Q(r) pseudized with  8 coefficients,  rinner =    0.800   0.800   0.800

     PseudoPot. # 5 for H  read from file:
     /storage/coda1/p-amedford6/0/shared/rich_project_chbe-medford/medford-share/data/pseudos_module/espresso/nninc/pbe/van/H.UPF
     MD5 check sum: b5ee9d7bfd3a09ee7748110bda690ff7
     Pseudo is Ultrasoft, Zval =  1.0
     Generated by new atomic code, or converted to UPF format
     Using radial grid of  615 points,  1 beta functions with:
                l(1) =   0
     Q(r) pseudized with  8 coefficients,  rinner =    0.800

     atomic species   valence    mass     pseudopotential
        Ti1           12.00    47.86700     Ti( 1.00)
        O1             6.00    15.99900     O ( 1.00)
        N1             5.00    14.00700     N ( 1.00)
        C1             4.00    12.01100     C ( 1.00)
        H1             1.00     1.00800     H ( 1.00)

     No symmetry found

   Cartesian axes

     site n.     atom                  positions (alat units)
         1           Ti1 tau(   1) = (   0.0004258   2.9801865   6.0000000  )
         2           Ti1 tau(   2) = (   3.2906075   1.4906267   6.0002472  )
         3           O1  tau(   3) = (   0.0006271   0.0005054   7.9858123  )
         4           O1  tau(   4) = (   3.2906025   0.0005020   7.3038282  )
         5           O1  tau(   5) = (   4.5942328   1.4918067   9.2879030  )
         6           O1  tau(   6) = (   1.9868534   1.4903216   9.2879459  )
         7           Ti1 tau(   7) = (   3.2907910   2.8959150   9.1758416  )
         8           Ti1 tau(   8) = (   0.0015273   1.4827037   9.2680791  )
         9           O1  tau(   9) = (   3.2861202   0.0128588  11.3777969  )
        10           O1  tau(  10) = (   0.0116148   5.9584955  10.6183126  )
        11           O1  tau(  11) = (   1.2831632   1.4993340  12.6921085  )
        12           O1  tau(  12) = (   5.2921761   1.5015178  12.6679780  )
        13           Ti1 tau(  13) = (   0.0111066   2.9912061  12.5123142  )
        14           Ti1 tau(  14) = (   3.3187119   1.4875497  12.5412637  )
        15           O1  tau(  15) = (   6.5416963   5.9006142  14.6662030  )
        16           O1  tau(  16) = (   3.3066524   0.0016155  14.0179881  )
        17           O1  tau(  17) = (   4.5377470   1.5714702  16.1207712  )
        18           O1  tau(  18) = (   1.9925948   1.5577299  16.0387284  )
        19           Ti1 tau(  19) = (   3.2598466   3.0207798  15.7337896  )
        20           Ti1 tau(  20) = (   0.0086319   1.3133152  15.8444473  )
        21           O1  tau(  21) = (   3.2904802   0.0005063   4.7018136  )
        22           O1  tau(  22) = (   6.5660721   0.1678205  17.2271563  )
        23           O1  tau(  23) = (   1.3043587   1.4918075   6.0039043  )
        24           O1  tau(  24) = (   5.2767064   1.4903225   6.0039473  )
        25           Ti1 tau(  25) = (   0.0000382   5.9609847   6.0000000  )
        26           Ti1 tau(  26) = (   3.2902200   4.4714249   6.0002472  )
        27           O1  tau(  27) = (   0.0002396   2.9813036   7.9858123  )
        28           O1  tau(  28) = (   3.2902150   2.9813002   7.3038282  )
        29           O1  tau(  29) = (   4.5938453   4.4726049   9.2879030  )
        30           O1  tau(  30) = (   1.9864658   4.4711199   9.2879459  )
        31           Ti1 tau(  31) = (   3.2891106   5.8743827   9.1763621  )
        32           Ti1 tau(  32) = (   0.0006254   4.4649316   9.2693709  )
        33           O1  tau(  33) = (   3.2870289   2.9785969  11.3746142  )
        34           O1  tau(  34) = (   0.0092240   2.9805883  10.6323155  )
        35           O1  tau(  35) = (   1.2865429   4.4729593  12.6568099  )
        36           O1  tau(  36) = (   5.2907978   4.4713399  12.6331247  )
        37           Ti1 tau(  37) = (   0.0245089   0.0029545  12.5000319  )
        38           Ti1 tau(  38) = (   3.3192338   4.4773935  12.5310228  )
        39           O1  tau(  39) = (   6.5398775   3.0461246  14.9162120  )
        40           O1  tau(  40) = (   3.2968145   3.0151409  13.9465962  )
        41           O1  tau(  41) = (   4.5189833   4.4812017  16.2068643  )
        42           O1  tau(  42) = (   1.9905864   4.4756957  16.1679402  )
        43           Ti1 tau(  43) = (   3.3140030   0.0507474  15.8534526  )
        44           Ti1 tau(  44) = (   0.0184218   4.5194176  15.9927436  )
        45           O1  tau(  45) = (   3.2900926   2.9813045   4.7018136  )
        46           O1  tau(  46) = (   1.3039711   4.4726057   6.0039043  )
        47           O1  tau(  47) = (   5.2763189   4.4711207   6.0039473  )
        48           N1  tau(  48) = (   6.2908993   3.4294391  18.1752670  )
        49           C1  tau(  49) = (   0.7550536   3.1452864  19.0745941  )
        50           H1  tau(  50) = (   1.1396299   3.9643166  19.6610198  )
        51           H1  tau(  51) = (   1.3301158   2.2513941  18.9084762  )
        52           H1  tau(  52) = (   5.7550451   4.2450011  18.4501662  )
        53           H1  tau(  53) = (   5.6463078   2.6597838  18.0429669  )
        54           O1  tau(  54) = (   3.1180431   0.1968263  18.2683150  )
        55           H1  tau(  55) = (   3.8687171   5.7182160  18.6922429  )
        56           H1  tau(  56) = (   2.3371514   5.6040609  18.4451484  )

     number of k points=    10  Fermi-Dirac smearing, width (Ry)=  0.0073
                       cart. coord. in units 2pi/alat
        k(    1) = (   0.0000000   0.0000000   0.0000000), wk =   0.1250000
        k(    2) = (   0.0000000   0.0419351   0.0000000), wk =   0.2500000
        k(    3) = (   0.0000000  -0.0838702   0.0000000), wk =   0.1250000
        k(    4) = (   0.0379955   0.0000049   0.0000000), wk =   0.2500000
        k(    5) = (   0.0379955   0.0419400   0.0000000), wk =   0.2500000
        k(    6) = (   0.0379955  -0.0838652   0.0000000), wk =   0.2500000
        k(    7) = (   0.0379955  -0.0419301   0.0000000), wk =   0.2500000
        k(    8) = (  -0.0759910  -0.0000099   0.0000000), wk =   0.1250000
        k(    9) = (  -0.0759910   0.0419252   0.0000000), wk =   0.2500000
        k(   10) = (  -0.0759910  -0.0838800   0.0000000), wk =   0.1250000

     Initial potential from superposition of free atoms

     starting charge  382.99914, renormalised to  399.00000

     negative rho (up, down):  1.613E-02 0.000E+00

     %%%%%%%%%%%%%%%%%%%%%%%%%%%%%%%%%%%%%%%%%%%%%%%%%%%%%%%%%%%%%%%%%%%%%%%%
     %                                                                      %
     % You are using vdW-DF, which was implemented by the Thonhauser group. %
     % Please cite the following two papers that made this development      %
     % possible and the two reviews that describe the various versions:     %
     %                                                                      %
     %   T. Thonhauser et al., PRL 115, 136402 (2015).                      %
     %   T. Thonhauser et al., PRB 76, 125112 (2007).                       %
     %   K. Berland et al., Rep. Prog. Phys. 78, 066501 (2015).             %
     %   D.C. Langreth et al., J. Phys.: Condens. Matter 21, 084203 (2009). %
     %                                                                      %
     %                                                                      %
     % If you are calculating the stress with vdW-DF, please also cite:     %
     %                                                                      %
     %   R. Sabatini et al., J. Phys.: Condens. Matter 24, 424209 (2012).   %
     %                                                                      %
     %%%%%%%%%%%%%%%%%%%%%%%%%%%%%%%%%%%%%%%%%%%%%%%%%%%%%%%%%%%%%%%%%%%%%%%%

     Adding external electric field

     Computed dipole along edir(3) :
        Dipole              -11.3169 Ry au,        -28.7647 Debye
        Dipole field         -0.0214 Ry au,

        Potential amp.        1.9797 Ry
        Total length         46.3494 bohr

     Starting wfcs are  302 atomic wfcs
  @ DRIVER MODE: Message from server: STATUS
  @ DRIVER MODE: Message from server: POSDATA
  @ DRIVER MODE: Reading and sharing cell
  @ DRIVER MODE: Reading and sharing positions
  @ DRIVER MODE: Received positions

     Self-consistent Calculation

     iteration #  1     ecut=    29.40 Ry     beta= 0.05
     Davidson diagonalization with overlap
     c_bands:  3 eigenvalues not converged
     c_bands:  3 eigenvalues not converged
     c_bands:  1 eigenvalues not converged
     c_bands:  4 eigenvalues not converged
     c_bands:  1 eigenvalues not converged
     c_bands:  1 eigenvalues not converged
     c_bands:  1 eigenvalues not converged
     c_bands:  2 eigenvalues not converged
     c_bands:  3 eigenvalues not converged
     ethr =  1.00E-05,  avg # of iterations = 24.0

[...]

     total energy              =   -2437.55171587 Ry
     estimated scf accuracy    <    5825.83152332 Ry

[...]

     iteration #  3     ecut=    29.40 Ry     beta= 0.05
     Davidson diagonalization with overlap
     ethr =  1.00E-02,  avg # of iterations = 16.2

[...]

     iteration # 70     ecut=    29.40 Ry     beta= 0.05
     Davidson diagonalization with overlap
     c_bands:  1 eigenvalues not converged
     ethr =  7.27E-11,  avg # of iterations = 13.3

[...]

     total energy              =   -2955.08672657 Ry
     estimated scf accuracy    <       0.00000009 Ry

     iteration # 71     ecut=    29.40 Ry     beta= 0.05
     Davidson diagonalization with overlap
     ethr =  2.29E-11,  avg # of iterations =  9.0

     negative rho (up, down):  1.530E-02 0.000E+00

     Adding external electric field

     Computed dipole along edir(3) :
        Dipole                0.9564 Ry au,          2.4309 Debye
        Dipole field          0.0018 Ry au,

        Potential amp.       -0.1673 Ry
        Total length         46.3494 bohr

     End of self-consistent calculation

          k = 0.0000 0.0000 0.0000 ( 18029 PWs)   bands (ev):

   -55.5440 -55.5105 -55.5074 -55.4897 -55.4763 -55.4279 -55.3916 -55.3721
   -55.3549 -55.3426 -55.3372 -55.3090 -55.2968 -55.1135 -54.5363 -54.5022
   -32.0998 -32.0025 -31.9161 -31.9009 -31.8754 -31.8609 -31.8473 -31.8422
   -31.7994 -31.7642 -31.7586 -31.7553 -31.7452 -31.7211 -31.7157 -31.6949
   -31.6853 -31.6827 -31.6712 -31.6627 -31.6415 -31.6239 -31.6069 -31.6008
   -31.5717 -31.5676 -31.5627 -31.5605 -31.5583 -31.5454 -31.5363 -31.5295
   -31.5255 -31.5202 -31.5094 -31.4968 -31.4858 -31.4706 -31.4678 -31.4535
   -31.3390 -31.2946 -30.9455 -30.8517 -30.8296 -30.7619 -30.6751 -30.5642
   -19.2375 -16.4125 -16.3189 -16.0891 -15.9242 -15.8439 -15.7473 -15.6065
   -15.5353 -15.4247 -15.3886 -15.2296 -15.2047 -15.1981 -15.1637 -15.1460
   -15.1072 -15.0890 -15.0600 -15.0485 -15.0469 -15.0251 -14.9886 -14.9846
   -14.9421 -14.9291 -14.8698 -14.7738 -14.7059 -14.6418 -14.3276 -13.0387
   -12.9213  -9.2330  -7.0101  -6.5634  -4.6180  -3.7169  -3.5846  -3.5622
    -3.5037  -3.4486  -3.4073  -3.3002  -3.0701  -3.0228  -2.9785  -2.9315
    -2.8118  -2.7405  -2.7363  -2.6570  -2.5815  -2.5396  -2.4847  -2.4760
    -2.3981  -2.3643  -2.3465  -2.3232  -2.2796  -2.2516  -2.2105  -2.1192
    -2.0977  -2.0209  -1.9907  -1.9463  -1.9423  -1.8950  -1.8771  -1.8382
    -1.8371  -1.8270  -1.8063  -1.7690  -1.7265  -1.6706  -1.5799  -1.5525
    -1.3865  -1.2740  -1.2100  -1.1828  -1.1304  -1.0987  -1.0333  -0.9846
    -0.9703  -0.9346  -0.8679  -0.7652  -0.6985  -0.6867  -0.6267  -0.5356
    -0.4776  -0.4388  -0.3572  -0.3317  -0.3130  -0.3077  -0.2429  -0.1756
    -0.1295  -0.0549  -0.0390   0.0165   0.0391   0.0897   0.1202   0.1870
     0.2426   0.2832   0.3346   0.3891   0.3905   0.4055   0.4406   0.4422
     0.5425   0.5542   0.5766   0.6772   0.7762   0.9648   1.0622   1.0977
     1.3947   1.4102   1.4867   1.6711   2.0623   2.1103   3.5172   3.5472
     3.6311   3.6865   3.6954   3.7253   3.7818   4.0351   4.0466   4.0686
     4.0818

[...]

          k = 0.0380-0.0419 0.0000 ( 17876 PWs)   bands (ev):

[...]

          k =-0.0760-0.0000 0.0000 ( 17886 PWs)   bands (ev):

[...]

          k =-0.0760-0.0839 0.0000 ( 17948 PWs)   bands (ev):

   -55.5295 -55.5216 -55.4936 -55.4931 -55.4875 -55.4155 -55.4039 -55.3574
   -55.3569 -55.3513 -55.3262 -55.3257 -55.2950 -55.1153 -54.5193 -54.5191
   -31.9116 -31.8992 -31.8179 -31.8173 -31.8008 -31.7999 -31.7880 -31.7850
   -31.7845 -31.7685 -31.7572 -31.7500 -31.7326 -31.7149 -31.6958 -31.6899
   -31.6868 -31.6846 -31.6801 -31.6733 -31.6707 -31.6605 -31.6331 -31.6321
   -31.6131 -31.6127 -31.6101 -31.6006 -31.5895 -31.5811 -31.5708 -31.5649
   -31.5558 -31.5549 -31.5530 -31.5431 -31.5133 -31.5057 -31.5051 -31.4821
   -31.3781 -31.3420 -30.8424 -30.8421 -30.7581 -30.7579 -30.7186 -30.7184
   -19.2366 -16.3514 -15.8844 -15.7855 -15.6556 -15.5728 -15.5501 -15.4767
   -15.4182 -15.3848 -15.3280 -15.3056 -15.2915 -15.2762 -15.2415 -15.2158
   -15.1961 -15.1527 -15.1354 -15.1173 -15.0859 -15.0608 -15.0498 -15.0446
   -15.0389 -15.0044 -15.0000 -14.9142 -14.9052 -14.9018 -14.5691 -13.0229
   -13.0226  -9.2322  -7.0420  -6.5032  -4.6010  -3.5482  -3.0958  -3.0491
    -2.9946  -2.8549  -2.7954  -2.7294  -2.6933  -2.6509  -2.6002  -2.5668
    -2.5488  -2.4975  -2.4899  -2.4248  -2.4093  -2.3940  -2.3755  -2.3718
    -2.3637  -2.3264  -2.2910  -2.2778  -2.2707  -2.2616  -2.2478  -2.2010
    -2.1856  -2.1542  -2.1445  -2.1111  -2.0817  -2.0512  -1.9388  -1.9067
    -1.8819  -1.8186  -1.7537  -1.7479  -1.6665  -1.6447  -1.5884  -1.5846
    -1.5645  -1.5264  -1.3989  -1.2930  -1.2816  -1.2303  -1.1974  -1.1738
    -1.1113  -1.0603  -1.0057  -1.0030  -0.9102  -0.8656  -0.8387  -0.7376
    -0.7073  -0.6994  -0.5826  -0.5572  -0.5191  -0.5080  -0.5016  -0.4425
    -0.4350  -0.4105  -0.3285  -0.3098  -0.2827  -0.2712  -0.2085  -0.0479
    -0.0174   0.0271   0.1547   0.1949   0.3575   0.3888   0.4210   0.5270
     0.5717   0.6194   0.6238   0.7465   0.7564   0.8436   0.8564   0.8732
     0.9088   0.9205   1.8435   1.8449   1.9303   1.9304   3.5324   3.7769
     3.8419   3.8492   3.8863   4.0226   4.0664   4.1249   4.1284   4.1382
     4.1569

     the Fermi energy is     3.6034 ev

!    total energy              =   -2955.08675735 Ry
     estimated scf accuracy    <       0.00000005 Ry
     smearing contrib. (-TS)   =      -0.04069976 Ry
     internal energy E=F+TS    =   -2955.04605758 Ry

     The total energy is F=E-TS. E is the sum of the following terms:
     one-electron contribution =  -23873.35727992 Ry
     hartree contribution      =   12028.84372258 Ry
     xc contribution           =    -489.73870826 Ry
     ewald contribution        =    9379.20448190 Ry
     electric field correction =       0.00172613 Ry

     convergence has been achieved in  71 iterations

     Forces acting on atoms (cartesian axes, Ry/au):

     atom    1 type  1   force =    -0.00000611   -0.00025463    0.09339358
     atom    2 type  1   force =    -0.00015821   -0.00039404   -0.17805015
     atom    3 type  2   force =     0.00001404   -0.00034725   -0.02032940
     atom    4 type  2   force =    -0.00003629   -0.00190411    0.05857335
     atom    5 type  2   force =    -0.01017781   -0.00085250    0.00745544
     atom    6 type  2   force =     0.01151766   -0.00017766    0.00625546
     atom    7 type  1   force =    -0.00076776    0.00203440   -0.01056258
     atom    8 type  1   force =     0.00032121    0.00073330   -0.00333925
     atom    9 type  2   force =     0.00024268    0.00042481    0.00015594
     atom   10 type  2   force =    -0.00108473    0.00267689   -0.00406929
     atom   11 type  2   force =    -0.00027716    0.00005542    0.00000995
     atom   12 type  2   force =    -0.00004021   -0.00002482    0.00011129
     atom   13 type  1   force =     0.00074526    0.00071695    0.00042032
     atom   14 type  1   force =    -0.00092600   -0.00011645   -0.00006595
     atom   15 type  2   force =    -0.00015090   -0.00029515    0.00053139
     atom   16 type  2   force =     0.00031815    0.00054652    0.00001296
     atom   17 type  2   force =     0.00007277   -0.00025387    0.00024039
     atom   18 type  2   force =     0.00065371    0.00021742    0.00003939
     atom   19 type  1   force =    -0.00081813   -0.00068104    0.00006832
     atom   20 type  1   force =     0.00016515   -0.00063476   -0.00017623
     atom   21 type  2   force =     0.00002197   -0.00011472    0.10391116
     atom   22 type  2   force =     0.00001997   -0.00127035    0.00035542
     atom   23 type  2   force =    -0.07054879   -0.00020641   -0.02693839
     atom   24 type  2   force =     0.07036822    0.00023163   -0.02698226
     atom   25 type  1   force =     0.00003688   -0.00022660    0.09298156
     atom   26 type  1   force =    -0.00023504   -0.00043699   -0.17802127
     atom   27 type  2   force =     0.00007110   -0.00024599   -0.01931154
     atom   28 type  2   force =     0.00002433   -0.00162586    0.05767018
     atom   29 type  2   force =    -0.01076315   -0.00046608    0.00808469
     atom   30 type  2   force =     0.01198354   -0.00007557    0.00684491
     atom   31 type  1   force =    -0.00063660    0.00609680   -0.01379646
     atom   32 type  1   force =     0.00028406   -0.00084821   -0.00340260
     atom   33 type  2   force =     0.00014380    0.00006636    0.00001959
     atom   34 type  2   force =    -0.00051104   -0.00107044   -0.00266923
     atom   35 type  2   force =    -0.00041967    0.00006184    0.00003476
     atom   36 type  2   force =     0.00005010    0.00001362    0.00025563
     atom   37 type  1   force =     0.00082728   -0.00082752    0.00026886
     atom   38 type  1   force =    -0.00088352    0.00034100   -0.00052091
     atom   39 type  2   force =    -0.00023069   -0.00011486   -0.00014825
     atom   40 type  2   force =     0.00033439    0.00014583    0.00040800
     atom   41 type  2   force =     0.00005081   -0.00033992   -0.00001543
     atom   42 type  2   force =     0.00056926   -0.00014388   -0.00048573
     atom   43 type  1   force =    -0.00106570    0.00011056    0.00043251
     atom   44 type  1   force =     0.00136003   -0.00036559   -0.00026495
     atom   45 type  2   force =     0.00001098   -0.00012220    0.10392470
     atom   46 type  2   force =    -0.07054054   -0.00017268   -0.02691673
     atom   47 type  2   force =     0.07037024    0.00026504   -0.02698633
     atom   48 type  3   force =     0.00648705    0.00978265    0.00171885
     atom   49 type  4   force =     0.00070185    0.00091164    0.00009493
     atom   50 type  5   force =    -0.00054243   -0.00093169   -0.00069917
     atom   51 type  5   force =     0.00018263    0.00005278    0.00029367
     atom   52 type  5   force =     0.00111494    0.00051861   -0.00028188
     atom   53 type  5   force =    -0.00690148   -0.01057273   -0.00080027
     atom   54 type  2   force =    -0.00001927    0.00016945    0.00024194
     atom   55 type  5   force =    -0.00065278   -0.00016587   -0.00011124
     atom   56 type  5   force =    -0.00067006    0.00010690    0.00013631

     Total force =     0.366195     Total SCF correction =     0.000402
  @ DRIVER MODE: Message from server: STATUS
  @ DRIVER MODE: Message from server: GETFORCE
  @ DRIVER MODE: Returning v,forces,stress,ensemble

     Writing output data file ./calc.save/
  @ DRIVER MODE: Message from server: EXIT
  @ DRIVE MODE: Exiting

     General routines

     Parallel routines

   This run was terminated on:   3:27:10  16Sep2021

   JOB DONE.