     Program PWSCF v.6.7GPU starts on 16Sep2021 at  1: 9:54

     R & G space division:  proc/nbgrp/npool/nimage =      10
     Reading input from /storage/home/hcoda1/3/ntian30/research/carbon/CxH_vib/H2O_calc/ads_slab/CH3OHH2O_e/out_0030/pw.inp
Warning: card &CELL ignored
Warning: card   CELL_DYNAMICS='IPI', ignored
Warning: card / ignored

     Current dimensions of program PWSCF are:
     Max number of different atomic species (ntypx) = 10
     Max number of k-points (npk) =  40000
     Max angular momentum in pseudopotentials (lmaxx) =  3
     Presently no symmetry can be used with electric field

     Message from routine cell_base_init:
     DEPRECATED: use true lattice parameter, not A to a.u. conversion factor

     IMPORTANT: XC functional enforced from input :
     Exchange-correlation= BEEF-VDW
                           (   1   4  43  14   2   0   0)
     Any further DFT definition will be discarded
     Please, verify this is what you really want

  @ DRIVER MODE: Connecting to
 qe_1139763_2852623.sched-torque.pace.gatech.edu_4srayiu_scratch
  using UNIX socket
  @ DRIVER MODE: Message from server: STATUS
  @ DRIVER MODE: Message from server: INIT
  @ DRIVER MODE: Receiving replica           0          -1
  @ DRIVER MODE: Receiving encoded integer          25
  @ DRIVER MODE:  SCF:  T  FORCE:  T  STRESS:  F  VC:  F  ENSEMBLE:  F
  @ DRIVER MODE:  SCF:  T  FORCE:  T  STRESS:  F  VC:  F  ENSEMBLE:  F

     Using Slab Decomposition

     bravais-lattice index     =            0
     lattice parameter (alat)  =       1.8897  a.u.
     unit-cell volume          =    6658.9804 (a.u.)^3
     number of atoms/cell      =           56
     number of atomic types    =            4
     number of electrons       =       400.00
     number of Kohn-Sham states=          210
     kinetic-energy cutoff     =      29.3995  Ry
     charge density cutoff     =     293.9946  Ry
     scf convergence threshold =      7.3E-08
     mixing beta               =       0.0500
     number of iterations used =            8  plain     mixing
     Exchange-correlation= BEEF-VDW
                           (   1   4  43  14   2   0   0)

     celldm(1)=   1.889726  celldm(2)=   0.000000  celldm(3)=   0.000000
     celldm(4)=   0.000000  celldm(5)=   0.000000  celldm(6)=   0.000000

     crystal axes: (cart. coord. in units of alat)
               a(1) = (   6.579727   0.000000   0.000000 )
               a(2) = (  -0.000775   5.961596   0.000000 )
               a(3) = (   0.000000   0.000000  25.155947 )

     reciprocal axes: (cart. coord. in units 2 pi/alat)
               b(1) = (  0.151982  0.000020  0.000000 )
               b(2) = (  0.000000  0.167740  0.000000 )
               b(3) = (  0.000000  0.000000  0.039752 )

     PseudoPot. # 1 for Ti read from file:
     /storage/coda1/p-amedford6/0/shared/rich_project_chbe-medford/medford-share/data/pseudos_module/espresso/nninc/pbe/van/Ti.UPF
     MD5 check sum: 8e4df49b7f0d34bbd5052bf3f5ea0213
     Pseudo is Ultrasoft, Zval = 12.0
     Generated by new atomic code, or converted to UPF format
     Using radial grid of  851 points,  6 beta functions with:
                l(1) =   0
                l(2) =   0
                l(3) =   1
                l(4) =   1
                l(5) =   2
                l(6) =   2
     Q(r) pseudized with  8 coefficients,  rinner =    1.000   1.000   1.000
                                                       1.000   1.000

     PseudoPot. # 2 for O  read from file:
     /storage/coda1/p-amedford6/0/shared/rich_project_chbe-medford/medford-share/data/pseudos_module/espresso/nninc/pbe/van/O.UPF
     MD5 check sum: 78c19812648e8988a0fe644b0f25305e
     Pseudo is Ultrasoft, Zval =  6.0
     Generated by new atomic code, or converted to UPF format
     Using radial grid of  737 points,  4 beta functions with:
                l(1) =   0
                l(2) =   0
                l(3) =   1
                l(4) =   1
     Q(r) pseudized with  8 coefficients,  rinner =    0.800   0.800   0.800

     PseudoPot. # 3 for C  read from file:
     /storage/coda1/p-amedford6/0/shared/rich_project_chbe-medford/medford-share/data/pseudos_module/espresso/nninc/pbe/van/C.UPF
     MD5 check sum: 1a69bf6b8db32088f5b2163dbdb77a27
     Pseudo is Ultrasoft, Zval =  4.0
     Generated by new atomic code, or converted to UPF format
     Using radial grid of  721 points,  4 beta functions with:
                l(1) =   0
                l(2) =   0
                l(3) =   1
                l(4) =   1
     Q(r) pseudized with  8 coefficients,  rinner =    0.800   0.800   0.800

     PseudoPot. # 4 for H  read from file:
     /storage/coda1/p-amedford6/0/shared/rich_project_chbe-medford/medford-share/data/pseudos_module/espresso/nninc/pbe/van/H.UPF
     MD5 check sum: b5ee9d7bfd3a09ee7748110bda690ff7
     Pseudo is Ultrasoft, Zval =  1.0
     Generated by new atomic code, or converted to UPF format
     Using radial grid of  615 points,  1 beta functions with:
                l(1) =   0
     Q(r) pseudized with  8 coefficients,  rinner =    0.800

     atomic species   valence    mass     pseudopotential
        Ti1           12.00    47.86700     Ti( 1.00)
        O1             6.00    15.99900     O ( 1.00)
        C1             4.00    12.01100     C ( 1.00)
        H1             1.00     1.00800     H ( 1.00)

     No symmetry found

   Cartesian axes

     site n.     atom                  positions (alat units)
         1           Ti1 tau(   1) = (   0.0004258   2.9801865   6.0000000  )
         2           Ti1 tau(   2) = (   3.2906075   1.4906267   6.0002472  )
         3           O1  tau(   3) = (   0.0006271   0.0005054   7.9858123  )
         4           O1  tau(   4) = (   3.2906025   0.0005020   7.3038282  )
         5           O1  tau(   5) = (   4.5942328   1.4918067   9.2879030  )
         6           O1  tau(   6) = (   1.9868534   1.4903216   9.2879459  )
         7           Ti1 tau(   7) = (   3.3179988   2.9667087   9.1587561  )
         8           Ti1 tau(   8) = (   0.0368451   1.4888401   9.2646154  )
         9           O1  tau(   9) = (   3.2981896   5.9413050  11.3756853  )
        10           O1  tau(  10) = (   0.0022081   5.9550161  10.6068466  )
        11           O1  tau(  11) = (   1.2930414   1.4711740  12.6526869  )
        12           O1  tau(  12) = (   5.2963464   1.4745835  12.6500758  )
        13           Ti1 tau(  13) = (   0.0229324   2.9590759  12.5385950  )
        14           Ti1 tau(  14) = (   3.3157970   1.4644123  12.5194148  )
        15           O1  tau(  15) = (   6.5691168   5.9481840  14.6869282  )
        16           O1  tau(  16) = (   3.2964787   5.9455965  14.0277316  )
        17           O1  tau(  17) = (   4.5665908   1.5027878  16.2081754  )
        18           O1  tau(  18) = (   2.0283028   1.5092035  16.1774433  )
        19           Ti1 tau(  19) = (   3.2999954   2.9453206  15.7178785  )
        20           Ti1 tau(  20) = (   6.5724188   1.3235339  15.9896992  )
        21           O1  tau(  21) = (   3.2904802   0.0005063   4.7018136  )
        22           O1  tau(  22) = (   0.0286320   5.9425150  17.2304330  )
        23           O1  tau(  23) = (   1.3043587   1.4918075   6.0039043  )
        24           O1  tau(  24) = (   5.2767064   1.4903225   6.0039473  )
        25           Ti1 tau(  25) = (   0.0000382   5.9609847   6.0000000  )
        26           Ti1 tau(  26) = (   3.2902200   4.4714249   6.0002472  )
        27           O1  tau(  27) = (   0.0002396   2.9813036   7.9858123  )
        28           O1  tau(  28) = (   3.2902150   2.9813002   7.3038282  )
        29           O1  tau(  29) = (   4.5938453   4.4726049   9.2879030  )
        30           O1  tau(  30) = (   1.9864658   4.4711199   9.2879459  )
        31           Ti1 tau(  31) = (   3.3176359   5.9492212   9.1540102  )
        32           Ti1 tau(  32) = (   0.0367062   4.4560090   9.2708352  )
        33           O1  tau(  33) = (   3.2951800   2.9650663  11.3684769  )
        34           O1  tau(  34) = (   0.0080098   2.9764013  10.6279654  )
        35           O1  tau(  35) = (   1.2931912   4.4560454  12.6592269  )
        36           O1  tau(  36) = (   5.2946864   4.4524020  12.6579832  )
        37           Ti1 tau(  37) = (   0.0159028   5.9413441  12.4831893  )
        38           Ti1 tau(  38) = (   3.3151975   4.4500431  12.5204281  )
        39           O1  tau(  39) = (   0.0034497   2.9621527  14.8596962  )
        40           O1  tau(  40) = (   3.2989893   2.9535984  13.9376031  )
        41           O1  tau(  41) = (   4.5724332   4.4114593  16.1445292  )
        42           O1  tau(  42) = (   2.0255208   4.3883007  16.1585022  )
        43           Ti1 tau(  43) = (   3.2821299   5.9114753  15.8432964  )
        44           Ti1 tau(  44) = (   6.5414858   4.5242847  15.8739915  )
        45           O1  tau(  45) = (   3.2900926   2.9813045   4.7018136  )
        46           O1  tau(  46) = (   1.3039711   4.4726057   6.0039043  )
        47           O1  tau(  47) = (   5.2763189   4.4711207   6.0039473  )
        48           C1  tau(  48) = (   5.9754720   3.1749164  18.9278073  )
        49           O1  tau(  49) = (   0.1533887   3.0270296  17.7012840  )
        50           H1  tau(  50) = (   4.9293134   3.0706859  18.6584277  )
        51           H1  tau(  51) = (   1.0910173   3.2466920  17.8500278  )
        52           H1  tau(  52) = (   6.2690755   2.3937635  19.6405738  )
        53           H1  tau(  53) = (   6.1431946   4.1694627  19.3379575  )
        54           O1  tau(  54) = (   3.1723115   5.9428592  18.3689464  )
        55           H1  tau(  55) = (   3.8852673   0.6353712  18.4582360  )
        56           H1  tau(  56) = (   2.3406934   0.4831942  18.3201771  )

     number of k points=    10  Fermi-Dirac smearing, width (Ry)=  0.0073
                       cart. coord. in units 2pi/alat
        k(    1) = (   0.0000000   0.0000000   0.0000000), wk =   0.1250000
        k(    2) = (   0.0000000   0.0419351   0.0000000), wk =   0.2500000
        k(    3) = (   0.0000000  -0.0838702   0.0000000), wk =   0.1250000
        k(    4) = (   0.0379955   0.0000049   0.0000000), wk =   0.2500000
        k(    5) = (   0.0379955   0.0419400   0.0000000), wk =   0.2500000
        k(    6) = (   0.0379955  -0.0838652   0.0000000), wk =   0.2500000
        k(    7) = (   0.0379955  -0.0419301   0.0000000), wk =   0.2500000
        k(    8) = (  -0.0759910  -0.0000099   0.0000000), wk =   0.1250000
        k(    9) = (  -0.0759910   0.0419252   0.0000000), wk =   0.2500000
        k(   10) = (  -0.0759910  -0.0838800   0.0000000), wk =   0.1250000

     Initial potential from superposition of free atoms

     starting charge  383.99915, renormalised to  400.00000

     negative rho (up, down):  1.598E-02 0.000E+00

     %%%%%%%%%%%%%%%%%%%%%%%%%%%%%%%%%%%%%%%%%%%%%%%%%%%%%%%%%%%%%%%%%%%%%%%%
     %                                                                      %
     % You are using vdW-DF, which was implemented by the Thonhauser group. %
     % Please cite the following two papers that made this development      %
     % possible and the two reviews that describe the various versions:     %
     %                                                                      %
     %   T. Thonhauser et al., PRL 115, 136402 (2015).                      %
     %   T. Thonhauser et al., PRB 76, 125112 (2007).                       %
     %   K. Berland et al., Rep. Prog. Phys. 78, 066501 (2015).             %
     %   D.C. Langreth et al., J. Phys.: Condens. Matter 21, 084203 (2009). %
     %                                                                      %
     %                                                                      %
     % If you are calculating the stress with vdW-DF, please also cite:     %
     %                                                                      %
     %   R. Sabatini et al., J. Phys.: Condens. Matter 24, 424209 (2012).   %
     %                                                                      %
     %%%%%%%%%%%%%%%%%%%%%%%%%%%%%%%%%%%%%%%%%%%%%%%%%%%%%%%%%%%%%%%%%%%%%%%%

     Adding external electric field

     Computed dipole along edir(3) :
        Dipole              -11.7408 Ry au,        -29.8422 Debye
        Dipole field         -0.0222 Ry au,

        Potential amp.        2.0539 Ry
        Total length         46.3494 bohr

     Starting wfcs are  302 atomic wfcs
  @ DRIVER MODE: Message from server: STATUS
  @ DRIVER MODE: Message from server: POSDATA
  @ DRIVER MODE: Reading and sharing cell
  @ DRIVER MODE: Reading and sharing positions
  @ DRIVER MODE: Received positions

     Self-consistent Calculation

     iteration #  1     ecut=    29.40 Ry     beta= 0.05
     Davidson diagonalization with overlap
     c_bands:  2 eigenvalues not converged
     c_bands:  2 eigenvalues not converged
     c_bands:  4 eigenvalues not converged
     c_bands:  3 eigenvalues not converged
     c_bands:  4 eigenvalues not converged
     c_bands:  4 eigenvalues not converged
     c_bands:  3 eigenvalues not converged
     c_bands:  2 eigenvalues not converged
     ethr =  1.00E-05,  avg # of iterations = 21.3

[...]

     total energy              =   -2420.27191646 Ry
     estimated scf accuracy    <    6188.80119302 Ry

     iteration #  2     ecut=    29.40 Ry     beta= 0.05
     Davidson diagonalization with overlap
     ethr =  1.00E-02,  avg # of iterations = 28.7

[...]

     iteration # 61     ecut=    29.40 Ry     beta= 0.05
     Davidson diagonalization with overlap
     c_bands:  2 eigenvalues not converged
     c_bands:  1 eigenvalues not converged
     ethr =  3.13E-11,  avg # of iterations = 16.4

[...]

     total energy              =   -2967.47590902 Ry
     estimated scf accuracy    <       0.00000013 Ry

     iteration # 63     ecut=    29.40 Ry     beta= 0.05
     Davidson diagonalization with overlap
     ethr =  3.13E-11,  avg # of iterations = 11.6

     negative rho (up, down):  1.586E-02 0.000E+00

     Adding external electric field

     Computed dipole along edir(3) :
        Dipole                1.3766 Ry au,          3.4989 Debye
        Dipole field          0.0026 Ry au,

        Potential amp.       -0.2408 Ry
        Total length         46.3494 bohr

     End of self-consistent calculation

          k = 0.0000 0.0000 0.0000 ( 18029 PWs)   bands (ev):

   -55.2500 -55.2223 -55.2140 -55.1879 -55.1565 -55.1482 -55.1428 -55.0960
   -55.0954 -55.0895 -55.0552 -55.0375 -55.0077 -55.0035 -54.3122 -54.2781
   -31.8166 -31.7659 -31.7175 -31.6272 -31.5649 -31.5548 -31.5501 -31.5476
   -31.5111 -31.4819 -31.4655 -31.4633 -31.4519 -31.4423 -31.4281 -31.4136
   -31.3964 -31.3901 -31.3870 -31.3825 -31.3763 -31.3676 -31.3449 -31.3401
   -31.3384 -31.3184 -31.3157 -31.3138 -31.2930 -31.2794 -31.2638 -31.2433
   -31.2418 -31.2411 -31.2298 -31.2207 -31.2020 -31.1888 -31.1769 -31.1723
   -31.1593 -31.1486 -30.7242 -30.6219 -30.6003 -30.5405 -30.4542 -30.3430
   -20.1710 -19.0842 -16.0793 -15.8323 -15.6924 -15.5939 -15.4732 -15.3395
   -15.2794 -15.1646 -15.0735 -14.9834 -14.9686 -14.9501 -14.9206 -14.8982
   -14.8732 -14.8351 -14.8091 -14.7652 -14.7563 -14.7399 -14.7331 -14.6965
   -14.6932 -14.6482 -14.6399 -14.4829 -14.4128 -14.3526 -14.1302 -12.8128
   -12.6934 -11.1759  -6.9277  -6.8512  -5.1358  -4.9928  -3.4189  -3.2623
    -3.2263  -3.2014  -3.1831  -3.1423  -3.0596  -2.9614  -2.7886  -2.6786
    -2.5419  -2.5342  -2.4879  -2.4609  -2.4038  -2.3210  -2.2336  -2.2071
    -2.1718  -2.1388  -2.1355  -2.1196  -2.1093  -2.0531  -2.0177  -1.9598
    -1.8628  -1.8131  -1.7723  -1.7541  -1.6947  -1.6509  -1.6163  -1.5887
    -1.5819  -1.5756  -1.5169  -1.5148  -1.5068  -1.4955  -1.4777  -1.2892
    -1.2491  -1.1170  -1.0263  -0.9850  -0.9715  -0.8174  -0.8105  -0.7662
    -0.7328  -0.6989  -0.6584  -0.6007  -0.5033  -0.4721  -0.4212  -0.3831
    -0.2750  -0.2429  -0.2115  -0.1570  -0.0499  -0.0416  -0.0157   0.0037
     0.0777   0.1735   0.2027   0.2239   0.3008   0.3060   0.3673   0.4079
     0.4417   0.5166   0.5617   0.5729   0.6646   0.6815   0.6951   0.7218
     0.7252   0.8238   0.8600   0.9045   0.9229   1.0745   1.1692   1.3081
     1.3370   1.6033   1.6989   1.7139   1.8742   2.2997   2.3546   3.8412
     3.9096   3.9479   3.9557   3.9690   4.0485   4.3322   4.3476   4.3595
     4.3691   4.3872

[...]

          k = 0.0380-0.0419 0.0000 ( 17876 PWs)   bands (ev):

[...]

          k =-0.0760-0.0000 0.0000 ( 17886 PWs)   bands (ev):

[...]

          k =-0.0760-0.0839 0.0000 ( 17948 PWs)   bands (ev):

   -55.2330 -55.2308 -55.2071 -55.2031 -55.1535 -55.1423 -55.1355 -55.1034
   -55.1021 -55.0737 -55.0706 -55.0223 -55.0188 -55.0096 -54.2952 -54.2950
   -31.6829 -31.6237 -31.6167 -31.5344 -31.5305 -31.5169 -31.5053 -31.5003
   -31.4926 -31.4720 -31.4538 -31.4485 -31.4443 -31.4305 -31.4050 -31.4023
   -31.3909 -31.3884 -31.3813 -31.3804 -31.3768 -31.3736 -31.3608 -31.3472
   -31.3391 -31.3342 -31.3332 -31.3267 -31.3236 -31.3235 -31.3230 -31.3048
   -31.2973 -31.2949 -31.2764 -31.2719 -31.2713 -31.2473 -31.2436 -31.2085
   -31.2043 -31.1913 -30.6129 -30.6128 -30.5370 -30.5367 -30.4975 -30.4973
   -20.1676 -19.0835 -15.6376 -15.5390 -15.3887 -15.2655 -15.2532 -15.2405
   -15.1885 -15.1240 -15.1103 -15.0601 -15.0474 -15.0165 -15.0007 -14.9946
   -14.9587 -14.8502 -14.8461 -14.8358 -14.8151 -14.7702 -14.7591 -14.7520
   -14.7398 -14.7036 -14.6952 -14.6810 -14.6706 -14.5787 -14.4393 -12.7948
   -12.7941 -11.1778  -6.9241  -6.8513  -5.1365  -4.9718  -3.1816  -2.9867
    -2.8070  -2.7280  -2.6306  -2.4834  -2.4686  -2.3875  -2.3756  -2.3250
    -2.2543  -2.2513  -2.2477  -2.1665  -2.1544  -2.1543  -2.1329  -2.1133
    -2.0729  -2.0642  -2.0406  -2.0304  -1.9890  -1.9584  -1.9454  -1.9281
    -1.9180  -1.9141  -1.8830  -1.8683  -1.8528  -1.8107  -1.7874  -1.7278
    -1.6393  -1.6028  -1.4801  -1.4776  -1.4399  -1.4124  -1.3871  -1.3467
    -1.3268  -1.2788  -1.2590  -1.2330  -1.0497  -1.0337  -0.9791  -0.9390
    -0.9191  -0.9059  -0.8441  -0.7723  -0.7453  -0.7139  -0.6481  -0.5751
    -0.4790  -0.4547  -0.4463  -0.3403  -0.2881  -0.2487  -0.2444  -0.2350
    -0.2109  -0.1625  -0.1427  -0.0808  -0.0419   0.0018   0.0272   0.0441
     0.2252   0.2637   0.3222   0.4135   0.4423   0.5875   0.6360   0.6876
     0.7483   0.8244   0.8357   0.9015   1.0158   1.0281   1.0583   1.1351
     1.1783   1.1841   1.2092   2.0652   2.0673   2.1687   2.1718   3.9710
     4.0784   4.0970   4.1759   4.2422   4.3503   4.3633   4.3925   4.4030
     4.4481   4.4798

     the Fermi energy is     3.8976 ev

!    total energy              =   -2967.47595306 Ry
     estimated scf accuracy    <       0.00000005 Ry
     smearing contrib. (-TS)   =      -0.03654181 Ry
     internal energy E=F+TS    =   -2967.43941125 Ry

     The total energy is F=E-TS. E is the sum of the following terms:
     one-electron contribution =  -23962.30762803 Ry
     hartree contribution      =   12076.74247103 Ry
     xc contribution           =    -491.85516937 Ry
     ewald contribution        =    9409.97733918 Ry
     electric field correction =       0.00357594 Ry

     convergence has been achieved in  63 iterations

     Forces acting on atoms (cartesian axes, Ry/au):

     atom    1 type  1   force =    -0.00027342    0.00019812    0.09246676
     atom    2 type  1   force =    -0.00035469    0.00104899   -0.18340238
     atom    3 type  2   force =     0.00050677   -0.00071526   -0.02349735
     atom    4 type  2   force =     0.00072531   -0.00018621    0.05070314
     atom    5 type  2   force =    -0.01405771   -0.00131843    0.00495438
     atom    6 type  2   force =     0.01521676   -0.00065549    0.00509485
     atom    7 type  1   force =    -0.00049040    0.00106355   -0.00010304
     atom    8 type  1   force =     0.00016964   -0.00052989    0.00041400
     atom    9 type  2   force =    -0.00043786    0.00017288    0.00041072
     atom   10 type  2   force =     0.00040918    0.00017108    0.00047813
     atom   11 type  2   force =     0.00035455    0.00044045    0.00033277
     atom   12 type  2   force =     0.00005956    0.00013972    0.00026176
     atom   13 type  1   force =    -0.00089156   -0.00118420   -0.00010719
     atom   14 type  1   force =     0.00059760   -0.00004644    0.00020255
     atom   15 type  2   force =     0.00051519    0.00073432    0.00005225
     atom   16 type  2   force =    -0.00061218   -0.00036866    0.00004294
     atom   17 type  2   force =     0.00004782    0.00022627   -0.00040418
     atom   18 type  2   force =    -0.00014319    0.00030306   -0.00016715
     atom   19 type  1   force =     0.00064715   -0.00005895   -0.00028844
     atom   20 type  1   force =    -0.00005094    0.00009189   -0.00014465
     atom   21 type  2   force =    -0.00004239    0.00015623    0.10497269
     atom   22 type  2   force =    -0.00033296    0.00056381   -0.00096071
     atom   23 type  2   force =    -0.06800522    0.00013264   -0.02679750
     atom   24 type  2   force =     0.06772794    0.00053227   -0.02686582
     atom   25 type  1   force =    -0.00038958   -0.00008691    0.09625440
     atom   26 type  1   force =    -0.00035917   -0.00099853   -0.18318523
     atom   27 type  2   force =     0.00042085   -0.00126185   -0.02226152
     atom   28 type  2   force =     0.00070201   -0.00033356    0.05101668
     atom   29 type  2   force =    -0.01425022   -0.00105285    0.00466396
     atom   30 type  2   force =     0.01519501    0.00021800    0.00485115
     atom   31 type  1   force =    -0.00050156   -0.00146263    0.00019109
     atom   32 type  1   force =     0.00014077    0.00071160   -0.00026295
     atom   33 type  2   force =     0.00002163   -0.00020166    0.00007882
     atom   34 type  2   force =     0.00002494   -0.00007454   -0.00008003
     atom   35 type  2   force =     0.00021287    0.00008604    0.00030132
     atom   36 type  2   force =     0.00039733    0.00045322    0.00004883
     atom   37 type  1   force =    -0.00106906    0.00126142   -0.00005779
     atom   38 type  1   force =     0.00038289    0.00011005   -0.00044957
     atom   39 type  2   force =     0.00039554    0.00022575   -0.00031193
     atom   40 type  2   force =    -0.00008066    0.00019811    0.00005752
     atom   41 type  2   force =    -0.00021457    0.00018060   -0.00052194
     atom   42 type  2   force =     0.00010444   -0.00004345    0.00020368
     atom   43 type  1   force =    -0.00058463    0.00013797    0.00024088
     atom   44 type  1   force =    -0.00006876    0.00017169   -0.00092181
     atom   45 type  2   force =    -0.00005587    0.00015351    0.10491818
     atom   46 type  2   force =    -0.06805174   -0.00038266   -0.02679842
     atom   47 type  2   force =     0.06777445    0.00004300   -0.02688130
     atom   48 type  3   force =     0.00169424   -0.00350168    0.00495708
     atom   49 type  2   force =    -0.00124995   -0.00033522    0.00213691
     atom   50 type  4   force =     0.00058173    0.00034415    0.00019018
     atom   51 type  4   force =     0.00077366    0.00087240   -0.00003638
     atom   52 type  4   force =    -0.00205519    0.00520306   -0.00635869
     atom   53 type  4   force =    -0.00028545    0.00003577   -0.00024938
     atom   54 type  2   force =     0.00086617   -0.00023356    0.00102483
     atom   55 type  4   force =    -0.00082907   -0.00037554   -0.00057440
     atom   56 type  4   force =    -0.00092799   -0.00097343    0.00016729

     Total force =     0.368355     Total SCF correction =     0.000645
  @ DRIVER MODE: Message from server: STATUS
  @ DRIVER MODE: Message from server: GETFORCE
  @ DRIVER MODE: Returning v,forces,stress,ensemble

     Writing output data file ./calc.save/
  @ DRIVER MODE: Message from server: EXIT
  @ DRIVE MODE: Exiting

     General routines

     Parallel routines

   This run was terminated on:   1:27:43  16Sep2021

   JOB DONE.