     Program PWSCF v.6.7GPU starts on 23Sep2021 at  8:27:24

     R & G space division:  proc/nbgrp/npool/nimage =      10
     Reading input from /storage/home/hcoda1/3/ntian30/research/carbon/CxH_vib/H2O_calc/ads_slab/CH2N2HHO_a/out_0047/pw.inp
Warning: card &CELL ignored
Warning: card   CELL_DYNAMICS='IPI', ignored
Warning: card / ignored

     Current dimensions of program PWSCF are:
     Max number of different atomic species (ntypx) = 10
     Max number of k-points (npk) =  40000
     Max angular momentum in pseudopotentials (lmaxx) =  3
     Presently no symmetry can be used with electric field

     Message from routine cell_base_init:
     DEPRECATED: use true lattice parameter, not A to a.u. conversion factor

     IMPORTANT: XC functional enforced from input :
     Exchange-correlation= BEEF-VDW
                           (   1   4  43  14   2   0   0)
     Any further DFT definition will be discarded
     Please, verify this is what you really want

  @ DRIVER MODE: Connecting to
 qe_1139763_2937323.sched-torque.pace.gatech.edu61uij75v_scratch
  using UNIX socket
  @ DRIVER MODE: Message from server: STATUS
  @ DRIVER MODE: Message from server: INIT
  @ DRIVER MODE: Receiving replica           0          -1
  @ DRIVER MODE: Receiving encoded integer          25
  @ DRIVER MODE:  SCF:  T  FORCE:  T  STRESS:  F  VC:  F  ENSEMBLE:  F
  @ DRIVER MODE:  SCF:  T  FORCE:  T  STRESS:  F  VC:  F  ENSEMBLE:  F

     Using Slab Decomposition

     bravais-lattice index     =            0
     lattice parameter (alat)  =       1.8897  a.u.
     unit-cell volume          =    6658.9804 (a.u.)^3
     number of atoms/cell      =           55
     number of atomic types    =            5
     number of electrons       =       402.00
     number of Kohn-Sham states=          211
     kinetic-energy cutoff     =      29.3995  Ry
     charge density cutoff     =     293.9946  Ry
     scf convergence threshold =      7.3E-08
     mixing beta               =       0.0500
     number of iterations used =            8  plain     mixing
     Exchange-correlation= BEEF-VDW
                           (   1   4  43  14   2   0   0)

     celldm(1)=   1.889726  celldm(2)=   0.000000  celldm(3)=   0.000000
     celldm(4)=   0.000000  celldm(5)=   0.000000  celldm(6)=   0.000000

     crystal axes: (cart. coord. in units of alat)
               a(1) = (   6.579727   0.000000   0.000000 )
               a(2) = (  -0.000775   5.961596   0.000000 )
               a(3) = (   0.000000   0.000000  25.155947 )

     reciprocal axes: (cart. coord. in units 2 pi/alat)
               b(1) = (  0.151982  0.000020  0.000000 )
               b(2) = (  0.000000  0.167740  0.000000 )
               b(3) = (  0.000000  0.000000  0.039752 )

     PseudoPot. # 1 for Ti read from file:
     /storage/coda1/p-amedford6/0/shared/rich_project_chbe-medford/medford-share/data/pseudos_module/espresso/nninc/pbe/van/Ti.UPF
     MD5 check sum: 8e4df49b7f0d34bbd5052bf3f5ea0213
     Pseudo is Ultrasoft, Zval = 12.0
     Generated by new atomic code, or converted to UPF format
     Using radial grid of  851 points,  6 beta functions with:
                l(1) =   0
                l(2) =   0
                l(3) =   1
                l(4) =   1
                l(5) =   2
                l(6) =   2
     Q(r) pseudized with  8 coefficients,  rinner =    1.000   1.000   1.000
                                                       1.000   1.000

     PseudoPot. # 2 for O  read from file:
     /storage/coda1/p-amedford6/0/shared/rich_project_chbe-medford/medford-share/data/pseudos_module/espresso/nninc/pbe/van/O.UPF
     MD5 check sum: 78c19812648e8988a0fe644b0f25305e
     Pseudo is Ultrasoft, Zval =  6.0
     Generated by new atomic code, or converted to UPF format
     Using radial grid of  737 points,  4 beta functions with:
                l(1) =   0
                l(2) =   0
                l(3) =   1
                l(4) =   1
     Q(r) pseudized with  8 coefficients,  rinner =    0.800   0.800   0.800

     PseudoPot. # 3 for N  read from file:
     /storage/coda1/p-amedford6/0/shared/rich_project_chbe-medford/medford-share/data/pseudos_module/espresso/nninc/pbe/van/N.UPF
     MD5 check sum: 90d10febe142ad51ac9d5be1deb811c4
     Pseudo is Ultrasoft, Zval =  5.0
     Generated by new atomic code, or converted to UPF format
     Using radial grid of  729 points,  4 beta functions with:
                l(1) =   0
                l(2) =   0
                l(3) =   1
                l(4) =   1
     Q(r) pseudized with  8 coefficients,  rinner =    0.800   0.800   0.800

     PseudoPot. # 4 for C  read from file:
     /storage/coda1/p-amedford6/0/shared/rich_project_chbe-medford/medford-share/data/pseudos_module/espresso/nninc/pbe/van/C.UPF
     MD5 check sum: 1a69bf6b8db32088f5b2163dbdb77a27
     Pseudo is Ultrasoft, Zval =  4.0
     Generated by new atomic code, or converted to UPF format
     Using radial grid of  721 points,  4 beta functions with:
                l(1) =   0
                l(2) =   0
                l(3) =   1
                l(4) =   1
     Q(r) pseudized with  8 coefficients,  rinner =    0.800   0.800   0.800

     PseudoPot. # 5 for H  read from file:
     /storage/coda1/p-amedford6/0/shared/rich_project_chbe-medford/medford-share/data/pseudos_module/espresso/nninc/pbe/van/H.UPF
     MD5 check sum: b5ee9d7bfd3a09ee7748110bda690ff7
     Pseudo is Ultrasoft, Zval =  1.0
     Generated by new atomic code, or converted to UPF format
     Using radial grid of  615 points,  1 beta functions with:
                l(1) =   0
     Q(r) pseudized with  8 coefficients,  rinner =    0.800

     atomic species   valence    mass     pseudopotential
        Ti1           12.00    47.86700     Ti( 1.00)
        O1             6.00    15.99900     O ( 1.00)
        N1             5.00    14.00700     N ( 1.00)
        C1             4.00    12.01100     C ( 1.00)
        H1             1.00     1.00800     H ( 1.00)

     No symmetry found

   Cartesian axes

     site n.     atom                  positions (alat units)
         1           Ti1 tau(   1) = (   0.0004258   2.9801865   6.0000000  )
         2           Ti1 tau(   2) = (   3.2906075   1.4906267   6.0002472  )
         3           O1  tau(   3) = (   0.0006271   0.0005054   7.9858123  )
         4           O1  tau(   4) = (   3.2906025   0.0005020   7.3038282  )
         5           O1  tau(   5) = (   4.5942328   1.4918067   9.2879030  )
         6           O1  tau(   6) = (   1.9868534   1.4903216   9.2879459  )
         7           Ti1 tau(   7) = (   3.2907910   2.8959150   9.1758416  )
         8           Ti1 tau(   8) = (   0.0015273   1.4827037   9.2680791  )
         9           O1  tau(   9) = (   3.3002520   5.9418316  11.2747492  )
        10           O1  tau(  10) = (   0.0116148   5.9584955  10.6183126  )
        11           O1  tau(  11) = (   1.2897458   1.4862980  12.6211975  )
        12           O1  tau(  12) = (   5.3051886   1.5023792  12.6347999  )
        13           Ti1 tau(  13) = (   0.0146078   2.8478158  12.7200684  )
        14           Ti1 tau(  14) = (   3.3063360   1.3081926  12.6482236  )
        15           O1  tau(  15) = (   0.0235978   5.9609164  14.6274833  )
        16           O1  tau(  16) = (   3.2983906   0.0399142  13.8749830  )
        17           O1  tau(  17) = (   4.5813539   1.5856785  16.0626423  )
        18           O1  tau(  18) = (   2.0324892   1.5097802  16.0098020  )
        19           Ti1 tau(  19) = (   3.2774956   2.9544257  15.6266065  )
        20           Ti1 tau(  20) = (   6.5530467   1.3151789  15.9772938  )
        21           O1  tau(  21) = (   3.2904802   0.0005063   4.7018136  )
        22           O1  tau(  22) = (   6.5059356   5.9265713  17.1294848  )
        23           O1  tau(  23) = (   1.3043587   1.4918075   6.0039043  )
        24           O1  tau(  24) = (   5.2767064   1.4903225   6.0039473  )
        25           Ti1 tau(  25) = (   0.0000382   5.9609847   6.0000000  )
        26           Ti1 tau(  26) = (   3.2902200   4.4714249   6.0002472  )
        27           O1  tau(  27) = (   0.0002396   2.9813036   7.9858123  )
        28           O1  tau(  28) = (   3.2902150   2.9813002   7.3038282  )
        29           O1  tau(  29) = (   4.5938453   4.4726049   9.2879030  )
        30           O1  tau(  30) = (   1.9864658   4.4711199   9.2879459  )
        31           Ti1 tau(  31) = (   3.2891106   5.8743827   9.1763621  )
        32           Ti1 tau(  32) = (   0.0006254   4.4649316   9.2693709  )
        33           O1  tau(  33) = (   3.2992753   3.0242338  11.2405823  )
        34           O1  tau(  34) = (   0.0092240   2.9805883  10.6323155  )
        35           O1  tau(  35) = (   1.2972400   4.4705050  12.6241655  )
        36           O1  tau(  36) = (   5.3008088   4.4694758  12.6340222  )
        37           Ti1 tau(  37) = (   0.0289225   5.8314391  12.5906285  )
        38           Ti1 tau(  38) = (   3.3189507   4.3956991  12.4097224  )
        39           O1  tau(  39) = (   0.0312427   2.9750824  14.7260556  )
        40           O1  tau(  40) = (   3.2762925   2.9668711  13.8358254  )
        41           O1  tau(  41) = (   4.5358187   4.4455929  15.9064879  )
        42           O1  tau(  42) = (   2.0572077   4.4429961  16.0439637  )
        43           Ti1 tau(  43) = (   3.2186928   5.9141907  16.2420754  )
        44           Ti1 tau(  44) = (   6.4642982   4.4840528  15.9061301  )
        45           O1  tau(  45) = (   3.2900926   2.9813045   4.7018136  )
        46           O1  tau(  46) = (   1.3039711   4.4726057   6.0039043  )
        47           O1  tau(  47) = (   5.2763189   4.4711207   6.0039473  )
        48           N1  tau(  48) = (   0.2499663   2.3419386  17.9913213  )
        49           C1  tau(  49) = (   0.6208863   1.8700663  19.1394302  )
        50           H1  tau(  50) = (   0.7431952   2.5333404  19.9929579  )
        51           H1  tau(  51) = (   0.8399735   0.8189210  19.2161768  )
        52           N1  tau(  52) = (   6.5658643   3.6116587  17.7752569  )
        53           H1  tau(  53) = (   0.1300021   4.2235620  18.5825096  )
        54           O1  tau(  54) = (   3.3713844   5.9089882  18.0735649  )
        55           H1  tau(  55) = (   4.1655974   0.3538959  18.4450359  )

     number of k points=    10  Fermi-Dirac smearing, width (Ry)=  0.0073
                       cart. coord. in units 2pi/alat
        k(    1) = (   0.0000000   0.0000000   0.0000000), wk =   0.1250000
        k(    2) = (   0.0000000   0.0419351   0.0000000), wk =   0.2500000
        k(    3) = (   0.0000000  -0.0838702   0.0000000), wk =   0.1250000
        k(    4) = (   0.0379955   0.0000049   0.0000000), wk =   0.2500000
        k(    5) = (   0.0379955   0.0419400   0.0000000), wk =   0.2500000
        k(    6) = (   0.0379955  -0.0838652   0.0000000), wk =   0.2500000
        k(    7) = (   0.0379955  -0.0419301   0.0000000), wk =   0.2500000
        k(    8) = (  -0.0759910  -0.0000099   0.0000000), wk =   0.1250000
        k(    9) = (  -0.0759910   0.0419252   0.0000000), wk =   0.2500000
        k(   10) = (  -0.0759910  -0.0838800   0.0000000), wk =   0.1250000

     Initial potential from superposition of free atoms

     starting charge  385.99915, renormalised to  402.00000

     negative rho (up, down):  1.591E-02 0.000E+00

     %%%%%%%%%%%%%%%%%%%%%%%%%%%%%%%%%%%%%%%%%%%%%%%%%%%%%%%%%%%%%%%%%%%%%%%%
     %                                                                      %
     % You are using vdW-DF, which was implemented by the Thonhauser group. %
     % Please cite the following two papers that made this development      %
     % possible and the two reviews that describe the various versions:     %
     %                                                                      %
     %   T. Thonhauser et al., PRL 115, 136402 (2015).                      %
     %   T. Thonhauser et al., PRB 76, 125112 (2007).                       %
     %   K. Berland et al., Rep. Prog. Phys. 78, 066501 (2015).             %
     %   D.C. Langreth et al., J. Phys.: Condens. Matter 21, 084203 (2009). %
     %                                                                      %
     %                                                                      %
     % If you are calculating the stress with vdW-DF, please also cite:     %
     %                                                                      %
     %   R. Sabatini et al., J. Phys.: Condens. Matter 24, 424209 (2012).   %
     %                                                                      %
     %%%%%%%%%%%%%%%%%%%%%%%%%%%%%%%%%%%%%%%%%%%%%%%%%%%%%%%%%%%%%%%%%%%%%%%%

     Adding external electric field

     Computed dipole along edir(3) :
        Dipole              -11.3519 Ry au,        -28.8537 Debye
        Dipole field         -0.0214 Ry au,

        Potential amp.        1.9858 Ry
        Total length         46.3494 bohr

     Starting wfcs are  304 atomic wfcs
  @ DRIVER MODE: Message from server: STATUS
  @ DRIVER MODE: Message from server: POSDATA
  @ DRIVER MODE: Reading and sharing cell
  @ DRIVER MODE: Reading and sharing positions
  @ DRIVER MODE: Received positions

     Self-consistent Calculation

     iteration #  1     ecut=    29.40 Ry     beta= 0.05
     Davidson diagonalization with overlap
     c_bands:  4 eigenvalues not converged
     c_bands:  3 eigenvalues not converged
     c_bands:  3 eigenvalues not converged
     c_bands:  5 eigenvalues not converged
     c_bands:  5 eigenvalues not converged
     c_bands:  1 eigenvalues not converged
     c_bands:  5 eigenvalues not converged
     c_bands:  4 eigenvalues not converged
     c_bands:  5 eigenvalues not converged
     c_bands:  1 eigenvalues not converged
     ethr =  1.00E-05,  avg # of iterations = 24.0

[...]

     total energy              =   -2410.15922773 Ry
     estimated scf accuracy    <    6308.31967816 Ry

     iteration #  2     ecut=    29.40 Ry     beta= 0.05
     Davidson diagonalization with overlap
     ethr =  1.00E-02,  avg # of iterations = 22.9

[...]

     iteration # 47     ecut=    29.40 Ry     beta= 0.05
     Davidson diagonalization with overlap
     c_bands:  2 eigenvalues not converged
     ethr =  1.75E-06,  avg # of iterations =  9.7

[...]

     total energy              =   -2972.72748858 Ry
     estimated scf accuracy    <       0.00000010 Ry

     iteration # 72     ecut=    29.40 Ry     beta= 0.05
     Davidson diagonalization with overlap
     ethr =  2.48E-11,  avg # of iterations =  6.0

     negative rho (up, down):  1.621E-02 0.000E+00

     Adding external electric field

     Computed dipole along edir(3) :
        Dipole                0.4577 Ry au,          1.1634 Debye
        Dipole field          0.0009 Ry au,

        Potential amp.       -0.0801 Ry
        Total length         46.3494 bohr

     End of self-consistent calculation

          k = 0.0000 0.0000 0.0000 ( 18029 PWs)   bands (ev):

   -56.5398 -56.5062 -55.8881 -55.8526 -55.6254 -55.5659 -55.3820 -55.3280
   -55.3035 -55.2323 -55.2029 -55.1913 -55.1573 -55.0350 -55.0345 -54.9878
   -32.9721 -32.8245 -32.7965 -32.7072 -32.6159 -32.5978 -32.3711 -32.1075
   -32.1059 -32.0784 -32.0312 -32.0275 -31.9945 -31.8715 -31.8541 -31.8463
   -31.7934 -31.7696 -31.7287 -31.7113 -31.6943 -31.6494 -31.6474 -31.5893
   -31.5876 -31.5833 -31.5801 -31.5365 -31.5321 -31.5288 -31.5081 -31.5080
   -31.4863 -31.4819 -31.4259 -31.4084 -31.4010 -31.3570 -31.3183 -31.2963
   -31.2908 -31.2813 -31.2459 -31.2445 -31.2203 -31.2064 -31.1786 -31.1584
   -17.8194 -16.7253 -16.2915 -16.1974 -15.9845 -15.9095 -15.8854 -15.8537
   -15.7877 -15.6177 -15.5362 -15.5113 -15.5010 -15.4422 -15.2745 -15.1780
   -15.1611 -15.0950 -15.0168 -14.9927 -14.9535 -14.8998 -14.8739 -14.8585
   -14.8425 -14.8082 -14.6847 -14.6046 -14.5072 -14.3255 -14.3094 -13.6887
   -13.5792 -11.9711  -7.7259  -5.1549  -4.3606  -4.2758  -3.7986  -3.7796
    -3.6077  -3.4285  -3.3720  -3.2283  -3.1689  -3.1188  -3.0627  -3.0483
    -2.9445  -2.8023  -2.7957  -2.7415  -2.7190  -2.7158  -2.6965  -2.5958
    -2.5303  -2.5210  -2.4260  -2.3343  -2.3136  -2.2745  -2.2341  -2.2265
    -2.1831  -2.1445  -2.0896  -2.0523  -2.0371  -1.9391  -1.9199  -1.8138
    -1.7864  -1.7632  -1.7538  -1.7204  -1.6810  -1.6226  -1.5517  -1.4345
    -1.3442  -1.3246  -1.2521  -1.2471  -1.2213  -1.0596  -1.0187  -1.0162
    -0.9561  -0.8799  -0.8503  -0.7953  -0.7575  -0.7136  -0.6619  -0.6200
    -0.5843  -0.4545  -0.4508  -0.4004  -0.3167  -0.2950  -0.2633  -0.2402
    -0.1592  -0.1042  -0.0677  -0.0003   0.0633   0.0699   0.1136   0.1721
     0.2816   0.3240   0.3488   0.3792   0.4222   0.4464   0.5142   0.5620
     0.5931   0.6020   0.6777   0.7800   0.7973   0.8320   0.9203   0.9460
     1.0304   1.0689   1.0861   1.1706   1.1900   1.3701   1.4085   1.5779
     2.3826   2.7247   2.8748   3.1572   3.1722   3.4643   3.6870   3.7148
     3.7176   3.7975   3.9353

[...]

          k = 0.0380-0.0419 0.0000 ( 17876 PWs)   bands (ev):

[...]

          k =-0.0760-0.0000 0.0000 ( 17886 PWs)   bands (ev):

[...]

          k =-0.0760-0.0839 0.0000 ( 17948 PWs)   bands (ev):

   -56.5232 -56.5226 -55.8761 -55.8643 -55.6201 -55.5711 -55.3759 -55.3340
   -55.3015 -55.2308 -55.2047 -55.1748 -55.1736 -55.0358 -55.0278 -54.9949
   -32.8105 -32.8098 -32.7892 -32.7883 -32.6601 -32.6598 -32.1971 -32.1876
   -32.0697 -32.0569 -32.0565 -32.0486 -31.9282 -31.8894 -31.8479 -31.8413
   -31.7982 -31.7920 -31.7051 -31.6727 -31.6310 -31.6128 -31.5947 -31.5896
   -31.5769 -31.5666 -31.5527 -31.5410 -31.5253 -31.5214 -31.5205 -31.5118
   -31.4754 -31.4715 -31.4322 -31.4132 -31.3989 -31.3974 -31.3891 -31.3604
   -31.3593 -31.3008 -31.2838 -31.2622 -31.2482 -31.2469 -31.2228 -31.1808
   -17.8056 -16.1801 -16.1087 -16.1044 -16.0211 -16.0187 -15.8150 -15.8079
   -15.6275 -15.6039 -15.5302 -15.4616 -15.3523 -15.3191 -15.2951 -15.2438
   -15.1990 -15.1707 -15.1148 -15.0829 -15.0001 -14.9688 -14.9529 -14.9413
   -14.9090 -14.8570 -14.7238 -14.6887 -14.6715 -14.5909 -14.4561 -13.6832
   -13.6825 -11.9286  -7.6561  -5.2162  -4.4343  -3.7542  -3.2209  -3.1926
    -3.1437  -3.1346  -2.9366  -2.8961  -2.8752  -2.8236  -2.7873  -2.7723
    -2.7273  -2.7213  -2.6395  -2.5873  -2.5555  -2.5428  -2.5189  -2.4592
    -2.4379  -2.4074  -2.3953  -2.3640  -2.3532  -2.3438  -2.3203  -2.2529
    -2.2038  -2.1511  -2.1182  -2.0774  -2.0195  -2.0142  -1.9802  -1.9717
    -1.8934  -1.8033  -1.7644  -1.6884  -1.6066  -1.5725  -1.5443  -1.5263
    -1.4836  -1.4264  -1.3993  -1.3505  -1.3249  -1.2715  -1.2355  -1.2258
    -1.1601  -1.1217  -1.0548  -1.0333  -0.9537  -0.8417  -0.7862  -0.7613
    -0.7342  -0.7214  -0.6526  -0.5896  -0.5422  -0.5230  -0.4499  -0.4423
    -0.4156  -0.3655  -0.3519  -0.3167  -0.2036  -0.1410  -0.0796   0.0046
     0.0440   0.0803   0.1603   0.2143   0.2389   0.3140   0.3946   0.4741
     0.4904   0.5296   0.5361   0.7036   0.7328   0.8418   0.8743   0.9500
     0.9848   1.0247   1.1453   1.1876   1.2201   1.2214   1.2421   1.2599
     2.3283   3.2945   3.2971   3.3469   3.3550   3.6226   3.6310   3.7689
     3.7708   3.8893   3.9286

     the Fermi energy is     2.6040 ev

!    total energy              =   -2972.72751446 Ry
     estimated scf accuracy    <       0.00000003 Ry
     smearing contrib. (-TS)   =      -0.00744921 Ry
     internal energy E=F+TS    =   -2972.72006526 Ry

     The total energy is F=E-TS. E is the sum of the following terms:
     one-electron contribution =  -24032.20360233 Ry
     hartree contribution      =   12109.72344445 Ry
     xc contribution           =    -493.28764599 Ry
     ewald contribution        =    9443.04734329 Ry
     electric field correction =       0.00039533 Ry

     convergence has been achieved in  72 iterations

     Forces acting on atoms (cartesian axes, Ry/au):

     atom    1 type  1   force =    -0.00000429   -0.00043436    0.11616198
     atom    2 type  1   force =    -0.00007377    0.00014147   -0.15937769
     atom    3 type  2   force =     0.00002609    0.00000729   -0.05252794
     atom    4 type  2   force =     0.00005320   -0.00013847    0.02469522
     atom    5 type  2   force =    -0.00348829   -0.00224487   -0.01041773
     atom    6 type  2   force =     0.00528610   -0.00174575   -0.01061643
     atom    7 type  1   force =     0.00000218   -0.00613525    0.04627106
     atom    8 type  1   force =     0.00041473    0.01612840    0.08036162
     atom    9 type  2   force =    -0.00000998   -0.00061913    0.00012837
     atom   10 type  2   force =    -0.00257395    0.00058516   -0.04974089
     atom   11 type  2   force =    -0.00055727   -0.00013229   -0.00014788
     atom   12 type  2   force =     0.00059733   -0.00027969    0.00000903
     atom   13 type  1   force =    -0.00018027    0.00043898   -0.00007044
     atom   14 type  1   force =     0.00017461    0.00004696   -0.00111140
     atom   15 type  2   force =    -0.00022165   -0.00039938   -0.00051795
     atom   16 type  2   force =     0.00013617   -0.00063683    0.00066120
     atom   17 type  2   force =     0.00000816    0.00046781    0.00019598
     atom   18 type  2   force =     0.00009777    0.00057780   -0.00027211
     atom   19 type  1   force =    -0.00062421   -0.00025902   -0.00051634
     atom   20 type  1   force =     0.00065116    0.00036888   -0.00018058
     atom   21 type  2   force =     0.00004919    0.00021660    0.09894800
     atom   22 type  2   force =    -0.00005759   -0.00049372   -0.00026480
     atom   23 type  2   force =    -0.07985884    0.00004444   -0.03164908
     atom   24 type  2   force =     0.07975742    0.00047823   -0.03170606
     atom   25 type  1   force =     0.00007058   -0.00057239    0.11645939
     atom   26 type  1   force =    -0.00011533   -0.00143048   -0.15989501
     atom   27 type  2   force =     0.00007121   -0.00069932   -0.05054504
     atom   28 type  2   force =     0.00005511    0.00166656    0.02023195
     atom   29 type  2   force =    -0.00169053    0.00505395   -0.01370579
     atom   30 type  2   force =     0.00360446    0.00547575   -0.01383839
     atom   31 type  1   force =    -0.00017211    0.00219609    0.03175516
     atom   32 type  1   force =     0.00031853   -0.01973152    0.08002098
     atom   33 type  2   force =     0.00014363   -0.00036572    0.00014628
     atom   34 type  2   force =    -0.00158572    0.00085368   -0.06328283
     atom   35 type  2   force =     0.00039955    0.00002558   -0.00016252
     atom   36 type  2   force =     0.00016570   -0.00005441   -0.00023503
     atom   37 type  1   force =    -0.00013580   -0.00023520   -0.00062913
     atom   38 type  1   force =     0.00013095    0.00047978    0.00005400
     atom   39 type  2   force =    -0.00029323    0.00056529    0.00017386
     atom   40 type  2   force =     0.00024123    0.00011207    0.00069053
     atom   41 type  2   force =     0.00127484    0.00002917   -0.00008495
     atom   42 type  2   force =    -0.00120532   -0.00045690    0.00007164
     atom   43 type  1   force =    -0.00092732    0.00024664   -0.00085891
     atom   44 type  1   force =    -0.00002092    0.00027850    0.00021208
     atom   45 type  2   force =     0.00005350    0.00003096    0.09875412
     atom   46 type  2   force =    -0.07991273    0.00000482   -0.03165044
     atom   47 type  2   force =     0.07980742    0.00043421   -0.03172109
     atom   48 type  3   force =    -0.00012613    0.00030803   -0.00015643
     atom   49 type  4   force =    -0.00026366    0.00012581   -0.00030171
     atom   50 type  5   force =    -0.00016664   -0.00031134   -0.00019644
     atom   51 type  5   force =     0.00010252    0.00034234   -0.00029124
     atom   52 type  3   force =    -0.00026176   -0.00066368    0.00042430
     atom   53 type  5   force =    -0.00030673    0.00027816   -0.00003803
     atom   54 type  2   force =    -0.00640822   -0.00329448   -0.00406710
     atom   55 type  5   force =     0.00754889    0.00332479    0.00435065

     Total force =     0.396861     Total SCF correction =     0.000469
  @ DRIVER MODE: Message from server: STATUS
  @ DRIVER MODE: Message from server: GETFORCE
  @ DRIVER MODE: Returning v,forces,stress,ensemble

     Writing output data file ./calc.save/
  @ DRIVER MODE: Message from server: EXIT
  @ DRIVE MODE: Exiting

     General routines

     Parallel routines

   This run was terminated on:   8:46:34  23Sep2021

   JOB DONE.