     Program PWSCF v.6.7GPU starts on  9Sep2021 at 23: 4:36

     R & G space division:  proc/nbgrp/npool/nimage =      10
     Reading input from /storage/home/hcoda1/3/ntian30/research/carbon/CxH_vib/CH3_calc/ads_slab/CH3N2H2O_e/out_0008/pw.inp
Warning: card &CELL ignored
Warning: card   CELL_DYNAMICS='IPI', ignored
Warning: card / ignored

     Current dimensions of program PWSCF are:
     Max number of different atomic species (ntypx) = 10
     Max number of k-points (npk) =  40000
     Max angular momentum in pseudopotentials (lmaxx) =  3
     Presently no symmetry can be used with electric field

     Message from routine cell_base_init:
     DEPRECATED: use true lattice parameter, not A to a.u. conversion factor

     IMPORTANT: XC functional enforced from input :
     Exchange-correlation= BEEF-VDW
                           (   1   4  43  14   2   0   0)
     Any further DFT definition will be discarded
     Please, verify this is what you really want

  @ DRIVER MODE: Connecting to
 qe_1139763_2779715.sched-torque.pace.gatech.edurj9b5jym_scratch
  using UNIX socket
  @ DRIVER MODE: Message from server: STATUS
  @ DRIVER MODE: Message from server: INIT
  @ DRIVER MODE: Receiving replica           0          -1
  @ DRIVER MODE: Receiving encoded integer          25
  @ DRIVER MODE:  SCF:  T  FORCE:  T  STRESS:  F  VC:  F  ENSEMBLE:  F
  @ DRIVER MODE:  SCF:  T  FORCE:  T  STRESS:  F  VC:  F  ENSEMBLE:  F

     Using Slab Decomposition

     bravais-lattice index     =            0
     lattice parameter (alat)  =       1.8897  a.u.
     unit-cell volume          =    6658.9804 (a.u.)^3
     number of atoms/cell      =           56
     number of atomic types    =            5
     number of electrons       =       403.00
     number of Kohn-Sham states=          211
     kinetic-energy cutoff     =      29.3995  Ry
     charge density cutoff     =     293.9946  Ry
     scf convergence threshold =      7.3E-08
     mixing beta               =       0.0500
     number of iterations used =            8  plain     mixing
     Exchange-correlation= BEEF-VDW
                           (   1   4  43  14   2   0   0)

     celldm(1)=   1.889726  celldm(2)=   0.000000  celldm(3)=   0.000000
     celldm(4)=   0.000000  celldm(5)=   0.000000  celldm(6)=   0.000000

     crystal axes: (cart. coord. in units of alat)
               a(1) = (   6.579727   0.000000   0.000000 )
               a(2) = (  -0.000775   5.961596   0.000000 )
               a(3) = (   0.000000   0.000000  25.155947 )

     reciprocal axes: (cart. coord. in units 2 pi/alat)
               b(1) = (  0.151982  0.000020  0.000000 )
               b(2) = (  0.000000  0.167740  0.000000 )
               b(3) = (  0.000000  0.000000  0.039752 )

     PseudoPot. # 1 for Ti read from file:
     /storage/coda1/p-amedford6/0/shared/rich_project_chbe-medford/medford-share/data/pseudos_module/espresso/nninc/pbe/van/Ti.UPF
     MD5 check sum: 8e4df49b7f0d34bbd5052bf3f5ea0213
     Pseudo is Ultrasoft, Zval = 12.0
     Generated by new atomic code, or converted to UPF format
     Using radial grid of  851 points,  6 beta functions with:
                l(1) =   0
                l(2) =   0
                l(3) =   1
                l(4) =   1
                l(5) =   2
                l(6) =   2
     Q(r) pseudized with  8 coefficients,  rinner =    1.000   1.000   1.000
                                                       1.000   1.000

     PseudoPot. # 2 for O  read from file:
     /storage/coda1/p-amedford6/0/shared/rich_project_chbe-medford/medford-share/data/pseudos_module/espresso/nninc/pbe/van/O.UPF
     MD5 check sum: 78c19812648e8988a0fe644b0f25305e
     Pseudo is Ultrasoft, Zval =  6.0
     Generated by new atomic code, or converted to UPF format
     Using radial grid of  737 points,  4 beta functions with:
                l(1) =   0
                l(2) =   0
                l(3) =   1
                l(4) =   1
     Q(r) pseudized with  8 coefficients,  rinner =    0.800   0.800   0.800

     PseudoPot. # 3 for N  read from file:
     /storage/coda1/p-amedford6/0/shared/rich_project_chbe-medford/medford-share/data/pseudos_module/espresso/nninc/pbe/van/N.UPF
     MD5 check sum: 90d10febe142ad51ac9d5be1deb811c4
     Pseudo is Ultrasoft, Zval =  5.0
     Generated by new atomic code, or converted to UPF format
     Using radial grid of  729 points,  4 beta functions with:
                l(1) =   0
                l(2) =   0
                l(3) =   1
                l(4) =   1
     Q(r) pseudized with  8 coefficients,  rinner =    0.800   0.800   0.800

     PseudoPot. # 4 for C  read from file:
     /storage/coda1/p-amedford6/0/shared/rich_project_chbe-medford/medford-share/data/pseudos_module/espresso/nninc/pbe/van/C.UPF
     MD5 check sum: 1a69bf6b8db32088f5b2163dbdb77a27
     Pseudo is Ultrasoft, Zval =  4.0
     Generated by new atomic code, or converted to UPF format
     Using radial grid of  721 points,  4 beta functions with:
                l(1) =   0
                l(2) =   0
                l(3) =   1
                l(4) =   1
     Q(r) pseudized with  8 coefficients,  rinner =    0.800   0.800   0.800

     PseudoPot. # 5 for H  read from file:
     /storage/coda1/p-amedford6/0/shared/rich_project_chbe-medford/medford-share/data/pseudos_module/espresso/nninc/pbe/van/H.UPF
     MD5 check sum: b5ee9d7bfd3a09ee7748110bda690ff7
     Pseudo is Ultrasoft, Zval =  1.0
     Generated by new atomic code, or converted to UPF format
     Using radial grid of  615 points,  1 beta functions with:
                l(1) =   0
     Q(r) pseudized with  8 coefficients,  rinner =    0.800

     atomic species   valence    mass     pseudopotential
        Ti1           12.00    47.86700     Ti( 1.00)
        O1             6.00    15.99900     O ( 1.00)
        N1             5.00    14.00700     N ( 1.00)
        C1             4.00    12.01100     C ( 1.00)
        H1             1.00     1.00800     H ( 1.00)

     No symmetry found

   Cartesian axes

     site n.     atom                  positions (alat units)
         1           Ti1 tau(   1) = (   0.0004258   2.9801865   6.0000000  )
         2           Ti1 tau(   2) = (   3.2906075   1.4906267   6.0002472  )
         3           O1  tau(   3) = (   0.0006271   0.0005054   7.9858123  )
         4           O1  tau(   4) = (   3.2906025   0.0005020   7.3038282  )
         5           O1  tau(   5) = (   4.5942328   1.4918067   9.2879030  )
         6           O1  tau(   6) = (   1.9868534   1.4903216   9.2879459  )
         7           Ti1 tau(   7) = (   3.2907910   2.8959150   9.1758416  )
         8           Ti1 tau(   8) = (   0.0015273   1.4827037   9.2680791  )
         9           O1  tau(   9) = (   3.2823942   0.0140684  11.3428430  )
        10           O1  tau(  10) = (   0.0116148   5.9584955  10.6183126  )
        11           O1  tau(  11) = (   1.2742013   1.4978990  12.6323156  )
        12           O1  tau(  12) = (   5.2614901   1.5083079  12.6129891  )
        13           Ti1 tau(  13) = (   0.0550148   2.9595524  12.6160221  )
        14           Ti1 tau(  14) = (   3.3718896   1.5084997  12.4944496  )
        15           O1  tau(  15) = (   6.5380961   0.0278828  14.6255036  )
        16           O1  tau(  16) = (   3.2758616   0.0189586  13.9121306  )
        17           O1  tau(  17) = (   4.4976875   1.5333668  16.0433440  )
        18           O1  tau(  18) = (   1.9922867   1.5271532  16.0291573  )
        19           Ti1 tau(  19) = (   3.1858679   3.0241111  15.7732818  )
        20           Ti1 tau(  20) = (   6.4842391   1.5502874  15.8011710  )
        21           O1  tau(  21) = (   3.2904802   0.0005063   4.7018136  )
        22           O1  tau(  22) = (   6.5196731   0.0665875  17.1891134  )
        23           O1  tau(  23) = (   1.3043587   1.4918075   6.0039043  )
        24           O1  tau(  24) = (   5.2767064   1.4903225   6.0039473  )
        25           Ti1 tau(  25) = (   0.0000382   5.9609847   6.0000000  )
        26           Ti1 tau(  26) = (   3.2902200   4.4714249   6.0002472  )
        27           O1  tau(  27) = (   0.0002396   2.9813036   7.9858123  )
        28           O1  tau(  28) = (   3.2902150   2.9813002   7.3038282  )
        29           O1  tau(  29) = (   4.5938453   4.4726049   9.2879030  )
        30           O1  tau(  30) = (   1.9864658   4.4711199   9.2879459  )
        31           Ti1 tau(  31) = (   3.2891106   5.8743827   9.1763621  )
        32           Ti1 tau(  32) = (   0.0006254   4.4649316   9.2693709  )
        33           O1  tau(  33) = (   3.2807012   2.9937711  11.3380227  )
        34           O1  tau(  34) = (   0.0092240   2.9805883  10.6323155  )
        35           O1  tau(  35) = (   1.2734598   4.4826339  12.6318047  )
        36           O1  tau(  36) = (   5.2665626   4.4910389  12.6093644  )
        37           Ti1 tau(  37) = (   0.0550181   5.9329888  12.5453996  )
        38           Ti1 tau(  38) = (   3.3741151   4.4737790  12.4977360  )
        39           O1  tau(  39) = (   6.5373474   2.9946220  14.6524478  )
        40           O1  tau(  40) = (   3.2677173   3.0168568  13.9399215  )
        41           O1  tau(  41) = (   4.4884636   4.5316779  16.1079578  )
        42           O1  tau(  42) = (   1.9830865   4.5332738  16.0531499  )
        43           Ti1 tau(  43) = (   3.2469912   0.0413792  15.7000251  )
        44           Ti1 tau(  44) = (   6.5198411   4.7064707  16.0702691  )
        45           O1  tau(  45) = (   3.2900926   2.9813045   4.7018136  )
        46           O1  tau(  46) = (   1.3039711   4.4726057   6.0039043  )
        47           O1  tau(  47) = (   5.2763189   4.4711207   6.0039473  )
        48           N1  tau(  48) = (   0.0943371   2.6987919  18.6315974  )
        49           N1  tau(  49) = (   0.0021406   2.9345059  17.4339123  )
        50           C1  tau(  50) = (   0.1779456   3.8407003  19.5793842  )
        51           H1  tau(  51) = (   6.4148796   4.7858965  19.1557567  )
        52           H1  tau(  52) = (   6.1971438   3.5603257  20.4715321  )
        53           H1  tau(  53) = (   1.2306852   3.9282498  19.8556806  )
        54           O1  tau(  54) = (   3.3096034   3.0730741  18.2289406  )
        55           H1  tau(  55) = (   4.0988663   3.6297178  18.3192648  )
        56           H1  tau(  56) = (   3.5789210   2.1977314  18.5501991  )

     number of k points=    10  Fermi-Dirac smearing, width (Ry)=  0.0073
                       cart. coord. in units 2pi/alat
        k(    1) = (   0.0000000   0.0000000   0.0000000), wk =   0.1250000
        k(    2) = (   0.0000000   0.0419351   0.0000000), wk =   0.2500000
        k(    3) = (   0.0000000  -0.0838702   0.0000000), wk =   0.1250000
        k(    4) = (   0.0379955   0.0000049   0.0000000), wk =   0.2500000
        k(    5) = (   0.0379955   0.0419400   0.0000000), wk =   0.2500000
        k(    6) = (   0.0379955  -0.0838652   0.0000000), wk =   0.2500000
        k(    7) = (   0.0379955  -0.0419301   0.0000000), wk =   0.2500000
        k(    8) = (  -0.0759910  -0.0000099   0.0000000), wk =   0.1250000
        k(    9) = (  -0.0759910   0.0419252   0.0000000), wk =   0.2500000
        k(   10) = (  -0.0759910  -0.0838800   0.0000000), wk =   0.1250000

     Initial potential from superposition of free atoms

     starting charge  386.99914, renormalised to  403.00000

     negative rho (up, down):  1.478E-02 0.000E+00

     %%%%%%%%%%%%%%%%%%%%%%%%%%%%%%%%%%%%%%%%%%%%%%%%%%%%%%%%%%%%%%%%%%%%%%%%
     %                                                                      %
     % You are using vdW-DF, which was implemented by the Thonhauser group. %
     % Please cite the following two papers that made this development      %
     % possible and the two reviews that describe the various versions:     %
     %                                                                      %
     %   T. Thonhauser et al., PRL 115, 136402 (2015).                      %
     %   T. Thonhauser et al., PRB 76, 125112 (2007).                       %
     %   K. Berland et al., Rep. Prog. Phys. 78, 066501 (2015).             %
     %   D.C. Langreth et al., J. Phys.: Condens. Matter 21, 084203 (2009). %
     %                                                                      %
     %                                                                      %
     % If you are calculating the stress with vdW-DF, please also cite:     %
     %                                                                      %
     %   R. Sabatini et al., J. Phys.: Condens. Matter 24, 424209 (2012).   %
     %                                                                      %
     %%%%%%%%%%%%%%%%%%%%%%%%%%%%%%%%%%%%%%%%%%%%%%%%%%%%%%%%%%%%%%%%%%%%%%%%

     Adding external electric field

     Computed dipole along edir(3) :
        Dipole              -13.2300 Ry au,        -33.6274 Debye
        Dipole field         -0.0250 Ry au,

        Potential amp.        2.3144 Ry
        Total length         46.3494 bohr

     Starting wfcs are  305 atomic wfcs
  @ DRIVER MODE: Message from server: STATUS
  @ DRIVER MODE: Message from server: POSDATA
  @ DRIVER MODE: Reading and sharing cell
  @ DRIVER MODE: Reading and sharing positions
  @ DRIVER MODE: Received positions

     Self-consistent Calculation

     iteration #  1     ecut=    29.40 Ry     beta= 0.05
     Davidson diagonalization with overlap
     c_bands:  5 eigenvalues not converged
     c_bands:  2 eigenvalues not converged
     c_bands:  5 eigenvalues not converged
     c_bands:  5 eigenvalues not converged
     c_bands:  1 eigenvalues not converged
     c_bands:  1 eigenvalues not converged
     c_bands:  4 eigenvalues not converged
     c_bands:  2 eigenvalues not converged
     c_bands:  3 eigenvalues not converged
     ethr =  1.00E-05,  avg # of iterations = 26.9

[...]

     total energy              =   -2368.24769621 Ry
     estimated scf accuracy    <    6911.18793253 Ry

     iteration #  2     ecut=    29.40 Ry     beta= 0.05
     Davidson diagonalization with overlap
     ethr =  1.00E-02,  avg # of iterations = 23.3

[...]

     iteration # 59     ecut=    29.40 Ry     beta= 0.05
     Davidson diagonalization with overlap
     c_bands:  1 eigenvalues not converged
     ethr =  1.52E-08,  avg # of iterations = 12.1

[...]

     total energy              =   -2973.98646048 Ry
     estimated scf accuracy    <       0.00000066 Ry

     iteration # 73     ecut=    29.40 Ry     beta= 0.05
     Davidson diagonalization with overlap
     ethr =  7.93E-11,  avg # of iterations = 12.1

     negative rho (up, down):  1.504E-02 0.000E+00

     Adding external electric field

     Computed dipole along edir(3) :
        Dipole                0.9060 Ry au,          2.3029 Debye
        Dipole field          0.0017 Ry au,

        Potential amp.       -0.1585 Ry
        Total length         46.3494 bohr

     End of self-consistent calculation

          k = 0.0000 0.0000 0.0000 ( 18029 PWs)   bands (ev):

   -55.6031 -55.5690 -55.5674 -55.5316 -55.4990 -55.4488 -55.4387 -55.4144
   -55.4023 -55.3805 -55.3789 -55.3449 -55.0090 -54.8375 -54.5824 -54.5484
   -32.1123 -32.0858 -31.9593 -31.9427 -31.9130 -31.8959 -31.8815 -31.8687
   -31.8463 -31.8065 -31.7987 -31.7679 -31.7554 -31.7462 -31.7378 -31.7275
   -31.7076 -31.6985 -31.6958 -31.6603 -31.6563 -31.6460 -31.6333 -31.6074
   -31.6029 -31.5983 -31.5930 -31.5860 -31.5783 -31.5693 -31.5543 -31.5542
   -31.5454 -31.5318 -31.5211 -31.5093 -31.4907 -31.2863 -31.1996 -31.0981
   -31.0932 -31.0565 -30.9897 -30.9011 -30.8787 -30.8062 -30.7197 -30.6089
   -19.0418 -18.3148 -16.3178 -16.0768 -15.8751 -15.7596 -15.7188 -15.5264
   -15.4282 -15.3297 -15.2330 -15.1646 -15.1413 -15.1342 -15.1305 -15.1048
   -15.0804 -15.0681 -15.0466 -15.0301 -15.0153 -14.9556 -14.9421 -14.9332
   -14.8437 -14.7892 -14.7544 -14.7353 -14.6778 -14.6591 -14.1783 -13.0849
   -12.9685 -11.2902  -6.8783  -6.7284  -4.1994  -4.0630  -3.8048  -3.6881
    -3.5563  -3.5089  -3.4485  -3.4181  -3.2208  -3.1018  -3.0282  -2.8437
    -2.7865  -2.7588  -2.7292  -2.6579  -2.5217  -2.4715  -2.4197  -2.4138
    -2.4022  -2.3704  -2.3656  -2.3446  -2.2455  -2.2419  -2.1928  -2.1502
    -2.0794  -2.0012  -1.9822  -1.9351  -1.9160  -1.9046  -1.8760  -1.8527
    -1.8418  -1.8069  -1.7943  -1.7212  -1.6188  -1.5509  -1.5026  -1.4637
    -1.3981  -1.3849  -1.2176  -1.1536  -1.1089  -1.0720  -1.0526  -1.0321
    -0.9982  -0.9907  -0.8818  -0.7576  -0.7535  -0.6733  -0.6131  -0.5353
    -0.5266  -0.4492  -0.3920  -0.3738  -0.3613  -0.3502  -0.3221  -0.2494
    -0.1031  -0.0598  -0.0355   0.0001   0.0292   0.0951   0.1387   0.2076
     0.2431   0.2841   0.3192   0.3430   0.3674   0.3752   0.3903   0.4025
     0.4217   0.6040   0.6642   0.6850   0.7502   0.7796   0.9228   0.9888
     1.0533   1.1597   1.3648   1.4396   1.5304   1.6318   2.0110   2.0567
     2.7742   3.5311   3.6160   3.6628   3.7047   3.7774   3.7947   3.9679
     3.9866   4.0292   4.1196

[...]

          k = 0.0380-0.0419 0.0000 ( 17876 PWs)   bands (ev):

[...]

          k =-0.0760-0.0000 0.0000 ( 17886 PWs)   bands (ev):

[...]

          k =-0.0760-0.0839 0.0000 ( 17948 PWs)   bands (ev):

   -55.5863 -55.5856 -55.5505 -55.5483 -55.4921 -55.4555 -55.4264 -55.4146
   -55.3980 -55.3963 -55.3647 -55.3593 -55.0074 -54.8390 -54.5654 -54.5652
   -31.9264 -31.9110 -31.9012 -31.9008 -31.8815 -31.8810 -31.8513 -31.8168
   -31.7944 -31.7906 -31.7816 -31.7616 -31.7587 -31.7398 -31.7181 -31.7135
   -31.7116 -31.7070 -31.7060 -31.7052 -31.7045 -31.7021 -31.6979 -31.6589
   -31.6473 -31.6341 -31.6241 -31.6105 -31.5977 -31.5970 -31.5950 -31.5876
   -31.5788 -31.5751 -31.5683 -31.5648 -31.4268 -31.2880 -31.2052 -31.1541
   -31.0992 -31.0824 -30.8914 -30.8913 -30.8025 -30.8024 -30.7630 -30.7630
   -19.0368 -18.3167 -15.7644 -15.6823 -15.5598 -15.5212 -15.4778 -15.4340
   -15.4139 -15.3208 -15.3012 -15.2917 -15.2405 -15.2263 -15.2034 -15.1604
   -15.1376 -15.1282 -15.1242 -15.0884 -15.0599 -15.0432 -15.0398 -15.0340
   -14.9719 -14.9229 -14.9208 -14.9159 -14.7892 -14.6604 -14.3572 -13.0703
   -13.0702 -11.2879  -6.8794  -6.7415  -4.1288  -3.8696  -3.7850  -3.2832
    -3.0493  -2.8880  -2.8177  -2.7275  -2.6979  -2.6906  -2.5471  -2.5146
    -2.4849  -2.4371  -2.4324  -2.4285  -2.4214  -2.4055  -2.3987  -2.3825
    -2.3311  -2.3184  -2.2939  -2.2816  -2.2732  -2.2557  -2.2339  -2.2237
    -2.2018  -2.1676  -2.1535  -2.1182  -2.1119  -2.0222  -1.8360  -1.8263
    -1.7790  -1.7458  -1.7316  -1.7063  -1.6695  -1.6560  -1.6483  -1.5964
    -1.4758  -1.4321  -1.3440  -1.2958  -1.2787  -1.2283  -1.1624  -1.1384
    -1.0684  -1.0237  -0.9870  -0.9654  -0.9419  -0.7975  -0.7857  -0.7314
    -0.7184  -0.6813  -0.6344  -0.5756  -0.5633  -0.5530  -0.5370  -0.5036
    -0.4350  -0.3653  -0.3536  -0.3254  -0.2744  -0.2579  -0.2146  -0.1267
    -0.1065  -0.0702   0.0277   0.1297   0.2209   0.3562   0.4417   0.4654
     0.5213   0.5985   0.6968   0.7063   0.7148   0.7511   0.7743   0.8345
     0.9287   0.9487   0.9756   1.0983   1.8031   1.8038   1.8764   1.8766
     2.8156   3.7922   3.8516   3.8973   3.9165   4.0092   4.0422   4.0642
     4.0666   4.1140   4.2037

     the Fermi energy is     3.5302 ev

!    total energy              =   -2973.98647797 Ry
     estimated scf accuracy    <       0.00000006 Ry
     smearing contrib. (-TS)   =      -0.02192282 Ry
     internal energy E=F+TS    =   -2973.96455515 Ry

     The total energy is F=E-TS. E is the sum of the following terms:
     one-electron contribution =  -23875.33595558 Ry
     hartree contribution      =   12032.12266333 Ry
     xc contribution           =    -494.08379466 Ry
     ewald contribution        =    9363.33098258 Ry
     electric field correction =       0.00154919 Ry

     convergence has been achieved in  73 iterations

     Forces acting on atoms (cartesian axes, Ry/au):

     atom    1 type  1   force =     0.00006764   -0.00017427    0.09645194
     atom    2 type  1   force =    -0.00015316   -0.00063959   -0.17545250
     atom    3 type  2   force =    -0.00003516    0.00002288   -0.02463730
     atom    4 type  2   force =     0.00005796   -0.00136501    0.05309359
     atom    5 type  2   force =    -0.01207899    0.00003514    0.00386667
     atom    6 type  2   force =     0.01329644    0.00071236    0.00207264
     atom    7 type  1   force =    -0.00147893    0.00064322   -0.01048861
     atom    8 type  1   force =     0.00072309    0.00971382    0.02662669
     atom    9 type  2   force =    -0.00040494    0.00008839   -0.00032827
     atom   10 type  2   force =    -0.00180166    0.00306996   -0.01772946
     atom   11 type  2   force =    -0.00015336   -0.00022702    0.00012350
     atom   12 type  2   force =    -0.00017244   -0.00030068   -0.00029084
     atom   13 type  1   force =    -0.00020287   -0.00021284   -0.00009403
     atom   14 type  1   force =    -0.00037150   -0.00017150   -0.00035931
     atom   15 type  2   force =     0.00027107   -0.00086356    0.00031197
     atom   16 type  2   force =     0.00006841    0.00015443    0.00000936
     atom   17 type  2   force =     0.00024660   -0.00041150    0.00041439
     atom   18 type  2   force =     0.00054928   -0.00056959    0.00020048
     atom   19 type  1   force =     0.00013491   -0.00019371   -0.00016099
     atom   20 type  1   force =     0.00050923   -0.00070934    0.00010734
     atom   21 type  2   force =     0.00008405   -0.00004761    0.10322598
     atom   22 type  2   force =     0.00039786   -0.00047289   -0.00027229
     atom   23 type  2   force =    -0.07146422   -0.00009829   -0.02772922
     atom   24 type  2   force =     0.07140014    0.00029084   -0.02773180
     atom   25 type  1   force =     0.00007119   -0.00029195    0.09591340
     atom   26 type  1   force =    -0.00025419   -0.00022788   -0.17573479
     atom   27 type  2   force =     0.00006810   -0.00009031   -0.02364382
     atom   28 type  2   force =     0.00006019   -0.00118942    0.05338080
     atom   29 type  2   force =    -0.01231838    0.00061784    0.00390549
     atom   30 type  2   force =     0.01347309    0.00110272    0.00207561
     atom   31 type  1   force =    -0.00129688    0.00373660   -0.00846503
     atom   32 type  1   force =     0.00085698   -0.01166103    0.02704989
     atom   33 type  2   force =    -0.00002182    0.00013548   -0.00011029
     atom   34 type  2   force =    -0.00128982    0.00168999   -0.02364881
     atom   35 type  2   force =    -0.00023587   -0.00003640    0.00004767
     atom   36 type  2   force =     0.00004846   -0.00001801    0.00019319
     atom   37 type  1   force =     0.00000836   -0.00018141    0.00013168
     atom   38 type  1   force =    -0.00057851   -0.00028993    0.00052297
     atom   39 type  2   force =     0.00011887   -0.00059431    0.00052345
     atom   40 type  2   force =    -0.00001158   -0.00009138    0.00019798
     atom   41 type  2   force =     0.00057488   -0.00071694   -0.00009056
     atom   42 type  2   force =     0.00049205   -0.00019297   -0.00066434
     atom   43 type  1   force =     0.00053024   -0.00040167    0.00013115
     atom   44 type  1   force =     0.00026210   -0.00021935   -0.00095968
     atom   45 type  2   force =     0.00009009   -0.00005635    0.10320962
     atom   46 type  2   force =    -0.07145655   -0.00006271   -0.02773331
     atom   47 type  2   force =     0.07140219    0.00036928   -0.02774801
     atom   48 type  3   force =     0.00032494   -0.00102178    0.00271374
     atom   49 type  3   force =    -0.00195024    0.00086323   -0.00239141
     atom   50 type  4   force =    -0.00056192    0.00134063   -0.00000703
     atom   51 type  5   force =     0.00144301   -0.00073068    0.00022152
     atom   52 type  5   force =     0.00024462    0.00013139   -0.00042369
     atom   53 type  5   force =    -0.00001930   -0.00006531    0.00038367
     atom   54 type  2   force =    -0.00052273   -0.00112842   -0.00003758
     atom   55 type  5   force =     0.00039462    0.00030754    0.00031759
     atom   56 type  5   force =     0.00056437    0.00069986   -0.00049100

     Total force =     0.367828     Total SCF correction =     0.000684
  @ DRIVER MODE: Message from server: STATUS
  @ DRIVER MODE: Message from server: GETFORCE
  @ DRIVER MODE: Returning v,forces,stress,ensemble

     Writing output data file ./calc.save/
  @ DRIVER MODE: Message from server: EXIT
  @ DRIVE MODE: Exiting

     General routines

     Parallel routines

   This run was terminated on:  23:26: 6   9Sep2021

   JOB DONE.