     Program PWSCF v.6.7GPU starts on  9Sep2021 at  1:25:35

     R & G space division:  proc/nbgrp/npool/nimage =      10
     Reading input from /storage/home/hcoda1/3/ntian30/research/carbon/CxH_vib/CH2_calc/ads_slab/CH2N2H_a/out_0012/pw.inp
Warning: card &CELL ignored
Warning: card   CELL_DYNAMICS='IPI', ignored
Warning: card / ignored

     Current dimensions of program PWSCF are:
     Max number of different atomic species (ntypx) = 10
     Max number of k-points (npk) =  40000
     Max angular momentum in pseudopotentials (lmaxx) =  3
     Presently no symmetry can be used with electric field

     Message from routine cell_base_init:
     DEPRECATED: use true lattice parameter, not A to a.u. conversion factor

     IMPORTANT: XC functional enforced from input :
     Exchange-correlation= BEEF-VDW
                           (   1   4  43  14   2   0   0)
     Any further DFT definition will be discarded
     Please, verify this is what you really want

  @ DRIVER MODE: Connecting to
 qe_1139763_2767385.sched-torque.pace.gatech.edutbj444hg_scratch
  using UNIX socket
  @ DRIVER MODE: Message from server: STATUS
  @ DRIVER MODE: Message from server: INIT
  @ DRIVER MODE: Receiving replica           0          -1
  @ DRIVER MODE: Receiving encoded integer          25
  @ DRIVER MODE:  SCF:  T  FORCE:  T  STRESS:  F  VC:  F  ENSEMBLE:  F
  @ DRIVER MODE:  SCF:  T  FORCE:  T  STRESS:  F  VC:  F  ENSEMBLE:  F

     Using Slab Decomposition

     bravais-lattice index     =            0
     lattice parameter (alat)  =       1.8897  a.u.
     unit-cell volume          =    6658.9804 (a.u.)^3
     number of atoms/cell      =           53
     number of atomic types    =            5
     number of electrons       =       395.00
     number of Kohn-Sham states=          207
     kinetic-energy cutoff     =      29.3995  Ry
     charge density cutoff     =     293.9946  Ry
     scf convergence threshold =      7.3E-08
     mixing beta               =       0.0500
     number of iterations used =            8  plain     mixing
     Exchange-correlation= BEEF-VDW
                           (   1   4  43  14   2   0   0)

     celldm(1)=   1.889726  celldm(2)=   0.000000  celldm(3)=   0.000000
     celldm(4)=   0.000000  celldm(5)=   0.000000  celldm(6)=   0.000000

     crystal axes: (cart. coord. in units of alat)
               a(1) = (   6.579727   0.000000   0.000000 )
               a(2) = (  -0.000775   5.961596   0.000000 )
               a(3) = (   0.000000   0.000000  25.155947 )

     reciprocal axes: (cart. coord. in units 2 pi/alat)
               b(1) = (  0.151982  0.000020  0.000000 )
               b(2) = (  0.000000  0.167740  0.000000 )
               b(3) = (  0.000000  0.000000  0.039752 )

     PseudoPot. # 1 for Ti read from file:
     /storage/coda1/p-amedford6/0/shared/rich_project_chbe-medford/medford-share/data/pseudos_module/espresso/nninc/pbe/van/Ti.UPF
     MD5 check sum: 8e4df49b7f0d34bbd5052bf3f5ea0213
     Pseudo is Ultrasoft, Zval = 12.0
     Generated by new atomic code, or converted to UPF format
     Using radial grid of  851 points,  6 beta functions with:
                l(1) =   0
                l(2) =   0
                l(3) =   1
                l(4) =   1
                l(5) =   2
                l(6) =   2
     Q(r) pseudized with  8 coefficients,  rinner =    1.000   1.000   1.000
                                                       1.000   1.000

     PseudoPot. # 2 for O  read from file:
     /storage/coda1/p-amedford6/0/shared/rich_project_chbe-medford/medford-share/data/pseudos_module/espresso/nninc/pbe/van/O.UPF
     MD5 check sum: 78c19812648e8988a0fe644b0f25305e
     Pseudo is Ultrasoft, Zval =  6.0
     Generated by new atomic code, or converted to UPF format
     Using radial grid of  737 points,  4 beta functions with:
                l(1) =   0
                l(2) =   0
                l(3) =   1
                l(4) =   1
     Q(r) pseudized with  8 coefficients,  rinner =    0.800   0.800   0.800

     PseudoPot. # 3 for N  read from file:
     /storage/coda1/p-amedford6/0/shared/rich_project_chbe-medford/medford-share/data/pseudos_module/espresso/nninc/pbe/van/N.UPF
     MD5 check sum: 90d10febe142ad51ac9d5be1deb811c4
     Pseudo is Ultrasoft, Zval =  5.0
     Generated by new atomic code, or converted to UPF format
     Using radial grid of  729 points,  4 beta functions with:
                l(1) =   0
                l(2) =   0
                l(3) =   1
                l(4) =   1
     Q(r) pseudized with  8 coefficients,  rinner =    0.800   0.800   0.800

     PseudoPot. # 4 for C  read from file:
     /storage/coda1/p-amedford6/0/shared/rich_project_chbe-medford/medford-share/data/pseudos_module/espresso/nninc/pbe/van/C.UPF
     MD5 check sum: 1a69bf6b8db32088f5b2163dbdb77a27
     Pseudo is Ultrasoft, Zval =  4.0
     Generated by new atomic code, or converted to UPF format
     Using radial grid of  721 points,  4 beta functions with:
                l(1) =   0
                l(2) =   0
                l(3) =   1
                l(4) =   1
     Q(r) pseudized with  8 coefficients,  rinner =    0.800   0.800   0.800

     PseudoPot. # 5 for H  read from file:
     /storage/coda1/p-amedford6/0/shared/rich_project_chbe-medford/medford-share/data/pseudos_module/espresso/nninc/pbe/van/H.UPF
     MD5 check sum: b5ee9d7bfd3a09ee7748110bda690ff7
     Pseudo is Ultrasoft, Zval =  1.0
     Generated by new atomic code, or converted to UPF format
     Using radial grid of  615 points,  1 beta functions with:
                l(1) =   0
     Q(r) pseudized with  8 coefficients,  rinner =    0.800

     atomic species   valence    mass     pseudopotential
        Ti1           12.00    47.86700     Ti( 1.00)
        O1             6.00    15.99900     O ( 1.00)
        N1             5.00    14.00700     N ( 1.00)
        C1             4.00    12.01100     C ( 1.00)
        H1             1.00     1.00800     H ( 1.00)

     No symmetry found

   Cartesian axes

     site n.     atom                  positions (alat units)
         1           Ti1 tau(   1) = (   0.0004258   2.9801865   6.0000000  )
         2           Ti1 tau(   2) = (   3.2906075   1.4906267   6.0002472  )
         3           O1  tau(   3) = (   0.0006271   0.0005054   7.9858123  )
         4           O1  tau(   4) = (   3.2906025   0.0005020   7.3038282  )
         5           O1  tau(   5) = (   4.5942328   1.4918067   9.2879030  )
         6           O1  tau(   6) = (   1.9868534   1.4903216   9.2879459  )
         7           Ti1 tau(   7) = (   3.2907910   2.8959150   9.1758416  )
         8           Ti1 tau(   8) = (   0.0015273   1.4827037   9.2680791  )
         9           O1  tau(   9) = (   3.3007851   0.0027079  11.3193151  )
        10           O1  tau(  10) = (   0.0116148   5.9584955  10.6183126  )
        11           O1  tau(  11) = (   1.3147357   1.5019762  12.6210215  )
        12           O1  tau(  12) = (   5.3120411   1.4917641  12.6342566  )
        13           Ti1 tau(  13) = (   6.5359925   2.9538565  12.6086018  )
        14           Ti1 tau(  14) = (   3.2189980   1.4905645  12.4770757  )
        15           O1  tau(  15) = (   0.0426301   5.9606301  14.6312846  )
        16           O1  tau(  16) = (   3.3149351   0.0098317  13.8848037  )
        17           O1  tau(  17) = (   4.5523768   1.5206755  16.0744300  )
        18           O1  tau(  18) = (   2.0715852   1.4807026  15.9918588  )
        19           Ti1 tau(  19) = (   3.2935730   2.9941335  15.6827836  )
        20           Ti1 tau(  20) = (   0.0200723   1.3023755  15.9747514  )
        21           O1  tau(  21) = (   3.2904802   0.0005063   4.7018136  )
        22           O1  tau(  22) = (   6.5179923   0.0002674  17.1556216  )
        23           O1  tau(  23) = (   1.3043587   1.4918075   6.0039043  )
        24           O1  tau(  24) = (   5.2767064   1.4903225   6.0039473  )
        25           Ti1 tau(  25) = (   0.0000382   5.9609847   6.0000000  )
        26           Ti1 tau(  26) = (   3.2902200   4.4714249   6.0002472  )
        27           O1  tau(  27) = (   0.0002396   2.9813036   7.9858123  )
        28           O1  tau(  28) = (   3.2902150   2.9813002   7.3038282  )
        29           O1  tau(  29) = (   4.5938453   4.4726049   9.2879030  )
        30           O1  tau(  30) = (   1.9864658   4.4711199   9.2879459  )
        31           Ti1 tau(  31) = (   3.2891106   5.8743827   9.1763621  )
        32           Ti1 tau(  32) = (   0.0006254   4.4649316   9.2693709  )
        33           O1  tau(  33) = (   3.3053585   2.9833221  11.3185053  )
        34           O1  tau(  34) = (   0.0092240   2.9805883  10.6323155  )
        35           O1  tau(  35) = (   1.3157767   4.4721532  12.6203727  )
        36           O1  tau(  36) = (   5.3104355   4.4689601  12.6331991  )
        37           Ti1 tau(  37) = (   6.5385524   5.9338372  12.5465384  )
        38           Ti1 tau(  38) = (   3.2200853   4.4710709  12.4725482  )
        39           O1  tau(  39) = (   0.0068575   2.9964749  14.7765288  )
        40           O1  tau(  40) = (   3.3021705   2.9848394  13.8818356  )
        41           O1  tau(  41) = (   4.5334443   4.4765196  15.9883447  )
        42           O1  tau(  42) = (   2.0816803   4.4801587  16.0471567  )
        43           Ti1 tau(  43) = (   3.3155128   0.0116264  15.6901768  )
        44           Ti1 tau(  44) = (   6.5575601   4.4671909  15.9479714  )
        45           O1  tau(  45) = (   3.2900926   2.9813045   4.7018136  )
        46           O1  tau(  46) = (   1.3039711   4.4726057   6.0039043  )
        47           O1  tau(  47) = (   5.2763189   4.4711207   6.0039473  )
        48           N1  tau(  48) = (   0.4270260   2.3853988  17.9668900  )
        49           C1  tau(  49) = (   0.9469377   1.9340014  19.0683692  )
        50           H1  tau(  50) = (   1.0789317   2.5769861  19.9249762  )
        51           H1  tau(  51) = (   1.2326487   0.8959138  19.0941702  )
        52           N1  tau(  52) = (   0.0025679   3.6232397  17.7996529  )
        53           H1  tau(  53) = (   0.1020252   4.2324666  18.6151602  )

     number of k points=    10  Fermi-Dirac smearing, width (Ry)=  0.0073
                       cart. coord. in units 2pi/alat
        k(    1) = (   0.0000000   0.0000000   0.0000000), wk =   0.1250000
        k(    2) = (   0.0000000   0.0419351   0.0000000), wk =   0.2500000
        k(    3) = (   0.0000000  -0.0838702   0.0000000), wk =   0.1250000
        k(    4) = (   0.0379955   0.0000049   0.0000000), wk =   0.2500000
        k(    5) = (   0.0379955   0.0419400   0.0000000), wk =   0.2500000
        k(    6) = (   0.0379955  -0.0838652   0.0000000), wk =   0.2500000
        k(    7) = (   0.0379955  -0.0419301   0.0000000), wk =   0.2500000
        k(    8) = (  -0.0759910  -0.0000099   0.0000000), wk =   0.1250000
        k(    9) = (  -0.0759910   0.0419252   0.0000000), wk =   0.2500000
        k(   10) = (  -0.0759910  -0.0838800   0.0000000), wk =   0.1250000

     Initial potential from superposition of free atoms

     starting charge  378.99916, renormalised to  395.00000

     negative rho (up, down):  1.648E-02 0.000E+00

     %%%%%%%%%%%%%%%%%%%%%%%%%%%%%%%%%%%%%%%%%%%%%%%%%%%%%%%%%%%%%%%%%%%%%%%%
     %                                                                      %
     % You are using vdW-DF, which was implemented by the Thonhauser group. %
     % Please cite the following two papers that made this development      %
     % possible and the two reviews that describe the various versions:     %
     %                                                                      %
     %   T. Thonhauser et al., PRL 115, 136402 (2015).                      %
     %   T. Thonhauser et al., PRB 76, 125112 (2007).                       %
     %   K. Berland et al., Rep. Prog. Phys. 78, 066501 (2015).             %
     %   D.C. Langreth et al., J. Phys.: Condens. Matter 21, 084203 (2009). %
     %                                                                      %
     %                                                                      %
     % If you are calculating the stress with vdW-DF, please also cite:     %
     %                                                                      %
     %   R. Sabatini et al., J. Phys.: Condens. Matter 24, 424209 (2012).   %
     %                                                                      %
     %%%%%%%%%%%%%%%%%%%%%%%%%%%%%%%%%%%%%%%%%%%%%%%%%%%%%%%%%%%%%%%%%%%%%%%%

     Adding external electric field

     Computed dipole along edir(3) :
        Dipole               -8.4002 Ry au,        -21.3511 Debye
        Dipole field         -0.0159 Ry au,

        Potential amp.        1.4695 Ry
        Total length         46.3494 bohr

     Starting wfcs are  299 atomic wfcs
  @ DRIVER MODE: Message from server: STATUS
  @ DRIVER MODE: Message from server: POSDATA
  @ DRIVER MODE: Reading and sharing cell
  @ DRIVER MODE: Reading and sharing positions
  @ DRIVER MODE: Received positions

     Self-consistent Calculation

     iteration #  1     ecut=    29.40 Ry     beta= 0.05
     Davidson diagonalization with overlap
     c_bands:  2 eigenvalues not converged
     c_bands:  1 eigenvalues not converged
     c_bands:  2 eigenvalues not converged
     c_bands:  3 eigenvalues not converged
     c_bands:  3 eigenvalues not converged
     c_bands:  2 eigenvalues not converged
     c_bands:  1 eigenvalues not converged
     ethr =  1.00E-05,  avg # of iterations = 19.3

[...]

     total energy              =   -2613.94411017 Ry
     estimated scf accuracy    <    3601.42660947 Ry

[...]

     iteration #  3     ecut=    29.40 Ry     beta= 0.05
     Davidson diagonalization with overlap
     ethr =  1.00E-02,  avg # of iterations = 15.0

[...]

     iteration # 60     ecut=    29.40 Ry     beta= 0.05
     Davidson diagonalization with overlap
     c_bands:  2 eigenvalues not converged
     ethr =  5.93E-08,  avg # of iterations = 15.9

[...]

     total energy              =   -2939.13518164 Ry
     estimated scf accuracy    <       0.00000015 Ry

     iteration # 75     ecut=    29.40 Ry     beta= 0.05
     Davidson diagonalization with overlap
     ethr =  3.69E-11,  avg # of iterations =  6.9

     negative rho (up, down):  1.680E-02 0.000E+00

     Adding external electric field

     Computed dipole along edir(3) :
        Dipole                0.7865 Ry au,          1.9990 Debye
        Dipole field          0.0015 Ry au,

        Potential amp.       -0.1376 Ry
        Total length         46.3494 bohr

     End of self-consistent calculation

          k = 0.0000 0.0000 0.0000 ( 18029 PWs)   bands (ev):

   -55.8535 -55.8524 -55.8195 -55.8163 -55.7467 -55.7036 -55.6659 -55.6641
   -55.6309 -55.6301 -55.6253 -55.5917 -55.1911 -55.1452 -54.8292 -54.7952
   -32.4065 -32.3364 -32.2424 -32.1640 -32.1502 -32.1458 -32.1319 -32.1171
   -32.0966 -32.0834 -32.0305 -32.0125 -32.0059 -32.0042 -31.9940 -31.9905
   -31.9584 -31.9464 -31.9405 -31.9378 -31.9109 -31.9084 -31.8927 -31.8905
   -31.8596 -31.8554 -31.8533 -31.8521 -31.8269 -31.8120 -31.8043 -31.7942
   -31.7824 -31.7799 -31.7723 -31.7388 -31.7324 -31.4555 -31.4182 -31.3909
   -31.3387 -31.3034 -31.2361 -31.1484 -31.1260 -31.0531 -30.9666 -30.8553
   -17.8819 -16.6127 -16.3326 -16.0770 -16.0019 -15.9981 -15.8645 -15.7016
   -15.5889 -15.5220 -15.4416 -15.4119 -15.3900 -15.3544 -15.3481 -15.3102
   -15.3014 -15.2759 -15.2725 -15.2102 -15.2066 -15.1993 -15.1895 -15.1055
   -15.0477 -14.9962 -14.9886 -14.9152 -14.8811 -14.3531 -13.3311 -13.2148
   -12.1118  -7.8918  -5.3517  -4.5327  -3.9895  -3.8301  -3.7605  -3.7259
    -3.6488  -3.4897  -3.4108  -3.1261  -3.0773  -3.0244  -3.0151  -2.9786
    -2.9228  -2.7808  -2.7035  -2.6777  -2.6621  -2.6398  -2.6248  -2.6126
    -2.5948  -2.5774  -2.4951  -2.4151  -2.3714  -2.2939  -2.2806  -2.2445
    -2.1662  -2.1655  -2.1256  -2.1050  -2.0863  -2.0705  -2.0620  -2.0469
    -1.9075  -1.8517  -1.8352  -1.6562  -1.6403  -1.5891  -1.4698  -1.4573
    -1.3395  -1.3245  -1.2840  -1.2463  -1.1733  -1.1519  -1.0402  -0.9990
    -0.9373  -0.8897  -0.8753  -0.7994  -0.7349  -0.6993  -0.6849  -0.6181
    -0.6113  -0.5982  -0.4608  -0.3872  -0.3336  -0.2777  -0.2550  -0.1994
    -0.1599  -0.1166  -0.0295  -0.0021   0.0097   0.0675   0.0895   0.1149
     0.1265   0.1463   0.1756   0.2308   0.3489   0.3805   0.4564   0.4708
     0.5315   0.6657   0.8036   0.8710   0.9234   1.0170   1.1241   1.1935
     1.2670   1.3859   1.7637   1.8092   2.1473   3.2662   3.3683   3.4011
     3.4121   3.5152   3.6639   3.7254   3.7406   3.7819   3.8158

[...]

          k = 0.0380-0.0419 0.0000 ( 17876 PWs)   bands (ev):

[...]

          k =-0.0760-0.0000 0.0000 ( 17886 PWs)   bands (ev):

[...]

          k =-0.0760-0.0839 0.0000 ( 17948 PWs)   bands (ev):

   -55.8367 -55.8362 -55.8348 -55.8337 -55.7382 -55.7121 -55.6491 -55.6475
   -55.6473 -55.6464 -55.6092 -55.6079 -55.1832 -55.1530 -54.8122 -54.8121
   -32.2086 -32.2070 -32.1519 -32.1516 -32.1313 -32.1310 -32.0972 -32.0943
   -32.0852 -32.0685 -32.0028 -32.0002 -31.9946 -31.9928 -31.9708 -31.9632
   -31.9564 -31.9559 -31.9506 -31.9495 -31.9475 -31.9359 -31.9302 -31.9234
   -31.9113 -31.9064 -31.8614 -31.8513 -31.8493 -31.8484 -31.8402 -31.8394
   -31.8262 -31.8256 -31.8250 -31.8238 -31.6851 -31.4509 -31.4170 -31.4126
   -31.3945 -31.3396 -31.1387 -31.1386 -31.0489 -31.0488 -31.0099 -31.0099
   -17.8681 -16.0278 -16.0251 -15.8173 -15.7784 -15.7593 -15.7534 -15.6637
   -15.5779 -15.5444 -15.5414 -15.4547 -15.4281 -15.4121 -15.3960 -15.3906
   -15.3815 -15.3521 -15.3170 -15.3095 -15.2954 -15.2898 -15.2777 -15.2209
   -15.1696 -15.1654 -15.1430 -15.0708 -14.8321 -14.6926 -13.3167 -13.3165
   -12.0733  -7.8325  -5.3959  -4.5921  -3.3223  -3.3129  -3.0663  -3.0234
    -3.0168  -2.9788  -2.9507  -2.7906  -2.7780  -2.7587  -2.7507  -2.7061
    -2.6825  -2.6623  -2.6427  -2.6374  -2.6084  -2.5825  -2.5673  -2.5303
    -2.5232  -2.5144  -2.4829  -2.4723  -2.4264  -2.4202  -2.3997  -2.3716
    -2.3626  -2.3295  -2.1762  -2.1077  -2.0795  -1.9951  -1.9882  -1.9511
    -1.9287  -1.9071  -1.9034  -1.8694  -1.8315  -1.6953  -1.6128  -1.5511
    -1.5425  -1.4580  -1.4306  -1.3693  -1.2789  -1.2536  -1.2327  -1.1608
    -1.0846  -1.0470  -0.9968  -0.9824  -0.9151  -0.9067  -0.8490  -0.8119
    -0.8100  -0.7328  -0.7019  -0.6555  -0.6189  -0.6020  -0.5790  -0.5526
    -0.5368  -0.5131  -0.4367  -0.3537  -0.3021  -0.2418  -0.1483  -0.0214
     0.1012   0.2142   0.2359   0.2802   0.3327   0.3667   0.4604   0.4642
     0.5269   0.5507   0.5926   0.6699   0.6812   0.7057   0.8167   0.8474
     1.5581   1.5584   1.6291   1.6293   2.0885   3.5891   3.6180   3.6371
     3.6687   3.7984   3.8043   3.8147   3.8157   3.9512   3.9550

     the Fermi energy is     3.2761 ev

!    total energy              =   -2939.13519226 Ry
     estimated scf accuracy    <       0.00000005 Ry
     smearing contrib. (-TS)   =      -0.02099005 Ry
     internal energy E=F+TS    =   -2939.11420222 Ry

     The total energy is F=E-TS. E is the sum of the following terms:
     one-electron contribution =  -24490.35938753 Ry
     hartree contribution      =   12333.12684767 Ry
     xc contribution           =    -485.36550183 Ry
     ewald contribution        =    9703.48267218 Ry
     electric field correction =       0.00116729 Ry

     convergence has been achieved in  75 iterations

     Forces acting on atoms (cartesian axes, Ry/au):

     atom    1 type  1   force =     0.00008196   -0.00023325    0.09633069
     atom    2 type  1   force =     0.00006218   -0.00057004   -0.17514883
     atom    3 type  2   force =     0.00014946   -0.00013041   -0.02409359
     atom    4 type  2   force =    -0.00000474   -0.00124632    0.05222313
     atom    5 type  2   force =    -0.01057004   -0.00047640    0.00251011
     atom    6 type  2   force =     0.01238559    0.00022493    0.00288523
     atom    7 type  1   force =     0.00098409    0.00026037   -0.01173825
     atom    8 type  1   force =    -0.00013349    0.00774689    0.02263990
     atom    9 type  2   force =    -0.00019998   -0.00015365   -0.00027658
     atom   10 type  2   force =    -0.00262317    0.00115391   -0.01267038
     atom   11 type  2   force =     0.00006416   -0.00012360    0.00004970
     atom   12 type  2   force =     0.00010278    0.00018348   -0.00039258
     atom   13 type  1   force =     0.00043811   -0.00035640    0.00022321
     atom   14 type  1   force =     0.00015008    0.00032959   -0.00015068
     atom   15 type  2   force =    -0.00023792    0.00013598    0.00004481
     atom   16 type  2   force =     0.00011211   -0.00021924    0.00034414
     atom   17 type  2   force =     0.00051161   -0.00001972    0.00032406
     atom   18 type  2   force =     0.00071315   -0.00020509    0.00019015
     atom   19 type  1   force =    -0.00123926   -0.00013830    0.00028957
     atom   20 type  1   force =     0.00044978   -0.00040632   -0.00015102
     atom   21 type  2   force =     0.00004869    0.00000526    0.10310924
     atom   22 type  2   force =     0.00018721   -0.00036442   -0.00001801
     atom   23 type  2   force =    -0.07162523   -0.00014891   -0.02764999
     atom   24 type  2   force =     0.07156562    0.00035171   -0.02771357
     atom   25 type  1   force =     0.00014940   -0.00024272    0.09586894
     atom   26 type  1   force =     0.00009677   -0.00040586   -0.17541407
     atom   27 type  2   force =     0.00017464   -0.00021554   -0.02292523
     atom   28 type  2   force =     0.00006313   -0.00101593    0.05218247
     atom   29 type  2   force =    -0.01086905    0.00048404    0.00243231
     atom   30 type  2   force =     0.01256248    0.00064499    0.00277867
     atom   31 type  1   force =     0.00086943    0.00347576   -0.01291963
     atom   32 type  1   force =     0.00002930   -0.00924966    0.02307074
     atom   33 type  2   force =    -0.00048469    0.00013527    0.00022553
     atom   34 type  2   force =    -0.00302628    0.00022680   -0.01289082
     atom   35 type  2   force =     0.00008912    0.00009038   -0.00008918
     atom   36 type  2   force =     0.00010707    0.00033662   -0.00040204
     atom   37 type  1   force =     0.00033640    0.00036542    0.00006306
     atom   38 type  1   force =     0.00002547   -0.00044330    0.00013933
     atom   39 type  2   force =     0.00014948    0.00043955    0.00056812
     atom   40 type  2   force =     0.00035512    0.00013840   -0.00039442
     atom   41 type  2   force =     0.00050579   -0.00000012    0.00033313
     atom   42 type  2   force =     0.00084896    0.00003006    0.00053463
     atom   43 type  1   force =    -0.00159769   -0.00027353   -0.00029088
     atom   44 type  1   force =     0.00069575   -0.00004762   -0.00113308
     atom   45 type  2   force =     0.00006000   -0.00003802    0.10309399
     atom   46 type  2   force =    -0.07165255   -0.00007420   -0.02766519
     atom   47 type  2   force =     0.07159463    0.00032106   -0.02773444
     atom   48 type  3   force =     0.00467980   -0.00459010    0.01346109
     atom   49 type  4   force =    -0.00833175   -0.00038702   -0.02457375
     atom   50 type  5   force =     0.00013490    0.00562021    0.00852766
     atom   51 type  5   force =     0.00079016   -0.00055258    0.00204254
     atom   52 type  3   force =     0.00061898   -0.00052996   -0.00067804
     atom   53 type  5   force =    -0.00034750    0.00015755    0.00062809

     Total force =     0.367097     Total SCF correction =     0.000353
  @ DRIVER MODE: Message from server: STATUS
  @ DRIVER MODE: Message from server: GETFORCE
  @ DRIVER MODE: Returning v,forces,stress,ensemble

     Writing output data file ./calc.save/
  @ DRIVER MODE: Message from server: EXIT
  @ DRIVE MODE: Exiting

     General routines

     Parallel routines

   This run was terminated on:   1:44:36   9Sep2021

   JOB DONE.