     Program PWSCF v.6.7GPU starts on 22Sep2021 at 22:13:54

     R & G space division:  proc/nbgrp/npool/nimage =      10
     Reading input from /storage/home/hcoda1/3/ntian30/research/carbon/CxH_vib/H2O_calc/ads_slab/CHNHNHHO_b/out_0019/pw.inp
Warning: card &CELL ignored
Warning: card   CELL_DYNAMICS='IPI', ignored
Warning: card / ignored

     Current dimensions of program PWSCF are:
     Max number of different atomic species (ntypx) = 10
     Max number of k-points (npk) =  40000
     Max angular momentum in pseudopotentials (lmaxx) =  3
     Presently no symmetry can be used with electric field

     Message from routine cell_base_init:
     DEPRECATED: use true lattice parameter, not A to a.u. conversion factor

     IMPORTANT: XC functional enforced from input :
     Exchange-correlation= BEEF-VDW
                           (   1   4  43  14   2   0   0)
     Any further DFT definition will be discarded
     Please, verify this is what you really want

  @ DRIVER MODE: Connecting to
 qe_1139763_2937316.sched-torque.pace.gatech.edu_y4okp6n_scratch
  using UNIX socket
  @ DRIVER MODE: Message from server: STATUS
  @ DRIVER MODE: Message from server: INIT
  @ DRIVER MODE: Receiving replica           0          -1
  @ DRIVER MODE: Receiving encoded integer          25
  @ DRIVER MODE:  SCF:  T  FORCE:  T  STRESS:  F  VC:  F  ENSEMBLE:  F
  @ DRIVER MODE:  SCF:  T  FORCE:  T  STRESS:  F  VC:  F  ENSEMBLE:  F

     Using Slab Decomposition

     bravais-lattice index     =            0
     lattice parameter (alat)  =       1.8897  a.u.
     unit-cell volume          =    6658.9804 (a.u.)^3
     number of atoms/cell      =           55
     number of atomic types    =            5
     number of electrons       =       402.00
     number of Kohn-Sham states=          211
     kinetic-energy cutoff     =      29.3995  Ry
     charge density cutoff     =     293.9946  Ry
     scf convergence threshold =      7.3E-08
     mixing beta               =       0.0500
     number of iterations used =            8  plain     mixing
     Exchange-correlation= BEEF-VDW
                           (   1   4  43  14   2   0   0)

     celldm(1)=   1.889726  celldm(2)=   0.000000  celldm(3)=   0.000000
     celldm(4)=   0.000000  celldm(5)=   0.000000  celldm(6)=   0.000000

     crystal axes: (cart. coord. in units of alat)
               a(1) = (   6.579727   0.000000   0.000000 )
               a(2) = (  -0.000775   5.961596   0.000000 )
               a(3) = (   0.000000   0.000000  25.155947 )

     reciprocal axes: (cart. coord. in units 2 pi/alat)
               b(1) = (  0.151982  0.000020  0.000000 )
               b(2) = (  0.000000  0.167740  0.000000 )
               b(3) = (  0.000000  0.000000  0.039752 )

     PseudoPot. # 1 for Ti read from file:
     /storage/coda1/p-amedford6/0/shared/rich_project_chbe-medford/medford-share/data/pseudos_module/espresso/nninc/pbe/van/Ti.UPF
     MD5 check sum: 8e4df49b7f0d34bbd5052bf3f5ea0213
     Pseudo is Ultrasoft, Zval = 12.0
     Generated by new atomic code, or converted to UPF format
     Using radial grid of  851 points,  6 beta functions with:
                l(1) =   0
                l(2) =   0
                l(3) =   1
                l(4) =   1
                l(5) =   2
                l(6) =   2
     Q(r) pseudized with  8 coefficients,  rinner =    1.000   1.000   1.000
                                                       1.000   1.000

     PseudoPot. # 2 for O  read from file:
     /storage/coda1/p-amedford6/0/shared/rich_project_chbe-medford/medford-share/data/pseudos_module/espresso/nninc/pbe/van/O.UPF
     MD5 check sum: 78c19812648e8988a0fe644b0f25305e
     Pseudo is Ultrasoft, Zval =  6.0
     Generated by new atomic code, or converted to UPF format
     Using radial grid of  737 points,  4 beta functions with:
                l(1) =   0
                l(2) =   0
                l(3) =   1
                l(4) =   1
     Q(r) pseudized with  8 coefficients,  rinner =    0.800   0.800   0.800

     PseudoPot. # 3 for N  read from file:
     /storage/coda1/p-amedford6/0/shared/rich_project_chbe-medford/medford-share/data/pseudos_module/espresso/nninc/pbe/van/N.UPF
     MD5 check sum: 90d10febe142ad51ac9d5be1deb811c4
     Pseudo is Ultrasoft, Zval =  5.0
     Generated by new atomic code, or converted to UPF format
     Using radial grid of  729 points,  4 beta functions with:
                l(1) =   0
                l(2) =   0
                l(3) =   1
                l(4) =   1
     Q(r) pseudized with  8 coefficients,  rinner =    0.800   0.800   0.800

     PseudoPot. # 4 for C  read from file:
     /storage/coda1/p-amedford6/0/shared/rich_project_chbe-medford/medford-share/data/pseudos_module/espresso/nninc/pbe/van/C.UPF
     MD5 check sum: 1a69bf6b8db32088f5b2163dbdb77a27
     Pseudo is Ultrasoft, Zval =  4.0
     Generated by new atomic code, or converted to UPF format
     Using radial grid of  721 points,  4 beta functions with:
                l(1) =   0
                l(2) =   0
                l(3) =   1
                l(4) =   1
     Q(r) pseudized with  8 coefficients,  rinner =    0.800   0.800   0.800

     PseudoPot. # 5 for H  read from file:
     /storage/coda1/p-amedford6/0/shared/rich_project_chbe-medford/medford-share/data/pseudos_module/espresso/nninc/pbe/van/H.UPF
     MD5 check sum: b5ee9d7bfd3a09ee7748110bda690ff7
     Pseudo is Ultrasoft, Zval =  1.0
     Generated by new atomic code, or converted to UPF format
     Using radial grid of  615 points,  1 beta functions with:
                l(1) =   0
     Q(r) pseudized with  8 coefficients,  rinner =    0.800

     atomic species   valence    mass     pseudopotential
        Ti1           12.00    47.86700     Ti( 1.00)
        O1             6.00    15.99900     O ( 1.00)
        N1             5.00    14.00700     N ( 1.00)
        C1             4.00    12.01100     C ( 1.00)
        H1             1.00     1.00800     H ( 1.00)

     No symmetry found

   Cartesian axes

     site n.     atom                  positions (alat units)
         1           Ti1 tau(   1) = (   0.0004258   2.9801865   6.0000000  )
         2           Ti1 tau(   2) = (   3.2906075   1.4906267   6.0002472  )
         3           O1  tau(   3) = (   0.0006271   0.0005054   7.9858123  )
         4           O1  tau(   4) = (   3.2906025   0.0005020   7.3038282  )
         5           O1  tau(   5) = (   4.5942328   1.4918067   9.2879030  )
         6           O1  tau(   6) = (   1.9868534   1.4903216   9.2879459  )
         7           Ti1 tau(   7) = (   3.2907910   2.8959150   9.1758416  )
         8           Ti1 tau(   8) = (   0.0015273   1.4827037   9.2680791  )
         9           O1  tau(   9) = (   3.2644249   0.0086278  11.2869930  )
        10           O1  tau(  10) = (   0.0116148   5.9584955  10.6183126  )
        11           O1  tau(  11) = (   1.2700591   1.4733127  12.6309263  )
        12           O1  tau(  12) = (   5.2751843   1.4954020  12.5848179  )
        13           Ti1 tau(  13) = (   6.5455424   3.1153876  12.7101385  )
        14           Ti1 tau(  14) = (   3.2833704   1.6184148  12.4736748  )
        15           O1  tau(  15) = (   6.4599305   0.0050319  14.6091115  )
        16           O1  tau(  16) = (   3.3300269   5.9263713  13.9180617  )
        17           O1  tau(  17) = (   4.5165145   1.5716339  16.0125648  )
        18           O1  tau(  18) = (   1.9127028   1.4417528  15.8564018  )
        19           Ti1 tau(  19) = (   3.2288969   3.0847727  15.7886749  )
        20           Ti1 tau(  20) = (   6.4478006   1.4606891  15.8161894  )
        21           O1  tau(  21) = (   3.2904802   0.0005063   4.7018136  )
        22           O1  tau(  22) = (   6.4882405   0.0114324  17.1415363  )
        23           O1  tau(  23) = (   1.3043587   1.4918075   6.0039043  )
        24           O1  tau(  24) = (   5.2767064   1.4903225   6.0039473  )
        25           Ti1 tau(  25) = (   0.0000382   5.9609847   6.0000000  )
        26           Ti1 tau(  26) = (   3.2902200   4.4714249   6.0002472  )
        27           O1  tau(  27) = (   0.0002396   2.9813036   7.9858123  )
        28           O1  tau(  28) = (   3.2902150   2.9813002   7.3038282  )
        29           O1  tau(  29) = (   4.5938453   4.4726049   9.2879030  )
        30           O1  tau(  30) = (   1.9864658   4.4711199   9.2879459  )
        31           Ti1 tau(  31) = (   3.2891106   5.8743827   9.1763621  )
        32           Ti1 tau(  32) = (   0.0006254   4.4649316   9.2693709  )
        33           O1  tau(  33) = (   3.2692249   2.9538419  11.2423542  )
        34           O1  tau(  34) = (   0.0092240   2.9805883  10.6323155  )
        35           O1  tau(  35) = (   1.2565178   4.4877289  12.6449601  )
        36           O1  tau(  36) = (   5.2732762   4.4628510  12.5929129  )
        37           Ti1 tau(  37) = (   6.5734634   0.1294159  12.5697125  )
        38           Ti1 tau(  38) = (   3.2704022   4.6437612  12.6513646  )
        39           O1  tau(  39) = (   6.5063912   2.9643141  14.6466205  )
        40           O1  tau(  40) = (   3.2471416   2.9787476  13.8564769  )
        41           O1  tau(  41) = (   4.5405411   4.3625105  16.0593999  )
        42           O1  tau(  42) = (   1.9254132   4.5167653  15.8604027  )
        43           Ti1 tau(  43) = (   3.1528194   0.1083906  16.0566338  )
        44           Ti1 tau(  44) = (   6.5270785   4.6226534  15.9816197  )
        45           O1  tau(  45) = (   3.2900926   2.9813045   4.7018136  )
        46           O1  tau(  46) = (   1.3039711   4.4726057   6.0039043  )
        47           O1  tau(  47) = (   5.2763189   4.4711207   6.0039473  )
        48           N1  tau(  48) = (   1.2829970   2.9130689  18.3045482  )
        49           N1  tau(  49) = (   0.1654257   2.9641015  17.4510142  )
        50           C1  tau(  50) = (   2.5260228   2.9473648  17.9488278  )
        51           H1  tau(  51) = (   3.1519500   2.8785295  18.8336233  )
        52           H1  tau(  52) = (   1.0209804   2.8219014  19.2831343  )
        53           H1  tau(  53) = (   5.9303595   2.9248499  18.0583253  )
        54           O1  tau(  54) = (   3.2854906   0.0173217  17.9285145  )
        55           H1  tau(  55) = (   4.1908827   5.7946650  18.2246816  )

     number of k points=    10  Fermi-Dirac smearing, width (Ry)=  0.0073
                       cart. coord. in units 2pi/alat
        k(    1) = (   0.0000000   0.0000000   0.0000000), wk =   0.1250000
        k(    2) = (   0.0000000   0.0419351   0.0000000), wk =   0.2500000
        k(    3) = (   0.0000000  -0.0838702   0.0000000), wk =   0.1250000
        k(    4) = (   0.0379955   0.0000049   0.0000000), wk =   0.2500000
        k(    5) = (   0.0379955   0.0419400   0.0000000), wk =   0.2500000
        k(    6) = (   0.0379955  -0.0838652   0.0000000), wk =   0.2500000
        k(    7) = (   0.0379955  -0.0419301   0.0000000), wk =   0.2500000
        k(    8) = (  -0.0759910  -0.0000099   0.0000000), wk =   0.1250000
        k(    9) = (  -0.0759910   0.0419252   0.0000000), wk =   0.2500000
        k(   10) = (  -0.0759910  -0.0838800   0.0000000), wk =   0.1250000

     Initial potential from superposition of free atoms

     starting charge  385.99915, renormalised to  402.00000

     negative rho (up, down):  1.797E-02 0.000E+00

     %%%%%%%%%%%%%%%%%%%%%%%%%%%%%%%%%%%%%%%%%%%%%%%%%%%%%%%%%%%%%%%%%%%%%%%%
     %                                                                      %
     % You are using vdW-DF, which was implemented by the Thonhauser group. %
     % Please cite the following two papers that made this development      %
     % possible and the two reviews that describe the various versions:     %
     %                                                                      %
     %   T. Thonhauser et al., PRL 115, 136402 (2015).                      %
     %   T. Thonhauser et al., PRB 76, 125112 (2007).                       %
     %   K. Berland et al., Rep. Prog. Phys. 78, 066501 (2015).             %
     %   D.C. Langreth et al., J. Phys.: Condens. Matter 21, 084203 (2009). %
     %                                                                      %
     %                                                                      %
     % If you are calculating the stress with vdW-DF, please also cite:     %
     %                                                                      %
     %   R. Sabatini et al., J. Phys.: Condens. Matter 24, 424209 (2012).   %
     %                                                                      %
     %%%%%%%%%%%%%%%%%%%%%%%%%%%%%%%%%%%%%%%%%%%%%%%%%%%%%%%%%%%%%%%%%%%%%%%%

     Adding external electric field

     Computed dipole along edir(3) :
        Dipole              -10.6951 Ry au,        -27.1842 Debye
        Dipole field         -0.0202 Ry au,

        Potential amp.        1.8709 Ry
        Total length         46.3494 bohr

     Starting wfcs are  304 atomic wfcs
  @ DRIVER MODE: Message from server: STATUS
  @ DRIVER MODE: Message from server: POSDATA
  @ DRIVER MODE: Reading and sharing cell
  @ DRIVER MODE: Reading and sharing positions
  @ DRIVER MODE: Received positions

     Self-consistent Calculation

     iteration #  1     ecut=    29.40 Ry     beta= 0.05
     Davidson diagonalization with overlap
     c_bands:  2 eigenvalues not converged
     c_bands:  4 eigenvalues not converged
     c_bands:  4 eigenvalues not converged
     c_bands:  3 eigenvalues not converged
     c_bands:  3 eigenvalues not converged
     c_bands:  3 eigenvalues not converged
     c_bands:  2 eigenvalues not converged
     c_bands:  4 eigenvalues not converged
     c_bands:  4 eigenvalues not converged
     ethr =  1.00E-05,  avg # of iterations = 21.7

[...]

     total energy              =   -2415.61397494 Ry
     estimated scf accuracy    <    6213.18998101 Ry

     iteration #  2     ecut=    29.40 Ry     beta= 0.05
     Davidson diagonalization with overlap
     ethr =  1.00E-02,  avg # of iterations = 24.5

[...]

     iteration # 46     ecut=    29.40 Ry     beta= 0.05
     Davidson diagonalization with overlap
     c_bands:  1 eigenvalues not converged
     c_bands:  2 eigenvalues not converged
     ethr =  8.51E-07,  avg # of iterations =  6.5

[...]

     total energy              =   -2972.68739825 Ry
     estimated scf accuracy    <       0.00000021 Ry

     iteration # 67     ecut=    29.40 Ry     beta= 0.05
     Davidson diagonalization with overlap
     ethr =  3.41E-11,  avg # of iterations =  5.0

     negative rho (up, down):  1.823E-02 0.000E+00

     Adding external electric field

     Computed dipole along edir(3) :
        Dipole                0.6944 Ry au,          1.7650 Debye
        Dipole field          0.0013 Ry au,

        Potential amp.       -0.1215 Ry
        Total length         46.3494 bohr

     End of self-consistent calculation

          k = 0.0000 0.0000 0.0000 ( 18029 PWs)   bands (ev):

   -56.6068 -56.5733 -55.7183 -55.6846 -55.4148 -55.3710 -55.1430 -55.1091
   -54.9707 -54.9625 -54.9317 -54.8926 -54.8126 -54.7848 -54.7814 -54.7091
   -33.0250 -32.8790 -32.8510 -32.7850 -32.6949 -32.6521 -32.2069 -31.9409
   -31.9029 -31.9015 -31.8652 -31.8537 -31.8287 -31.6439 -31.6344 -31.6069
   -31.5721 -31.5275 -31.5144 -31.4914 -31.4668 -31.4662 -31.4481 -31.3785
   -31.3456 -31.2871 -31.2747 -31.2664 -31.2317 -31.2279 -31.1769 -31.1636
   -31.1547 -31.1125 -31.1075 -31.0942 -31.0685 -31.0615 -31.0601 -31.0227
   -31.0079 -31.0049 -30.9971 -30.9852 -30.9425 -30.9214 -30.9165 -30.9020
   -18.0627 -16.7070 -16.1532 -15.9194 -15.7968 -15.7783 -15.7696 -15.7530
   -15.5603 -15.5103 -15.4071 -15.3291 -15.3055 -15.0726 -15.0471 -14.9754
   -14.8433 -14.8082 -14.7244 -14.6988 -14.6888 -14.6085 -14.5937 -14.5085
   -14.4585 -14.4411 -14.3530 -14.2452 -14.1914 -14.0801 -14.0354 -13.6408
   -13.5343 -12.9645  -8.2637  -6.7814  -4.2809  -3.8349  -3.6184  -3.4605
    -3.2997  -3.2653  -3.1177  -3.0861  -3.0417  -3.0111  -2.9532  -2.9370
    -2.8643  -2.8442  -2.7429  -2.7070  -2.6584  -2.6397  -2.4088  -2.3507
    -2.3146  -2.3125  -2.2085  -2.1332  -2.1106  -2.1060  -2.0366  -1.9663
    -1.9083  -1.8627  -1.8451  -1.8239  -1.8002  -1.7004  -1.6149  -1.6029
    -1.5964  -1.5531  -1.4417  -1.4140  -1.3924  -1.3309  -1.2663  -1.2031
    -1.1737  -1.1511  -1.0521  -1.0418  -0.9383  -0.9106  -0.8749  -0.8202
    -0.7412  -0.7144  -0.5949  -0.5843  -0.4770  -0.4707  -0.4430  -0.4371
    -0.3375  -0.2583  -0.2031  -0.1512  -0.1268  -0.1060  -0.0470  -0.0406
    -0.0036   0.0326   0.1084   0.2009   0.2636   0.2990   0.3416   0.4967
     0.5380   0.5685   0.5824   0.6708   0.7148   0.7366   0.7697   0.8476
     0.8748   0.8779   0.9770   1.0148   1.0543   1.0789   1.1381   1.1750
     1.2033   1.3805   1.4125   1.4341   1.4546   1.5305   1.7635   1.7986
     1.9340   2.6878   2.8611   3.1306   3.2872   3.6537   3.6735   3.6918
     3.6930   3.9714   4.1415

[...]

          k = 0.0380-0.0419 0.0000 ( 17876 PWs)   bands (ev):

[...]

          k =-0.0760-0.0000 0.0000 ( 17886 PWs)   bands (ev):

[...]

          k =-0.0760-0.0839 0.0000 ( 17948 PWs)   bands (ev):

   -56.5902 -56.5897 -55.7031 -55.6996 -55.4068 -55.3789 -55.1260 -55.1260
   -54.9688 -54.9582 -54.9300 -54.8969 -54.8099 -54.7859 -54.7835 -54.7118
   -32.8650 -32.8646 -32.8427 -32.8418 -32.7386 -32.7386 -32.0297 -32.0255
   -31.9004 -31.8926 -31.8769 -31.8760 -31.7197 -31.6982 -31.6317 -31.6237
   -31.6054 -31.6003 -31.4799 -31.4799 -31.3844 -31.3452 -31.3448 -31.3066
   -31.3061 -31.2906 -31.2697 -31.2452 -31.2218 -31.2073 -31.1945 -31.1883
   -31.1717 -31.1460 -31.1441 -31.1322 -31.1181 -31.0994 -31.0783 -31.0614
   -31.0495 -31.0396 -31.0248 -31.0141 -31.0083 -30.9611 -30.9215 -30.9102
   -18.0576 -16.0717 -16.0687 -16.0170 -16.0163 -15.7692 -15.7617 -15.7013
   -15.4586 -15.4532 -15.2654 -15.1529 -15.1306 -15.0726 -15.0687 -14.9360
   -14.9162 -14.8980 -14.8100 -14.7597 -14.7268 -14.7047 -14.6407 -14.5716
   -14.4608 -14.4427 -14.4292 -14.3932 -14.3376 -14.2433 -14.2057 -13.6392
   -13.6382 -12.9853  -8.2555  -6.7013  -3.9862  -3.2932  -3.1353  -3.1343
    -3.1336  -3.1124  -2.9080  -2.8925  -2.8847  -2.7141  -2.6208  -2.6151
    -2.6113  -2.4741  -2.4420  -2.4295  -2.4169  -2.3992  -2.3275  -2.3132
    -2.3092  -2.2741  -2.2510  -2.0969  -2.0887  -2.0398  -1.9716  -1.9621
    -1.9396  -1.9057  -1.8411  -1.8034  -1.7985  -1.7814  -1.7636  -1.7435
    -1.6982  -1.6466  -1.4476  -1.3997  -1.3833  -1.3636  -1.3182  -1.3098
    -1.2905  -1.2326  -1.1947  -1.1855  -1.1604  -1.1330  -1.0609  -1.0408
    -0.9947  -0.8625  -0.8142  -0.7863  -0.7502  -0.6581  -0.6180  -0.5891
    -0.5563  -0.4695  -0.4122  -0.3793  -0.3017  -0.2638  -0.2184  -0.1931
    -0.1695  -0.1241  -0.1040   0.0028   0.0589   0.0905   0.1135   0.1989
     0.3284   0.3443   0.3982   0.4467   0.5393   0.5782   0.6558   0.6983
     0.7810   0.8589   0.9297   1.0802   1.1154   1.1713   1.2377   1.2546
     1.2563   1.2853   1.2960   1.3400   1.3616   1.4459   1.5203   1.6757
     1.7013   3.2827   3.2841   3.3417   3.3452   3.6506   3.6568   3.7595
     3.7666   4.0778   4.1280

     the Fermi energy is     2.3643 ev

!    total energy              =   -2972.68743651 Ry
     estimated scf accuracy    <       0.00000005 Ry
     smearing contrib. (-TS)   =      -0.00151455 Ry
     internal energy E=F+TS    =   -2972.68592196 Ry

     The total energy is F=E-TS. E is the sum of the following terms:
     one-electron contribution =  -24519.64208154 Ry
     hartree contribution      =   12356.11703204 Ry
     xc contribution           =    -493.19589983 Ry
     ewald contribution        =    9684.03411744 Ry
     electric field correction =       0.00090993 Ry

     convergence has been achieved in  67 iterations

     Forces acting on atoms (cartesian axes, Ry/au):

     atom    1 type  1   force =     0.00015615   -0.00061370    0.12522943
     atom    2 type  1   force =     0.00002312    0.00002943   -0.15410540
     atom    3 type  2   force =    -0.00002974   -0.00028293   -0.06550944
     atom    4 type  2   force =    -0.00011438    0.00074322    0.01448071
     atom    5 type  2   force =     0.00022984   -0.00325816   -0.01521327
     atom    6 type  2   force =     0.00028032   -0.00242232   -0.01817547
     atom    7 type  1   force =    -0.00129919   -0.00082192    0.06318763
     atom    8 type  1   force =     0.00165189    0.01846931    0.09185533
     atom    9 type  2   force =     0.00018278   -0.00019775   -0.00008945
     atom   10 type  2   force =    -0.00307614    0.00126107   -0.06787121
     atom   11 type  2   force =    -0.00035450   -0.00020567   -0.00022546
     atom   12 type  2   force =    -0.00029084    0.00043078    0.00014722
     atom   13 type  1   force =     0.00101936    0.00024332   -0.00001001
     atom   14 type  1   force =    -0.00051136    0.00059714   -0.00058458
     atom   15 type  2   force =    -0.00003622    0.00062848    0.00011428
     atom   16 type  2   force =     0.00007983    0.00018345   -0.00022722
     atom   17 type  2   force =    -0.00031249    0.00018850   -0.00019457
     atom   18 type  2   force =     0.00087481   -0.00060292    0.00003581
     atom   19 type  1   force =    -0.00027863   -0.00033033   -0.00019501
     atom   20 type  1   force =     0.00061659   -0.00032649   -0.00017238
     atom   21 type  2   force =     0.00008240    0.00005007    0.09750264
     atom   22 type  2   force =    -0.00021818    0.00022072    0.00041391
     atom   23 type  2   force =    -0.08326501    0.00000980   -0.03310697
     atom   24 type  2   force =     0.08317562    0.00045298   -0.03312809
     atom   25 type  1   force =     0.00014461   -0.00036419    0.12545311
     atom   26 type  1   force =    -0.00001989   -0.00122755   -0.15379012
     atom   27 type  2   force =    -0.00002184   -0.00014901   -0.06359416
     atom   28 type  2   force =     0.00000124    0.00070993    0.01023471
     atom   29 type  2   force =    -0.00228210    0.00251069   -0.01350676
     atom   30 type  2   force =     0.00266695    0.00282658   -0.01638855
     atom   31 type  1   force =    -0.00126545   -0.00143272    0.06111257
     atom   32 type  1   force =     0.00157715   -0.01942360    0.09390661
     atom   33 type  2   force =     0.00026009    0.00000116   -0.00020946
     atom   34 type  2   force =    -0.00076087    0.00124395   -0.07929428
     atom   35 type  2   force =     0.00029049   -0.00002743    0.00008257
     atom   36 type  2   force =    -0.00053324    0.00016357    0.00039792
     atom   37 type  1   force =     0.00094464    0.00012203    0.00038808
     atom   38 type  1   force =    -0.00055864   -0.00026173   -0.00005118
     atom   39 type  2   force =     0.00033792    0.00013694   -0.00007498
     atom   40 type  2   force =    -0.00013191    0.00011688    0.00046204
     atom   41 type  2   force =    -0.00026700   -0.00007001   -0.00045697
     atom   42 type  2   force =     0.00055195   -0.00028606    0.00025517
     atom   43 type  1   force =    -0.00099798   -0.00038603   -0.00050862
     atom   44 type  1   force =     0.00029774    0.00082287   -0.00018200
     atom   45 type  2   force =     0.00007122    0.00005856    0.09736065
     atom   46 type  2   force =    -0.08320600   -0.00003457   -0.03309142
     atom   47 type  2   force =     0.08315323    0.00038088   -0.03309617
     atom   48 type  3   force =    -0.00100592   -0.00004717   -0.00115017
     atom   49 type  3   force =     0.00041601   -0.00012293    0.00058694
     atom   50 type  4   force =    -0.00399588    0.00005653   -0.00384508
     atom   51 type  5   force =     0.00556783   -0.00062160    0.00474204
     atom   52 type  5   force =     0.00019326   -0.00013501   -0.00062633
     atom   53 type  5   force =    -0.00036649   -0.00025384    0.00025175
     atom   54 type  2   force =     0.00008318    0.00047200    0.00059313
     atom   55 type  5   force =     0.00026972    0.00077479   -0.00011949

     Total force =     0.419893     Total SCF correction =     0.000481
  @ DRIVER MODE: Message from server: STATUS
  @ DRIVER MODE: Message from server: GETFORCE
  @ DRIVER MODE: Returning v,forces,stress,ensemble

     Writing output data file ./calc.save/
  @ DRIVER MODE: Message from server: EXIT
  @ DRIVE MODE: Exiting

     General routines

     Parallel routines

   This run was terminated on:  22:33:19  22Sep2021

   JOB DONE.