     Program PWSCF v.6.7GPU starts on 22Sep2021 at 20:54: 9

     R & G space division:  proc/nbgrp/npool/nimage =      10
     Reading input from /storage/home/hcoda1/3/ntian30/research/carbon/CxH_vib/H2O_calc/ads_slab/CH3NNH3HO_a/out_0013/pw.inp
Warning: card &CELL ignored
Warning: card   CELL_DYNAMICS='IPI', ignored
Warning: card / ignored

     Current dimensions of program PWSCF are:
     Max number of different atomic species (ntypx) = 10
     Max number of k-points (npk) =  40000
     Max angular momentum in pseudopotentials (lmaxx) =  3
     Presently no symmetry can be used with electric field

     Message from routine cell_base_init:
     DEPRECATED: use true lattice parameter, not A to a.u. conversion factor

     IMPORTANT: XC functional enforced from input :
     Exchange-correlation= BEEF-VDW
                           (   1   4  43  14   2   0   0)
     Any further DFT definition will be discarded
     Please, verify this is what you really want

  @ DRIVER MODE: Connecting to
 qe_1139763_2937318.sched-torque.pace.gatech.edu0d9rkeyn_scratch
  using UNIX socket
  @ DRIVER MODE: Message from server: STATUS
  @ DRIVER MODE: Message from server: INIT
  @ DRIVER MODE: Receiving replica           0          -1
  @ DRIVER MODE: Receiving encoded integer          25
  @ DRIVER MODE:  SCF:  T  FORCE:  T  STRESS:  F  VC:  F  ENSEMBLE:  F
  @ DRIVER MODE:  SCF:  T  FORCE:  T  STRESS:  F  VC:  F  ENSEMBLE:  F

     Using Slab Decomposition

     bravais-lattice index     =            0
     lattice parameter (alat)  =       1.8897  a.u.
     unit-cell volume          =    6658.9804 (a.u.)^3
     number of atoms/cell      =           58
     number of atomic types    =            5
     number of electrons       =       405.00
     number of Kohn-Sham states=          212
     kinetic-energy cutoff     =      29.3995  Ry
     charge density cutoff     =     293.9946  Ry
     scf convergence threshold =      7.3E-08
     mixing beta               =       0.0500
     number of iterations used =            8  plain     mixing
     Exchange-correlation= BEEF-VDW
                           (   1   4  43  14   2   0   0)

     celldm(1)=   1.889726  celldm(2)=   0.000000  celldm(3)=   0.000000
     celldm(4)=   0.000000  celldm(5)=   0.000000  celldm(6)=   0.000000

     crystal axes: (cart. coord. in units of alat)
               a(1) = (   6.579727   0.000000   0.000000 )
               a(2) = (  -0.000775   5.961596   0.000000 )
               a(3) = (   0.000000   0.000000  25.155947 )

     reciprocal axes: (cart. coord. in units 2 pi/alat)
               b(1) = (  0.151982  0.000020  0.000000 )
               b(2) = (  0.000000  0.167740  0.000000 )
               b(3) = (  0.000000  0.000000  0.039752 )

     PseudoPot. # 1 for Ti read from file:
     /storage/coda1/p-amedford6/0/shared/rich_project_chbe-medford/medford-share/data/pseudos_module/espresso/nninc/pbe/van/Ti.UPF
     MD5 check sum: 8e4df49b7f0d34bbd5052bf3f5ea0213
     Pseudo is Ultrasoft, Zval = 12.0
     Generated by new atomic code, or converted to UPF format
     Using radial grid of  851 points,  6 beta functions with:
                l(1) =   0
                l(2) =   0
                l(3) =   1
                l(4) =   1
                l(5) =   2
                l(6) =   2
     Q(r) pseudized with  8 coefficients,  rinner =    1.000   1.000   1.000
                                                       1.000   1.000

     PseudoPot. # 2 for O  read from file:
     /storage/coda1/p-amedford6/0/shared/rich_project_chbe-medford/medford-share/data/pseudos_module/espresso/nninc/pbe/van/O.UPF
     MD5 check sum: 78c19812648e8988a0fe644b0f25305e
     Pseudo is Ultrasoft, Zval =  6.0
     Generated by new atomic code, or converted to UPF format
     Using radial grid of  737 points,  4 beta functions with:
                l(1) =   0
                l(2) =   0
                l(3) =   1
                l(4) =   1
     Q(r) pseudized with  8 coefficients,  rinner =    0.800   0.800   0.800

     PseudoPot. # 3 for N  read from file:
     /storage/coda1/p-amedford6/0/shared/rich_project_chbe-medford/medford-share/data/pseudos_module/espresso/nninc/pbe/van/N.UPF
     MD5 check sum: 90d10febe142ad51ac9d5be1deb811c4
     Pseudo is Ultrasoft, Zval =  5.0
     Generated by new atomic code, or converted to UPF format
     Using radial grid of  729 points,  4 beta functions with:
                l(1) =   0
                l(2) =   0
                l(3) =   1
                l(4) =   1
     Q(r) pseudized with  8 coefficients,  rinner =    0.800   0.800   0.800

     PseudoPot. # 4 for C  read from file:
     /storage/coda1/p-amedford6/0/shared/rich_project_chbe-medford/medford-share/data/pseudos_module/espresso/nninc/pbe/van/C.UPF
     MD5 check sum: 1a69bf6b8db32088f5b2163dbdb77a27
     Pseudo is Ultrasoft, Zval =  4.0
     Generated by new atomic code, or converted to UPF format
     Using radial grid of  721 points,  4 beta functions with:
                l(1) =   0
                l(2) =   0
                l(3) =   1
                l(4) =   1
     Q(r) pseudized with  8 coefficients,  rinner =    0.800   0.800   0.800

     PseudoPot. # 5 for H  read from file:
     /storage/coda1/p-amedford6/0/shared/rich_project_chbe-medford/medford-share/data/pseudos_module/espresso/nninc/pbe/van/H.UPF
     MD5 check sum: b5ee9d7bfd3a09ee7748110bda690ff7
     Pseudo is Ultrasoft, Zval =  1.0
     Generated by new atomic code, or converted to UPF format
     Using radial grid of  615 points,  1 beta functions with:
                l(1) =   0
     Q(r) pseudized with  8 coefficients,  rinner =    0.800

     atomic species   valence    mass     pseudopotential
        Ti1           12.00    47.86700     Ti( 1.00)
        O1             6.00    15.99900     O ( 1.00)
        N1             5.00    14.00700     N ( 1.00)
        C1             4.00    12.01100     C ( 1.00)
        H1             1.00     1.00800     H ( 1.00)

     No symmetry found

   Cartesian axes

     site n.     atom                  positions (alat units)
         1           Ti1 tau(   1) = (   0.0004258   2.9801865   6.0000000  )
         2           Ti1 tau(   2) = (   3.2906075   1.4906267   6.0002472  )
         3           O1  tau(   3) = (   0.0006271   0.0005054   7.9858123  )
         4           O1  tau(   4) = (   3.2906025   0.0005020   7.3038282  )
         5           O1  tau(   5) = (   4.5942328   1.4918067   9.2879030  )
         6           O1  tau(   6) = (   1.9868534   1.4903216   9.2879459  )
         7           Ti1 tau(   7) = (   3.2907910   2.8959150   9.1758416  )
         8           Ti1 tau(   8) = (   0.0015273   1.4827037   9.2680791  )
         9           O1  tau(   9) = (   3.2949357   5.9297256  11.2770696  )
        10           O1  tau(  10) = (   0.0116148   5.9584955  10.6183126  )
        11           O1  tau(  11) = (   1.2901270   1.4659759  12.6218969  )
        12           O1  tau(  12) = (   5.3029181   1.4690452  12.6271982  )
        13           Ti1 tau(  13) = (   6.5637346   3.0486055  12.7052252  )
        14           Ti1 tau(  14) = (   3.3207578   1.2909511  12.6638180  )
        15           O1  tau(  15) = (   0.0081040   5.9567798  14.6379979  )
        16           O1  tau(  16) = (   3.2944190   0.0149942  13.8863584  )
        17           O1  tau(  17) = (   4.5334936   1.5584448  16.0391558  )
        18           O1  tau(  18) = (   2.0244848   1.5379376  16.0854781  )
        19           Ti1 tau(  19) = (   3.2579824   3.0118882  15.6538344  )
        20           Ti1 tau(  20) = (   6.4918182   1.5199401  15.8876453  )
        21           O1  tau(  21) = (   3.2904802   0.0005063   4.7018136  )
        22           O1  tau(  22) = (   6.5166677   0.0216046  17.1949088  )
        23           O1  tau(  23) = (   1.3043587   1.4918075   6.0039043  )
        24           O1  tau(  24) = (   5.2767064   1.4903225   6.0039473  )
        25           Ti1 tau(  25) = (   0.0000382   5.9609847   6.0000000  )
        26           Ti1 tau(  26) = (   3.2902200   4.4714249   6.0002472  )
        27           O1  tau(  27) = (   0.0002396   2.9813036   7.9858123  )
        28           O1  tau(  28) = (   3.2902150   2.9813002   7.3038282  )
        29           O1  tau(  29) = (   4.5938453   4.4726049   9.2879030  )
        30           O1  tau(  30) = (   1.9864658   4.4711199   9.2879459  )
        31           Ti1 tau(  31) = (   3.2891106   5.8743827   9.1763621  )
        32           Ti1 tau(  32) = (   0.0006254   4.4649316   9.2693709  )
        33           O1  tau(  33) = (   3.2959121   3.0085915  11.2438341  )
        34           O1  tau(  34) = (   0.0092240   2.9805883  10.6323155  )
        35           O1  tau(  35) = (   1.2849535   4.4488585  12.6204231  )
        36           O1  tau(  36) = (   5.2878833   4.4365118  12.6243745  )
        37           Ti1 tau(  37) = (   0.0500071   0.0677371  12.6535751  )
        38           Ti1 tau(  38) = (   3.3027700   4.3871210  12.4110406  )
        39           O1  tau(  39) = (   6.5685058   2.9535060  14.6525041  )
        40           O1  tau(  40) = (   3.2696111   2.9719761  13.8704823  )
        41           O1  tau(  41) = (   4.5209813   4.4409030  16.0696701  )
        42           O1  tau(  42) = (   2.0131998   4.4599944  16.0916020  )
        43           Ti1 tau(  43) = (   3.2138439   0.0230873  16.3295100  )
        44           Ti1 tau(  44) = (   6.5234412   4.6200706  16.0754176  )
        45           O1  tau(  45) = (   3.2900926   2.9813045   4.7018136  )
        46           O1  tau(  46) = (   1.3039711   4.4726057   6.0039043  )
        47           O1  tau(  47) = (   5.2763189   4.4711207   6.0039473  )
        48           N1  tau(  48) = (   0.0251376   2.9556585  17.3246074  )
        49           N1  tau(  49) = (   6.3772498   2.5461882  22.2688425  )
        50           C1  tau(  50) = (   0.2011848   2.8484408  18.7116211  )
        51           H1  tau(  51) = (   0.3920758   3.8074029  19.2116250  )
        52           H1  tau(  52) = (   5.9044209   2.3708277  19.1722604  )
        53           H1  tau(  53) = (   1.0233575   2.1342068  18.9364007  )
        54           H1  tau(  54) = (   6.0930523   3.2289774  22.9628454  )
        55           H1  tau(  55) = (   0.2277240   1.7755739  22.7685771  )
        56           H1  tau(  56) = (   0.5282093   2.9785696  21.7129995  )
        57           O1  tau(  57) = (   3.3838229   0.0530270  18.1522483  )
        58           H1  tau(  58) = (   4.2718821   5.8932998  18.5223319  )

     number of k points=    10  Fermi-Dirac smearing, width (Ry)=  0.0073
                       cart. coord. in units 2pi/alat
        k(    1) = (   0.0000000   0.0000000   0.0000000), wk =   0.1250000
        k(    2) = (   0.0000000   0.0419351   0.0000000), wk =   0.2500000
        k(    3) = (   0.0000000  -0.0838702   0.0000000), wk =   0.1250000
        k(    4) = (   0.0379955   0.0000049   0.0000000), wk =   0.2500000
        k(    5) = (   0.0379955   0.0419400   0.0000000), wk =   0.2500000
        k(    6) = (   0.0379955  -0.0838652   0.0000000), wk =   0.2500000
        k(    7) = (   0.0379955  -0.0419301   0.0000000), wk =   0.2500000
        k(    8) = (  -0.0759910  -0.0000099   0.0000000), wk =   0.1250000
        k(    9) = (  -0.0759910   0.0419252   0.0000000), wk =   0.2500000
        k(   10) = (  -0.0759910  -0.0838800   0.0000000), wk =   0.1250000

     Initial potential from superposition of free atoms

     starting charge  388.99913, renormalised to  405.00000

     negative rho (up, down):  7.828E-03 0.000E+00

     %%%%%%%%%%%%%%%%%%%%%%%%%%%%%%%%%%%%%%%%%%%%%%%%%%%%%%%%%%%%%%%%%%%%%%%%
     %                                                                      %
     % You are using vdW-DF, which was implemented by the Thonhauser group. %
     % Please cite the following two papers that made this development      %
     % possible and the two reviews that describe the various versions:     %
     %                                                                      %
     %   T. Thonhauser et al., PRL 115, 136402 (2015).                      %
     %   T. Thonhauser et al., PRB 76, 125112 (2007).                       %
     %   K. Berland et al., Rep. Prog. Phys. 78, 066501 (2015).             %
     %   D.C. Langreth et al., J. Phys.: Condens. Matter 21, 084203 (2009). %
     %                                                                      %
     %                                                                      %
     % If you are calculating the stress with vdW-DF, please also cite:     %
     %                                                                      %
     %   R. Sabatini et al., J. Phys.: Condens. Matter 24, 424209 (2012).   %
     %                                                                      %
     %%%%%%%%%%%%%%%%%%%%%%%%%%%%%%%%%%%%%%%%%%%%%%%%%%%%%%%%%%%%%%%%%%%%%%%%

     Adding external electric field

     Computed dipole along edir(3) :
        Dipole              -15.1933 Ry au,        -38.6176 Debye
        Dipole field         -0.0287 Ry au,

        Potential amp.        2.6578 Ry
        Total length         46.3494 bohr

     Starting wfcs are  307 atomic wfcs
  @ DRIVER MODE: Message from server: STATUS
  @ DRIVER MODE: Message from server: POSDATA
  @ DRIVER MODE: Reading and sharing cell
  @ DRIVER MODE: Reading and sharing positions
  @ DRIVER MODE: Received positions

     Self-consistent Calculation

     iteration #  1     ecut=    29.40 Ry     beta= 0.05
     Davidson diagonalization with overlap
     c_bands:  4 eigenvalues not converged
     c_bands:  1 eigenvalues not converged
     c_bands:  1 eigenvalues not converged
     c_bands:  2 eigenvalues not converged
     c_bands:  1 eigenvalues not converged
     c_bands:  2 eigenvalues not converged
     ethr =  1.00E-05,  avg # of iterations = 31.5

[...]

     total energy              =   -2295.08500873 Ry
     estimated scf accuracy    <    7743.57120908 Ry

     iteration #  2     ecut=    29.40 Ry     beta= 0.05
     Davidson diagonalization with overlap
     ethr =  1.00E-02,  avg # of iterations = 22.5

[...]

     iteration # 50     ecut=    29.40 Ry     beta= 0.05
     Davidson diagonalization with overlap
     c_bands:  1 eigenvalues not converged
     ethr =  5.36E-07,  avg # of iterations =  7.1

[...]

     total energy              =   -2976.42338576 Ry
     estimated scf accuracy    <       0.00000008 Ry

     iteration # 80     ecut=    29.40 Ry     beta= 0.05
     Davidson diagonalization with overlap
     ethr =  2.05E-11,  avg # of iterations =  4.2

     negative rho (up, down):  9.592E-03 0.000E+00

     Adding external electric field

     Computed dipole along edir(3) :
        Dipole                0.6321 Ry au,          1.6067 Debye
        Dipole field          0.0012 Ry au,

        Potential amp.       -0.1106 Ry
        Total length         46.3494 bohr

     End of self-consistent calculation

          k = 0.0000 0.0000 0.0000 ( 18029 PWs)   bands (ev):

   -56.5678 -56.5342 -55.6434 -55.6082 -55.4274 -55.3609 -55.2319 -55.1189
   -55.0850 -55.0370 -55.0051 -54.9706 -54.9126 -54.8187 -54.7476 -54.6147
   -32.9865 -32.8383 -32.8102 -32.7473 -32.6571 -32.6136 -32.1251 -31.9023
   -31.8636 -31.8421 -31.7876 -31.7797 -31.7544 -31.6608 -31.6405 -31.5959
   -31.5640 -31.5476 -31.5243 -31.5119 -31.5059 -31.4965 -31.4660 -31.4638
   -31.4415 -31.4224 -31.3572 -31.3228 -31.3004 -31.2941 -31.2425 -31.2346
   -31.2176 -31.1959 -31.1834 -31.1682 -31.1610 -31.1311 -31.1253 -31.0935
   -31.0491 -31.0047 -31.0037 -30.9826 -30.9497 -30.8889 -30.8523 -30.8019
   -16.6711 -16.1129 -16.0883 -15.8844 -15.7618 -15.7564 -15.7133 -15.6442
   -15.4754 -15.4064 -15.3780 -15.3170 -15.1725 -15.0570 -14.9598 -14.7795
   -14.7061 -14.7009 -14.6822 -14.6740 -14.6576 -14.6368 -14.5778 -14.5194
   -14.4769 -14.4118 -14.3683 -14.2224 -14.0214 -13.9965 -13.9470 -13.6163
   -13.5122 -13.5093  -7.7350  -4.2466  -4.0269  -4.0077  -3.6987  -3.5796
    -3.4070  -3.2545  -3.1923  -3.1451  -3.0866  -3.0766  -2.9321  -2.9282
    -2.9195  -2.9120  -2.8311  -2.7709  -2.7076  -2.6205  -2.6049  -2.5102
    -2.4636  -2.3043  -2.2778  -2.1773  -2.1051  -2.0996  -2.0336  -2.0103
    -1.9633  -1.9193  -1.9080  -1.8740  -1.8307  -1.7836  -1.7657  -1.6542
    -1.6462  -1.5817  -1.5754  -1.5520  -1.4384  -1.4191  -1.3490  -1.2035
    -1.1825  -1.1790  -1.1322  -1.1146  -1.0331  -0.9364  -0.8699  -0.8431
    -0.7873  -0.6984  -0.6515  -0.6303  -0.5574  -0.5380  -0.4642  -0.4195
    -0.4076  -0.3870  -0.3444  -0.2306  -0.1437  -0.1108  -0.0569  -0.0314
     0.0011   0.0293   0.0477   0.0963   0.1659   0.2520   0.2723   0.4115
     0.4642   0.5007   0.5757   0.6100   0.6166   0.7062   0.7371   0.7668
     0.8132   0.8879   0.9024   0.9035   0.9625   1.0465   1.1015   1.1598
     1.1662   1.2015   1.2097   1.2607   1.3491   1.3695   1.4387   1.4937
     1.8218   1.8806   2.4817   2.7266   2.8981   3.1749   3.3670   3.6705
     3.7126   3.7304   3.7305   4.0367

[...]

          k = 0.0380-0.0419 0.0000 ( 17876 PWs)   bands (ev):

[...]

          k =-0.0760-0.0000 0.0000 ( 17886 PWs)   bands (ev):

[...]

          k =-0.0760-0.0839 0.0000 ( 17948 PWs)   bands (ev):

   -56.5516 -56.5503 -55.6309 -55.6205 -55.4228 -55.3655 -55.2310 -55.1025
   -55.1013 -55.0322 -55.0057 -54.9752 -54.9110 -54.8173 -54.7491 -54.6160
   -32.8248 -32.8233 -32.8044 -32.8031 -32.7013 -32.7002 -31.9497 -31.9405
   -31.8254 -31.8202 -31.8142 -31.8125 -31.7222 -31.6793 -31.6540 -31.6410
   -31.5913 -31.5896 -31.5028 -31.4756 -31.4658 -31.4550 -31.4541 -31.3712
   -31.3519 -31.3226 -31.3211 -31.3033 -31.2962 -31.2863 -31.2827 -31.2822
   -31.2537 -31.2347 -31.2167 -31.2019 -31.1979 -31.1601 -31.1598 -31.1039
   -31.0927 -31.0521 -31.0085 -30.9968 -30.9603 -30.9544 -30.8544 -30.8372
   -16.0761 -16.0296 -16.0277 -15.9842 -15.9827 -15.7208 -15.7164 -15.4659
   -15.4366 -15.2570 -15.1532 -15.1292 -15.0858 -15.0441 -14.9727 -14.9182
   -14.8890 -14.8564 -14.8307 -14.7689 -14.7392 -14.6345 -14.6017 -14.5543
   -14.5179 -14.4559 -14.4150 -14.3661 -14.1777 -14.1349 -13.9463 -13.6139
   -13.6133 -13.5373  -7.7341  -4.0375  -4.0078  -3.6893  -3.1509  -3.1056
    -3.1012  -3.0687  -3.0615  -2.9769  -2.8549  -2.8520  -2.7612  -2.6496
    -2.6231  -2.6001  -2.5396  -2.5306  -2.4301  -2.3805  -2.3757  -2.3612
    -2.3248  -2.2953  -2.2889  -2.2288  -2.0901  -2.0738  -2.0251  -1.9712
    -1.8969  -1.8878  -1.8792  -1.8419  -1.8004  -1.7749  -1.7637  -1.7367
    -1.7320  -1.7275  -1.6164  -1.5127  -1.4657  -1.3723  -1.3680  -1.3591
    -1.3212  -1.2942  -1.2607  -1.2544  -1.2255  -1.1456  -1.1194  -1.0494
    -0.9369  -0.9168  -0.8759  -0.8275  -0.7240  -0.7052  -0.6159  -0.5796
    -0.5682  -0.5080  -0.4798  -0.4640  -0.4056  -0.3659  -0.2344  -0.1948
    -0.1829  -0.1663  -0.1439  -0.1075  -0.0458   0.0153   0.0467   0.0486
     0.1532   0.2530   0.3419   0.4100   0.4193   0.4436   0.5294   0.6348
     0.6756   0.7002   0.7485   0.8723   0.9903   1.0196   1.1267   1.1533
     1.1625   1.2614   1.2790   1.2841   1.3042   1.3133   1.3489   1.4150
     1.4758   1.7667   2.3141   3.3191   3.3223   3.3804   3.3860   3.6968
     3.6991   3.8104   3.8155   4.1424

     the Fermi energy is     2.3914 ev

!    total energy              =   -2976.42339900 Ry
     estimated scf accuracy    <       0.00000005 Ry
     smearing contrib. (-TS)   =      -0.01084780 Ry
     internal energy E=F+TS    =   -2976.41255119 Ry

     The total energy is F=E-TS. E is the sum of the following terms:
     one-electron contribution =  -22707.52721560 Ry
     hartree contribution      =   11450.10157214 Ry
     xc contribution           =    -495.34377122 Ry
     ewald contribution        =    8776.35610944 Ry
     electric field correction =       0.00075403 Ry

     convergence has been achieved in  80 iterations

     Forces acting on atoms (cartesian axes, Ry/au):

     atom    1 type  1   force =     0.00002114   -0.00051745    0.12632576
     atom    2 type  1   force =    -0.00009303    0.00041225   -0.15469692
     atom    3 type  2   force =     0.00002692    0.00002651   -0.06831458
     atom    4 type  2   force =     0.00005843   -0.00010808    0.01704593
     atom    5 type  2   force =    -0.00487430   -0.00242622   -0.01324122
     atom    6 type  2   force =     0.00655625   -0.00180469   -0.01375973
     atom    7 type  1   force =    -0.00029629   -0.00661521    0.05922280
     atom    8 type  1   force =     0.00038387    0.00687204    0.10030985
     atom    9 type  2   force =    -0.00002331    0.00065999    0.00129968
     atom   10 type  2   force =    -0.00261492   -0.00001444   -0.06338651
     atom   11 type  2   force =     0.00045377   -0.00068059   -0.00029012
     atom   12 type  2   force =    -0.00086319   -0.00113233   -0.00110314
     atom   13 type  1   force =    -0.00030287    0.00071387   -0.00135318
     atom   14 type  1   force =    -0.00033159   -0.00039242   -0.00023240
     atom   15 type  2   force =    -0.00069471   -0.00041304   -0.00060331
     atom   16 type  2   force =     0.00020228    0.00091457   -0.00029191
     atom   17 type  2   force =     0.00075740    0.00007911   -0.00057677
     atom   18 type  2   force =    -0.00030725   -0.00011826   -0.00000686
     atom   19 type  1   force =    -0.00028587   -0.00009384   -0.00091863
     atom   20 type  1   force =     0.00066937    0.00083580   -0.00050307
     atom   21 type  2   force =     0.00006322    0.00015416    0.09779607
     atom   22 type  2   force =     0.00037071   -0.00036233    0.00135566
     atom   23 type  2   force =    -0.08276944    0.00005593   -0.03312213
     atom   24 type  2   force =     0.08271116    0.00050289   -0.03319747
     atom   25 type  1   force =     0.00006401   -0.00035870    0.12646320
     atom   26 type  1   force =    -0.00011413   -0.00149393   -0.15487579
     atom   27 type  2   force =     0.00011419   -0.00046806   -0.06669183
     atom   28 type  2   force =     0.00004834    0.00167426    0.01198548
     atom   29 type  2   force =    -0.00342652    0.00422175   -0.01621712
     atom   30 type  2   force =     0.00505487    0.00456495   -0.01661994
     atom   31 type  1   force =    -0.00015775    0.00217202    0.04256447
     atom   32 type  1   force =     0.00044397   -0.00894045    0.10088303
     atom   33 type  2   force =    -0.00048394   -0.00013154   -0.00040514
     atom   34 type  2   force =    -0.00212686   -0.00026333   -0.07625497
     atom   35 type  2   force =    -0.00009007    0.00070432    0.00085860
     atom   36 type  2   force =    -0.00050811    0.00052463    0.00037656
     atom   37 type  1   force =     0.00042277    0.00060042   -0.00016094
     atom   38 type  1   force =    -0.00042012   -0.00066301   -0.00065581
     atom   39 type  2   force =     0.00046722   -0.00031113   -0.00045175
     atom   40 type  2   force =     0.00036923   -0.00062521   -0.00004566
     atom   41 type  2   force =     0.00038292    0.00043512    0.00004772
     atom   42 type  2   force =    -0.00005592   -0.00010418    0.00003745
     atom   43 type  1   force =     0.00045766    0.00132323   -0.00087528
     atom   44 type  1   force =     0.00008973   -0.00106041    0.00082548
     atom   45 type  2   force =     0.00009264   -0.00001558    0.09764125
     atom   46 type  2   force =    -0.08281683    0.00003782   -0.03317386
     atom   47 type  2   force =     0.08272483    0.00045656   -0.03318033
     atom   48 type  3   force =    -0.00173196    0.00038800   -0.00089789
     atom   49 type  3   force =     0.00012130   -0.00003973   -0.00100541
     atom   50 type  4   force =     0.01667651    0.00111920    0.00093464
     atom   51 type  5   force =    -0.00191822   -0.00158351   -0.00119546
     atom   52 type  5   force =    -0.00666867   -0.00244914    0.00240955
     atom   53 type  5   force =    -0.00596958    0.00426695   -0.00086877
     atom   54 type  5   force =    -0.00008169   -0.00005438    0.00003923
     atom   55 type  5   force =     0.00034268    0.00015547    0.00012086
     atom   56 type  5   force =     0.00012635   -0.00004640    0.00020156
     atom   57 type  2   force =    -0.00180336   -0.00058646    0.00027777
     atom   58 type  5   force =     0.00155679    0.00000224    0.00015131

     Total force =     0.421174     Total SCF correction =     0.000426
  @ DRIVER MODE: Message from server: STATUS
  @ DRIVER MODE: Message from server: GETFORCE
  @ DRIVER MODE: Returning v,forces,stress,ensemble

     Writing output data file ./calc.save/
  @ DRIVER MODE: Message from server: EXIT
  @ DRIVE MODE: Exiting

     General routines

     Parallel routines

   This run was terminated on:  21:15: 5  22Sep2021

   JOB DONE.