     Program PWSCF v.6.7GPU starts on 18Oct2021 at 11:27: 4

     R & G space division:  proc/nbgrp/npool/nimage =       8
     Reading input from /storage/home/hcoda1/3/ntian30/research/carbon/CxH_vib/Thiel_calc/ads_slab/N2HH_perslab/out_0000/pw.inp
Warning: card &CELL ignored
Warning: card   CELL_DYNAMICS='IPI', ignored
Warning: card / ignored

     Current dimensions of program PWSCF are:
     Max number of different atomic species (ntypx) = 10
     Max number of k-points (npk) =  40000
     Max angular momentum in pseudopotentials (lmaxx) =  3
     Presently no symmetry can be used with electric field

     Message from routine cell_base_init:
     DEPRECATED: use true lattice parameter, not A to a.u. conversion factor

     IMPORTANT: XC functional enforced from input :
     Exchange-correlation= BEEF-VDW
                           (   1   4  43  14   2   0   0)
     Any further DFT definition will be discarded
     Please, verify this is what you really want

  @ DRIVER MODE: Connecting to
 qe_1139763_3255130.sched-torque.pace.gatech.edu4v2iyeid_scratch
  using UNIX socket
  @ DRIVER MODE: Message from server: STATUS
  @ DRIVER MODE: Message from server: INIT
  @ DRIVER MODE: Receiving replica           0          -1
  @ DRIVER MODE: Receiving encoded integer          25
  @ DRIVER MODE:  SCF:  T  FORCE:  T  STRESS:  F  VC:  F  ENSEMBLE:  F
  @ DRIVER MODE:  SCF:  T  FORCE:  T  STRESS:  F  VC:  F  ENSEMBLE:  F

     Using Slab Decomposition

     bravais-lattice index     =            0
     lattice parameter (alat)  =       1.8897  a.u.
     unit-cell volume          =    9988.4706 (a.u.)^3
     number of atoms/cell      =           57
     number of atomic types    =            4
     number of electrons       =       438.00
     number of Kohn-Sham states=          229
     kinetic-energy cutoff     =      29.3995  Ry
     charge density cutoff     =     293.9946  Ry
     scf convergence threshold =      7.3E-08
     mixing beta               =       0.0500
     number of iterations used =            8  plain     mixing
     Exchange-correlation= BEEF-VDW
                           (   1   4  43  14   2   0   0)

     celldm(1)=   1.889726  celldm(2)=   0.000000  celldm(3)=   0.000000
     celldm(4)=   0.000000  celldm(5)=   0.000000  celldm(6)=   0.000000

     crystal axes: (cart. coord. in units of alat)
               a(1) = (   6.579727   0.000000   0.000000 )
               a(2) = (  -0.001163   8.942395   0.000000 )
               a(3) = (   0.000000   0.000000  25.155947 )

     reciprocal axes: (cart. coord. in units 2 pi/alat)
               b(1) = (  0.151982  0.000020  0.000000 )
               b(2) = (  0.000000  0.111827  0.000000 )
               b(3) = (  0.000000  0.000000  0.039752 )

     PseudoPot. # 1 for O  read from file:
     /storage/coda1/p-amedford6/0/shared/rich_project_chbe-medford/medford-share/data/pseudos_module/espresso/nninc/pbe/van/O.UPF
     MD5 check sum: 78c19812648e8988a0fe644b0f25305e
     Pseudo is Ultrasoft, Zval =  6.0
     Generated by new atomic code, or converted to UPF format
     Using radial grid of  737 points,  4 beta functions with:
                l(1) =   0
                l(2) =   0
                l(3) =   1
                l(4) =   1
     Q(r) pseudized with  8 coefficients,  rinner =    0.800   0.800   0.800

     PseudoPot. # 2 for Ti read from file:
     /storage/coda1/p-amedford6/0/shared/rich_project_chbe-medford/medford-share/data/pseudos_module/espresso/nninc/pbe/van/Ti.UPF
     MD5 check sum: 8e4df49b7f0d34bbd5052bf3f5ea0213
     Pseudo is Ultrasoft, Zval = 12.0
     Generated by new atomic code, or converted to UPF format
     Using radial grid of  851 points,  6 beta functions with:
                l(1) =   0
                l(2) =   0
                l(3) =   1
                l(4) =   1
                l(5) =   2
                l(6) =   2
     Q(r) pseudized with  8 coefficients,  rinner =    1.000   1.000   1.000
                                                       1.000   1.000

     PseudoPot. # 3 for H  read from file:
     /storage/coda1/p-amedford6/0/shared/rich_project_chbe-medford/medford-share/data/pseudos_module/espresso/nninc/pbe/van/H.UPF
     MD5 check sum: b5ee9d7bfd3a09ee7748110bda690ff7
     Pseudo is Ultrasoft, Zval =  1.0
     Generated by new atomic code, or converted to UPF format
     Using radial grid of  615 points,  1 beta functions with:
                l(1) =   0
     Q(r) pseudized with  8 coefficients,  rinner =    0.800

     PseudoPot. # 4 for N  read from file:
     /storage/coda1/p-amedford6/0/shared/rich_project_chbe-medford/medford-share/data/pseudos_module/espresso/nninc/pbe/van/N.UPF
     MD5 check sum: 90d10febe142ad51ac9d5be1deb811c4
     Pseudo is Ultrasoft, Zval =  5.0
     Generated by new atomic code, or converted to UPF format
     Using radial grid of  729 points,  4 beta functions with:
                l(1) =   0
                l(2) =   0
                l(3) =   1
                l(4) =   1
     Q(r) pseudized with  8 coefficients,  rinner =    0.800   0.800   0.800

     atomic species   valence    mass     pseudopotential
        O1             6.00    15.99900     O ( 1.00)
        Ti1           12.00    47.86700     Ti( 1.00)
        H1             1.00     1.00800     H ( 1.00)
        N1             5.00    14.00700     N ( 1.00)

     No symmetry found

   Cartesian axes

     site n.     atom                  positions (alat units)
         1           O1  tau(   1) = (   0.0007354   0.0005023  10.5931620  )
         2           O1  tau(   2) = (   3.3150156   8.9360210  13.9574341  )
         3           O1  tau(   3) = (   6.5771809   0.1322222  17.3752006  )
         4           O1  tau(   4) = (   0.0006271   0.0005054   7.9858123  )
         5           O1  tau(   5) = (   3.2854428   8.9395983  11.2048121  )
         6           O1  tau(   6) = (   6.5534721   0.0059909  14.6304568  )
         7           O1  tau(   7) = (   1.9868534   1.4903216   9.2879459  )
         8           O1  tau(   8) = (   5.2434221   1.6171961  12.5999149  )
         9           O1  tau(   9) = (   1.9662201   1.5518754  16.1237639  )
        10           Ti1 tau(  10) = (   0.0007404   1.4906270   9.2895810  )
        11           Ti1 tau(  11) = (   3.2893977   1.3594553  12.5356033  )
        12           Ti1 tau(  12) = (   0.0178951   1.3769434  15.7441411  )
        13           O1  tau(  13) = (   4.5942328   1.4918067   9.2879030  )
        14           O1  tau(  14) = (   1.3385959   1.6247007  12.6234478  )
        15           O1  tau(  15) = (   4.5909775   1.5586907  16.1788856  )
        16           Ti1 tau(  16) = (   3.2902859   2.9801868   9.2893338  )
        17           Ti1 tau(  17) = (   6.5767353   2.8476438  12.4354253  )
        18           Ti1 tau(  18) = (   3.2855622   3.0003959  15.7804328  )
        19           O1  tau(  19) = (   0.0003479   2.9813005  10.5931620  )
        20           O1  tau(  20) = (   3.3036998   2.9877085  13.9702655  )
        21           O1  tau(  21) = (   0.0002396   2.9813036   7.9858123  )
        22           O1  tau(  22) = (   3.2849372   2.9737507  11.2063419  )
        23           O1  tau(  23) = (   6.5394694   3.0167582  14.8135819  )
        24           O1  tau(  24) = (   1.9864658   4.4711199   9.2879459  )
        25           O1  tau(  25) = (   5.2427600   4.5794291  12.6037842  )
        26           O1  tau(  26) = (   1.9458942   4.4597853  16.1214517  )
        27           Ti1 tau(  27) = (   0.0003529   4.4714252   9.2895810  )
        28           Ti1 tau(  28) = (   3.2810590   4.3307370  12.5385870  )
        29           Ti1 tau(  29) = (   6.5544800   4.6619433  15.7291082  )
        30           O1  tau(  30) = (   4.5938453   4.4726049   9.2879030  )
        31           O1  tau(  31) = (   1.3254974   4.5864429  12.6215760  )
        32           O1  tau(  32) = (   4.5799584   4.4820416  16.1880388  )
        33           Ti1 tau(  33) = (   3.2898983   5.9609850   9.2893338  )
        34           Ti1 tau(  34) = (   6.5675573   5.8255355  12.4420054  )
        35           Ti1 tau(  35) = (   3.2444431   5.9917870  15.7690220  )
        36           O1  tau(  36) = (  -0.0000397   5.9620987  10.5931620  )
        37           O1  tau(  37) = (   3.2928066   5.9693490  13.9649938  )
        38           O1  tau(  38) = (   6.5603845   5.9023223  17.3786232  )
        39           O1  tau(  39) = (  -0.0001480   5.9621018   7.9858123  )
        40           O1  tau(  40) = (   3.2839194   5.9454927  11.2056182  )
        41           O1  tau(  41) = (   6.5420590   6.0665053  14.6296390  )
        42           O1  tau(  42) = (   1.9860782   7.4519181   9.2879459  )
        43           O1  tau(  43) = (   5.2396418   7.5574700  12.5673505  )
        44           O1  tau(  44) = (   1.9576089   7.5211923  16.0792554  )
        45           Ti1 tau(  45) = (  -0.0000347   7.4522234   9.2895810  )
        46           Ti1 tau(  46) = (   3.2826699   7.3152331  12.5262848  )
        47           Ti1 tau(  47) = (   0.0069763   7.4761561  16.0760502  )
        48           O1  tau(  48) = (   4.5934577   7.4534031   9.2879030  )
        49           O1  tau(  49) = (   1.3370172   7.5712087  12.5877691  )
        50           O1  tau(  50) = (   4.5576284   7.4668559  16.1934357  )
        51           Ti1 tau(  51) = (   3.2895107   8.9417832   9.2893338  )
        52           Ti1 tau(  52) = (   6.5702701   8.7900240  12.4479541  )
        53           Ti1 tau(  53) = (   3.3076380   0.0053799  15.7629688  )
        54           H1  tau(  54) = (   5.7681615   5.8474147  17.9327380  )
        55           H1  tau(  55) = (   5.8019348   0.2260023  17.9463436  )
        56           N1  tau(  56) = (   6.2964029   3.7918275  19.8857669  )
        57           N1  tau(  57) = (   6.3580303   2.9648886  19.1553858  )

     number of k points=    10  Fermi-Dirac smearing, width (Ry)=  0.0073
                       cart. coord. in units 2pi/alat
        k(    1) = (   0.0000000   0.0000000   0.0000000), wk =   0.1250000
        k(    2) = (   0.0000000   0.0279567   0.0000000), wk =   0.2500000
        k(    3) = (   0.0000000  -0.0559134   0.0000000), wk =   0.1250000
        k(    4) = (   0.0379955   0.0000049   0.0000000), wk =   0.2500000
        k(    5) = (   0.0379955   0.0279617   0.0000000), wk =   0.2500000
        k(    6) = (   0.0379955  -0.0559085   0.0000000), wk =   0.2500000
        k(    7) = (   0.0379955  -0.0279518   0.0000000), wk =   0.2500000
        k(    8) = (  -0.0759910  -0.0000099   0.0000000), wk =   0.1250000
        k(    9) = (  -0.0759910   0.0279468   0.0000000), wk =   0.2500000
        k(   10) = (  -0.0759910  -0.0559233   0.0000000), wk =   0.1250000

     Initial potential from superposition of free atoms

     starting charge  419.99912, renormalised to  438.00000

     negative rho (up, down):  3.691E-02 0.000E+00

     %%%%%%%%%%%%%%%%%%%%%%%%%%%%%%%%%%%%%%%%%%%%%%%%%%%%%%%%%%%%%%%%%%%%%%%%
     %                                                                      %
     % You are using vdW-DF, which was implemented by the Thonhauser group. %
     % Please cite the following two papers that made this development      %
     % possible and the two reviews that describe the various versions:     %
     %                                                                      %
     %   T. Thonhauser et al., PRL 115, 136402 (2015).                      %
     %   T. Thonhauser et al., PRB 76, 125112 (2007).                       %
     %   K. Berland et al., Rep. Prog. Phys. 78, 066501 (2015).             %
     %   D.C. Langreth et al., J. Phys.: Condens. Matter 21, 084203 (2009). %
     %                                                                      %
     %                                                                      %
     % If you are calculating the stress with vdW-DF, please also cite:     %
     %                                                                      %
     %   R. Sabatini et al., J. Phys.: Condens. Matter 24, 424209 (2012).   %
     %                                                                      %
     %%%%%%%%%%%%%%%%%%%%%%%%%%%%%%%%%%%%%%%%%%%%%%%%%%%%%%%%%%%%%%%%%%%%%%%%

     Adding external electric field

     Computed dipole along edir(3) :
        Dipole               -6.4270 Ry au,        -16.3359 Debye
        Dipole field         -0.0081 Ry au,

        Potential amp.        0.7495 Ry
        Total length         46.3494 bohr

     Starting wfcs are  330 atomic wfcs
  @ DRIVER MODE: Message from server: STATUS
  @ DRIVER MODE: Message from server: POSDATA
  @ DRIVER MODE: Reading and sharing cell
  @ DRIVER MODE: Reading and sharing positions
  @ DRIVER MODE: Received positions

     Self-consistent Calculation

     iteration #  1     ecut=    29.40 Ry     beta= 0.05
     Davidson diagonalization with overlap
     ethr =  1.00E-02,  avg # of iterations =  2.0

[...]

     total energy              =   -3267.69658757 Ry
     estimated scf accuracy    <     297.35031514 Ry

     iteration #  2     ecut=    29.40 Ry     beta= 0.05
     Davidson diagonalization with overlap
     c_bands:  1 eigenvalues not converged
     c_bands:  1 eigenvalues not converged
     ethr =  1.00E-02,  avg # of iterations = 17.3

[...]

     iteration # 29     ecut=    29.40 Ry     beta= 0.05
     Davidson diagonalization with overlap
     ethr =  4.24E-07,  avg # of iterations =  2.0

[...]

     total energy              =   -3290.82355175 Ry
     estimated scf accuracy    <       0.00000012 Ry

     iteration # 59     ecut=    29.40 Ry     beta= 0.05
     Davidson diagonalization with overlap
     c_bands:  1 eigenvalues not converged
     ethr =  2.76E-11,  avg # of iterations =  9.9

     negative rho (up, down):  3.511E-02 0.000E+00

     Adding external electric field

     Computed dipole along edir(3) :
        Dipole                1.4938 Ry au,          3.7969 Debye
        Dipole field          0.0019 Ry au,

        Potential amp.       -0.1742 Ry
        Total length         46.3494 bohr

     End of self-consistent calculation

          k = 0.0000 0.0000 0.0000 ( 26871 PWs)   bands (ev):

   -57.5953 -57.5703 -57.5688 -57.5053 -57.4830 -57.4656 -57.4404 -57.4382
   -57.4192 -57.4138 -57.3966 -57.3861 -57.3784 -57.3555 -57.3515 -56.7219
   -56.6981 -56.6920 -33.9873 -33.9855 -33.9689 -33.9641 -33.9446 -33.9312
   -33.9142 -33.9022 -33.8985 -33.8914 -33.8889 -33.8764 -33.8440 -33.8367
   -33.8191 -33.7935 -33.7648 -33.7409 -33.7360 -33.7342 -33.7208 -33.7171
   -33.7144 -33.7078 -33.6974 -33.6968 -33.6931 -33.6923 -33.6728 -33.6664
   -33.6398 -33.6364 -33.6320 -33.6280 -33.6219 -33.6146 -33.6000 -33.5974
   -33.5827 -33.5606 -33.5343 -33.5315 -33.5263 -33.4947 -33.4818 -33.0423
   -33.0342 -33.0280 -33.0127 -33.0076 -32.9521 -32.8907 -32.8839 -32.7512
   -23.7142 -19.5291 -19.3975 -18.4810 -18.1096 -17.9383 -17.9263 -17.9038
   -17.8698 -17.7257 -17.6998 -17.6559 -17.6265 -17.6099 -17.4607 -17.4410
   -17.4242 -17.4210 -17.3748 -17.3699 -17.3637 -17.3345 -17.3277 -17.3160
   -17.2926 -17.2646 -17.1647 -17.1457 -17.1405 -17.1076 -17.0690 -17.0672
   -16.7629 -15.1863 -15.1264 -15.1217  -8.9467  -7.2073  -7.0760  -6.8505
    -6.8379  -5.8022  -5.6745  -5.6116  -5.5593  -5.4273  -5.1301  -5.0919
    -5.0578  -5.0375  -5.0209  -4.9681  -4.9168  -4.9081  -4.8899  -4.8599
    -4.8536  -4.7897  -4.7722  -4.7576  -4.6674  -4.6318  -4.6248  -4.5896
    -4.5675  -4.5033  -4.4916  -4.4714  -4.4340  -4.4256  -4.3992  -4.3821
    -4.2673  -4.1572  -4.1367  -4.0928  -4.0746  -3.9651  -3.9496  -3.9138
    -3.8930  -3.8330  -3.7959  -3.7752  -3.7585  -3.6899  -3.6356  -3.6124
    -3.5748  -3.5208  -3.4702  -3.4476  -3.4263  -3.4098  -3.3503  -3.2942
    -3.2583  -3.1914  -3.1417  -3.0531  -3.0482  -2.9618  -2.9111  -2.7799
    -2.7431  -2.6833  -2.6653  -2.6174  -2.5952  -2.4496  -2.4372  -2.4216
    -2.4184  -2.3844  -2.3300  -2.3094  -2.3069  -2.2851  -2.2563  -2.2080
    -2.1906  -2.1238  -2.0822  -2.0589  -2.0439  -2.0101  -1.9473  -1.9207
    -1.8410  -1.7799  -1.7586  -1.6638  -1.5491  -1.5320  -1.5316  -1.4192
    -1.3953  -1.0218  -0.7951  -0.4977  -0.4323  -0.4302  -0.1454  -0.1402
    -0.0018   1.3423   1.4156   1.5863   1.6099   1.6761   1.8159   1.8393
     1.9191   1.9580   1.9761   1.9889   1.9967

[...]

          k = 0.0380-0.0280 0.0000 ( 26873 PWs)   bands (ev):

[...]

          k =-0.0760-0.0000 0.0000 ( 26902 PWs)   bands (ev):

[...]

          k =-0.0760-0.0559 0.0000 ( 26868 PWs)   bands (ev):

   -57.5874 -57.5859 -57.5610 -57.5018 -57.4889 -57.4630 -57.4368 -57.4362
   -57.4250 -57.4172 -57.3943 -57.3844 -57.3722 -57.3684 -57.3453 -56.7161
   -56.7096 -56.6862 -34.0806 -34.0271 -33.9838 -33.9701 -33.9498 -33.9267
   -33.9107 -33.9068 -33.9041 -33.8854 -33.8618 -33.8183 -33.8103 -33.7955
   -33.7933 -33.7479 -33.7383 -33.7365 -33.7357 -33.7238 -33.7181 -33.7052
   -33.7042 -33.6837 -33.6751 -33.6723 -33.6691 -33.6688 -33.6654 -33.6623
   -33.6601 -33.6566 -33.6522 -33.6416 -33.6358 -33.6298 -33.6215 -33.6012
   -33.5795 -33.5751 -33.5721 -33.5611 -33.5589 -33.5111 -33.4943 -33.1298
   -33.0296 -33.0240 -33.0015 -32.9343 -32.9270 -32.8659 -32.8517 -32.8445
   -23.7142 -19.5110 -19.4048 -18.1326 -18.0993 -17.9795 -17.9172 -17.7971
   -17.7799 -17.6998 -17.6864 -17.6780 -17.6425 -17.6044 -17.5651 -17.5496
   -17.4722 -17.4424 -17.4164 -17.4049 -17.3952 -17.3885 -17.3813 -17.3671
   -17.2612 -17.2591 -17.2544 -17.2240 -17.1562 -17.1030 -17.0505 -17.0349
   -16.7951 -15.1838 -15.1783 -15.0628  -8.9466  -7.2484  -7.0493  -6.8514
    -6.8419  -5.6527  -5.4012  -5.3394  -5.3178  -5.2704  -5.1702  -5.1020
    -5.0588  -5.0014  -4.9416  -4.8901  -4.8572  -4.7937  -4.7800  -4.7674
    -4.7564  -4.7071  -4.6668  -4.6500  -4.6355  -4.6199  -4.6034  -4.5752
    -4.5647  -4.5330  -4.4654  -4.4260  -4.3383  -4.3300  -4.2997  -4.2631
    -4.2381  -4.2174  -4.1591  -4.1437  -4.1134  -4.0901  -3.9708  -3.8547
    -3.8403  -3.8052  -3.7991  -3.7687  -3.7300  -3.7236  -3.6213  -3.5466
    -3.4105  -3.3840  -3.3806  -3.3679  -3.3474  -3.2797  -3.2702  -3.2346
    -3.2020  -3.1874  -3.1663  -3.1119  -3.0833  -3.0055  -2.9737  -2.9154
    -2.8622  -2.8298  -2.7713  -2.7605  -2.7378  -2.7268  -2.7218  -2.7104
    -2.6906  -2.6438  -2.6343  -2.4853  -2.4510  -2.4457  -2.4321  -2.3221
    -2.3040  -2.2058  -2.1962  -2.1624  -2.1513  -2.0630  -2.0439  -1.9376
    -1.9175  -1.8588  -1.8119  -1.7628  -1.4504  -1.4391  -1.4106  -1.3776
    -1.2918  -1.2852  -1.0349  -0.6331  -0.3741  -0.3546  -0.3090  -0.1372
    -0.1353   1.4680   1.5350   1.5596   1.5772   1.6753   1.6879   1.7129
     1.7287   1.7657   1.7781   1.8837   1.9481

     the Fermi energy is     1.4869 ev

!    total energy              =   -3290.82359152 Ry
     estimated scf accuracy    <       0.00000002 Ry
     smearing contrib. (-TS)   =      -0.05467087 Ry
     internal energy E=F+TS    =   -3290.76892065 Ry

     The total energy is F=E-TS. E is the sum of the following terms:
     one-electron contribution =  -33575.65780326 Ry
     hartree contribution      =   16851.51776317 Ry
     xc contribution           =    -540.39371158 Ry
     ewald contribution        =   13973.76202362 Ry
     electric field correction =       0.00280740 Ry

     convergence has been achieved in  59 iterations

     Forces acting on atoms (cartesian axes, Ry/au):

     atom    1 type  1   force =     0.00049422    0.00768151    0.05389036
     atom    2 type  1   force =     0.00023052    0.00347065    0.00202702
     atom    3 type  1   force =    -0.00216655   -0.00159670   -0.00179136
     atom    4 type  1   force =     0.00004213    0.00063182    0.10809962
     atom    5 type  1   force =     0.00011811   -0.00051921    0.01007187
     atom    6 type  1   force =    -0.00049545   -0.00865046   -0.00250037
     atom    7 type  1   force =     0.06412007    0.00022100   -0.02869054
     atom    8 type  1   force =     0.00333212   -0.02901170    0.00414563
     atom    9 type  1   force =     0.01264888   -0.00963795   -0.00137222
     atom   10 type  2   force =     0.00006251   -0.00638031   -0.19199919
     atom   11 type  2   force =    -0.00025227    0.01997193   -0.01153162
     atom   12 type  2   force =    -0.00130419    0.01557044    0.01039958
     atom   13 type  1   force =    -0.06425349   -0.00020968   -0.02811005
     atom   14 type  1   force =    -0.00399190   -0.02855240    0.00377767
     atom   15 type  1   force =    -0.01070500   -0.01193174    0.00082830
     atom   16 type  2   force =    -0.00027345   -0.00085352    0.07230940
     atom   17 type  2   force =     0.00033434    0.03631295    0.00479095
     atom   18 type  2   force =    -0.00023402    0.00087099   -0.00730315
     atom   19 type  1   force =     0.00076927    0.00326609    0.05941277
     atom   20 type  1   force =    -0.00031366    0.00182326   -0.00318299
     atom   21 type  1   force =     0.00006484    0.00073381    0.10923354
     atom   22 type  1   force =     0.00005649   -0.00032439    0.01010253
     atom   23 type  1   force =    -0.00003507    0.00081661    0.00147122
     atom   24 type  1   force =     0.06378778   -0.00058379   -0.02865608
     atom   25 type  1   force =     0.00306065   -0.02881274    0.00379808
     atom   26 type  1   force =     0.01005068    0.01238763    0.00068734
     atom   27 type  2   force =     0.00003440    0.00225266   -0.19417017
     atom   28 type  2   force =     0.00013981    0.01852115   -0.01070163
     atom   29 type  2   force =     0.00010263   -0.01693650    0.00908488
     atom   30 type  1   force =    -0.06394726   -0.00101253   -0.02803099
     atom   31 type  1   force =    -0.00268311   -0.02913291    0.00377332
     atom   32 type  1   force =    -0.01243201    0.00753238   -0.00164137
     atom   33 type  2   force =    -0.00026283   -0.00103947    0.07252267
     atom   34 type  2   force =    -0.00010988    0.03450212    0.00419961
     atom   35 type  2   force =     0.00288852   -0.01384883   -0.00297384
     atom   36 type  1   force =     0.00026395    0.00299881    0.05373669
     atom   37 type  1   force =    -0.00022691    0.00130742    0.00206046
     atom   38 type  1   force =    -0.00060035    0.00097430   -0.00078665
     atom   39 type  1   force =     0.00007582   -0.00111406    0.10847358
     atom   40 type  1   force =     0.00000279   -0.00027965    0.00993213
     atom   41 type  1   force =     0.00093831    0.00811888   -0.00135533
     atom   42 type  1   force =     0.06453220   -0.00058599   -0.02831614
     atom   43 type  1   force =     0.00210671   -0.02818690    0.00291307
     atom   44 type  1   force =     0.01356702   -0.00750108    0.00864441
     atom   45 type  2   force =     0.00016169    0.00153816   -0.18903892
     atom   46 type  2   force =    -0.00006980    0.01915111   -0.01212489
     atom   47 type  2   force =     0.00036489    0.00387655   -0.00950009
     atom   48 type  1   force =    -0.06470131   -0.00107597   -0.02775800
     atom   49 type  1   force =    -0.00262649   -0.02846761    0.00285403
     atom   50 type  1   force =    -0.01369941    0.00199749    0.00421907
     atom   51 type  2   force =    -0.00025894   -0.00040752    0.07291751
     atom   52 type  2   force =     0.00057572    0.03496131    0.00444851
     atom   53 type  2   force =    -0.00219195    0.01510949   -0.00250663
     atom   54 type  3   force =     0.00183487    0.00025366   -0.00118009
     atom   55 type  3   force =     0.00094951   -0.00009791   -0.00040293
     atom   56 type  4   force =     0.00018339   -0.00268066   -0.00047498
     atom   57 type  4   force =    -0.00005956    0.00257800    0.00127444

     Total force =     0.462836     Total SCF correction =     0.000417
  @ DRIVER MODE: Message from server: STATUS
  @ DRIVER MODE: Message from server: GETFORCE
  @ DRIVER MODE: Returning v,forces,stress,ensemble

     Writing output data file ./calc.save/
  @ DRIVER MODE: Message from server: EXIT
  @ DRIVE MODE: Exiting

     General routines

     Parallel routines

   This run was terminated on:  11:58:22  18Oct2021

   JOB DONE.