     Program PWSCF v.6.7GPU starts on 15Sep2021 at 11:40:49

     R & G space division:  proc/nbgrp/npool/nimage =      10
     Reading input from /storage/home/hcoda1/3/ntian30/research/carbon/CxH_vib/CH_calc/ads_slab/CHOH_d/out_0008/pw.inp
Warning: card &CELL ignored
Warning: card   CELL_DYNAMICS='IPI', ignored
Warning: card / ignored

     Current dimensions of program PWSCF are:
     Max number of different atomic species (ntypx) = 10
     Max number of k-points (npk) =  40000
     Max angular momentum in pseudopotentials (lmaxx) =  3
     Presently no symmetry can be used with electric field

     Message from routine cell_base_init:
     DEPRECATED: use true lattice parameter, not A to a.u. conversion factor

     IMPORTANT: XC functional enforced from input :
     Exchange-correlation= BEEF-VDW
                           (   1   4  43  14   2   0   0)
     Any further DFT definition will be discarded
     Please, verify this is what you really want

  @ DRIVER MODE: Connecting to
 qe_1139763_2850204.sched-torque.pace.gatech.edu8ver7gib_scratch
  using UNIX socket
  @ DRIVER MODE: Message from server: STATUS
  @ DRIVER MODE: Message from server: INIT
  @ DRIVER MODE: Receiving replica           0          -1
  @ DRIVER MODE: Receiving encoded integer          25
  @ DRIVER MODE:  SCF:  T  FORCE:  T  STRESS:  F  VC:  F  ENSEMBLE:  F
  @ DRIVER MODE:  SCF:  T  FORCE:  T  STRESS:  F  VC:  F  ENSEMBLE:  F

     Using Slab Decomposition

     bravais-lattice index     =            0
     lattice parameter (alat)  =       1.8897  a.u.
     unit-cell volume          =    6658.9804 (a.u.)^3
     number of atoms/cell      =           51
     number of atomic types    =            4
     number of electrons       =       390.00
     number of Kohn-Sham states=          205
     kinetic-energy cutoff     =      29.3995  Ry
     charge density cutoff     =     293.9946  Ry
     scf convergence threshold =      7.3E-08
     mixing beta               =       0.0500
     number of iterations used =            8  plain     mixing
     Exchange-correlation= BEEF-VDW
                           (   1   4  43  14   2   0   0)

     celldm(1)=   1.889726  celldm(2)=   0.000000  celldm(3)=   0.000000
     celldm(4)=   0.000000  celldm(5)=   0.000000  celldm(6)=   0.000000

     crystal axes: (cart. coord. in units of alat)
               a(1) = (   6.579727   0.000000   0.000000 )
               a(2) = (  -0.000775   5.961596   0.000000 )
               a(3) = (   0.000000   0.000000  25.155947 )

     reciprocal axes: (cart. coord. in units 2 pi/alat)
               b(1) = (  0.151982  0.000020  0.000000 )
               b(2) = (  0.000000  0.167740  0.000000 )
               b(3) = (  0.000000  0.000000  0.039752 )

     PseudoPot. # 1 for Ti read from file:
     /storage/coda1/p-amedford6/0/shared/rich_project_chbe-medford/medford-share/data/pseudos_module/espresso/nninc/pbe/van/Ti.UPF
     MD5 check sum: 8e4df49b7f0d34bbd5052bf3f5ea0213
     Pseudo is Ultrasoft, Zval = 12.0
     Generated by new atomic code, or converted to UPF format
     Using radial grid of  851 points,  6 beta functions with:
                l(1) =   0
                l(2) =   0
                l(3) =   1
                l(4) =   1
                l(5) =   2
                l(6) =   2
     Q(r) pseudized with  8 coefficients,  rinner =    1.000   1.000   1.000
                                                       1.000   1.000

     PseudoPot. # 2 for O  read from file:
     /storage/coda1/p-amedford6/0/shared/rich_project_chbe-medford/medford-share/data/pseudos_module/espresso/nninc/pbe/van/O.UPF
     MD5 check sum: 78c19812648e8988a0fe644b0f25305e
     Pseudo is Ultrasoft, Zval =  6.0
     Generated by new atomic code, or converted to UPF format
     Using radial grid of  737 points,  4 beta functions with:
                l(1) =   0
                l(2) =   0
                l(3) =   1
                l(4) =   1
     Q(r) pseudized with  8 coefficients,  rinner =    0.800   0.800   0.800

     PseudoPot. # 3 for C  read from file:
     /storage/coda1/p-amedford6/0/shared/rich_project_chbe-medford/medford-share/data/pseudos_module/espresso/nninc/pbe/van/C.UPF
     MD5 check sum: 1a69bf6b8db32088f5b2163dbdb77a27
     Pseudo is Ultrasoft, Zval =  4.0
     Generated by new atomic code, or converted to UPF format
     Using radial grid of  721 points,  4 beta functions with:
                l(1) =   0
                l(2) =   0
                l(3) =   1
                l(4) =   1
     Q(r) pseudized with  8 coefficients,  rinner =    0.800   0.800   0.800

     PseudoPot. # 4 for H  read from file:
     /storage/coda1/p-amedford6/0/shared/rich_project_chbe-medford/medford-share/data/pseudos_module/espresso/nninc/pbe/van/H.UPF
     MD5 check sum: b5ee9d7bfd3a09ee7748110bda690ff7
     Pseudo is Ultrasoft, Zval =  1.0
     Generated by new atomic code, or converted to UPF format
     Using radial grid of  615 points,  1 beta functions with:
                l(1) =   0
     Q(r) pseudized with  8 coefficients,  rinner =    0.800

     atomic species   valence    mass     pseudopotential
        Ti1           12.00    47.86700     Ti( 1.00)
        O1             6.00    15.99900     O ( 1.00)
        C1             4.00    12.01100     C ( 1.00)
        H1             1.00     1.00800     H ( 1.00)

     No symmetry found

   Cartesian axes

     site n.     atom                  positions (alat units)
         1           Ti1 tau(   1) = (   0.0004258   2.9801865   6.0000000  )
         2           Ti1 tau(   2) = (   3.2906075   1.4906267   6.0002472  )
         3           O1  tau(   3) = (   0.0006271   0.0005054   7.9858123  )
         4           O1  tau(   4) = (   3.2906025   0.0005020   7.3038282  )
         5           O1  tau(   5) = (   4.5942328   1.4918067   9.2879030  )
         6           O1  tau(   6) = (   1.9868534   1.4903216   9.2879459  )
         7           Ti1 tau(   7) = (   3.2907309   2.9776765   9.1658812  )
         8           Ti1 tau(   8) = (   0.0000975   1.4630848   9.2758602  )
         9           O1  tau(   9) = (   3.2992614   5.9483050  11.3479409  )
        10           O1  tau(  10) = (   0.0007063   5.9515697  10.5933799  )
        11           O1  tau(  11) = (   1.2886368   1.4758772  12.6169360  )
        12           O1  tau(  12) = (   5.2821765   1.4725572  12.6321404  )
        13           Ti1 tau(  13) = (   0.0439011   2.9969894  12.8193871  )
        14           Ti1 tau(  14) = (   3.3815342   1.4778063  12.4828959  )
        15           O1  tau(  15) = (   0.0352585   5.9375929  14.6168471  )
        16           O1  tau(  16) = (   3.2809659   0.0029960  13.9351646  )
        17           O1  tau(  17) = (   4.5639172   1.5021510  16.0678584  )
        18           O1  tau(  18) = (   2.0588050   1.5241738  16.1323679  )
        19           Ti1 tau(  19) = (   3.3289217   2.9983165  15.7225387  )
        20           Ti1 tau(  20) = (   0.0567091   1.5532474  16.1006893  )
        21           O1  tau(  21) = (   3.2904802   0.0005063   4.7018136  )
        22           O1  tau(  22) = (   0.0083150   5.8936170  17.2391820  )
        23           O1  tau(  23) = (   1.3043587   1.4918075   6.0039043  )
        24           O1  tau(  24) = (   5.2767064   1.4903225   6.0039473  )
        25           Ti1 tau(  25) = (   0.0000382   5.9609847   6.0000000  )
        26           Ti1 tau(  26) = (   3.2902200   4.4714249   6.0002472  )
        27           O1  tau(  27) = (   0.0002396   2.9813036   7.9858123  )
        28           O1  tau(  28) = (   3.2902150   2.9813002   7.3038282  )
        29           O1  tau(  29) = (   4.5938453   4.4726049   9.2879030  )
        30           O1  tau(  30) = (   1.9864658   4.4711199   9.2879459  )
        31           Ti1 tau(  31) = (   3.2906741   5.9584693   9.1623309  )
        32           Ti1 tau(  32) = (   0.0020182   4.4105903   9.4029630  )
        33           O1  tau(  33) = (   3.2963946   2.9714859  11.3431964  )
        34           O1  tau(  34) = (  -0.0003580   2.9688738  10.5596877  )
        35           O1  tau(  35) = (   1.2880207   4.4560207  12.6239755  )
        36           O1  tau(  36) = (   5.2744328   4.4398676  12.6388197  )
        37           Ti1 tau(  37) = (   0.0843456   0.0234473  12.6131129  )
        38           Ti1 tau(  38) = (   3.3736736   4.4543396  12.4891683  )
        39           O1  tau(  39) = (   0.0394168   2.9432389  14.6713939  )
        40           O1  tau(  40) = (   3.2833495   2.9670780  13.9230463  )
        41           O1  tau(  41) = (   4.5592427   4.4833083  16.0293399  )
        42           O1  tau(  42) = (   2.0780377   4.4655606  16.1075158  )
        43           Ti1 tau(  43) = (   3.3267552   0.0098278  15.7307941  )
        44           Ti1 tau(  44) = (   0.0353388   4.6693566  15.9825682  )
        45           O1  tau(  45) = (   3.2900926   2.9813045   4.7018136  )
        46           C1  tau(  46) = (   6.5364748   2.8130622  17.7364117  )
        47           O1  tau(  47) = (   1.3039711   4.4726057   6.0039043  )
        48           O1  tau(  48) = (   5.2763189   4.4711207   6.0039473  )
        49           H1  tau(  49) = (   0.8722447   3.0922372  18.2894884  )
        50           O1  tau(  50) = (   5.4077661   2.9637287  18.5068037  )
        51           H1  tau(  51) = (   5.6109787   3.4346953  19.3318178  )

     number of k points=    10  Fermi-Dirac smearing, width (Ry)=  0.0073
                       cart. coord. in units 2pi/alat
        k(    1) = (   0.0000000   0.0000000   0.0000000), wk =   0.1250000
        k(    2) = (   0.0000000   0.0419351   0.0000000), wk =   0.2500000
        k(    3) = (   0.0000000  -0.0838702   0.0000000), wk =   0.1250000
        k(    4) = (   0.0379955   0.0000049   0.0000000), wk =   0.2500000
        k(    5) = (   0.0379955   0.0419400   0.0000000), wk =   0.2500000
        k(    6) = (   0.0379955  -0.0838652   0.0000000), wk =   0.2500000
        k(    7) = (   0.0379955  -0.0419301   0.0000000), wk =   0.2500000
        k(    8) = (  -0.0759910  -0.0000099   0.0000000), wk =   0.1250000
        k(    9) = (  -0.0759910   0.0419252   0.0000000), wk =   0.2500000
        k(   10) = (  -0.0759910  -0.0838800   0.0000000), wk =   0.1250000

     Initial potential from superposition of free atoms

     starting charge  373.99919, renormalised to  390.00000

     negative rho (up, down):  1.918E-02 0.000E+00

     %%%%%%%%%%%%%%%%%%%%%%%%%%%%%%%%%%%%%%%%%%%%%%%%%%%%%%%%%%%%%%%%%%%%%%%%
     %                                                                      %
     % You are using vdW-DF, which was implemented by the Thonhauser group. %
     % Please cite the following two papers that made this development      %
     % possible and the two reviews that describe the various versions:     %
     %                                                                      %
     %   T. Thonhauser et al., PRL 115, 136402 (2015).                      %
     %   T. Thonhauser et al., PRB 76, 125112 (2007).                       %
     %   K. Berland et al., Rep. Prog. Phys. 78, 066501 (2015).             %
     %   D.C. Langreth et al., J. Phys.: Condens. Matter 21, 084203 (2009). %
     %                                                                      %
     %                                                                      %
     % If you are calculating the stress with vdW-DF, please also cite:     %
     %                                                                      %
     %   R. Sabatini et al., J. Phys.: Condens. Matter 24, 424209 (2012).   %
     %                                                                      %
     %%%%%%%%%%%%%%%%%%%%%%%%%%%%%%%%%%%%%%%%%%%%%%%%%%%%%%%%%%%%%%%%%%%%%%%%

     Adding external electric field

     Computed dipole along edir(3) :
        Dipole               -4.8494 Ry au,        -12.3260 Debye
        Dipole field         -0.0092 Ry au,

        Potential amp.        0.8483 Ry
        Total length         46.3494 bohr

     Starting wfcs are  294 atomic wfcs
  @ DRIVER MODE: Message from server: STATUS
  @ DRIVER MODE: Message from server: POSDATA
  @ DRIVER MODE: Reading and sharing cell
  @ DRIVER MODE: Reading and sharing positions
  @ DRIVER MODE: Received positions

     Self-consistent Calculation

     iteration #  1     ecut=    29.40 Ry     beta= 0.05
     Davidson diagonalization with overlap
     c_bands:  4 eigenvalues not converged
     c_bands:  3 eigenvalues not converged
     c_bands:  3 eigenvalues not converged
     c_bands:  2 eigenvalues not converged
     c_bands:  2 eigenvalues not converged
     c_bands:  3 eigenvalues not converged
     c_bands:  1 eigenvalues not converged
     ethr =  1.00E-05,  avg # of iterations = 19.3

[...]

     total energy              =   -2871.04841809 Ry
     estimated scf accuracy    <     675.80624970 Ry

     iteration #  2     ecut=    29.40 Ry     beta= 0.05
     Davidson diagonalization with overlap
     ethr =  1.00E-02,  avg # of iterations = 15.6

[...]

     iteration # 36     ecut=    29.40 Ry     beta= 0.05
     Davidson diagonalization with overlap
     c_bands:  1 eigenvalues not converged
     c_bands:  1 eigenvalues not converged
     c_bands:  1 eigenvalues not converged
     ethr =  4.61E-07,  avg # of iterations = 12.4

[...]

     total energy              =   -2930.03895376 Ry
     estimated scf accuracy    <       0.00000010 Ry

     iteration # 55     ecut=    29.40 Ry     beta= 0.05
     Davidson diagonalization with overlap
     ethr =  2.57E-11,  avg # of iterations = 11.5

     negative rho (up, down):  1.866E-02 0.000E+00

     Adding external electric field

     Computed dipole along edir(3) :
        Dipole                0.8304 Ry au,          2.1107 Debye
        Dipole field          0.0016 Ry au,

        Potential amp.       -0.1453 Ry
        Total length         46.3494 bohr

     End of self-consistent calculation

          k = 0.0000 0.0000 0.0000 ( 18029 PWs)   bands (ev):

   -56.0437 -56.0080 -55.9859 -55.9497 -55.9061 -55.8375 -55.8365 -55.7475
   -55.7311 -55.7050 -55.6969 -55.5679 -55.1267 -55.0486 -54.9807 -54.9466
   -32.5387 -32.4943 -32.3476 -32.3221 -32.3067 -32.3042 -32.2908 -32.2313
   -32.2133 -32.2024 -32.2017 -32.1855 -32.1679 -32.1576 -32.1357 -32.1296
   -32.1214 -32.1195 -32.1181 -32.0498 -32.0227 -32.0159 -31.9951 -31.9774
   -31.9642 -31.9567 -31.9556 -31.9488 -31.9188 -31.9152 -31.8737 -31.8683
   -31.8262 -31.7815 -31.7646 -31.7557 -31.6144 -31.4978 -31.4129 -31.3905
   -31.3879 -31.2973 -31.2744 -31.2047 -31.1821 -31.1187 -31.0813 -31.0075
   -19.4364 -16.6938 -16.3839 -16.2270 -16.0785 -16.0735 -15.9696 -15.7003
   -15.6392 -15.5256 -15.5179 -15.5103 -15.4814 -15.4731 -15.4543 -15.4352
   -15.4112 -15.3975 -15.3900 -15.3500 -15.3019 -15.2239 -15.2024 -15.1486
   -15.1067 -15.1027 -15.0670 -14.9203 -14.9059 -14.5944 -13.4810 -13.3643
    -8.7895  -5.8663  -4.0618  -3.9043  -3.8739  -3.8566  -3.7375  -3.5047
    -3.4419  -3.1563  -3.1099  -3.1035  -3.0974  -3.0167  -2.9480  -2.8668
    -2.8007  -2.7554  -2.7269  -2.7210  -2.7151  -2.7118  -2.6725  -2.6424
    -2.5671  -2.5197  -2.4400  -2.3921  -2.3702  -2.3425  -2.3404  -2.3024
    -2.2182  -2.2125  -2.1631  -2.1549  -2.0880  -2.0719  -2.0377  -1.9758
    -1.8063  -1.7703  -1.7329  -1.6898  -1.6295  -1.4132  -1.3918  -1.3828
    -1.3556  -1.3242  -1.2720  -1.2578  -1.1300  -1.0951  -1.0440  -1.0173
    -0.9474  -0.9241  -0.8328  -0.8106  -0.7562  -0.7413  -0.6993  -0.6840
    -0.6354  -0.4492  -0.3987  -0.3562  -0.3228  -0.2829  -0.2319  -0.2294
    -0.1665  -0.1236  -0.1130  -0.1025  -0.0110   0.0168   0.0315   0.0500
     0.0567   0.1559   0.1689   0.2376   0.2979   0.4715   0.4753   0.6113
     0.6460   0.6720   0.7062   0.8336   0.9614   1.0430   1.1761   1.2252
     1.6322   1.6992   2.8946   3.1804   3.2623   3.3209   3.3412   3.4192
     3.5715   3.6277   3.6645   3.6877   3.7248

[...]

          k = 0.0380-0.0419 0.0000 ( 17876 PWs)   bands (ev):

[...]

          k =-0.0760-0.0000 0.0000 ( 17886 PWs)   bands (ev):

[...]

          k =-0.0760-0.0839 0.0000 ( 17948 PWs)   bands (ev):

   -56.0315 -56.0200 -55.9696 -55.9658 -55.9015 -55.8409 -55.8343 -55.7507
   -55.7151 -55.7125 -55.7030 -55.5700 -55.1231 -55.0521 -54.9640 -54.9631
   -32.3430 -32.3403 -32.3170 -32.3121 -32.3052 -32.2967 -32.2767 -32.2447
   -32.1964 -32.1934 -32.1899 -32.1685 -32.1646 -32.1600 -32.1586 -32.1279
   -32.1186 -32.1009 -32.0695 -32.0516 -32.0453 -32.0278 -32.0274 -32.0207
   -32.0073 -31.9760 -31.9665 -31.9624 -31.9614 -31.9230 -31.9125 -31.9095
   -31.8888 -31.8797 -31.7946 -31.7709 -31.5342 -31.4963 -31.4092 -31.3927
   -31.2877 -31.2866 -31.2691 -31.2013 -31.2007 -31.1622 -31.1613 -31.0850
   -19.4358 -16.1378 -16.1230 -15.8735 -15.8660 -15.7878 -15.7517 -15.6797
   -15.6784 -15.6621 -15.6434 -15.6135 -15.5758 -15.5347 -15.5154 -15.5012
   -15.4758 -15.4701 -15.4506 -15.4066 -15.3963 -15.2636 -15.2536 -15.2479
   -15.2441 -15.2103 -15.1604 -15.1279 -15.0788 -14.6938 -13.4664 -13.4653
    -8.7959  -5.8750  -3.4314  -3.4164  -3.0994  -3.0941  -3.0276  -2.9907
    -2.9126  -2.8931  -2.8340  -2.8177  -2.7944  -2.7935  -2.7856  -2.7616
    -2.7049  -2.6899  -2.6863  -2.6503  -2.6301  -2.5965  -2.5679  -2.5582
    -2.5371  -2.5353  -2.4992  -2.4820  -2.4734  -2.4608  -2.4472  -2.4404
    -2.3046  -2.1985  -2.1734  -2.1278  -2.0511  -2.0460  -2.0320  -2.0073
    -1.9729  -1.9594  -1.9257  -1.8458  -1.6890  -1.6754  -1.6522  -1.6153
    -1.5097  -1.4671  -1.3749  -1.3022  -1.2520  -1.2193  -1.1738  -1.1598
    -1.1450  -1.1127  -1.0659  -0.9942  -0.9578  -0.9407  -0.9289  -0.9048
    -0.8167  -0.7892  -0.7678  -0.7360  -0.7070  -0.6062  -0.5756  -0.5412
    -0.5116  -0.4761  -0.4205  -0.3939  -0.2926  -0.2912   0.0483   0.0658
     0.0820   0.1375   0.2098   0.3059   0.3370   0.3828   0.4795   0.5133
     0.5682   0.6015   0.6205   0.6737   0.6922   0.7067   1.4107   1.4114
     1.4924   1.4993   3.0908   3.4330   3.4608   3.4879   3.5309   3.6569
     3.6715   3.6782   3.6964   3.8921   3.9172

     the Fermi energy is     3.1158 ev

!    total energy              =   -2930.03902675 Ry
     estimated scf accuracy    <       0.00000007 Ry
     smearing contrib. (-TS)   =      -0.02063157 Ry
     internal energy E=F+TS    =   -2930.01839518 Ry

     The total energy is F=E-TS. E is the sum of the following terms:
     one-electron contribution =  -24523.54681814 Ry
     hartree contribution      =   12346.79595604 Ry
     xc contribution           =    -481.11566627 Ry
     ewald contribution        =    9727.84683183 Ry
     electric field correction =       0.00130135 Ry

     convergence has been achieved in  55 iterations

     Forces acting on atoms (cartesian axes, Ry/au):

     atom    1 type  1   force =    -0.00006404    0.00194947    0.12138785
     atom    2 type  1   force =    -0.00014452    0.00019731   -0.17635504
     atom    3 type  2   force =    -0.00008622    0.00551509   -0.04186621
     atom    4 type  2   force =     0.00009613    0.00023513    0.04679562
     atom    5 type  2   force =    -0.02225575   -0.00183202    0.00393006
     atom    6 type  2   force =     0.02250293   -0.00138940    0.00398414
     atom    7 type  1   force =    -0.00063725    0.00238150   -0.00663358
     atom    8 type  1   force =     0.00068222   -0.00172009    0.00448600
     atom    9 type  2   force =     0.00005622    0.00035053   -0.00024583
     atom   10 type  2   force =     0.00006050    0.00101851    0.00003125
     atom   11 type  2   force =     0.00028294    0.00131406   -0.00035241
     atom   12 type  2   force =     0.00022822    0.00130855   -0.00066191
     atom   13 type  1   force =     0.00012696   -0.00014293   -0.00035675
     atom   14 type  1   force =     0.00002689    0.00011441    0.00065745
     atom   15 type  2   force =     0.00002435   -0.00062657   -0.00019061
     atom   16 type  2   force =     0.00022599   -0.00012208    0.00188520
     atom   17 type  2   force =    -0.00096165    0.00038463   -0.00026731
     atom   18 type  2   force =     0.00062875    0.00016667   -0.00025961
     atom   19 type  1   force =    -0.00017498   -0.00103223   -0.00053678
     atom   20 type  1   force =    -0.00042235   -0.00043228   -0.00023342
     atom   21 type  2   force =     0.00002519    0.00004855    0.10354077
     atom   22 type  2   force =    -0.00027767    0.00074450   -0.00025318
     atom   23 type  2   force =    -0.06995688    0.00048065   -0.03150622
     atom   24 type  2   force =     0.06986875    0.00092906   -0.03151417
     atom   25 type  1   force =     0.00026188   -0.00189397    0.12788225
     atom   26 type  1   force =    -0.00018315   -0.00057913   -0.17575836
     atom   27 type  2   force =    -0.00004388   -0.00352455   -0.03801646
     atom   28 type  2   force =     0.00004943   -0.00033224    0.04766577
     atom   29 type  2   force =    -0.02394991   -0.00045842    0.00448704
     atom   30 type  2   force =     0.02413729    0.00012281    0.00466585
     atom   31 type  1   force =    -0.00084010   -0.00334935   -0.00586893
     atom   32 type  1   force =    -0.00001636   -0.00005184   -0.00082662
     atom   33 type  2   force =     0.00006117   -0.00015824    0.00029024
     atom   34 type  2   force =     0.00005783   -0.00063259   -0.00013285
     atom   35 type  2   force =    -0.00017160   -0.00021130   -0.00019601
     atom   36 type  2   force =     0.00069838    0.00019522   -0.00066821
     atom   37 type  1   force =     0.00071823   -0.00039460    0.00124572
     atom   38 type  1   force =    -0.00005988   -0.00031736    0.00038090
     atom   39 type  2   force =     0.00007517   -0.00030753   -0.00060555
     atom   40 type  2   force =     0.00018722    0.00051042    0.00148813
     atom   41 type  2   force =    -0.00022366   -0.00024486   -0.00019605
     atom   42 type  2   force =    -0.00011403   -0.00022716   -0.00010902
     atom   43 type  1   force =    -0.00063087    0.00023644   -0.00085746
     atom   44 type  1   force =    -0.00049027    0.00082156   -0.00047060
     atom   45 type  2   force =     0.00005457    0.00011395    0.10353304
     atom   46 type  3   force =     0.00771017    0.00248723    0.00489444
     atom   47 type  2   force =    -0.07045944   -0.00082335   -0.03147269
     atom   48 type  2   force =     0.07039622   -0.00035978   -0.03153496
     atom   49 type  4   force =    -0.00891108   -0.00195098   -0.00460280
     atom   50 type  2   force =     0.00156052    0.00103957    0.00027868
     atom   51 type  4   force =     0.00027139    0.00044903   -0.00096081

     Total force =     0.385331     Total SCF correction =     0.000678
  @ DRIVER MODE: Message from server: STATUS
  @ DRIVER MODE: Message from server: GETFORCE
  @ DRIVER MODE: Returning v,forces,stress,ensemble

     Writing output data file ./calc.save/
  @ DRIVER MODE: Message from server: EXIT
  @ DRIVE MODE: Exiting

     General routines

     Parallel routines

   This run was terminated on:  11:54:21  15Sep2021

   JOB DONE.