     Program PWSCF v.6.7GPU starts on 25Sep2021 at 20: 5:34

     R & G space division:  proc/nbgrp/npool/nimage =       8
     Reading input from /storage/home/hcoda1/3/ntian30/research/carbon/CxH_vib/H2O_calc/ads_slab/CH2OHN2HO_a/out_0010/pw.inp
Warning: card &CELL ignored
Warning: card   CELL_DYNAMICS='IPI', ignored
Warning: card / ignored

     Current dimensions of program PWSCF are:
     Max number of different atomic species (ntypx) = 10
     Max number of k-points (npk) =  40000
     Max angular momentum in pseudopotentials (lmaxx) =  3
     Presently no symmetry can be used with electric field

     Message from routine cell_base_init:
     DEPRECATED: use true lattice parameter, not A to a.u. conversion factor

     IMPORTANT: XC functional enforced from input :
     Exchange-correlation= BEEF-VDW
                           (   1   4  43  14   2   0   0)
     Any further DFT definition will be discarded
     Please, verify this is what you really want

  @ DRIVER MODE: Connecting to
 qe_1139763_2971670.sched-torque.pace.gatech.edua_ppjbhg_scratch
  using UNIX socket
  @ DRIVER MODE: Message from server: STATUS
  @ DRIVER MODE: Message from server: INIT
  @ DRIVER MODE: Receiving replica           0          -1
  @ DRIVER MODE: Receiving encoded integer          25
  @ DRIVER MODE:  SCF:  T  FORCE:  T  STRESS:  F  VC:  F  ENSEMBLE:  F
  @ DRIVER MODE:  SCF:  T  FORCE:  T  STRESS:  F  VC:  F  ENSEMBLE:  F

     Using Slab Decomposition

     bravais-lattice index     =            0
     lattice parameter (alat)  =       1.8897  a.u.
     unit-cell volume          =    6658.9804 (a.u.)^3
     number of atoms/cell      =           56
     number of atomic types    =            5
     number of electrons       =       408.00
     number of Kohn-Sham states=          214
     kinetic-energy cutoff     =      29.3995  Ry
     charge density cutoff     =     293.9946  Ry
     scf convergence threshold =      7.3E-08
     mixing beta               =       0.0500
     number of iterations used =            8  plain     mixing
     Exchange-correlation= BEEF-VDW
                           (   1   4  43  14   2   0   0)

     celldm(1)=   1.889726  celldm(2)=   0.000000  celldm(3)=   0.000000
     celldm(4)=   0.000000  celldm(5)=   0.000000  celldm(6)=   0.000000

     crystal axes: (cart. coord. in units of alat)
               a(1) = (   6.579727   0.000000   0.000000 )
               a(2) = (  -0.000775   5.961596   0.000000 )
               a(3) = (   0.000000   0.000000  25.155947 )

     reciprocal axes: (cart. coord. in units 2 pi/alat)
               b(1) = (  0.151982  0.000020  0.000000 )
               b(2) = (  0.000000  0.167740  0.000000 )
               b(3) = (  0.000000  0.000000  0.039752 )

     PseudoPot. # 1 for C  read from file:
     /storage/coda1/p-amedford6/0/shared/rich_project_chbe-medford/medford-share/data/pseudos_module/espresso/nninc/pbe/van/C.UPF
     MD5 check sum: 1a69bf6b8db32088f5b2163dbdb77a27
     Pseudo is Ultrasoft, Zval =  4.0
     Generated by new atomic code, or converted to UPF format
     Using radial grid of  721 points,  4 beta functions with:
                l(1) =   0
                l(2) =   0
                l(3) =   1
                l(4) =   1
     Q(r) pseudized with  8 coefficients,  rinner =    0.800   0.800   0.800

     PseudoPot. # 2 for H  read from file:
     /storage/coda1/p-amedford6/0/shared/rich_project_chbe-medford/medford-share/data/pseudos_module/espresso/nninc/pbe/van/H.UPF
     MD5 check sum: b5ee9d7bfd3a09ee7748110bda690ff7
     Pseudo is Ultrasoft, Zval =  1.0
     Generated by new atomic code, or converted to UPF format
     Using radial grid of  615 points,  1 beta functions with:
                l(1) =   0
     Q(r) pseudized with  8 coefficients,  rinner =    0.800

     PseudoPot. # 3 for O  read from file:
     /storage/coda1/p-amedford6/0/shared/rich_project_chbe-medford/medford-share/data/pseudos_module/espresso/nninc/pbe/van/O.UPF
     MD5 check sum: 78c19812648e8988a0fe644b0f25305e
     Pseudo is Ultrasoft, Zval =  6.0
     Generated by new atomic code, or converted to UPF format
     Using radial grid of  737 points,  4 beta functions with:
                l(1) =   0
                l(2) =   0
                l(3) =   1
                l(4) =   1
     Q(r) pseudized with  8 coefficients,  rinner =    0.800   0.800   0.800

     PseudoPot. # 4 for Ti read from file:
     /storage/coda1/p-amedford6/0/shared/rich_project_chbe-medford/medford-share/data/pseudos_module/espresso/nninc/pbe/van/Ti.UPF
     MD5 check sum: 8e4df49b7f0d34bbd5052bf3f5ea0213
     Pseudo is Ultrasoft, Zval = 12.0
     Generated by new atomic code, or converted to UPF format
     Using radial grid of  851 points,  6 beta functions with:
                l(1) =   0
                l(2) =   0
                l(3) =   1
                l(4) =   1
                l(5) =   2
                l(6) =   2
     Q(r) pseudized with  8 coefficients,  rinner =    1.000   1.000   1.000
                                                       1.000   1.000

     PseudoPot. # 5 for N  read from file:
     /storage/coda1/p-amedford6/0/shared/rich_project_chbe-medford/medford-share/data/pseudos_module/espresso/nninc/pbe/van/N.UPF
     MD5 check sum: 90d10febe142ad51ac9d5be1deb811c4
     Pseudo is Ultrasoft, Zval =  5.0
     Generated by new atomic code, or converted to UPF format
     Using radial grid of  729 points,  4 beta functions with:
                l(1) =   0
                l(2) =   0
                l(3) =   1
                l(4) =   1
     Q(r) pseudized with  8 coefficients,  rinner =    0.800   0.800   0.800

     atomic species   valence    mass     pseudopotential
        C1             4.00    12.01100     C ( 1.00)
        H1             1.00     1.00800     H ( 1.00)
        O1             6.00    15.99900     O ( 1.00)
        Ti1           12.00    47.86700     Ti( 1.00)
        N1             5.00    14.00700     N ( 1.00)

     No symmetry found

   Cartesian axes

     site n.     atom                  positions (alat units)
         1           C1  tau(   1) = (   4.4694424   3.1333252  19.5683752  )
         2           H1  tau(   2) = (   3.5225350   3.1610456  19.0510688  )
         3           H1  tau(   3) = (   5.8501665   2.9975095  17.9951248  )
         4           H1  tau(   4) = (   4.8161173   2.2403860  20.0673745  )
         5           O1  tau(   5) = (   0.0006271   0.0005054   7.9858123  )
         6           O1  tau(   6) = (   3.2906025   0.0005020   7.3038282  )
         7           O1  tau(   7) = (   4.5942328   1.4918067   9.2879030  )
         8           O1  tau(   8) = (   1.9868534   1.4903216   9.2879459  )
         9           O1  tau(   9) = (   3.2658522   0.0207364  11.3165592  )
        10           O1  tau(  10) = (   0.0022773   0.0111808  10.5833539  )
        11           O1  tau(  11) = (   1.2584498   1.5025451  12.6333345  )
        12           O1  tau(  12) = (   5.2827793   1.4879884  12.6049259  )
        13           O1  tau(  13) = (   6.5229081   0.0016576  14.6697044  )
        14           O1  tau(  14) = (   3.2671471   5.9223268  13.9212949  )
        15           O1  tau(  15) = (   4.5038562   1.5078053  16.0770842  )
        16           O1  tau(  16) = (   1.9713840   1.5400684  15.9915579  )
        17           O1  tau(  17) = (   3.2904802   0.0005063   4.7018136  )
        18           O1  tau(  18) = (   0.0083768   5.9574009  17.1899481  )
        19           O1  tau(  19) = (   1.3043587   1.4918075   6.0039043  )
        20           O1  tau(  20) = (   5.2767064   1.4903225   6.0039473  )
        21           O1  tau(  21) = (   0.0002396   2.9813036   7.9858123  )
        22           O1  tau(  22) = (   3.2902150   2.9813002   7.3038282  )
        23           O1  tau(  23) = (   4.5938453   4.4726049   9.2879030  )
        24           O1  tau(  24) = (   1.9864658   4.4711199   9.2879459  )
        25           O1  tau(  25) = (   3.2699439   2.9592623  11.2883102  )
        26           O1  tau(  26) = (   0.0014687   2.9942081  10.5424492  )
        27           O1  tau(  27) = (   1.2624719   4.4656417  12.6394791  )
        28           O1  tau(  28) = (   5.2897987   4.4902883  12.6063686  )
        29           O1  tau(  29) = (   6.5205774   2.9949485  14.6561412  )
        30           O1  tau(  30) = (   3.3050662   2.9767913  13.8748461  )
        31           O1  tau(  31) = (   4.4950179   4.4323158  16.0974573  )
        32           O1  tau(  32) = (   1.9671975   4.4064719  15.9829847  )
        33           O1  tau(  33) = (   3.2900926   2.9813045   4.7018136  )
        34           O1  tau(  34) = (   1.3039711   4.4726057   6.0039043  )
        35           O1  tau(  35) = (   5.2763189   4.4711207   6.0039473  )
        36           O1  tau(  36) = (   6.5424668   2.9800173  17.2949776  )
        37           Ti1 tau(  37) = (   0.0004258   2.9801865   6.0000000  )
        38           Ti1 tau(  38) = (   3.2906075   1.4906267   6.0002472  )
        39           Ti1 tau(  39) = (   3.3167600   3.1006338   9.2159236  )
        40           Ti1 tau(  40) = (   0.0391818   1.5627686   9.3440282  )
        41           Ti1 tau(  41) = (   6.5783755   3.0458713  12.7937554  )
        42           Ti1 tau(  42) = (   3.2318486   1.5634082  12.4209175  )
        43           Ti1 tau(  43) = (   3.2670811   2.9501284  15.6494465  )
        44           Ti1 tau(  44) = (   0.0280251   1.4030395  16.0254105  )
        45           Ti1 tau(  45) = (   0.0000382   5.9609847   6.0000000  )
        46           Ti1 tau(  46) = (   3.2902200   4.4714249   6.0002472  )
        47           Ti1 tau(  47) = (   3.3194908   0.1157174   9.1781592  )
        48           Ti1 tau(  48) = (   0.0398790   4.5135925   9.3581580  )
        49           Ti1 tau(  49) = (   6.5007586   0.0729955  12.6074658  )
        50           Ti1 tau(  50) = (   3.2510718   4.6571100  12.6672192  )
        51           Ti1 tau(  51) = (   3.3282601   5.9350673  16.2366838  )
        52           Ti1 tau(  52) = (   0.0495319   4.5308688  15.9870001  )
        53           N1  tau(  53) = (   5.2748021   5.2735043  20.4272172  )
        54           N1  tau(  54) = (   4.8779203   4.2732533  20.0576380  )
        55           O1  tau(  55) = (   3.0402417   5.9484128  18.0530970  )
        56           H1  tau(  56) = (   2.1234608   0.1014992  18.3542784  )

     number of k points=    10  Fermi-Dirac smearing, width (Ry)=  0.0073
                       cart. coord. in units 2pi/alat
        k(    1) = (   0.0000000   0.0000000   0.0000000), wk =   0.1250000
        k(    2) = (   0.0000000   0.0419351   0.0000000), wk =   0.2500000
        k(    3) = (   0.0000000  -0.0838702   0.0000000), wk =   0.1250000
        k(    4) = (   0.0379955   0.0000049   0.0000000), wk =   0.2500000
        k(    5) = (   0.0379955   0.0419400   0.0000000), wk =   0.2500000
        k(    6) = (   0.0379955  -0.0838652   0.0000000), wk =   0.2500000
        k(    7) = (   0.0379955  -0.0419301   0.0000000), wk =   0.2500000
        k(    8) = (  -0.0759910  -0.0000099   0.0000000), wk =   0.1250000
        k(    9) = (  -0.0759910   0.0419252   0.0000000), wk =   0.2500000
        k(   10) = (  -0.0759910  -0.0838800   0.0000000), wk =   0.1250000

     Initial potential from superposition of free atoms

     starting charge  391.99915, renormalised to  408.00000

     negative rho (up, down):  1.415E-02 0.000E+00

     %%%%%%%%%%%%%%%%%%%%%%%%%%%%%%%%%%%%%%%%%%%%%%%%%%%%%%%%%%%%%%%%%%%%%%%%
     %                                                                      %
     % You are using vdW-DF, which was implemented by the Thonhauser group. %
     % Please cite the following two papers that made this development      %
     % possible and the two reviews that describe the various versions:     %
     %                                                                      %
     %   T. Thonhauser et al., PRL 115, 136402 (2015).                      %
     %   T. Thonhauser et al., PRB 76, 125112 (2007).                       %
     %   K. Berland et al., Rep. Prog. Phys. 78, 066501 (2015).             %
     %   D.C. Langreth et al., J. Phys.: Condens. Matter 21, 084203 (2009). %
     %                                                                      %
     %                                                                      %
     % If you are calculating the stress with vdW-DF, please also cite:     %
     %                                                                      %
     %   R. Sabatini et al., J. Phys.: Condens. Matter 24, 424209 (2012).   %
     %                                                                      %
     %%%%%%%%%%%%%%%%%%%%%%%%%%%%%%%%%%%%%%%%%%%%%%%%%%%%%%%%%%%%%%%%%%%%%%%%

     Adding external electric field

     Computed dipole along edir(3) :
        Dipole              -15.5929 Ry au,        -39.6331 Debye
        Dipole field         -0.0294 Ry au,

        Potential amp.        2.7277 Ry
        Total length         46.3494 bohr

     Starting wfcs are  308 atomic wfcs
  @ DRIVER MODE: Message from server: STATUS
  @ DRIVER MODE: Message from server: POSDATA
  @ DRIVER MODE: Reading and sharing cell
  @ DRIVER MODE: Reading and sharing positions
  @ DRIVER MODE: Received positions

     Self-consistent Calculation

     iteration #  1     ecut=    29.40 Ry     beta= 0.05
     Davidson diagonalization with overlap
     c_bands:  3 eigenvalues not converged
     c_bands:  1 eigenvalues not converged
     c_bands:  4 eigenvalues not converged
     c_bands:  2 eigenvalues not converged
     ethr =  1.00E-05,  avg # of iterations = 30.2

[...]

     total energy              =   -2234.28819949 Ry
     estimated scf accuracy    <    8817.31660565 Ry

     iteration #  2     ecut=    29.40 Ry     beta= 0.05
     Davidson diagonalization with overlap
     ethr =  1.00E-02,  avg # of iterations = 30.2

[...]

     iteration # 50     ecut=    29.40 Ry     beta= 0.05
     Davidson diagonalization with overlap
     c_bands:  1 eigenvalues not converged
     c_bands:  1 eigenvalues not converged
     ethr =  7.04E-07,  avg # of iterations = 13.8

[...]

     total energy              =   -3005.15887614 Ry
     estimated scf accuracy    <       0.00000009 Ry

     iteration # 73     ecut=    29.40 Ry     beta= 0.05
     Davidson diagonalization with overlap
     ethr =  2.27E-11,  avg # of iterations =  5.1

     negative rho (up, down):  1.447E-02 0.000E+00

     Adding external electric field

     Computed dipole along edir(3) :
        Dipole                0.4946 Ry au,          1.2572 Debye
        Dipole field          0.0009 Ry au,

        Potential amp.       -0.0865 Ry
        Total length         46.3494 bohr

     End of self-consistent calculation

          k = 0.0000 0.0000 0.0000 ( 18029 PWs)   bands (ev):

   -56.1963 -56.1499 -55.6498 -55.6417 -55.6264 -55.5827 -55.5675 -55.5299
   -55.5165 -55.4858 -55.4465 -55.4082 -55.4039 -55.2676 -54.8210 -54.7871
   -32.6105 -32.4596 -32.4109 -32.3766 -32.2822 -32.2369 -32.1441 -32.0874
   -32.0747 -32.0207 -31.9534 -31.9441 -31.9426 -31.8840 -31.8831 -31.8776
   -31.8618 -31.8429 -31.8276 -31.8122 -31.7999 -31.7911 -31.7550 -31.7341
   -31.7305 -31.7092 -31.7055 -31.7015 -31.6998 -31.6982 -31.6887 -31.6788
   -31.6659 -31.6530 -31.6508 -31.6078 -31.6017 -31.5994 -31.5659 -31.5242
   -31.4870 -31.4670 -31.2159 -31.1603 -31.1359 -31.0328 -30.9479 -30.8369
   -20.6066 -16.8418 -16.4158 -16.3592 -16.2162 -15.9853 -15.8478 -15.7647
   -15.5338 -15.5175 -15.4020 -15.3958 -15.3519 -15.2408 -15.2248 -15.1884
   -15.1870 -15.1675 -15.1572 -15.1226 -15.1190 -15.1103 -15.0419 -15.0159
   -14.9845 -14.9439 -14.8862 -14.8474 -14.7759 -14.7707 -14.7271 -14.5232
   -13.7514 -13.3216 -13.2125  -6.3485  -5.3664  -4.8344  -4.2677  -4.0096
    -3.8847  -3.6687  -3.5713  -3.5653  -3.3958  -3.3718  -3.2769  -3.0567
    -2.9231  -2.8415  -2.8106  -2.7509  -2.7277  -2.6570  -2.6229  -2.6130
    -2.5727  -2.5245  -2.4716  -2.4562  -2.4431  -2.3981  -2.3882  -2.3556
    -2.3404  -2.3364  -2.2949  -2.1478  -2.1362  -2.0841  -2.0700  -2.0215
    -2.0128  -1.9895  -1.9744  -1.9330  -1.8947  -1.7559  -1.7375  -1.7227
    -1.6551  -1.4369  -1.4038  -1.3070  -1.2471  -1.2116  -1.1169  -1.1146
    -1.0894  -1.0528  -1.0045  -0.9219  -0.8886  -0.8342  -0.7842  -0.7812
    -0.7326  -0.6649  -0.6156  -0.5577  -0.5195  -0.4778  -0.4025  -0.3479
    -0.2885  -0.2665  -0.2152  -0.1756  -0.0867  -0.0520  -0.0225   0.0288
     0.0495   0.1163   0.1232   0.1616   0.1831   0.2629   0.2888   0.3060
     0.3543   0.3812   0.4017   0.4620   0.5222   0.5706   0.6105   0.7112
     0.7603   0.7833   0.8521   0.9302   1.1010   1.1976   1.2263   1.4224
     1.4542   1.7514   1.7994   1.8578   3.1018   3.2666   3.5546   3.6459
     3.6863   3.7150   3.8099   3.8419   3.9967   4.0378

[...]

          k = 0.0380-0.0419 0.0000 ( 17876 PWs)   bands (ev):

[...]

          k =-0.0760-0.0000 0.0000 ( 17886 PWs)   bands (ev):

[...]

          k =-0.0760-0.0839 0.0000 ( 17948 PWs)   bands (ev):

   -56.1891 -56.1570 -55.6479 -55.6397 -55.6211 -55.5760 -55.5730 -55.5363
   -55.5180 -55.4875 -55.4380 -55.4126 -55.4060 -55.2696 -54.8042 -54.8038
   -32.4549 -32.4410 -32.4152 -32.4136 -32.3415 -32.3143 -32.0335 -31.9515
   -31.9510 -31.9227 -31.9213 -31.8846 -31.8834 -31.8720 -31.8618 -31.8515
   -31.8420 -31.8294 -31.8148 -31.8066 -31.8040 -31.7995 -31.7922 -31.7909
   -31.7838 -31.7808 -31.7688 -31.7534 -31.7251 -31.7192 -31.7078 -31.7014
   -31.6988 -31.6809 -31.6605 -31.6530 -31.6456 -31.6229 -31.6070 -31.5906
   -31.5225 -31.4703 -31.1490 -31.1489 -31.0314 -31.0297 -30.9901 -30.9893
   -20.6058 -16.7653 -16.3908 -15.8004 -15.6704 -15.6627 -15.6622 -15.6268
   -15.5852 -15.5341 -15.5066 -15.4501 -15.3823 -15.3561 -15.3372 -15.3134
   -15.2732 -15.2357 -15.2316 -15.1504 -15.1121 -15.1034 -15.0847 -15.0697
   -15.0298 -15.0278 -15.0105 -14.9990 -14.9926 -14.9399 -14.8431 -14.6620
   -13.7586 -13.3167 -13.3156  -6.2806  -5.4095  -4.7833  -4.2384  -3.9826
    -3.4892  -3.0285  -2.9247  -2.8479  -2.8407  -2.7526  -2.7113  -2.6810
    -2.6611  -2.6410  -2.6158  -2.5648  -2.5444  -2.5064  -2.4966  -2.4963
    -2.4770  -2.4703  -2.4503  -2.4286  -2.4135  -2.3950  -2.3860  -2.3642
    -2.3531  -2.3394  -2.3186  -2.2875  -2.2446  -2.2291  -2.0476  -2.0200
    -2.0118  -2.0100  -1.9432  -1.9376  -1.8859  -1.8060  -1.7911  -1.7715
    -1.7495  -1.6384  -1.4996  -1.4525  -1.3959  -1.3775  -1.3083  -1.2536
    -1.1592  -1.1405  -1.1286  -1.1134  -1.0676  -1.0640  -0.9780  -0.9238
    -0.8827  -0.8767  -0.8556  -0.8102  -0.6978  -0.6870  -0.6421  -0.6222
    -0.6082  -0.5047  -0.4747  -0.4509  -0.4412  -0.4287  -0.3248  -0.2765
    -0.2249  -0.1778  -0.1180  -0.0620   0.0627   0.0883   0.1820   0.2110
     0.2534   0.3862   0.4096   0.4635   0.4966   0.5442   0.5885   0.6026
     0.7306   0.7843   0.8035   0.8734   0.8857   0.9303   0.9543   1.5900
     1.5962   1.6035   1.6058   1.7958   3.6440   3.6705   3.6768   3.7111
     3.8964   3.9248   4.0032   4.0279   4.0420   4.0541

     the Fermi energy is     2.5626 ev

!    total energy              =   -3005.15889659 Ry
     estimated scf accuracy    <       0.00000003 Ry
     smearing contrib. (-TS)   =      -0.00024192 Ry
     internal energy E=F+TS    =   -3005.15865466 Ry

     The total energy is F=E-TS. E is the sum of the following terms:
     one-electron contribution =  -22952.23087106 Ry
     hartree contribution      =   11572.03620282 Ry
     xc contribution           =    -500.30747071 Ry
     ewald contribution        =    8875.34302258 Ry
     electric field correction =       0.00046170 Ry

     convergence has been achieved in  73 iterations

     Forces acting on atoms (cartesian axes, Ry/au):

     atom    1 type  1   force =     0.00060213   -0.00029888    0.00017443
     atom    2 type  2   force =    -0.00021031    0.00021138   -0.00007356
     atom    3 type  2   force =    -0.00001647    0.00001643   -0.00027422
     atom    4 type  2   force =    -0.00039567   -0.00011647    0.00011323
     atom    5 type  3   force =     0.00027715   -0.00318052   -0.05389096
     atom    6 type  3   force =     0.00044626    0.00120537    0.04057023
     atom    7 type  3   force =    -0.00982599   -0.00219529    0.00045352
     atom    8 type  3   force =     0.00891243   -0.00509984   -0.00065368
     atom    9 type  3   force =     0.00010016    0.00094948   -0.00006753
     atom   10 type  3   force =    -0.00011450    0.00052285   -0.00002935
     atom   11 type  3   force =     0.00032308   -0.00007190   -0.00015412
     atom   12 type  3   force =    -0.00124609    0.00124810   -0.00004833
     atom   13 type  3   force =    -0.00000318    0.00050228   -0.00010372
     atom   14 type  3   force =     0.00006800    0.00058984    0.00047543
     atom   15 type  3   force =    -0.00004684    0.00010459    0.00010164
     atom   16 type  3   force =     0.00002434   -0.00008619   -0.00002465
     atom   17 type  3   force =    -0.00007012    0.00016493    0.09946847
     atom   18 type  3   force =     0.00008227   -0.00007825    0.00009442
     atom   19 type  3   force =    -0.08024261    0.00059125   -0.03417776
     atom   20 type  3   force =     0.08001518    0.00110630   -0.03420243
     atom   21 type  3   force =     0.00051730    0.00004959   -0.05297156
     atom   22 type  3   force =     0.00038343    0.00048951    0.04233383
     atom   23 type  3   force =    -0.01097684    0.00573192    0.00232005
     atom   24 type  3   force =     0.01010369    0.00210328    0.00118644
     atom   25 type  3   force =     0.00007137   -0.00068034    0.00027106
     atom   26 type  3   force =     0.00001098   -0.00020680   -0.00002618
     atom   27 type  3   force =     0.00030121   -0.00069145    0.00004468
     atom   28 type  3   force =     0.00039237    0.00000698    0.00013006
     atom   29 type  3   force =     0.00013770   -0.00053043    0.00017976
     atom   30 type  3   force =    -0.00002686   -0.00055629   -0.00012662
     atom   31 type  3   force =     0.00008683   -0.00009106   -0.00003636
     atom   32 type  3   force =    -0.00000266   -0.00020968    0.00015468
     atom   33 type  3   force =    -0.00007964    0.00025613    0.09903730
     atom   34 type  3   force =    -0.08023916   -0.00144868   -0.03418087
     atom   35 type  3   force =     0.08002229   -0.00092647   -0.03422930
     atom   36 type  3   force =     0.00005427   -0.00010342    0.00004033
     atom   37 type  4   force =     0.00019024    0.00017519    0.13340562
     atom   38 type  4   force =     0.00001378    0.00799556   -0.15916587
     atom   39 type  4   force =    -0.00006939   -0.00000617   -0.00017320
     atom   40 type  4   force =    -0.00007450    0.00011937   -0.00014911
     atom   41 type  4   force =    -0.00031283    0.00725056   -0.00014083
     atom   42 type  4   force =    -0.00013990    0.00004483   -0.00030584
     atom   43 type  4   force =     0.00011629    0.00002796    0.00012586
     atom   44 type  4   force =     0.00018155   -0.00004486    0.00008229
     atom   45 type  4   force =    -0.00022700   -0.00009010    0.14214698
     atom   46 type  4   force =    -0.00019635   -0.00647261   -0.15862349
     atom   47 type  4   force =     0.00011350   -0.00012384    0.00000066
     atom   48 type  4   force =    -0.00016251    0.00022323    0.00039713
     atom   49 type  4   force =     0.00025943   -0.00796967    0.00021714
     atom   50 type  4   force =     0.00010239   -0.00043851    0.00013369
     atom   51 type  4   force =     0.00019716    0.00004663    0.00018881
     atom   52 type  4   force =     0.00009262   -0.00004390   -0.00004400
     atom   53 type  5   force =     0.00022195   -0.00002343   -0.00041850
     atom   54 type  5   force =    -0.00000372    0.00012547    0.00054379
     atom   55 type  3   force =    -0.00010434    0.00033740   -0.00043868
     atom   56 type  2   force =     0.00036611   -0.00041137    0.00033917

     Total force =     0.385271     Total SCF correction =     0.000679
  @ DRIVER MODE: Message from server: STATUS
  @ DRIVER MODE: Message from server: GETFORCE
  @ DRIVER MODE: Returning v,forces,stress,ensemble

     Writing output data file ./calc.save/
  @ DRIVER MODE: Message from server: EXIT
  @ DRIVE MODE: Exiting

     General routines

     Parallel routines

   This run was terminated on:  20:37:56  25Sep2021

   JOB DONE.