     Program PWSCF v.6.7GPU starts on 22Sep2021 at 18:53:18

     R & G space division:  proc/nbgrp/npool/nimage =      10
     Reading input from /storage/home/hcoda1/3/ntian30/research/carbon/CxH_vib/H2O_calc/ads_slab/CH2N2HHO_a/out_0007/pw.inp
Warning: card &CELL ignored
Warning: card   CELL_DYNAMICS='IPI', ignored
Warning: card / ignored

     Current dimensions of program PWSCF are:
     Max number of different atomic species (ntypx) = 10
     Max number of k-points (npk) =  40000
     Max angular momentum in pseudopotentials (lmaxx) =  3
     Presently no symmetry can be used with electric field

     Message from routine cell_base_init:
     DEPRECATED: use true lattice parameter, not A to a.u. conversion factor

     IMPORTANT: XC functional enforced from input :
     Exchange-correlation= BEEF-VDW
                           (   1   4  43  14   2   0   0)
     Any further DFT definition will be discarded
     Please, verify this is what you really want

  @ DRIVER MODE: Connecting to
 qe_1139763_2937323.sched-torque.pace.gatech.edute246_ie_scratch
  using UNIX socket
  @ DRIVER MODE: Message from server: STATUS
  @ DRIVER MODE: Message from server: INIT
  @ DRIVER MODE: Receiving replica           0          -1
  @ DRIVER MODE: Receiving encoded integer          25
  @ DRIVER MODE:  SCF:  T  FORCE:  T  STRESS:  F  VC:  F  ENSEMBLE:  F
  @ DRIVER MODE:  SCF:  T  FORCE:  T  STRESS:  F  VC:  F  ENSEMBLE:  F

     Using Slab Decomposition

     bravais-lattice index     =            0
     lattice parameter (alat)  =       1.8897  a.u.
     unit-cell volume          =    6658.9804 (a.u.)^3
     number of atoms/cell      =           55
     number of atomic types    =            5
     number of electrons       =       402.00
     number of Kohn-Sham states=          211
     kinetic-energy cutoff     =      29.3995  Ry
     charge density cutoff     =     293.9946  Ry
     scf convergence threshold =      7.3E-08
     mixing beta               =       0.0500
     number of iterations used =            8  plain     mixing
     Exchange-correlation= BEEF-VDW
                           (   1   4  43  14   2   0   0)

     celldm(1)=   1.889726  celldm(2)=   0.000000  celldm(3)=   0.000000
     celldm(4)=   0.000000  celldm(5)=   0.000000  celldm(6)=   0.000000

     crystal axes: (cart. coord. in units of alat)
               a(1) = (   6.579727   0.000000   0.000000 )
               a(2) = (  -0.000775   5.961596   0.000000 )
               a(3) = (   0.000000   0.000000  25.155947 )

     reciprocal axes: (cart. coord. in units 2 pi/alat)
               b(1) = (  0.151982  0.000020  0.000000 )
               b(2) = (  0.000000  0.167740  0.000000 )
               b(3) = (  0.000000  0.000000  0.039752 )

     PseudoPot. # 1 for Ti read from file:
     /storage/coda1/p-amedford6/0/shared/rich_project_chbe-medford/medford-share/data/pseudos_module/espresso/nninc/pbe/van/Ti.UPF
     MD5 check sum: 8e4df49b7f0d34bbd5052bf3f5ea0213
     Pseudo is Ultrasoft, Zval = 12.0
     Generated by new atomic code, or converted to UPF format
     Using radial grid of  851 points,  6 beta functions with:
                l(1) =   0
                l(2) =   0
                l(3) =   1
                l(4) =   1
                l(5) =   2
                l(6) =   2
     Q(r) pseudized with  8 coefficients,  rinner =    1.000   1.000   1.000
                                                       1.000   1.000

     PseudoPot. # 2 for O  read from file:
     /storage/coda1/p-amedford6/0/shared/rich_project_chbe-medford/medford-share/data/pseudos_module/espresso/nninc/pbe/van/O.UPF
     MD5 check sum: 78c19812648e8988a0fe644b0f25305e
     Pseudo is Ultrasoft, Zval =  6.0
     Generated by new atomic code, or converted to UPF format
     Using radial grid of  737 points,  4 beta functions with:
                l(1) =   0
                l(2) =   0
                l(3) =   1
                l(4) =   1
     Q(r) pseudized with  8 coefficients,  rinner =    0.800   0.800   0.800

     PseudoPot. # 3 for N  read from file:
     /storage/coda1/p-amedford6/0/shared/rich_project_chbe-medford/medford-share/data/pseudos_module/espresso/nninc/pbe/van/N.UPF
     MD5 check sum: 90d10febe142ad51ac9d5be1deb811c4
     Pseudo is Ultrasoft, Zval =  5.0
     Generated by new atomic code, or converted to UPF format
     Using radial grid of  729 points,  4 beta functions with:
                l(1) =   0
                l(2) =   0
                l(3) =   1
                l(4) =   1
     Q(r) pseudized with  8 coefficients,  rinner =    0.800   0.800   0.800

     PseudoPot. # 4 for C  read from file:
     /storage/coda1/p-amedford6/0/shared/rich_project_chbe-medford/medford-share/data/pseudos_module/espresso/nninc/pbe/van/C.UPF
     MD5 check sum: 1a69bf6b8db32088f5b2163dbdb77a27
     Pseudo is Ultrasoft, Zval =  4.0
     Generated by new atomic code, or converted to UPF format
     Using radial grid of  721 points,  4 beta functions with:
                l(1) =   0
                l(2) =   0
                l(3) =   1
                l(4) =   1
     Q(r) pseudized with  8 coefficients,  rinner =    0.800   0.800   0.800

     PseudoPot. # 5 for H  read from file:
     /storage/coda1/p-amedford6/0/shared/rich_project_chbe-medford/medford-share/data/pseudos_module/espresso/nninc/pbe/van/H.UPF
     MD5 check sum: b5ee9d7bfd3a09ee7748110bda690ff7
     Pseudo is Ultrasoft, Zval =  1.0
     Generated by new atomic code, or converted to UPF format
     Using radial grid of  615 points,  1 beta functions with:
                l(1) =   0
     Q(r) pseudized with  8 coefficients,  rinner =    0.800

     atomic species   valence    mass     pseudopotential
        Ti1           12.00    47.86700     Ti( 1.00)
        O1             6.00    15.99900     O ( 1.00)
        N1             5.00    14.00700     N ( 1.00)
        C1             4.00    12.01100     C ( 1.00)
        H1             1.00     1.00800     H ( 1.00)

     No symmetry found

   Cartesian axes

     site n.     atom                  positions (alat units)
         1           Ti1 tau(   1) = (   0.0004258   2.9801865   6.0000000  )
         2           Ti1 tau(   2) = (   3.2906075   1.4906267   6.0002472  )
         3           O1  tau(   3) = (   0.0006271   0.0005054   7.9858123  )
         4           O1  tau(   4) = (   3.2906025   0.0005020   7.3038282  )
         5           O1  tau(   5) = (   4.5942328   1.4918067   9.2879030  )
         6           O1  tau(   6) = (   1.9868534   1.4903216   9.2879459  )
         7           Ti1 tau(   7) = (   3.2907910   2.8959150   9.1758416  )
         8           Ti1 tau(   8) = (   0.0015273   1.4827037   9.2680791  )
         9           O1  tau(   9) = (   3.3002520   5.9418316  11.2747492  )
        10           O1  tau(  10) = (   0.0116148   5.9584955  10.6183126  )
        11           O1  tau(  11) = (   1.2897458   1.4862980  12.6211975  )
        12           O1  tau(  12) = (   5.3051886   1.5023792  12.6347999  )
        13           Ti1 tau(  13) = (   0.0146078   2.8478158  12.7200684  )
        14           Ti1 tau(  14) = (   3.3063360   1.3081926  12.6482236  )
        15           O1  tau(  15) = (   0.0235978   5.9609164  14.6274833  )
        16           O1  tau(  16) = (   3.2983906   0.0399142  13.8749830  )
        17           O1  tau(  17) = (   4.5813539   1.5856785  16.0626423  )
        18           O1  tau(  18) = (   2.0324892   1.5097802  16.0098020  )
        19           Ti1 tau(  19) = (   3.2774956   2.9544257  15.6266065  )
        20           Ti1 tau(  20) = (   6.5530467   1.3151789  15.9772938  )
        21           O1  tau(  21) = (   3.2904802   0.0005063   4.7018136  )
        22           O1  tau(  22) = (   6.5059356   5.9265713  17.1294848  )
        23           O1  tau(  23) = (   1.3043587   1.4918075   6.0039043  )
        24           O1  tau(  24) = (   5.2767064   1.4903225   6.0039473  )
        25           Ti1 tau(  25) = (   0.0000382   5.9609847   6.0000000  )
        26           Ti1 tau(  26) = (   3.2902200   4.4714249   6.0002472  )
        27           O1  tau(  27) = (   0.0002396   2.9813036   7.9858123  )
        28           O1  tau(  28) = (   3.2902150   2.9813002   7.3038282  )
        29           O1  tau(  29) = (   4.5938453   4.4726049   9.2879030  )
        30           O1  tau(  30) = (   1.9864658   4.4711199   9.2879459  )
        31           Ti1 tau(  31) = (   3.2891106   5.8743827   9.1763621  )
        32           Ti1 tau(  32) = (   0.0006254   4.4649316   9.2693709  )
        33           O1  tau(  33) = (   3.2992753   3.0242338  11.2405823  )
        34           O1  tau(  34) = (   0.0092240   2.9805883  10.6323155  )
        35           O1  tau(  35) = (   1.2972400   4.4705050  12.6241655  )
        36           O1  tau(  36) = (   5.3008088   4.4694758  12.6340222  )
        37           Ti1 tau(  37) = (   0.0289225   5.8314391  12.5906285  )
        38           Ti1 tau(  38) = (   3.3189507   4.3956991  12.4097224  )
        39           O1  tau(  39) = (   0.0312427   2.9750824  14.7260556  )
        40           O1  tau(  40) = (   3.2762925   2.9668711  13.8358254  )
        41           O1  tau(  41) = (   4.5358187   4.4455929  15.9064879  )
        42           O1  tau(  42) = (   2.0572077   4.4429961  16.0439637  )
        43           Ti1 tau(  43) = (   3.2186928   5.9141907  16.2420754  )
        44           Ti1 tau(  44) = (   6.4642982   4.4840528  15.9061301  )
        45           O1  tau(  45) = (   3.2900926   2.9813045   4.7018136  )
        46           O1  tau(  46) = (   1.3039711   4.4726057   6.0039043  )
        47           O1  tau(  47) = (   5.2763189   4.4711207   6.0039473  )
        48           N1  tau(  48) = (   0.2499663   2.3419386  17.9913213  )
        49           C1  tau(  49) = (   0.6108863   1.8700663  19.1394302  )
        50           H1  tau(  50) = (   0.7431952   2.5333404  19.9929579  )
        51           H1  tau(  51) = (   0.8399735   0.8189210  19.2161768  )
        52           N1  tau(  52) = (   6.5658643   3.6116587  17.7752569  )
        53           H1  tau(  53) = (   0.1300021   4.2235620  18.5825096  )
        54           O1  tau(  54) = (   3.3713844   5.9089882  18.0735649  )
        55           H1  tau(  55) = (   4.1655974   0.3538959  18.4550359  )

     number of k points=    10  Fermi-Dirac smearing, width (Ry)=  0.0073
                       cart. coord. in units 2pi/alat
        k(    1) = (   0.0000000   0.0000000   0.0000000), wk =   0.1250000
        k(    2) = (   0.0000000   0.0419351   0.0000000), wk =   0.2500000
        k(    3) = (   0.0000000  -0.0838702   0.0000000), wk =   0.1250000
        k(    4) = (   0.0379955   0.0000049   0.0000000), wk =   0.2500000
        k(    5) = (   0.0379955   0.0419400   0.0000000), wk =   0.2500000
        k(    6) = (   0.0379955  -0.0838652   0.0000000), wk =   0.2500000
        k(    7) = (   0.0379955  -0.0419301   0.0000000), wk =   0.2500000
        k(    8) = (  -0.0759910  -0.0000099   0.0000000), wk =   0.1250000
        k(    9) = (  -0.0759910   0.0419252   0.0000000), wk =   0.2500000
        k(   10) = (  -0.0759910  -0.0838800   0.0000000), wk =   0.1250000

     Initial potential from superposition of free atoms

     starting charge  385.99915, renormalised to  402.00000

     negative rho (up, down):  1.591E-02 0.000E+00

     %%%%%%%%%%%%%%%%%%%%%%%%%%%%%%%%%%%%%%%%%%%%%%%%%%%%%%%%%%%%%%%%%%%%%%%%
     %                                                                      %
     % You are using vdW-DF, which was implemented by the Thonhauser group. %
     % Please cite the following two papers that made this development      %
     % possible and the two reviews that describe the various versions:     %
     %                                                                      %
     %   T. Thonhauser et al., PRL 115, 136402 (2015).                      %
     %   T. Thonhauser et al., PRB 76, 125112 (2007).                       %
     %   K. Berland et al., Rep. Prog. Phys. 78, 066501 (2015).             %
     %   D.C. Langreth et al., J. Phys.: Condens. Matter 21, 084203 (2009). %
     %                                                                      %
     %                                                                      %
     % If you are calculating the stress with vdW-DF, please also cite:     %
     %                                                                      %
     %   R. Sabatini et al., J. Phys.: Condens. Matter 24, 424209 (2012).   %
     %                                                                      %
     %%%%%%%%%%%%%%%%%%%%%%%%%%%%%%%%%%%%%%%%%%%%%%%%%%%%%%%%%%%%%%%%%%%%%%%%

     Adding external electric field

     Computed dipole along edir(3) :
        Dipole              -11.3527 Ry au,        -28.8557 Debye
        Dipole field         -0.0214 Ry au,

        Potential amp.        1.9860 Ry
        Total length         46.3494 bohr

     Starting wfcs are  304 atomic wfcs
  @ DRIVER MODE: Message from server: STATUS
  @ DRIVER MODE: Message from server: POSDATA
  @ DRIVER MODE: Reading and sharing cell
  @ DRIVER MODE: Reading and sharing positions
  @ DRIVER MODE: Received positions

     Self-consistent Calculation

     iteration #  1     ecut=    29.40 Ry     beta= 0.05
     Davidson diagonalization with overlap
     c_bands:  4 eigenvalues not converged
     c_bands:  3 eigenvalues not converged
     c_bands:  3 eigenvalues not converged
     c_bands:  5 eigenvalues not converged
     c_bands:  5 eigenvalues not converged
     c_bands:  1 eigenvalues not converged
     c_bands:  5 eigenvalues not converged
     c_bands:  4 eigenvalues not converged
     c_bands:  5 eigenvalues not converged
     c_bands:  1 eigenvalues not converged
     ethr =  1.00E-05,  avg # of iterations = 24.0

[...]

     total energy              =   -2410.16440744 Ry
     estimated scf accuracy    <    6308.34681689 Ry

     iteration #  2     ecut=    29.40 Ry     beta= 0.05
     Davidson diagonalization with overlap
     ethr =  1.00E-02,  avg # of iterations = 23.2

[...]

     iteration # 38     ecut=    29.40 Ry     beta= 0.05
     Davidson diagonalization with overlap
     c_bands:  3 eigenvalues not converged
     c_bands:  1 eigenvalues not converged
     c_bands:  1 eigenvalues not converged
     c_bands:  3 eigenvalues not converged
     c_bands:  1 eigenvalues not converged
     ethr =  2.35E-06,  avg # of iterations = 17.2

[...]

     total energy              =   -2972.72748479 Ry
     estimated scf accuracy    <       0.00000063 Ry

     iteration # 69     ecut=    29.40 Ry     beta= 0.05
     Davidson diagonalization with overlap
     ethr =  5.33E-11,  avg # of iterations =  7.2

     negative rho (up, down):  1.620E-02 0.000E+00

     Adding external electric field

     Computed dipole along edir(3) :
        Dipole                0.4591 Ry au,          1.1669 Debye
        Dipole field          0.0009 Ry au,

        Potential amp.       -0.0803 Ry
        Total length         46.3494 bohr

     End of self-consistent calculation

          k = 0.0000 0.0000 0.0000 ( 18029 PWs)   bands (ev):

   -56.5403 -56.5067 -55.8875 -55.8520 -55.6249 -55.5654 -55.3806 -55.3266
   -55.3008 -55.2308 -55.1999 -55.1914 -55.1574 -55.0334 -55.0317 -54.9845
   -32.9725 -32.8250 -32.7970 -32.7078 -32.6165 -32.5982 -32.3705 -32.1070
   -32.1054 -32.0779 -32.0306 -32.0270 -31.9939 -31.8701 -31.8537 -31.8458
   -31.7929 -31.7691 -31.7282 -31.7099 -31.6914 -31.6480 -31.6442 -31.5876
   -31.5851 -31.5812 -31.5793 -31.5351 -31.5323 -31.5259 -31.5081 -31.5066
   -31.4849 -31.4803 -31.4244 -31.4053 -31.4011 -31.3541 -31.3184 -31.2951
   -31.2876 -31.2801 -31.2437 -31.2423 -31.2170 -31.2066 -31.1753 -31.1551
   -17.8291 -16.7255 -16.2911 -16.1705 -15.9820 -15.9099 -15.8846 -15.8537
   -15.7881 -15.6143 -15.5360 -15.5099 -15.5014 -15.4419 -15.2742 -15.1777
   -15.1589 -15.0928 -15.0154 -14.9911 -14.9522 -14.8996 -14.8707 -14.8568
   -14.8414 -14.8054 -14.6840 -14.6031 -14.5038 -14.3241 -14.3063 -13.6888
   -13.5793 -11.9830  -7.7185  -5.1572  -4.3563  -4.2761  -3.7977  -3.7742
    -3.6073  -3.4271  -3.3719  -3.2253  -3.1674  -3.1191  -3.0626  -3.0481
    -2.9446  -2.8020  -2.7949  -2.7417  -2.7194  -2.7152  -2.6967  -2.5969
    -2.5290  -2.5203  -2.4250  -2.3336  -2.3118  -2.2734  -2.2334  -2.2258
    -2.1823  -2.1429  -2.0883  -2.0519  -2.0343  -1.9376  -1.9183  -1.8110
    -1.7868  -1.7576  -1.7508  -1.7193  -1.6805  -1.6218  -1.5475  -1.4306
    -1.3435  -1.3238  -1.2516  -1.2419  -1.2212  -1.0587  -1.0176  -1.0157
    -0.9551  -0.8790  -0.8505  -0.7935  -0.7561  -0.7125  -0.6596  -0.6166
    -0.5822  -0.4545  -0.4503  -0.3985  -0.3145  -0.2939  -0.2625  -0.2395
    -0.1591  -0.1031  -0.0665   0.0059   0.0650   0.0715   0.1169   0.1741
     0.2828   0.3262   0.3501   0.3812   0.4236   0.4479   0.5157   0.5634
     0.5943   0.6035   0.6795   0.7812   0.7986   0.8319   0.9227   0.9463
     1.0337   1.0706   1.0861   1.1722   1.1921   1.3700   1.4083   1.5796
     2.3817   2.7243   2.8745   3.1570   3.1724   3.4647   3.6868   3.7144
     3.7173   3.7979   3.9358

[...]

          k = 0.0380-0.0419 0.0000 ( 17876 PWs)   bands (ev):

[...]

          k =-0.0760-0.0000 0.0000 ( 17886 PWs)   bands (ev):

[...]

          k =-0.0760-0.0839 0.0000 ( 17948 PWs)   bands (ev):

   -56.5238 -56.5230 -55.8755 -55.8637 -55.6196 -55.5706 -55.3744 -55.3326
   -55.2987 -55.2294 -55.2017 -55.1749 -55.1737 -55.0348 -55.0245 -54.9916
   -32.8110 -32.8102 -32.7897 -32.7887 -32.6608 -32.6604 -32.1966 -32.1870
   -32.0692 -32.0563 -32.0560 -32.0481 -31.9277 -31.8889 -31.8474 -31.8408
   -31.7977 -31.7916 -31.7037 -31.6714 -31.6283 -31.6112 -31.5928 -31.5879
   -31.5744 -31.5652 -31.5497 -31.5381 -31.5226 -31.5216 -31.5207 -31.5103
   -31.4734 -31.4690 -31.4307 -31.4102 -31.3990 -31.3975 -31.3879 -31.3605
   -31.3594 -31.2997 -31.2807 -31.2588 -31.2470 -31.2437 -31.2195 -31.1775
   -17.8154 -16.1509 -16.1088 -16.1045 -16.0214 -16.0190 -15.8152 -15.8081
   -15.6272 -15.6033 -15.5288 -15.4603 -15.3519 -15.3181 -15.2946 -15.2435
   -15.1974 -15.1697 -15.1128 -15.0807 -14.9983 -14.9667 -14.9511 -14.9399
   -14.9068 -14.8535 -14.7218 -14.6878 -14.6699 -14.5875 -14.4545 -13.6834
   -13.6826 -11.9403  -7.6488  -5.2184  -4.4306  -3.7485  -3.2208  -3.1926
    -3.1440  -3.1349  -2.9365  -2.8964  -2.8744  -2.8235  -2.7880  -2.7745
    -2.7270  -2.7210  -2.6390  -2.5865  -2.5549  -2.5423  -2.5185  -2.4584
    -2.4362  -2.4073  -2.3954  -2.3629  -2.3517  -2.3418  -2.3184  -2.2516
    -2.1999  -2.1494  -2.1148  -2.0749  -2.0189  -2.0134  -1.9790  -1.9702
    -1.8919  -1.7962  -1.7615  -1.6868  -1.6049  -1.5710  -1.5435  -1.5245
    -1.4816  -1.4260  -1.3987  -1.3501  -1.3239  -1.2698  -1.2356  -1.2250
    -1.1586  -1.1209  -1.0531  -1.0314  -0.9514  -0.8402  -0.7842  -0.7608
    -0.7331  -0.7208  -0.6513  -0.5874  -0.5401  -0.5215  -0.4490  -0.4406
    -0.4139  -0.3641  -0.3495  -0.3156  -0.2024  -0.1378  -0.0792   0.0049
     0.0450   0.0819   0.1631   0.2167   0.2394   0.3160   0.3960   0.4762
     0.4926   0.5323   0.5381   0.7046   0.7354   0.8439   0.8770   0.9517
     0.9863   1.0264   1.1471   1.1896   1.2200   1.2212   1.2421   1.2602
     2.3270   3.2942   3.2968   3.3466   3.3548   3.6225   3.6310   3.7685
     3.7704   3.8899   3.9290

     the Fermi energy is     2.6033 ev

!    total energy              =   -2972.72751494 Ry
     estimated scf accuracy    <       0.00000007 Ry
     smearing contrib. (-TS)   =      -0.00743060 Ry
     internal energy E=F+TS    =   -2972.72008434 Ry

     The total energy is F=E-TS. E is the sum of the following terms:
     one-electron contribution =  -24031.74127084 Ry
     hartree contribution      =   12109.50653655 Ry
     xc contribution           =    -493.28466885 Ry
     ewald contribution        =    9442.79892106 Ry
     electric field correction =       0.00039774 Ry

     convergence has been achieved in  69 iterations

     Forces acting on atoms (cartesian axes, Ry/au):

     atom    1 type  1   force =    -0.00000618   -0.00043604    0.11619134
     atom    2 type  1   force =    -0.00007661    0.00013663   -0.15936355
     atom    3 type  2   force =     0.00002673    0.00000595   -0.05256726
     atom    4 type  2   force =     0.00005409   -0.00013731    0.02467706
     atom    5 type  2   force =    -0.00347743   -0.00224836   -0.01042756
     atom    6 type  2   force =     0.00527648   -0.00174864   -0.01062668
     atom    7 type  1   force =     0.00000279   -0.00612517    0.04632356
     atom    8 type  1   force =     0.00041471    0.01612716    0.08041687
     atom    9 type  2   force =    -0.00000987   -0.00062318    0.00009821
     atom   10 type  2   force =    -0.00257444    0.00058683   -0.04980216
     atom   11 type  2   force =    -0.00054984   -0.00014214   -0.00016460
     atom   12 type  2   force =     0.00059258   -0.00029005   -0.00000981
     atom   13 type  1   force =    -0.00018135    0.00044472    0.00004200
     atom   14 type  1   force =     0.00017687    0.00007674   -0.00104967
     atom   15 type  2   force =    -0.00021756   -0.00037735   -0.00058964
     atom   16 type  2   force =     0.00013230   -0.00065147    0.00072841
     atom   17 type  2   force =     0.00003038    0.00054679    0.00009013
     atom   18 type  2   force =     0.00008248    0.00058942   -0.00023612
     atom   19 type  1   force =    -0.00057044   -0.00027457   -0.00044463
     atom   20 type  1   force =     0.00056683    0.00025398   -0.00022298
     atom   21 type  2   force =     0.00004915    0.00021613    0.09893306
     atom   22 type  2   force =    -0.00001399   -0.00044401   -0.00041838
     atom   23 type  2   force =    -0.07987232    0.00004239   -0.03165689
     atom   24 type  2   force =     0.07977189    0.00047719   -0.03171352
     atom   25 type  1   force =     0.00006822   -0.00056848    0.11648049
     atom   26 type  1   force =    -0.00011566   -0.00142752   -0.15988377
     atom   27 type  2   force =     0.00007190   -0.00069775   -0.05058214
     atom   28 type  2   force =     0.00005582    0.00166787    0.02021430
     atom   29 type  2   force =    -0.00168104    0.00505429   -0.01371495
     atom   30 type  2   force =     0.00359735    0.00547564   -0.01384584
     atom   31 type  1   force =    -0.00016804    0.00219405    0.03180652
     atom   32 type  1   force =     0.00032140   -0.01972864    0.08007423
     atom   33 type  2   force =     0.00014184   -0.00037263    0.00010161
     atom   34 type  2   force =    -0.00158588    0.00085699   -0.06333299
     atom   35 type  2   force =     0.00041335    0.00003052   -0.00018114
     atom   36 type  2   force =     0.00015122   -0.00004939   -0.00025190
     atom   37 type  1   force =    -0.00014052   -0.00022649   -0.00052166
     atom   38 type  1   force =     0.00013772    0.00045979    0.00013183
     atom   39 type  2   force =    -0.00028542    0.00055360    0.00008654
     atom   40 type  2   force =     0.00024189    0.00011531    0.00060545
     atom   41 type  2   force =     0.00124341    0.00002116   -0.00011296
     atom   42 type  2   force =    -0.00117155   -0.00049389    0.00000636
     atom   43 type  1   force =    -0.00051033    0.00044274   -0.00033884
     atom   44 type  1   force =     0.00000062    0.00028531    0.00040605
     atom   45 type  2   force =     0.00005411    0.00003123    0.09874234
     atom   46 type  2   force =    -0.07992643    0.00000585   -0.03165763
     atom   47 type  2   force =     0.07982042    0.00043585   -0.03172729
     atom   48 type  3   force =    -0.00322482    0.00201768   -0.00401324
     atom   49 type  4   force =     0.00529679   -0.00411898    0.00570842
     atom   50 type  5   force =    -0.00150939   -0.00078293   -0.00122060
     atom   51 type  5   force =    -0.00129613    0.00265998   -0.00062461
     atom   52 type  3   force =     0.00004308    0.00007316   -0.00039544
     atom   53 type  5   force =    -0.00042959    0.00019013   -0.00000589
     atom   54 type  2   force =    -0.00035807   -0.00015200   -0.00081889
     atom   55 type  5   force =     0.00111651    0.00004187    0.00065842

     Total force =     0.396885     Total SCF correction =     0.000530
  @ DRIVER MODE: Message from server: STATUS
  @ DRIVER MODE: Message from server: GETFORCE
  @ DRIVER MODE: Returning v,forces,stress,ensemble

     Writing output data file ./calc.save/
  @ DRIVER MODE: Message from server: EXIT
  @ DRIVE MODE: Exiting

     General routines

     Parallel routines

   This run was terminated on:  19:12:37  22Sep2021

   JOB DONE.