     Program PWSCF v.6.7GPU starts on 16Sep2021 at  3:28:52

     R & G space division:  proc/nbgrp/npool/nimage =      10
     Reading input from /storage/home/hcoda1/3/ntian30/research/carbon/CxH_vib/H2O_calc/ads_slab/CH3NH2NHH2O_c/out_0033/pw.inp
Warning: card &CELL ignored
Warning: card   CELL_DYNAMICS='IPI', ignored
Warning: card / ignored

     Current dimensions of program PWSCF are:
     Max number of different atomic species (ntypx) = 10
     Max number of k-points (npk) =  40000
     Max angular momentum in pseudopotentials (lmaxx) =  3
     Presently no symmetry can be used with electric field

     Message from routine cell_base_init:
     DEPRECATED: use true lattice parameter, not A to a.u. conversion factor

     IMPORTANT: XC functional enforced from input :
     Exchange-correlation= BEEF-VDW
                           (   1   4  43  14   2   0   0)
     Any further DFT definition will be discarded
     Please, verify this is what you really want

  @ DRIVER MODE: Connecting to
 qe_1139763_2852614.sched-torque.pace.gatech.eduhlj_ajiz_scratch
  using UNIX socket
  @ DRIVER MODE: Message from server: STATUS
  @ DRIVER MODE: Message from server: INIT
  @ DRIVER MODE: Receiving replica           0          -1
  @ DRIVER MODE: Receiving encoded integer          25
  @ DRIVER MODE:  SCF:  T  FORCE:  T  STRESS:  F  VC:  F  ENSEMBLE:  F
  @ DRIVER MODE:  SCF:  T  FORCE:  T  STRESS:  F  VC:  F  ENSEMBLE:  F

     Using Slab Decomposition

     bravais-lattice index     =            0
     lattice parameter (alat)  =       1.8897  a.u.
     unit-cell volume          =    6658.9804 (a.u.)^3
     number of atoms/cell      =           59
     number of atomic types    =            5
     number of electrons       =       406.00
     number of Kohn-Sham states=          213
     kinetic-energy cutoff     =      29.3995  Ry
     charge density cutoff     =     293.9946  Ry
     scf convergence threshold =      7.3E-08
     mixing beta               =       0.0500
     number of iterations used =            8  plain     mixing
     Exchange-correlation= BEEF-VDW
                           (   1   4  43  14   2   0   0)

     celldm(1)=   1.889726  celldm(2)=   0.000000  celldm(3)=   0.000000
     celldm(4)=   0.000000  celldm(5)=   0.000000  celldm(6)=   0.000000

     crystal axes: (cart. coord. in units of alat)
               a(1) = (   6.579727   0.000000   0.000000 )
               a(2) = (  -0.000775   5.961596   0.000000 )
               a(3) = (   0.000000   0.000000  25.155947 )

     reciprocal axes: (cart. coord. in units 2 pi/alat)
               b(1) = (  0.151982  0.000020  0.000000 )
               b(2) = (  0.000000  0.167740  0.000000 )
               b(3) = (  0.000000  0.000000  0.039752 )

     PseudoPot. # 1 for Ti read from file:
     /storage/coda1/p-amedford6/0/shared/rich_project_chbe-medford/medford-share/data/pseudos_module/espresso/nninc/pbe/van/Ti.UPF
     MD5 check sum: 8e4df49b7f0d34bbd5052bf3f5ea0213
     Pseudo is Ultrasoft, Zval = 12.0
     Generated by new atomic code, or converted to UPF format
     Using radial grid of  851 points,  6 beta functions with:
                l(1) =   0
                l(2) =   0
                l(3) =   1
                l(4) =   1
                l(5) =   2
                l(6) =   2
     Q(r) pseudized with  8 coefficients,  rinner =    1.000   1.000   1.000
                                                       1.000   1.000

     PseudoPot. # 2 for O  read from file:
     /storage/coda1/p-amedford6/0/shared/rich_project_chbe-medford/medford-share/data/pseudos_module/espresso/nninc/pbe/van/O.UPF
     MD5 check sum: 78c19812648e8988a0fe644b0f25305e
     Pseudo is Ultrasoft, Zval =  6.0
     Generated by new atomic code, or converted to UPF format
     Using radial grid of  737 points,  4 beta functions with:
                l(1) =   0
                l(2) =   0
                l(3) =   1
                l(4) =   1
     Q(r) pseudized with  8 coefficients,  rinner =    0.800   0.800   0.800

     PseudoPot. # 3 for N  read from file:
     /storage/coda1/p-amedford6/0/shared/rich_project_chbe-medford/medford-share/data/pseudos_module/espresso/nninc/pbe/van/N.UPF
     MD5 check sum: 90d10febe142ad51ac9d5be1deb811c4
     Pseudo is Ultrasoft, Zval =  5.0
     Generated by new atomic code, or converted to UPF format
     Using radial grid of  729 points,  4 beta functions with:
                l(1) =   0
                l(2) =   0
                l(3) =   1
                l(4) =   1
     Q(r) pseudized with  8 coefficients,  rinner =    0.800   0.800   0.800

     PseudoPot. # 4 for C  read from file:
     /storage/coda1/p-amedford6/0/shared/rich_project_chbe-medford/medford-share/data/pseudos_module/espresso/nninc/pbe/van/C.UPF
     MD5 check sum: 1a69bf6b8db32088f5b2163dbdb77a27
     Pseudo is Ultrasoft, Zval =  4.0
     Generated by new atomic code, or converted to UPF format
     Using radial grid of  721 points,  4 beta functions with:
                l(1) =   0
                l(2) =   0
                l(3) =   1
                l(4) =   1
     Q(r) pseudized with  8 coefficients,  rinner =    0.800   0.800   0.800

     PseudoPot. # 5 for H  read from file:
     /storage/coda1/p-amedford6/0/shared/rich_project_chbe-medford/medford-share/data/pseudos_module/espresso/nninc/pbe/van/H.UPF
     MD5 check sum: b5ee9d7bfd3a09ee7748110bda690ff7
     Pseudo is Ultrasoft, Zval =  1.0
     Generated by new atomic code, or converted to UPF format
     Using radial grid of  615 points,  1 beta functions with:
                l(1) =   0
     Q(r) pseudized with  8 coefficients,  rinner =    0.800

     atomic species   valence    mass     pseudopotential
        Ti1           12.00    47.86700     Ti( 1.00)
        O1             6.00    15.99900     O ( 1.00)
        N1             5.00    14.00700     N ( 1.00)
        C1             4.00    12.01100     C ( 1.00)
        H1             1.00     1.00800     H ( 1.00)

     No symmetry found

   Cartesian axes

     site n.     atom                  positions (alat units)
         1           Ti1 tau(   1) = (   0.0004258   2.9801865   6.0000000  )
         2           Ti1 tau(   2) = (   3.2906075   1.4906267   6.0002472  )
         3           O1  tau(   3) = (   0.0006271   0.0005054   7.9858123  )
         4           O1  tau(   4) = (   3.2906025   0.0005020   7.3038282  )
         5           O1  tau(   5) = (   4.5942328   1.4918067   9.2879030  )
         6           O1  tau(   6) = (   1.9868534   1.4903216   9.2879459  )
         7           Ti1 tau(   7) = (   3.2907910   2.8959150   9.1758416  )
         8           Ti1 tau(   8) = (   0.0015273   1.4827037   9.2680791  )
         9           O1  tau(   9) = (   3.2795193   0.0050042  11.3600746  )
        10           O1  tau(  10) = (   0.0116148   5.9584955  10.6183126  )
        11           O1  tau(  11) = (   1.2764768   1.4833402  12.6625751  )
        12           O1  tau(  12) = (   5.2691860   1.4824858  12.6730715  )
        13           Ti1 tau(  13) = (   6.5785005   2.9712200  12.5432933  )
        14           Ti1 tau(  14) = (   3.2815129   1.4861921  12.5133659  )
        15           O1  tau(  15) = (   0.0084525   5.9333602  14.7514412  )
        16           O1  tau(  16) = (   3.2474592   5.9449689  14.0025778  )
        17           O1  tau(  17) = (   4.5272503   1.5270814  16.0535473  )
        18           O1  tau(  18) = (   2.0088677   1.5398698  16.1918835  )
        19           Ti1 tau(  19) = (   3.2695027   3.0127370  15.7044713  )
        20           Ti1 tau(  20) = (   6.4897317   1.5391078  15.7731133  )
        21           O1  tau(  21) = (   3.2904802   0.0005063   4.7018136  )
        22           O1  tau(  22) = (   6.4943121   0.0104379  17.3746616  )
        23           O1  tau(  23) = (   1.3043587   1.4918075   6.0039043  )
        24           O1  tau(  24) = (   5.2767064   1.4903225   6.0039473  )
        25           Ti1 tau(  25) = (   0.0000382   5.9609847   6.0000000  )
        26           Ti1 tau(  26) = (   3.2902200   4.4714249   6.0002472  )
        27           O1  tau(  27) = (   0.0002396   2.9813036   7.9858123  )
        28           O1  tau(  28) = (   3.2902150   2.9813002   7.3038282  )
        29           O1  tau(  29) = (   4.5938453   4.4726049   9.2879030  )
        30           O1  tau(  30) = (   1.9864658   4.4711199   9.2879459  )
        31           Ti1 tau(  31) = (   3.2891106   5.8743827   9.1763621  )
        32           Ti1 tau(  32) = (   0.0006254   4.4649316   9.2693709  )
        33           O1  tau(  33) = (   3.2806081   2.9711243  11.3509633  )
        34           O1  tau(  34) = (   0.0092240   2.9805883  10.6323155  )
        35           O1  tau(  35) = (   1.2760424   4.4718827  12.6381679  )
        36           O1  tau(  36) = (   5.2690016   4.4731519  12.6446470  )
        37           Ti1 tau(  37) = (   6.5708669   5.9382087  12.5160675  )
        38           Ti1 tau(  38) = (   3.2845625   4.4656782  12.4980923  )
        39           O1  tau(  39) = (   6.5779858   3.0049062  14.7590937  )
        40           O1  tau(  40) = (   3.2501146   3.0001303  13.9242794  )
        41           O1  tau(  41) = (   4.5300198   4.4412671  16.1793791  )
        42           O1  tau(  42) = (   2.0030354   4.4482434  16.2507355  )
        43           Ti1 tau(  43) = (   3.2558399   0.0045369  15.7947069  )
        44           Ti1 tau(  44) = (   0.0024851   4.6597080  16.1671864  )
        45           O1  tau(  45) = (   3.2900926   2.9813045   4.7018136  )
        46           O1  tau(  46) = (   1.3039711   4.4726057   6.0039043  )
        47           O1  tau(  47) = (   5.2763189   4.4711207   6.0039473  )
        48           N1  tau(  48) = (   0.8610865   2.3037131  18.4629187  )
        49           N1  tau(  49) = (   6.4642385   2.8627238  17.5618644  )
        50           C1  tau(  50) = (   1.1134797   3.0572184  19.7121060  )
        51           H1  tau(  51) = (   0.2160447   3.0254214  20.3281890  )
        52           H1  tau(  52) = (   1.9467850   2.5864873  20.2353232  )
        53           H1  tau(  53) = (   1.3463996   4.0766186  19.4485780  )
        54           H1  tau(  54) = (   0.5832711   1.3114681  18.6183785  )
        55           H1  tau(  55) = (   5.5643591   2.7461405  18.0238738  )
        56           H1  tau(  56) = (   1.7079168   2.1891883  17.8702682  )
        57           O1  tau(  57) = (   4.0734316   0.3075885  18.7765601  )
        58           H1  tau(  58) = (   4.9241673   0.1787741  18.2816895  )
        59           H1  tau(  59) = (   3.8734322   5.3936830  19.1372508  )

     number of k points=    10  Fermi-Dirac smearing, width (Ry)=  0.0073
                       cart. coord. in units 2pi/alat
        k(    1) = (   0.0000000   0.0000000   0.0000000), wk =   0.1250000
        k(    2) = (   0.0000000   0.0419351   0.0000000), wk =   0.2500000
        k(    3) = (   0.0000000  -0.0838702   0.0000000), wk =   0.1250000
        k(    4) = (   0.0379955   0.0000049   0.0000000), wk =   0.2500000
        k(    5) = (   0.0379955   0.0419400   0.0000000), wk =   0.2500000
        k(    6) = (   0.0379955  -0.0838652   0.0000000), wk =   0.2500000
        k(    7) = (   0.0379955  -0.0419301   0.0000000), wk =   0.2500000
        k(    8) = (  -0.0759910  -0.0000099   0.0000000), wk =   0.1250000
        k(    9) = (  -0.0759910   0.0419252   0.0000000), wk =   0.2500000
        k(   10) = (  -0.0759910  -0.0838800   0.0000000), wk =   0.1250000

     Initial potential from superposition of free atoms

     starting charge  389.99912, renormalised to  406.00000

     negative rho (up, down):  1.392E-02 0.000E+00

     %%%%%%%%%%%%%%%%%%%%%%%%%%%%%%%%%%%%%%%%%%%%%%%%%%%%%%%%%%%%%%%%%%%%%%%%
     %                                                                      %
     % You are using vdW-DF, which was implemented by the Thonhauser group. %
     % Please cite the following two papers that made this development      %
     % possible and the two reviews that describe the various versions:     %
     %                                                                      %
     %   T. Thonhauser et al., PRL 115, 136402 (2015).                      %
     %   T. Thonhauser et al., PRB 76, 125112 (2007).                       %
     %   K. Berland et al., Rep. Prog. Phys. 78, 066501 (2015).             %
     %   D.C. Langreth et al., J. Phys.: Condens. Matter 21, 084203 (2009). %
     %                                                                      %
     %                                                                      %
     % If you are calculating the stress with vdW-DF, please also cite:     %
     %                                                                      %
     %   R. Sabatini et al., J. Phys.: Condens. Matter 24, 424209 (2012).   %
     %                                                                      %
     %%%%%%%%%%%%%%%%%%%%%%%%%%%%%%%%%%%%%%%%%%%%%%%%%%%%%%%%%%%%%%%%%%%%%%%%

     Adding external electric field

     Computed dipole along edir(3) :
        Dipole              -15.6809 Ry au,        -39.8568 Debye
        Dipole field         -0.0296 Ry au,

        Potential amp.        2.7431 Ry
        Total length         46.3494 bohr

     Starting wfcs are  308 atomic wfcs
  @ DRIVER MODE: Message from server: STATUS
  @ DRIVER MODE: Message from server: POSDATA
  @ DRIVER MODE: Reading and sharing cell
  @ DRIVER MODE: Reading and sharing positions
  @ DRIVER MODE: Received positions

     Self-consistent Calculation

     iteration #  1     ecut=    29.40 Ry     beta= 0.05
     Davidson diagonalization with overlap
     c_bands:  2 eigenvalues not converged
     c_bands:  5 eigenvalues not converged
     c_bands:  2 eigenvalues not converged
     c_bands:  4 eigenvalues not converged
     c_bands:  4 eigenvalues not converged
     c_bands:  5 eigenvalues not converged
     c_bands:  5 eigenvalues not converged
     c_bands:  1 eigenvalues not converged
     ethr =  1.00E-05,  avg # of iterations = 22.5

[...]

     total energy              =   -2140.10992793 Ry
     estimated scf accuracy    <    9575.52062803 Ry

     iteration #  2     ecut=    29.40 Ry     beta= 0.05
     Davidson diagonalization with overlap
     ethr =  1.00E-02,  avg # of iterations = 31.8

[...]

     iteration # 69     ecut=    29.40 Ry     beta= 0.05
     Davidson diagonalization with overlap
     c_bands:  2 eigenvalues not converged
     ethr =  2.16E-11,  avg # of iterations = 12.9

[...]

     total energy              =   -2977.68483195 Ry
     estimated scf accuracy    <       0.00000014 Ry

     iteration # 70     ecut=    29.40 Ry     beta= 0.05
     Davidson diagonalization with overlap
     ethr =  2.16E-11,  avg # of iterations =  6.7

     negative rho (up, down):  1.242E-02 0.000E+00

     Adding external electric field

     Computed dipole along edir(3) :
        Dipole                1.6080 Ry au,          4.0871 Debye
        Dipole field          0.0030 Ry au,

        Potential amp.       -0.2813 Ry
        Total length         46.3494 bohr

     End of self-consistent calculation

          k = 0.0000 0.0000 0.0000 ( 18029 PWs)   bands (ev):

   -54.9546 -54.9178 -54.9152 -54.8837 -54.8442 -54.8343 -54.7941 -54.7625
   -54.7578 -54.7472 -54.7273 -54.7220 -54.7139 -54.6601 -53.9332 -53.8992
   -31.5265 -31.4079 -31.3209 -31.2822 -31.2652 -31.2519 -31.2494 -31.2441
   -31.2098 -31.2077 -31.1634 -31.1629 -31.1573 -31.1273 -31.1086 -31.0887
   -31.0782 -31.0723 -31.0708 -31.0636 -31.0294 -31.0251 -31.0186 -31.0129
   -30.9930 -30.9748 -30.9644 -30.9634 -30.9559 -30.9558 -30.9454 -30.9370
   -30.9208 -30.9204 -30.9118 -30.9102 -30.8846 -30.8780 -30.8761 -30.8753
   -30.8565 -30.8561 -30.3419 -30.2495 -30.2273 -30.1585 -30.0717 -29.9608
   -18.9619 -18.2093 -15.7896 -15.5219 -15.3966 -15.1965 -15.1432 -15.0385
   -14.8785 -14.8178 -14.7528 -14.7280 -14.7222 -14.6953 -14.6227 -14.5672
   -14.5380 -14.4858 -14.4851 -14.4491 -14.4419 -14.4371 -14.3825 -14.3786
   -14.3420 -14.3283 -14.3207 -14.1777 -14.0990 -14.0511 -14.0403 -13.2029
   -12.4359 -12.3187 -10.9969  -7.5915  -6.3974  -5.9737  -5.7607  -4.0406
    -3.8484  -3.1336  -2.9631  -2.9510  -2.8731  -2.8493  -2.6787  -2.6187
    -2.5104  -2.3946  -2.3184  -2.2209  -2.1770  -2.1590  -2.1451  -2.0316
    -1.9461  -1.9087  -1.8694  -1.8308  -1.8137  -1.7683  -1.7472  -1.7371
    -1.7045  -1.6792  -1.5259  -1.4514  -1.4150  -1.3808  -1.3408  -1.2835
    -1.2620  -1.2456  -1.2400  -1.2321  -1.2158  -1.1914  -1.1556  -1.1238
    -1.0557  -0.9717  -0.9623  -0.8509  -0.7669  -0.6343  -0.5809  -0.5232
    -0.4928  -0.4263  -0.3847  -0.3367  -0.3009  -0.2945  -0.2480  -0.1606
    -0.1477  -0.0901  -0.0717   0.0131   0.0593   0.0649   0.0760   0.2525
     0.2628   0.2807   0.3835   0.4645   0.5032   0.5199   0.5774   0.6399
     0.6422   0.6806   0.7026   0.7332   0.8161   0.9197   0.9447   0.9830
     0.9974   1.0228   1.0399   1.0670   1.1062   1.1873   1.1934   1.2707
     1.3631   1.3742   1.6371   1.6692   1.9999   2.0269   2.0893   2.2751
     2.6638   2.7113   4.1476   4.2095   4.2548   4.2804   4.2986   4.3800
     4.3995   4.6154   4.6417   4.6428   4.6520

[...]

          k = 0.0380-0.0419 0.0000 ( 17876 PWs)   bands (ev):

[...]

          k =-0.0760-0.0000 0.0000 ( 17886 PWs)   bands (ev):

[...]

          k =-0.0760-0.0839 0.0000 ( 17948 PWs)   bands (ev):

   -54.9427 -54.9268 -54.9008 -54.9007 -54.8417 -54.8247 -54.8037 -54.7554
   -54.7473 -54.7416 -54.7324 -54.7294 -54.7243 -54.6625 -53.9163 -53.9160
   -31.3353 -31.3239 -31.2579 -31.2231 -31.2230 -31.2168 -31.1932 -31.1932
   -31.1680 -31.1658 -31.1567 -31.1529 -31.1449 -31.0948 -31.0813 -31.0807
   -31.0763 -31.0751 -31.0719 -31.0691 -31.0419 -31.0320 -31.0296 -31.0231
   -31.0223 -31.0201 -31.0200 -31.0191 -30.9982 -30.9808 -30.9746 -30.9677
   -30.9615 -30.9557 -30.9542 -30.9501 -30.9498 -30.9228 -30.9157 -30.9127
   -30.9081 -30.8979 -30.2401 -30.2399 -30.1546 -30.1544 -30.1152 -30.1151
   -18.9570 -18.2099 -15.2803 -15.1535 -15.0546 -14.9989 -14.9522 -14.9365
   -14.9189 -14.8656 -14.8355 -14.7757 -14.7519 -14.7036 -14.6595 -14.6555
   -14.6278 -14.5484 -14.5331 -14.5207 -14.5132 -14.4623 -14.4483 -14.4255
   -14.4028 -14.3987 -14.3803 -14.3078 -14.2981 -14.2939 -14.2544 -13.2122
   -12.4204 -12.4202 -10.9975  -7.6026  -6.3879  -5.9730  -5.7455  -4.0180
    -3.8443  -2.5623  -2.5405  -2.4053  -2.3920  -2.2799  -2.1878  -2.1375
    -2.1318  -1.9928  -1.9600  -1.9441  -1.9289  -1.9164  -1.8678  -1.8444
    -1.8085  -1.7911  -1.7815  -1.7716  -1.7560  -1.7355  -1.6834  -1.6794
    -1.6688  -1.6544  -1.6103  -1.5946  -1.5637  -1.5529  -1.5246  -1.5019
    -1.4352  -1.3406  -1.2931  -1.2499  -1.1952  -1.1428  -1.1368  -1.0581
    -1.0402  -1.0085  -0.9776  -0.9527  -0.8572  -0.7837  -0.6892  -0.6868
    -0.6831  -0.5635  -0.5232  -0.5056  -0.4929  -0.4629  -0.3786  -0.3683
    -0.3088  -0.2344  -0.2080  -0.2032  -0.1773  -0.0580  -0.0326   0.0274
     0.0579   0.0904   0.0925   0.1717   0.1848   0.2439   0.2586   0.2719
     0.3168   0.3344   0.4328   0.5227   0.5584   0.6614   0.7544   0.7835
     0.8787   0.9365   1.0410   1.0618   1.0853   1.1818   1.1900   1.2250
     1.3540   1.3609   1.4768   1.5165   1.5265   1.5291   2.4474   2.4488
     2.5313   2.5314   4.2740   4.3969   4.4124   4.4585   4.5129   4.6542
     4.6777   4.7248   4.7265   4.8008   4.8097

     the Fermi energy is     4.1998 ev

!    total energy              =   -2977.68485111 Ry
     estimated scf accuracy    <       0.00000006 Ry
     smearing contrib. (-TS)   =      -0.03700507 Ry
     internal energy E=F+TS    =   -2977.64784604 Ry

     The total energy is F=E-TS. E is the sum of the following terms:
     one-electron contribution =  -23305.81800824 Ry
     hartree contribution      =   11753.90455009 Ry
     xc contribution           =    -496.61527678 Ry
     ewald contribution        =    9070.87600941 Ry
     electric field correction =       0.00487947 Ry

     convergence has been achieved in  70 iterations

     Forces acting on atoms (cartesian axes, Ry/au):

     atom    1 type  1   force =     0.00008636   -0.00025473    0.09410885
     atom    2 type  1   force =    -0.00008492   -0.00045943   -0.17746876
     atom    3 type  2   force =     0.00006181   -0.00032746   -0.02123483
     atom    4 type  2   force =     0.00003693   -0.00179136    0.05729602
     atom    5 type  2   force =    -0.01078985   -0.00102360    0.00668646
     atom    6 type  2   force =     0.01198914   -0.00033967    0.00503963
     atom    7 type  1   force =    -0.00060357    0.00105908   -0.01460708
     atom    8 type  1   force =     0.00086266    0.00330837    0.00460627
     atom    9 type  2   force =     0.00000796   -0.00005261    0.00014576
     atom   10 type  2   force =    -0.00368693    0.00211029   -0.00164272
     atom   11 type  2   force =    -0.00017082    0.00061741   -0.00008773
     atom   12 type  2   force =     0.00018734    0.00028363   -0.00020505
     atom   13 type  1   force =    -0.00019684   -0.00027298    0.00010113
     atom   14 type  1   force =     0.00025040   -0.00021809   -0.00038526
     atom   15 type  2   force =     0.00020519    0.00035982   -0.00010988
     atom   16 type  2   force =    -0.00012138    0.00025020   -0.00020787
     atom   17 type  2   force =    -0.00008438   -0.00028407    0.00032910
     atom   18 type  2   force =     0.00017296    0.00004653   -0.00002318
     atom   19 type  1   force =     0.00000770    0.00020195   -0.00043916
     atom   20 type  1   force =     0.00041837   -0.00005087   -0.00005035
     atom   21 type  2   force =     0.00011880   -0.00008088    0.10377123
     atom   22 type  2   force =     0.00054295   -0.00034656   -0.00073478
     atom   23 type  2   force =    -0.07067565   -0.00014672   -0.02714146
     atom   24 type  2   force =     0.07063598    0.00032280   -0.02714166
     atom   25 type  1   force =     0.00010963   -0.00016882    0.09372113
     atom   26 type  1   force =    -0.00006844   -0.00053419   -0.17769305
     atom   27 type  2   force =     0.00006838   -0.00005368   -0.02033391
     atom   28 type  2   force =     0.00006645   -0.00146006    0.05629726
     atom   29 type  2   force =    -0.01130081   -0.00039666    0.00736844
     atom   30 type  2   force =     0.01241203   -0.00000097    0.00575772
     atom   31 type  1   force =    -0.00074327    0.00573892   -0.01564631
     atom   32 type  1   force =     0.00081857   -0.00459513    0.00435187
     atom   33 type  2   force =     0.00002204    0.00015104    0.00029746
     atom   34 type  2   force =    -0.00321269   -0.00103263   -0.00519326
     atom   35 type  2   force =    -0.00011174   -0.00039613    0.00008762
     atom   36 type  2   force =     0.00021204   -0.00006664   -0.00008620
     atom   37 type  1   force =    -0.00012611    0.00043534   -0.00012256
     atom   38 type  1   force =     0.00008847    0.00015044   -0.00013373
     atom   39 type  2   force =    -0.00045364   -0.00030222   -0.00016886
     atom   40 type  2   force =     0.00012879   -0.00008213    0.00026564
     atom   41 type  2   force =    -0.00003488    0.00021712   -0.00016011
     atom   42 type  2   force =     0.00045333    0.00007841   -0.00026385
     atom   43 type  1   force =    -0.00015921   -0.00000066   -0.00010524
     atom   44 type  1   force =     0.00033722    0.00040805    0.00031989
     atom   45 type  2   force =     0.00010517   -0.00006537    0.10375428
     atom   46 type  2   force =    -0.07066460   -0.00007543   -0.02711741
     atom   47 type  2   force =     0.07064537    0.00032968   -0.02714357
     atom   48 type  3   force =     0.00036945   -0.00154316    0.00110640
     atom   49 type  3   force =    -0.00017390   -0.00034764    0.00054380
     atom   50 type  4   force =    -0.00178844   -0.01048570    0.00218013
     atom   51 type  5   force =     0.00065656    0.00085855   -0.00028188
     atom   52 type  5   force =    -0.00019432    0.00001099    0.00030936
     atom   53 type  5   force =     0.00247913    0.01131296   -0.00299153
     atom   54 type  5   force =     0.00045585   -0.00005129    0.00011823
     atom   55 type  5   force =     0.00034426   -0.00058689   -0.00013089
     atom   56 type  5   force =     0.00018991   -0.00015509    0.00041479
     atom   57 type  2   force =    -0.00083013    0.00079321    0.00148051
     atom   58 type  5   force =     0.00034197   -0.00063235   -0.00104837
     atom   59 type  5   force =     0.00038738   -0.00036294   -0.00035844

     Total force =     0.366176     Total SCF correction =     0.000483
  @ DRIVER MODE: Message from server: STATUS
  @ DRIVER MODE: Message from server: GETFORCE
  @ DRIVER MODE: Returning v,forces,stress,ensemble

     Writing output data file ./calc.save/
  @ DRIVER MODE: Message from server: EXIT
  @ DRIVE MODE: Exiting

     General routines

     Parallel routines

   This run was terminated on:   3:50:22  16Sep2021

   JOB DONE.