     Program PWSCF v.6.7GPU starts on 23Sep2021 at  9:43:59

     R & G space division:  proc/nbgrp/npool/nimage =       8
     Reading input from /storage/home/hcoda1/3/ntian30/research/carbon/CxH_vib/H2O_calc/ads_slab/CH3N2HHO_a/out_0029/pw.inp
Warning: card &CELL ignored
Warning: card   CELL_DYNAMICS='IPI', ignored
Warning: card / ignored

     Current dimensions of program PWSCF are:
     Max number of different atomic species (ntypx) = 10
     Max number of k-points (npk) =  40000
     Max angular momentum in pseudopotentials (lmaxx) =  3
     Presently no symmetry can be used with electric field

     Message from routine cell_base_init:
     DEPRECATED: use true lattice parameter, not A to a.u. conversion factor

     IMPORTANT: XC functional enforced from input :
     Exchange-correlation= BEEF-VDW
                           (   1   4  43  14   2   0   0)
     Any further DFT definition will be discarded
     Please, verify this is what you really want

  @ DRIVER MODE: Connecting to
 qe_1139763_2941009.sched-torque.pace.gatech.edudf4lyl86_scratch
  using UNIX socket
  @ DRIVER MODE: Message from server: STATUS
  @ DRIVER MODE: Message from server: INIT
  @ DRIVER MODE: Receiving replica           0          -1
  @ DRIVER MODE: Receiving encoded integer          25
  @ DRIVER MODE:  SCF:  T  FORCE:  T  STRESS:  F  VC:  F  ENSEMBLE:  F
  @ DRIVER MODE:  SCF:  T  FORCE:  T  STRESS:  F  VC:  F  ENSEMBLE:  F

     Using Slab Decomposition

     bravais-lattice index     =            0
     lattice parameter (alat)  =       1.8897  a.u.
     unit-cell volume          =    6658.9804 (a.u.)^3
     number of atoms/cell      =           56
     number of atomic types    =            5
     number of electrons       =       403.00
     number of Kohn-Sham states=          211
     kinetic-energy cutoff     =      29.3995  Ry
     charge density cutoff     =     293.9946  Ry
     scf convergence threshold =      7.3E-08
     mixing beta               =       0.0500
     number of iterations used =            8  plain     mixing
     Exchange-correlation= BEEF-VDW
                           (   1   4  43  14   2   0   0)

     celldm(1)=   1.889726  celldm(2)=   0.000000  celldm(3)=   0.000000
     celldm(4)=   0.000000  celldm(5)=   0.000000  celldm(6)=   0.000000

     crystal axes: (cart. coord. in units of alat)
               a(1) = (   6.579727   0.000000   0.000000 )
               a(2) = (  -0.000775   5.961596   0.000000 )
               a(3) = (   0.000000   0.000000  25.155947 )

     reciprocal axes: (cart. coord. in units 2 pi/alat)
               b(1) = (  0.151982  0.000020  0.000000 )
               b(2) = (  0.000000  0.167740  0.000000 )
               b(3) = (  0.000000  0.000000  0.039752 )

     PseudoPot. # 1 for Ti read from file:
     /storage/coda1/p-amedford6/0/shared/rich_project_chbe-medford/medford-share/data/pseudos_module/espresso/nninc/pbe/van/Ti.UPF
     MD5 check sum: 8e4df49b7f0d34bbd5052bf3f5ea0213
     Pseudo is Ultrasoft, Zval = 12.0
     Generated by new atomic code, or converted to UPF format
     Using radial grid of  851 points,  6 beta functions with:
                l(1) =   0
                l(2) =   0
                l(3) =   1
                l(4) =   1
                l(5) =   2
                l(6) =   2
     Q(r) pseudized with  8 coefficients,  rinner =    1.000   1.000   1.000
                                                       1.000   1.000

     PseudoPot. # 2 for O  read from file:
     /storage/coda1/p-amedford6/0/shared/rich_project_chbe-medford/medford-share/data/pseudos_module/espresso/nninc/pbe/van/O.UPF
     MD5 check sum: 78c19812648e8988a0fe644b0f25305e
     Pseudo is Ultrasoft, Zval =  6.0
     Generated by new atomic code, or converted to UPF format
     Using radial grid of  737 points,  4 beta functions with:
                l(1) =   0
                l(2) =   0
                l(3) =   1
                l(4) =   1
     Q(r) pseudized with  8 coefficients,  rinner =    0.800   0.800   0.800

     PseudoPot. # 3 for N  read from file:
     /storage/coda1/p-amedford6/0/shared/rich_project_chbe-medford/medford-share/data/pseudos_module/espresso/nninc/pbe/van/N.UPF
     MD5 check sum: 90d10febe142ad51ac9d5be1deb811c4
     Pseudo is Ultrasoft, Zval =  5.0
     Generated by new atomic code, or converted to UPF format
     Using radial grid of  729 points,  4 beta functions with:
                l(1) =   0
                l(2) =   0
                l(3) =   1
                l(4) =   1
     Q(r) pseudized with  8 coefficients,  rinner =    0.800   0.800   0.800

     PseudoPot. # 4 for C  read from file:
     /storage/coda1/p-amedford6/0/shared/rich_project_chbe-medford/medford-share/data/pseudos_module/espresso/nninc/pbe/van/C.UPF
     MD5 check sum: 1a69bf6b8db32088f5b2163dbdb77a27
     Pseudo is Ultrasoft, Zval =  4.0
     Generated by new atomic code, or converted to UPF format
     Using radial grid of  721 points,  4 beta functions with:
                l(1) =   0
                l(2) =   0
                l(3) =   1
                l(4) =   1
     Q(r) pseudized with  8 coefficients,  rinner =    0.800   0.800   0.800

     PseudoPot. # 5 for H  read from file:
     /storage/coda1/p-amedford6/0/shared/rich_project_chbe-medford/medford-share/data/pseudos_module/espresso/nninc/pbe/van/H.UPF
     MD5 check sum: b5ee9d7bfd3a09ee7748110bda690ff7
     Pseudo is Ultrasoft, Zval =  1.0
     Generated by new atomic code, or converted to UPF format
     Using radial grid of  615 points,  1 beta functions with:
                l(1) =   0
     Q(r) pseudized with  8 coefficients,  rinner =    0.800

     atomic species   valence    mass     pseudopotential
        Ti1           12.00    47.86700     Ti( 1.00)
        O1             6.00    15.99900     O ( 1.00)
        N1             5.00    14.00700     N ( 1.00)
        C1             4.00    12.01100     C ( 1.00)
        H1             1.00     1.00800     H ( 1.00)

     No symmetry found

   Cartesian axes

     site n.     atom                  positions (alat units)
         1           Ti1 tau(   1) = (   0.0004258   2.9801865   6.0000000  )
         2           Ti1 tau(   2) = (   3.2906075   1.4906267   6.0002472  )
         3           O1  tau(   3) = (   0.0006271   0.0005054   7.9858123  )
         4           O1  tau(   4) = (   3.2906025   0.0005020   7.3038282  )
         5           O1  tau(   5) = (   4.5942328   1.4918067   9.2879030  )
         6           O1  tau(   6) = (   1.9868534   1.4903216   9.2879459  )
         7           Ti1 tau(   7) = (   3.2907910   2.8959150   9.1758416  )
         8           Ti1 tau(   8) = (   0.0015273   1.4827037   9.2680791  )
         9           O1  tau(   9) = (   3.2827749   5.9542966  11.3123607  )
        10           O1  tau(  10) = (   0.0116148   5.9584955  10.6183126  )
        11           O1  tau(  11) = (   1.2790800   1.4852124  12.6463597  )
        12           O1  tau(  12) = (   5.2943908   1.4901875  12.6352807  )
        13           Ti1 tau(  13) = (   6.5507123   3.1127926  12.6266869  )
        14           Ti1 tau(  14) = (   3.2873181   1.3120036  12.6863921  )
        15           O1  tau(  15) = (   6.5656690   0.0172326  14.6855350  )
        16           O1  tau(  16) = (   3.2842416   0.0515509  13.9244022  )
        17           O1  tau(  17) = (   4.5437539   1.5966601  16.0680646  )
        18           O1  tau(  18) = (   2.0303991   1.5956099  16.0781401  )
        19           Ti1 tau(  19) = (   3.2961159   3.0594788  15.6697774  )
        20           Ti1 tau(  20) = (   6.5318457   1.5630605  15.7780207  )
        21           O1  tau(  21) = (   3.2904802   0.0005063   4.7018136  )
        22           O1  tau(  22) = (   6.5726385   0.0820865  17.2550913  )
        23           O1  tau(  23) = (   1.3043587   1.4918075   6.0039043  )
        24           O1  tau(  24) = (   5.2767064   1.4903225   6.0039473  )
        25           Ti1 tau(  25) = (   0.0000382   5.9609847   6.0000000  )
        26           Ti1 tau(  26) = (   3.2902200   4.4714249   6.0002472  )
        27           O1  tau(  27) = (   0.0002396   2.9813036   7.9858123  )
        28           O1  tau(  28) = (   3.2902150   2.9813002   7.3038282  )
        29           O1  tau(  29) = (   4.5938453   4.4726049   9.2879030  )
        30           O1  tau(  30) = (   1.9864658   4.4711199   9.2879459  )
        31           Ti1 tau(  31) = (   3.2891106   5.8743827   9.1763621  )
        32           Ti1 tau(  32) = (   0.0006254   4.4649316   9.2693709  )
        33           O1  tau(  33) = (   3.2807365   3.0201584  11.2787527  )
        34           O1  tau(  34) = (   0.0092240   2.9805883  10.6323155  )
        35           O1  tau(  35) = (   1.2751182   4.4744369  12.6357194  )
        36           O1  tau(  36) = (   5.2842299   4.4734050  12.6250694  )
        37           Ti1 tau(  37) = (   0.0094520   0.1224552  12.5707632  )
        38           Ti1 tau(  38) = (   3.2670701   4.4034752  12.4162930  )
        39           O1  tau(  39) = (   6.5622168   3.0106679  14.6773207  )
        40           O1  tau(  40) = (   3.2891587   3.0115246  13.8909557  )
        41           O1  tau(  41) = (   4.5321968   4.4927823  16.1577793  )
        42           O1  tau(  42) = (   2.0250423   4.4919485  16.1304878  )
        43           Ti1 tau(  43) = (   3.2250977   0.0853664  16.3312049  )
        44           Ti1 tau(  44) = (   6.5532039   4.7053171  16.1332850  )
        45           O1  tau(  45) = (   3.2900926   2.9813045   4.7018136  )
        46           O1  tau(  46) = (   1.3039711   4.4726057   6.0039043  )
        47           O1  tau(  47) = (   5.2763189   4.4711207   6.0039473  )
        48           N1  tau(  48) = (   0.0650423   2.5931692  18.6004617  )
        49           N1  tau(  49) = (   0.0051179   2.9528117  17.3995676  )
        50           C1  tau(  50) = (   0.1360749   3.5155665  19.7334966  )
        51           H1  tau(  51) = (   6.1082608   4.3937080  19.5213757  )
        52           H1  tau(  52) = (   6.3628389   3.0028702  20.6166755  )
        53           H1  tau(  53) = (   1.1699357   3.8405576  19.8861820  )
        54           H1  tau(  54) = (   0.1060244   1.5775976  18.7788705  )
        55           O1  tau(  55) = (   3.2396048   0.1449850  18.2004881  )
        56           H1  tau(  56) = (   3.4111690   5.2654565  18.6466900  )

     number of k points=    10  Fermi-Dirac smearing, width (Ry)=  0.0073
                       cart. coord. in units 2pi/alat
        k(    1) = (   0.0000000   0.0000000   0.0000000), wk =   0.1250000
        k(    2) = (   0.0000000   0.0419351   0.0000000), wk =   0.2500000
        k(    3) = (   0.0000000  -0.0838702   0.0000000), wk =   0.1250000
        k(    4) = (   0.0379955   0.0000049   0.0000000), wk =   0.2500000
        k(    5) = (   0.0379955   0.0419400   0.0000000), wk =   0.2500000
        k(    6) = (   0.0379955  -0.0838652   0.0000000), wk =   0.2500000
        k(    7) = (   0.0379955  -0.0419301   0.0000000), wk =   0.2500000
        k(    8) = (  -0.0759910  -0.0000099   0.0000000), wk =   0.1250000
        k(    9) = (  -0.0759910   0.0419252   0.0000000), wk =   0.2500000
        k(   10) = (  -0.0759910  -0.0838800   0.0000000), wk =   0.1250000

     Initial potential from superposition of free atoms

     starting charge  386.99914, renormalised to  403.00000

     negative rho (up, down):  1.431E-02 0.000E+00

     %%%%%%%%%%%%%%%%%%%%%%%%%%%%%%%%%%%%%%%%%%%%%%%%%%%%%%%%%%%%%%%%%%%%%%%%
     %                                                                      %
     % You are using vdW-DF, which was implemented by the Thonhauser group. %
     % Please cite the following two papers that made this development      %
     % possible and the two reviews that describe the various versions:     %
     %                                                                      %
     %   T. Thonhauser et al., PRL 115, 136402 (2015).                      %
     %   T. Thonhauser et al., PRB 76, 125112 (2007).                       %
     %   K. Berland et al., Rep. Prog. Phys. 78, 066501 (2015).             %
     %   D.C. Langreth et al., J. Phys.: Condens. Matter 21, 084203 (2009). %
     %                                                                      %
     %                                                                      %
     % If you are calculating the stress with vdW-DF, please also cite:     %
     %                                                                      %
     %   R. Sabatini et al., J. Phys.: Condens. Matter 24, 424209 (2012).   %
     %                                                                      %
     %%%%%%%%%%%%%%%%%%%%%%%%%%%%%%%%%%%%%%%%%%%%%%%%%%%%%%%%%%%%%%%%%%%%%%%%

     Adding external electric field

     Computed dipole along edir(3) :
        Dipole              -12.7211 Ry au,        -32.3338 Debye
        Dipole field         -0.0240 Ry au,

        Potential amp.        2.2254 Ry
        Total length         46.3494 bohr

     Starting wfcs are  305 atomic wfcs
  @ DRIVER MODE: Message from server: STATUS
  @ DRIVER MODE: Message from server: POSDATA
  @ DRIVER MODE: Reading and sharing cell
  @ DRIVER MODE: Reading and sharing positions
  @ DRIVER MODE: Received positions

     Self-consistent Calculation

     iteration #  1     ecut=    29.40 Ry     beta= 0.05
     Davidson diagonalization with overlap
     c_bands:  5 eigenvalues not converged
     c_bands:  5 eigenvalues not converged
     c_bands:  3 eigenvalues not converged
     c_bands:  4 eigenvalues not converged
     c_bands:  5 eigenvalues not converged
     c_bands:  4 eigenvalues not converged
     c_bands:  5 eigenvalues not converged
     c_bands:  4 eigenvalues not converged
     ethr =  1.00E-05,  avg # of iterations = 23.4

[...]

     total energy              =   -2361.18561112 Ry
     estimated scf accuracy    <    6936.22333806 Ry

     iteration #  2     ecut=    29.40 Ry     beta= 0.05
     Davidson diagonalization with overlap
     ethr =  1.00E-02,  avg # of iterations = 24.3

[...]

     iteration # 40     ecut=    29.40 Ry     beta= 0.05
     Davidson diagonalization with overlap
     c_bands:  1 eigenvalues not converged
     ethr =  3.62E-06,  avg # of iterations =  7.0

[...]

     total energy              =   -2973.99520190 Ry
     estimated scf accuracy    <       0.00000018 Ry

     iteration # 68     ecut=    29.40 Ry     beta= 0.05
     Davidson diagonalization with overlap
     ethr =  4.42E-11,  avg # of iterations =  6.8

     negative rho (up, down):  1.504E-02 0.000E+00

     Adding external electric field

     Computed dipole along edir(3) :
        Dipole                1.1964 Ry au,          3.0410 Debye
        Dipole field          0.0023 Ry au,

        Potential amp.       -0.2093 Ry
        Total length         46.3494 bohr

     End of self-consistent calculation

          k = 0.0000 0.0000 0.0000 ( 18029 PWs)   bands (ev):

   -55.7002 -55.6663 -55.3860 -55.3521 -55.2773 -55.1692 -55.1142 -55.0364
   -54.9904 -54.9582 -54.8300 -54.7356 -54.6948 -54.6243 -54.5276 -54.4936
   -32.1602 -31.9944 -31.9705 -31.8616 -31.8553 -31.7837 -31.7620 -31.6514
   -31.6065 -31.6043 -31.5932 -31.5394 -31.5370 -31.5178 -31.4967 -31.4921
   -31.4883 -31.3949 -31.3864 -31.3705 -31.3349 -31.3159 -31.3055 -31.2946
   -31.2745 -31.2707 -31.2373 -31.1996 -31.1761 -31.1746 -31.1650 -31.1470
   -31.0969 -31.0300 -30.9910 -30.9518 -30.9499 -30.9268 -30.9201 -30.9058
   -30.8953 -30.8573 -30.8380 -30.8344 -30.8339 -30.7451 -30.6600 -30.5480
   -19.0750 -16.2306 -16.0567 -15.7654 -15.5946 -15.3875 -15.3588 -15.2636
   -15.1608 -15.1440 -15.0402 -14.9753 -14.8906 -14.8214 -14.8018 -14.7532
   -14.7235 -14.6956 -14.6808 -14.6714 -14.6331 -14.6013 -14.5844 -14.5087
   -14.4637 -14.4453 -14.4179 -14.3529 -14.2570 -13.9912 -13.9282 -13.0252
   -12.9118 -12.5905  -9.3471  -6.2175  -4.7768  -4.7248  -3.7782  -3.5357
    -3.4639  -3.3305  -3.1219  -3.0724  -2.8943  -2.7734  -2.7531  -2.5328
    -2.5051  -2.3932  -2.3783  -2.3339  -2.3254  -2.2913  -2.2248  -2.1964
    -2.1246  -2.0644  -2.0373  -2.0036  -1.9506  -1.8957  -1.8904  -1.8766
    -1.8192  -1.7516  -1.7231  -1.7140  -1.6701  -1.6065  -1.5979  -1.5815
    -1.5624  -1.5411  -1.3979  -1.2918  -1.2308  -1.1922  -1.1427  -1.0860
    -1.0333  -1.0198  -0.9196  -0.8397  -0.7982  -0.6810  -0.6532  -0.6127
    -0.5282  -0.5037  -0.4613  -0.4420  -0.4007  -0.3936  -0.2886  -0.2711
    -0.2371  -0.1942  -0.0752  -0.0273  -0.0192   0.0620   0.1214   0.2016
     0.2430   0.2586   0.2832   0.3692   0.3969   0.4143   0.4224   0.4946
     0.5136   0.5624   0.6160   0.6987   0.7112   0.7511   0.7854   0.7983
     0.9281   0.9365   1.0262   1.0502   1.0611   1.1254   1.2196   1.2795
     1.3916   1.4051   1.4977   1.4979   1.5184   1.7169   1.8912   2.0500
     2.0903   3.5011   3.6203   3.6824   3.7201   3.9309   3.9425   4.2051
     4.2803   4.2837   4.3741

[...]

          k = 0.0380-0.0419 0.0000 ( 17876 PWs)   bands (ev):

[...]

          k =-0.0760-0.0000 0.0000 ( 17886 PWs)   bands (ev):

[...]

          k =-0.0760-0.0839 0.0000 ( 17948 PWs)   bands (ev):

   -55.6834 -55.6830 -55.3716 -55.3663 -55.2767 -55.1634 -55.1199 -55.0286
   -54.9980 -54.9587 -54.8280 -54.7333 -54.6968 -54.6265 -54.5110 -54.5100
   -31.9803 -31.9799 -31.9757 -31.9756 -31.8070 -31.8064 -31.6898 -31.6843
   -31.5697 -31.5657 -31.5643 -31.5580 -31.5535 -31.4928 -31.4826 -31.4674
   -31.4345 -31.3853 -31.3836 -31.3611 -31.3461 -31.3460 -31.3340 -31.3338
   -31.2575 -31.2438 -31.2370 -31.2331 -31.2055 -31.1941 -31.1648 -31.1555
   -31.0890 -31.0395 -31.0351 -30.9915 -30.9583 -30.9534 -30.9524 -30.9108
   -30.8728 -30.8472 -30.8464 -30.8373 -30.7414 -30.7401 -30.7031 -30.7022
   -19.0716 -16.2235 -15.4714 -15.4611 -15.3172 -15.3078 -15.2301 -15.1405
   -15.1223 -15.0936 -15.0449 -15.0227 -14.9414 -14.8850 -14.8656 -14.8402
   -14.8215 -14.8073 -14.7495 -14.7464 -14.7309 -14.7174 -14.6513 -14.6129
   -14.5827 -14.5762 -14.4680 -14.3884 -14.3042 -14.1554 -14.0647 -13.0147
   -13.0142 -12.5909  -9.3537  -6.2105  -4.7698  -4.7221  -3.7713  -3.4359
    -2.6500  -2.6068  -2.5160  -2.4379  -2.4338  -2.3837  -2.3831  -2.3016
    -2.2490  -2.1910  -2.1668  -2.1587  -2.1582  -2.1270  -2.1179  -2.0636
    -2.0587  -2.0411  -2.0382  -1.9819  -1.9570  -1.9426  -1.8908  -1.8355
    -1.7848  -1.7482  -1.7264  -1.6862  -1.6671  -1.6642  -1.5793  -1.5654
    -1.5375  -1.5099  -1.4651  -1.4348  -1.3796  -1.3578  -1.3014  -1.1740
    -1.1026  -1.0170  -0.9116  -0.8902  -0.8573  -0.8240  -0.8114  -0.7888
    -0.7560  -0.6406  -0.6302  -0.5807  -0.5486  -0.5205  -0.5034  -0.4756
    -0.4529  -0.3518  -0.3097  -0.2803  -0.2400  -0.2061  -0.1779  -0.1447
    -0.0932  -0.0540  -0.0441  -0.0127   0.0212   0.0355   0.1887   0.2682
     0.4012   0.4294   0.5194   0.5661   0.5981   0.6274   0.6561   0.7750
     0.8225   0.8449   0.8815   0.9031   1.0017   1.0986   1.1190   1.1869
     1.2217   1.3267   1.3576   1.4453   1.4968   1.8798   1.8876   1.9084
     1.9089   3.3786   4.0461   4.0490   4.0606   4.0739   4.2391   4.2419
     4.3428   4.3666   4.4843

     the Fermi energy is     3.4576 ev

!    total energy              =   -2973.99523284 Ry
     estimated scf accuracy    <       0.00000007 Ry
     smearing contrib. (-TS)   =      -0.01689341 Ry
     internal energy E=F+TS    =   -2973.97833943 Ry

     The total energy is F=E-TS. E is the sum of the following terms:
     one-electron contribution =  -23438.28227642 Ry
     hartree contribution      =   11816.60247282 Ry
     xc contribution           =    -493.96179605 Ry
     ewald contribution        =    9141.66055902 Ry
     electric field correction =       0.00270120 Ry

     convergence has been achieved in  68 iterations

     Forces acting on atoms (cartesian axes, Ry/au):

     atom    1 type  1   force =     0.00012098   -0.00024122    0.10270972
     atom    2 type  1   force =    -0.00011723    0.00008905   -0.16807944
     atom    3 type  2   force =    -0.00000826    0.00045766   -0.03240594
     atom    4 type  2   force =     0.00002791   -0.00097280    0.04011124
     atom    5 type  2   force =    -0.00542471   -0.00191397   -0.00433450
     atom    6 type  2   force =     0.00665938   -0.00135855   -0.00593446
     atom    7 type  1   force =    -0.00053581   -0.00530617    0.03004283
     atom    8 type  1   force =     0.00069647    0.00861002    0.04849901
     atom    9 type  2   force =     0.00012406   -0.00130525   -0.00106726
     atom   10 type  2   force =    -0.00253592    0.00301239   -0.03415165
     atom   11 type  2   force =    -0.00037017   -0.00008714   -0.00023285
     atom   12 type  2   force =     0.00046985   -0.00037113   -0.00011438
     atom   13 type  1   force =     0.00022887   -0.00163079    0.00019329
     atom   14 type  1   force =     0.00017277   -0.00077157    0.00069670
     atom   15 type  2   force =     0.00008993    0.00002676   -0.00027924
     atom   16 type  2   force =    -0.00012960    0.00005572    0.00172621
     atom   17 type  2   force =    -0.00104358   -0.00058162    0.00039043
     atom   18 type  2   force =     0.00065621   -0.00109876    0.00052900
     atom   19 type  1   force =     0.00060762   -0.00098379   -0.00071873
     atom   20 type  1   force =    -0.00078660   -0.00034606   -0.00021899
     atom   21 type  2   force =     0.00004673    0.00012279    0.10112031
     atom   22 type  2   force =    -0.00010313    0.00051212    0.00035856
     atom   23 type  2   force =    -0.07544751   -0.00012194   -0.02930290
     atom   24 type  2   force =     0.07536034    0.00030031   -0.02932164
     atom   25 type  1   force =     0.00013870   -0.00022892    0.10281947
     atom   26 type  1   force =    -0.00004093   -0.00130126   -0.16848851
     atom   27 type  2   force =     0.00011891    0.00017500   -0.03117753
     atom   28 type  2   force =    -0.00000912    0.00072255    0.03583071
     atom   29 type  2   force =    -0.00425483    0.00378732   -0.00626461
     atom   30 type  2   force =     0.00527901    0.00442474   -0.00779016
     atom   31 type  1   force =    -0.00054114    0.00495720    0.01593716
     atom   32 type  1   force =     0.00077078   -0.01041975    0.04918654
     atom   33 type  2   force =     0.00002788   -0.00091714   -0.00139014
     atom   34 type  2   force =    -0.00240593    0.00222330   -0.04431807
     atom   35 type  2   force =     0.00055066    0.00020519   -0.00013865
     atom   36 type  2   force =    -0.00017939    0.00023652   -0.00006854
     atom   37 type  1   force =     0.00026135    0.00038197   -0.00045172
     atom   38 type  1   force =     0.00041609    0.00139961    0.00104279
     atom   39 type  2   force =     0.00036413    0.00045226    0.00009595
     atom   40 type  2   force =     0.00005902    0.00014721    0.00048885
     atom   41 type  2   force =    -0.00092748   -0.00023643    0.00011496
     atom   42 type  2   force =     0.00044830    0.00025277    0.00032847
     atom   43 type  1   force =     0.00026994    0.00025754   -0.00152930
     atom   44 type  1   force =    -0.00065382   -0.00019225   -0.00092475
     atom   45 type  2   force =     0.00006950   -0.00002108    0.10092293
     atom   46 type  2   force =    -0.07550610   -0.00004953   -0.02932305
     atom   47 type  2   force =     0.07541740    0.00038444   -0.02931832
     atom   48 type  3   force =    -0.00043885    0.00055339   -0.00020248
     atom   49 type  3   force =     0.00039393   -0.00086564   -0.00137807
     atom   50 type  4   force =     0.00388496    0.00503005   -0.00772207
     atom   51 type  5   force =     0.00019443   -0.00070440   -0.00144721
     atom   52 type  5   force =    -0.00313649   -0.00471291    0.00875422
     atom   53 type  5   force =    -0.00017040   -0.00059670   -0.00082630
     atom   54 type  5   force =    -0.00006813   -0.00066087   -0.00134674
     atom   55 type  2   force =    -0.00032878    0.00037132   -0.00094152
     atom   56 type  5   force =     0.00123780   -0.00115157   -0.00068959

     Total force =     0.373062     Total SCF correction =     0.000646
  @ DRIVER MODE: Message from server: STATUS
  @ DRIVER MODE: Message from server: GETFORCE
  @ DRIVER MODE: Returning v,forces,stress,ensemble

     Writing output data file ./calc.save/
  @ DRIVER MODE: Message from server: EXIT
  @ DRIVE MODE: Exiting

     General routines

     Parallel routines

   This run was terminated on:  10: 7: 6  23Sep2021

   JOB DONE.