     Program PWSCF v.6.7GPU starts on  2Aug2021 at 14:33:50

     R & G space division:  proc/nbgrp/npool/nimage =      16
     Reading input from /storage/home/hcoda1/3/ntian30/research/carbon/02Aug_vib_paired/ads_slab/CH3NH_a/out_0010/pw.inp
Warning: card &CELL ignored
Warning: card   CELL_DYNAMICS='IPI', ignored
Warning: card / ignored

     Current dimensions of program PWSCF are:
     Max number of different atomic species (ntypx) = 10
     Max number of k-points (npk) =  40000
     Max angular momentum in pseudopotentials (lmaxx) =  3
     Presently no symmetry can be used with electric field

     Message from routine cell_base_init:
     DEPRECATED: use true lattice parameter, not A to a.u. conversion factor

     IMPORTANT: XC functional enforced from input :
     Exchange-correlation= BEEF-VDW
                           (   1   4  43  14   2   0   0)
     Any further DFT definition will be discarded
     Please, verify this is what you really want

  @ DRIVER MODE: Connecting to
 qe_1139763_2482540.sched-torque.pace.gatech.educckvh3ws_scratch
  using UNIX socket
  @ DRIVER MODE: Message from server: STATUS
  @ DRIVER MODE: Message from server: INIT
  @ DRIVER MODE: Receiving replica           0          -1
  @ DRIVER MODE: Receiving encoded integer          25
  @ DRIVER MODE:  SCF:  T  FORCE:  T  STRESS:  F  VC:  F  ENSEMBLE:  F
  @ DRIVER MODE:  SCF:  T  FORCE:  T  STRESS:  F  VC:  F  ENSEMBLE:  F

     Using Slab Decomposition

     bravais-lattice index     =            0
     lattice parameter (alat)  =       1.8897  a.u.
     unit-cell volume          =    6658.9804 (a.u.)^3
     number of atoms/cell      =           53
     number of atomic types    =            5
     number of electrons       =       391.00
     number of Kohn-Sham states=          205
     kinetic-energy cutoff     =      29.3995  Ry
     charge density cutoff     =     293.9946  Ry
     scf convergence threshold =      7.3E-08
     mixing beta               =       0.0500
     number of iterations used =            8  plain     mixing
     Exchange-correlation= BEEF-VDW
                           (   1   4  43  14   2   0   0)

     celldm(1)=   1.889726  celldm(2)=   0.000000  celldm(3)=   0.000000
     celldm(4)=   0.000000  celldm(5)=   0.000000  celldm(6)=   0.000000

     crystal axes: (cart. coord. in units of alat)
               a(1) = (   6.579727   0.000000   0.000000 )
               a(2) = (  -0.000775   5.961596   0.000000 )
               a(3) = (   0.000000   0.000000  25.155947 )

     reciprocal axes: (cart. coord. in units 2 pi/alat)
               b(1) = (  0.151982  0.000020  0.000000 )
               b(2) = (  0.000000  0.167740  0.000000 )
               b(3) = (  0.000000  0.000000  0.039752 )

     PseudoPot. # 1 for Ti read from file:
     /storage/coda1/p-amedford6/0/shared/rich_project_chbe-medford/medford-share/data/pseudos_module/espresso/nninc/pbe/van/Ti.UPF
     MD5 check sum: 8e4df49b7f0d34bbd5052bf3f5ea0213
     Pseudo is Ultrasoft, Zval = 12.0
     Generated by new atomic code, or converted to UPF format
     Using radial grid of  851 points,  6 beta functions with:
                l(1) =   0
                l(2) =   0
                l(3) =   1
                l(4) =   1
                l(5) =   2
                l(6) =   2
     Q(r) pseudized with  8 coefficients,  rinner =    1.000   1.000   1.000
                                                       1.000   1.000

     PseudoPot. # 2 for O  read from file:
     /storage/coda1/p-amedford6/0/shared/rich_project_chbe-medford/medford-share/data/pseudos_module/espresso/nninc/pbe/van/O.UPF
     MD5 check sum: 78c19812648e8988a0fe644b0f25305e
     Pseudo is Ultrasoft, Zval =  6.0
     Generated by new atomic code, or converted to UPF format
     Using radial grid of  737 points,  4 beta functions with:
                l(1) =   0
                l(2) =   0
                l(3) =   1
                l(4) =   1
     Q(r) pseudized with  8 coefficients,  rinner =    0.800   0.800   0.800

     PseudoPot. # 3 for H  read from file:
     /storage/coda1/p-amedford6/0/shared/rich_project_chbe-medford/medford-share/data/pseudos_module/espresso/nninc/pbe/van/H.UPF
     MD5 check sum: b5ee9d7bfd3a09ee7748110bda690ff7
     Pseudo is Ultrasoft, Zval =  1.0
     Generated by new atomic code, or converted to UPF format
     Using radial grid of  615 points,  1 beta functions with:
                l(1) =   0
     Q(r) pseudized with  8 coefficients,  rinner =    0.800

     PseudoPot. # 4 for N  read from file:
     /storage/coda1/p-amedford6/0/shared/rich_project_chbe-medford/medford-share/data/pseudos_module/espresso/nninc/pbe/van/N.UPF
     MD5 check sum: 90d10febe142ad51ac9d5be1deb811c4
     Pseudo is Ultrasoft, Zval =  5.0
     Generated by new atomic code, or converted to UPF format
     Using radial grid of  729 points,  4 beta functions with:
                l(1) =   0
                l(2) =   0
                l(3) =   1
                l(4) =   1
     Q(r) pseudized with  8 coefficients,  rinner =    0.800   0.800   0.800

     PseudoPot. # 5 for C  read from file:
     /storage/coda1/p-amedford6/0/shared/rich_project_chbe-medford/medford-share/data/pseudos_module/espresso/nninc/pbe/van/C.UPF
     MD5 check sum: 1a69bf6b8db32088f5b2163dbdb77a27
     Pseudo is Ultrasoft, Zval =  4.0
     Generated by new atomic code, or converted to UPF format
     Using radial grid of  721 points,  4 beta functions with:
                l(1) =   0
                l(2) =   0
                l(3) =   1
                l(4) =   1
     Q(r) pseudized with  8 coefficients,  rinner =    0.800   0.800   0.800

     atomic species   valence    mass     pseudopotential
        Ti1           12.00    47.86700     Ti( 1.00)
        O1             6.00    15.99900     O ( 1.00)
        H1             1.00     1.00800     H ( 1.00)
        N1             5.00    14.00700     N ( 1.00)
        C1             4.00    12.01100     C ( 1.00)

     No symmetry found

   Cartesian axes

     site n.     atom                  positions (alat units)
         1           Ti1 tau(   1) = (   0.0004258   2.9801865   6.0000000  )
         2           Ti1 tau(   2) = (   3.2906075   1.4906267   6.0002472  )
         3           O1  tau(   3) = (   0.0006271   0.0005054   7.9858123  )
         4           O1  tau(   4) = (   3.2906025   0.0005020   7.3038282  )
         5           O1  tau(   5) = (   4.5942328   1.4918067   9.2879030  )
         6           O1  tau(   6) = (   1.9868534   1.4903216   9.2879459  )
         7           Ti1 tau(   7) = (   3.2907910   2.8959150   9.1758416  )
         8           Ti1 tau(   8) = (   0.0015273   1.4827037   9.2680791  )
         9           O1  tau(   9) = (   3.2884659   0.0075485  11.3235732  )
        10           O1  tau(  10) = (   0.0116148   5.9584955  10.6183126  )
        11           O1  tau(  11) = (   1.3171120   1.5008813  12.6157184  )
        12           O1  tau(  12) = (   5.2946386   1.4924346  12.6071097  )
        13           Ti1 tau(  13) = (   6.5241923   2.9548932  12.6217359  )
        14           Ti1 tau(  14) = (   3.2094326   1.4975571  12.4685497  )
        15           O1  tau(  15) = (   6.5712017   0.0435206  14.6415704  )
        16           O1  tau(  16) = (   3.3105969   0.0188825  13.9167609  )
        17           O1  tau(  17) = (   4.5276945   1.5520673  16.0775932  )
        18           O1  tau(  18) = (   2.0451199   1.5488911  16.0433559  )
        19           Ti1 tau(  19) = (   3.3056363   3.0248959  15.6834923  )
        20           Ti1 tau(  20) = (   0.0598299   1.5678558  15.8702049  )
        21           O1  tau(  21) = (   3.2904802   0.0005063   4.7018136  )
        22           O1  tau(  22) = (   0.0261329   0.0581799  17.1997403  )
        23           O1  tau(  23) = (   1.3043587   1.4918075   6.0039043  )
        24           O1  tau(  24) = (   5.2767064   1.4903225   6.0039473  )
        25           Ti1 tau(  25) = (   0.0000382   5.9609847   6.0000000  )
        26           Ti1 tau(  26) = (   3.2902200   4.4714249   6.0002472  )
        27           O1  tau(  27) = (   0.0002396   2.9813036   7.9858123  )
        28           O1  tau(  28) = (   3.2902150   2.9813002   7.3038282  )
        29           O1  tau(  29) = (   4.5938453   4.4726049   9.2879030  )
        30           O1  tau(  30) = (   1.9864658   4.4711199   9.2879459  )
        31           Ti1 tau(  31) = (   3.2891106   5.8743827   9.1763621  )
        32           Ti1 tau(  32) = (   0.0006254   4.4649316   9.2693709  )
        33           O1  tau(  33) = (   3.2900467   2.9919642  11.3219399  )
        34           O1  tau(  34) = (   0.0092240   2.9805883  10.6323155  )
        35           O1  tau(  35) = (   1.3109590   4.4888342  12.6262493  )
        36           O1  tau(  36) = (   5.2962169   4.4808628  12.6191006  )
        37           Ti1 tau(  37) = (   6.5213093   5.9327278  12.5667326  )
        38           Ti1 tau(  38) = (   3.2063601   4.4772876  12.4706241  )
        39           O1  tau(  39) = (   6.5765807   2.9606619  14.6437028  )
        40           O1  tau(  40) = (   3.3047873   3.0036736  13.8926904  )
        41           O1  tau(  41) = (   4.5386289   4.5058657  16.0833063  )
        42           O1  tau(  42) = (   2.0584685   4.5123608  16.0729366  )
        43           Ti1 tau(  43) = (   3.3398093   0.0384087  15.7085799  )
        44           Ti1 tau(  44) = (   0.0478225   4.6849499  16.0879628  )
        45           O1  tau(  45) = (   3.2900926   2.9813045   4.7018136  )
        46           O1  tau(  46) = (   1.3039711   4.4726057   6.0039043  )
        47           O1  tau(  47) = (   5.2763189   4.4711207   6.0039473  )
        48           H1  tau(  48) = (   5.6109407   2.9912845  17.7881963  )
        49           N1  tau(  49) = (   6.5652763   3.0151276  17.4431066  )
        50           C1  tau(  50) = (   0.8863280   2.9891452  18.6126320  )
        51           H1  tau(  51) = (   1.3596840   3.9617220  18.7724638  )
        52           H1  tau(  52) = (   0.3315535   2.7344040  19.5171108  )
        53           H1  tau(  53) = (   1.6705027   2.2407838  18.4910999  )

     number of k points=    10  Fermi-Dirac smearing, width (Ry)=  0.0073
                       cart. coord. in units 2pi/alat
        k(    1) = (   0.0000000   0.0000000   0.0000000), wk =   0.1250000
        k(    2) = (   0.0000000   0.0419351   0.0000000), wk =   0.2500000
        k(    3) = (   0.0000000  -0.0838702   0.0000000), wk =   0.1250000
        k(    4) = (   0.0379955   0.0000049   0.0000000), wk =   0.2500000
        k(    5) = (   0.0379955   0.0419400   0.0000000), wk =   0.2500000
        k(    6) = (   0.0379955  -0.0838652   0.0000000), wk =   0.2500000
        k(    7) = (   0.0379955  -0.0419301   0.0000000), wk =   0.2500000
        k(    8) = (  -0.0759910  -0.0000099   0.0000000), wk =   0.1250000
        k(    9) = (  -0.0759910   0.0419252   0.0000000), wk =   0.2500000
        k(   10) = (  -0.0759910  -0.0838800   0.0000000), wk =   0.1250000

     Initial potential from superposition of free atoms

     starting charge  374.99916, renormalised to  391.00000

     negative rho (up, down):  1.778E-02 0.000E+00

     %%%%%%%%%%%%%%%%%%%%%%%%%%%%%%%%%%%%%%%%%%%%%%%%%%%%%%%%%%%%%%%%%%%%%%%%
     %                                                                      %
     % You are using vdW-DF, which was implemented by the Thonhauser group. %
     % Please cite the following two papers that made this development      %
     % possible and the two reviews that describe the various versions:     %
     %                                                                      %
     %   T. Thonhauser et al., PRL 115, 136402 (2015).                      %
     %   T. Thonhauser et al., PRB 76, 125112 (2007).                       %
     %   K. Berland et al., Rep. Prog. Phys. 78, 066501 (2015).             %
     %   D.C. Langreth et al., J. Phys.: Condens. Matter 21, 084203 (2009). %
     %                                                                      %
     %                                                                      %
     % If you are calculating the stress with vdW-DF, please also cite:     %
     %                                                                      %
     %   R. Sabatini et al., J. Phys.: Condens. Matter 24, 424209 (2012).   %
     %                                                                      %
     %%%%%%%%%%%%%%%%%%%%%%%%%%%%%%%%%%%%%%%%%%%%%%%%%%%%%%%%%%%%%%%%%%%%%%%%

     Adding external electric field

     Computed dipole along edir(3) :
        Dipole               -5.8084 Ry au,        -14.7635 Debye
        Dipole field         -0.0110 Ry au,

        Potential amp.        1.0161 Ry
        Total length         46.3494 bohr

     Starting wfcs are  296 atomic wfcs
  @ DRIVER MODE: Message from server: STATUS
  @ DRIVER MODE: Message from server: POSDATA
  @ DRIVER MODE: Reading and sharing cell
  @ DRIVER MODE: Reading and sharing positions
  @ DRIVER MODE: Received positions

     Self-consistent Calculation

     iteration #  1     ecut=    29.40 Ry     beta= 0.05
     Davidson diagonalization with overlap
     c_bands:  3 eigenvalues not converged
     c_bands:  1 eigenvalues not converged
     c_bands:  1 eigenvalues not converged
     c_bands:  2 eigenvalues not converged
     c_bands:  4 eigenvalues not converged
     c_bands:  2 eigenvalues not converged
     c_bands:  1 eigenvalues not converged
     c_bands:  1 eigenvalues not converged
     c_bands:  2 eigenvalues not converged
     ethr =  1.00E-05,  avg # of iterations = 19.5

[...]

     total energy              =   -2770.90034424 Ry
     estimated scf accuracy    <    1638.78453602 Ry

     iteration #  2     ecut=    29.40 Ry     beta= 0.05
     Davidson diagonalization with overlap
     ethr =  1.00E-02,  avg # of iterations = 18.9

[...]

     iteration # 57     ecut=    29.40 Ry     beta= 0.05
     Davidson diagonalization with overlap
     c_bands:  1 eigenvalues not converged
     ethr =  3.18E-10,  avg # of iterations = 14.4

[...]

     total energy              =   -2920.41984613 Ry
     estimated scf accuracy    <       0.00000011 Ry

     iteration # 63     ecut=    29.40 Ry     beta= 0.05
     Davidson diagonalization with overlap
     ethr =  2.78E-11,  avg # of iterations =  7.4

     negative rho (up, down):  1.826E-02 0.000E+00

     Adding external electric field

     Computed dipole along edir(3) :
        Dipole                0.6946 Ry au,          1.7656 Debye
        Dipole field          0.0013 Ry au,

        Potential amp.       -0.1215 Ry
        Total length         46.3494 bohr

     End of self-consistent calculation

          k = 0.0000 0.0000 0.0000 ( 18029 PWs)   bands (ev):

   -55.9826 -55.9743 -55.9485 -55.9382 -55.8860 -55.8252 -55.8208 -55.7879
   -55.7861 -55.7539 -55.7472 -55.7135 -55.5614 -55.2713 -54.9552 -54.9211
   -32.5343 -32.4641 -32.3350 -32.3220 -32.3014 -32.2871 -32.2758 -32.2383
   -32.2242 -32.2215 -32.1972 -32.1902 -32.1575 -32.1348 -32.1260 -32.1189
   -32.1173 -32.0860 -32.0659 -32.0398 -32.0319 -32.0278 -32.0118 -31.9921
   -31.9808 -31.9789 -31.9743 -31.9640 -31.9506 -31.9438 -31.9420 -31.9361
   -31.9242 -31.9181 -31.9005 -31.8948 -31.8598 -31.8251 -31.7305 -31.5481
   -31.5396 -31.4690 -31.3621 -31.2743 -31.2519 -31.1789 -31.0924 -30.9813
   -16.7436 -16.4602 -16.2806 -16.1378 -16.1048 -16.0196 -15.8193 -15.6941
   -15.6810 -15.5779 -15.5400 -15.5170 -15.5092 -15.4819 -15.4795 -15.4205
   -15.4176 -15.4049 -15.3925 -15.3367 -15.3127 -15.2732 -15.1782 -15.1546
   -15.1390 -15.1124 -15.0317 -15.0244 -14.5840 -14.0989 -13.4579 -13.3416
    -8.9313  -4.3681  -4.1143  -3.9375  -3.8982  -3.8851  -3.8367  -3.5851
    -3.5687  -3.3107  -3.1967  -3.1754  -3.1686  -3.1522  -3.1385  -3.1187
    -2.8818  -2.8113  -2.7976  -2.7751  -2.7682  -2.7649  -2.7530  -2.7486
    -2.7066  -2.6461  -2.5282  -2.5155  -2.4098  -2.3626  -2.3389  -2.2921
    -2.2483  -2.2418  -2.2292  -2.2125  -2.1976  -2.1788  -2.1611  -2.0264
    -1.9631  -1.8346  -1.7872  -1.7811  -1.5834  -1.5372  -1.4482  -1.4256
    -1.4091  -1.4017  -1.3695  -1.2894  -1.1978  -1.1407  -1.1275  -1.0743
    -0.9978  -0.9864  -0.8756  -0.8712  -0.8063  -0.7514  -0.7422  -0.7327
    -0.6879  -0.6141  -0.5410  -0.4670  -0.4174  -0.3956  -0.3691  -0.2905
    -0.2603  -0.1634  -0.1454  -0.1000  -0.0954  -0.0463  -0.0044   0.0056
     0.0122   0.0267   0.0441   0.1931   0.3000   0.3572   0.3891   0.4007
     0.5564   0.5929   0.6806   0.7683   0.9935   1.0666   1.1604   1.2596
     1.3280   1.6374   1.6828   3.1603   3.2392   3.2924   3.3009   3.4021
     3.4049   3.6103   3.6224   3.6328   3.7013

[...]

          k = 0.0380-0.0419 0.0000 ( 17876 PWs)   bands (ev):

[...]

          k =-0.0760-0.0000 0.0000 ( 17886 PWs)   bands (ev):

[...]

          k =-0.0760-0.0839 0.0000 ( 17948 PWs)   bands (ev):

   -55.9659 -55.9651 -55.9571 -55.9551 -55.8805 -55.8304 -55.8058 -55.8010
   -55.7716 -55.7698 -55.7310 -55.7298 -55.5605 -55.2722 -54.9381 -54.9380
   -32.3386 -32.3358 -32.2796 -32.2791 -32.2668 -32.2615 -32.2608 -32.2464
   -32.1842 -32.1831 -32.1767 -32.1729 -32.1496 -32.1212 -32.1030 -32.0988
   -32.0883 -32.0854 -32.0846 -32.0845 -32.0828 -32.0710 -32.0686 -32.0366
   -32.0262 -32.0199 -31.9956 -31.9869 -31.9684 -31.9679 -31.9639 -31.9628
   -31.9460 -31.9453 -31.9431 -31.9416 -31.8922 -31.8278 -31.7258 -31.6113
   -31.5417 -31.4933 -31.2646 -31.2645 -31.1749 -31.1748 -31.1357 -31.1357
   -16.1954 -16.1620 -15.9266 -15.9171 -15.9080 -15.8921 -15.7472 -15.6956
   -15.6870 -15.6801 -15.6559 -15.6313 -15.5811 -15.5498 -15.5167 -15.5100
   -15.5035 -15.4982 -15.4420 -15.4355 -15.4132 -15.4058 -15.2923 -15.2881
   -15.2863 -15.2099 -15.1466 -15.0139 -14.7534 -14.1199 -13.4434 -13.4433
    -8.9351  -4.3789  -3.4900  -3.4518  -3.2795  -3.1882  -3.1661  -3.1533
    -3.1327  -3.0523  -2.8930  -2.8785  -2.8601  -2.8469  -2.8069  -2.8016
    -2.7899  -2.7762  -2.7692  -2.7511  -2.7175  -2.6766  -2.6482  -2.6412
    -2.6323  -2.6077  -2.5954  -2.5686  -2.5633  -2.5305  -2.5222  -2.5033
    -2.4798  -2.2166  -2.1994  -2.1823  -2.1132  -2.1063  -2.0714  -2.0633
    -2.0441  -2.0307  -1.9789  -1.8772  -1.7143  -1.6816  -1.6688  -1.6519
    -1.5862  -1.5660  -1.4176  -1.3889  -1.3720  -1.3323  -1.2835  -1.2535
    -1.2167  -1.1769  -1.1400  -1.0794  -1.0707  -0.9921  -0.9421  -0.9416
    -0.9145  -0.8444  -0.7655  -0.7485  -0.7367  -0.6955  -0.6817  -0.6005
    -0.5781  -0.4795  -0.4669  -0.3960  -0.3611  -0.2975  -0.0979   0.0030
     0.0620   0.0847   0.1380   0.2358   0.2891   0.3046   0.3368   0.3420
     0.4013   0.4433   0.5568   0.5643   0.6330   0.7363   1.2719   1.4310
     1.4316   1.5026   1.5026   3.4225   3.4278   3.4774   3.5082   3.6600
     3.6643   3.6873   3.6884   3.8096   3.8274

     the Fermi energy is     3.1534 ev

!    total energy              =   -2920.41988736 Ry
     estimated scf accuracy    <       0.00000005 Ry
     smearing contrib. (-TS)   =      -0.02203009 Ry
     internal energy E=F+TS    =   -2920.39785727 Ry

     The total energy is F=E-TS. E is the sum of the following terms:
     one-electron contribution =  -24727.68328467 Ry
     hartree contribution      =   12448.49128759 Ry
     xc contribution           =    -480.87533191 Ry
     ewald contribution        =    9839.66856115 Ry
     electric field correction =       0.00091056 Ry

     convergence has been achieved in  63 iterations

     Forces acting on atoms (cartesian axes, Ry/au):

     atom    1 type  1   force =     0.00011470   -0.00017252    0.09686839
     atom    2 type  1   force =     0.00004679   -0.00046907   -0.17505899
     atom    3 type  2   force =     0.00012787    0.00000793   -0.02533882
     atom    4 type  2   force =    -0.00003590   -0.00127891    0.05235697
     atom    5 type  2   force =    -0.01222601   -0.00000900    0.00299295
     atom    6 type  2   force =     0.01366324    0.00058577    0.00232759
     atom    7 type  1   force =     0.00056834    0.00034381   -0.01302043
     atom    8 type  1   force =     0.00046129    0.00730390    0.03073699
     atom    9 type  2   force =     0.00055948    0.00003443   -0.00020595
     atom   10 type  2   force =    -0.00267854    0.00211375   -0.01738783
     atom   11 type  2   force =    -0.00015959    0.00009009   -0.00002625
     atom   12 type  2   force =     0.00048546    0.00036795    0.00018132
     atom   13 type  1   force =    -0.00009301   -0.00054376   -0.00028413
     atom   14 type  1   force =    -0.00042750    0.00001740    0.00080754
     atom   15 type  2   force =    -0.00003105    0.00008310    0.00050053
     atom   16 type  2   force =     0.00025324    0.00064501   -0.00049563
     atom   17 type  2   force =     0.00084160    0.00015021    0.00075769
     atom   18 type  2   force =    -0.00025749   -0.00002719    0.00005940
     atom   19 type  1   force =     0.00001809    0.00067822   -0.00018306
     atom   20 type  1   force =    -0.00025964   -0.00070431    0.00012001
     atom   21 type  2   force =     0.00006132   -0.00002945    0.10309317
     atom   22 type  2   force =     0.00017963    0.00057081    0.00096787
     atom   23 type  2   force =    -0.07162871   -0.00015698   -0.02781571
     atom   24 type  2   force =     0.07152436    0.00034190   -0.02787311
     atom   25 type  1   force =     0.00008050   -0.00013678    0.09657979
     atom   26 type  1   force =     0.00009001   -0.00019708   -0.17518443
     atom   27 type  2   force =     0.00011588   -0.00011220   -0.02439516
     atom   28 type  2   force =     0.00004345   -0.00103853    0.05227397
     atom   29 type  2   force =    -0.01242344    0.00063510    0.00278858
     atom   30 type  2   force =     0.01373263    0.00097804    0.00213238
     atom   31 type  1   force =     0.00045526    0.00315707   -0.01357625
     atom   32 type  1   force =     0.00032095   -0.00951271    0.03110675
     atom   33 type  2   force =    -0.00007216    0.00031064   -0.00060014
     atom   34 type  2   force =    -0.00206602    0.00182288   -0.02534213
     atom   35 type  2   force =    -0.00019437   -0.00030355    0.00037874
     atom   36 type  2   force =     0.00027452   -0.00079658    0.00040858
     atom   37 type  1   force =     0.00005201    0.00028597    0.00109583
     atom   38 type  1   force =    -0.00021605    0.00038723    0.00077308
     atom   39 type  2   force =    -0.00005008   -0.00035249   -0.00036887
     atom   40 type  2   force =     0.00041956    0.00005911    0.00057093
     atom   41 type  2   force =     0.00006191   -0.00017962   -0.00024436
     atom   42 type  2   force =    -0.00033679   -0.00036254   -0.00044197
     atom   43 type  1   force =    -0.00076426   -0.00042145    0.00046226
     atom   44 type  1   force =    -0.00035267   -0.00051684    0.00061341
     atom   45 type  2   force =     0.00004014   -0.00004897    0.10310772
     atom   46 type  2   force =    -0.07162130   -0.00006790   -0.02781218
     atom   47 type  2   force =     0.07154004    0.00035096   -0.02788152
     atom   48 type  3   force =     0.00027353   -0.00001901   -0.00021616
     atom   49 type  4   force =    -0.00059814   -0.00467530   -0.00030095
     atom   50 type  5   force =     0.00052350    0.00164010    0.00052691
     atom   51 type  3   force =    -0.00031253    0.00000132    0.00104673
     atom   52 type  3   force =     0.00002277   -0.00062945   -0.00064613
     atom   53 type  3   force =    -0.00014681   -0.00020049   -0.00093596

     Total force =     0.368443     Total SCF correction =     0.000515
  @ DRIVER MODE: Message from server: STATUS
  @ DRIVER MODE: Message from server: GETFORCE
  @ DRIVER MODE: Returning v,forces,stress,ensemble

     Writing output data file ./calc.save/
  @ DRIVER MODE: Message from server: EXIT
  @ DRIVE MODE: Exiting

     General routines

     Parallel routines

   This run was terminated on:  14:47:34   2Aug2021

   JOB DONE.