     Program PWSCF v.6.7GPU starts on 22Sep2021 at 19:26:43

     R & G space division:  proc/nbgrp/npool/nimage =      10
     Reading input from /storage/home/hcoda1/3/ntian30/research/carbon/CxH_vib/H2O_calc/ads_slab/CHNHNH2H2O_b/out_0010/pw.inp
Warning: card &CELL ignored
Warning: card   CELL_DYNAMICS='IPI', ignored
Warning: card / ignored

     Current dimensions of program PWSCF are:
     Max number of different atomic species (ntypx) = 10
     Max number of k-points (npk) =  40000
     Max angular momentum in pseudopotentials (lmaxx) =  3
     Presently no symmetry can be used with electric field

     Message from routine cell_base_init:
     DEPRECATED: use true lattice parameter, not A to a.u. conversion factor

     IMPORTANT: XC functional enforced from input :
     Exchange-correlation= BEEF-VDW
                           (   1   4  43  14   2   0   0)
     Any further DFT definition will be discarded
     Please, verify this is what you really want

  @ DRIVER MODE: Connecting to
 qe_1139763_2937312.sched-torque.pace.gatech.eduw67kccpd_scratch
  using UNIX socket
  @ DRIVER MODE: Message from server: STATUS
  @ DRIVER MODE: Message from server: INIT
  @ DRIVER MODE: Receiving replica           0          -1
  @ DRIVER MODE: Receiving encoded integer          25
  @ DRIVER MODE:  SCF:  T  FORCE:  T  STRESS:  F  VC:  F  ENSEMBLE:  F
  @ DRIVER MODE:  SCF:  T  FORCE:  T  STRESS:  F  VC:  F  ENSEMBLE:  F

     Using Slab Decomposition

     bravais-lattice index     =            0
     lattice parameter (alat)  =       1.8897  a.u.
     unit-cell volume          =    6658.9804 (a.u.)^3
     number of atoms/cell      =           57
     number of atomic types    =            5
     number of electrons       =       404.00
     number of Kohn-Sham states=          212
     kinetic-energy cutoff     =      29.3995  Ry
     charge density cutoff     =     293.9946  Ry
     scf convergence threshold =      7.3E-08
     mixing beta               =       0.0500
     number of iterations used =            8  plain     mixing
     Exchange-correlation= BEEF-VDW
                           (   1   4  43  14   2   0   0)

     celldm(1)=   1.889726  celldm(2)=   0.000000  celldm(3)=   0.000000
     celldm(4)=   0.000000  celldm(5)=   0.000000  celldm(6)=   0.000000

     crystal axes: (cart. coord. in units of alat)
               a(1) = (   6.579727   0.000000   0.000000 )
               a(2) = (  -0.000775   5.961596   0.000000 )
               a(3) = (   0.000000   0.000000  25.155947 )

     reciprocal axes: (cart. coord. in units 2 pi/alat)
               b(1) = (  0.151982  0.000020  0.000000 )
               b(2) = (  0.000000  0.167740  0.000000 )
               b(3) = (  0.000000  0.000000  0.039752 )

     PseudoPot. # 1 for Ti read from file:
     /storage/coda1/p-amedford6/0/shared/rich_project_chbe-medford/medford-share/data/pseudos_module/espresso/nninc/pbe/van/Ti.UPF
     MD5 check sum: 8e4df49b7f0d34bbd5052bf3f5ea0213
     Pseudo is Ultrasoft, Zval = 12.0
     Generated by new atomic code, or converted to UPF format
     Using radial grid of  851 points,  6 beta functions with:
                l(1) =   0
                l(2) =   0
                l(3) =   1
                l(4) =   1
                l(5) =   2
                l(6) =   2
     Q(r) pseudized with  8 coefficients,  rinner =    1.000   1.000   1.000
                                                       1.000   1.000

     PseudoPot. # 2 for O  read from file:
     /storage/coda1/p-amedford6/0/shared/rich_project_chbe-medford/medford-share/data/pseudos_module/espresso/nninc/pbe/van/O.UPF
     MD5 check sum: 78c19812648e8988a0fe644b0f25305e
     Pseudo is Ultrasoft, Zval =  6.0
     Generated by new atomic code, or converted to UPF format
     Using radial grid of  737 points,  4 beta functions with:
                l(1) =   0
                l(2) =   0
                l(3) =   1
                l(4) =   1
     Q(r) pseudized with  8 coefficients,  rinner =    0.800   0.800   0.800

     PseudoPot. # 3 for N  read from file:
     /storage/coda1/p-amedford6/0/shared/rich_project_chbe-medford/medford-share/data/pseudos_module/espresso/nninc/pbe/van/N.UPF
     MD5 check sum: 90d10febe142ad51ac9d5be1deb811c4
     Pseudo is Ultrasoft, Zval =  5.0
     Generated by new atomic code, or converted to UPF format
     Using radial grid of  729 points,  4 beta functions with:
                l(1) =   0
                l(2) =   0
                l(3) =   1
                l(4) =   1
     Q(r) pseudized with  8 coefficients,  rinner =    0.800   0.800   0.800

     PseudoPot. # 4 for C  read from file:
     /storage/coda1/p-amedford6/0/shared/rich_project_chbe-medford/medford-share/data/pseudos_module/espresso/nninc/pbe/van/C.UPF
     MD5 check sum: 1a69bf6b8db32088f5b2163dbdb77a27
     Pseudo is Ultrasoft, Zval =  4.0
     Generated by new atomic code, or converted to UPF format
     Using radial grid of  721 points,  4 beta functions with:
                l(1) =   0
                l(2) =   0
                l(3) =   1
                l(4) =   1
     Q(r) pseudized with  8 coefficients,  rinner =    0.800   0.800   0.800

     PseudoPot. # 5 for H  read from file:
     /storage/coda1/p-amedford6/0/shared/rich_project_chbe-medford/medford-share/data/pseudos_module/espresso/nninc/pbe/van/H.UPF
     MD5 check sum: b5ee9d7bfd3a09ee7748110bda690ff7
     Pseudo is Ultrasoft, Zval =  1.0
     Generated by new atomic code, or converted to UPF format
     Using radial grid of  615 points,  1 beta functions with:
                l(1) =   0
     Q(r) pseudized with  8 coefficients,  rinner =    0.800

     atomic species   valence    mass     pseudopotential
        Ti1           12.00    47.86700     Ti( 1.00)
        O1             6.00    15.99900     O ( 1.00)
        N1             5.00    14.00700     N ( 1.00)
        C1             4.00    12.01100     C ( 1.00)
        H1             1.00     1.00800     H ( 1.00)

     No symmetry found

   Cartesian axes

     site n.     atom                  positions (alat units)
         1           Ti1 tau(   1) = (   0.0004258   2.9801865   6.0000000  )
         2           Ti1 tau(   2) = (   3.2906075   1.4906267   6.0002472  )
         3           O1  tau(   3) = (   0.0006271   0.0005054   7.9858123  )
         4           O1  tau(   4) = (   3.2906025   0.0005020   7.3038282  )
         5           O1  tau(   5) = (   4.5942328   1.4918067   9.2879030  )
         6           O1  tau(   6) = (   1.9868534   1.4903216   9.2879459  )
         7           Ti1 tau(   7) = (   3.2907910   2.8959150   9.1758416  )
         8           Ti1 tau(   8) = (   0.0015273   1.4827037   9.2680791  )
         9           O1  tau(   9) = (   3.3066417   5.9496923  11.3845403  )
        10           O1  tau(  10) = (   0.0116148   5.9584955  10.6183126  )
        11           O1  tau(  11) = (   1.3010148   1.4986442  12.6442229  )
        12           O1  tau(  12) = (   5.3085967   1.5001388  12.6592367  )
        13           Ti1 tau(  13) = (   0.0282779   2.9853959  12.5065338  )
        14           Ti1 tau(  14) = (   3.3279724   1.4707331  12.5413945  )
        15           O1  tau(  15) = (   0.0378505   0.0859181  14.6860672  )
        16           O1  tau(  16) = (   3.3018867   0.0259462  14.0338077  )
        17           O1  tau(  17) = (   4.5998927   1.5484098  16.1661054  )
        18           O1  tau(  18) = (   2.0454451   1.5021798  16.2221046  )
        19           Ti1 tau(  19) = (   3.3206312   2.9825829  15.7321521  )
        20           Ti1 tau(  20) = (   0.0140791   1.4435866  15.9983415  )
        21           O1  tau(  21) = (   3.2904802   0.0005063   4.7018136  )
        22           O1  tau(  22) = (   6.5273045   5.8164216  17.2577718  )
        23           O1  tau(  23) = (   1.3043587   1.4918075   6.0039043  )
        24           O1  tau(  24) = (   5.2767064   1.4903225   6.0039473  )
        25           Ti1 tau(  25) = (   0.0000382   5.9609847   6.0000000  )
        26           Ti1 tau(  26) = (   3.2902200   4.4714249   6.0002472  )
        27           O1  tau(  27) = (   0.0002396   2.9813036   7.9858123  )
        28           O1  tau(  28) = (   3.2902150   2.9813002   7.3038282  )
        29           O1  tau(  29) = (   4.5938453   4.4726049   9.2879030  )
        30           O1  tau(  30) = (   1.9864658   4.4711199   9.2879459  )
        31           Ti1 tau(  31) = (   3.2891106   5.8743827   9.1763621  )
        32           Ti1 tau(  32) = (   0.0006254   4.4649316   9.2693709  )
        33           O1  tau(  33) = (   3.3068470   2.9864458  11.3814114  )
        34           O1  tau(  34) = (   0.0092240   2.9805883  10.6323155  )
        35           O1  tau(  35) = (   1.2982948   4.4740332  12.6840172  )
        36           O1  tau(  36) = (   5.3097620   4.4704985  12.6972095  )
        37           Ti1 tau(  37) = (   0.0348817   0.0130325  12.4954113  )
        38           Ti1 tau(  38) = (   3.3270268   4.4633798  12.5435021  )
        39           O1  tau(  39) = (   0.0563025   2.9439880  14.9425960  )
        40           O1  tau(  40) = (   3.2900316   2.9661073  13.9503945  )
        41           O1  tau(  41) = (   4.5967999   4.4093095  16.0633277  )
        42           O1  tau(  42) = (   2.0412097   4.4536800  16.1303113  )
        43           Ti1 tau(  43) = (   3.2964201   5.9600488  15.8742613  )
        44           Ti1 tau(  44) = (   0.0241369   4.6516137  15.8518307  )
        45           O1  tau(  45) = (   3.2900926   2.9813045   4.7018136  )
        46           O1  tau(  46) = (   1.3039711   4.4726057   6.0039043  )
        47           O1  tau(  47) = (   5.2763189   4.4711207   6.0039473  )
        48           N1  tau(  48) = (   1.4509408   2.7109095  18.7602185  )
        49           N1  tau(  49) = (   0.0917387   2.5403350  18.2207845  )
        50           C1  tau(  50) = (   1.9503960   3.7723240  19.2784661  )
        51           H1  tau(  51) = (   1.1612915   4.5273475  19.4152495  )
        52           H1  tau(  52) = (   2.0208952   1.9183395  18.4664618  )
        53           H1  tau(  53) = (   6.1377449   3.3539424  18.4987646  )
        54           H1  tau(  54) = (   6.2616785   1.7135167  18.6767212  )
        55           O1  tau(  55) = (   3.7012217   5.9496235  18.2853534  )
        56           H1  tau(  56) = (   4.6684668   5.8470116  18.1670174  )
        57           H1  tau(  57) = (   3.3852657   5.1278045  18.7338684  )

     number of k points=    10  Fermi-Dirac smearing, width (Ry)=  0.0073
                       cart. coord. in units 2pi/alat
        k(    1) = (   0.0000000   0.0000000   0.0000000), wk =   0.1250000
        k(    2) = (   0.0000000   0.0419351   0.0000000), wk =   0.2500000
        k(    3) = (   0.0000000  -0.0838702   0.0000000), wk =   0.1250000
        k(    4) = (   0.0379955   0.0000049   0.0000000), wk =   0.2500000
        k(    5) = (   0.0379955   0.0419400   0.0000000), wk =   0.2500000
        k(    6) = (   0.0379955  -0.0838652   0.0000000), wk =   0.2500000
        k(    7) = (   0.0379955  -0.0419301   0.0000000), wk =   0.2500000
        k(    8) = (  -0.0759910  -0.0000099   0.0000000), wk =   0.1250000
        k(    9) = (  -0.0759910   0.0419252   0.0000000), wk =   0.2500000
        k(   10) = (  -0.0759910  -0.0838800   0.0000000), wk =   0.1250000

     Initial potential from superposition of free atoms

     starting charge  387.99913, renormalised to  404.00000

     negative rho (up, down):  1.598E-02 0.000E+00

     %%%%%%%%%%%%%%%%%%%%%%%%%%%%%%%%%%%%%%%%%%%%%%%%%%%%%%%%%%%%%%%%%%%%%%%%
     %                                                                      %
     % You are using vdW-DF, which was implemented by the Thonhauser group. %
     % Please cite the following two papers that made this development      %
     % possible and the two reviews that describe the various versions:     %
     %                                                                      %
     %   T. Thonhauser et al., PRL 115, 136402 (2015).                      %
     %   T. Thonhauser et al., PRB 76, 125112 (2007).                       %
     %   K. Berland et al., Rep. Prog. Phys. 78, 066501 (2015).             %
     %   D.C. Langreth et al., J. Phys.: Condens. Matter 21, 084203 (2009). %
     %                                                                      %
     %                                                                      %
     % If you are calculating the stress with vdW-DF, please also cite:     %
     %                                                                      %
     %   R. Sabatini et al., J. Phys.: Condens. Matter 24, 424209 (2012).   %
     %                                                                      %
     %%%%%%%%%%%%%%%%%%%%%%%%%%%%%%%%%%%%%%%%%%%%%%%%%%%%%%%%%%%%%%%%%%%%%%%%

     Adding external electric field

     Computed dipole along edir(3) :
        Dipole              -14.3585 Ry au,        -36.4957 Debye
        Dipole field         -0.0271 Ry au,

        Potential amp.        2.5118 Ry
        Total length         46.3494 bohr

     Starting wfcs are  306 atomic wfcs
  @ DRIVER MODE: Message from server: STATUS
  @ DRIVER MODE: Message from server: POSDATA
  @ DRIVER MODE: Reading and sharing cell
  @ DRIVER MODE: Reading and sharing positions
  @ DRIVER MODE: Received positions

     Self-consistent Calculation

     iteration #  1     ecut=    29.40 Ry     beta= 0.05
     Davidson diagonalization with overlap
     c_bands:  3 eigenvalues not converged
     c_bands:  4 eigenvalues not converged
     c_bands:  4 eigenvalues not converged
     c_bands:  4 eigenvalues not converged
     c_bands:  5 eigenvalues not converged
     c_bands:  3 eigenvalues not converged
     c_bands:  2 eigenvalues not converged
     c_bands:  4 eigenvalues not converged
     ethr =  1.00E-05,  avg # of iterations = 21.9

[...]

     total energy              =   -2220.93895907 Ry
     estimated scf accuracy    <    8587.34896700 Ry

     iteration #  2     ecut=    29.40 Ry     beta= 0.05
     Davidson diagonalization with overlap
     ethr =  1.00E-02,  avg # of iterations = 27.6

[...]

     iteration # 78     ecut=    29.40 Ry     beta= 0.05
     Davidson diagonalization with overlap
     c_bands:  1 eigenvalues not converged
     ethr =  4.50E-09,  avg # of iterations = 13.4

[...]

     total energy              =   -2975.10505186 Ry
     estimated scf accuracy    <       0.00000008 Ry

     iteration # 88     ecut=    29.40 Ry     beta= 0.05
     Davidson diagonalization with overlap
     ethr =  1.93E-11,  avg # of iterations = 13.7

     negative rho (up, down):  1.578E-02 0.000E+00

     Adding external electric field

     Computed dipole along edir(3) :
        Dipole                1.0215 Ry au,          2.5964 Debye
        Dipole field          0.0019 Ry au,

        Potential amp.       -0.1787 Ry
        Total length         46.3494 bohr

     End of self-consistent calculation

          k = 0.0000 0.0000 0.0000 ( 18029 PWs)   bands (ev):

   -55.3871 -55.3513 -55.3469 -55.3128 -55.3099 -55.3044 -55.2689 -55.2336
   -55.2185 -55.1836 -55.1770 -55.1618 -55.1433 -55.1137 -54.3783 -54.3443
   -31.9461 -31.8818 -31.8396 -31.7586 -31.7098 -31.7071 -31.6829 -31.6800
   -31.6358 -31.6001 -31.5930 -31.5916 -31.5849 -31.5812 -31.5632 -31.5611
   -31.5364 -31.5284 -31.5255 -31.5140 -31.4996 -31.4931 -31.4745 -31.4692
   -31.4610 -31.4481 -31.4475 -31.4186 -31.4042 -31.4006 -31.3976 -31.3754
   -31.3714 -31.3673 -31.3639 -31.3426 -31.3316 -31.3196 -31.3047 -31.3046
   -31.2942 -31.2881 -30.7878 -30.6933 -30.6713 -30.6042 -30.5174 -30.4065
   -18.8902 -18.4544 -16.2217 -15.9743 -15.8383 -15.7337 -15.5965 -15.4984
   -15.3892 -15.2758 -15.2528 -15.1584 -15.0848 -15.0806 -15.0433 -15.0180
   -14.9554 -14.9340 -14.9102 -14.9043 -14.8897 -14.8795 -14.8430 -14.8321
   -14.7980 -14.7882 -14.7708 -14.6444 -14.6277 -14.5536 -14.4829 -14.3457
   -12.8810 -12.7635  -9.8464  -6.9646  -6.3775  -6.1218  -4.4262  -3.7378
    -3.5455  -3.4120  -3.3334  -3.3046  -3.2872  -3.1558  -3.0613  -2.9034
    -2.8645  -2.8081  -2.6754  -2.5994  -2.5931  -2.5052  -2.4325  -2.4093
    -2.3762  -2.2670  -2.2609  -2.2109  -2.1938  -2.1706  -2.1614  -2.1145
    -2.0687  -2.0417  -1.9564  -1.8550  -1.8112  -1.7915  -1.7550  -1.7323
    -1.7269  -1.6840  -1.6777  -1.6539  -1.6153  -1.5910  -1.5449  -1.4334
    -1.3910  -1.2328  -1.1953  -1.0415  -1.0210  -0.9818  -0.9614  -0.9177
    -0.8945  -0.8786  -0.8590  -0.7738  -0.7156  -0.6490  -0.5852  -0.4938
    -0.4838  -0.4108  -0.3843  -0.3191  -0.2315  -0.1872  -0.1779  -0.1526
    -0.1491  -0.0354   0.0093   0.0699   0.0883   0.1458   0.1618   0.1838
     0.2537   0.3074   0.3767   0.4073   0.4865   0.5048   0.5398   0.5490
     0.5815   0.5918   0.6682   0.6828   0.7110   0.8138   0.9115   1.0054
     1.2151   1.2168   1.2620   1.5492   1.5513   1.6444   1.8279   2.2208
     2.2692   3.7029   3.7813   3.8309   3.8485   3.8530   3.9378   4.1924
     4.2067   4.2194   4.2256   4.2667

[...]

          k = 0.0380-0.0419 0.0000 ( 17876 PWs)   bands (ev):

[...]

          k =-0.0760-0.0000 0.0000 ( 17886 PWs)   bands (ev):

[...]

          k =-0.0760-0.0839 0.0000 ( 17948 PWs)   bands (ev):

   -55.3702 -55.3679 -55.3299 -55.3297 -55.3069 -55.3035 -55.2552 -55.2473
   -55.2041 -55.1975 -55.1636 -55.1610 -55.1594 -55.1155 -54.3613 -54.3612
   -31.7966 -31.7585 -31.7444 -31.6548 -31.6545 -31.6404 -31.6284 -31.6211
   -31.6209 -31.6002 -31.5952 -31.5920 -31.5691 -31.5614 -31.5495 -31.5355
   -31.5324 -31.5297 -31.5259 -31.5178 -31.5131 -31.5111 -31.5102 -31.5020
   -31.4704 -31.4691 -31.4497 -31.4495 -31.4493 -31.4445 -31.4416 -31.4370
   -31.4276 -31.4162 -31.4106 -31.3939 -31.3922 -31.3820 -31.3410 -31.3400
   -31.3394 -31.3202 -30.6839 -30.6839 -30.6004 -30.6002 -30.5608 -30.5608
   -18.8845 -18.4567 -15.8411 -15.6547 -15.5033 -15.4314 -15.4111 -15.3279
   -15.2722 -15.2692 -15.1960 -15.1779 -15.1656 -15.1441 -15.1342 -15.0871
   -15.0500 -15.0134 -14.9946 -14.9720 -14.9288 -14.9062 -14.9045 -14.8978
   -14.8900 -14.8490 -14.8444 -14.8411 -14.7495 -14.7476 -14.7025 -14.5612
   -12.8650 -12.8649  -9.8555  -6.9538  -6.3519  -6.0982  -4.4397  -3.6660
    -3.0230  -2.9128  -2.9019  -2.6730  -2.6548  -2.5938  -2.5812  -2.4934
    -2.4776  -2.4170  -2.3935  -2.3432  -2.3203  -2.2823  -2.2686  -2.2469
    -2.2259  -2.2122  -2.1855  -2.1696  -2.1524  -2.1330  -2.1220  -2.1106
    -2.0550  -2.0495  -2.0407  -2.0154  -1.9924  -1.9563  -1.9462  -1.9299
    -1.7745  -1.7587  -1.7373  -1.6021  -1.5977  -1.5623  -1.5234  -1.4957
    -1.4376  -1.4294  -1.4009  -1.3421  -1.1471  -1.1374  -1.1260  -1.1070
    -1.0367  -0.9811  -0.9678  -0.9495  -0.8960  -0.8179  -0.7819  -0.7307
    -0.6376  -0.5907  -0.5807  -0.5552  -0.4338  -0.4109  -0.3686  -0.3506
    -0.3343  -0.2999  -0.2984  -0.2400  -0.1879  -0.1528  -0.1300  -0.1156
    -0.0787   0.0757   0.1281   0.1445   0.2586   0.2880   0.4662   0.5092
     0.5309   0.6358   0.7190   0.7473   0.7615   0.8878   0.9094   0.9115
     0.9798   1.0020   1.0621   1.0678   1.2191   2.0005   2.0018   2.0890
     2.0893   3.8281   3.9504   3.9952   4.0309   4.1063   4.1596   4.2167
     4.2758   4.2874   4.2910   4.3605

     the Fermi energy is     3.7649 ev

!    total energy              =   -2975.10505856 Ry
     estimated scf accuracy    <       0.00000005 Ry
     smearing contrib. (-TS)   =      -0.03672080 Ry
     internal energy E=F+TS    =   -2975.06833777 Ry

     The total energy is F=E-TS. E is the sum of the following terms:
     one-electron contribution =  -23505.38897092 Ry
     hartree contribution      =   11848.69330275 Ry
     xc contribution           =    -494.91872362 Ry
     ewald contribution        =    9176.54408487 Ry
     electric field correction =       0.00196915 Ry

     convergence has been achieved in  88 iterations

     Forces acting on atoms (cartesian axes, Ry/au):

     atom    1 type  1   force =     0.00003083   -0.00024781    0.09309221
     atom    2 type  1   force =    -0.00019160   -0.00032377   -0.17837421
     atom    3 type  2   force =     0.00006072   -0.00016962   -0.02026024
     atom    4 type  2   force =     0.00001686   -0.00203583    0.05925687
     atom    5 type  2   force =    -0.01034687   -0.00110224    0.00808283
     atom    6 type  2   force =     0.01219211   -0.00054826    0.00816159
     atom    7 type  1   force =     0.00015431    0.00328771   -0.01112767
     atom    8 type  1   force =    -0.00029604    0.00053082   -0.00561797
     atom    9 type  2   force =     0.00004213    0.00017319   -0.00015297
     atom   10 type  2   force =    -0.00146359   -0.00003545   -0.00171070
     atom   11 type  2   force =     0.00037450   -0.00003358   -0.00006587
     atom   12 type  2   force =    -0.00009221    0.00010699   -0.00009593
     atom   13 type  1   force =    -0.00009335   -0.00017651   -0.00021609
     atom   14 type  1   force =    -0.00021021   -0.00037357    0.00035030
     atom   15 type  2   force =     0.00006470   -0.00029474    0.00009679
     atom   16 type  2   force =     0.00021888    0.00009731    0.00024619
     atom   17 type  2   force =     0.00038057   -0.00017356    0.00017263
     atom   18 type  2   force =    -0.00014867   -0.00012856   -0.00005444
     atom   19 type  1   force =    -0.00025411   -0.00040389    0.00004969
     atom   20 type  1   force =     0.00003545    0.00032385    0.00038651
     atom   21 type  2   force =    -0.00000409   -0.00007522    0.10401837
     atom   22 type  2   force =    -0.00008366    0.00050122    0.00000577
     atom   23 type  2   force =    -0.07034471   -0.00015325   -0.02681867
     atom   24 type  2   force =     0.07021242    0.00029272   -0.02689830
     atom   25 type  1   force =     0.00001885   -0.00015514    0.09276353
     atom   26 type  1   force =    -0.00016143   -0.00038979   -0.17832344
     atom   27 type  2   force =     0.00011083   -0.00030762   -0.01920242
     atom   28 type  2   force =     0.00004716   -0.00163413    0.05840823
     atom   29 type  2   force =    -0.01030195   -0.00063912    0.00729061
     atom   30 type  2   force =     0.01203782   -0.00030802    0.00742611
     atom   31 type  1   force =     0.00007786    0.00514277   -0.01467645
     atom   32 type  1   force =    -0.00014605   -0.00052267   -0.00596375
     atom   33 type  2   force =     0.00013017   -0.00038959   -0.00024165
     atom   34 type  2   force =    -0.00078771    0.00260463   -0.00103597
     atom   35 type  2   force =    -0.00007464   -0.00011100   -0.00012713
     atom   36 type  2   force =     0.00024180    0.00000430   -0.00015318
     atom   37 type  1   force =    -0.00043398    0.00008712    0.00002686
     atom   38 type  1   force =    -0.00003242   -0.00024251   -0.00025035
     atom   39 type  2   force =    -0.00030411   -0.00020132   -0.00028855
     atom   40 type  2   force =    -0.00013627   -0.00006067   -0.00005400
     atom   41 type  2   force =    -0.00017724   -0.00012876    0.00033677
     atom   42 type  2   force =    -0.00002868   -0.00022013    0.00010696
     atom   43 type  1   force =     0.00002801   -0.00035428    0.00018377
     atom   44 type  1   force =     0.00001240   -0.00039778    0.00039891
     atom   45 type  2   force =     0.00000970   -0.00010879    0.10398477
     atom   46 type  2   force =    -0.07036762   -0.00012269   -0.02684000
     atom   47 type  2   force =     0.07021318    0.00031273   -0.02689884
     atom   48 type  3   force =    -0.00102183    0.00507136    0.00076868
     atom   49 type  3   force =     0.00126402   -0.02607760    0.00125762
     atom   50 type  4   force =     0.00193140    0.00127407    0.00137185
     atom   51 type  5   force =     0.00013078   -0.00072766   -0.00058242
     atom   52 type  5   force =    -0.00089072   -0.00132059   -0.00071762
     atom   53 type  5   force =    -0.00537621    0.01105282    0.00430990
     atom   54 type  5   force =     0.00385842    0.01045456   -0.00609220
     atom   55 type  2   force =     0.00015108   -0.00005338    0.00046184
     atom   56 type  5   force =     0.00021562   -0.00034318   -0.00039752
     atom   57 type  5   force =    -0.00049260   -0.00022587    0.00022241

     Total force =     0.367615     Total SCF correction =     0.000700
  @ DRIVER MODE: Message from server: STATUS
  @ DRIVER MODE: Message from server: GETFORCE
  @ DRIVER MODE: Returning v,forces,stress,ensemble

     Writing output data file ./calc.save/
  @ DRIVER MODE: Message from server: EXIT
  @ DRIVE MODE: Exiting

     General routines

     Parallel routines

   This run was terminated on:  19:51: 9  22Sep2021

   JOB DONE.