     Program PWSCF v.6.7GPU starts on 23Sep2021 at  3:55:49

     R & G space division:  proc/nbgrp/npool/nimage =      10
     Reading input from /storage/home/hcoda1/3/ntian30/research/carbon/CxH_vib/H2O_calc/ads_slab/CHNHHHO_a/out_0038/pw.inp
Warning: card &CELL ignored
Warning: card   CELL_DYNAMICS='IPI', ignored
Warning: card / ignored

     Current dimensions of program PWSCF are:
     Max number of different atomic species (ntypx) = 10
     Max number of k-points (npk) =  40000
     Max angular momentum in pseudopotentials (lmaxx) =  3
     Presently no symmetry can be used with electric field

     Message from routine cell_base_init:
     DEPRECATED: use true lattice parameter, not A to a.u. conversion factor

     IMPORTANT: XC functional enforced from input :
     Exchange-correlation= BEEF-VDW
                           (   1   4  43  14   2   0   0)
     Any further DFT definition will be discarded
     Please, verify this is what you really want

  @ DRIVER MODE: Connecting to
 qe_1139763_2937313.sched-torque.pace.gatech.edu_bh7xtb__scratch
  using UNIX socket
  @ DRIVER MODE: Message from server: STATUS
  @ DRIVER MODE: Message from server: INIT
  @ DRIVER MODE: Receiving replica           0          -1
  @ DRIVER MODE: Receiving encoded integer          25
  @ DRIVER MODE:  SCF:  T  FORCE:  T  STRESS:  F  VC:  F  ENSEMBLE:  F
  @ DRIVER MODE:  SCF:  T  FORCE:  T  STRESS:  F  VC:  F  ENSEMBLE:  F

     Using Slab Decomposition

     bravais-lattice index     =            0
     lattice parameter (alat)  =       1.8897  a.u.
     unit-cell volume          =    6658.9804 (a.u.)^3
     number of atoms/cell      =           54
     number of atomic types    =            5
     number of electrons       =       397.00
     number of Kohn-Sham states=          208
     kinetic-energy cutoff     =      29.3995  Ry
     charge density cutoff     =     293.9946  Ry
     scf convergence threshold =      7.3E-08
     mixing beta               =       0.0500
     number of iterations used =            8  plain     mixing
     Exchange-correlation= BEEF-VDW
                           (   1   4  43  14   2   0   0)

     celldm(1)=   1.889726  celldm(2)=   0.000000  celldm(3)=   0.000000
     celldm(4)=   0.000000  celldm(5)=   0.000000  celldm(6)=   0.000000

     crystal axes: (cart. coord. in units of alat)
               a(1) = (   6.579727   0.000000   0.000000 )
               a(2) = (  -0.000775   5.961596   0.000000 )
               a(3) = (   0.000000   0.000000  25.155947 )

     reciprocal axes: (cart. coord. in units 2 pi/alat)
               b(1) = (  0.151982  0.000020  0.000000 )
               b(2) = (  0.000000  0.167740  0.000000 )
               b(3) = (  0.000000  0.000000  0.039752 )

     PseudoPot. # 1 for Ti read from file:
     /storage/coda1/p-amedford6/0/shared/rich_project_chbe-medford/medford-share/data/pseudos_module/espresso/nninc/pbe/van/Ti.UPF
     MD5 check sum: 8e4df49b7f0d34bbd5052bf3f5ea0213
     Pseudo is Ultrasoft, Zval = 12.0
     Generated by new atomic code, or converted to UPF format
     Using radial grid of  851 points,  6 beta functions with:
                l(1) =   0
                l(2) =   0
                l(3) =   1
                l(4) =   1
                l(5) =   2
                l(6) =   2
     Q(r) pseudized with  8 coefficients,  rinner =    1.000   1.000   1.000
                                                       1.000   1.000

     PseudoPot. # 2 for O  read from file:
     /storage/coda1/p-amedford6/0/shared/rich_project_chbe-medford/medford-share/data/pseudos_module/espresso/nninc/pbe/van/O.UPF
     MD5 check sum: 78c19812648e8988a0fe644b0f25305e
     Pseudo is Ultrasoft, Zval =  6.0
     Generated by new atomic code, or converted to UPF format
     Using radial grid of  737 points,  4 beta functions with:
                l(1) =   0
                l(2) =   0
                l(3) =   1
                l(4) =   1
     Q(r) pseudized with  8 coefficients,  rinner =    0.800   0.800   0.800

     PseudoPot. # 3 for N  read from file:
     /storage/coda1/p-amedford6/0/shared/rich_project_chbe-medford/medford-share/data/pseudos_module/espresso/nninc/pbe/van/N.UPF
     MD5 check sum: 90d10febe142ad51ac9d5be1deb811c4
     Pseudo is Ultrasoft, Zval =  5.0
     Generated by new atomic code, or converted to UPF format
     Using radial grid of  729 points,  4 beta functions with:
                l(1) =   0
                l(2) =   0
                l(3) =   1
                l(4) =   1
     Q(r) pseudized with  8 coefficients,  rinner =    0.800   0.800   0.800

     PseudoPot. # 4 for C  read from file:
     /storage/coda1/p-amedford6/0/shared/rich_project_chbe-medford/medford-share/data/pseudos_module/espresso/nninc/pbe/van/C.UPF
     MD5 check sum: 1a69bf6b8db32088f5b2163dbdb77a27
     Pseudo is Ultrasoft, Zval =  4.0
     Generated by new atomic code, or converted to UPF format
     Using radial grid of  721 points,  4 beta functions with:
                l(1) =   0
                l(2) =   0
                l(3) =   1
                l(4) =   1
     Q(r) pseudized with  8 coefficients,  rinner =    0.800   0.800   0.800

     PseudoPot. # 5 for H  read from file:
     /storage/coda1/p-amedford6/0/shared/rich_project_chbe-medford/medford-share/data/pseudos_module/espresso/nninc/pbe/van/H.UPF
     MD5 check sum: b5ee9d7bfd3a09ee7748110bda690ff7
     Pseudo is Ultrasoft, Zval =  1.0
     Generated by new atomic code, or converted to UPF format
     Using radial grid of  615 points,  1 beta functions with:
                l(1) =   0
     Q(r) pseudized with  8 coefficients,  rinner =    0.800

     atomic species   valence    mass     pseudopotential
        Ti1           12.00    47.86700     Ti( 1.00)
        O1             6.00    15.99900     O ( 1.00)
        N1             5.00    14.00700     N ( 1.00)
        C1             4.00    12.01100     C ( 1.00)
        H1             1.00     1.00800     H ( 1.00)

     No symmetry found

   Cartesian axes

     site n.     atom                  positions (alat units)
         1           Ti1 tau(   1) = (   0.0004258   2.9801865   6.0000000  )
         2           Ti1 tau(   2) = (   3.2906075   1.4906267   6.0002472  )
         3           O1  tau(   3) = (   0.0006271   0.0005054   7.9858123  )
         4           O1  tau(   4) = (   3.2906025   0.0005020   7.3038282  )
         5           O1  tau(   5) = (   4.5942328   1.4918067   9.2879030  )
         6           O1  tau(   6) = (   1.9868534   1.4903216   9.2879459  )
         7           Ti1 tau(   7) = (   3.2907910   2.8959150   9.1758416  )
         8           Ti1 tau(   8) = (   0.0015273   1.4827037   9.2680791  )
         9           O1  tau(   9) = (   3.2973591   5.9237820  11.3497511  )
        10           O1  tau(  10) = (   0.0116148   5.9584955  10.6183126  )
        11           O1  tau(  11) = (   1.2811460   1.4768824  12.6391447  )
        12           O1  tau(  12) = (   5.3079631   1.4871840  12.6405626  )
        13           Ti1 tau(  13) = (   6.5754896   2.9244875  12.5445406  )
        14           Ti1 tau(  14) = (   3.3102182   1.2813077  12.7057081  )
        15           O1  tau(  15) = (   6.5763362   0.0566486  14.6337039  )
        16           O1  tau(  16) = (   3.2990834   0.0566264  13.9960278  )
        17           O1  tau(  17) = (   4.5749688   1.5338778  16.1314031  )
        18           O1  tau(  18) = (   2.0677763   1.5208417  16.2171153  )
        19           Ti1 tau(  19) = (   3.2830944   2.9922577  15.6820260  )
        20           Ti1 tau(  20) = (   6.5002293   1.4748383  16.0237708  )
        21           O1  tau(  21) = (   3.2904802   0.0005063   4.7018136  )
        22           O1  tau(  22) = (   0.0234767   5.8639946  17.1540191  )
        23           O1  tau(  23) = (   1.3043587   1.4918075   6.0039043  )
        24           O1  tau(  24) = (   5.2767064   1.4903225   6.0039473  )
        25           Ti1 tau(  25) = (   0.0000382   5.9609847   6.0000000  )
        26           Ti1 tau(  26) = (   3.2902200   4.4714249   6.0002472  )
        27           O1  tau(  27) = (   0.0002396   2.9813036   7.9858123  )
        28           O1  tau(  28) = (   3.2902150   2.9813002   7.3038282  )
        29           O1  tau(  29) = (   4.5938453   4.4726049   9.2879030  )
        30           O1  tau(  30) = (   1.9864658   4.4711199   9.2879459  )
        31           Ti1 tau(  31) = (   3.2891106   5.8743827   9.1763621  )
        32           Ti1 tau(  32) = (   0.0006254   4.4649316   9.2693709  )
        33           O1  tau(  33) = (   3.2952530   2.9960894  11.3054589  )
        34           O1  tau(  34) = (   0.0092240   2.9805883  10.6323155  )
        35           O1  tau(  35) = (   1.2848436   4.4566134  12.6628561  )
        36           O1  tau(  36) = (   5.3073415   4.4462911  12.6631571  )
        37           Ti1 tau(  37) = (   0.0411484   5.9123939  12.5136797  )
        38           Ti1 tau(  38) = (   3.3147701   4.3652790  12.4361622  )
        39           O1  tau(  39) = (   0.0290229   2.9306538  14.8412286  )
        40           O1  tau(  40) = (   3.2875986   2.9640914  13.9120161  )
        41           O1  tau(  41) = (   4.5659564   4.3862643  16.1232528  )
        42           O1  tau(  42) = (   2.0245242   4.4195217  16.0560026  )
        43           Ti1 tau(  43) = (   3.2475481   5.9608109  16.2864591  )
        44           Ti1 tau(  44) = (   0.0132903   4.6514137  15.7972829  )
        45           O1  tau(  45) = (   3.2900926   2.9813045   4.7018136  )
        46           O1  tau(  46) = (   1.3039711   4.4726057   6.0039043  )
        47           O1  tau(  47) = (   5.2763189   4.4711207   6.0039473  )
        48           N1  tau(  48) = (   5.7184149   3.3872802  18.6644769  )
        49           C1  tau(  49) = (   6.5536674   2.6142045  18.0347456  )
        50           H1  tau(  50) = (   0.7520291   2.2354638  18.7052436  )
        51           H1  tau(  51) = (   4.9873861   3.8928837  18.1615307  )
        52           H1  tau(  52) = (   5.8197376   3.6397576  19.6419508  )
        53           O1  tau(  53) = (   3.3578172   5.8156178  18.1613732  )
        54           H1  tau(  54) = (   2.9224532   0.5526369  18.6599525  )

     number of k points=    10  Fermi-Dirac smearing, width (Ry)=  0.0073
                       cart. coord. in units 2pi/alat
        k(    1) = (   0.0000000   0.0000000   0.0000000), wk =   0.1250000
        k(    2) = (   0.0000000   0.0419351   0.0000000), wk =   0.2500000
        k(    3) = (   0.0000000  -0.0838702   0.0000000), wk =   0.1250000
        k(    4) = (   0.0379955   0.0000049   0.0000000), wk =   0.2500000
        k(    5) = (   0.0379955   0.0419400   0.0000000), wk =   0.2500000
        k(    6) = (   0.0379955  -0.0838652   0.0000000), wk =   0.2500000
        k(    7) = (   0.0379955  -0.0419301   0.0000000), wk =   0.2500000
        k(    8) = (  -0.0759910  -0.0000099   0.0000000), wk =   0.1250000
        k(    9) = (  -0.0759910   0.0419252   0.0000000), wk =   0.2500000
        k(   10) = (  -0.0759910  -0.0838800   0.0000000), wk =   0.1250000

     Initial potential from superposition of free atoms

     starting charge  380.99916, renormalised to  397.00000

     negative rho (up, down):  1.674E-02 0.000E+00

     %%%%%%%%%%%%%%%%%%%%%%%%%%%%%%%%%%%%%%%%%%%%%%%%%%%%%%%%%%%%%%%%%%%%%%%%
     %                                                                      %
     % You are using vdW-DF, which was implemented by the Thonhauser group. %
     % Please cite the following two papers that made this development      %
     % possible and the two reviews that describe the various versions:     %
     %                                                                      %
     %   T. Thonhauser et al., PRL 115, 136402 (2015).                      %
     %   T. Thonhauser et al., PRB 76, 125112 (2007).                       %
     %   K. Berland et al., Rep. Prog. Phys. 78, 066501 (2015).             %
     %   D.C. Langreth et al., J. Phys.: Condens. Matter 21, 084203 (2009). %
     %                                                                      %
     %                                                                      %
     % If you are calculating the stress with vdW-DF, please also cite:     %
     %                                                                      %
     %   R. Sabatini et al., J. Phys.: Condens. Matter 24, 424209 (2012).   %
     %                                                                      %
     %%%%%%%%%%%%%%%%%%%%%%%%%%%%%%%%%%%%%%%%%%%%%%%%%%%%%%%%%%%%%%%%%%%%%%%%

     Adding external electric field

     Computed dipole along edir(3) :
        Dipole               -9.3089 Ry au,        -23.6608 Debye
        Dipole field         -0.0176 Ry au,

        Potential amp.        1.6284 Ry
        Total length         46.3494 bohr

     Starting wfcs are  300 atomic wfcs
  @ DRIVER MODE: Message from server: STATUS
  @ DRIVER MODE: Message from server: POSDATA
  @ DRIVER MODE: Reading and sharing cell
  @ DRIVER MODE: Reading and sharing positions
  @ DRIVER MODE: Received positions

     Self-consistent Calculation

     iteration #  1     ecut=    29.40 Ry     beta= 0.05
     Davidson diagonalization with overlap
     c_bands:  1 eigenvalues not converged
     c_bands:  2 eigenvalues not converged
     c_bands:  1 eigenvalues not converged
     c_bands:  1 eigenvalues not converged
     c_bands:  2 eigenvalues not converged
     c_bands:  1 eigenvalues not converged
     c_bands:  1 eigenvalues not converged
     c_bands:  2 eigenvalues not converged
     ethr =  1.00E-05,  avg # of iterations = 19.6

[...]

     total energy              =   -2539.06979416 Ry
     estimated scf accuracy    <    4593.61909461 Ry

     iteration #  2     ecut=    29.40 Ry     beta= 0.05
     Davidson diagonalization with overlap
     ethr =  1.00E-02,  avg # of iterations = 24.0

[...]

     iteration # 46     ecut=    29.40 Ry     beta= 0.05
     Davidson diagonalization with overlap
     c_bands:  2 eigenvalues not converged
     c_bands:  1 eigenvalues not converged
     ethr =  9.55E-07,  avg # of iterations = 15.9

[...]

     total energy              =   -2952.67091994 Ry
     estimated scf accuracy    <       0.00000009 Ry

     iteration # 70     ecut=    29.40 Ry     beta= 0.05
     Davidson diagonalization with overlap
     ethr =  1.89E-11,  avg # of iterations = 12.1

     negative rho (up, down):  1.682E-02 0.000E+00

     Adding external electric field

     Computed dipole along edir(3) :
        Dipole                1.3070 Ry au,          3.3221 Debye
        Dipole field          0.0025 Ry au,

        Potential amp.       -0.2286 Ry
        Total length         46.3494 bohr

     End of self-consistent calculation

          k = 0.0000 0.0000 0.0000 ( 18029 PWs)   bands (ev):

   -55.6261 -55.5463 -55.5123 -55.3634 -55.3396 -55.3294 -55.3042 -55.2963
   -55.2790 -55.2285 -55.1415 -55.1068 -55.0302 -55.0044 -54.4974 -54.4634
   -32.0276 -31.9583 -31.8655 -31.8490 -31.8380 -31.8259 -31.8249 -31.7911
   -31.7626 -31.7190 -31.6988 -31.6699 -31.6498 -31.6266 -31.6213 -31.6096
   -31.6040 -31.5869 -31.5529 -31.5379 -31.5220 -31.5181 -31.5034 -31.5024
   -31.4915 -31.4812 -31.4762 -31.4761 -31.4470 -31.4362 -31.4260 -31.4034
   -31.3864 -31.3855 -31.3839 -31.3071 -31.2970 -31.2760 -31.2437 -31.2348
   -31.2236 -31.1527 -30.9022 -30.8187 -30.7961 -30.7199 -30.6337 -30.5218
   -17.3048 -16.5123 -16.1314 -15.9671 -15.7699 -15.6651 -15.5957 -15.4069
   -15.3226 -15.2656 -15.0742 -15.0708 -15.0404 -15.0215 -14.9953 -14.9663
   -14.9586 -14.9528 -14.9260 -14.8926 -14.8757 -14.8474 -14.8300 -14.7721
   -14.7441 -14.7275 -14.6673 -14.5716 -14.5081 -14.2954 -14.1468 -12.9954
   -12.8795  -9.6354  -7.3143  -4.7775  -4.0784  -3.5003  -3.4330  -3.3721
    -3.3232  -3.2476  -3.0162  -2.8685  -2.7637  -2.7356  -2.6497  -2.6172
    -2.5707  -2.4919  -2.4246  -2.4013  -2.3555  -2.3178  -2.2869  -2.2647
    -2.2393  -2.2175  -2.1621  -2.1234  -2.0463  -1.9981  -1.9288  -1.9063
    -1.8492  -1.8109  -1.8085  -1.7935  -1.7568  -1.7515  -1.7429  -1.7231
    -1.6167  -1.5845  -1.5351  -1.4919  -1.3276  -1.1404  -1.1195  -1.0248
    -0.9882  -0.9504  -0.9231  -0.9078  -0.8823  -0.8586  -0.7643  -0.7459
    -0.6635  -0.6016  -0.5567  -0.5069  -0.4067  -0.3394  -0.3116  -0.2657
    -0.2607  -0.2295  -0.2136  -0.1252  -0.0484  -0.0019   0.0115   0.0631
     0.1484   0.1669   0.2220   0.2514   0.2936   0.3264   0.4008   0.4271
     0.4492   0.4603   0.4782   0.5352   0.5744   0.6074   0.6771   0.7788
     0.7871   0.8611   0.8628   0.8729   1.0738   1.1626   1.1820   1.2644
     1.4882   1.5294   1.6207   1.7255   2.0938   2.1381   3.5569   3.7001
     3.7182   3.7829   3.8313   3.9432   3.9557   4.0416   4.1699   4.2568

[...]

          k = 0.0380-0.0419 0.0000 ( 17876 PWs)   bands (ev):

[...]

          k =-0.0760-0.0000 0.0000 ( 17886 PWs)   bands (ev):

[...]

          k =-0.0760-0.0839 0.0000 ( 17948 PWs)   bands (ev):

   -55.6255 -55.5294 -55.5290 -55.3465 -55.3461 -55.3260 -55.3176 -55.2968
   -55.2726 -55.2350 -55.1393 -55.1032 -55.0337 -55.0065 -54.4808 -54.4799
   -31.9039 -31.8430 -31.8429 -31.8380 -31.8274 -31.8236 -31.8233 -31.6999
   -31.6717 -31.6653 -31.6494 -31.6488 -31.6433 -31.6345 -31.6210 -31.6021
   -31.5957 -31.5930 -31.5587 -31.5580 -31.5405 -31.5386 -31.5243 -31.5223
   -31.5153 -31.5107 -31.5027 -31.5008 -31.4907 -31.4847 -31.4586 -31.4525
   -31.4072 -31.3889 -31.3810 -31.3639 -31.3109 -31.3006 -31.2836 -31.2443
   -31.2387 -31.2258 -30.8091 -30.8085 -30.7158 -30.7146 -30.6772 -30.6765
   -17.3005 -16.5035 -15.5934 -15.5831 -15.4724 -15.4558 -15.3535 -15.2863
   -15.2536 -15.2291 -15.2089 -15.1775 -15.1723 -15.1254 -15.0798 -15.0640
   -15.0334 -15.0076 -14.9905 -14.9532 -14.9229 -14.9064 -14.8825 -14.8448
   -14.8383 -14.8231 -14.8098 -14.6409 -14.5936 -14.4482 -14.4221 -12.9817
   -12.9812  -9.6371  -7.3138  -4.7723  -4.0754  -2.8582  -2.7992  -2.6823
    -2.6455  -2.5853  -2.5105  -2.4774  -2.4638  -2.3772  -2.3662  -2.3620
    -2.3236  -2.2986  -2.2804  -2.2521  -2.2485  -2.2393  -2.2043  -2.1975
    -2.1800  -2.1590  -2.1425  -2.1273  -2.1128  -2.1038  -2.0808  -2.0580
    -2.0317  -1.9887  -1.8315  -1.7939  -1.7660  -1.6493  -1.6399  -1.6219
    -1.6108  -1.5975  -1.5660  -1.4999  -1.4815  -1.4752  -1.3162  -1.2313
    -1.1900  -1.1252  -1.1045  -1.0760  -0.9868  -0.9738  -0.9453  -0.9080
    -0.8605  -0.7882  -0.6889  -0.6817  -0.6380  -0.5309  -0.4792  -0.4670
    -0.4642  -0.4141  -0.4037  -0.3875  -0.3465  -0.2740  -0.2584  -0.2328
    -0.2005  -0.1854  -0.1440  -0.0761   0.0271   0.1085   0.2139   0.2503
     0.3318   0.3578   0.3723   0.5250   0.5880   0.6264   0.6755   0.6830
     0.7853   0.7963   0.8105   0.8905   0.9896   1.0088   1.0696   1.0868
     1.1063   1.1441   1.8947   1.9027   1.9583   1.9586   3.7444   4.0317
     4.0837   4.0938   4.1148   4.1295   4.1352   4.1640   4.2204   4.2511

     the Fermi energy is     3.5815 ev

!    total energy              =   -2952.67094566 Ry
     estimated scf accuracy    <       0.00000004 Ry
     smearing contrib. (-TS)   =      -0.02000850 Ry
     internal energy E=F+TS    =   -2952.65093716 Ry

     The total energy is F=E-TS. E is the sum of the following terms:
     one-electron contribution =  -23943.40564333 Ry
     hartree contribution      =   12064.64076510 Ry
     xc contribution           =    -487.98165900 Ry
     ewald contribution        =    9414.09237623 Ry
     electric field correction =       0.00322385 Ry

     convergence has been achieved in  70 iterations

     Forces acting on atoms (cartesian axes, Ry/au):

     atom    1 type  1   force =     0.00003851   -0.00030921    0.09545797
     atom    2 type  1   force =    -0.00013704    0.00031432   -0.17423583
     atom    3 type  2   force =    -0.00002007   -0.00015486   -0.02258144
     atom    4 type  2   force =     0.00003742   -0.00185541    0.05174834
     atom    5 type  2   force =    -0.00666593   -0.00270093    0.00167943
     atom    6 type  2   force =     0.00821790   -0.00219194    0.00115998
     atom    7 type  1   force =    -0.00012506   -0.00381854    0.01179407
     atom    8 type  1   force =     0.00015713    0.00376958    0.01273275
     atom    9 type  2   force =     0.00020921    0.00038255    0.00085010
     atom   10 type  2   force =    -0.00197584   -0.00130216   -0.01616278
     atom   11 type  2   force =     0.00117030   -0.00021461   -0.00029671
     atom   12 type  2   force =    -0.00061538    0.00012397   -0.00025060
     atom   13 type  1   force =    -0.00022318   -0.00145524    0.00053838
     atom   14 type  1   force =     0.00009134   -0.00042181   -0.00008862
     atom   15 type  2   force =     0.00009751    0.00036424   -0.00090161
     atom   16 type  2   force =     0.00005413    0.00107234   -0.00045319
     atom   17 type  2   force =    -0.00024350    0.00015156    0.00019264
     atom   18 type  2   force =     0.00015096    0.00022692   -0.00012660
     atom   19 type  1   force =    -0.00023594    0.00003297    0.00020154
     atom   20 type  1   force =     0.00025043    0.00020408   -0.00037972
     atom   21 type  2   force =     0.00006034    0.00010414    0.10286912
     atom   22 type  2   force =    -0.00034334    0.00047896    0.00041093
     atom   23 type  2   force =    -0.07251827   -0.00014054   -0.02755950
     atom   24 type  2   force =     0.07242580    0.00027348   -0.02758965
     atom   25 type  1   force =     0.00009287   -0.00014972    0.09506980
     atom   26 type  1   force =    -0.00011021   -0.00128491   -0.17426642
     atom   27 type  2   force =     0.00015850   -0.00026078   -0.02133269
     atom   28 type  2   force =     0.00004784   -0.00014720    0.04735505
     atom   29 type  2   force =    -0.00544280    0.00230585   -0.00005516
     atom   30 type  2   force =     0.00701626    0.00274089   -0.00056277
     atom   31 type  1   force =    -0.00016555    0.00659526    0.00049362
     atom   32 type  1   force =     0.00008062   -0.00558254    0.01179438
     atom   33 type  2   force =    -0.00014450   -0.00038547    0.00013811
     atom   34 type  2   force =    -0.00121717    0.00016495   -0.01569419
     atom   35 type  2   force =    -0.00037645    0.00043368    0.00015124
     atom   36 type  2   force =     0.00102783    0.00058945    0.00041035
     atom   37 type  1   force =    -0.00024093    0.00177188    0.00020978
     atom   38 type  1   force =    -0.00005755    0.00023836    0.00037464
     atom   39 type  2   force =    -0.00010390    0.00006642   -0.00021737
     atom   40 type  2   force =     0.00037435   -0.00033470   -0.00020073
     atom   41 type  2   force =    -0.00050052    0.00030774    0.00022763
     atom   42 type  2   force =     0.00075139    0.00023428    0.00031268
     atom   43 type  1   force =     0.00016752    0.00011768    0.00041733
     atom   44 type  1   force =     0.00027300    0.00019457    0.00085349
     atom   45 type  2   force =     0.00006246   -0.00009097    0.10266216
     atom   46 type  2   force =    -0.07256400   -0.00004859   -0.02758715
     atom   47 type  2   force =     0.07249245    0.00040621   -0.02761281
     atom   48 type  3   force =     0.00013800   -0.00048119   -0.00049676
     atom   49 type  4   force =    -0.00003061   -0.00006723   -0.00066141
     atom   50 type  5   force =    -0.00056292   -0.00039497   -0.00016131
     atom   51 type  5   force =     0.00036803    0.00020541   -0.00000543
     atom   52 type  5   force =    -0.00024333    0.00057877    0.00033641
     atom   53 type  2   force =     0.00407370   -0.00659099   -0.00558933
     atom   54 type  5   force =    -0.00522181    0.00593407    0.00462787

     Total force =     0.362537     Total SCF correction =     0.000587
  @ DRIVER MODE: Message from server: STATUS
  @ DRIVER MODE: Message from server: GETFORCE
  @ DRIVER MODE: Returning v,forces,stress,ensemble

     Writing output data file ./calc.save/
  @ DRIVER MODE: Message from server: EXIT
  @ DRIVE MODE: Exiting

     General routines

     Parallel routines

   This run was terminated on:   4:14: 7  23Sep2021

   JOB DONE.