     Program PWSCF v.6.7GPU starts on  9Sep2021 at  5:15:18

     R & G space division:  proc/nbgrp/npool/nimage =      10
     Reading input from /storage/home/hcoda1/3/ntian30/research/carbon/CxH_vib/CH3_calc/ads_slab/CH3NNHHH_a/out_0022/pw.inp
Warning: card &CELL ignored
Warning: card   CELL_DYNAMICS='IPI', ignored
Warning: card / ignored

     Current dimensions of program PWSCF are:
     Max number of different atomic species (ntypx) = 10
     Max number of k-points (npk) =  40000
     Max angular momentum in pseudopotentials (lmaxx) =  3
     Presently no symmetry can be used with electric field

     Message from routine cell_base_init:
     DEPRECATED: use true lattice parameter, not A to a.u. conversion factor

     IMPORTANT: XC functional enforced from input :
     Exchange-correlation= BEEF-VDW
                           (   1   4  43  14   2   0   0)
     Any further DFT definition will be discarded
     Please, verify this is what you really want

  @ DRIVER MODE: Connecting to
 qe_1139763_2767399.sched-torque.pace.gatech.eduaof7l7h6_scratch
  using UNIX socket
  @ DRIVER MODE: Message from server: STATUS
  @ DRIVER MODE: Message from server: INIT
  @ DRIVER MODE: Receiving replica           0          -1
  @ DRIVER MODE: Receiving encoded integer          25
  @ DRIVER MODE:  SCF:  T  FORCE:  T  STRESS:  F  VC:  F  ENSEMBLE:  F
  @ DRIVER MODE:  SCF:  T  FORCE:  T  STRESS:  F  VC:  F  ENSEMBLE:  F

     Using Slab Decomposition

     bravais-lattice index     =            0
     lattice parameter (alat)  =       1.8897  a.u.
     unit-cell volume          =    6658.9804 (a.u.)^3
     number of atoms/cell      =           56
     number of atomic types    =            5
     number of electrons       =       398.00
     number of Kohn-Sham states=          209
     kinetic-energy cutoff     =      29.3995  Ry
     charge density cutoff     =     293.9946  Ry
     scf convergence threshold =      7.3E-08
     mixing beta               =       0.0500
     number of iterations used =            8  plain     mixing
     Exchange-correlation= BEEF-VDW
                           (   1   4  43  14   2   0   0)

     celldm(1)=   1.889726  celldm(2)=   0.000000  celldm(3)=   0.000000
     celldm(4)=   0.000000  celldm(5)=   0.000000  celldm(6)=   0.000000

     crystal axes: (cart. coord. in units of alat)
               a(1) = (   6.579727   0.000000   0.000000 )
               a(2) = (  -0.000775   5.961596   0.000000 )
               a(3) = (   0.000000   0.000000  25.155947 )

     reciprocal axes: (cart. coord. in units 2 pi/alat)
               b(1) = (  0.151982  0.000020  0.000000 )
               b(2) = (  0.000000  0.167740  0.000000 )
               b(3) = (  0.000000  0.000000  0.039752 )

     PseudoPot. # 1 for Ti read from file:
     /storage/coda1/p-amedford6/0/shared/rich_project_chbe-medford/medford-share/data/pseudos_module/espresso/nninc/pbe/van/Ti.UPF
     MD5 check sum: 8e4df49b7f0d34bbd5052bf3f5ea0213
     Pseudo is Ultrasoft, Zval = 12.0
     Generated by new atomic code, or converted to UPF format
     Using radial grid of  851 points,  6 beta functions with:
                l(1) =   0
                l(2) =   0
                l(3) =   1
                l(4) =   1
                l(5) =   2
                l(6) =   2
     Q(r) pseudized with  8 coefficients,  rinner =    1.000   1.000   1.000
                                                       1.000   1.000

     PseudoPot. # 2 for O  read from file:
     /storage/coda1/p-amedford6/0/shared/rich_project_chbe-medford/medford-share/data/pseudos_module/espresso/nninc/pbe/van/O.UPF
     MD5 check sum: 78c19812648e8988a0fe644b0f25305e
     Pseudo is Ultrasoft, Zval =  6.0
     Generated by new atomic code, or converted to UPF format
     Using radial grid of  737 points,  4 beta functions with:
                l(1) =   0
                l(2) =   0
                l(3) =   1
                l(4) =   1
     Q(r) pseudized with  8 coefficients,  rinner =    0.800   0.800   0.800

     PseudoPot. # 3 for N  read from file:
     /storage/coda1/p-amedford6/0/shared/rich_project_chbe-medford/medford-share/data/pseudos_module/espresso/nninc/pbe/van/N.UPF
     MD5 check sum: 90d10febe142ad51ac9d5be1deb811c4
     Pseudo is Ultrasoft, Zval =  5.0
     Generated by new atomic code, or converted to UPF format
     Using radial grid of  729 points,  4 beta functions with:
                l(1) =   0
                l(2) =   0
                l(3) =   1
                l(4) =   1
     Q(r) pseudized with  8 coefficients,  rinner =    0.800   0.800   0.800

     PseudoPot. # 4 for C  read from file:
     /storage/coda1/p-amedford6/0/shared/rich_project_chbe-medford/medford-share/data/pseudos_module/espresso/nninc/pbe/van/C.UPF
     MD5 check sum: 1a69bf6b8db32088f5b2163dbdb77a27
     Pseudo is Ultrasoft, Zval =  4.0
     Generated by new atomic code, or converted to UPF format
     Using radial grid of  721 points,  4 beta functions with:
                l(1) =   0
                l(2) =   0
                l(3) =   1
                l(4) =   1
     Q(r) pseudized with  8 coefficients,  rinner =    0.800   0.800   0.800

     PseudoPot. # 5 for H  read from file:
     /storage/coda1/p-amedford6/0/shared/rich_project_chbe-medford/medford-share/data/pseudos_module/espresso/nninc/pbe/van/H.UPF
     MD5 check sum: b5ee9d7bfd3a09ee7748110bda690ff7
     Pseudo is Ultrasoft, Zval =  1.0
     Generated by new atomic code, or converted to UPF format
     Using radial grid of  615 points,  1 beta functions with:
                l(1) =   0
     Q(r) pseudized with  8 coefficients,  rinner =    0.800

     atomic species   valence    mass     pseudopotential
        Ti1           12.00    47.86700     Ti( 1.00)
        O1             6.00    15.99900     O ( 1.00)
        N1             5.00    14.00700     N ( 1.00)
        C1             4.00    12.01100     C ( 1.00)
        H1             1.00     1.00800     H ( 1.00)

     No symmetry found

   Cartesian axes

     site n.     atom                  positions (alat units)
         1           Ti1 tau(   1) = (   0.0004258   2.9801865   6.0000000  )
         2           Ti1 tau(   2) = (   3.2906075   1.4906267   6.0002472  )
         3           O1  tau(   3) = (   0.0006271   0.0005054   7.9858123  )
         4           O1  tau(   4) = (   3.2906025   0.0005020   7.3038282  )
         5           O1  tau(   5) = (   4.5942328   1.4918067   9.2879030  )
         6           O1  tau(   6) = (   1.9868534   1.4903216   9.2879459  )
         7           Ti1 tau(   7) = (   3.2907910   2.8959150   9.1758416  )
         8           Ti1 tau(   8) = (   0.0015273   1.4827037   9.2680791  )
         9           O1  tau(   9) = (   3.3120675   0.0079458  11.3762204  )
        10           O1  tau(  10) = (   0.0116148   5.9584955  10.6183126  )
        11           O1  tau(  11) = (   1.3148726   1.5133626  12.6447579  )
        12           O1  tau(  12) = (   5.3140862   1.5122126  12.6508301  )
        13           Ti1 tau(  13) = (   0.0289753   2.9995974  12.5105963  )
        14           Ti1 tau(  14) = (   3.3300932   1.5144954  12.5190352  )
        15           O1  tau(  15) = (   0.0303621   0.0967028  14.6836000  )
        16           O1  tau(  16) = (   3.3188409   0.0235386  14.0025835  )
        17           O1  tau(  17) = (   4.5661268   1.5053193  16.2317874  )
        18           O1  tau(  18) = (   2.0488868   1.5039614  16.2002260  )
        19           Ti1 tau(  19) = (   3.3211226   2.9745325  15.7560014  )
        20           Ti1 tau(  20) = (   0.0641794   1.4487855  16.0607878  )
        21           O1  tau(  21) = (   3.2904802   0.0005063   4.7018136  )
        22           O1  tau(  22) = (   0.0207051   5.8381987  17.2232637  )
        23           O1  tau(  23) = (   1.3043587   1.4918075   6.0039043  )
        24           O1  tau(  24) = (   5.2767064   1.4903225   6.0039473  )
        25           Ti1 tau(  25) = (   0.0000382   5.9609847   6.0000000  )
        26           Ti1 tau(  26) = (   3.2902200   4.4714249   6.0002472  )
        27           O1  tau(  27) = (   0.0002396   2.9813036   7.9858123  )
        28           O1  tau(  28) = (   3.2902150   2.9813002   7.3038282  )
        29           O1  tau(  29) = (   4.5938453   4.4726049   9.2879030  )
        30           O1  tau(  30) = (   1.9864658   4.4711199   9.2879459  )
        31           Ti1 tau(  31) = (   3.2891106   5.8743827   9.1763621  )
        32           Ti1 tau(  32) = (   0.0006254   4.4649316   9.2693709  )
        33           O1  tau(  33) = (   3.3137607   3.0039157  11.3695003  )
        34           O1  tau(  34) = (   0.0092240   2.9805883  10.6323155  )
        35           O1  tau(  35) = (   1.3103219   4.4840529  12.6837359  )
        36           O1  tau(  36) = (   5.3166572   4.4842854  12.6901167  )
        37           Ti1 tau(  37) = (   0.0376818   0.0300362  12.4998423  )
        38           Ti1 tau(  38) = (   3.3279277   4.4933691  12.5326681  )
        39           O1  tau(  39) = (   0.0236785   2.9473731  14.9547601  )
        40           O1  tau(  40) = (   3.3158584   2.9778716  13.9675922  )
        41           O1  tau(  41) = (   4.5769684   4.4551829  16.1482216  )
        42           O1  tau(  42) = (   2.0574928   4.4544973  16.1629196  )
        43           Ti1 tau(  43) = (   3.3270828   0.0048838  15.7999907  )
        44           Ti1 tau(  44) = (   0.0216784   4.6657176  15.8371636  )
        45           O1  tau(  45) = (   3.2900926   2.9813045   4.7018136  )
        46           O1  tau(  46) = (   1.3039711   4.4726057   6.0039043  )
        47           O1  tau(  47) = (   5.2763189   4.4711207   6.0039473  )
        48           N1  tau(  48) = (   1.0300599   3.1028741  18.8625222  )
        49           N1  tau(  49) = (   6.4529598   2.6395754  18.1308714  )
        50           C1  tau(  50) = (   0.6566364   3.8075245  20.0867497  )
        51           H1  tau(  51) = (   6.5334193   4.6437433  19.9095685  )
        52           H1  tau(  52) = (   0.2127083   3.1054723  20.7945791  )
        53           H1  tau(  53) = (   1.5644534   4.2160081  20.5287796  )
        54           H1  tau(  54) = (   5.6912064   3.3271340  18.1715891  )
        55           H1  tau(  55) = (   6.1153184   1.7991689  18.5966666  )
        56           H1  tau(  56) = (   1.4989484   3.7555826  18.2384742  )

     number of k points=    10  Fermi-Dirac smearing, width (Ry)=  0.0073
                       cart. coord. in units 2pi/alat
        k(    1) = (   0.0000000   0.0000000   0.0000000), wk =   0.1250000
        k(    2) = (   0.0000000   0.0419351   0.0000000), wk =   0.2500000
        k(    3) = (   0.0000000  -0.0838702   0.0000000), wk =   0.1250000
        k(    4) = (   0.0379955   0.0000049   0.0000000), wk =   0.2500000
        k(    5) = (   0.0379955   0.0419400   0.0000000), wk =   0.2500000
        k(    6) = (   0.0379955  -0.0838652   0.0000000), wk =   0.2500000
        k(    7) = (   0.0379955  -0.0419301   0.0000000), wk =   0.2500000
        k(    8) = (  -0.0759910  -0.0000099   0.0000000), wk =   0.1250000
        k(    9) = (  -0.0759910   0.0419252   0.0000000), wk =   0.2500000
        k(   10) = (  -0.0759910  -0.0838800   0.0000000), wk =   0.1250000

     Initial potential from superposition of free atoms

     starting charge  381.99914, renormalised to  398.00000

     negative rho (up, down):  1.340E-02 0.000E+00

     %%%%%%%%%%%%%%%%%%%%%%%%%%%%%%%%%%%%%%%%%%%%%%%%%%%%%%%%%%%%%%%%%%%%%%%%
     %                                                                      %
     % You are using vdW-DF, which was implemented by the Thonhauser group. %
     % Please cite the following two papers that made this development      %
     % possible and the two reviews that describe the various versions:     %
     %                                                                      %
     %   T. Thonhauser et al., PRL 115, 136402 (2015).                      %
     %   T. Thonhauser et al., PRB 76, 125112 (2007).                       %
     %   K. Berland et al., Rep. Prog. Phys. 78, 066501 (2015).             %
     %   D.C. Langreth et al., J. Phys.: Condens. Matter 21, 084203 (2009). %
     %                                                                      %
     %                                                                      %
     % If you are calculating the stress with vdW-DF, please also cite:     %
     %                                                                      %
     %   R. Sabatini et al., J. Phys.: Condens. Matter 24, 424209 (2012).   %
     %                                                                      %
     %%%%%%%%%%%%%%%%%%%%%%%%%%%%%%%%%%%%%%%%%%%%%%%%%%%%%%%%%%%%%%%%%%%%%%%%

     Adding external electric field

     Computed dipole along edir(3) :
        Dipole              -11.7464 Ry au,        -29.8564 Debye
        Dipole field         -0.0222 Ry au,

        Potential amp.        2.0549 Ry
        Total length         46.3494 bohr

     Starting wfcs are  302 atomic wfcs
  @ DRIVER MODE: Message from server: STATUS
  @ DRIVER MODE: Message from server: POSDATA
  @ DRIVER MODE: Reading and sharing cell
  @ DRIVER MODE: Reading and sharing positions
  @ DRIVER MODE: Received positions

     Self-consistent Calculation

     iteration #  1     ecut=    29.40 Ry     beta= 0.05
     Davidson diagonalization with overlap
     c_bands:  1 eigenvalues not converged
     c_bands:  1 eigenvalues not converged
     c_bands:  1 eigenvalues not converged
     c_bands:  3 eigenvalues not converged
     c_bands:  3 eigenvalues not converged
     c_bands:  3 eigenvalues not converged
     c_bands:  4 eigenvalues not converged
     c_bands:  2 eigenvalues not converged
     ethr =  1.00E-05,  avg # of iterations = 21.6

[...]

     total energy              =   -2428.10550440 Ry
     estimated scf accuracy    <    5789.73453835 Ry

     iteration #  2     ecut=    29.40 Ry     beta= 0.05
     Davidson diagonalization with overlap
     ethr =  1.00E-02,  avg # of iterations = 22.0

[...]

     iteration # 76     ecut=    29.40 Ry     beta= 0.05
     Davidson diagonalization with overlap
     c_bands:  2 eigenvalues not converged
     c_bands:  2 eigenvalues not converged
     c_bands:  1 eigenvalues not converged
     ethr =  1.03E-10,  avg # of iterations = 18.4

[...]

     total energy              =   -2942.85970457 Ry
     estimated scf accuracy    <       0.00000010 Ry

     iteration # 79     ecut=    29.40 Ry     beta= 0.05
     Davidson diagonalization with overlap
     ethr =  2.49E-11,  avg # of iterations =  7.9

     negative rho (up, down):  1.464E-02 0.000E+00

     Adding external electric field

     Computed dipole along edir(3) :
        Dipole                1.2217 Ry au,          3.1052 Debye
        Dipole field          0.0023 Ry au,

        Potential amp.       -0.2137 Ry
        Total length         46.3494 bohr

     End of self-consistent calculation

          k = 0.0000 0.0000 0.0000 ( 18029 PWs)   bands (ev):

   -55.3493 -55.3124 -55.3016 -55.2707 -55.2675 -55.2331 -55.2261 -55.1907
   -55.1693 -55.1456 -55.1349 -55.1331 -55.0995 -55.0274 -54.3311 -54.2970
   -31.9178 -31.8023 -31.7941 -31.7147 -31.6650 -31.6588 -31.6522 -31.6388
   -31.5907 -31.5901 -31.5588 -31.5533 -31.5465 -31.5308 -31.5193 -31.5116
   -31.5046 -31.4894 -31.4867 -31.4666 -31.4542 -31.4461 -31.4192 -31.4155
   -31.4041 -31.4019 -31.4002 -31.3720 -31.3589 -31.3566 -31.3514 -31.3320
   -31.3290 -31.3205 -31.3193 -31.3172 -31.2831 -31.2692 -31.2615 -31.2445
   -31.2336 -31.2093 -30.7406 -30.6463 -30.6242 -30.5568 -30.4701 -30.3592
   -17.7998 -16.1856 -15.9179 -15.7779 -15.6681 -15.5491 -15.4306 -15.4111
   -15.2790 -15.1962 -15.0761 -15.0532 -15.0268 -15.0076 -14.9952 -14.9804
   -14.8946 -14.8887 -14.8714 -14.8440 -14.8377 -14.7950 -14.7874 -14.7478
   -14.7264 -14.7251 -14.5966 -14.5088 -14.4371 -14.2009 -13.1768 -12.8339
   -12.7165  -9.7209  -6.3729  -5.3890  -4.8846  -3.5324  -3.4821  -3.3693
    -3.2773  -3.2633  -3.2424  -3.1060  -2.9527  -2.7829  -2.7705  -2.7526
    -2.6393  -2.5616  -2.5554  -2.5306  -2.3792  -2.3575  -2.3066  -2.2410
    -2.2135  -2.1655  -2.1546  -2.1331  -2.1139  -2.0940  -2.0857  -1.9721
    -1.9210  -1.8283  -1.7724  -1.7451  -1.7093  -1.6816  -1.6665  -1.6391
    -1.6312  -1.5886  -1.5615  -1.5396  -1.4886  -1.3764  -1.2675  -1.2373
    -1.1398  -0.9877  -0.9550  -0.9418  -0.9305  -0.8539  -0.8365  -0.7884
    -0.7356  -0.7279  -0.6968  -0.5861  -0.5277  -0.4626  -0.3960  -0.3844
    -0.3375  -0.2758  -0.1634  -0.1391  -0.1167  -0.0916   0.0022   0.0416
     0.0866   0.1614   0.1807   0.1943   0.3011   0.3089   0.3889   0.4010
     0.4466   0.5331   0.5674   0.5898   0.5935   0.6070   0.6370   0.7041
     0.7284   0.7547   0.8297   0.9537   1.0208   1.1856   1.2487   1.2623
     1.5921   1.5963   1.6914   1.8752   2.2676   2.3159   3.7481   3.8176
     3.8924   3.8992   3.9110   3.9849   4.2220   4.2381   4.2506   4.2568
     4.2916

[...]

          k = 0.0380-0.0419 0.0000 ( 17876 PWs)   bands (ev):

[...]

          k =-0.0760-0.0000 0.0000 ( 17886 PWs)   bands (ev):

[...]

          k =-0.0760-0.0839 0.0000 ( 17948 PWs)   bands (ev):

   -55.3351 -55.3265 -55.2846 -55.2843 -55.2691 -55.2298 -55.2125 -55.2042
   -55.1537 -55.1500 -55.1489 -55.1166 -55.1162 -55.0286 -54.3141 -54.3140
   -31.7250 -31.7224 -31.7186 -31.6348 -31.6093 -31.6090 -31.6063 -31.5759
   -31.5758 -31.5577 -31.5504 -31.5479 -31.5418 -31.5122 -31.5050 -31.4868
   -31.4867 -31.4825 -31.4794 -31.4741 -31.4710 -31.4702 -31.4332 -31.4280
   -31.4259 -31.4212 -31.4170 -31.4058 -31.4045 -31.4041 -31.3971 -31.3872
   -31.3831 -31.3668 -31.3635 -31.3476 -31.3468 -31.3374 -31.2975 -31.2973
   -31.2871 -31.2383 -30.6369 -30.6368 -30.5531 -30.5530 -30.5135 -30.5134
   -17.7951 -15.7091 -15.5969 -15.5507 -15.3776 -15.3553 -15.3327 -15.3179
   -15.1900 -15.1715 -15.1436 -15.1172 -15.0921 -15.0646 -15.0534 -15.0483
   -14.9660 -14.9541 -14.9467 -14.9305 -14.8625 -14.8595 -14.8553 -14.8494
   -14.7988 -14.7962 -14.7156 -14.7022 -14.7007 -14.5032 -13.1778 -12.8180
   -12.8179  -9.7173  -6.3605  -5.3885  -4.8905  -3.4469  -2.8655  -2.8302
    -2.8065  -2.7826  -2.5931  -2.5549  -2.5180  -2.5057  -2.4066  -2.3644
    -2.3467  -2.3395  -2.2690  -2.2654  -2.2348  -2.2046  -2.1837  -2.1667
    -2.1527  -2.1309  -2.1061  -2.0767  -2.0706  -2.0555  -2.0016  -1.9990
    -1.9833  -1.9611  -1.9437  -1.9227  -1.9061  -1.8494  -1.7272  -1.7170
    -1.6628  -1.5563  -1.5518  -1.4717  -1.4665  -1.4225  -1.3947  -1.3827
    -1.3553  -1.1753  -1.1217  -1.0953  -1.0878  -1.0762  -0.9675  -0.9334
    -0.8753  -0.8597  -0.8335  -0.7356  -0.6851  -0.6807  -0.5991  -0.5677
    -0.5285  -0.4870  -0.3858  -0.3561  -0.3363  -0.3073  -0.3039  -0.2503
    -0.2449  -0.1683  -0.1204  -0.0843  -0.0699  -0.0389   0.1605   0.1702
     0.1884   0.3354   0.3580   0.4983   0.5423   0.5843   0.6450   0.6966
     0.7626   0.8033   0.9301   0.9580   0.9587   1.0289   1.0490   1.0524
     1.1073   1.1092   2.0479   2.0485   2.1357   2.1361   3.8909   3.9955
     4.0104   4.0558   4.1656   4.2393   4.2627   4.2896   4.3324   4.3356
     4.3994

     the Fermi energy is     3.8108 ev

!    total energy              =   -2942.85972115 Ry
     estimated scf accuracy    <       0.00000007 Ry
     smearing contrib. (-TS)   =      -0.03700917 Ry
     internal energy E=F+TS    =   -2942.82271198 Ry

     The total energy is F=E-TS. E is the sum of the following terms:
     one-electron contribution =  -23389.39977624 Ry
     hartree contribution      =   11787.23648266 Ry
     xc contribution           =    -487.75079220 Ry
     ewald contribution        =    9147.08855722 Ry
     electric field correction =       0.00281658 Ry

     convergence has been achieved in  79 iterations

     Forces acting on atoms (cartesian axes, Ry/au):

     atom    1 type  1   force =    -0.00000011   -0.00026253    0.09310278
     atom    2 type  1   force =    -0.00014692   -0.00043456   -0.17826106
     atom    3 type  2   force =     0.00007588   -0.00009216   -0.02025993
     atom    4 type  2   force =     0.00001707   -0.00186849    0.05881265
     atom    5 type  2   force =    -0.01019477   -0.00054802    0.00774113
     atom    6 type  2   force =     0.01225122    0.00007194    0.00820384
     atom    7 type  1   force =     0.00038990    0.00327813   -0.01425835
     atom    8 type  1   force =    -0.00045666    0.00045868   -0.00456050
     atom    9 type  2   force =    -0.00002578   -0.00061874   -0.00037049
     atom   10 type  2   force =    -0.00059740    0.00090822   -0.00140816
     atom   11 type  2   force =    -0.00037777   -0.00012023    0.00023896
     atom   12 type  2   force =     0.00007287   -0.00006503    0.00004829
     atom   13 type  1   force =     0.00005022   -0.00031421    0.00018175
     atom   14 type  1   force =    -0.00036376    0.00012591    0.00042690
     atom   15 type  2   force =    -0.00015721    0.00080006    0.00023190
     atom   16 type  2   force =    -0.00008811   -0.00018861    0.00030700
     atom   17 type  2   force =    -0.00043836    0.00006464    0.00041146
     atom   18 type  2   force =     0.00013056   -0.00018971   -0.00008269
     atom   19 type  1   force =     0.00034579    0.00027617    0.00088066
     atom   20 type  1   force =    -0.00063998   -0.00068050    0.00029886
     atom   21 type  2   force =     0.00000221   -0.00010576    0.10393144
     atom   22 type  2   force =    -0.00016979    0.00003901   -0.00067924
     atom   23 type  2   force =    -0.07037054   -0.00022842   -0.02685813
     atom   24 type  2   force =     0.07026355    0.00020085   -0.02693584
     atom   25 type  1   force =     0.00002143   -0.00026383    0.09275967
     atom   26 type  1   force =    -0.00012082   -0.00044389   -0.17829540
     atom   27 type  2   force =     0.00013915   -0.00033080   -0.01928636
     atom   28 type  2   force =     0.00008208   -0.00155151    0.05821249
     atom   29 type  2   force =    -0.01020166   -0.00033613    0.00696194
     atom   30 type  2   force =     0.01214763   -0.00009172    0.00749389
     atom   31 type  1   force =     0.00040197    0.00496008   -0.01538613
     atom   32 type  1   force =    -0.00037537   -0.00033409   -0.00466602
     atom   33 type  2   force =    -0.00021849   -0.00047789    0.00016594
     atom   34 type  2   force =    -0.00013994    0.00364091   -0.00059378
     atom   35 type  2   force =     0.00002923   -0.00056641    0.00033136
     atom   36 type  2   force =    -0.00018365   -0.00053374   -0.00002101
     atom   37 type  1   force =    -0.00025652   -0.00049489    0.00050413
     atom   38 type  1   force =    -0.00019105   -0.00089346    0.00045441
     atom   39 type  2   force =    -0.00047691   -0.00053583    0.00051329
     atom   40 type  2   force =     0.00001449   -0.00048464   -0.00042341
     atom   41 type  2   force =    -0.00078096   -0.00012735   -0.00013885
     atom   42 type  2   force =     0.00028331   -0.00027163   -0.00030455
     atom   43 type  1   force =     0.00005436   -0.00032052   -0.00006881
     atom   44 type  1   force =    -0.00009092   -0.00063539    0.00070142
     atom   45 type  2   force =     0.00000927   -0.00014432    0.10390576
     atom   46 type  2   force =    -0.07041756   -0.00018497   -0.02687444
     atom   47 type  2   force =     0.07028748    0.00026132   -0.02694763
     atom   48 type  3   force =     0.00016858    0.00223795   -0.00002436
     atom   49 type  3   force =     0.00010990    0.00094496   -0.00035201
     atom   50 type  4   force =    -0.00569479    0.00644123   -0.00134187
     atom   51 type  5   force =     0.00398488   -0.00708181    0.00127932
     atom   52 type  5   force =    -0.00022608    0.00044215    0.00013811
     atom   53 type  5   force =     0.00131394   -0.00012595    0.00098539
     atom   54 type  5   force =     0.00007225   -0.00052518   -0.00036552
     atom   55 type  5   force =     0.00052989   -0.00174592   -0.00031970
     atom   56 type  5   force =     0.00015272   -0.00093334   -0.00014049

     Total force =     0.366331     Total SCF correction =     0.000521
  @ DRIVER MODE: Message from server: STATUS
  @ DRIVER MODE: Message from server: GETFORCE
  @ DRIVER MODE: Returning v,forces,stress,ensemble

     Writing output data file ./calc.save/
  @ DRIVER MODE: Message from server: EXIT
  @ DRIVE MODE: Exiting

     General routines

     Parallel routines

   This run was terminated on:   5:36:11   9Sep2021

   JOB DONE.