     Program PWSCF v.6.7GPU starts on 10Sep2021 at  8:10:32

     R & G space division:  proc/nbgrp/npool/nimage =      10
     Reading input from /storage/home/hcoda1/3/ntian30/research/carbon/CxH_vib/CH3_calc/ads_slab/CH3N2OH_j/out_0034/pw.inp
Warning: card &CELL ignored
Warning: card   CELL_DYNAMICS='IPI', ignored
Warning: card / ignored

     Current dimensions of program PWSCF are:
     Max number of different atomic species (ntypx) = 10
     Max number of k-points (npk) =  40000
     Max angular momentum in pseudopotentials (lmaxx) =  3
     Presently no symmetry can be used with electric field

     Message from routine cell_base_init:
     DEPRECATED: use true lattice parameter, not A to a.u. conversion factor

     IMPORTANT: XC functional enforced from input :
     Exchange-correlation= BEEF-VDW
                           (   1   4  43  14   2   0   0)
     Any further DFT definition will be discarded
     Please, verify this is what you really want

  @ DRIVER MODE: Connecting to
 qe_1139763_2779713.sched-torque.pace.gatech.edut64gf4xf_scratch
  using UNIX socket
  @ DRIVER MODE: Message from server: STATUS
  @ DRIVER MODE: Message from server: INIT
  @ DRIVER MODE: Receiving replica           0          -1
  @ DRIVER MODE: Receiving encoded integer          25
  @ DRIVER MODE:  SCF:  T  FORCE:  T  STRESS:  F  VC:  F  ENSEMBLE:  F
  @ DRIVER MODE:  SCF:  T  FORCE:  T  STRESS:  F  VC:  F  ENSEMBLE:  F

     Using Slab Decomposition

     bravais-lattice index     =            0
     lattice parameter (alat)  =       1.8897  a.u.
     unit-cell volume          =    6658.9804 (a.u.)^3
     number of atoms/cell      =           55
     number of atomic types    =            5
     number of electrons       =       402.00
     number of Kohn-Sham states=          211
     kinetic-energy cutoff     =      29.3995  Ry
     charge density cutoff     =     293.9946  Ry
     scf convergence threshold =      7.3E-08
     mixing beta               =       0.0500
     number of iterations used =            8  plain     mixing
     Exchange-correlation= BEEF-VDW
                           (   1   4  43  14   2   0   0)

     celldm(1)=   1.889726  celldm(2)=   0.000000  celldm(3)=   0.000000
     celldm(4)=   0.000000  celldm(5)=   0.000000  celldm(6)=   0.000000

     crystal axes: (cart. coord. in units of alat)
               a(1) = (   6.579727   0.000000   0.000000 )
               a(2) = (  -0.000775   5.961596   0.000000 )
               a(3) = (   0.000000   0.000000  25.155947 )

     reciprocal axes: (cart. coord. in units 2 pi/alat)
               b(1) = (  0.151982  0.000020  0.000000 )
               b(2) = (  0.000000  0.167740  0.000000 )
               b(3) = (  0.000000  0.000000  0.039752 )

     PseudoPot. # 1 for Ti read from file:
     /storage/coda1/p-amedford6/0/shared/rich_project_chbe-medford/medford-share/data/pseudos_module/espresso/nninc/pbe/van/Ti.UPF
     MD5 check sum: 8e4df49b7f0d34bbd5052bf3f5ea0213
     Pseudo is Ultrasoft, Zval = 12.0
     Generated by new atomic code, or converted to UPF format
     Using radial grid of  851 points,  6 beta functions with:
                l(1) =   0
                l(2) =   0
                l(3) =   1
                l(4) =   1
                l(5) =   2
                l(6) =   2
     Q(r) pseudized with  8 coefficients,  rinner =    1.000   1.000   1.000
                                                       1.000   1.000

     PseudoPot. # 2 for O  read from file:
     /storage/coda1/p-amedford6/0/shared/rich_project_chbe-medford/medford-share/data/pseudos_module/espresso/nninc/pbe/van/O.UPF
     MD5 check sum: 78c19812648e8988a0fe644b0f25305e
     Pseudo is Ultrasoft, Zval =  6.0
     Generated by new atomic code, or converted to UPF format
     Using radial grid of  737 points,  4 beta functions with:
                l(1) =   0
                l(2) =   0
                l(3) =   1
                l(4) =   1
     Q(r) pseudized with  8 coefficients,  rinner =    0.800   0.800   0.800

     PseudoPot. # 3 for N  read from file:
     /storage/coda1/p-amedford6/0/shared/rich_project_chbe-medford/medford-share/data/pseudos_module/espresso/nninc/pbe/van/N.UPF
     MD5 check sum: 90d10febe142ad51ac9d5be1deb811c4
     Pseudo is Ultrasoft, Zval =  5.0
     Generated by new atomic code, or converted to UPF format
     Using radial grid of  729 points,  4 beta functions with:
                l(1) =   0
                l(2) =   0
                l(3) =   1
                l(4) =   1
     Q(r) pseudized with  8 coefficients,  rinner =    0.800   0.800   0.800

     PseudoPot. # 4 for C  read from file:
     /storage/coda1/p-amedford6/0/shared/rich_project_chbe-medford/medford-share/data/pseudos_module/espresso/nninc/pbe/van/C.UPF
     MD5 check sum: 1a69bf6b8db32088f5b2163dbdb77a27
     Pseudo is Ultrasoft, Zval =  4.0
     Generated by new atomic code, or converted to UPF format
     Using radial grid of  721 points,  4 beta functions with:
                l(1) =   0
                l(2) =   0
                l(3) =   1
                l(4) =   1
     Q(r) pseudized with  8 coefficients,  rinner =    0.800   0.800   0.800

     PseudoPot. # 5 for H  read from file:
     /storage/coda1/p-amedford6/0/shared/rich_project_chbe-medford/medford-share/data/pseudos_module/espresso/nninc/pbe/van/H.UPF
     MD5 check sum: b5ee9d7bfd3a09ee7748110bda690ff7
     Pseudo is Ultrasoft, Zval =  1.0
     Generated by new atomic code, or converted to UPF format
     Using radial grid of  615 points,  1 beta functions with:
                l(1) =   0
     Q(r) pseudized with  8 coefficients,  rinner =    0.800

     atomic species   valence    mass     pseudopotential
        Ti1           12.00    47.86700     Ti( 1.00)
        O1             6.00    15.99900     O ( 1.00)
        N1             5.00    14.00700     N ( 1.00)
        C1             4.00    12.01100     C ( 1.00)
        H1             1.00     1.00800     H ( 1.00)

     No symmetry found

   Cartesian axes

     site n.     atom                  positions (alat units)
         1           Ti1 tau(   1) = (   0.0004258   2.9801865   6.0000000  )
         2           Ti1 tau(   2) = (   3.2906075   1.4906267   6.0002472  )
         3           O1  tau(   3) = (   0.0006271   0.0005054   7.9858123  )
         4           O1  tau(   4) = (   3.2906025   0.0005020   7.3038282  )
         5           O1  tau(   5) = (   4.5942328   1.4918067   9.2879030  )
         6           O1  tau(   6) = (   1.9868534   1.4903216   9.2879459  )
         7           Ti1 tau(   7) = (   3.2907910   2.8959150   9.1758416  )
         8           Ti1 tau(   8) = (   0.0015273   1.4827037   9.2680791  )
         9           O1  tau(   9) = (   3.2817971   0.0424577  11.2706337  )
        10           O1  tau(  10) = (   0.0116148   5.9584955  10.6183126  )
        11           O1  tau(  11) = (   1.2813654   1.4951502  12.6332405  )
        12           O1  tau(  12) = (   5.2815101   1.4921423  12.6269808  )
        13           Ti1 tau(  13) = (   6.5662594   2.8603684  12.6843660  )
        14           Ti1 tau(  14) = (   3.2717346   1.4252475  12.4210995  )
        15           O1  tau(  15) = (   6.5710910   0.0045200  14.6317625  )
        16           O1  tau(  16) = (   3.2759495   0.0084639  13.8932321  )
        17           O1  tau(  17) = (   4.5517014   1.4983445  16.0008815  )
        18           O1  tau(  18) = (   2.0271237   1.5070609  16.0478782  )
        19           Ti1 tau(  19) = (   3.2345769   3.0092735  16.2435900  )
        20           Ti1 tau(  20) = (   6.4941389   1.4975806  15.8145731  )
        21           O1  tau(  21) = (   3.2904802   0.0005063   4.7018136  )
        22           O1  tau(  22) = (   6.5579512   0.0396517  17.1742205  )
        23           O1  tau(  23) = (   1.3043587   1.4918075   6.0039043  )
        24           O1  tau(  24) = (   5.2767064   1.4903225   6.0039473  )
        25           Ti1 tau(  25) = (   0.0000382   5.9609847   6.0000000  )
        26           Ti1 tau(  26) = (   3.2902200   4.4714249   6.0002472  )
        27           O1  tau(  27) = (   0.0002396   2.9813036   7.9858123  )
        28           O1  tau(  28) = (   3.2902150   2.9813002   7.3038282  )
        29           O1  tau(  29) = (   4.5938453   4.4726049   9.2879030  )
        30           O1  tau(  30) = (   1.9864658   4.4711199   9.2879459  )
        31           Ti1 tau(  31) = (   3.2891106   5.8743827   9.1763621  )
        32           Ti1 tau(  32) = (   0.0006254   4.4649316   9.2693709  )
        33           O1  tau(  33) = (   3.2800217   2.9666125  11.2981572  )
        34           O1  tau(  34) = (   0.0092240   2.9805883  10.6323155  )
        35           O1  tau(  35) = (   1.2755083   4.4823741  12.6262202  )
        36           O1  tau(  36) = (   5.2848398   4.4807727  12.6177486  )
        37           Ti1 tau(  37) = (   6.5672004   5.8338186  12.5551636  )
        38           Ti1 tau(  38) = (   3.2732152   4.2974050  12.6602233  )
        39           O1  tau(  39) = (   6.5693882   2.9786051  14.6782399  )
        40           O1  tau(  40) = (   3.2805734   3.0393479  13.9038923  )
        41           O1  tau(  41) = (   4.5335661   4.5240572  16.0872286  )
        42           O1  tau(  42) = (   2.0073973   4.5295938  16.0607137  )
        43           Ti1 tau(  43) = (   3.2598295   0.0330142  15.6732764  )
        44           Ti1 tau(  44) = (   6.5464637   4.6748829  16.0422594  )
        45           O1  tau(  45) = (   3.2900926   2.9813045   4.7018136  )
        46           O1  tau(  46) = (   1.3039711   4.4726057   6.0039043  )
        47           O1  tau(  47) = (   5.2763189   4.4711207   6.0039473  )
        48           N1  tau(  48) = (   0.1126456   2.6876119  18.6539570  )
        49           N1  tau(  49) = (   0.0165868   2.9082207  17.4746156  )
        50           C1  tau(  50) = (   0.2746321   3.7930379  19.6319179  )
        51           H1  tau(  51) = (   0.1055085   4.7742840  19.1878107  )
        52           H1  tau(  52) = (   6.1760284   3.5871646  20.4591619  )
        53           H1  tau(  53) = (   1.2982147   3.7151261  19.9977701  )
        54           O1  tau(  54) = (   3.2987527   2.9937385  18.0942264  )
        55           H1  tau(  55) = (   3.7476408   3.7324850  18.5320624  )

     number of k points=    10  Fermi-Dirac smearing, width (Ry)=  0.0073
                       cart. coord. in units 2pi/alat
        k(    1) = (   0.0000000   0.0000000   0.0000000), wk =   0.1250000
        k(    2) = (   0.0000000   0.0419351   0.0000000), wk =   0.2500000
        k(    3) = (   0.0000000  -0.0838702   0.0000000), wk =   0.1250000
        k(    4) = (   0.0379955   0.0000049   0.0000000), wk =   0.2500000
        k(    5) = (   0.0379955   0.0419400   0.0000000), wk =   0.2500000
        k(    6) = (   0.0379955  -0.0838652   0.0000000), wk =   0.2500000
        k(    7) = (   0.0379955  -0.0419301   0.0000000), wk =   0.2500000
        k(    8) = (  -0.0759910  -0.0000099   0.0000000), wk =   0.1250000
        k(    9) = (  -0.0759910   0.0419252   0.0000000), wk =   0.2500000
        k(   10) = (  -0.0759910  -0.0838800   0.0000000), wk =   0.1250000

     Initial potential from superposition of free atoms

     starting charge  385.99915, renormalised to  402.00000

     negative rho (up, down):  1.467E-02 0.000E+00

     %%%%%%%%%%%%%%%%%%%%%%%%%%%%%%%%%%%%%%%%%%%%%%%%%%%%%%%%%%%%%%%%%%%%%%%%
     %                                                                      %
     % You are using vdW-DF, which was implemented by the Thonhauser group. %
     % Please cite the following two papers that made this development      %
     % possible and the two reviews that describe the various versions:     %
     %                                                                      %
     %   T. Thonhauser et al., PRL 115, 136402 (2015).                      %
     %   T. Thonhauser et al., PRB 76, 125112 (2007).                       %
     %   K. Berland et al., Rep. Prog. Phys. 78, 066501 (2015).             %
     %   D.C. Langreth et al., J. Phys.: Condens. Matter 21, 084203 (2009). %
     %                                                                      %
     %                                                                      %
     % If you are calculating the stress with vdW-DF, please also cite:     %
     %                                                                      %
     %   R. Sabatini et al., J. Phys.: Condens. Matter 24, 424209 (2012).   %
     %                                                                      %
     %%%%%%%%%%%%%%%%%%%%%%%%%%%%%%%%%%%%%%%%%%%%%%%%%%%%%%%%%%%%%%%%%%%%%%%%

     Adding external electric field

     Computed dipole along edir(3) :
        Dipole              -11.9798 Ry au,        -30.4497 Debye
        Dipole field         -0.0226 Ry au,

        Potential amp.        2.0957 Ry
        Total length         46.3494 bohr

     Starting wfcs are  304 atomic wfcs
  @ DRIVER MODE: Message from server: STATUS
  @ DRIVER MODE: Message from server: POSDATA
  @ DRIVER MODE: Reading and sharing cell
  @ DRIVER MODE: Reading and sharing positions
  @ DRIVER MODE: Received positions

     Self-consistent Calculation

     iteration #  1     ecut=    29.40 Ry     beta= 0.05
     Davidson diagonalization with overlap
     c_bands:  4 eigenvalues not converged
     c_bands:  3 eigenvalues not converged
     c_bands:  5 eigenvalues not converged
     c_bands:  5 eigenvalues not converged
     c_bands:  3 eigenvalues not converged
     c_bands:  4 eigenvalues not converged
     c_bands:  2 eigenvalues not converged
     c_bands:  1 eigenvalues not converged
     ethr =  1.00E-05,  avg # of iterations = 25.4

[...]

     total energy              =   -2401.02006885 Ry
     estimated scf accuracy    <    6440.98270073 Ry

     iteration #  2     ecut=    29.40 Ry     beta= 0.05
     Davidson diagonalization with overlap
     ethr =  1.00E-02,  avg # of iterations = 22.5

[...]

     iteration # 57     ecut=    29.40 Ry     beta= 0.05
     Davidson diagonalization with overlap
     c_bands:  1 eigenvalues not converged
     c_bands:  1 eigenvalues not converged
     ethr =  4.88E-07,  avg # of iterations =  8.8

[...]

     total energy              =   -2972.74457786 Ry
     estimated scf accuracy    <       0.00000012 Ry

     iteration # 78     ecut=    29.40 Ry     beta= 0.05
     Davidson diagonalization with overlap
     ethr =  2.41E-11,  avg # of iterations =  4.1

     negative rho (up, down):  1.548E-02 0.000E+00

     Adding external electric field

     Computed dipole along edir(3) :
        Dipole                0.6080 Ry au,          1.5453 Debye
        Dipole field          0.0011 Ry au,

        Potential amp.       -0.1064 Ry
        Total length         46.3494 bohr

     End of self-consistent calculation

          k = 0.0000 0.0000 0.0000 ( 18029 PWs)   bands (ev):

   -56.2388 -56.2049 -55.8240 -55.7903 -55.5915 -55.5320 -55.4808 -55.4059
   -55.3815 -55.3265 -55.2363 -55.1642 -55.0839 -55.0111 -54.9902 -54.9771
   -32.6891 -32.5312 -32.5042 -32.3973 -32.3132 -32.3046 -32.3031 -32.0716
   -32.0429 -32.0239 -31.9716 -31.9652 -31.9312 -31.8980 -31.8694 -31.8177
   -31.8083 -31.7930 -31.7549 -31.7352 -31.7280 -31.7072 -31.6944 -31.6927
   -31.6910 -31.6509 -31.6038 -31.5743 -31.5553 -31.5366 -31.5354 -31.4979
   -31.4882 -31.4279 -31.4183 -31.4078 -31.3684 -31.3442 -31.3396 -31.3205
   -31.3154 -31.2919 -31.2393 -31.2270 -31.2265 -31.2121 -31.1419 -31.0300
   -18.8595 -16.5329 -16.3530 -16.1979 -15.9869 -15.8187 -15.7267 -15.7186
   -15.6704 -15.5493 -15.5223 -15.4274 -15.3362 -15.2625 -15.2624 -15.2376
   -15.1411 -15.0847 -15.0587 -15.0182 -14.9983 -14.9915 -14.9784 -14.8800
   -14.8632 -14.8581 -14.7154 -14.6939 -14.6082 -14.3600 -14.2631 -13.5088
   -13.3965 -11.5240  -6.9437  -4.4190  -4.1654  -4.0421  -4.0118  -3.8310
    -3.7487  -3.5311  -3.4321  -3.3555  -3.2329  -3.1475  -2.9575  -2.9463
    -2.8922  -2.8228  -2.7483  -2.6892  -2.6370  -2.6263  -2.5532  -2.5150
    -2.4737  -2.4660  -2.4041  -2.3882  -2.3020  -2.2900  -2.2170  -2.1822
    -2.1516  -2.1212  -2.1022  -2.0418  -2.0340  -2.0043  -1.9726  -1.9201
    -1.8556  -1.8122  -1.7244  -1.6717  -1.6558  -1.5639  -1.5439  -1.5331
    -1.5176  -1.3217  -1.2478  -1.2262  -1.2152  -1.0672  -1.0248  -0.9999
    -0.9198  -0.8960  -0.8490  -0.8092  -0.7610  -0.7044  -0.6732  -0.6673
    -0.6427  -0.5914  -0.4038  -0.3709  -0.3221  -0.2923  -0.2546  -0.1983
    -0.1677  -0.1365  -0.0542  -0.0489  -0.0399  -0.0025   0.0474   0.1283
     0.1880   0.2085   0.3011   0.3073   0.3492   0.3839   0.4402   0.4675
     0.5514   0.5952   0.6107   0.6654   0.6856   0.8739   0.9110   0.9476
     0.9850   1.0134   1.0589   1.1732   1.2422   1.5433   1.5614   1.6008
     2.7526   2.9875   3.1163   3.2723   3.4198   3.5144   3.8246   3.8536
     3.8895   3.9468   4.0170

[...]

          k = 0.0380-0.0419 0.0000 ( 17876 PWs)   bands (ev):

[...]

          k =-0.0760-0.0000 0.0000 ( 17886 PWs)   bands (ev):

[...]

          k =-0.0760-0.0839 0.0000 ( 17948 PWs)   bands (ev):

   -56.2223 -56.2213 -55.8083 -55.8058 -55.5862 -55.5372 -55.4780 -55.4086
   -55.3756 -55.3323 -55.2344 -55.1626 -55.0856 -54.9944 -54.9936 -54.9917
   -32.5173 -32.5160 -32.5054 -32.5047 -32.3497 -32.3486 -32.1278 -32.1239
   -32.0026 -32.0005 -31.9971 -31.9954 -31.8917 -31.8531 -31.8168 -31.8096
   -31.8044 -31.7648 -31.7531 -31.7479 -31.7217 -31.7068 -31.6992 -31.6678
   -31.6623 -31.6264 -31.6214 -31.6025 -31.5950 -31.5650 -31.5588 -31.5451
   -31.4887 -31.4342 -31.4318 -31.4218 -31.3661 -31.3443 -31.3337 -31.3332
   -31.2964 -31.2959 -31.2458 -31.2287 -31.2230 -31.2220 -31.1847 -31.1839
   -18.8557 -16.3402 -15.9427 -15.9304 -15.8070 -15.8004 -15.6282 -15.6117
   -15.5910 -15.5339 -15.5127 -15.4650 -15.3250 -15.3155 -15.2555 -15.2227
   -15.1977 -15.1811 -15.1522 -15.1519 -15.1326 -15.0590 -15.0315 -15.0042
   -14.9553 -14.9512 -14.7855 -14.7197 -14.7057 -14.4921 -14.4599 -13.4996
   -13.4995 -11.5219  -6.9575  -4.3672  -4.0332  -3.9936  -3.9360  -3.1112
    -3.0565  -2.9461  -2.9193  -2.8454  -2.8232  -2.7155  -2.6919  -2.6507
    -2.6373  -2.6337  -2.5785  -2.5562  -2.5339  -2.4898  -2.4779  -2.4650
    -2.4403  -2.3925  -2.3819  -2.3635  -2.3478  -2.3317  -2.2378  -2.2330
    -2.2146  -2.1696  -2.1661  -2.1539  -2.0759  -2.0064  -1.9635  -1.9574
    -1.9253  -1.8688  -1.7924  -1.6795  -1.6584  -1.6070  -1.5783  -1.5024
    -1.4735  -1.4284  -1.3340  -1.3266  -1.2992  -1.2815  -1.2207  -1.2065
    -1.0637  -1.0303  -1.0249  -1.0179  -1.0151  -0.9181  -0.8570  -0.7973
    -0.7452  -0.6625  -0.6488  -0.6278  -0.6090  -0.5996  -0.5804  -0.5565
    -0.4948  -0.4534  -0.4029  -0.3859  -0.2819  -0.2026  -0.1683  -0.1020
    -0.0242   0.0646   0.1433   0.1569   0.1944   0.2487   0.3374   0.3790
     0.4214   0.4901   0.5322   0.6053   0.6668   0.7519   0.7758   0.8644
     0.9759   0.9925   1.0427   1.1303   1.4037   1.4105   1.4170   1.4178
     2.7583   3.5354   3.5392   3.5689   3.5772   3.7770   3.7891   3.9146
     3.9685   3.9936   4.0311

     the Fermi energy is     2.9242 ev

!    total energy              =   -2972.74460203 Ry
     estimated scf accuracy    <       0.00000007 Ry
     smearing contrib. (-TS)   =      -0.01283862 Ry
     internal energy E=F+TS    =   -2972.73176341 Ry

     The total energy is F=E-TS. E is the sum of the following terms:
     one-electron contribution =  -23700.65928408 Ry
     hartree contribution      =   11943.61767355 Ry
     xc contribution           =    -493.12502107 Ry
     ewald contribution        =    9277.43417069 Ry
     electric field correction =       0.00069750 Ry

     convergence has been achieved in  78 iterations

     Forces acting on atoms (cartesian axes, Ry/au):

     atom    1 type  1   force =     0.00009038   -0.00038244    0.10703640
     atom    2 type  1   force =    -0.00004706   -0.00169794   -0.16539875
     atom    3 type  2   force =     0.00003530   -0.00025752   -0.03868043
     atom    4 type  2   force =     0.00004480    0.00076328    0.03116882
     atom    5 type  2   force =    -0.00356301    0.00294662   -0.00840891
     atom    6 type  2   force =     0.00470162    0.00361464   -0.01017890
     atom    7 type  1   force =    -0.00073004    0.00048377    0.02121035
     atom    8 type  1   force =     0.00101076    0.01539481    0.06094460
     atom    9 type  2   force =     0.00011248   -0.00013102    0.00011632
     atom   10 type  2   force =    -0.00289239    0.00226630   -0.04712700
     atom   11 type  2   force =    -0.00004030   -0.00021296   -0.00002725
     atom   12 type  2   force =     0.00000447   -0.00003708    0.00019628
     atom   13 type  1   force =     0.00028257   -0.00013543    0.00011261
     atom   14 type  1   force =     0.00040062   -0.00015586    0.00024620
     atom   15 type  2   force =     0.00015888    0.00014178   -0.00031062
     atom   16 type  2   force =     0.00014392   -0.00016010    0.00002285
     atom   17 type  2   force =     0.00017264    0.00017374    0.00024892
     atom   18 type  2   force =     0.00009923    0.00028130    0.00008272
     atom   19 type  1   force =     0.00005115   -0.00014356   -0.00013200
     atom   20 type  1   force =    -0.00033801    0.00015787    0.00002718
     atom   21 type  2   force =     0.00010275    0.00000012    0.10032168
     atom   22 type  2   force =     0.00004154    0.00007215   -0.00018978
     atom   23 type  2   force =    -0.07669513   -0.00004732   -0.03006426
     atom   24 type  2   force =     0.07668252    0.00038447   -0.03008980
     atom   25 type  1   force =     0.00005272   -0.00043286    0.10698274
     atom   26 type  1   force =    -0.00010354    0.00063348   -0.16570352
     atom   27 type  2   force =     0.00012189   -0.00027239   -0.03749094
     atom   28 type  2   force =     0.00004432   -0.00044075    0.03534732
     atom   29 type  2   force =    -0.00569920   -0.00043489   -0.00599562
     atom   30 type  2   force =     0.00686424    0.00006322   -0.00768366
     atom   31 type  1   force =    -0.00057018   -0.00239056    0.03458682
     atom   32 type  1   force =     0.00111341   -0.01877517    0.06146876
     atom   33 type  2   force =     0.00022407   -0.00012471    0.00006176
     atom   34 type  2   force =    -0.00253637    0.00012644   -0.05384656
     atom   35 type  2   force =     0.00022427   -0.00024328   -0.00011644
     atom   36 type  2   force =     0.00017384   -0.00001987    0.00027993
     atom   37 type  1   force =     0.00035601   -0.00019138   -0.00012192
     atom   38 type  1   force =     0.00047033   -0.00021806    0.00028756
     atom   39 type  2   force =     0.00015858   -0.00044322    0.00026086
     atom   40 type  2   force =    -0.00019173   -0.00006218   -0.00010239
     atom   41 type  2   force =     0.00012210   -0.00039913    0.00010862
     atom   42 type  2   force =     0.00021546   -0.00042391    0.00011956
     atom   43 type  1   force =    -0.00023550    0.00004174   -0.00026360
     atom   44 type  1   force =    -0.00006384   -0.00026122    0.00026998
     atom   45 type  2   force =     0.00009570    0.00010685    0.10052219
     atom   46 type  2   force =    -0.07667552   -0.00005810   -0.03007626
     atom   47 type  2   force =     0.07666560    0.00036137   -0.03010442
     atom   48 type  3   force =     0.00103429   -0.00026328    0.00089463
     atom   49 type  3   force =     0.00016282    0.00016063   -0.00101590
     atom   50 type  4   force =    -0.00157184    0.00322030   -0.00064804
     atom   51 type  5   force =    -0.00065782   -0.00101906    0.00040721
     atom   52 type  5   force =     0.00038092    0.00008183   -0.00054288
     atom   53 type  5   force =     0.00040581   -0.00192019    0.00082013
     atom   54 type  2   force =     0.00041030    0.00121721    0.00064955
     atom   55 type  5   force =    -0.00082084   -0.00093848   -0.00048270

     Total force =     0.381399     Total SCF correction =     0.000855
  @ DRIVER MODE: Message from server: STATUS
  @ DRIVER MODE: Message from server: GETFORCE
  @ DRIVER MODE: Returning v,forces,stress,ensemble

     Writing output data file ./calc.save/
  @ DRIVER MODE: Message from server: EXIT
  @ DRIVE MODE: Exiting

     General routines

     Parallel routines

   This run was terminated on:   8:31:19  10Sep2021

   JOB DONE.