     Program PWSCF v.6.7GPU starts on 27Sep2021 at 17:21:24

     R & G space division:  proc/nbgrp/npool/nimage =       8
     Reading input from /storage/home/hcoda1/3/ntian30/research/carbon/CxH_vib/H2O_calc/ads_slab/CH3OHN2H2O_a/out_0003/pw.inp
Warning: card &CELL ignored
Warning: card   CELL_DYNAMICS='IPI', ignored
Warning: card / ignored

     Current dimensions of program PWSCF are:
     Max number of different atomic species (ntypx) = 10
     Max number of k-points (npk) =  40000
     Max angular momentum in pseudopotentials (lmaxx) =  3
     Presently no symmetry can be used with electric field

     Message from routine cell_base_init:
     DEPRECATED: use true lattice parameter, not A to a.u. conversion factor

     IMPORTANT: XC functional enforced from input :
     Exchange-correlation= BEEF-VDW
                           (   1   4  43  14   2   0   0)
     Any further DFT definition will be discarded
     Please, verify this is what you really want

  @ DRIVER MODE: Connecting to
 qe_1139763_3000313.sched-torque.pace.gatech.edurxca5rq6_scratch
  using UNIX socket
  @ DRIVER MODE: Message from server: STATUS
  @ DRIVER MODE: Message from server: INIT
  @ DRIVER MODE: Receiving replica           0          -1
  @ DRIVER MODE: Receiving encoded integer          25
  @ DRIVER MODE:  SCF:  T  FORCE:  T  STRESS:  F  VC:  F  ENSEMBLE:  F
  @ DRIVER MODE:  SCF:  T  FORCE:  T  STRESS:  F  VC:  F  ENSEMBLE:  F

     Using Slab Decomposition

     bravais-lattice index     =            0
     lattice parameter (alat)  =       1.8897  a.u.
     unit-cell volume          =    6658.9804 (a.u.)^3
     number of atoms/cell      =           58
     number of atomic types    =            5
     number of electrons       =       410.00
     number of Kohn-Sham states=          215
     kinetic-energy cutoff     =      29.3995  Ry
     charge density cutoff     =     293.9946  Ry
     scf convergence threshold =      7.3E-08
     mixing beta               =       0.0500
     number of iterations used =            8  plain     mixing
     Exchange-correlation= BEEF-VDW
                           (   1   4  43  14   2   0   0)

     celldm(1)=   1.889726  celldm(2)=   0.000000  celldm(3)=   0.000000
     celldm(4)=   0.000000  celldm(5)=   0.000000  celldm(6)=   0.000000

     crystal axes: (cart. coord. in units of alat)
               a(1) = (   6.579727   0.000000   0.000000 )
               a(2) = (  -0.000775   5.961596   0.000000 )
               a(3) = (   0.000000   0.000000  25.155947 )

     reciprocal axes: (cart. coord. in units 2 pi/alat)
               b(1) = (  0.151982  0.000020  0.000000 )
               b(2) = (  0.000000  0.167740  0.000000 )
               b(3) = (  0.000000  0.000000  0.039752 )

     PseudoPot. # 1 for Ti read from file:
     /storage/coda1/p-amedford6/0/shared/rich_project_chbe-medford/medford-share/data/pseudos_module/espresso/nninc/pbe/van/Ti.UPF
     MD5 check sum: 8e4df49b7f0d34bbd5052bf3f5ea0213
     Pseudo is Ultrasoft, Zval = 12.0
     Generated by new atomic code, or converted to UPF format
     Using radial grid of  851 points,  6 beta functions with:
                l(1) =   0
                l(2) =   0
                l(3) =   1
                l(4) =   1
                l(5) =   2
                l(6) =   2
     Q(r) pseudized with  8 coefficients,  rinner =    1.000   1.000   1.000
                                                       1.000   1.000

     PseudoPot. # 2 for O  read from file:
     /storage/coda1/p-amedford6/0/shared/rich_project_chbe-medford/medford-share/data/pseudos_module/espresso/nninc/pbe/van/O.UPF
     MD5 check sum: 78c19812648e8988a0fe644b0f25305e
     Pseudo is Ultrasoft, Zval =  6.0
     Generated by new atomic code, or converted to UPF format
     Using radial grid of  737 points,  4 beta functions with:
                l(1) =   0
                l(2) =   0
                l(3) =   1
                l(4) =   1
     Q(r) pseudized with  8 coefficients,  rinner =    0.800   0.800   0.800

     PseudoPot. # 3 for C  read from file:
     /storage/coda1/p-amedford6/0/shared/rich_project_chbe-medford/medford-share/data/pseudos_module/espresso/nninc/pbe/van/C.UPF
     MD5 check sum: 1a69bf6b8db32088f5b2163dbdb77a27
     Pseudo is Ultrasoft, Zval =  4.0
     Generated by new atomic code, or converted to UPF format
     Using radial grid of  721 points,  4 beta functions with:
                l(1) =   0
                l(2) =   0
                l(3) =   1
                l(4) =   1
     Q(r) pseudized with  8 coefficients,  rinner =    0.800   0.800   0.800

     PseudoPot. # 4 for H  read from file:
     /storage/coda1/p-amedford6/0/shared/rich_project_chbe-medford/medford-share/data/pseudos_module/espresso/nninc/pbe/van/H.UPF
     MD5 check sum: b5ee9d7bfd3a09ee7748110bda690ff7
     Pseudo is Ultrasoft, Zval =  1.0
     Generated by new atomic code, or converted to UPF format
     Using radial grid of  615 points,  1 beta functions with:
                l(1) =   0
     Q(r) pseudized with  8 coefficients,  rinner =    0.800

     PseudoPot. # 5 for N  read from file:
     /storage/coda1/p-amedford6/0/shared/rich_project_chbe-medford/medford-share/data/pseudos_module/espresso/nninc/pbe/van/N.UPF
     MD5 check sum: 90d10febe142ad51ac9d5be1deb811c4
     Pseudo is Ultrasoft, Zval =  5.0
     Generated by new atomic code, or converted to UPF format
     Using radial grid of  729 points,  4 beta functions with:
                l(1) =   0
                l(2) =   0
                l(3) =   1
                l(4) =   1
     Q(r) pseudized with  8 coefficients,  rinner =    0.800   0.800   0.800

     atomic species   valence    mass     pseudopotential
        Ti1           12.00    47.86700     Ti( 1.00)
        O1             6.00    15.99900     O ( 1.00)
        C1             4.00    12.01100     C ( 1.00)
        H1             1.00     1.00800     H ( 1.00)
        N1             5.00    14.00700     N ( 1.00)

     No symmetry found

   Cartesian axes

     site n.     atom                  positions (alat units)
         1           Ti1 tau(   1) = (   0.0004258   2.9801865   6.0000000  )
         2           Ti1 tau(   2) = (   3.2906075   1.4906267   6.0002472  )
         3           O1  tau(   3) = (   0.0006271   0.0005054   7.9858123  )
         4           O1  tau(   4) = (   3.2906025   0.0005020   7.3038282  )
         5           O1  tau(   5) = (   4.5942328   1.4918067   9.2879030  )
         6           O1  tau(   6) = (   1.9868534   1.4903216   9.2879459  )
         7           Ti1 tau(   7) = (   3.3250738   2.9918783   9.1599549  )
         8           Ti1 tau(   8) = (   0.0412716   1.4903975   9.2658274  )
         9           O1  tau(   9) = (   3.2852344   0.0116916  11.3753809  )
        10           O1  tau(  10) = (   6.5701620   0.0027176  10.6052010  )
        11           O1  tau(  11) = (   1.2758103   1.4969824  12.6410148  )
        12           O1  tau(  12) = (   5.2796941   1.4985041  12.6691897  )
        13           Ti1 tau(  13) = (   6.5531116   2.9870417  12.5348353  )
        14           Ti1 tau(  14) = (   3.2504356   1.4995581  12.5215122  )
        15           O1  tau(  15) = (   0.0383206   0.0046779  14.6787597  )
        16           O1  tau(  16) = (   3.2537876   0.0095675  14.0320577  )
        17           O1  tau(  17) = (   4.5855444   1.5609978  16.0639115  )
        18           O1  tau(  18) = (   2.0343745   1.5440679  16.2001998  )
        19           Ti1 tau(  19) = (   3.3058624   3.0043567  15.7064231  )
        20           Ti1 tau(  20) = (   6.5549511   1.4266458  15.8675638  )
        21           O1  tau(  21) = (   3.2904802   0.0005063   4.7018136  )
        22           O1  tau(  22) = (   6.4974171   0.0126247  17.2237355  )
        23           O1  tau(  23) = (   1.3043587   1.4918075   6.0039043  )
        24           O1  tau(  24) = (   5.2767064   1.4903225   6.0039473  )
        25           Ti1 tau(  25) = (   0.0000382   5.9609847   6.0000000  )
        26           Ti1 tau(  26) = (   3.2902200   4.4714249   6.0002472  )
        27           O1  tau(  27) = (   0.0002396   2.9813036   7.9858123  )
        28           O1  tau(  28) = (   3.2902150   2.9813002   7.3038282  )
        29           O1  tau(  29) = (   4.5938453   4.4726049   9.2879030  )
        30           O1  tau(  30) = (   1.9864658   4.4711199   9.2879459  )
        31           Ti1 tau(  31) = (   3.3194574   0.0113313   9.1541029  )
        32           Ti1 tau(  32) = (   0.0414074   4.4589881   9.2683624  )
        33           O1  tau(  33) = (   3.2821265   2.9896323  11.3676027  )
        34           O1  tau(  34) = (   6.5712111   2.9825298  10.6251173  )
        35           O1  tau(  35) = (   1.2751242   4.4805681  12.6359318  )
        36           O1  tau(  36) = (   5.2791817   4.4782367  12.6627471  )
        37           Ti1 tau(  37) = (   6.5506445   0.0032150  12.4806913  )
        38           Ti1 tau(  38) = (   3.2507345   4.4881811  12.5195668  )
        39           O1  tau(  39) = (   0.0469291   2.9928743  14.8464778  )
        40           O1  tau(  40) = (   3.2514374   2.9975957  13.9281162  )
        41           O1  tau(  41) = (   4.5866068   4.4203933  16.0984022  )
        42           O1  tau(  42) = (   2.0418857   4.4579080  16.2200674  )
        43           Ti1 tau(  43) = (   3.2648600   0.0292614  15.8571223  )
        44           Ti1 tau(  44) = (   6.5763064   4.6169283  15.9626260  )
        45           O1  tau(  45) = (   3.2900926   2.9813045   4.7018136  )
        46           O1  tau(  46) = (   1.3039711   4.4726057   6.0039043  )
        47           O1  tau(  47) = (   5.2763189   4.4711207   6.0039473  )
        48           C1  tau(  48) = (   6.0301898   2.8950411  18.9351799  )
        49           O1  tau(  49) = (   0.1575529   2.9516393  17.6723866  )
        50           H1  tau(  50) = (   4.9714676   2.8818909  18.6991823  )
        51           H1  tau(  51) = (   1.1132637   2.8218831  17.8130049  )
        52           H1  tau(  52) = (   6.2985093   1.9952365  19.4696065  )
        53           H1  tau(  53) = (   6.2732381   3.7939772  19.5169533  )
        54           N1  tau(  54) = (   4.8840950   3.1052494  22.6850861  )
        55           N1  tau(  55) = (   4.2680757   3.3403818  21.7970487  )
        56           O1  tau(  56) = (   3.8772584   0.1141246  18.3039653  )
        57           H1  tau(  57) = (   4.8407149   0.0692883  18.0716375  )
        58           H1  tau(  58) = (   3.6680196   5.2122673  18.6877519  )

     number of k points=    10  Fermi-Dirac smearing, width (Ry)=  0.0073
                       cart. coord. in units 2pi/alat
        k(    1) = (   0.0000000   0.0000000   0.0000000), wk =   0.1250000
        k(    2) = (   0.0000000   0.0419351   0.0000000), wk =   0.2500000
        k(    3) = (   0.0000000  -0.0838702   0.0000000), wk =   0.1250000
        k(    4) = (   0.0379955   0.0000049   0.0000000), wk =   0.2500000
        k(    5) = (   0.0379955   0.0419400   0.0000000), wk =   0.2500000
        k(    6) = (   0.0379955  -0.0838652   0.0000000), wk =   0.2500000
        k(    7) = (   0.0379955  -0.0419301   0.0000000), wk =   0.2500000
        k(    8) = (  -0.0759910  -0.0000099   0.0000000), wk =   0.1250000
        k(    9) = (  -0.0759910   0.0419252   0.0000000), wk =   0.2500000
        k(   10) = (  -0.0759910  -0.0838800   0.0000000), wk =   0.1250000

     Initial potential from superposition of free atoms

     starting charge  393.99913, renormalised to  410.00000

     negative rho (up, down):  9.552E-03 0.000E+00

     %%%%%%%%%%%%%%%%%%%%%%%%%%%%%%%%%%%%%%%%%%%%%%%%%%%%%%%%%%%%%%%%%%%%%%%%
     %                                                                      %
     % You are using vdW-DF, which was implemented by the Thonhauser group. %
     % Please cite the following two papers that made this development      %
     % possible and the two reviews that describe the various versions:     %
     %                                                                      %
     %   T. Thonhauser et al., PRL 115, 136402 (2015).                      %
     %   T. Thonhauser et al., PRB 76, 125112 (2007).                       %
     %   K. Berland et al., Rep. Prog. Phys. 78, 066501 (2015).             %
     %   D.C. Langreth et al., J. Phys.: Condens. Matter 21, 084203 (2009). %
     %                                                                      %
     %                                                                      %
     % If you are calculating the stress with vdW-DF, please also cite:     %
     %                                                                      %
     %   R. Sabatini et al., J. Phys.: Condens. Matter 24, 424209 (2012).   %
     %                                                                      %
     %%%%%%%%%%%%%%%%%%%%%%%%%%%%%%%%%%%%%%%%%%%%%%%%%%%%%%%%%%%%%%%%%%%%%%%%

     Adding external electric field

     Computed dipole along edir(3) :
        Dipole              -20.0784 Ry au,        -51.0342 Debye
        Dipole field         -0.0379 Ry au,

        Potential amp.        3.5124 Ry
        Total length         46.3494 bohr

     Starting wfcs are  310 atomic wfcs
  @ DRIVER MODE: Message from server: STATUS
  @ DRIVER MODE: Message from server: POSDATA
  @ DRIVER MODE: Reading and sharing cell
  @ DRIVER MODE: Reading and sharing positions
  @ DRIVER MODE: Received positions

     Self-consistent Calculation

     iteration #  1     ecut=    29.40 Ry     beta= 0.05
     Davidson diagonalization with overlap
     c_bands:  1 eigenvalues not converged
     c_bands:  1 eigenvalues not converged
     c_bands:  5 eigenvalues not converged
     c_bands:  1 eigenvalues not converged
     c_bands:  4 eigenvalues not converged
     c_bands:  3 eigenvalues not converged
     ethr =  1.00E-05,  avg # of iterations = 32.1

[...]

     total energy              =   -2098.61244332 Ry
     estimated scf accuracy    <   10668.30307377 Ry

     iteration #  2     ecut=    29.40 Ry     beta= 0.05
     Davidson diagonalization with overlap
     ethr =  1.00E-02,  avg # of iterations = 30.3

[...]

     iteration # 75     ecut=    29.40 Ry     beta= 0.05
     Davidson diagonalization with overlap
     ethr =  6.65E-11,  avg # of iterations =  9.1

[...]

     total energy              =   -3007.66299988 Ry
     estimated scf accuracy    <       0.00000028 Ry

     iteration # 77     ecut=    29.40 Ry     beta= 0.05
     Davidson diagonalization with overlap
     c_bands:  1 eigenvalues not converged
     ethr =  3.85E-11,  avg # of iterations = 16.7

     negative rho (up, down):  1.051E-02 0.000E+00

     Adding external electric field

     Computed dipole along edir(3) :
        Dipole                1.2315 Ry au,          3.1303 Debye
        Dipole field          0.0023 Ry au,

        Potential amp.       -0.2154 Ry
        Total length         46.3494 bohr

     End of self-consistent calculation

          k = 0.0000 0.0000 0.0000 ( 18029 PWs)   bands (ev):

   -54.9344 -54.9108 -54.8983 -54.8765 -54.8616 -54.8561 -54.8290 -54.8097
   -54.7815 -54.7792 -54.7447 -54.7239 -54.6923 -54.6900 -53.9992 -53.9651
   -31.5000 -31.4745 -31.4066 -31.3136 -31.2548 -31.2488 -31.2365 -31.2349
   -31.1994 -31.1648 -31.1557 -31.1535 -31.1490 -31.1259 -31.1193 -31.1130
   -31.0972 -31.0779 -31.0723 -31.0708 -31.0642 -31.0565 -31.0337 -31.0275
   -31.0268 -31.0211 -31.0064 -31.0040 -31.0033 -30.9673 -30.9500 -30.9302
   -30.9287 -30.9276 -30.9198 -30.9183 -30.9085 -30.8783 -30.8637 -30.8595
   -30.8548 -30.8355 -30.4112 -30.3089 -30.2873 -30.2274 -30.1410 -30.0300
   -21.6248 -19.8068 -18.2751 -15.7677 -15.5219 -15.3823 -15.2850 -15.1616
   -15.0313 -14.9572 -14.8369 -14.7651 -14.6713 -14.6577 -14.6395 -14.6180
   -14.5854 -14.5589 -14.5020 -14.4972 -14.4422 -14.4388 -14.4285 -14.4174
   -14.3848 -14.3686 -14.3382 -14.3292 -14.1664 -14.1010 -14.0415 -13.8971
   -12.4999 -12.3806 -10.8225  -6.8749  -6.5566  -6.0329  -4.8555  -4.7810
    -4.7247  -4.6225  -3.5471  -3.1015  -2.9501  -2.9160  -2.8934  -2.8711
    -2.7491  -2.6558  -2.6300  -2.4670  -2.3720  -2.2377  -2.2109  -2.1769
    -2.1396  -2.0708  -2.0141  -1.9287  -1.8991  -1.8579  -1.8388  -1.8151
    -1.8002  -1.7734  -1.7428  -1.6709  -1.6327  -1.5481  -1.5318  -1.4428
    -1.3917  -1.3834  -1.3402  -1.2776  -1.2741  -1.2638  -1.2233  -1.2096
    -1.2014  -1.1914  -1.1844  -1.0239  -0.9784  -0.9439  -0.8209  -0.7112
    -0.6184  -0.6081  -0.5053  -0.4916  -0.4290  -0.4243  -0.3850  -0.3455
    -0.2829  -0.1867  -0.1285  -0.0822  -0.0692   0.0414   0.1074   0.1218
     0.1835   0.2584   0.2736   0.2951   0.3247   0.4117   0.4794   0.5213
     0.5558   0.6206   0.6303   0.6775   0.7067   0.7476   0.8334   0.8868
     0.8906   0.9776   0.9948   1.0079   1.0333   1.0391   1.1372   1.1711
     1.2152   1.2434   1.3945   1.4299   1.6206   1.6564   1.9162   2.0150
     2.0266   2.1878   2.6125   2.6670   4.1552   4.2233   4.2597   4.2669
     4.2815   4.3611   4.6435   4.6523   4.6635   4.6755   4.6839

[...]

          k = 0.0380-0.0419 0.0000 ( 17876 PWs)   bands (ev):

[...]

          k =-0.0760-0.0000 0.0000 ( 17886 PWs)   bands (ev):

[...]

          k =-0.0760-0.0839 0.0000 ( 17948 PWs)   bands (ev):

   -54.9173 -54.9152 -54.8954 -54.8917 -54.8566 -54.8515 -54.8218 -54.8173
   -54.7888 -54.7642 -54.7594 -54.7083 -54.7056 -54.6940 -53.9821 -53.9821
   -31.3872 -31.3089 -31.2987 -31.2233 -31.2197 -31.1971 -31.1897 -31.1882
   -31.1813 -31.1584 -31.1438 -31.1419 -31.1343 -31.1280 -31.1095 -31.0952
   -31.0801 -31.0782 -31.0690 -31.0676 -31.0659 -31.0649 -31.0592 -31.0538
   -31.0291 -31.0241 -31.0196 -31.0144 -31.0143 -31.0115 -31.0107 -31.0104
   -31.0103 -30.9811 -30.9726 -30.9623 -30.9610 -30.9336 -30.9312 -30.8952
   -30.8920 -30.8773 -30.2998 -30.2998 -30.2240 -30.2236 -30.1843 -30.1841
   -21.6247 -19.8032 -18.2740 -15.3428 -15.2292 -15.0633 -14.9553 -14.9455
   -14.9167 -14.8577 -14.8146 -14.7835 -14.7434 -14.7331 -14.7037 -14.6859
   -14.6806 -14.6227 -14.5390 -14.5332 -14.5194 -14.4840 -14.4572 -14.4432
   -14.4412 -14.4269 -14.3899 -14.3882 -14.3690 -14.3579 -14.3011 -14.2089
   -12.4819 -12.4813 -10.8252  -6.8741  -6.5588  -6.0351  -4.8529  -4.7881
    -4.7189  -4.6101  -3.5387  -2.7705  -2.5455  -2.4967  -2.4243  -2.2580
    -2.1785  -2.1573  -2.0820  -2.0578  -2.0228  -1.9441  -1.9404  -1.9064
    -1.8664  -1.8421  -1.8363  -1.8177  -1.7994  -1.7664  -1.7458  -1.7241
    -1.7109  -1.6960  -1.6496  -1.6406  -1.6048  -1.6012  -1.5862  -1.5748
    -1.5552  -1.5447  -1.4655  -1.4348  -1.3948  -1.3084  -1.2921  -1.1630
    -1.1574  -1.1096  -1.0750  -1.0364  -1.0175  -0.9961  -0.9708  -0.9395
    -0.9099  -0.7372  -0.7161  -0.6728  -0.6220  -0.6155  -0.5428  -0.5270
    -0.4724  -0.4405  -0.3508  -0.3095  -0.2703  -0.1615  -0.1345  -0.1221
     0.0158   0.0216   0.0668   0.0684   0.1111   0.1492   0.1614   0.1687
     0.2435   0.2760   0.3122   0.3382   0.3620   0.5402   0.5763   0.6353
     0.7247   0.7427   0.9214   0.9516   0.9952   1.0764   1.1375   1.1917
     1.2137   1.3220   1.3295   1.3529   1.4445   1.4928   1.4941   1.5242
     2.3778   2.3807   2.4815   2.4843   4.2796   4.4106   4.4168   4.4968
     4.5705   4.6630   4.6668   4.6780   4.7078   4.7179   4.7217

     the Fermi energy is     4.2113 ev

!    total energy              =   -3007.66301606 Ry
     estimated scf accuracy    <       0.00000004 Ry
     smearing contrib. (-TS)   =      -0.03683936 Ry
     internal energy E=F+TS    =   -3007.62617670 Ry

     The total energy is F=E-TS. E is the sum of the following terms:
     one-electron contribution =  -22339.09014858 Ry
     hartree contribution      =   11271.33835526 Ry
     xc contribution           =    -502.08118135 Ry
     ewald contribution        =    8562.20393579 Ry
     electric field correction =       0.00286219 Ry

     convergence has been achieved in  77 iterations

     Forces acting on atoms (cartesian axes, Ry/au):

     atom    1 type  1   force =    -0.00027118   -0.00001113    0.09253563
     atom    2 type  1   force =    -0.00013349    0.00113610   -0.18321646
     atom    3 type  2   force =     0.00054999   -0.00040190   -0.02390007
     atom    4 type  2   force =     0.00079844    0.00021170    0.05085942
     atom    5 type  2   force =    -0.01550768   -0.00014219    0.00436544
     atom    6 type  2   force =     0.01422290   -0.00033044    0.00504828
     atom    7 type  1   force =    -0.00010303    0.00020463    0.00010370
     atom    8 type  1   force =    -0.00006617    0.00016465    0.00002553
     atom    9 type  2   force =     0.00007964    0.00004706    0.00006201
     atom   10 type  2   force =     0.00000101    0.00001833   -0.00006165
     atom   11 type  2   force =     0.00016012    0.00001427   -0.00013753
     atom   12 type  2   force =     0.00005053    0.00003136   -0.00006538
     atom   13 type  1   force =     0.00017665    0.00011827   -0.00006052
     atom   14 type  1   force =     0.00027160    0.00016136   -0.00008619
     atom   15 type  2   force =     0.00027686    0.00031272    0.00002088
     atom   16 type  2   force =     0.00015399   -0.00002130    0.00019841
     atom   17 type  2   force =     0.00001722    0.00012197    0.00011460
     atom   18 type  2   force =     0.00024939   -0.00002135    0.00024873
     atom   19 type  1   force =     0.00007591   -0.00017777    0.00007032
     atom   20 type  1   force =     0.00024394    0.00001161   -0.00021359
     atom   21 type  2   force =     0.00002831    0.00001612    0.10488229
     atom   22 type  2   force =    -0.00024514    0.00004025    0.00012768
     atom   23 type  2   force =    -0.06804438   -0.00012197   -0.02684277
     atom   24 type  2   force =     0.06790425    0.00033620   -0.02688452
     atom   25 type  1   force =    -0.00012137   -0.00002908    0.09597841
     atom   26 type  1   force =    -0.00011249   -0.00144156   -0.18313553
     atom   27 type  2   force =     0.00050085   -0.00019602   -0.02269549
     atom   28 type  2   force =     0.00086213    0.00018131    0.05125002
     atom   29 type  2   force =    -0.01542413    0.00050421    0.00453732
     atom   30 type  2   force =     0.01417683    0.00078505    0.00523722
     atom   31 type  1   force =    -0.00009846    0.00005633    0.00002850
     atom   32 type  1   force =    -0.00007485    0.00016604   -0.00002418
     atom   33 type  2   force =     0.00011882   -0.00003160    0.00010817
     atom   34 type  2   force =    -0.00000069    0.00007294    0.00002566
     atom   35 type  2   force =     0.00011618   -0.00000473   -0.00004052
     atom   36 type  2   force =     0.00009593   -0.00000146    0.00008290
     atom   37 type  1   force =     0.00016064    0.00005890   -0.00012452
     atom   38 type  1   force =     0.00014989   -0.00003253    0.00007240
     atom   39 type  2   force =     0.00016795   -0.00007997   -0.00017743
     atom   40 type  2   force =     0.00002524   -0.00017923    0.00004945
     atom   41 type  2   force =     0.00020358   -0.00000611    0.00006734
     atom   42 type  2   force =    -0.00011151   -0.00002489    0.00016582
     atom   43 type  1   force =    -0.00003372   -0.00015431    0.00112605
     atom   44 type  1   force =     0.00000615    0.00023023    0.00034542
     atom   45 type  2   force =     0.00003429    0.00002199    0.10481022
     atom   46 type  2   force =    -0.06805498   -0.00050070   -0.02683184
     atom   47 type  2   force =     0.06791333   -0.00007988   -0.02691107
     atom   48 type  3   force =    -0.00045594    0.02152375   -0.00047152
     atom   49 type  2   force =    -0.00031905   -0.00242281    0.00040402
     atom   50 type  4   force =    -0.00020659   -0.00227628    0.00004571
     atom   51 type  4   force =     0.00015615   -0.00015223   -0.00007494
     atom   52 type  4   force =     0.00267943   -0.00943516    0.00382138
     atom   53 type  4   force =    -0.00183113   -0.00819636   -0.00387042
     atom   54 type  5   force =    -0.00080946   -0.00000092   -0.00090644
     atom   55 type  5   force =     0.00024252   -0.00004730    0.00004899
     atom   56 type  2   force =     0.00128810    0.00057127   -0.00079538
     atom   57 type  4   force =    -0.00101474   -0.00046900    0.00022281
     atom   58 type  4   force =    -0.00111856   -0.00012845    0.00043726

     Total force =     0.369055     Total SCF correction =     0.000340
  @ DRIVER MODE: Message from server: STATUS
  @ DRIVER MODE: Message from server: GETFORCE
  @ DRIVER MODE: Returning v,forces,stress,ensemble

     Writing output data file ./calc.save/
  @ DRIVER MODE: Message from server: EXIT
  @ DRIVE MODE: Exiting

     General routines

     Parallel routines

   This run was terminated on:  17:48:53  27Sep2021

   JOB DONE.