     Program PWSCF v.6.7GPU starts on  3Aug2021 at  1:31:43

     R & G space division:  proc/nbgrp/npool/nimage =      16
     Reading input from /storage/home/hcoda1/3/ntian30/research/carbon/02Aug_vib_paired/ads_slab/CH3NNHHH_a/out_0049/pw.inp
Warning: card &CELL ignored
Warning: card   CELL_DYNAMICS='IPI', ignored
Warning: card / ignored

     Current dimensions of program PWSCF are:
     Max number of different atomic species (ntypx) = 10
     Max number of k-points (npk) =  40000
     Max angular momentum in pseudopotentials (lmaxx) =  3
     Presently no symmetry can be used with electric field

     Message from routine cell_base_init:
     DEPRECATED: use true lattice parameter, not A to a.u. conversion factor

     IMPORTANT: XC functional enforced from input :
     Exchange-correlation= BEEF-VDW
                           (   1   4  43  14   2   0   0)
     Any further DFT definition will be discarded
     Please, verify this is what you really want

  @ DRIVER MODE: Connecting to
 qe_1139763_2482545.sched-torque.pace.gatech.edupbq2utjc_scratch
  using UNIX socket
  @ DRIVER MODE: Message from server: STATUS
  @ DRIVER MODE: Message from server: INIT
  @ DRIVER MODE: Receiving replica           0          -1
  @ DRIVER MODE: Receiving encoded integer          25
  @ DRIVER MODE:  SCF:  T  FORCE:  T  STRESS:  F  VC:  F  ENSEMBLE:  F
  @ DRIVER MODE:  SCF:  T  FORCE:  T  STRESS:  F  VC:  F  ENSEMBLE:  F

     Using Slab Decomposition

     bravais-lattice index     =            0
     lattice parameter (alat)  =       1.8897  a.u.
     unit-cell volume          =    6658.9804 (a.u.)^3
     number of atoms/cell      =           56
     number of atomic types    =            5
     number of electrons       =       398.00
     number of Kohn-Sham states=          209
     kinetic-energy cutoff     =      29.3995  Ry
     charge density cutoff     =     293.9946  Ry
     scf convergence threshold =      7.3E-08
     mixing beta               =       0.0500
     number of iterations used =            8  plain     mixing
     Exchange-correlation= BEEF-VDW
                           (   1   4  43  14   2   0   0)

     celldm(1)=   1.889726  celldm(2)=   0.000000  celldm(3)=   0.000000
     celldm(4)=   0.000000  celldm(5)=   0.000000  celldm(6)=   0.000000

     crystal axes: (cart. coord. in units of alat)
               a(1) = (   6.579727   0.000000   0.000000 )
               a(2) = (  -0.000775   5.961596   0.000000 )
               a(3) = (   0.000000   0.000000  25.155947 )

     reciprocal axes: (cart. coord. in units 2 pi/alat)
               b(1) = (  0.151982  0.000020  0.000000 )
               b(2) = (  0.000000  0.167740  0.000000 )
               b(3) = (  0.000000  0.000000  0.039752 )

     PseudoPot. # 1 for Ti read from file:
     /storage/coda1/p-amedford6/0/shared/rich_project_chbe-medford/medford-share/data/pseudos_module/espresso/nninc/pbe/van/Ti.UPF
     MD5 check sum: 8e4df49b7f0d34bbd5052bf3f5ea0213
     Pseudo is Ultrasoft, Zval = 12.0
     Generated by new atomic code, or converted to UPF format
     Using radial grid of  851 points,  6 beta functions with:
                l(1) =   0
                l(2) =   0
                l(3) =   1
                l(4) =   1
                l(5) =   2
                l(6) =   2
     Q(r) pseudized with  8 coefficients,  rinner =    1.000   1.000   1.000
                                                       1.000   1.000

     PseudoPot. # 2 for O  read from file:
     /storage/coda1/p-amedford6/0/shared/rich_project_chbe-medford/medford-share/data/pseudos_module/espresso/nninc/pbe/van/O.UPF
     MD5 check sum: 78c19812648e8988a0fe644b0f25305e
     Pseudo is Ultrasoft, Zval =  6.0
     Generated by new atomic code, or converted to UPF format
     Using radial grid of  737 points,  4 beta functions with:
                l(1) =   0
                l(2) =   0
                l(3) =   1
                l(4) =   1
     Q(r) pseudized with  8 coefficients,  rinner =    0.800   0.800   0.800

     PseudoPot. # 3 for N  read from file:
     /storage/coda1/p-amedford6/0/shared/rich_project_chbe-medford/medford-share/data/pseudos_module/espresso/nninc/pbe/van/N.UPF
     MD5 check sum: 90d10febe142ad51ac9d5be1deb811c4
     Pseudo is Ultrasoft, Zval =  5.0
     Generated by new atomic code, or converted to UPF format
     Using radial grid of  729 points,  4 beta functions with:
                l(1) =   0
                l(2) =   0
                l(3) =   1
                l(4) =   1
     Q(r) pseudized with  8 coefficients,  rinner =    0.800   0.800   0.800

     PseudoPot. # 4 for C  read from file:
     /storage/coda1/p-amedford6/0/shared/rich_project_chbe-medford/medford-share/data/pseudos_module/espresso/nninc/pbe/van/C.UPF
     MD5 check sum: 1a69bf6b8db32088f5b2163dbdb77a27
     Pseudo is Ultrasoft, Zval =  4.0
     Generated by new atomic code, or converted to UPF format
     Using radial grid of  721 points,  4 beta functions with:
                l(1) =   0
                l(2) =   0
                l(3) =   1
                l(4) =   1
     Q(r) pseudized with  8 coefficients,  rinner =    0.800   0.800   0.800

     PseudoPot. # 5 for H  read from file:
     /storage/coda1/p-amedford6/0/shared/rich_project_chbe-medford/medford-share/data/pseudos_module/espresso/nninc/pbe/van/H.UPF
     MD5 check sum: b5ee9d7bfd3a09ee7748110bda690ff7
     Pseudo is Ultrasoft, Zval =  1.0
     Generated by new atomic code, or converted to UPF format
     Using radial grid of  615 points,  1 beta functions with:
                l(1) =   0
     Q(r) pseudized with  8 coefficients,  rinner =    0.800

     atomic species   valence    mass     pseudopotential
        Ti1           12.00    47.86700     Ti( 1.00)
        O1             6.00    15.99900     O ( 1.00)
        N1             5.00    14.00700     N ( 1.00)
        C1             4.00    12.01100     C ( 1.00)
        H1             1.00     1.00800     H ( 1.00)

     No symmetry found

   Cartesian axes

     site n.     atom                  positions (alat units)
         1           Ti1 tau(   1) = (   0.0004258   2.9801865   6.0000000  )
         2           Ti1 tau(   2) = (   3.2906075   1.4906267   6.0002472  )
         3           O1  tau(   3) = (   0.0006271   0.0005054   7.9858123  )
         4           O1  tau(   4) = (   3.2906025   0.0005020   7.3038282  )
         5           O1  tau(   5) = (   4.5942328   1.4918067   9.2879030  )
         6           O1  tau(   6) = (   1.9868534   1.4903216   9.2879459  )
         7           Ti1 tau(   7) = (   3.2907910   2.8959150   9.1758416  )
         8           Ti1 tau(   8) = (   0.0015273   1.4827037   9.2680791  )
         9           O1  tau(   9) = (   3.2969863   5.9453513  11.3493076  )
        10           O1  tau(  10) = (   0.0116148   5.9584955  10.6183126  )
        11           O1  tau(  11) = (   1.3059050   1.4736943  12.6642453  )
        12           O1  tau(  12) = (   5.3003793   1.4775083  12.6459419  )
        13           Ti1 tau(  13) = (   0.0167275   2.9625105  12.5508078  )
        14           Ti1 tau(  14) = (   3.3131340   1.4712512  12.4909780  )
        15           O1  tau(  15) = (   6.5517612   5.9325698  14.7566896  )
        16           O1  tau(  16) = (   3.3302114   5.9429442  13.9823395  )
        17           O1  tau(  17) = (   4.5243935   1.5056208  16.2316672  )
        18           O1  tau(  18) = (   2.0170937   1.4633510  16.1378485  )
        19           Ti1 tau(  19) = (   3.2500237   2.9242626  15.6920970  )
        20           Ti1 tau(  20) = (   6.5441017   1.2779805  16.1516014  )
        21           O1  tau(  21) = (   3.2904802   0.0005063   4.7018136  )
        22           O1  tau(  22) = (   6.5540411   5.9581837  17.3465722  )
        23           O1  tau(  23) = (   1.3043587   1.4918075   6.0039043  )
        24           O1  tau(  24) = (   5.2767064   1.4903225   6.0039473  )
        25           Ti1 tau(  25) = (   0.0000382   5.9609847   6.0000000  )
        26           Ti1 tau(  26) = (   3.2902200   4.4714249   6.0002472  )
        27           O1  tau(  27) = (   0.0002396   2.9813036   7.9858123  )
        28           O1  tau(  28) = (   3.2902150   2.9813002   7.3038282  )
        29           O1  tau(  29) = (   4.5938453   4.4726049   9.2879030  )
        30           O1  tau(  30) = (   1.9864658   4.4711199   9.2879459  )
        31           Ti1 tau(  31) = (   3.2891106   5.8743827   9.1763621  )
        32           Ti1 tau(  32) = (   0.0006254   4.4649316   9.2693709  )
        33           O1  tau(  33) = (   3.2962403   2.9651072  11.3429128  )
        34           O1  tau(  34) = (   0.0092240   2.9805883  10.6323155  )
        35           O1  tau(  35) = (   1.3076126   4.4641214  12.6643835  )
        36           O1  tau(  36) = (   5.2981430   4.4591552  12.6429889  )
        37           Ti1 tau(  37) = (   0.0194730   5.9489450  12.5196332  )
        38           Ti1 tau(  38) = (   3.3150505   4.4522436  12.4946186  )
        39           O1  tau(  39) = (   6.5702761   2.9869041  14.8038460  )
        40           O1  tau(  40) = (   3.3119818   2.9576719  13.9204832  )
        41           O1  tau(  41) = (   4.5223198   4.3950437  16.2490866  )
        42           O1  tau(  42) = (   2.0356696   4.4339808  16.1311045  )
        43           Ti1 tau(  43) = (   3.3057863   5.9493229  15.7677403  )
        44           Ti1 tau(  44) = (   0.0958844   4.4293496  15.8701971  )
        45           O1  tau(  45) = (   3.2900926   2.9813045   4.7018136  )
        46           O1  tau(  46) = (   1.3039711   4.4726057   6.0039043  )
        47           O1  tau(  47) = (   5.2763189   4.4711207   6.0039473  )
        48           N1  tau(  48) = (   0.0620580   3.0375546  17.6897758  )
        49           C1  tau(  49) = (   1.1116374   2.9693208  18.6984743  )
        50           H1  tau(  50) = (   1.2951007   3.9532040  19.1583453  )
        51           H1  tau(  51) = (   0.8627774   2.2426413  19.4871689  )
        52           H1  tau(  52) = (   2.0263963   2.6228967  18.2308865  )
        53           N1  tau(  53) = (   5.4279256   3.3744730  18.4033390  )
        54           H1  tau(  54) = (   5.6103604   4.1199394  19.0852601  )
        55           H1  tau(  55) = (   4.7934260   3.8076565  17.6395878  )
        56           H1  tau(  56) = (   4.9990149   2.5598412  18.8678436  )

     number of k points=    10  Fermi-Dirac smearing, width (Ry)=  0.0073
                       cart. coord. in units 2pi/alat
        k(    1) = (   0.0000000   0.0000000   0.0000000), wk =   0.1250000
        k(    2) = (   0.0000000   0.0419351   0.0000000), wk =   0.2500000
        k(    3) = (   0.0000000  -0.0838702   0.0000000), wk =   0.1250000
        k(    4) = (   0.0379955   0.0000049   0.0000000), wk =   0.2500000
        k(    5) = (   0.0379955   0.0419400   0.0000000), wk =   0.2500000
        k(    6) = (   0.0379955  -0.0838652   0.0000000), wk =   0.2500000
        k(    7) = (   0.0379955  -0.0419301   0.0000000), wk =   0.2500000
        k(    8) = (  -0.0759910  -0.0000099   0.0000000), wk =   0.1250000
        k(    9) = (  -0.0759910   0.0419252   0.0000000), wk =   0.2500000
        k(   10) = (  -0.0759910  -0.0838800   0.0000000), wk =   0.1250000

     Initial potential from superposition of free atoms

     starting charge  381.99914, renormalised to  398.00000

     negative rho (up, down):  1.616E-02 0.000E+00

     %%%%%%%%%%%%%%%%%%%%%%%%%%%%%%%%%%%%%%%%%%%%%%%%%%%%%%%%%%%%%%%%%%%%%%%%
     %                                                                      %
     % You are using vdW-DF, which was implemented by the Thonhauser group. %
     % Please cite the following two papers that made this development      %
     % possible and the two reviews that describe the various versions:     %
     %                                                                      %
     %   T. Thonhauser et al., PRL 115, 136402 (2015).                      %
     %   T. Thonhauser et al., PRB 76, 125112 (2007).                       %
     %   K. Berland et al., Rep. Prog. Phys. 78, 066501 (2015).             %
     %   D.C. Langreth et al., J. Phys.: Condens. Matter 21, 084203 (2009). %
     %                                                                      %
     %                                                                      %
     % If you are calculating the stress with vdW-DF, please also cite:     %
     %                                                                      %
     %   R. Sabatini et al., J. Phys.: Condens. Matter 24, 424209 (2012).   %
     %                                                                      %
     %%%%%%%%%%%%%%%%%%%%%%%%%%%%%%%%%%%%%%%%%%%%%%%%%%%%%%%%%%%%%%%%%%%%%%%%

     Adding external electric field

     Computed dipole along edir(3) :
        Dipole              -10.5729 Ry au,        -26.8736 Debye
        Dipole field         -0.0200 Ry au,

        Potential amp.        1.8496 Ry
        Total length         46.3494 bohr

     Starting wfcs are  302 atomic wfcs
  @ DRIVER MODE: Message from server: STATUS
  @ DRIVER MODE: Message from server: POSDATA
  @ DRIVER MODE: Reading and sharing cell
  @ DRIVER MODE: Reading and sharing positions
  @ DRIVER MODE: Received positions

     Self-consistent Calculation

     iteration #  1     ecut=    29.40 Ry     beta= 0.05
     Davidson diagonalization with overlap
     c_bands:  3 eigenvalues not converged
     c_bands:  3 eigenvalues not converged
     c_bands:  1 eigenvalues not converged
     c_bands:  5 eigenvalues not converged
     c_bands:  5 eigenvalues not converged
     c_bands:  5 eigenvalues not converged
     c_bands:  1 eigenvalues not converged
     c_bands:  4 eigenvalues not converged
     c_bands:  3 eigenvalues not converged
     ethr =  1.00E-05,  avg # of iterations = 20.0

[...]

     total energy              =   -2442.75351441 Ry
     estimated scf accuracy    <    5591.60493103 Ry

     iteration #  2     ecut=    29.40 Ry     beta= 0.05
     Davidson diagonalization with overlap
     ethr =  1.00E-02,  avg # of iterations = 25.2

[...]

     iteration # 86     ecut=    29.40 Ry     beta= 0.05
     Davidson diagonalization with overlap
     c_bands:  1 eigenvalues not converged
     ethr =  5.52E-11,  avg # of iterations = 12.0

[...]

     total energy              =   -2942.82508653 Ry
     estimated scf accuracy    <       0.00000012 Ry

     iteration # 88     ecut=    29.40 Ry     beta= 0.05
     Davidson diagonalization with overlap
     ethr =  3.09E-11,  avg # of iterations = 11.9

     negative rho (up, down):  1.411E-02 0.000E+00

     Adding external electric field

     Computed dipole along edir(3) :
        Dipole                1.6006 Ry au,          4.0684 Debye
        Dipole field          0.0030 Ry au,

        Potential amp.       -0.2800 Ry
        Total length         46.3494 bohr

     End of self-consistent calculation

          k = 0.0000 0.0000 0.0000 ( 18029 PWs)   bands (ev):

   -55.1450 -55.1084 -55.1063 -55.0722 -55.0273 -55.0122 -54.9894 -54.9464
   -54.9339 -54.9258 -54.9112 -54.9010 -54.8653 -54.7937 -54.1184 -54.0844
   -31.7248 -31.5960 -31.5137 -31.4819 -31.4372 -31.4363 -31.4341 -31.4037
   -31.3997 -31.3962 -31.3696 -31.3547 -31.3512 -31.3226 -31.3048 -31.2796
   -31.2630 -31.2591 -31.2488 -31.2437 -31.2176 -31.2115 -31.2045 -31.1778
   -31.1633 -31.1567 -31.1494 -31.1419 -31.1418 -31.1307 -31.1285 -31.1223
   -31.1053 -31.0965 -31.0908 -31.0644 -31.0617 -31.0497 -31.0426 -31.0364
   -31.0254 -30.9834 -30.5269 -30.4350 -30.4128 -30.3435 -30.2568 -30.1458
   -18.9222 -16.0086 -15.7534 -15.6186 -15.3841 -15.3322 -15.2757 -15.0679
   -15.0667 -14.9944 -14.9797 -14.9314 -14.9119 -14.8447 -14.7601 -14.7390
   -14.6716 -14.6700 -14.6399 -14.6286 -14.6280 -14.5653 -14.5554 -14.5261
   -14.5131 -14.4877 -14.3696 -14.2853 -14.2269 -13.9738 -13.5931 -12.6209
   -12.5038  -9.7438  -7.6907  -7.2048  -5.4590  -3.8117  -3.3462  -3.2766
    -3.1701  -3.1425  -3.0655  -3.0362  -2.8513  -2.8299  -2.4887  -2.4509
    -2.4026  -2.3845  -2.3629  -2.3457  -2.1771  -2.1516  -2.0789  -2.0451
    -2.0267  -1.9867  -1.9704  -1.9602  -1.9265  -1.9208  -1.9118  -1.7046
    -1.6481  -1.5529  -1.5306  -1.5047  -1.4716  -1.4353  -1.4271  -1.4239
    -1.4181  -1.4044  -1.3914  -1.3116  -1.2513  -1.1723  -1.1626  -1.1270
    -1.0235  -0.9759  -0.7752  -0.7617  -0.7164  -0.6743  -0.6115  -0.5899
    -0.5238  -0.4930  -0.4727  -0.3517  -0.3231  -0.2828  -0.2547  -0.1880
    -0.1562  -0.1125  -0.0268   0.0436   0.0784   0.0968   0.1568   0.2869
     0.2977   0.3268   0.3880   0.4513   0.4925   0.5126   0.5311   0.5682
     0.6173   0.7428   0.7878   0.8073   0.8116   0.8456   0.8689   0.9201
     0.9449   1.0043   1.0099   1.1291   1.1982   1.4279   1.4617   1.4843
     1.8165   1.8400   1.9042   2.0902   2.4783   2.5255   3.9596   4.0202
     4.0772   4.0938   4.1127   4.2014   4.2184   4.4224   4.4497   4.4536
     4.4565

[...]

          k = 0.0380-0.0419 0.0000 ( 17876 PWs)   bands (ev):

[...]

          k =-0.0760-0.0000 0.0000 ( 17886 PWs)   bands (ev):

[...]

          k =-0.0760-0.0839 0.0000 ( 17948 PWs)   bands (ev):

   -55.1294 -55.1237 -55.0893 -55.0890 -55.0165 -55.0087 -55.0001 -54.9303
   -54.9291 -54.9261 -54.9186 -54.9171 -54.8616 -54.7973 -54.1014 -54.1012
   -31.5285 -31.5257 -31.4487 -31.4270 -31.4113 -31.4110 -31.3817 -31.3816
   -31.3557 -31.3503 -31.3474 -31.3469 -31.3119 -31.2779 -31.2712 -31.2670
   -31.2655 -31.2614 -31.2596 -31.2531 -31.2223 -31.2184 -31.2159 -31.2130
   -31.2087 -31.2085 -31.1948 -31.1928 -31.1650 -31.1602 -31.1449 -31.1407
   -31.1384 -31.1378 -31.1360 -31.1282 -31.1033 -31.0996 -31.0968 -31.0737
   -31.0481 -31.0307 -30.4255 -30.4254 -30.3396 -30.3394 -30.3002 -30.3002
   -18.9174 -15.5155 -15.4058 -15.2970 -15.2318 -15.1899 -15.1380 -15.1210
   -15.1107 -15.0648 -15.0350 -14.9661 -14.9023 -14.8495 -14.8485 -14.8135
   -14.7354 -14.7215 -14.7145 -14.7039 -14.6474 -14.6407 -14.6092 -14.5883
   -14.5852 -14.5553 -14.4816 -14.4792 -14.3915 -14.1819 -13.6290 -12.6054
   -12.6053  -9.7127  -7.6863  -7.1521  -5.4623  -3.8338  -3.4305  -2.7645
    -2.6535  -2.4427  -2.4167  -2.3570  -2.3365  -2.2511  -2.1904  -2.1689
    -2.1457  -2.1117  -2.1088  -2.0844  -2.0629  -2.0089  -1.9803  -1.9694
    -1.9633  -1.9484  -1.9359  -1.9153  -1.8590  -1.8490  -1.8417  -1.7993
    -1.7882  -1.7566  -1.7503  -1.7115  -1.6945  -1.6185  -1.5259  -1.5013
    -1.4416  -1.3405  -1.3274  -1.3217  -1.2282  -1.2199  -1.1905  -1.1597
    -1.1041  -1.0047  -0.9497  -0.8746  -0.8713  -0.8408  -0.7534  -0.6904
    -0.6565  -0.6463  -0.6068  -0.5497  -0.5266  -0.4940  -0.4109  -0.3696
    -0.3423  -0.3080  -0.2132  -0.1519  -0.1287  -0.0978  -0.0944  -0.0049
     0.0281   0.0649   0.0855   0.1239   0.1504   0.2180   0.2380   0.3479
     0.4182   0.4486   0.5673   0.5910   0.6553   0.7874   0.8586   0.8998
     0.9536   1.0104   1.0372   1.1675   1.1747   1.2003   1.2932   1.3335
     1.3404   1.3535   2.2630   2.2641   2.3456   2.3457   4.0917   4.1784
     4.2215   4.2591   4.3669   4.4760   4.4947   4.5377   4.5382   4.6137
     4.6199

     the Fermi energy is     4.0119 ev

!    total energy              =   -2942.82509229 Ry
     estimated scf accuracy    <       0.00000004 Ry
     smearing contrib. (-TS)   =      -0.03687306 Ry
     internal energy E=F+TS    =   -2942.78821923 Ry

     The total energy is F=E-TS. E is the sum of the following terms:
     one-electron contribution =  -23971.98819259 Ry
     hartree contribution      =   12081.46566282 Ry
     xc contribution           =    -487.76747936 Ry
     ewald contribution        =    9435.49695502 Ry
     electric field correction =       0.00483488 Ry

     convergence has been achieved in  88 iterations

     Forces acting on atoms (cartesian axes, Ry/au):

     atom    1 type  1   force =     0.00014833   -0.00023536    0.09425543
     atom    2 type  1   force =    -0.00009827   -0.00033687   -0.17742131
     atom    3 type  2   force =     0.00005601   -0.00016966   -0.02135164
     atom    4 type  2   force =    -0.00001653   -0.00172472    0.05657698
     atom    5 type  2   force =    -0.01055101   -0.00127385    0.00624473
     atom    6 type  2   force =     0.01221459   -0.00073874    0.00571541
     atom    7 type  1   force =    -0.00033799    0.00172577   -0.01620888
     atom    8 type  1   force =    -0.00010332    0.00438396    0.00560632
     atom    9 type  2   force =     0.00000662   -0.00003594   -0.00003325
     atom   10 type  2   force =    -0.00074469   -0.00022223   -0.00045957
     atom   11 type  2   force =     0.00035468    0.00013466   -0.00019789
     atom   12 type  2   force =    -0.00053369    0.00001567   -0.00013110
     atom   13 type  1   force =     0.00003151   -0.00033648    0.00020533
     atom   14 type  1   force =     0.00056673    0.00011660   -0.00029882
     atom   15 type  2   force =    -0.00039830    0.00022304   -0.00027173
     atom   16 type  2   force =    -0.00033854    0.00020245   -0.00009065
     atom   17 type  2   force =    -0.00029488    0.00005490    0.00030895
     atom   18 type  2   force =     0.00021748    0.00029997   -0.00019854
     atom   19 type  1   force =     0.00019463    0.00013428    0.00016173
     atom   20 type  1   force =     0.00009493    0.00040384   -0.00006929
     atom   21 type  2   force =     0.00003617    0.00003904    0.10362797
     atom   22 type  2   force =    -0.00001428   -0.00068510   -0.00063803
     atom   23 type  2   force =    -0.07081801   -0.00010365   -0.02720234
     atom   24 type  2   force =     0.07068458    0.00033841   -0.02723594
     atom   25 type  1   force =    -0.00009185   -0.00020588    0.09372308
     atom   26 type  1   force =    -0.00013634   -0.00031277   -0.17732922
     atom   27 type  2   force =     0.00008927   -0.00034728   -0.02045592
     atom   28 type  2   force =     0.00003199   -0.00143979    0.05589239
     atom   29 type  2   force =    -0.01091137   -0.00073402    0.00609421
     atom   30 type  2   force =     0.01246317   -0.00029176    0.00557365
     atom   31 type  1   force =    -0.00016214    0.00464583   -0.01718565
     atom   32 type  1   force =    -0.00002735   -0.00482511    0.00560254
     atom   33 type  2   force =     0.00005843    0.00011657    0.00028054
     atom   34 type  2   force =     0.00005874   -0.00084907   -0.00297512
     atom   35 type  2   force =     0.00023744    0.00002020    0.00007048
     atom   36 type  2   force =    -0.00043576    0.00014207   -0.00007365
     atom   37 type  1   force =    -0.00013133   -0.00011847   -0.00009119
     atom   38 type  1   force =     0.00044307   -0.00028627    0.00040505
     atom   39 type  2   force =    -0.00044620    0.00011353    0.00061985
     atom   40 type  2   force =    -0.00012211    0.00018146   -0.00024073
     atom   41 type  2   force =    -0.00011943    0.00040263   -0.00019309
     atom   42 type  2   force =    -0.00001555    0.00022346   -0.00013053
     atom   43 type  1   force =    -0.00037058    0.00050602    0.00012749
     atom   44 type  1   force =    -0.00029187    0.00037863   -0.00002486
     atom   45 type  2   force =     0.00002588    0.00000766    0.10363491
     atom   46 type  2   force =    -0.07082215   -0.00003806   -0.02719865
     atom   47 type  2   force =     0.07068619    0.00037830   -0.02719781
     atom   48 type  3   force =    -0.00061113   -0.00138228    0.00079979
     atom   49 type  4   force =    -0.00018749    0.00005867   -0.00030502
     atom   50 type  5   force =     0.00003414   -0.00002565    0.00003659
     atom   51 type  5   force =    -0.00023667   -0.00023011   -0.00007334
     atom   52 type  5   force =    -0.00032142    0.00000185    0.00013348
     atom   53 type  3   force =    -0.00317339   -0.00266099    0.00257871
     atom   54 type  5   force =     0.00002054   -0.00018087   -0.00004772
     atom   55 type  5   force =     0.00053471    0.00050781   -0.00049285
     atom   56 type  5   force =     0.00357380    0.00403369   -0.00245125

     Total force =     0.365658     Total SCF correction =     0.000524
  @ DRIVER MODE: Message from server: STATUS
  @ DRIVER MODE: Message from server: GETFORCE
  @ DRIVER MODE: Returning v,forces,stress,ensemble

     Writing output data file ./calc.save/
  @ DRIVER MODE: Message from server: EXIT
  @ DRIVE MODE: Exiting

     General routines

     Parallel routines

   This run was terminated on:   1:49:57   3Aug2021

   JOB DONE.