     Program PWSCF v.6.7GPU starts on 10Sep2021 at  8:49:16

     R & G space division:  proc/nbgrp/npool/nimage =      10
     Reading input from /storage/home/hcoda1/3/ntian30/research/carbon/CxH_vib/CH3_calc/ads_slab/CH3N2H2O_e/out_0035/pw.inp
Warning: card &CELL ignored
Warning: card   CELL_DYNAMICS='IPI', ignored
Warning: card / ignored

     Current dimensions of program PWSCF are:
     Max number of different atomic species (ntypx) = 10
     Max number of k-points (npk) =  40000
     Max angular momentum in pseudopotentials (lmaxx) =  3
     Presently no symmetry can be used with electric field

     Message from routine cell_base_init:
     DEPRECATED: use true lattice parameter, not A to a.u. conversion factor

     IMPORTANT: XC functional enforced from input :
     Exchange-correlation= BEEF-VDW
                           (   1   4  43  14   2   0   0)
     Any further DFT definition will be discarded
     Please, verify this is what you really want

  @ DRIVER MODE: Connecting to
 qe_1139763_2779715.sched-torque.pace.gatech.eduddm041vm_scratch
  using UNIX socket
  @ DRIVER MODE: Message from server: STATUS
  @ DRIVER MODE: Message from server: INIT
  @ DRIVER MODE: Receiving replica           0          -1
  @ DRIVER MODE: Receiving encoded integer          25
  @ DRIVER MODE:  SCF:  T  FORCE:  T  STRESS:  F  VC:  F  ENSEMBLE:  F
  @ DRIVER MODE:  SCF:  T  FORCE:  T  STRESS:  F  VC:  F  ENSEMBLE:  F

     Using Slab Decomposition

     bravais-lattice index     =            0
     lattice parameter (alat)  =       1.8897  a.u.
     unit-cell volume          =    6658.9804 (a.u.)^3
     number of atoms/cell      =           56
     number of atomic types    =            5
     number of electrons       =       403.00
     number of Kohn-Sham states=          211
     kinetic-energy cutoff     =      29.3995  Ry
     charge density cutoff     =     293.9946  Ry
     scf convergence threshold =      7.3E-08
     mixing beta               =       0.0500
     number of iterations used =            8  plain     mixing
     Exchange-correlation= BEEF-VDW
                           (   1   4  43  14   2   0   0)

     celldm(1)=   1.889726  celldm(2)=   0.000000  celldm(3)=   0.000000
     celldm(4)=   0.000000  celldm(5)=   0.000000  celldm(6)=   0.000000

     crystal axes: (cart. coord. in units of alat)
               a(1) = (   6.579727   0.000000   0.000000 )
               a(2) = (  -0.000775   5.961596   0.000000 )
               a(3) = (   0.000000   0.000000  25.155947 )

     reciprocal axes: (cart. coord. in units 2 pi/alat)
               b(1) = (  0.151982  0.000020  0.000000 )
               b(2) = (  0.000000  0.167740  0.000000 )
               b(3) = (  0.000000  0.000000  0.039752 )

     PseudoPot. # 1 for Ti read from file:
     /storage/coda1/p-amedford6/0/shared/rich_project_chbe-medford/medford-share/data/pseudos_module/espresso/nninc/pbe/van/Ti.UPF
     MD5 check sum: 8e4df49b7f0d34bbd5052bf3f5ea0213
     Pseudo is Ultrasoft, Zval = 12.0
     Generated by new atomic code, or converted to UPF format
     Using radial grid of  851 points,  6 beta functions with:
                l(1) =   0
                l(2) =   0
                l(3) =   1
                l(4) =   1
                l(5) =   2
                l(6) =   2
     Q(r) pseudized with  8 coefficients,  rinner =    1.000   1.000   1.000
                                                       1.000   1.000

     PseudoPot. # 2 for O  read from file:
     /storage/coda1/p-amedford6/0/shared/rich_project_chbe-medford/medford-share/data/pseudos_module/espresso/nninc/pbe/van/O.UPF
     MD5 check sum: 78c19812648e8988a0fe644b0f25305e
     Pseudo is Ultrasoft, Zval =  6.0
     Generated by new atomic code, or converted to UPF format
     Using radial grid of  737 points,  4 beta functions with:
                l(1) =   0
                l(2) =   0
                l(3) =   1
                l(4) =   1
     Q(r) pseudized with  8 coefficients,  rinner =    0.800   0.800   0.800

     PseudoPot. # 3 for N  read from file:
     /storage/coda1/p-amedford6/0/shared/rich_project_chbe-medford/medford-share/data/pseudos_module/espresso/nninc/pbe/van/N.UPF
     MD5 check sum: 90d10febe142ad51ac9d5be1deb811c4
     Pseudo is Ultrasoft, Zval =  5.0
     Generated by new atomic code, or converted to UPF format
     Using radial grid of  729 points,  4 beta functions with:
                l(1) =   0
                l(2) =   0
                l(3) =   1
                l(4) =   1
     Q(r) pseudized with  8 coefficients,  rinner =    0.800   0.800   0.800

     PseudoPot. # 4 for C  read from file:
     /storage/coda1/p-amedford6/0/shared/rich_project_chbe-medford/medford-share/data/pseudos_module/espresso/nninc/pbe/van/C.UPF
     MD5 check sum: 1a69bf6b8db32088f5b2163dbdb77a27
     Pseudo is Ultrasoft, Zval =  4.0
     Generated by new atomic code, or converted to UPF format
     Using radial grid of  721 points,  4 beta functions with:
                l(1) =   0
                l(2) =   0
                l(3) =   1
                l(4) =   1
     Q(r) pseudized with  8 coefficients,  rinner =    0.800   0.800   0.800

     PseudoPot. # 5 for H  read from file:
     /storage/coda1/p-amedford6/0/shared/rich_project_chbe-medford/medford-share/data/pseudos_module/espresso/nninc/pbe/van/H.UPF
     MD5 check sum: b5ee9d7bfd3a09ee7748110bda690ff7
     Pseudo is Ultrasoft, Zval =  1.0
     Generated by new atomic code, or converted to UPF format
     Using radial grid of  615 points,  1 beta functions with:
                l(1) =   0
     Q(r) pseudized with  8 coefficients,  rinner =    0.800

     atomic species   valence    mass     pseudopotential
        Ti1           12.00    47.86700     Ti( 1.00)
        O1             6.00    15.99900     O ( 1.00)
        N1             5.00    14.00700     N ( 1.00)
        C1             4.00    12.01100     C ( 1.00)
        H1             1.00     1.00800     H ( 1.00)

     No symmetry found

   Cartesian axes

     site n.     atom                  positions (alat units)
         1           Ti1 tau(   1) = (   0.0004258   2.9801865   6.0000000  )
         2           Ti1 tau(   2) = (   3.2906075   1.4906267   6.0002472  )
         3           O1  tau(   3) = (   0.0006271   0.0005054   7.9858123  )
         4           O1  tau(   4) = (   3.2906025   0.0005020   7.3038282  )
         5           O1  tau(   5) = (   4.5942328   1.4918067   9.2879030  )
         6           O1  tau(   6) = (   1.9868534   1.4903216   9.2879459  )
         7           Ti1 tau(   7) = (   3.2907910   2.8959150   9.1758416  )
         8           Ti1 tau(   8) = (   0.0015273   1.4827037   9.2680791  )
         9           O1  tau(   9) = (   3.2823942   0.0140684  11.3428430  )
        10           O1  tau(  10) = (   0.0116148   5.9584955  10.6183126  )
        11           O1  tau(  11) = (   1.2742013   1.4978990  12.6323156  )
        12           O1  tau(  12) = (   5.2614901   1.5083079  12.6129891  )
        13           Ti1 tau(  13) = (   0.0550148   2.9595524  12.6160221  )
        14           Ti1 tau(  14) = (   3.3718896   1.5084997  12.4944496  )
        15           O1  tau(  15) = (   6.5380961   0.0278828  14.6255036  )
        16           O1  tau(  16) = (   3.2758616   0.0189586  13.9121306  )
        17           O1  tau(  17) = (   4.4976875   1.5333668  16.0433440  )
        18           O1  tau(  18) = (   1.9922867   1.5271532  16.0291573  )
        19           Ti1 tau(  19) = (   3.1858679   3.0241111  15.7732818  )
        20           Ti1 tau(  20) = (   6.4842391   1.5502874  15.8011710  )
        21           O1  tau(  21) = (   3.2904802   0.0005063   4.7018136  )
        22           O1  tau(  22) = (   6.5196731   0.0665875  17.1891134  )
        23           O1  tau(  23) = (   1.3043587   1.4918075   6.0039043  )
        24           O1  tau(  24) = (   5.2767064   1.4903225   6.0039473  )
        25           Ti1 tau(  25) = (   0.0000382   5.9609847   6.0000000  )
        26           Ti1 tau(  26) = (   3.2902200   4.4714249   6.0002472  )
        27           O1  tau(  27) = (   0.0002396   2.9813036   7.9858123  )
        28           O1  tau(  28) = (   3.2902150   2.9813002   7.3038282  )
        29           O1  tau(  29) = (   4.5938453   4.4726049   9.2879030  )
        30           O1  tau(  30) = (   1.9864658   4.4711199   9.2879459  )
        31           Ti1 tau(  31) = (   3.2891106   5.8743827   9.1763621  )
        32           Ti1 tau(  32) = (   0.0006254   4.4649316   9.2693709  )
        33           O1  tau(  33) = (   3.2807012   2.9937711  11.3380227  )
        34           O1  tau(  34) = (   0.0092240   2.9805883  10.6323155  )
        35           O1  tau(  35) = (   1.2734598   4.4826339  12.6318047  )
        36           O1  tau(  36) = (   5.2665626   4.4910389  12.6093644  )
        37           Ti1 tau(  37) = (   0.0550181   5.9329888  12.5453996  )
        38           Ti1 tau(  38) = (   3.3741151   4.4737790  12.4977360  )
        39           O1  tau(  39) = (   6.5373474   2.9946220  14.6524478  )
        40           O1  tau(  40) = (   3.2677173   3.0168568  13.9399215  )
        41           O1  tau(  41) = (   4.4884636   4.5316779  16.1079578  )
        42           O1  tau(  42) = (   1.9830865   4.5332738  16.0531499  )
        43           Ti1 tau(  43) = (   3.2469912   0.0413792  15.7000251  )
        44           Ti1 tau(  44) = (   6.5198411   4.7064707  16.0702691  )
        45           O1  tau(  45) = (   3.2900926   2.9813045   4.7018136  )
        46           O1  tau(  46) = (   1.3039711   4.4726057   6.0039043  )
        47           O1  tau(  47) = (   5.2763189   4.4711207   6.0039473  )
        48           N1  tau(  48) = (   0.0943371   2.6987919  18.6315974  )
        49           N1  tau(  49) = (   6.5718678   2.9345059  17.4339123  )
        50           C1  tau(  50) = (   0.1779456   3.8407003  19.5793842  )
        51           H1  tau(  51) = (   6.4148796   4.7858965  19.1557567  )
        52           H1  tau(  52) = (   6.1971438   3.5603257  20.4715321  )
        53           H1  tau(  53) = (   1.2306852   3.9282498  19.8456806  )
        54           O1  tau(  54) = (   3.3096034   3.0730741  18.2289406  )
        55           H1  tau(  55) = (   4.0988663   3.6297178  18.3192648  )
        56           H1  tau(  56) = (   3.5789210   2.1977314  18.5501991  )

     number of k points=    10  Fermi-Dirac smearing, width (Ry)=  0.0073
                       cart. coord. in units 2pi/alat
        k(    1) = (   0.0000000   0.0000000   0.0000000), wk =   0.1250000
        k(    2) = (   0.0000000   0.0419351   0.0000000), wk =   0.2500000
        k(    3) = (   0.0000000  -0.0838702   0.0000000), wk =   0.1250000
        k(    4) = (   0.0379955   0.0000049   0.0000000), wk =   0.2500000
        k(    5) = (   0.0379955   0.0419400   0.0000000), wk =   0.2500000
        k(    6) = (   0.0379955  -0.0838652   0.0000000), wk =   0.2500000
        k(    7) = (   0.0379955  -0.0419301   0.0000000), wk =   0.2500000
        k(    8) = (  -0.0759910  -0.0000099   0.0000000), wk =   0.1250000
        k(    9) = (  -0.0759910   0.0419252   0.0000000), wk =   0.2500000
        k(   10) = (  -0.0759910  -0.0838800   0.0000000), wk =   0.1250000

     Initial potential from superposition of free atoms

     starting charge  386.99914, renormalised to  403.00000

     negative rho (up, down):  1.478E-02 0.000E+00

     %%%%%%%%%%%%%%%%%%%%%%%%%%%%%%%%%%%%%%%%%%%%%%%%%%%%%%%%%%%%%%%%%%%%%%%%
     %                                                                      %
     % You are using vdW-DF, which was implemented by the Thonhauser group. %
     % Please cite the following two papers that made this development      %
     % possible and the two reviews that describe the various versions:     %
     %                                                                      %
     %   T. Thonhauser et al., PRL 115, 136402 (2015).                      %
     %   T. Thonhauser et al., PRB 76, 125112 (2007).                       %
     %   K. Berland et al., Rep. Prog. Phys. 78, 066501 (2015).             %
     %   D.C. Langreth et al., J. Phys.: Condens. Matter 21, 084203 (2009). %
     %                                                                      %
     %                                                                      %
     % If you are calculating the stress with vdW-DF, please also cite:     %
     %                                                                      %
     %   R. Sabatini et al., J. Phys.: Condens. Matter 24, 424209 (2012).   %
     %                                                                      %
     %%%%%%%%%%%%%%%%%%%%%%%%%%%%%%%%%%%%%%%%%%%%%%%%%%%%%%%%%%%%%%%%%%%%%%%%

     Adding external electric field

     Computed dipole along edir(3) :
        Dipole              -13.2292 Ry au,        -33.6254 Debye
        Dipole field         -0.0250 Ry au,

        Potential amp.        2.3143 Ry
        Total length         46.3494 bohr

     Starting wfcs are  305 atomic wfcs
  @ DRIVER MODE: Message from server: STATUS
  @ DRIVER MODE: Message from server: POSDATA
  @ DRIVER MODE: Reading and sharing cell
  @ DRIVER MODE: Reading and sharing positions
  @ DRIVER MODE: Received positions

     Self-consistent Calculation

     iteration #  1     ecut=    29.40 Ry     beta= 0.05
     Davidson diagonalization with overlap
     c_bands:  5 eigenvalues not converged
     c_bands:  2 eigenvalues not converged
     c_bands:  5 eigenvalues not converged
     c_bands:  5 eigenvalues not converged
     c_bands:  1 eigenvalues not converged
     c_bands:  1 eigenvalues not converged
     c_bands:  4 eigenvalues not converged
     c_bands:  2 eigenvalues not converged
     c_bands:  3 eigenvalues not converged
     ethr =  1.00E-05,  avg # of iterations = 26.9

[...]

     total energy              =   -2368.07615477 Ry
     estimated scf accuracy    <    6912.90365760 Ry

     iteration #  2     ecut=    29.40 Ry     beta= 0.05
     Davidson diagonalization with overlap
     ethr =  1.00E-02,  avg # of iterations = 23.6

[...]

     iteration # 56     ecut=    29.40 Ry     beta= 0.05
     Davidson diagonalization with overlap
     c_bands:  1 eigenvalues not converged
     ethr =  3.09E-11,  avg # of iterations = 15.4

[...]

     total energy              =   -2973.98639495 Ry
     estimated scf accuracy    <       0.00000015 Ry

     iteration # 57     ecut=    29.40 Ry     beta= 0.05
     Davidson diagonalization with overlap
     ethr =  3.09E-11,  avg # of iterations = 12.2

     negative rho (up, down):  1.505E-02 0.000E+00

     Adding external electric field

     Computed dipole along edir(3) :
        Dipole                0.9047 Ry au,          2.2994 Debye
        Dipole field          0.0017 Ry au,

        Potential amp.       -0.1583 Ry
        Total length         46.3494 bohr

     End of self-consistent calculation

          k = 0.0000 0.0000 0.0000 ( 18029 PWs)   bands (ev):

   -55.6039 -55.5698 -55.5679 -55.5321 -55.4998 -55.4494 -55.4395 -55.4152
   -55.4030 -55.3812 -55.3797 -55.3457 -55.0096 -54.8382 -54.5833 -54.5492
   -32.1128 -32.0865 -31.9600 -31.9435 -31.9137 -31.8968 -31.8821 -31.8694
   -31.8471 -31.8071 -31.7993 -31.7687 -31.7562 -31.7467 -31.7384 -31.7281
   -31.7084 -31.6989 -31.6966 -31.6611 -31.6571 -31.6467 -31.6339 -31.6081
   -31.6036 -31.5990 -31.5937 -31.5868 -31.5791 -31.5699 -31.5551 -31.5550
   -31.5461 -31.5325 -31.5218 -31.5098 -31.4914 -31.2867 -31.2003 -31.0987
   -31.0938 -31.0571 -30.9905 -30.9019 -30.8795 -30.8072 -30.7207 -30.6097
   -19.0423 -18.3027 -16.3185 -16.0775 -15.8756 -15.7604 -15.7196 -15.5270
   -15.4290 -15.3305 -15.2336 -15.1654 -15.1421 -15.1350 -15.1311 -15.1054
   -15.0807 -15.0688 -15.0475 -15.0310 -15.0163 -14.9564 -14.9429 -14.9339
   -14.8444 -14.7897 -14.7551 -14.7361 -14.6786 -14.6599 -14.1786 -13.0857
   -12.9692 -11.2937  -6.8787  -6.7279  -4.1962  -4.0721  -3.7966  -3.6889
    -3.5571  -3.5097  -3.4492  -3.4187  -3.2215  -3.1028  -3.0320  -2.8443
    -2.7871  -2.7595  -2.7299  -2.6589  -2.5224  -2.4720  -2.4212  -2.4144
    -2.4026  -2.3711  -2.3663  -2.3454  -2.2461  -2.2424  -2.1923  -2.1508
    -2.0817  -2.0021  -1.9830  -1.9358  -1.9168  -1.9049  -1.8766  -1.8535
    -1.8426  -1.8076  -1.7954  -1.7225  -1.6181  -1.5499  -1.5024  -1.4626
    -1.3985  -1.3855  -1.2185  -1.1540  -1.1084  -1.0724  -1.0533  -1.0328
    -0.9991  -0.9916  -0.8824  -0.7582  -0.7541  -0.6742  -0.6138  -0.5358
    -0.5274  -0.4497  -0.3928  -0.3745  -0.3620  -0.3510  -0.3225  -0.2491
    -0.1037  -0.0604  -0.0359  -0.0005   0.0287   0.0945   0.1379   0.2073
     0.2423   0.2834   0.3185   0.3424   0.3667   0.3744   0.3896   0.4016
     0.4210   0.6033   0.6634   0.6847   0.7496   0.7789   0.9220   0.9883
     1.0526   1.1591   1.3641   1.4389   1.5296   1.6310   2.0103   2.0560
     2.7721   3.5303   3.6152   3.6620   3.7040   3.7766   3.7942   3.9667
     3.9857   4.0286   4.1180

[...]

          k = 0.0380-0.0419 0.0000 ( 17876 PWs)   bands (ev):

[...]

          k =-0.0760-0.0000 0.0000 ( 17886 PWs)   bands (ev):

[...]

          k =-0.0760-0.0839 0.0000 ( 17948 PWs)   bands (ev):

   -55.5873 -55.5863 -55.5510 -55.5488 -55.4930 -55.4561 -55.4272 -55.4154
   -55.3988 -55.3970 -55.3655 -55.3601 -55.0080 -54.8397 -54.5663 -54.5661
   -31.9269 -31.9115 -31.9022 -31.9014 -31.8826 -31.8817 -31.8518 -31.8175
   -31.7951 -31.7913 -31.7823 -31.7622 -31.7593 -31.7404 -31.7188 -31.7142
   -31.7123 -31.7076 -31.7069 -31.7058 -31.7052 -31.7029 -31.6986 -31.6594
   -31.6481 -31.6349 -31.6248 -31.6112 -31.5984 -31.5977 -31.5958 -31.5883
   -31.5795 -31.5759 -31.5690 -31.5655 -31.4273 -31.2885 -31.2058 -31.1547
   -31.0999 -31.0832 -30.8923 -30.8921 -30.8033 -30.8032 -30.7640 -30.7640
   -19.0374 -18.3044 -15.7650 -15.6830 -15.5606 -15.5221 -15.4784 -15.4347
   -15.4146 -15.3217 -15.3018 -15.2925 -15.2412 -15.2271 -15.2041 -15.1605
   -15.1383 -15.1290 -15.1249 -15.0892 -15.0607 -15.0440 -15.0406 -15.0348
   -14.9726 -14.9236 -14.9216 -14.9167 -14.7900 -14.6611 -14.3573 -13.0711
   -13.0710 -11.2913  -6.8792  -6.7416  -4.1255  -3.8814  -3.7759  -3.2842
    -3.0498  -2.8888  -2.8184  -2.7281  -2.6987  -2.6913  -2.5478  -2.5153
    -2.4856  -2.4380  -2.4332  -2.4293  -2.4222  -2.4066  -2.4000  -2.3838
    -2.3317  -2.3193  -2.2945  -2.2823  -2.2740  -2.2565  -2.2347  -2.2245
    -2.2026  -2.1685  -2.1542  -2.1189  -2.1126  -2.0221  -1.8366  -1.8273
    -1.7800  -1.7465  -1.7324  -1.7071  -1.6703  -1.6567  -1.6488  -1.5970
    -1.4722  -1.4328  -1.3442  -1.2965  -1.2794  -1.2280  -1.1630  -1.1390
    -1.0691  -1.0245  -0.9878  -0.9659  -0.9427  -0.7982  -0.7858  -0.7322
    -0.7191  -0.6820  -0.6347  -0.5763  -0.5639  -0.5537  -0.5369  -0.5038
    -0.4355  -0.3661  -0.3543  -0.3262  -0.2751  -0.2586  -0.2153  -0.1271
    -0.1073  -0.0709   0.0271   0.1291   0.2206   0.3555   0.4412   0.4646
     0.5207   0.5979   0.6959   0.7056   0.7141   0.7502   0.7740   0.8341
     0.9279   0.9479   0.9748   1.0975   1.8024   1.8031   1.8756   1.8758
     2.8132   3.7914   3.8510   3.8966   3.9157   4.0083   4.0414   4.0633
     4.0659   4.1129   4.2027

     the Fermi energy is     3.5294 ev

!    total energy              =   -2973.98646390 Ry
     estimated scf accuracy    <       0.00000004 Ry
     smearing contrib. (-TS)   =      -0.02191982 Ry
     internal energy E=F+TS    =   -2973.96454408 Ry

     The total energy is F=E-TS. E is the sum of the following terms:
     one-electron contribution =  -23875.75321724 Ry
     hartree contribution      =   12032.33153137 Ry
     xc contribution           =    -494.08476845 Ry
     ewald contribution        =    9363.54036577 Ry
     electric field correction =       0.00154447 Ry

     convergence has been achieved in  57 iterations

     Forces acting on atoms (cartesian axes, Ry/au):

     atom    1 type  1   force =     0.00005988   -0.00016597    0.09643888
     atom    2 type  1   force =    -0.00015759   -0.00063669   -0.17545941
     atom    3 type  2   force =    -0.00003586    0.00001865   -0.02463979
     atom    4 type  2   force =     0.00005881   -0.00136721    0.05308792
     atom    5 type  2   force =    -0.01208876    0.00003780    0.00386180
     atom    6 type  2   force =     0.01330843    0.00071410    0.00207088
     atom    7 type  1   force =    -0.00148479    0.00065084   -0.01047235
     atom    8 type  1   force =     0.00072603    0.00970952    0.02661592
     atom    9 type  2   force =    -0.00040396    0.00008745   -0.00031227
     atom   10 type  2   force =    -0.00180967    0.00306508   -0.01772545
     atom   11 type  2   force =    -0.00014925   -0.00023789    0.00011639
     atom   12 type  2   force =    -0.00017577   -0.00029511   -0.00030520
     atom   13 type  1   force =    -0.00021039   -0.00020040   -0.00009703
     atom   14 type  1   force =    -0.00035854   -0.00019336   -0.00036074
     atom   15 type  2   force =     0.00003825   -0.00090798    0.00025190
     atom   16 type  2   force =     0.00005907    0.00015280   -0.00001622
     atom   17 type  2   force =    -0.00004473   -0.00056651    0.00022303
     atom   18 type  2   force =     0.00025943   -0.00041947    0.00037986
     atom   19 type  1   force =     0.00041645   -0.00022229   -0.00013707
     atom   20 type  1   force =     0.00031297   -0.00066789    0.00014111
     atom   21 type  2   force =     0.00008613   -0.00004740    0.10323537
     atom   22 type  2   force =     0.00054294   -0.00047649   -0.00028622
     atom   23 type  2   force =    -0.07149145   -0.00008484   -0.02775830
     atom   24 type  2   force =     0.07142750    0.00030033   -0.02775801
     atom   25 type  1   force =     0.00006789   -0.00029100    0.09592120
     atom   26 type  1   force =    -0.00025556   -0.00022904   -0.17574505
     atom   27 type  2   force =     0.00007119   -0.00008989   -0.02365898
     atom   28 type  2   force =     0.00006247   -0.00118978    0.05336964
     atom   29 type  2   force =    -0.01232901    0.00062034    0.00389880
     atom   30 type  2   force =     0.01348374    0.00110293    0.00207023
     atom   31 type  1   force =    -0.00130152    0.00372785   -0.00845299
     atom   32 type  1   force =     0.00085297   -0.01165806    0.02705168
     atom   33 type  2   force =    -0.00002132    0.00013207   -0.00009637
     atom   34 type  2   force =    -0.00128212    0.00168828   -0.02364423
     atom   35 type  2   force =    -0.00023557   -0.00003677    0.00004051
     atom   36 type  2   force =     0.00005019   -0.00002881    0.00018267
     atom   37 type  1   force =    -0.00000558   -0.00018143    0.00014925
     atom   38 type  1   force =    -0.00056561   -0.00028821    0.00052704
     atom   39 type  2   force =     0.00022238   -0.00060340    0.00050704
     atom   40 type  2   force =    -0.00002048   -0.00009592    0.00019242
     atom   41 type  2   force =     0.00019769   -0.00050947   -0.00033095
     atom   42 type  2   force =     0.00014689   -0.00036373   -0.00043296
     atom   43 type  1   force =     0.00074736   -0.00038764    0.00018002
     atom   44 type  1   force =    -0.00005741   -0.00019498   -0.00084622
     atom   45 type  2   force =     0.00009285   -0.00005666    0.10322719
     atom   46 type  2   force =    -0.07147871   -0.00007660   -0.02776114
     atom   47 type  2   force =     0.07142734    0.00035559   -0.02777206
     atom   48 type  3   force =    -0.00122960   -0.00089126    0.00060103
     atom   49 type  3   force =     0.00024878    0.00051752   -0.00045234
     atom   50 type  4   force =    -0.00283054    0.00128373   -0.00234851
     atom   51 type  5   force =     0.00092402   -0.00077475    0.00016291
     atom   52 type  5   force =     0.00122657    0.00018519   -0.00011761
     atom   53 type  5   force =     0.00253570    0.00019108    0.00271092
     atom   54 type  2   force =    -0.00061654   -0.00112188    0.00001000
     atom   55 type  5   force =     0.00043945    0.00030402    0.00026986
     atom   56 type  5   force =     0.00054694    0.00071359   -0.00050801

     Total force =     0.367882     Total SCF correction =     0.000471
  @ DRIVER MODE: Message from server: STATUS
  @ DRIVER MODE: Message from server: GETFORCE
  @ DRIVER MODE: Returning v,forces,stress,ensemble

     Writing output data file ./calc.save/
  @ DRIVER MODE: Message from server: EXIT
  @ DRIVE MODE: Exiting

     General routines

     Parallel routines

   This run was terminated on:   9: 7:35  10Sep2021

   JOB DONE.