     Program PWSCF v.6.7GPU starts on 28Sep2021 at 22:34:37

     R & G space division:  proc/nbgrp/npool/nimage =       8
     Reading input from /storage/home/hcoda1/3/ntian30/research/carbon/CxH_vib/H2O_calc/ads_slab/CHNHNH2HO_b/out_0029/pw.inp
Warning: card &CELL ignored
Warning: card   CELL_DYNAMICS='IPI', ignored
Warning: card / ignored

     Current dimensions of program PWSCF are:
     Max number of different atomic species (ntypx) = 10
     Max number of k-points (npk) =  40000
     Max angular momentum in pseudopotentials (lmaxx) =  3
     Presently no symmetry can be used with electric field

     Message from routine cell_base_init:
     DEPRECATED: use true lattice parameter, not A to a.u. conversion factor

     IMPORTANT: XC functional enforced from input :
     Exchange-correlation= BEEF-VDW
                           (   1   4  43  14   2   0   0)
     Any further DFT definition will be discarded
     Please, verify this is what you really want

  @ DRIVER MODE: Connecting to
 qe_1139763_3009830.sched-torque.pace.gatech.edu8tikn7ff_scratch
  using UNIX socket
  @ DRIVER MODE: Message from server: STATUS
  @ DRIVER MODE: Message from server: INIT
  @ DRIVER MODE: Receiving replica           0          -1
  @ DRIVER MODE: Receiving encoded integer          25
  @ DRIVER MODE:  SCF:  T  FORCE:  T  STRESS:  F  VC:  F  ENSEMBLE:  F
  @ DRIVER MODE:  SCF:  T  FORCE:  T  STRESS:  F  VC:  F  ENSEMBLE:  F

     Using Slab Decomposition

     bravais-lattice index     =            0
     lattice parameter (alat)  =       1.8897  a.u.
     unit-cell volume          =    6658.9804 (a.u.)^3
     number of atoms/cell      =           56
     number of atomic types    =            5
     number of electrons       =       403.00
     number of Kohn-Sham states=          211
     kinetic-energy cutoff     =      29.3995  Ry
     charge density cutoff     =     293.9946  Ry
     scf convergence threshold =      7.3E-08
     mixing beta               =       0.0500
     number of iterations used =            8  plain     mixing
     Exchange-correlation= BEEF-VDW
                           (   1   4  43  14   2   0   0)

     celldm(1)=   1.889726  celldm(2)=   0.000000  celldm(3)=   0.000000
     celldm(4)=   0.000000  celldm(5)=   0.000000  celldm(6)=   0.000000

     crystal axes: (cart. coord. in units of alat)
               a(1) = (   6.579727   0.000000   0.000000 )
               a(2) = (  -0.000775   5.961596   0.000000 )
               a(3) = (   0.000000   0.000000  25.155947 )

     reciprocal axes: (cart. coord. in units 2 pi/alat)
               b(1) = (  0.151982  0.000020  0.000000 )
               b(2) = (  0.000000  0.167740  0.000000 )
               b(3) = (  0.000000  0.000000  0.039752 )

     PseudoPot. # 1 for Ti read from file:
     /storage/coda1/p-amedford6/0/shared/rich_project_chbe-medford/medford-share/data/pseudos_module/espresso/nninc/pbe/van/Ti.UPF
     MD5 check sum: 8e4df49b7f0d34bbd5052bf3f5ea0213
     Pseudo is Ultrasoft, Zval = 12.0
     Generated by new atomic code, or converted to UPF format
     Using radial grid of  851 points,  6 beta functions with:
                l(1) =   0
                l(2) =   0
                l(3) =   1
                l(4) =   1
                l(5) =   2
                l(6) =   2
     Q(r) pseudized with  8 coefficients,  rinner =    1.000   1.000   1.000
                                                       1.000   1.000

     PseudoPot. # 2 for O  read from file:
     /storage/coda1/p-amedford6/0/shared/rich_project_chbe-medford/medford-share/data/pseudos_module/espresso/nninc/pbe/van/O.UPF
     MD5 check sum: 78c19812648e8988a0fe644b0f25305e
     Pseudo is Ultrasoft, Zval =  6.0
     Generated by new atomic code, or converted to UPF format
     Using radial grid of  737 points,  4 beta functions with:
                l(1) =   0
                l(2) =   0
                l(3) =   1
                l(4) =   1
     Q(r) pseudized with  8 coefficients,  rinner =    0.800   0.800   0.800

     PseudoPot. # 3 for N  read from file:
     /storage/coda1/p-amedford6/0/shared/rich_project_chbe-medford/medford-share/data/pseudos_module/espresso/nninc/pbe/van/N.UPF
     MD5 check sum: 90d10febe142ad51ac9d5be1deb811c4
     Pseudo is Ultrasoft, Zval =  5.0
     Generated by new atomic code, or converted to UPF format
     Using radial grid of  729 points,  4 beta functions with:
                l(1) =   0
                l(2) =   0
                l(3) =   1
                l(4) =   1
     Q(r) pseudized with  8 coefficients,  rinner =    0.800   0.800   0.800

     PseudoPot. # 4 for C  read from file:
     /storage/coda1/p-amedford6/0/shared/rich_project_chbe-medford/medford-share/data/pseudos_module/espresso/nninc/pbe/van/C.UPF
     MD5 check sum: 1a69bf6b8db32088f5b2163dbdb77a27
     Pseudo is Ultrasoft, Zval =  4.0
     Generated by new atomic code, or converted to UPF format
     Using radial grid of  721 points,  4 beta functions with:
                l(1) =   0
                l(2) =   0
                l(3) =   1
                l(4) =   1
     Q(r) pseudized with  8 coefficients,  rinner =    0.800   0.800   0.800

     PseudoPot. # 5 for H  read from file:
     /storage/coda1/p-amedford6/0/shared/rich_project_chbe-medford/medford-share/data/pseudos_module/espresso/nninc/pbe/van/H.UPF
     MD5 check sum: b5ee9d7bfd3a09ee7748110bda690ff7
     Pseudo is Ultrasoft, Zval =  1.0
     Generated by new atomic code, or converted to UPF format
     Using radial grid of  615 points,  1 beta functions with:
                l(1) =   0
     Q(r) pseudized with  8 coefficients,  rinner =    0.800

     atomic species   valence    mass     pseudopotential
        Ti1           12.00    47.86700     Ti( 1.00)
        O1             6.00    15.99900     O ( 1.00)
        N1             5.00    14.00700     N ( 1.00)
        C1             4.00    12.01100     C ( 1.00)
        H1             1.00     1.00800     H ( 1.00)

     No symmetry found

   Cartesian axes

     site n.     atom                  positions (alat units)
         1           Ti1 tau(   1) = (   0.0004258   2.9801865   6.0000000  )
         2           Ti1 tau(   2) = (   3.2906075   1.4906267   6.0002472  )
         3           O1  tau(   3) = (   0.0006271   0.0005054   7.9858123  )
         4           O1  tau(   4) = (   3.2906025   0.0005020   7.3038282  )
         5           O1  tau(   5) = (   4.5942328   1.4918067   9.2879030  )
         6           O1  tau(   6) = (   1.9868534   1.4903216   9.2879459  )
         7           Ti1 tau(   7) = (   3.2907910   2.8959150   9.1758416  )
         8           Ti1 tau(   8) = (   0.0015273   1.4827037   9.2680791  )
         9           O1  tau(   9) = (   3.2982983   0.0405180  11.3424948  )
        10           O1  tau(  10) = (   0.0116148   5.9584955  10.6183126  )
        11           O1  tau(  11) = (   1.2753745   1.5072422  12.7016807  )
        12           O1  tau(  12) = (   5.3195175   1.5181342  12.6954276  )
        13           Ti1 tau(  13) = (   0.0019584   2.9687762  12.4995492  )
        14           Ti1 tau(  14) = (   3.3051642   1.5697923  12.4614731  )
        15           O1  tau(  15) = (   6.5474216   5.8614089  14.6874354  )
        16           O1  tau(  16) = (   3.3077571   5.9224049  13.9445013  )
        17           O1  tau(  17) = (   4.5645563   1.5748115  16.1270233  )
        18           O1  tau(  18) = (   2.0342606   1.5395256  16.0843959  )
        19           Ti1 tau(  19) = (   3.2752269   2.9899004  15.7194909  )
        20           Ti1 tau(  20) = (   6.5310352   1.3332667  15.7916221  )
        21           O1  tau(  21) = (   3.2904802   0.0005063   4.7018136  )
        22           O1  tau(  22) = (   0.0193913   0.2006272  17.2172921  )
        23           O1  tau(  23) = (   1.3043587   1.4918075   6.0039043  )
        24           O1  tau(  24) = (   5.2767064   1.4903225   6.0039473  )
        25           Ti1 tau(  25) = (   0.0000382   5.9609847   6.0000000  )
        26           Ti1 tau(  26) = (   3.2902200   4.4714249   6.0002472  )
        27           O1  tau(  27) = (   0.0002396   2.9813036   7.9858123  )
        28           O1  tau(  28) = (   3.2902150   2.9813002   7.3038282  )
        29           O1  tau(  29) = (   4.5938453   4.4726049   9.2879030  )
        30           O1  tau(  30) = (   1.9864658   4.4711199   9.2879459  )
        31           Ti1 tau(  31) = (   3.2891106   5.8743827   9.1763621  )
        32           Ti1 tau(  32) = (   0.0006254   4.4649316   9.2693709  )
        33           O1  tau(  33) = (   3.2939295   2.9453814  11.3217152  )
        34           O1  tau(  34) = (   0.0092240   2.9805883  10.6323155  )
        35           O1  tau(  35) = (   1.2781447   4.4822909  12.6561401  )
        36           O1  tau(  36) = (   5.3212068   4.4743896  12.6463055  )
        37           Ti1 tau(  37) = (   0.0302233   5.9315785  12.5023592  )
        38           Ti1 tau(  38) = (   3.3112215   4.6713144  12.7097751  )
        39           O1  tau(  39) = (   0.0192075   3.0624537  14.9697097  )
        40           O1  tau(  40) = (   3.2993887   3.0147307  13.9488589  )
        41           O1  tau(  41) = (   4.5718800   4.4489939  16.2708329  )
        42           O1  tau(  42) = (   2.0246426   4.4466800  16.2581844  )
        43           Ti1 tau(  43) = (   3.2612680   0.0306108  16.4716933  )
        44           Ti1 tau(  44) = (   6.5506247   4.5497786  16.0606151  )
        45           O1  tau(  45) = (   3.2900926   2.9813045   4.7018136  )
        46           O1  tau(  46) = (   1.3039711   4.4726057   6.0039043  )
        47           O1  tau(  47) = (   5.2763189   4.4711207   6.0039473  )
        48           N1  tau(  48) = (   0.9981237   2.4704741  18.7333368  )
        49           N1  tau(  49) = (   6.5532285   3.4232418  18.2716252  )
        50           C1  tau(  50) = (   2.1690532   2.7243113  19.1879583  )
        51           H1  tau(  51) = (   2.3212509   3.8010200  19.3435938  )
        52           H1  tau(  52) = (   0.7222050   1.5235952  18.4265492  )
        53           H1  tau(  53) = (   0.1086806   4.2950834  18.7847415  )
        54           H1  tau(  54) = (   5.6367167   3.0457734  18.5222562  )
        55           O1  tau(  55) = (   3.2473456   0.1866190  18.2687603  )
        56           H1  tau(  56) = (   3.0571027   1.0491837  18.7494863  )

     number of k points=    10  Fermi-Dirac smearing, width (Ry)=  0.0073
                       cart. coord. in units 2pi/alat
        k(    1) = (   0.0000000   0.0000000   0.0000000), wk =   0.1250000
        k(    2) = (   0.0000000   0.0419351   0.0000000), wk =   0.2500000
        k(    3) = (   0.0000000  -0.0838702   0.0000000), wk =   0.1250000
        k(    4) = (   0.0379955   0.0000049   0.0000000), wk =   0.2500000
        k(    5) = (   0.0379955   0.0419400   0.0000000), wk =   0.2500000
        k(    6) = (   0.0379955  -0.0838652   0.0000000), wk =   0.2500000
        k(    7) = (   0.0379955  -0.0419301   0.0000000), wk =   0.2500000
        k(    8) = (  -0.0759910  -0.0000099   0.0000000), wk =   0.1250000
        k(    9) = (  -0.0759910   0.0419252   0.0000000), wk =   0.2500000
        k(   10) = (  -0.0759910  -0.0838800   0.0000000), wk =   0.1250000

     Initial potential from superposition of free atoms

     starting charge  386.99914, renormalised to  403.00000

     negative rho (up, down):  1.628E-02 0.000E+00

     %%%%%%%%%%%%%%%%%%%%%%%%%%%%%%%%%%%%%%%%%%%%%%%%%%%%%%%%%%%%%%%%%%%%%%%%
     %                                                                      %
     % You are using vdW-DF, which was implemented by the Thonhauser group. %
     % Please cite the following two papers that made this development      %
     % possible and the two reviews that describe the various versions:     %
     %                                                                      %
     %   T. Thonhauser et al., PRL 115, 136402 (2015).                      %
     %   T. Thonhauser et al., PRB 76, 125112 (2007).                       %
     %   K. Berland et al., Rep. Prog. Phys. 78, 066501 (2015).             %
     %   D.C. Langreth et al., J. Phys.: Condens. Matter 21, 084203 (2009). %
     %                                                                      %
     %                                                                      %
     % If you are calculating the stress with vdW-DF, please also cite:     %
     %                                                                      %
     %   R. Sabatini et al., J. Phys.: Condens. Matter 24, 424209 (2012).   %
     %                                                                      %
     %%%%%%%%%%%%%%%%%%%%%%%%%%%%%%%%%%%%%%%%%%%%%%%%%%%%%%%%%%%%%%%%%%%%%%%%

     Adding external electric field

     Computed dipole along edir(3) :
        Dipole              -13.0960 Ry au,        -33.2867 Debye
        Dipole field         -0.0247 Ry au,

        Potential amp.        2.2909 Ry
        Total length         46.3494 bohr

     Starting wfcs are  305 atomic wfcs
  @ DRIVER MODE: Message from server: STATUS
  @ DRIVER MODE: Message from server: POSDATA
  @ DRIVER MODE: Reading and sharing cell
  @ DRIVER MODE: Reading and sharing positions
  @ DRIVER MODE: Received positions

     Self-consistent Calculation

     iteration #  1     ecut=    29.40 Ry     beta= 0.05
     Davidson diagonalization with overlap
     c_bands:  5 eigenvalues not converged
     c_bands:  2 eigenvalues not converged
     c_bands:  1 eigenvalues not converged
     c_bands:  1 eigenvalues not converged
     c_bands:  5 eigenvalues not converged
     c_bands:  4 eigenvalues not converged
     c_bands:  1 eigenvalues not converged
     ethr =  1.00E-05,  avg # of iterations = 27.3

[...]

     total energy              =   -2288.88478352 Ry
     estimated scf accuracy    <    7753.73935739 Ry

     iteration #  2     ecut=    29.40 Ry     beta= 0.05
     Davidson diagonalization with overlap
     ethr =  1.00E-02,  avg # of iterations = 26.2

[...]

     iteration # 86     ecut=    29.40 Ry     beta= 0.05
     Davidson diagonalization with overlap
     c_bands:  1 eigenvalues not converged
     c_bands:  1 eigenvalues not converged
     ethr =  2.15E-08,  avg # of iterations = 10.2

[...]

     total energy              =   -2973.89803000 Ry
     estimated scf accuracy    <       0.00000016 Ry

     iteration #100     ecut=    29.40 Ry     beta= 0.05
     Davidson diagonalization with overlap
     ethr =  3.91E-11,  avg # of iterations =  7.8

     negative rho (up, down):  1.611E-02 0.000E+00

     Adding external electric field

     Computed dipole along edir(3) :
        Dipole                0.8497 Ry au,          2.1596 Debye
        Dipole field          0.0016 Ry au,

        Potential amp.       -0.1486 Ry
        Total length         46.3494 bohr

     End of self-consistent calculation

          k = 0.0000 0.0000 0.0000 ( 18029 PWs)   bands (ev):

   -55.6420 -55.6403 -55.6063 -55.5708 -55.4907 -55.4685 -55.4479 -55.4448
   -55.4345 -55.3922 -55.3498 -55.2924 -55.2134 -55.0683 -54.6038 -54.5698
   -32.1246 -32.0987 -31.9773 -31.9732 -31.9719 -31.9309 -31.9047 -31.8863
   -31.8800 -31.8634 -31.8447 -31.8343 -31.7930 -31.7634 -31.7493 -31.7467
   -31.7425 -31.7287 -31.7080 -31.7037 -31.6981 -31.6727 -31.6668 -31.6538
   -31.6420 -31.6409 -31.6194 -31.6109 -31.5955 -31.5917 -31.5860 -31.5746
   -31.5637 -31.5469 -31.5036 -31.4962 -31.4930 -31.4772 -31.4133 -31.3278
   -31.2938 -31.2859 -31.0090 -30.9244 -30.9019 -30.8268 -30.7405 -30.6285
   -18.6923 -16.3067 -16.2530 -16.1130 -15.8901 -15.8032 -15.7717 -15.6110
   -15.4845 -15.4428 -15.3200 -15.1725 -15.1426 -15.1348 -15.1282 -15.1191
   -15.1023 -15.0747 -15.0616 -15.0565 -15.0432 -14.9790 -14.9603 -14.9312
   -14.8502 -14.7993 -14.7712 -14.7013 -14.6583 -14.5570 -14.5067 -14.2737
   -13.1014 -12.9853  -9.5719  -6.9001  -5.8515  -4.3087  -4.0857  -3.8308
    -3.6266  -3.5389  -3.5159  -3.4073  -3.3152  -3.0870  -3.0640  -2.9935
    -2.8430  -2.7500  -2.6649  -2.6381  -2.5968  -2.5433  -2.5293  -2.4867
    -2.4204  -2.3890  -2.3474  -2.3355  -2.2860  -2.2783  -2.2320  -2.1544
    -2.1476  -2.0421  -1.9741  -1.9689  -1.9547  -1.9461  -1.8965  -1.8812
    -1.8737  -1.8032  -1.7479  -1.7134  -1.6477  -1.6216  -1.5502  -1.3054
    -1.2271  -1.2141  -1.1520  -1.0714  -1.0405  -1.0263  -1.0157  -0.9906
    -0.9624  -0.8741  -0.8473  -0.7077  -0.7016  -0.6636  -0.6372  -0.6083
    -0.4962  -0.4329  -0.4093  -0.3639  -0.3431  -0.3025  -0.2406  -0.2214
    -0.1418  -0.0979  -0.0185  -0.0156   0.0089   0.0799   0.1393   0.1737
     0.1899   0.2898   0.3048   0.3336   0.3404   0.3629   0.3891   0.4821
     0.5000   0.5422   0.5647   0.7060   0.7166   0.7688   0.9127   0.9419
     1.0449   1.1429   1.3740   1.3851   1.4235   1.4506   1.6197   1.9886
     2.0335   3.4391   3.5985   3.6115   3.7080   3.7215   3.7979   3.9336
     4.0278   4.0994   4.1912

[...]

          k = 0.0380-0.0419 0.0000 ( 17876 PWs)   bands (ev):

[...]

          k =-0.0760-0.0000 0.0000 ( 17886 PWs)   bands (ev):

[...]

          k =-0.0760-0.0839 0.0000 ( 17948 PWs)   bands (ev):

   -55.6411 -55.6233 -55.6231 -55.5696 -55.4825 -55.4540 -55.4520 -55.4495
   -55.4486 -55.3838 -55.3582 -55.2935 -55.2114 -55.0701 -54.5868 -54.5867
   -32.0236 -31.9401 -31.9398 -31.9314 -31.9166 -31.9162 -31.9055 -31.8439
   -31.8192 -31.8117 -31.8012 -31.7855 -31.7800 -31.7638 -31.7619 -31.7433
   -31.7432 -31.7339 -31.7325 -31.7210 -31.7206 -31.7059 -31.6958 -31.6888
   -31.6530 -31.6491 -31.6476 -31.6423 -31.6272 -31.6245 -31.6171 -31.6047
   -31.5882 -31.5824 -31.5719 -31.5683 -31.4977 -31.4686 -31.4168 -31.4089
   -31.3325 -31.2893 -30.9147 -30.9146 -30.8222 -30.8218 -30.7838 -30.7836
   -18.6861 -16.2564 -15.9426 -15.6369 -15.6357 -15.6159 -15.4574 -15.4233
   -15.3914 -15.3617 -15.3115 -15.3053 -15.2802 -15.2448 -15.2317 -15.1788
   -15.1545 -15.1376 -15.1192 -15.1001 -15.0806 -15.0522 -15.0414 -15.0400
   -14.9601 -14.9514 -14.9367 -14.9289 -14.8540 -14.6395 -14.4788 -14.4316
   -13.0872 -13.0871  -9.5583  -6.8940  -5.8155  -4.4908  -3.9420  -3.7575
    -3.0697  -2.8712  -2.8414  -2.7145  -2.6814  -2.6581  -2.5934  -2.5526
    -2.5510  -2.4745  -2.4611  -2.4166  -2.4124  -2.3678  -2.3651  -2.3375
    -2.3286  -2.3150  -2.3056  -2.2987  -2.2497  -2.2236  -2.2206  -2.2080
    -2.1845  -2.1708  -2.1467  -2.1295  -2.0704  -1.9949  -1.8829  -1.8600
    -1.8010  -1.7665  -1.7521  -1.7327  -1.7106  -1.6830  -1.6645  -1.5667
    -1.4844  -1.4231  -1.3210  -1.2350  -1.2143  -1.1615  -1.1534  -1.1109
    -1.0882  -1.0680  -1.0315  -0.9624  -0.8530  -0.8415  -0.7725  -0.6871
    -0.6446  -0.5799  -0.5777  -0.5715  -0.5558  -0.5313  -0.5124  -0.4625
    -0.4576  -0.3665  -0.3423  -0.3356  -0.3173  -0.2867  -0.1534  -0.1137
    -0.0659   0.1347   0.1412   0.1695   0.2774   0.3674   0.4338   0.4436
     0.5012   0.5485   0.5829   0.6227   0.6781   0.7020   0.7672   0.8775
     0.8837   0.9027   0.9444   1.0057   1.2502   1.7887   1.7954   1.8537
     1.8541   3.6534   3.8472   3.9629   3.9684   3.9835   4.0250   4.0338
     4.0481   4.1084   4.1161

     the Fermi energy is     3.4798 ev

!    total energy              =   -2973.89803471 Ry
     estimated scf accuracy    <       0.00000006 Ry
     smearing contrib. (-TS)   =      -0.01933054 Ry
     internal energy E=F+TS    =   -2973.87870416 Ry

     The total energy is F=E-TS. E is the sum of the following terms:
     one-electron contribution =  -23222.06609945 Ry
     hartree contribution      =   11705.42964724 Ry
     xc contribution           =    -493.95402691 Ry
     ewald contribution        =    9036.71041257 Ry
     electric field correction =       0.00136238 Ry

     convergence has been achieved in 100 iterations

     Forces acting on atoms (cartesian axes, Ry/au):

     atom    1 type  1   force =     0.00006501   -0.00020658    0.09414258
     atom    2 type  1   force =    -0.00015849    0.00002542   -0.17484789
     atom    3 type  2   force =     0.00002907   -0.00050050   -0.02070633
     atom    4 type  2   force =     0.00004165   -0.00071053    0.05230634
     atom    5 type  2   force =    -0.00299059   -0.00197455    0.00012862
     atom    6 type  2   force =     0.00462490   -0.00150943   -0.00032596
     atom    7 type  1   force =    -0.00019101    0.00281129    0.01406500
     atom    8 type  1   force =    -0.00011885   -0.00120929   -0.00059545
     atom    9 type  2   force =     0.00005293   -0.00010809   -0.00010241
     atom   10 type  2   force =    -0.00139868    0.00346863   -0.00730560
     atom   11 type  2   force =    -0.00018103    0.00025283    0.00020774
     atom   12 type  2   force =     0.00036819    0.00039170    0.00061470
     atom   13 type  1   force =    -0.00042779    0.00056026   -0.00029425
     atom   14 type  1   force =     0.00000604   -0.00006732    0.00070391
     atom   15 type  2   force =     0.00038386    0.00094258    0.00064577
     atom   16 type  2   force =    -0.00009353   -0.00076617    0.00093965
     atom   17 type  2   force =     0.00060618   -0.00024778   -0.00013430
     atom   18 type  2   force =     0.00018534   -0.00006778   -0.00023380
     atom   19 type  1   force =     0.00000919    0.00006298   -0.00044802
     atom   20 type  1   force =    -0.00036955   -0.00014662   -0.00079951
     atom   21 type  2   force =     0.00006663   -0.00000430    0.10300346
     atom   22 type  2   force =     0.00047172    0.00058485    0.00009412
     atom   23 type  2   force =    -0.07235683   -0.00018987   -0.02725077
     atom   24 type  2   force =     0.07229723    0.00025593   -0.02729787
     atom   25 type  1   force =     0.00007347   -0.00030143    0.09358686
     atom   26 type  1   force =    -0.00006184   -0.00115593   -0.17495588
     atom   27 type  2   force =     0.00017307   -0.00002305   -0.01957788
     atom   28 type  2   force =     0.00003244   -0.00104157    0.04859105
     atom   29 type  2   force =    -0.00593852    0.00105353    0.00312619
     atom   30 type  2   force =     0.00742009    0.00156851    0.00262849
     atom   31 type  1   force =     0.00004475    0.00141792    0.00266213
     atom   32 type  1   force =     0.00006568    0.00068218   -0.00038457
     atom   33 type  2   force =    -0.00016917   -0.00012119   -0.00050756
     atom   34 type  2   force =    -0.00061377   -0.00196745   -0.01092482
     atom   35 type  2   force =     0.00024009   -0.00040573   -0.00014087
     atom   36 type  2   force =    -0.00004447   -0.00025994   -0.00020544
     atom   37 type  1   force =    -0.00025292   -0.00039186   -0.00052720
     atom   38 type  1   force =     0.00025323    0.00023117    0.00033979
     atom   39 type  2   force =    -0.00035803   -0.00120258   -0.00028762
     atom   40 type  2   force =    -0.00013185    0.00035466    0.00079133
     atom   41 type  2   force =    -0.00079144    0.00010643    0.00028612
     atom   42 type  2   force =     0.00030729   -0.00052257   -0.00006470
     atom   43 type  1   force =    -0.00027717    0.00057154    0.00027929
     atom   44 type  1   force =     0.00011383   -0.00135749    0.00001013
     atom   45 type  2   force =     0.00006699    0.00005984    0.10282809
     atom   46 type  2   force =    -0.07231205   -0.00004959   -0.02719872
     atom   47 type  2   force =     0.07222073    0.00039799   -0.02723227
     atom   48 type  3   force =    -0.00229808   -0.00331053   -0.00221224
     atom   49 type  3   force =    -0.00013485    0.00085046    0.00065775
     atom   50 type  4   force =     0.00028911    0.00012951   -0.00005848
     atom   51 type  5   force =    -0.00044970   -0.00114750    0.00076822
     atom   52 type  5   force =     0.00138630    0.00428667    0.00295233
     atom   53 type  5   force =    -0.00001556   -0.00027592   -0.00069190
     atom   54 type  5   force =     0.00038130    0.00068518    0.00040987
     atom   55 type  2   force =     0.00035212    0.00026998   -0.00062523
     atom   56 type  5   force =    -0.00049266   -0.00077890   -0.00083201

     Total force =     0.361112     Total SCF correction =     0.000557
  @ DRIVER MODE: Message from server: STATUS
  @ DRIVER MODE: Message from server: GETFORCE
  @ DRIVER MODE: Returning v,forces,stress,ensemble

     Writing output data file ./calc.save/
  @ DRIVER MODE: Message from server: EXIT
  @ DRIVE MODE: Exiting

     General routines

     Parallel routines

   This run was terminated on:  23: 6:16  28Sep2021

   JOB DONE.