     Program PWSCF v.6.7GPU starts on 12Oct2021 at 12:45:29

     R & G space division:  proc/nbgrp/npool/nimage =       8
     Reading input from /storage/home/hcoda1/3/ntian30/research/carbon/ACS_vib/ads_slab/N2H6/out_0010/pw.inp
Warning: card &CELL ignored
Warning: card   CELL_DYNAMICS='IPI', ignored
Warning: card / ignored

     Current dimensions of program PWSCF are:
     Max number of different atomic species (ntypx) = 10
     Max number of k-points (npk) =  40000
     Max angular momentum in pseudopotentials (lmaxx) =  3
     Presently no symmetry can be used with electric field

     Message from routine cell_base_init:
     DEPRECATED: use true lattice parameter, not A to a.u. conversion factor

     IMPORTANT: XC functional enforced from input :
     Exchange-correlation= BEEF-VDW
                           (   1   4  43  14   2   0   0)
     Any further DFT definition will be discarded
     Please, verify this is what you really want

  @ DRIVER MODE: Connecting to
 qe_1139763_3181315.sched-torque.pace.gatech.edu_kf6z2r__scratch
  using UNIX socket
  @ DRIVER MODE: Message from server: STATUS
  @ DRIVER MODE: Message from server: INIT
  @ DRIVER MODE: Receiving replica           0          -1
  @ DRIVER MODE: Receiving encoded integer          25
  @ DRIVER MODE:  SCF:  T  FORCE:  T  STRESS:  F  VC:  F  ENSEMBLE:  F
  @ DRIVER MODE:  SCF:  T  FORCE:  T  STRESS:  F  VC:  F  ENSEMBLE:  F

     Using Slab Decomposition

     bravais-lattice index     =            0
     lattice parameter (alat)  =       1.8897  a.u.
     unit-cell volume          =    6658.9804 (a.u.)^3
     number of atoms/cell      =           55
     number of atomic types    =            4
     number of electrons       =       394.00
     number of Kohn-Sham states=          207
     kinetic-energy cutoff     =      29.3995  Ry
     charge density cutoff     =     293.9946  Ry
     scf convergence threshold =      7.3E-08
     mixing beta               =       0.0500
     number of iterations used =            8  plain     mixing
     Exchange-correlation= BEEF-VDW
                           (   1   4  43  14   2   0   0)

     celldm(1)=   1.889726  celldm(2)=   0.000000  celldm(3)=   0.000000
     celldm(4)=   0.000000  celldm(5)=   0.000000  celldm(6)=   0.000000

     crystal axes: (cart. coord. in units of alat)
               a(1) = (   6.579727   0.000000   0.000000 )
               a(2) = (  -0.000775   5.961596   0.000000 )
               a(3) = (   0.000000   0.000000  25.155947 )

     reciprocal axes: (cart. coord. in units 2 pi/alat)
               b(1) = (  0.151982  0.000020  0.000000 )
               b(2) = (  0.000000  0.167740  0.000000 )
               b(3) = (  0.000000  0.000000  0.039752 )

     PseudoPot. # 1 for Ti read from file:
     /storage/coda1/p-amedford6/0/shared/rich_project_chbe-medford/medford-share/data/pseudos_module/espresso/nninc/pbe/van/Ti.UPF
     MD5 check sum: 8e4df49b7f0d34bbd5052bf3f5ea0213
     Pseudo is Ultrasoft, Zval = 12.0
     Generated by new atomic code, or converted to UPF format
     Using radial grid of  851 points,  6 beta functions with:
                l(1) =   0
                l(2) =   0
                l(3) =   1
                l(4) =   1
                l(5) =   2
                l(6) =   2
     Q(r) pseudized with  8 coefficients,  rinner =    1.000   1.000   1.000
                                                       1.000   1.000

     PseudoPot. # 2 for O  read from file:
     /storage/coda1/p-amedford6/0/shared/rich_project_chbe-medford/medford-share/data/pseudos_module/espresso/nninc/pbe/van/O.UPF
     MD5 check sum: 78c19812648e8988a0fe644b0f25305e
     Pseudo is Ultrasoft, Zval =  6.0
     Generated by new atomic code, or converted to UPF format
     Using radial grid of  737 points,  4 beta functions with:
                l(1) =   0
                l(2) =   0
                l(3) =   1
                l(4) =   1
     Q(r) pseudized with  8 coefficients,  rinner =    0.800   0.800   0.800

     PseudoPot. # 3 for N  read from file:
     /storage/coda1/p-amedford6/0/shared/rich_project_chbe-medford/medford-share/data/pseudos_module/espresso/nninc/pbe/van/N.UPF
     MD5 check sum: 90d10febe142ad51ac9d5be1deb811c4
     Pseudo is Ultrasoft, Zval =  5.0
     Generated by new atomic code, or converted to UPF format
     Using radial grid of  729 points,  4 beta functions with:
                l(1) =   0
                l(2) =   0
                l(3) =   1
                l(4) =   1
     Q(r) pseudized with  8 coefficients,  rinner =    0.800   0.800   0.800

     PseudoPot. # 4 for H  read from file:
     /storage/coda1/p-amedford6/0/shared/rich_project_chbe-medford/medford-share/data/pseudos_module/espresso/nninc/pbe/van/H.UPF
     MD5 check sum: b5ee9d7bfd3a09ee7748110bda690ff7
     Pseudo is Ultrasoft, Zval =  1.0
     Generated by new atomic code, or converted to UPF format
     Using radial grid of  615 points,  1 beta functions with:
                l(1) =   0
     Q(r) pseudized with  8 coefficients,  rinner =    0.800

     atomic species   valence    mass     pseudopotential
        Ti1           12.00    47.86700     Ti( 1.00)
        O1             6.00    15.99900     O ( 1.00)
        N1             5.00    14.00700     N ( 1.00)
        H1             1.00     1.00800     H ( 1.00)

     No symmetry found

   Cartesian axes

     site n.     atom                  positions (alat units)
         1           Ti1 tau(   1) = (   0.0004258   2.9801865   6.0000000  )
         2           Ti1 tau(   2) = (   3.2906075   1.4906267   6.0002472  )
         3           O1  tau(   3) = (   0.0006271   0.0005054   7.9858123  )
         4           O1  tau(   4) = (   3.2906025   0.0005020   7.3038282  )
         5           O1  tau(   5) = (   4.5942328   1.4918067   9.2879030  )
         6           O1  tau(   6) = (   1.9868534   1.4903216   9.2879459  )
         7           Ti1 tau(   7) = (   3.2905188   2.9817269   9.1608671  )
         8           Ti1 tau(   8) = (   0.0008727   1.4903491   9.2579811  )
         9           O1  tau(   9) = (   3.2897677   5.9391746  11.3820438  )
        10           O1  tau(  10) = (  -0.0000005   5.9544960  10.6146985  )
        11           O1  tau(  11) = (   1.2884133   1.4789655  12.6516217  )
        12           O1  tau(  12) = (   5.2921206   1.4788385  12.6515509  )
        13           Ti1 tau(  13) = (   0.0005720   2.9629092  12.4975245  )
        14           Ti1 tau(  14) = (   3.2903801   1.4745319  12.5205501  )
        15           O1  tau(  15) = (   0.0004407   0.0388239  14.7059933  )
        16           O1  tau(  16) = (   3.2897445   5.9465346  14.0037610  )
        17           O1  tau(  17) = (   4.5472543   1.4569283  16.2215039  )
        18           O1  tau(  18) = (   2.0329396   1.4568822  16.2213506  )
        19           Ti1 tau(  19) = (   3.2899346   2.9358424  15.7577366  )
        20           Ti1 tau(  20) = (   0.0004932   1.4309995  16.0137732  )
        21           O1  tau(  21) = (   3.2904802   0.0005063   4.7018136  )
        22           O1  tau(  22) = (  -0.0003511   5.7889056  17.2622344  )
        23           O1  tau(  23) = (   1.3043587   1.4918075   6.0039043  )
        24           O1  tau(  24) = (   5.2767064   1.4903225   6.0039473  )
        25           Ti1 tau(  25) = (   0.0000382   5.9609847   6.0000000  )
        26           Ti1 tau(  26) = (   3.2902200   4.4714249   6.0002472  )
        27           O1  tau(  27) = (   0.0002396   2.9813036   7.9858123  )
        28           O1  tau(  28) = (   3.2902150   2.9813002   7.3038282  )
        29           O1  tau(  29) = (   4.5938453   4.4726049   9.2879030  )
        30           O1  tau(  30) = (   1.9864658   4.4711199   9.2879459  )
        31           Ti1 tau(  31) = (   3.2908958   0.0009406   9.1591437  )
        32           Ti1 tau(  32) = (   0.0004876   4.4725358   9.2579169  )
        33           O1  tau(  33) = (   3.2901541   2.9707129  11.3740276  )
        34           O1  tau(  34) = (   0.0003862   2.9798045  10.6274311  )
        35           O1  tau(  35) = (   1.2860740   4.4511954  12.6821393  )
        36           O1  tau(  36) = (   5.2936768   4.4510845  12.6820400  )
        37           Ti1 tau(  37) = (   0.0001324   5.9497034  12.4914426  )
        38           Ti1 tau(  38) = (   3.2900283   4.4525324  12.5305491  )
        39           O1  tau(  39) = (   0.0000299   2.9046373  14.9484161  )
        40           O1  tau(  40) = (   3.2901113   2.9423191  13.9685580  )
        41           O1  tau(  41) = (   4.5465916   4.4073028  16.1601725  )
        42           O1  tau(  42) = (   2.0329218   4.4072560  16.1600144  )
        43           Ti1 tau(  43) = (   3.2897320   5.9176933  15.7983882  )
        44           Ti1 tau(  44) = (   0.0000796   4.6311109  15.9036278  )
        45           O1  tau(  45) = (   3.2900926   2.9813045   4.7018136  )
        46           O1  tau(  46) = (   1.3039711   4.4726057   6.0039043  )
        47           O1  tau(  47) = (   5.2763189   4.4711207   6.0039473  )
        48           N1  tau(  48) = (   6.5791966   2.5420708  18.0661808  )
        49           H1  tau(  49) = (   6.5785613   1.6609345  18.5577087  )
        50           H1  tau(  50) = (   0.8131443   3.0604954  18.3807411  )
        51           H1  tau(  51) = (   5.7641953   3.0602838  18.3787844  )
        52           N1  tau(  52) = (  -0.0000615   4.8677125  20.5088556  )
        53           H1  tau(  53) = (   6.5774456   5.1124690  21.4935560  )
        54           H1  tau(  54) = (   0.8078797   5.3121143  20.0844266  )
        55           H1  tau(  55) = (   5.7710899   5.3082688  20.0816402  )

     number of k points=    10  Fermi-Dirac smearing, width (Ry)=  0.0073
                       cart. coord. in units 2pi/alat
        k(    1) = (   0.0000000   0.0000000   0.0000000), wk =   0.1250000
        k(    2) = (   0.0000000   0.0419351   0.0000000), wk =   0.2500000
        k(    3) = (   0.0000000  -0.0838702   0.0000000), wk =   0.1250000
        k(    4) = (   0.0379955   0.0000049   0.0000000), wk =   0.2500000
        k(    5) = (   0.0379955   0.0419400   0.0000000), wk =   0.2500000
        k(    6) = (   0.0379955  -0.0838652   0.0000000), wk =   0.2500000
        k(    7) = (   0.0379955  -0.0419301   0.0000000), wk =   0.2500000
        k(    8) = (  -0.0759910  -0.0000099   0.0000000), wk =   0.1250000
        k(    9) = (  -0.0759910   0.0419252   0.0000000), wk =   0.2500000
        k(   10) = (  -0.0759910  -0.0838800   0.0000000), wk =   0.1250000

     Initial potential from superposition of free atoms

     starting charge  377.99918, renormalised to  394.00000

     negative rho (up, down):  1.302E-02 0.000E+00

     %%%%%%%%%%%%%%%%%%%%%%%%%%%%%%%%%%%%%%%%%%%%%%%%%%%%%%%%%%%%%%%%%%%%%%%%
     %                                                                      %
     % You are using vdW-DF, which was implemented by the Thonhauser group. %
     % Please cite the following two papers that made this development      %
     % possible and the two reviews that describe the various versions:     %
     %                                                                      %
     %   T. Thonhauser et al., PRL 115, 136402 (2015).                      %
     %   T. Thonhauser et al., PRB 76, 125112 (2007).                       %
     %   K. Berland et al., Rep. Prog. Phys. 78, 066501 (2015).             %
     %   D.C. Langreth et al., J. Phys.: Condens. Matter 21, 084203 (2009). %
     %                                                                      %
     %                                                                      %
     % If you are calculating the stress with vdW-DF, please also cite:     %
     %                                                                      %
     %   R. Sabatini et al., J. Phys.: Condens. Matter 24, 424209 (2012).   %
     %                                                                      %
     %%%%%%%%%%%%%%%%%%%%%%%%%%%%%%%%%%%%%%%%%%%%%%%%%%%%%%%%%%%%%%%%%%%%%%%%

     Adding external electric field

     Computed dipole along edir(3) :
        Dipole               -9.7176 Ry au,        -24.6996 Debye
        Dipole field         -0.0183 Ry au,

        Potential amp.        1.6999 Ry
        Total length         46.3494 bohr

     Starting wfcs are  298 atomic wfcs
  @ DRIVER MODE: Message from server: STATUS
  @ DRIVER MODE: Message from server: POSDATA
  @ DRIVER MODE: Reading and sharing cell
  @ DRIVER MODE: Reading and sharing positions
  @ DRIVER MODE: Received positions

     Self-consistent Calculation

     iteration #  1     ecut=    29.40 Ry     beta= 0.05
     Davidson diagonalization with overlap
     c_bands:  1 eigenvalues not converged
     c_bands:  1 eigenvalues not converged
     c_bands:  1 eigenvalues not converged
     c_bands:  1 eigenvalues not converged
     ethr =  1.00E-05,  avg # of iterations = 18.0

[...]

     total energy              =   -2597.71924058 Ry
     estimated scf accuracy    <    3724.87583049 Ry

     iteration #  2     ecut=    29.40 Ry     beta= 0.05
     Davidson diagonalization with overlap
     ethr =  1.00E-02,  avg # of iterations = 22.7

[...]

     iteration # 80     ecut=    29.40 Ry     beta= 0.05
     Davidson diagonalization with overlap
     c_bands:  1 eigenvalues not converged
     c_bands:  1 eigenvalues not converged
     ethr =  4.86E-11,  avg # of iterations = 15.8

[...]

     total energy              =   -2931.48021264 Ry
     estimated scf accuracy    <       0.00000012 Ry

     iteration # 81     ecut=    29.40 Ry     beta= 0.05
     Davidson diagonalization with overlap
     ethr =  2.96E-11,  avg # of iterations =  8.5

     negative rho (up, down):  1.427E-02 0.000E+00

     Adding external electric field

     Computed dipole along edir(3) :
        Dipole                1.3640 Ry au,          3.4669 Debye
        Dipole field          0.0026 Ry au,

        Potential amp.       -0.2386 Ry
        Total length         46.3494 bohr

     End of self-consistent calculation

          k = 0.0000 0.0000 0.0000 ( 18029 PWs)   bands (ev):

   -55.2806 -55.2441 -55.2326 -55.2023 -55.1984 -55.1659 -55.1520 -55.1177
   -55.1103 -55.0815 -55.0760 -55.0591 -55.0250 -54.9495 -54.3229 -54.2888
   -31.8486 -31.7356 -31.7318 -31.6383 -31.5984 -31.5874 -31.5841 -31.5708
   -31.5249 -31.5226 -31.4872 -31.4872 -31.4775 -31.4729 -31.4533 -31.4387
   -31.4335 -31.4208 -31.4163 -31.3897 -31.3841 -31.3749 -31.3642 -31.3525
   -31.3496 -31.3360 -31.3313 -31.3183 -31.2885 -31.2832 -31.2664 -31.2621
   -31.2562 -31.2531 -31.2494 -31.2423 -31.2087 -31.2044 -31.1913 -31.1732
   -31.1525 -31.1517 -30.7348 -30.6331 -30.6116 -30.5509 -30.4644 -30.3535
   -16.1125 -15.8770 -15.7500 -15.5866 -15.5023 -15.4814 -15.3573 -15.3317
   -15.2228 -15.1472 -15.0143 -14.9804 -14.9389 -14.9318 -14.9237 -14.9040
   -14.8981 -14.8272 -14.8100 -14.7975 -14.7889 -14.7667 -14.7652 -14.7460
   -14.7166 -14.6633 -14.6438 -14.5142 -14.4327 -14.3748 -14.1243 -12.8242
   -12.7050  -5.6835  -5.5173  -4.9558  -4.8064  -3.4430  -3.2890  -3.2548
    -3.2036  -3.1924  -3.0389  -2.8783  -2.7296  -2.7097  -2.5601  -2.5311
    -2.4790  -2.4571  -2.3061  -2.2808  -2.2359  -2.2105  -2.1604  -2.1499
    -2.1435  -2.1308  -2.0520  -2.0408  -2.0253  -1.8891  -1.8696  -1.7584
    -1.7182  -1.6621  -1.6510  -1.6445  -1.6096  -1.5917  -1.5511  -1.5404
    -1.5234  -1.5017  -1.4886  -1.3246  -1.3005  -1.1993  -1.1393  -1.0476
    -1.0311  -0.8869  -0.8515  -0.7627  -0.7453  -0.7264  -0.7121  -0.6792
    -0.6308  -0.5230  -0.4336  -0.4122  -0.3514  -0.3268  -0.2884  -0.2005
    -0.0970  -0.0683  -0.0354  -0.0330   0.0833   0.1079   0.1532   0.2195
     0.2384   0.2394   0.2637   0.3544   0.3681   0.4662   0.4898   0.4973
     0.5458   0.6347   0.6391   0.6532   0.6632   0.6895   0.7603   0.7667
     0.8666   0.8895   1.0058   1.2173   1.2884   1.3148   1.5934   1.6536
     1.7024   1.8651   2.2857   2.3380   3.8177   3.8844   3.9175   3.9504
     3.9866   4.0276   4.3151   4.3229   4.3352   4.3398   4.3765

[...]

          k = 0.0380-0.0419 0.0000 ( 17876 PWs)   bands (ev):

[...]

          k =-0.0760-0.0000 0.0000 ( 17886 PWs)   bands (ev):

[...]

          k =-0.0760-0.0839 0.0000 ( 17948 PWs)   bands (ev):

   -55.2651 -55.2594 -55.2155 -55.2153 -55.2008 -55.1624 -55.1358 -55.1339
   -55.0944 -55.0916 -55.0850 -55.0443 -55.0399 -54.9508 -54.3058 -54.3057
   -31.6539 -31.6498 -31.6497 -31.5695 -31.5467 -31.5465 -31.5398 -31.5080
   -31.5079 -31.4817 -31.4816 -31.4779 -31.4743 -31.4558 -31.4353 -31.4158
   -31.4105 -31.4093 -31.4088 -31.4032 -31.4018 -31.3990 -31.3601 -31.3591
   -31.3555 -31.3521 -31.3497 -31.3489 -31.3464 -31.3339 -31.3338 -31.3291
   -31.3265 -31.2918 -31.2898 -31.2743 -31.2714 -31.2662 -31.2293 -31.2284
   -31.2242 -31.1563 -30.6242 -30.6241 -30.5474 -30.5473 -30.5077 -30.5076
   -15.6404 -15.5407 -15.5190 -15.4733 -15.3202 -15.2992 -15.2617 -15.2470
   -15.1291 -15.0928 -15.0735 -15.0573 -15.0259 -15.0208 -15.0138 -14.9780
   -14.8934 -14.8735 -14.8680 -14.8558 -14.8142 -14.7917 -14.7863 -14.7797
   -14.7788 -14.7436 -14.7401 -14.6987 -14.6950 -14.6896 -14.3728 -12.8061
   -12.8060  -5.6620  -5.5202  -4.9237  -4.8152  -2.7920  -2.7359  -2.7357
    -2.5451  -2.4740  -2.4586  -2.4399  -2.3575  -2.3178  -2.2885  -2.2646
    -2.2343  -2.1917  -2.1879  -2.1666  -2.1580  -2.1444  -2.0967  -2.0784
    -2.0528  -1.9993  -1.9744  -1.9662  -1.9543  -1.9453  -1.9407  -1.9173
    -1.9152  -1.8891  -1.8779  -1.8222  -1.6710  -1.6551  -1.5770  -1.5112
    -1.5033  -1.5016  -1.4184  -1.3984  -1.3437  -1.3348  -1.3287  -1.0853
    -1.0653  -1.0631  -1.0578  -1.0269  -0.9124  -0.9021  -0.8295  -0.8001
    -0.7820  -0.6750  -0.6642  -0.6043  -0.6003  -0.4931  -0.4913  -0.4327
    -0.3045  -0.2982  -0.2847  -0.2598  -0.2581  -0.2164  -0.2123  -0.1050
    -0.0688  -0.0179  -0.0066   0.0256   0.1828   0.2308   0.2465   0.2730
     0.4066   0.4272   0.5611   0.5688   0.6237   0.7331   0.7631   0.8024
     0.8304   0.9796   0.9904   1.0123   1.1032   1.1173   1.1551   1.1616
     2.0532   2.0547   2.1562   2.1565   3.9781   4.0599   4.0854   4.1249
     4.2299   4.3282   4.3439   4.3442   4.3789   4.3819   4.4771

     the Fermi energy is     3.8813 ev

!    total energy              =   -2931.48022033 Ry
     estimated scf accuracy    <       0.00000007 Ry
     smearing contrib. (-TS)   =      -0.03684308 Ry
     internal energy E=F+TS    =   -2931.44337724 Ry

     The total energy is F=E-TS. E is the sum of the following terms:
     one-electron contribution =  -23481.17085545 Ry
     hartree contribution      =   11831.28674184 Ry
     xc contribution           =    -484.17559520 Ry
     ewald contribution        =    9202.61282062 Ry
     electric field correction =       0.00351095 Ry

     convergence has been achieved in  81 iterations

     Forces acting on atoms (cartesian axes, Ry/au):

     atom    1 type  1   force =     0.00008805   -0.00009357    0.09072706
     atom    2 type  1   force =    -0.00005212    0.00053143   -0.18278334
     atom    3 type  2   force =     0.00005316   -0.00002841   -0.02344471
     atom    4 type  2   force =     0.00001674   -0.00005771    0.05277941
     atom    5 type  2   force =    -0.01300476   -0.00097170    0.00606529
     atom    6 type  2   force =     0.01295008   -0.00048256    0.00605468
     atom    7 type  1   force =    -0.00000182    0.00067232   -0.00329105
     atom    8 type  1   force =     0.00001895   -0.00014710    0.00138401
     atom    9 type  2   force =    -0.00003597   -0.00016727   -0.00048205
     atom   10 type  2   force =     0.00002049   -0.00005545   -0.00019816
     atom   11 type  2   force =     0.00016624    0.00016760    0.00017888
     atom   12 type  2   force =    -0.00008394    0.00016789    0.00015649
     atom   13 type  1   force =    -0.00019537   -0.00020122    0.00002641
     atom   14 type  1   force =     0.00014895    0.00045417   -0.00096806
     atom   15 type  2   force =     0.00002323   -0.00056679    0.00011662
     atom   16 type  2   force =    -0.00002854    0.00001065    0.00045469
     atom   17 type  2   force =     0.00044629    0.00003620    0.00050957
     atom   18 type  2   force =    -0.00047770    0.00003011    0.00050658
     atom   19 type  1   force =     0.00006346    0.00003906    0.00026851
     atom   20 type  1   force =    -0.00003145   -0.00106500    0.00034035
     atom   21 type  2   force =     0.00005613    0.00012452    0.10489079
     atom   22 type  2   force =     0.00000825    0.00017194    0.00090870
     atom   23 type  2   force =    -0.06828778   -0.00020933   -0.02628105
     atom   24 type  2   force =     0.06819804    0.00022131   -0.02632547
     atom   25 type  1   force =     0.00009134    0.00004131    0.09035311
     atom   26 type  1   force =    -0.00005555   -0.00044715   -0.18296196
     atom   27 type  2   force =     0.00005245   -0.00093360   -0.02256458
     atom   28 type  2   force =     0.00002060   -0.00006650    0.05255458
     atom   29 type  2   force =    -0.01329911   -0.00073258    0.00529258
     atom   30 type  2   force =     0.01323518   -0.00023728    0.00527760
     atom   31 type  1   force =     0.00000880   -0.00071867   -0.00309459
     atom   32 type  1   force =     0.00001339   -0.00007177    0.00150461
     atom   33 type  2   force =    -0.00002474   -0.00014881    0.00019588
     atom   34 type  2   force =     0.00001919    0.00007505   -0.00045105
     atom   35 type  2   force =     0.00013497   -0.00013500    0.00024764
     atom   36 type  2   force =    -0.00005823   -0.00015267    0.00022297
     atom   37 type  1   force =    -0.00019575    0.00005254    0.00092551
     atom   38 type  1   force =     0.00014259   -0.00028110   -0.00095843
     atom   39 type  2   force =     0.00001312    0.00023009   -0.00011181
     atom   40 type  2   force =    -0.00003088   -0.00001675    0.00108737
     atom   41 type  2   force =     0.00057906   -0.00019357    0.00026513
     atom   42 type  2   force =    -0.00062239   -0.00018945    0.00027511
     atom   43 type  1   force =     0.00006965    0.00008397    0.00062456
     atom   44 type  1   force =    -0.00003830    0.00123323   -0.00107558
     atom   45 type  2   force =     0.00005689    0.00014058    0.10486095
     atom   46 type  2   force =    -0.06828557   -0.00010332   -0.02631568
     atom   47 type  2   force =     0.06819101    0.00033845   -0.02635747
     atom   48 type  3   force =    -0.00049021    0.01196061   -0.00587572
     atom   49 type  4   force =     0.00001268   -0.01317358    0.00728880
     atom   50 type  4   force =     0.00087437    0.00157831   -0.00036266
     atom   51 type  4   force =    -0.00042095    0.00130111   -0.00056070
     atom   52 type  3   force =    -0.00000936    0.00071365    0.00045909
     atom   53 type  4   force =    -0.00001819    0.00122886   -0.00143803
     atom   54 type  4   force =     0.00008263    0.00001407   -0.00045355
     atom   55 type  4   force =    -0.00010729    0.00002893   -0.00044783

     Total force =     0.366821     Total SCF correction =     0.000523
  @ DRIVER MODE: Message from server: STATUS
  @ DRIVER MODE: Message from server: GETFORCE
  @ DRIVER MODE: Returning v,forces,stress,ensemble

     Writing output data file ./calc.save/
  @ DRIVER MODE: Message from server: EXIT
  @ DRIVE MODE: Exiting

     General routines

     Parallel routines

   This run was terminated on:  13:11:35  12Oct2021

   JOB DONE.