     Program PWSCF v.6.7GPU starts on 16Jul2021 at 18:13:30

     R & G space division:  proc/nbgrp/npool/nimage =      16
     Reading input from /storage/home/hcoda1/3/ntian30/research/carbon/15Jul_vib/ads_slab/CH3NNHH_a/out_0039/pw.inp
Warning: card &CELL ignored
Warning: card   CELL_DYNAMICS='IPI', ignored
Warning: card / ignored

     Current dimensions of program PWSCF are:
     Max number of different atomic species (ntypx) = 10
     Max number of k-points (npk) =  40000
     Max angular momentum in pseudopotentials (lmaxx) =  3
     Presently no symmetry can be used with electric field

     Message from routine cell_base_init:
     DEPRECATED: use true lattice parameter, not A to a.u. conversion factor

     IMPORTANT: XC functional enforced from input :
     Exchange-correlation= BEEF-VDW
                           (   1   4  43  14   2   0   0)
     Any further DFT definition will be discarded
     Please, verify this is what you really want

  @ DRIVER MODE: Connecting to
 qe_1139763_2351651.sched-torque.pace.gatech.edu_oi37dap_scratch
  using UNIX socket
  @ DRIVER MODE: Message from server: STATUS
  @ DRIVER MODE: Message from server: INIT
  @ DRIVER MODE: Receiving replica           0          -1
  @ DRIVER MODE: Receiving encoded integer          25
  @ DRIVER MODE:  SCF:  T  FORCE:  T  STRESS:  F  VC:  F  ENSEMBLE:  F
  @ DRIVER MODE:  SCF:  T  FORCE:  T  STRESS:  F  VC:  F  ENSEMBLE:  F

     Using Slab Decomposition

     bravais-lattice index     =            0
     lattice parameter (alat)  =       1.8897  a.u.
     unit-cell volume          =    6658.9804 (a.u.)^3
     number of atoms/cell      =           55
     number of atomic types    =            5
     number of electrons       =       397.00
     number of Kohn-Sham states=          208
     kinetic-energy cutoff     =      29.3995  Ry
     charge density cutoff     =     293.9946  Ry
     scf convergence threshold =      7.3E-08
     mixing beta               =       0.0500
     number of iterations used =            8  plain     mixing
     Exchange-correlation= BEEF-VDW
                           (   1   4  43  14   2   0   0)

     celldm(1)=   1.889726  celldm(2)=   0.000000  celldm(3)=   0.000000
     celldm(4)=   0.000000  celldm(5)=   0.000000  celldm(6)=   0.000000

     crystal axes: (cart. coord. in units of alat)
               a(1) = (   6.579727   0.000000   0.000000 )
               a(2) = (  -0.000775   5.961596   0.000000 )
               a(3) = (   0.000000   0.000000  25.155947 )

     reciprocal axes: (cart. coord. in units 2 pi/alat)
               b(1) = (  0.151982  0.000020  0.000000 )
               b(2) = (  0.000000  0.167740  0.000000 )
               b(3) = (  0.000000  0.000000  0.039752 )

     PseudoPot. # 1 for Ti read from file:
     /storage/coda1/p-amedford6/0/shared/rich_project_chbe-medford/medford-share/data/pseudos_module/espresso/nninc/pbe/van/Ti.UPF
     MD5 check sum: 8e4df49b7f0d34bbd5052bf3f5ea0213
     Pseudo is Ultrasoft, Zval = 12.0
     Generated by new atomic code, or converted to UPF format
     Using radial grid of  851 points,  6 beta functions with:
                l(1) =   0
                l(2) =   0
                l(3) =   1
                l(4) =   1
                l(5) =   2
                l(6) =   2
     Q(r) pseudized with  8 coefficients,  rinner =    1.000   1.000   1.000
                                                       1.000   1.000

     PseudoPot. # 2 for O  read from file:
     /storage/coda1/p-amedford6/0/shared/rich_project_chbe-medford/medford-share/data/pseudos_module/espresso/nninc/pbe/van/O.UPF
     MD5 check sum: 78c19812648e8988a0fe644b0f25305e
     Pseudo is Ultrasoft, Zval =  6.0
     Generated by new atomic code, or converted to UPF format
     Using radial grid of  737 points,  4 beta functions with:
                l(1) =   0
                l(2) =   0
                l(3) =   1
                l(4) =   1
     Q(r) pseudized with  8 coefficients,  rinner =    0.800   0.800   0.800

     PseudoPot. # 3 for N  read from file:
     /storage/coda1/p-amedford6/0/shared/rich_project_chbe-medford/medford-share/data/pseudos_module/espresso/nninc/pbe/van/N.UPF
     MD5 check sum: 90d10febe142ad51ac9d5be1deb811c4
     Pseudo is Ultrasoft, Zval =  5.0
     Generated by new atomic code, or converted to UPF format
     Using radial grid of  729 points,  4 beta functions with:
                l(1) =   0
                l(2) =   0
                l(3) =   1
                l(4) =   1
     Q(r) pseudized with  8 coefficients,  rinner =    0.800   0.800   0.800

     PseudoPot. # 4 for C  read from file:
     /storage/coda1/p-amedford6/0/shared/rich_project_chbe-medford/medford-share/data/pseudos_module/espresso/nninc/pbe/van/C.UPF
     MD5 check sum: 1a69bf6b8db32088f5b2163dbdb77a27
     Pseudo is Ultrasoft, Zval =  4.0
     Generated by new atomic code, or converted to UPF format
     Using radial grid of  721 points,  4 beta functions with:
                l(1) =   0
                l(2) =   0
                l(3) =   1
                l(4) =   1
     Q(r) pseudized with  8 coefficients,  rinner =    0.800   0.800   0.800

     PseudoPot. # 5 for H  read from file:
     /storage/coda1/p-amedford6/0/shared/rich_project_chbe-medford/medford-share/data/pseudos_module/espresso/nninc/pbe/van/H.UPF
     MD5 check sum: b5ee9d7bfd3a09ee7748110bda690ff7
     Pseudo is Ultrasoft, Zval =  1.0
     Generated by new atomic code, or converted to UPF format
     Using radial grid of  615 points,  1 beta functions with:
                l(1) =   0
     Q(r) pseudized with  8 coefficients,  rinner =    0.800

     atomic species   valence    mass     pseudopotential
        Ti1           12.00    47.86700     Ti( 1.00)
        O1             6.00    15.99900     O ( 1.00)
        N1             5.00    14.00700     N ( 1.00)
        C1             4.00    12.01100     C ( 1.00)
        H1             1.00     1.00800     H ( 1.00)

     Starting magnetic structure
     atomic species   magnetization
        Ti1          0.000
        O1           0.000
        N1           0.000
        C1           0.025
        H1           0.000

     No symmetry found

   Cartesian axes

     site n.     atom                  positions (alat units)
         1           Ti1 tau(   1) = (   0.0004258   2.9801865   6.0000000  )
         2           Ti1 tau(   2) = (   3.2906075   1.4906267   6.0002472  )
         3           O1  tau(   3) = (   0.0006271   0.0005054   7.9858123  )
         4           O1  tau(   4) = (   3.2906025   0.0005020   7.3038282  )
         5           O1  tau(   5) = (   4.5942328   1.4918067   9.2879030  )
         6           O1  tau(   6) = (   1.9868534   1.4903216   9.2879459  )
         7           Ti1 tau(   7) = (   3.2907910   2.8959150   9.1758416  )
         8           Ti1 tau(   8) = (   0.0015273   1.4827037   9.2680791  )
         9           O1  tau(   9) = (   3.3020592   5.9599881  11.3075072  )
        10           O1  tau(  10) = (   0.0116148   5.9584955  10.6183126  )
        11           O1  tau(  11) = (   1.3218652   1.4872367  12.6142461  )
        12           O1  tau(  12) = (   5.3149618   1.4866655  12.6283206  )
        13           Ti1 tau(  13) = (   6.5343381   3.0098038  12.6530281  )
        14           Ti1 tau(  14) = (   3.2132235   1.4912063  12.4551521  )
        15           O1  tau(  15) = (   0.0515422   5.9562953  14.6829507  )
        16           O1  tau(  16) = (   3.3088797   0.0214154  13.8770011  )
        17           O1  tau(  17) = (   4.5726725   1.5412406  16.1224456  )
        18           O1  tau(  18) = (   2.0900022   1.5114086  15.9969863  )
        19           Ti1 tau(  19) = (   3.3311046   3.0200058  15.6476981  )
        20           Ti1 tau(  20) = (   0.0790784   1.4105808  15.8036947  )
        21           O1  tau(  21) = (   3.2904802   0.0005063   4.7018136  )
        22           O1  tau(  22) = (   0.0613336   0.0214447  17.2555488  )
        23           O1  tau(  23) = (   1.3043587   1.4918075   6.0039043  )
        24           O1  tau(  24) = (   5.2767064   1.4903225   6.0039473  )
        25           Ti1 tau(  25) = (   0.0000382   5.9609847   6.0000000  )
        26           Ti1 tau(  26) = (   3.2902200   4.4714249   6.0002472  )
        27           O1  tau(  27) = (   0.0002396   2.9813036   7.9858123  )
        28           O1  tau(  28) = (   3.2902150   2.9813002   7.3038282  )
        29           O1  tau(  29) = (   4.5938453   4.4726049   9.2879030  )
        30           O1  tau(  30) = (   1.9864658   4.4711199   9.2879459  )
        31           Ti1 tau(  31) = (   3.2891106   5.8743827   9.1763621  )
        32           Ti1 tau(  32) = (   0.0006254   4.4649316   9.2693709  )
        33           O1  tau(  33) = (   3.3026341   2.9893090  11.3092672  )
        34           O1  tau(  34) = (   0.0092240   2.9805883  10.6323155  )
        35           O1  tau(  35) = (   1.3182942   4.4670451  12.6271195  )
        36           O1  tau(  36) = (   5.3124783   4.4780259  12.6376329  )
        37           Ti1 tau(  37) = (   6.5365500   0.0194685  12.5464133  )
        38           Ti1 tau(  38) = (   3.2155898   4.4753301  12.4613306  )
        39           O1  tau(  39) = (   0.0167368   2.9407051  14.7244952  )
        40           O1  tau(  40) = (   3.3149560   2.9822459  13.8616979  )
        41           O1  tau(  41) = (   4.5706274   4.5128733  15.9228735  )
        42           O1  tau(  42) = (   2.1262058   4.4922812  16.0793225  )
        43           Ti1 tau(  43) = (   3.3222298   0.0210159  15.6751784  )
        44           Ti1 tau(  44) = (   6.5499002   4.5104744  16.2959303  )
        45           O1  tau(  45) = (   3.2900926   2.9813045   4.7018136  )
        46           O1  tau(  46) = (   1.3039711   4.4726057   6.0039043  )
        47           O1  tau(  47) = (   5.2763189   4.4711207   6.0039473  )
        48           N1  tau(  48) = (   0.3735289   2.9861087  17.6038306  )
        49           C1  tau(  49) = (   1.3580301   2.7301661  18.6431808  )
        50           H1  tau(  50) = (   1.5128655   3.6233449  19.2641712  )
        51           H1  tau(  51) = (   1.0354786   1.8978442  19.2795547  )
        52           H1  tau(  52) = (   2.3065860   2.4473273  18.1987077  )
        53           N1  tau(  53) = (   5.7326324   3.4596218  18.1373629  )
        54           H1  tau(  54) = (   5.8436824   4.0167099  18.9748678  )
        55           H1  tau(  55) = (   5.0375616   2.7244768  18.2555579  )

     number of k points=    10  Fermi-Dirac smearing, width (Ry)=  0.0073
                       cart. coord. in units 2pi/alat
        k(    1) = (   0.0000000   0.0000000   0.0000000), wk =   0.0625000
        k(    2) = (   0.0000000   0.0419351   0.0000000), wk =   0.1250000
        k(    3) = (   0.0000000  -0.0838702   0.0000000), wk =   0.0625000
        k(    4) = (   0.0379955   0.0000049   0.0000000), wk =   0.1250000
        k(    5) = (   0.0379955   0.0419400   0.0000000), wk =   0.1250000
        k(    6) = (   0.0379955  -0.0838652   0.0000000), wk =   0.1250000
[...]
     %                                                                      %
     % You are using vdW-DF, which was implemented by the Thonhauser group. %
     % Please cite the following two papers that made this development      %
     % possible and the two reviews that describe the various versions:     %
     %                                                                      %
     %   T. Thonhauser et al., PRL 115, 136402 (2015).                      %
     %   T. Thonhauser et al., PRB 76, 125112 (2007).                       %
     %   K. Berland et al., Rep. Prog. Phys. 78, 066501 (2015).             %
     %   D.C. Langreth et al., J. Phys.: Condens. Matter 21, 084203 (2009). %
     %                                                                      %
     %                                                                      %
     % If you are calculating the stress with vdW-DF, please also cite:     %
     %                                                                      %
     %   R. Sabatini et al., J. Phys.: Condens. Matter 24, 424209 (2012).   %
     %                                                                      %
     %%%%%%%%%%%%%%%%%%%%%%%%%%%%%%%%%%%%%%%%%%%%%%%%%%%%%%%%%%%%%%%%%%%%%%%%

     Adding external electric field

     Computed dipole along edir(3) :
        Dipole               -9.2582 Ry au,        -23.5319 Debye
        Dipole field         -0.0175 Ry au,

        Potential amp.        1.6196 Ry
        Total length         46.3494 bohr

[...]

     Starting wfcs are  301 atomic wfcs
  @ DRIVER MODE: Message from server: STATUS
  @ DRIVER MODE: Message from server: POSDATA
  @ DRIVER MODE: Reading and sharing cell
  @ DRIVER MODE: Reading and sharing positions
  @ DRIVER MODE: Received positions

     Self-consistent Calculation

     iteration #  1     ecut=    29.40 Ry     beta= 0.05
     Davidson diagonalization with overlap
     c_bands:  1 eigenvalues not converged
     c_bands:  2 eigenvalues not converged
     c_bands:  1 eigenvalues not converged
     c_bands:  2 eigenvalues not converged
     c_bands:  2 eigenvalues not converged
     c_bands:  2 eigenvalues not converged
     c_bands:  2 eigenvalues not converged
     c_bands:  1 eigenvalues not converged
     c_bands:  4 eigenvalues not converged
     c_bands:  1 eigenvalues not converged
     c_bands:  2 eigenvalues not converged
     c_bands:  1 eigenvalues not converged
     c_bands:  2 eigenvalues not converged
     c_bands:  2 eigenvalues not converged
     c_bands:  2 eigenvalues not converged
     c_bands:  2 eigenvalues not converged
     c_bands:  1 eigenvalues not converged
     c_bands:  4 eigenvalues not converged
     ethr =  1.00E-05,  avg # of iterations = 19.8

[...]

     total energy              =   -2525.29359377 Ry
     estimated scf accuracy    <    4616.11836492 Ry

     total magnetization       =     0.00 Bohr mag/cell
     absolute magnetization    =     0.03 Bohr mag/cell

     iteration #  2     ecut=    29.40 Ry     beta= 0.05
     Davidson diagonalization with overlap
     ethr =  1.00E-02,  avg # of iterations = 23.2

[...]

     iteration #104     ecut=    29.40 Ry     beta= 0.05
     Davidson diagonalization with overlap
     ethr =  2.14E-11,  avg # of iterations =  7.5

[...]

     total energy              =   -2941.63805111 Ry
     estimated scf accuracy    <       0.00000008 Ry

[...]

     iteration #105     ecut=    29.40 Ry     beta= 0.05
     Davidson diagonalization with overlap
     c_bands:  1 eigenvalues not converged
     ethr =  1.92E-11,  avg # of iterations = 12.2

     negative rho (up, down):  8.396E-03 8.399E-03

[...]

     Adding external electric field

     Computed dipole along edir(3) :
        Dipole                1.1509 Ry au,          2.9252 Debye
        Dipole field          0.0022 Ry au,

        Potential amp.       -0.2013 Ry
        Total length         46.3494 bohr

     Magnetic moment per site  (integrated on atomic sphere of radius R)
     atom   1 (R=0.726)  charge=  7.9409  magn=  0.0221
     atom   2 (R=0.726)  charge=  7.9244  magn=  0.0011
     atom   3 (R=0.726)  charge=  4.9319  magn= -0.0017
     atom   4 (R=0.726)  charge=  4.9681  magn= -0.0002
     atom   5 (R=0.726)  charge=  4.9368  magn= -0.0002
     atom   6 (R=0.726)  charge=  4.9376  magn= -0.0002
     atom   7 (R=0.726)  charge=  7.9229  magn=  0.0007
     atom   8 (R=0.726)  charge=  7.9151  magn=  0.0065
     atom   9 (R=0.726)  charge=  4.9562  magn= -0.0001
     atom  10 (R=0.726)  charge=  4.9310  magn= -0.0005
     atom  11 (R=0.726)  charge=  4.9387  magn= -0.0001
     atom  12 (R=0.726)  charge=  4.9369  magn= -0.0002
     atom  13 (R=0.726)  charge=  7.9088  magn=  0.0013
     atom  14 (R=0.726)  charge=  7.9273  magn=  0.0004
     atom  15 (R=0.726)  charge=  4.9165  magn= -0.0001
     atom  16 (R=0.726)  charge=  4.9542  magn= -0.0000
     atom  17 (R=0.726)  charge=  4.9068  magn= -0.0000
     atom  18 (R=0.726)  charge=  4.9387  magn= -0.0000
     atom  19 (R=0.726)  charge=  7.9528  magn=  0.0000
     atom  20 (R=0.726)  charge=  7.9411  magn=  0.0002
     atom  21 (R=0.726)  charge=  4.8211  magn= -0.0010
     atom  22 (R=0.726)  charge=  4.9006  magn= -0.0000
     atom  23 (R=0.726)  charge=  4.9281  magn= -0.0027
     atom  24 (R=0.726)  charge=  4.9282  magn= -0.0027
     atom  25 (R=0.726)  charge=  7.9409  magn=  0.0221
     atom  26 (R=0.726)  charge=  7.9244  magn=  0.0011
     atom  27 (R=0.726)  charge=  4.9305  magn= -0.0018
     atom  28 (R=0.726)  charge=  4.9683  magn= -0.0003
     atom  29 (R=0.726)  charge=  4.9375  magn= -0.0002
     atom  30 (R=0.726)  charge=  4.9383  magn= -0.0002
     atom  31 (R=0.726)  charge=  7.9236  magn=  0.0008
     atom  32 (R=0.726)  charge=  7.9153  magn=  0.0064
     atom  33 (R=0.726)  charge=  4.9540  magn= -0.0001
     atom  34 (R=0.726)  charge=  4.9049  magn= -0.0006
     atom  35 (R=0.726)  charge=  4.9378  magn= -0.0001
     atom  36 (R=0.726)  charge=  4.9369  magn= -0.0002
     atom  37 (R=0.726)  charge=  7.9159  magn=  0.0015
     atom  38 (R=0.726)  charge=  7.9271  magn=  0.0004
     atom  39 (R=0.726)  charge=  4.9089  magn= -0.0001
     atom  40 (R=0.726)  charge=  4.9620  magn= -0.0000
     atom  41 (R=0.726)  charge=  4.9464  magn= -0.0000
     atom  42 (R=0.726)  charge=  4.9157  magn= -0.0000
     atom  43 (R=0.726)  charge=  7.9490  magn=  0.0000
     atom  44 (R=0.726)  charge=  7.9599  magn=  0.0001
     atom  45 (R=0.726)  charge=  4.8212  magn= -0.0010
     atom  46 (R=0.726)  charge=  4.9281  magn= -0.0027
     atom  47 (R=0.726)  charge=  4.9282  magn= -0.0026
     atom  48 (R=0.417)  charge=  1.2978  magn= -0.0000
     atom  49 (R=0.448)  charge=  0.8406  magn=  0.0000
     atom  50 (R=0.417)  charge=  0.4366  magn= -0.0000
     atom  51 (R=0.417)  charge=  0.4356  magn= -0.0000
     atom  52 (R=0.417)  charge=  0.4436  magn= -0.0000
     atom  53 (R=0.417)  charge=  1.3212  magn= -0.0000
     atom  54 (R=0.417)  charge=  0.4529  magn=  0.0000
     atom  55 (R=0.417)  charge=  0.4448  magn= -0.0000

     End of self-consistent calculation

 ------ SPIN UP ------------

          k = 0.0000 0.0000 0.0000 ( 18029 PWs)   bands (ev):

   -55.5892 -55.5741 -55.5552 -55.5362 -55.4616 -55.4243 -55.4227 -55.3872
   -55.3760 -55.3420 -55.3270 -55.2931 -55.0307 -54.8751 -54.5375 -54.5035
   -32.1360 -32.0585 -31.9586 -31.8913 -31.8876 -31.8849 -31.8831 -31.8267
   -31.8190 -31.8058 -31.7838 -31.7586 -31.7542 -31.7450 -31.7260 -31.7151
   -31.6808 -31.6601 -31.6584 -31.6509 -31.6506 -31.6499 -31.6142 -31.5974
   -31.5704 -31.5702 -31.5670 -31.5622 -31.5576 -31.5307 -31.5097 -31.5082
   -31.4945 -31.4914 -31.4813 -31.4794 -31.4403 -31.3049 -31.2556 -31.1545
   -31.1278 -31.0361 -30.9433 -30.8573 -30.8346 -30.7607 -30.6743 -30.5625
   -17.5940 -16.3609 -16.0468 -15.8337 -15.7242 -15.7212 -15.6375 -15.4153
   -15.2945 -15.2787 -15.1651 -15.1613 -15.0979 -15.0594 -15.0527 -15.0460
   -15.0131 -15.0013 -14.9802 -14.9475 -14.9145 -14.8963 -14.8730 -14.7718
   -14.7046 -14.6961 -14.6812 -14.6158 -14.5680 -14.2083 -13.0369 -12.9207
   -12.5484  -9.2135  -6.3545  -5.0957  -4.1925  -3.7394  -3.5498  -3.4731
    -3.4381  -3.3703  -3.3516  -3.1804  -3.1732  -2.7937  -2.7743  -2.7562
    -2.7348  -2.7316  -2.4626  -2.4097  -2.3947  -2.3916  -2.3737  -2.3569
    -2.3360  -2.3251  -2.2972  -2.2870  -2.1534  -2.1086  -2.0309  -2.0047
    -1.9892  -1.8786  -1.8527  -1.8323  -1.8205  -1.8076  -1.7781  -1.7712
    -1.7495  -1.6419  -1.5323  -1.4525  -1.4130  -1.3597  -1.3392  -1.1622
    -1.1103  -1.0506  -1.0265  -1.0021  -0.9872  -0.9534  -0.8795  -0.8566
    -0.7125  -0.6742  -0.6199  -0.5935  -0.5648  -0.5102  -0.4756  -0.4451
    -0.3502  -0.3365  -0.3238  -0.3125  -0.2576  -0.0641  -0.0172   0.0021
     0.0172   0.1161   0.1554   0.1788   0.2148   0.2715   0.2992   0.3642
     0.3924   0.4155   0.4242   0.4520   0.4686   0.6005   0.6242   0.6566
     0.7184   0.7715   0.8470   0.9594   1.0423   1.0997   1.2010   1.4193
     1.4871   1.5706   1.6806   1.7115   2.0575   2.1016   3.5551   3.6314
     3.6912   3.7035   3.8117   3.8678   4.0047   4.0227   4.0597   4.0950

[...]

          k =-0.0760-0.0000 0.0000 ( 17886 PWs)   bands (ev):

[...]

 ------ SPIN DOWN ----------

[...]

          k = 0.0380-0.0419 0.0000 ( 17876 PWs)   bands (ev):

[...]

          k =-0.0760-0.0839 0.0000 ( 17948 PWs)   bands (ev):

   -55.5597 -55.5489 -55.5311 -55.5298 -55.4479 -55.4329 -55.4086 -55.4011
   -55.3484 -55.3452 -55.3106 -55.3069 -55.0289 -54.8760 -54.5183 -54.5181
   -31.9412 -31.9307 -31.8564 -31.8556 -31.8431 -31.8265 -31.8233 -31.8223
   -31.8013 -31.7873 -31.7673 -31.7477 -31.7218 -31.7111 -31.7064 -31.6806
   -31.6735 -31.6641 -31.6602 -31.6511 -31.6477 -31.6461 -31.6448 -31.6446
   -31.6226 -31.6126 -31.6021 -31.5995 -31.5479 -31.5460 -31.5430 -31.5406
   -31.5285 -31.5266 -31.5243 -31.5231 -31.4104 -31.3159 -31.2571 -31.2154
   -31.1330 -31.0471 -30.8449 -30.8447 -30.7548 -30.7546 -30.7153 -30.7152
   -17.5823 -15.8209 -15.7809 -15.5259 -15.5174 -15.5144 -15.4750 -15.3509
   -15.3021 -15.2764 -15.2655 -15.2470 -15.2383 -15.1369 -15.1231 -15.1066
   -15.0967 -15.0695 -15.0264 -15.0213 -15.0125 -15.0035 -14.9917 -14.9246
   -14.8723 -14.8684 -14.7543 -14.6630 -14.5223 -14.4331 -13.0250 -13.0246
   -12.5676  -9.1752  -6.3130  -5.1250  -4.1257  -3.4220  -3.1214  -3.0739
    -2.7859  -2.7663  -2.7501  -2.6364  -2.5184  -2.5091  -2.4828  -2.4613
    -2.4268  -2.4141  -2.4039  -2.3959  -2.3775  -2.3592  -2.3486  -2.3096
    -2.2406  -2.2326  -2.2239  -2.2159  -2.1989  -2.1752  -2.1644  -2.1373
    -2.1128  -2.0783  -2.0192  -1.9887  -1.8391  -1.7954  -1.7333  -1.6946
    -1.6861  -1.6573  -1.6230  -1.6158  -1.5051  -1.4912  -1.4586  -1.3285
    -1.2675  -1.2594  -1.2266  -1.1390  -1.1009  -0.9709  -0.9577  -0.9207
    -0.8651  -0.8578  -0.8204  -0.7828  -0.7320  -0.6799  -0.6367  -0.6131
    -0.5951  -0.5233  -0.5228  -0.4760  -0.4192  -0.3486  -0.3248  -0.3178
    -0.2864  -0.2428  -0.1950  -0.1319  -0.0568  -0.0400  -0.0223   0.0768
     0.1501   0.3684   0.4159   0.5119   0.5349   0.5613   0.6226   0.6718
     0.7406   0.7550   0.7834   0.8573   0.8790   0.9716   0.9829   0.9999
     1.1775   1.6468   1.8512   1.8521   1.9203   1.9208   3.8593   3.8751
     3.8995   3.9232   4.0968   4.1018   4.1107   4.1134   4.2330   4.2635

     the Fermi energy is     3.5642 ev

!    total energy              =   -2941.63805349 Ry
     estimated scf accuracy    <       0.00000006 Ry
     smearing contrib. (-TS)   =      -0.02166580 Ry
     internal energy E=F+TS    =   -2941.61638769 Ry

     The total energy is F=E-TS. E is the sum of the following terms:
     one-electron contribution =  -24388.15931072 Ry
     hartree contribution      =   12286.04350681 Ry
     xc contribution           =    -486.94595004 Ry
     ewald contribution        =    9647.44286680 Ry
     electric field correction =       0.00249946 Ry

     total magnetization       =     0.08 Bohr mag/cell
     absolute magnetization    =     0.13 Bohr mag/cell

     convergence has been achieved in 105 iterations

     Forces acting on atoms (cartesian axes, Ry/au):

     atom    1 type  1   force =    -0.00000747   -0.00019308    0.09678751
     atom    2 type  1   force =     0.00009098   -0.00069317   -0.17465682
     atom    3 type  2   force =     0.00018234   -0.00005959   -0.02502444
     atom    4 type  2   force =     0.00000876   -0.00124930    0.05121669
     atom    5 type  2   force =    -0.01126608   -0.00080491    0.00229024
     atom    6 type  2   force =     0.01310734   -0.00035552    0.00273630
     atom    7 type  1   force =     0.00100244    0.00021004   -0.01342845
     atom    8 type  1   force =    -0.00010326    0.01533456    0.02822368
     atom    9 type  2   force =    -0.00007231   -0.00001293    0.00010451
     atom   10 type  2   force =    -0.00233968    0.00080759   -0.01057230
     atom   11 type  2   force =     0.00036227    0.00005403   -0.00001323
     atom   12 type  2   force =    -0.00044466   -0.00006868    0.00025632
     atom   13 type  1   force =     0.00015429   -0.00018561   -0.00007244
     atom   14 type  1   force =     0.00010806   -0.00022018    0.00001983
     atom   15 type  2   force =    -0.00004320    0.00016725   -0.00011889
     atom   16 type  2   force =    -0.00019848    0.00003899   -0.00018057
     atom   17 type  2   force =    -0.00012926    0.00007288   -0.00007749
     atom   18 type  2   force =    -0.00014590    0.00001816   -0.00015825
     atom   19 type  1   force =    -0.00031480    0.00020080    0.00006207
     atom   20 type  1   force =     0.00004885   -0.00049127    0.00022039
     atom   21 type  2   force =     0.00003679   -0.00009042    0.10298557
     atom   22 type  2   force =    -0.00003871    0.00037936    0.00039168
     atom   23 type  2   force =    -0.07177557   -0.00021262   -0.02778775
     atom   24 type  2   force =     0.07173475    0.00024301   -0.02785004
     atom   25 type  1   force =     0.00003579   -0.00025576    0.09639512
     atom   26 type  1   force =    -0.00000945   -0.00029777   -0.17491273
     atom   27 type  2   force =     0.00019259   -0.00025528   -0.02388381
     atom   28 type  2   force =     0.00005302   -0.00100626    0.05148792
     atom   29 type  2   force =    -0.01129437    0.00078425    0.00170379
     atom   30 type  2   force =     0.01298444    0.00111160    0.00210503
     atom   31 type  1   force =     0.00103741    0.00256628   -0.01544772
     atom   32 type  1   force =     0.00005581   -0.01663620    0.02910154
     atom   33 type  2   force =     0.00011714    0.00002801   -0.00010800
     atom   34 type  2   force =    -0.00270993    0.00093493   -0.01867503
     atom   35 type  2   force =     0.00018311   -0.00007288   -0.00009124
     atom   36 type  2   force =    -0.00039060   -0.00007093    0.00013076
     atom   37 type  1   force =    -0.00011752   -0.00019100    0.00013542
     atom   38 type  1   force =     0.00007950    0.00008568   -0.00007306
     atom   39 type  2   force =    -0.00003263    0.00045415   -0.00001799
     atom   40 type  2   force =    -0.00037999    0.00014696   -0.00013203
     atom   41 type  2   force =     0.00014774   -0.00005193   -0.00009586
     atom   42 type  2   force =     0.00000469    0.00020717    0.00000881
     atom   43 type  1   force =     0.00017351    0.00002236   -0.00013051
     atom   44 type  1   force =    -0.00025380   -0.00023411   -0.00018204
     atom   45 type  2   force =     0.00005396   -0.00011064    0.10299144
     atom   46 type  2   force =    -0.07180009   -0.00015959   -0.02780997
     atom   47 type  2   force =     0.07174104    0.00022648   -0.02785273
     atom   48 type  3   force =    -0.00062470   -0.00050578   -0.00000555
     atom   49 type  4   force =     0.00009482   -0.00017402    0.00004019
     atom   50 type  5   force =    -0.00028977    0.00011782    0.00014374
     atom   51 type  5   force =    -0.00044890   -0.00010388   -0.00024308
     atom   52 type  5   force =     0.00074525   -0.00023133    0.00013864
     atom   53 type  3   force =    -0.00069113   -0.00469365   -0.00585881
     atom   54 type  5   force =     0.00167452    0.00563864    0.00810608
     atom   55 type  5   force =    -0.00028895   -0.00016271   -0.00232244

     Total force =     0.367404     Total SCF correction =     0.000438
  @ DRIVER MODE: Message from server: STATUS
  @ DRIVER MODE: Message from server: GETFORCE
  @ DRIVER MODE: Returning v,forces,stress,ensemble

     Writing output data file ./calc.save/
  @ DRIVER MODE: Message from server: EXIT
  @ DRIVE MODE: Exiting

     General routines

     Parallel routines

   This run was terminated on:  19: 3:49  16Jul2021

   JOB DONE.