     Program PWSCF v.6.7GPU starts on 15Sep2021 at 20:49:52

     R & G space division:  proc/nbgrp/npool/nimage =      10
     Reading input from /storage/home/hcoda1/3/ntian30/research/carbon/CxH_vib/H2O_calc/ads_slab/CH2NHHH2O_a/out_0016/pw.inp
Warning: card &CELL ignored
Warning: card   CELL_DYNAMICS='IPI', ignored
Warning: card / ignored

     Current dimensions of program PWSCF are:
     Max number of different atomic species (ntypx) = 10
     Max number of k-points (npk) =  40000
     Max angular momentum in pseudopotentials (lmaxx) =  3
     Presently no symmetry can be used with electric field

     Message from routine cell_base_init:
     DEPRECATED: use true lattice parameter, not A to a.u. conversion factor

     IMPORTANT: XC functional enforced from input :
     Exchange-correlation= BEEF-VDW
                           (   1   4  43  14   2   0   0)
     Any further DFT definition will be discarded
     Please, verify this is what you really want

  @ DRIVER MODE: Connecting to
 qe_1139763_2852609.sched-torque.pace.gatech.eduup2me884_scratch
  using UNIX socket
  @ DRIVER MODE: Message from server: STATUS
  @ DRIVER MODE: Message from server: INIT
  @ DRIVER MODE: Receiving replica           0          -1
  @ DRIVER MODE: Receiving encoded integer          25
  @ DRIVER MODE:  SCF:  T  FORCE:  T  STRESS:  F  VC:  F  ENSEMBLE:  F
  @ DRIVER MODE:  SCF:  T  FORCE:  T  STRESS:  F  VC:  F  ENSEMBLE:  F

     Using Slab Decomposition

     bravais-lattice index     =            0
     lattice parameter (alat)  =       1.8897  a.u.
     unit-cell volume          =    6658.9804 (a.u.)^3
     number of atoms/cell      =           56
     number of atomic types    =            5
     number of electrons       =       399.00
     number of Kohn-Sham states=          209
     kinetic-energy cutoff     =      29.3995  Ry
     charge density cutoff     =     293.9946  Ry
     scf convergence threshold =      7.3E-08
     mixing beta               =       0.0500
     number of iterations used =            8  plain     mixing
     Exchange-correlation= BEEF-VDW
                           (   1   4  43  14   2   0   0)

     celldm(1)=   1.889726  celldm(2)=   0.000000  celldm(3)=   0.000000
     celldm(4)=   0.000000  celldm(5)=   0.000000  celldm(6)=   0.000000

     crystal axes: (cart. coord. in units of alat)
               a(1) = (   6.579727   0.000000   0.000000 )
               a(2) = (  -0.000775   5.961596   0.000000 )
               a(3) = (   0.000000   0.000000  25.155947 )

     reciprocal axes: (cart. coord. in units 2 pi/alat)
               b(1) = (  0.151982  0.000020  0.000000 )
               b(2) = (  0.000000  0.167740  0.000000 )
               b(3) = (  0.000000  0.000000  0.039752 )

     PseudoPot. # 1 for Ti read from file:
     /storage/coda1/p-amedford6/0/shared/rich_project_chbe-medford/medford-share/data/pseudos_module/espresso/nninc/pbe/van/Ti.UPF
     MD5 check sum: 8e4df49b7f0d34bbd5052bf3f5ea0213
     Pseudo is Ultrasoft, Zval = 12.0
     Generated by new atomic code, or converted to UPF format
     Using radial grid of  851 points,  6 beta functions with:
                l(1) =   0
                l(2) =   0
                l(3) =   1
                l(4) =   1
                l(5) =   2
                l(6) =   2
     Q(r) pseudized with  8 coefficients,  rinner =    1.000   1.000   1.000
                                                       1.000   1.000

     PseudoPot. # 2 for O  read from file:
     /storage/coda1/p-amedford6/0/shared/rich_project_chbe-medford/medford-share/data/pseudos_module/espresso/nninc/pbe/van/O.UPF
     MD5 check sum: 78c19812648e8988a0fe644b0f25305e
     Pseudo is Ultrasoft, Zval =  6.0
     Generated by new atomic code, or converted to UPF format
     Using radial grid of  737 points,  4 beta functions with:
                l(1) =   0
                l(2) =   0
                l(3) =   1
                l(4) =   1
     Q(r) pseudized with  8 coefficients,  rinner =    0.800   0.800   0.800

     PseudoPot. # 3 for N  read from file:
     /storage/coda1/p-amedford6/0/shared/rich_project_chbe-medford/medford-share/data/pseudos_module/espresso/nninc/pbe/van/N.UPF
     MD5 check sum: 90d10febe142ad51ac9d5be1deb811c4
     Pseudo is Ultrasoft, Zval =  5.0
     Generated by new atomic code, or converted to UPF format
     Using radial grid of  729 points,  4 beta functions with:
                l(1) =   0
                l(2) =   0
                l(3) =   1
                l(4) =   1
     Q(r) pseudized with  8 coefficients,  rinner =    0.800   0.800   0.800

     PseudoPot. # 4 for C  read from file:
     /storage/coda1/p-amedford6/0/shared/rich_project_chbe-medford/medford-share/data/pseudos_module/espresso/nninc/pbe/van/C.UPF
     MD5 check sum: 1a69bf6b8db32088f5b2163dbdb77a27
     Pseudo is Ultrasoft, Zval =  4.0
     Generated by new atomic code, or converted to UPF format
     Using radial grid of  721 points,  4 beta functions with:
                l(1) =   0
                l(2) =   0
                l(3) =   1
                l(4) =   1
     Q(r) pseudized with  8 coefficients,  rinner =    0.800   0.800   0.800

     PseudoPot. # 5 for H  read from file:
     /storage/coda1/p-amedford6/0/shared/rich_project_chbe-medford/medford-share/data/pseudos_module/espresso/nninc/pbe/van/H.UPF
     MD5 check sum: b5ee9d7bfd3a09ee7748110bda690ff7
     Pseudo is Ultrasoft, Zval =  1.0
     Generated by new atomic code, or converted to UPF format
     Using radial grid of  615 points,  1 beta functions with:
                l(1) =   0
     Q(r) pseudized with  8 coefficients,  rinner =    0.800

     atomic species   valence    mass     pseudopotential
        Ti1           12.00    47.86700     Ti( 1.00)
        O1             6.00    15.99900     O ( 1.00)
        N1             5.00    14.00700     N ( 1.00)
        C1             4.00    12.01100     C ( 1.00)
        H1             1.00     1.00800     H ( 1.00)

     No symmetry found

   Cartesian axes

     site n.     atom                  positions (alat units)
         1           Ti1 tau(   1) = (   0.0004258   2.9801865   6.0000000  )
         2           Ti1 tau(   2) = (   3.2906075   1.4906267   6.0002472  )
         3           O1  tau(   3) = (   0.0006271   0.0005054   7.9858123  )
         4           O1  tau(   4) = (   3.2906025   0.0005020   7.3038282  )
         5           O1  tau(   5) = (   4.5942328   1.4918067   9.2879030  )
         6           O1  tau(   6) = (   1.9868534   1.4903216   9.2879459  )
         7           Ti1 tau(   7) = (   3.2907910   2.8959150   9.1758416  )
         8           Ti1 tau(   8) = (   0.0015273   1.4827037   9.2680791  )
         9           O1  tau(   9) = (   3.2861202   0.0128588  11.3777969  )
        10           O1  tau(  10) = (   0.0116148   5.9584955  10.6183126  )
        11           O1  tau(  11) = (   1.2831632   1.4993340  12.6921085  )
        12           O1  tau(  12) = (   5.2921761   1.5015178  12.6679780  )
        13           Ti1 tau(  13) = (   0.0111066   2.9912061  12.5123142  )
        14           Ti1 tau(  14) = (   3.3187119   1.4875497  12.5412637  )
        15           O1  tau(  15) = (   6.5416963   5.9006142  14.6662030  )
        16           O1  tau(  16) = (   3.3066524   0.0016155  14.0179881  )
        17           O1  tau(  17) = (   4.5377470   1.5714702  16.1207712  )
        18           O1  tau(  18) = (   1.9925948   1.5577299  16.0387284  )
        19           Ti1 tau(  19) = (   3.2598466   3.0207798  15.7337896  )
        20           Ti1 tau(  20) = (   0.0086319   1.3133152  15.8444473  )
        21           O1  tau(  21) = (   3.2904802   0.0005063   4.7018136  )
        22           O1  tau(  22) = (   6.5660721   0.1678205  17.2271563  )
        23           O1  tau(  23) = (   1.3043587   1.4918075   6.0039043  )
        24           O1  tau(  24) = (   5.2767064   1.4903225   6.0039473  )
        25           Ti1 tau(  25) = (   0.0000382   5.9609847   6.0000000  )
        26           Ti1 tau(  26) = (   3.2902200   4.4714249   6.0002472  )
        27           O1  tau(  27) = (   0.0002396   2.9813036   7.9858123  )
        28           O1  tau(  28) = (   3.2902150   2.9813002   7.3038282  )
        29           O1  tau(  29) = (   4.5938453   4.4726049   9.2879030  )
        30           O1  tau(  30) = (   1.9864658   4.4711199   9.2879459  )
        31           Ti1 tau(  31) = (   3.2891106   5.8743827   9.1763621  )
        32           Ti1 tau(  32) = (   0.0006254   4.4649316   9.2693709  )
        33           O1  tau(  33) = (   3.2870289   2.9785969  11.3746142  )
        34           O1  tau(  34) = (   0.0092240   2.9805883  10.6323155  )
        35           O1  tau(  35) = (   1.2865429   4.4729593  12.6568099  )
        36           O1  tau(  36) = (   5.2907978   4.4713399  12.6331247  )
        37           Ti1 tau(  37) = (   0.0245089   0.0029545  12.5000319  )
        38           Ti1 tau(  38) = (   3.3192338   4.4773935  12.5310228  )
        39           O1  tau(  39) = (   6.5398775   3.0461246  14.9162120  )
        40           O1  tau(  40) = (   3.2968145   3.0151409  13.9465962  )
        41           O1  tau(  41) = (   4.5189833   4.4812017  16.2068643  )
        42           O1  tau(  42) = (   1.9905864   4.4756957  16.1679402  )
        43           Ti1 tau(  43) = (   3.3140030   0.0507474  15.8534526  )
        44           Ti1 tau(  44) = (   0.0184218   4.5194176  15.9927436  )
        45           O1  tau(  45) = (   3.2900926   2.9813045   4.7018136  )
        46           O1  tau(  46) = (   1.3039711   4.4726057   6.0039043  )
        47           O1  tau(  47) = (   5.2763189   4.4711207   6.0039473  )
        48           N1  tau(  48) = (   6.2908993   3.4294391  18.1752670  )
        49           C1  tau(  49) = (   0.7550536   3.1452864  19.0745941  )
        50           H1  tau(  50) = (   1.1396299   3.9743166  19.6610198  )
        51           H1  tau(  51) = (   1.3301158   2.2513941  18.9084762  )
        52           H1  tau(  52) = (   5.7550451   4.2450011  18.4501662  )
        53           H1  tau(  53) = (   5.6463078   2.6497838  18.0429669  )
        54           O1  tau(  54) = (   3.1180431   0.1968263  18.2683150  )
        55           H1  tau(  55) = (   3.8687171   5.7182160  18.6922429  )
        56           H1  tau(  56) = (   2.3371514   5.6040609  18.4451484  )

     number of k points=    10  Fermi-Dirac smearing, width (Ry)=  0.0073
                       cart. coord. in units 2pi/alat
        k(    1) = (   0.0000000   0.0000000   0.0000000), wk =   0.1250000
        k(    2) = (   0.0000000   0.0419351   0.0000000), wk =   0.2500000
        k(    3) = (   0.0000000  -0.0838702   0.0000000), wk =   0.1250000
        k(    4) = (   0.0379955   0.0000049   0.0000000), wk =   0.2500000
        k(    5) = (   0.0379955   0.0419400   0.0000000), wk =   0.2500000
        k(    6) = (   0.0379955  -0.0838652   0.0000000), wk =   0.2500000
        k(    7) = (   0.0379955  -0.0419301   0.0000000), wk =   0.2500000
        k(    8) = (  -0.0759910  -0.0000099   0.0000000), wk =   0.1250000
        k(    9) = (  -0.0759910   0.0419252   0.0000000), wk =   0.2500000
        k(   10) = (  -0.0759910  -0.0838800   0.0000000), wk =   0.1250000

     Initial potential from superposition of free atoms

     starting charge  382.99914, renormalised to  399.00000

     negative rho (up, down):  1.613E-02 0.000E+00

     %%%%%%%%%%%%%%%%%%%%%%%%%%%%%%%%%%%%%%%%%%%%%%%%%%%%%%%%%%%%%%%%%%%%%%%%
     %                                                                      %
     % You are using vdW-DF, which was implemented by the Thonhauser group. %
     % Please cite the following two papers that made this development      %
     % possible and the two reviews that describe the various versions:     %
     %                                                                      %
     %   T. Thonhauser et al., PRL 115, 136402 (2015).                      %
     %   T. Thonhauser et al., PRB 76, 125112 (2007).                       %
     %   K. Berland et al., Rep. Prog. Phys. 78, 066501 (2015).             %
     %   D.C. Langreth et al., J. Phys.: Condens. Matter 21, 084203 (2009). %
     %                                                                      %
     %                                                                      %
     % If you are calculating the stress with vdW-DF, please also cite:     %
     %                                                                      %
     %   R. Sabatini et al., J. Phys.: Condens. Matter 24, 424209 (2012).   %
     %                                                                      %
     %%%%%%%%%%%%%%%%%%%%%%%%%%%%%%%%%%%%%%%%%%%%%%%%%%%%%%%%%%%%%%%%%%%%%%%%

     Adding external electric field

     Computed dipole along edir(3) :
        Dipole              -11.3169 Ry au,        -28.7647 Debye
        Dipole field         -0.0214 Ry au,

        Potential amp.        1.9797 Ry
        Total length         46.3494 bohr

     Starting wfcs are  302 atomic wfcs
  @ DRIVER MODE: Message from server: STATUS
  @ DRIVER MODE: Message from server: POSDATA
  @ DRIVER MODE: Reading and sharing cell
  @ DRIVER MODE: Reading and sharing positions
  @ DRIVER MODE: Received positions

     Self-consistent Calculation

     iteration #  1     ecut=    29.40 Ry     beta= 0.05
     Davidson diagonalization with overlap
     c_bands:  3 eigenvalues not converged
     c_bands:  3 eigenvalues not converged
     c_bands:  1 eigenvalues not converged
     c_bands:  4 eigenvalues not converged
     c_bands:  1 eigenvalues not converged
     c_bands:  1 eigenvalues not converged
     c_bands:  1 eigenvalues not converged
     c_bands:  2 eigenvalues not converged
     c_bands:  3 eigenvalues not converged
     ethr =  1.00E-05,  avg # of iterations = 24.0

[...]

     total energy              =   -2437.58228409 Ry
     estimated scf accuracy    <    5825.82814413 Ry

     iteration #  2     ecut=    29.40 Ry     beta= 0.05
     Davidson diagonalization with overlap
     ethr =  1.00E-02,  avg # of iterations = 27.0

[...]

     iteration # 73     ecut=    29.40 Ry     beta= 0.05
     Davidson diagonalization with overlap
     c_bands:  1 eigenvalues not converged
     ethr =  4.76E-10,  avg # of iterations = 11.3

[...]

     total energy              =   -2955.08675496 Ry
     estimated scf accuracy    <       0.00000010 Ry

     iteration # 80     ecut=    29.40 Ry     beta= 0.05
     Davidson diagonalization with overlap
     ethr =  2.38E-11,  avg # of iterations =  9.3

     negative rho (up, down):  1.530E-02 0.000E+00

     Adding external electric field

     Computed dipole along edir(3) :
        Dipole                0.9568 Ry au,          2.4319 Debye
        Dipole field          0.0018 Ry au,

        Potential amp.       -0.1674 Ry
        Total length         46.3494 bohr

     End of self-consistent calculation

          k = 0.0000 0.0000 0.0000 ( 18029 PWs)   bands (ev):

   -55.5438 -55.5104 -55.5072 -55.4896 -55.4763 -55.4277 -55.3914 -55.3719
   -55.3550 -55.3423 -55.3370 -55.3087 -55.2967 -55.1144 -54.5362 -54.5022
   -32.0997 -32.0025 -31.9160 -31.9009 -31.8757 -31.8607 -31.8470 -31.8421
   -31.7995 -31.7641 -31.7584 -31.7553 -31.7453 -31.7210 -31.7156 -31.6947
   -31.6852 -31.6826 -31.6709 -31.6626 -31.6413 -31.6240 -31.6067 -31.6006
   -31.5715 -31.5675 -31.5628 -31.5603 -31.5580 -31.5454 -31.5362 -31.5294
   -31.5252 -31.5200 -31.5094 -31.4969 -31.4856 -31.4703 -31.4681 -31.4532
   -31.3398 -31.2953 -30.9454 -30.8517 -30.8297 -30.7619 -30.6751 -30.5641
   -19.2383 -16.4012 -16.3109 -16.0881 -15.9232 -15.8439 -15.7473 -15.6065
   -15.5352 -15.4246 -15.3885 -15.2295 -15.2048 -15.1983 -15.1636 -15.1462
   -15.1071 -15.0890 -15.0599 -15.0483 -15.0469 -15.0250 -14.9884 -14.9845
   -14.9420 -14.9291 -14.8697 -14.7737 -14.7058 -14.6419 -14.3290 -13.0386
   -12.9212  -9.2009  -7.0107  -6.5554  -4.5860  -3.7170  -3.5852  -3.5620
    -3.5029  -3.4487  -3.4070  -3.3001  -3.0700  -3.0207  -2.9785  -2.9289
    -2.8114  -2.7404  -2.7361  -2.6569  -2.5814  -2.5393  -2.4846  -2.4759
    -2.3980  -2.3642  -2.3464  -2.3230  -2.2795  -2.2517  -2.2104  -2.1192
    -2.0978  -2.0200  -1.9906  -1.9461  -1.9424  -1.8948  -1.8769  -1.8382
    -1.8372  -1.8272  -1.8063  -1.7689  -1.7264  -1.6706  -1.5798  -1.5525
    -1.3864  -1.2744  -1.2100  -1.1827  -1.1303  -1.0986  -1.0331  -0.9847
    -0.9707  -0.9348  -0.8677  -0.7651  -0.6989  -0.6866  -0.6267  -0.5355
    -0.4775  -0.4391  -0.3573  -0.3316  -0.3131  -0.3077  -0.2435  -0.1757
    -0.1294  -0.0551  -0.0390   0.0166   0.0391   0.0893   0.1202   0.1870
     0.2427   0.2830   0.3346   0.3891   0.3906   0.4055   0.4406   0.4422
     0.5423   0.5543   0.5765   0.6772   0.7763   0.9641   1.0622   1.0974
     1.3949   1.4103   1.4868   1.6711   2.0623   2.1104   3.5171   3.5474
     3.6313   3.6867   3.6955   3.7254   3.7820   4.0353   4.0467   4.0688
     4.0820

[...]

          k = 0.0380-0.0419 0.0000 ( 17876 PWs)   bands (ev):

[...]

          k =-0.0760-0.0000 0.0000 ( 17886 PWs)   bands (ev):

[...]

          k =-0.0760-0.0839 0.0000 ( 17948 PWs)   bands (ev):

   -55.5293 -55.5215 -55.4934 -55.4932 -55.4873 -55.4154 -55.4037 -55.3572
   -55.3570 -55.3512 -55.3258 -55.3254 -55.2948 -55.1162 -54.5193 -54.5190
   -31.9114 -31.8991 -31.8177 -31.8176 -31.8008 -31.7998 -31.7883 -31.7848
   -31.7848 -31.7683 -31.7571 -31.7499 -31.7325 -31.7148 -31.6957 -31.6897
   -31.6865 -31.6844 -31.6799 -31.6732 -31.6705 -31.6606 -31.6329 -31.6318
   -31.6130 -31.6128 -31.6099 -31.6004 -31.5892 -31.5810 -31.5705 -31.5648
   -31.5555 -31.5551 -31.5527 -31.5432 -31.5134 -31.5055 -31.5049 -31.4821
   -31.3790 -31.3428 -30.8424 -30.8422 -30.7580 -30.7578 -30.7186 -30.7184
   -19.2374 -16.3303 -15.8845 -15.7854 -15.6555 -15.5726 -15.5500 -15.4765
   -15.4183 -15.3847 -15.3282 -15.3055 -15.2916 -15.2762 -15.2415 -15.2156
   -15.1959 -15.1526 -15.1353 -15.1171 -15.0858 -15.0606 -15.0497 -15.0445
   -15.0388 -15.0044 -14.9999 -14.9142 -14.9051 -14.9016 -14.5710 -13.0227
   -13.0226  -9.1999  -7.0427  -6.4951  -4.5688  -3.5487  -3.0917  -3.0488
    -2.9931  -2.8549  -2.7952  -2.7293  -2.6930  -2.6507  -2.6002  -2.5667
    -2.5486  -2.4975  -2.4898  -2.4247  -2.4092  -2.3939  -2.3754  -2.3715
    -2.3635  -2.3263  -2.2911  -2.2776  -2.2706  -2.2615  -2.2477  -2.2010
    -2.1856  -2.1542  -2.1446  -2.1111  -2.0817  -2.0517  -1.9389  -1.9064
    -1.8819  -1.8179  -1.7535  -1.7477  -1.6664  -1.6447  -1.5885  -1.5847
    -1.5648  -1.5265  -1.3990  -1.2928  -1.2815  -1.2304  -1.1975  -1.1738
    -1.1111  -1.0603  -1.0057  -1.0030  -0.9116  -0.8656  -0.8393  -0.7375
    -0.7072  -0.6994  -0.5826  -0.5573  -0.5191  -0.5081  -0.5018  -0.4424
    -0.4349  -0.4104  -0.3284  -0.3097  -0.2827  -0.2711  -0.2086  -0.0480
    -0.0173   0.0271   0.1548   0.1942   0.3576   0.3887   0.4207   0.5269
     0.5717   0.6193   0.6238   0.7465   0.7564   0.8437   0.8554   0.8731
     0.9089   0.9206   1.8436   1.8450   1.9303   1.9305   3.5331   3.7767
     3.8420   3.8493   3.8865   4.0228   4.0665   4.1253   4.1285   4.1383
     4.1569

     the Fermi energy is     3.6036 ev

!    total energy              =   -2955.08676267 Ry
     estimated scf accuracy    <       0.00000006 Ry
     smearing contrib. (-TS)   =      -0.04071435 Ry
     internal energy E=F+TS    =   -2955.04604832 Ry

     The total energy is F=E-TS. E is the sum of the following terms:
     one-electron contribution =  -23873.26067138 Ry
     hartree contribution      =   12028.80213736 Ry
     xc contribution           =    -489.72774091 Ry
     ewald contribution        =    9379.13849900 Ry
     electric field correction =       0.00172760 Ry

     convergence has been achieved in  80 iterations

     Forces acting on atoms (cartesian axes, Ry/au):

     atom    1 type  1   force =    -0.00000904   -0.00025757    0.09338217
     atom    2 type  1   force =    -0.00015762   -0.00039934   -0.17808909
     atom    3 type  2   force =     0.00001307   -0.00035063   -0.02034143
     atom    4 type  2   force =    -0.00003602   -0.00190333    0.05857697
     atom    5 type  2   force =    -0.01017501   -0.00084894    0.00745735
     atom    6 type  2   force =     0.01151619   -0.00017575    0.00625846
     atom    7 type  1   force =    -0.00076421    0.00202615   -0.01055703
     atom    8 type  1   force =     0.00031783    0.00073881   -0.00333857
     atom    9 type  2   force =     0.00024429    0.00042259    0.00015084
     atom   10 type  2   force =    -0.00108371    0.00267340   -0.00406460
     atom   11 type  2   force =    -0.00027483    0.00005169    0.00001872
     atom   12 type  2   force =    -0.00003915   -0.00002954    0.00012070
     atom   13 type  1   force =     0.00074985    0.00071961    0.00040741
     atom   14 type  1   force =    -0.00093028   -0.00011369   -0.00007952
     atom   15 type  2   force =    -0.00013330   -0.00026298    0.00058215
     atom   16 type  2   force =     0.00031774    0.00055485    0.00002198
     atom   17 type  2   force =     0.00013276   -0.00027614    0.00029288
     atom   18 type  2   force =     0.00061277    0.00022063    0.00007797
     atom   19 type  1   force =    -0.00078874   -0.00061042    0.00008639
     atom   20 type  1   force =     0.00021223   -0.00052715   -0.00042180
     atom   21 type  2   force =     0.00002360   -0.00011545    0.10390943
     atom   22 type  2   force =    -0.00001971   -0.00130548    0.00056702
     atom   23 type  2   force =    -0.07056068   -0.00021795   -0.02694542
     atom   24 type  2   force =     0.07037775    0.00022145   -0.02698859
     atom   25 type  1   force =     0.00003433   -0.00022213    0.09298699
     atom   26 type  1   force =    -0.00023719   -0.00044150   -0.17805382
     atom   27 type  2   force =     0.00006935   -0.00024270   -0.01931829
     atom   28 type  2   force =     0.00002401   -0.00162551    0.05767549
     atom   29 type  2   force =    -0.01075642   -0.00046564    0.00808399
     atom   30 type  2   force =     0.01197549   -0.00007623    0.00684492
     atom   31 type  1   force =    -0.00063312    0.00609163   -0.01378912
     atom   32 type  1   force =     0.00028406   -0.00085779   -0.00339597
     atom   33 type  2   force =     0.00014099    0.00006948    0.00001263
     atom   34 type  2   force =    -0.00051075   -0.00106885   -0.00266410
     atom   35 type  2   force =    -0.00041222    0.00006315    0.00004251
     atom   36 type  2   force =     0.00004578    0.00001737    0.00026244
     atom   37 type  1   force =     0.00083007   -0.00082352    0.00025249
     atom   38 type  1   force =    -0.00088402    0.00033803   -0.00053461
     atom   39 type  2   force =    -0.00022932   -0.00014125   -0.00011867
     atom   40 type  2   force =     0.00033184    0.00014291    0.00042439
     atom   41 type  2   force =     0.00004892   -0.00028776   -0.00004187
     atom   42 type  2   force =     0.00053680   -0.00014102   -0.00046267
     atom   43 type  1   force =    -0.00105563    0.00002739    0.00041445
     atom   44 type  1   force =     0.00128619   -0.00049467   -0.00031613
     atom   45 type  2   force =     0.00000860   -0.00012255    0.10390037
     atom   46 type  2   force =    -0.07055117   -0.00016532   -0.02692029
     atom   47 type  2   force =     0.07038173    0.00027227   -0.02699053
     atom   48 type  3   force =     0.00044939   -0.00053975   -0.00005285
     atom   49 type  4   force =     0.00320420    0.00966756    0.00514746
     atom   50 type  5   force =    -0.00313186   -0.00920479   -0.00566354
     atom   51 type  5   force =     0.00064301    0.00038158    0.00057463
     atom   52 type  5   force =     0.00030240   -0.00024031   -0.00028900
     atom   53 type  5   force =    -0.00042211   -0.00024112    0.00063881
     atom   54 type  2   force =    -0.00001674    0.00019682    0.00025073
     atom   55 type  5   force =    -0.00066832   -0.00019584   -0.00010910
     atom   56 type  5   force =    -0.00063407    0.00009523    0.00012388

     Total force =     0.366169     Total SCF correction =     0.000436
  @ DRIVER MODE: Message from server: STATUS
  @ DRIVER MODE: Message from server: GETFORCE
  @ DRIVER MODE: Returning v,forces,stress,ensemble

     Writing output data file ./calc.save/
  @ DRIVER MODE: Message from server: EXIT
  @ DRIVE MODE: Exiting

     General routines

     Parallel routines

   This run was terminated on:  21:10:19  15Sep2021

   JOB DONE.