     Program PWSCF v.6.7GPU starts on 16Sep2021 at  6:45:35

     R & G space division:  proc/nbgrp/npool/nimage =      10
     Reading input from /storage/home/hcoda1/3/ntian30/research/carbon/CxH_vib/H2O_calc/ads_slab/CH3NHNHH2O_a/out_0045/pw.inp
Warning: card &CELL ignored
Warning: card   CELL_DYNAMICS='IPI', ignored
Warning: card / ignored

     Current dimensions of program PWSCF are:
     Max number of different atomic species (ntypx) = 10
     Max number of k-points (npk) =  40000
     Max angular momentum in pseudopotentials (lmaxx) =  3
     Presently no symmetry can be used with electric field

     Message from routine cell_base_init:
     DEPRECATED: use true lattice parameter, not A to a.u. conversion factor

     IMPORTANT: XC functional enforced from input :
     Exchange-correlation= BEEF-VDW
                           (   1   4  43  14   2   0   0)
     Any further DFT definition will be discarded
     Please, verify this is what you really want

  @ DRIVER MODE: Connecting to
 qe_1139763_2852620.sched-torque.pace.gatech.edue4wxvzg7_scratch
  using UNIX socket
  @ DRIVER MODE: Message from server: STATUS
  @ DRIVER MODE: Message from server: INIT
  @ DRIVER MODE: Receiving replica           0          -1
  @ DRIVER MODE: Receiving encoded integer          25
  @ DRIVER MODE:  SCF:  T  FORCE:  T  STRESS:  F  VC:  F  ENSEMBLE:  F
  @ DRIVER MODE:  SCF:  T  FORCE:  T  STRESS:  F  VC:  F  ENSEMBLE:  F

     Using Slab Decomposition

     bravais-lattice index     =            0
     lattice parameter (alat)  =       1.8897  a.u.
     unit-cell volume          =    6658.9804 (a.u.)^3
     number of atoms/cell      =           58
     number of atomic types    =            5
     number of electrons       =       405.00
     number of Kohn-Sham states=          212
     kinetic-energy cutoff     =      29.3995  Ry
     charge density cutoff     =     293.9946  Ry
     scf convergence threshold =      7.3E-08
     mixing beta               =       0.0500
     number of iterations used =            8  plain     mixing
     Exchange-correlation= BEEF-VDW
                           (   1   4  43  14   2   0   0)

     celldm(1)=   1.889726  celldm(2)=   0.000000  celldm(3)=   0.000000
     celldm(4)=   0.000000  celldm(5)=   0.000000  celldm(6)=   0.000000

     crystal axes: (cart. coord. in units of alat)
               a(1) = (   6.579727   0.000000   0.000000 )
               a(2) = (  -0.000775   5.961596   0.000000 )
               a(3) = (   0.000000   0.000000  25.155947 )

     reciprocal axes: (cart. coord. in units 2 pi/alat)
               b(1) = (  0.151982  0.000020  0.000000 )
               b(2) = (  0.000000  0.167740  0.000000 )
               b(3) = (  0.000000  0.000000  0.039752 )

     PseudoPot. # 1 for Ti read from file:
     /storage/coda1/p-amedford6/0/shared/rich_project_chbe-medford/medford-share/data/pseudos_module/espresso/nninc/pbe/van/Ti.UPF
     MD5 check sum: 8e4df49b7f0d34bbd5052bf3f5ea0213
     Pseudo is Ultrasoft, Zval = 12.0
     Generated by new atomic code, or converted to UPF format
     Using radial grid of  851 points,  6 beta functions with:
                l(1) =   0
                l(2) =   0
                l(3) =   1
                l(4) =   1
                l(5) =   2
                l(6) =   2
     Q(r) pseudized with  8 coefficients,  rinner =    1.000   1.000   1.000
                                                       1.000   1.000

     PseudoPot. # 2 for O  read from file:
     /storage/coda1/p-amedford6/0/shared/rich_project_chbe-medford/medford-share/data/pseudos_module/espresso/nninc/pbe/van/O.UPF
     MD5 check sum: 78c19812648e8988a0fe644b0f25305e
     Pseudo is Ultrasoft, Zval =  6.0
     Generated by new atomic code, or converted to UPF format
     Using radial grid of  737 points,  4 beta functions with:
                l(1) =   0
                l(2) =   0
                l(3) =   1
                l(4) =   1
     Q(r) pseudized with  8 coefficients,  rinner =    0.800   0.800   0.800

     PseudoPot. # 3 for N  read from file:
     /storage/coda1/p-amedford6/0/shared/rich_project_chbe-medford/medford-share/data/pseudos_module/espresso/nninc/pbe/van/N.UPF
     MD5 check sum: 90d10febe142ad51ac9d5be1deb811c4
     Pseudo is Ultrasoft, Zval =  5.0
     Generated by new atomic code, or converted to UPF format
     Using radial grid of  729 points,  4 beta functions with:
                l(1) =   0
                l(2) =   0
                l(3) =   1
                l(4) =   1
     Q(r) pseudized with  8 coefficients,  rinner =    0.800   0.800   0.800

     PseudoPot. # 4 for C  read from file:
     /storage/coda1/p-amedford6/0/shared/rich_project_chbe-medford/medford-share/data/pseudos_module/espresso/nninc/pbe/van/C.UPF
     MD5 check sum: 1a69bf6b8db32088f5b2163dbdb77a27
     Pseudo is Ultrasoft, Zval =  4.0
     Generated by new atomic code, or converted to UPF format
     Using radial grid of  721 points,  4 beta functions with:
                l(1) =   0
                l(2) =   0
                l(3) =   1
                l(4) =   1
     Q(r) pseudized with  8 coefficients,  rinner =    0.800   0.800   0.800

     PseudoPot. # 5 for H  read from file:
     /storage/coda1/p-amedford6/0/shared/rich_project_chbe-medford/medford-share/data/pseudos_module/espresso/nninc/pbe/van/H.UPF
     MD5 check sum: b5ee9d7bfd3a09ee7748110bda690ff7
     Pseudo is Ultrasoft, Zval =  1.0
     Generated by new atomic code, or converted to UPF format
     Using radial grid of  615 points,  1 beta functions with:
                l(1) =   0
     Q(r) pseudized with  8 coefficients,  rinner =    0.800

     atomic species   valence    mass     pseudopotential
        Ti1           12.00    47.86700     Ti( 1.00)
        O1             6.00    15.99900     O ( 1.00)
        N1             5.00    14.00700     N ( 1.00)
        C1             4.00    12.01100     C ( 1.00)
        H1             1.00     1.00800     H ( 1.00)

     No symmetry found

   Cartesian axes

     site n.     atom                  positions (alat units)
         1           Ti1 tau(   1) = (   0.0004258   2.9801865   6.0000000  )
         2           Ti1 tau(   2) = (   3.2906075   1.4906267   6.0002472  )
         3           O1  tau(   3) = (   0.0006271   0.0005054   7.9858123  )
         4           O1  tau(   4) = (   3.2906025   0.0005020   7.3038282  )
         5           O1  tau(   5) = (   4.5942328   1.4918067   9.2879030  )
         6           O1  tau(   6) = (   1.9868534   1.4903216   9.2879459  )
         7           Ti1 tau(   7) = (   3.2907910   2.8959150   9.1758416  )
         8           Ti1 tau(   8) = (   0.0015273   1.4827037   9.2680791  )
         9           O1  tau(   9) = (   3.2925356   5.9605122  11.3387169  )
        10           O1  tau(  10) = (   0.0116148   5.9584955  10.6183126  )
        11           O1  tau(  11) = (   1.2897729   1.4809555  12.6268520  )
        12           O1  tau(  12) = (   5.2791511   1.4810064  12.6173870  )
        13           Ti1 tau(  13) = (   0.0595640   3.0140846  12.5912772  )
        14           Ti1 tau(  14) = (   3.3761946   1.4800080  12.4968112  )
        15           O1  tau(  15) = (   6.5629824   0.0009262  14.6613707  )
        16           O1  tau(  16) = (   3.3123588   5.9604043  13.9421911  )
        17           O1  tau(  17) = (   4.5376415   1.5680301  16.0260299  )
        18           O1  tau(  18) = (   2.0142527   1.4857506  15.9764776  )
        19           Ti1 tau(  19) = (   3.2467940   3.0138708  15.6952036  )
        20           Ti1 tau(  20) = (   6.5376764   1.5432071  15.7832198  )
        21           O1  tau(  21) = (   3.2904802   0.0005063   4.7018136  )
        22           O1  tau(  22) = (   6.4898080   0.0110182  17.2547379  )
        23           O1  tau(  23) = (   1.3043587   1.4918075   6.0039043  )
        24           O1  tau(  24) = (   5.2767064   1.4903225   6.0039473  )
        25           Ti1 tau(  25) = (   0.0000382   5.9609847   6.0000000  )
        26           Ti1 tau(  26) = (   3.2902200   4.4714249   6.0002472  )
        27           O1  tau(  27) = (   0.0002396   2.9813036   7.9858123  )
        28           O1  tau(  28) = (   3.2902150   2.9813002   7.3038282  )
        29           O1  tau(  29) = (   4.5938453   4.4726049   9.2879030  )
        30           O1  tau(  30) = (   1.9864658   4.4711199   9.2879459  )
        31           Ti1 tau(  31) = (   3.2891106   5.8743827   9.1763621  )
        32           Ti1 tau(  32) = (   0.0006254   4.4649316   9.2693709  )
        33           O1  tau(  33) = (   3.2967638   2.9790471  11.3409087  )
        34           O1  tau(  34) = (   0.0092240   2.9805883  10.6323155  )
        35           O1  tau(  35) = (   1.2869154   4.4778632  12.6304858  )
        36           O1  tau(  36) = (   5.2845859   4.4648683  12.6187650  )
        37           Ti1 tau(  37) = (   0.0627082   0.0241251  12.5486904  )
        38           Ti1 tau(  38) = (   3.3788516   4.4738568  12.4976958  )
        39           O1  tau(  39) = (   6.5772583   2.9562949  14.6416036  )
        40           O1  tau(  40) = (   3.2725681   2.9944745  13.9013672  )
        41           O1  tau(  41) = (   4.5452577   4.4055011  16.0651929  )
        42           O1  tau(  42) = (   2.0228361   4.5129635  16.0417754  )
        43           Ti1 tau(  43) = (   3.2583029   0.0391736  15.7773877  )
        44           Ti1 tau(  44) = (   6.5476622   4.6515957  16.1089089  )
        45           O1  tau(  45) = (   3.2900926   2.9813045   4.7018136  )
        46           O1  tau(  46) = (   1.3039711   4.4726057   6.0039043  )
        47           O1  tau(  47) = (   5.2763189   4.4711207   6.0039473  )
        48           N1  tau(  48) = (   1.2275869   2.8250850  18.3327965  )
        49           N1  tau(  49) = (   0.1007212   2.9268546  17.4424539  )
        50           C1  tau(  50) = (   0.9834745   3.5098297  19.5973225  )
        51           H1  tau(  51) = (   0.0800711   3.1483545  20.1177682  )
        52           H1  tau(  52) = (   1.8428167   3.3484677  20.2521386  )
        53           H1  tau(  53) = (   0.8645268   4.5787652  19.4145101  )
        54           H1  tau(  54) = (   1.4038961   1.8348574  18.5000659  )
        55           H1  tau(  55) = (   5.8167727   2.7847134  17.9807349  )
        56           O1  tau(  56) = (   3.6251350   0.0523402  18.1652986  )
        57           H1  tau(  57) = (   4.6063402   0.0342754  18.1216558  )
        58           H1  tau(  58) = (   3.3562690   5.1322054  18.4688733  )

     number of k points=    10  Fermi-Dirac smearing, width (Ry)=  0.0073
                       cart. coord. in units 2pi/alat
        k(    1) = (   0.0000000   0.0000000   0.0000000), wk =   0.1250000
        k(    2) = (   0.0000000   0.0419351   0.0000000), wk =   0.2500000
        k(    3) = (   0.0000000  -0.0838702   0.0000000), wk =   0.1250000
        k(    4) = (   0.0379955   0.0000049   0.0000000), wk =   0.2500000
        k(    5) = (   0.0379955   0.0419400   0.0000000), wk =   0.2500000
        k(    6) = (   0.0379955  -0.0838652   0.0000000), wk =   0.2500000
        k(    7) = (   0.0379955  -0.0419301   0.0000000), wk =   0.2500000
        k(    8) = (  -0.0759910  -0.0000099   0.0000000), wk =   0.1250000
        k(    9) = (  -0.0759910   0.0419252   0.0000000), wk =   0.2500000
        k(   10) = (  -0.0759910  -0.0838800   0.0000000), wk =   0.1250000

     Initial potential from superposition of free atoms

     starting charge  388.99913, renormalised to  405.00000

     negative rho (up, down):  1.444E-02 0.000E+00

     %%%%%%%%%%%%%%%%%%%%%%%%%%%%%%%%%%%%%%%%%%%%%%%%%%%%%%%%%%%%%%%%%%%%%%%%
     %                                                                      %
     % You are using vdW-DF, which was implemented by the Thonhauser group. %
     % Please cite the following two papers that made this development      %
     % possible and the two reviews that describe the various versions:     %
     %                                                                      %
     %   T. Thonhauser et al., PRL 115, 136402 (2015).                      %
     %   T. Thonhauser et al., PRB 76, 125112 (2007).                       %
     %   K. Berland et al., Rep. Prog. Phys. 78, 066501 (2015).             %
     %   D.C. Langreth et al., J. Phys.: Condens. Matter 21, 084203 (2009). %
     %                                                                      %
     %                                                                      %
     % If you are calculating the stress with vdW-DF, please also cite:     %
     %                                                                      %
     %   R. Sabatini et al., J. Phys.: Condens. Matter 24, 424209 (2012).   %
     %                                                                      %
     %%%%%%%%%%%%%%%%%%%%%%%%%%%%%%%%%%%%%%%%%%%%%%%%%%%%%%%%%%%%%%%%%%%%%%%%

     Adding external electric field

     Computed dipole along edir(3) :
        Dipole              -14.1501 Ry au,        -35.9660 Debye
        Dipole field         -0.0267 Ry au,

        Potential amp.        2.4753 Ry
        Total length         46.3494 bohr

     Starting wfcs are  307 atomic wfcs
  @ DRIVER MODE: Message from server: STATUS
  @ DRIVER MODE: Message from server: POSDATA
  @ DRIVER MODE: Reading and sharing cell
  @ DRIVER MODE: Reading and sharing positions
  @ DRIVER MODE: Received positions

     Self-consistent Calculation

     iteration #  1     ecut=    29.40 Ry     beta= 0.05
     Davidson diagonalization with overlap
     c_bands:  4 eigenvalues not converged
     c_bands:  1 eigenvalues not converged
     c_bands:  1 eigenvalues not converged
     c_bands:  3 eigenvalues not converged
     c_bands:  2 eigenvalues not converged
     ethr =  1.00E-05,  avg # of iterations = 29.4

[...]

     total energy              =   -2232.57077370 Ry
     estimated scf accuracy    <    8442.88597593 Ry

     iteration #  2     ecut=    29.40 Ry     beta= 0.05
     Davidson diagonalization with overlap
     ethr =  1.00E-02,  avg # of iterations = 28.4

[...]

     iteration # 68     ecut=    29.40 Ry     beta= 0.05
     Davidson diagonalization with overlap
     c_bands:  1 eigenvalues not converged
     ethr =  1.10E-09,  avg # of iterations = 11.0

[...]

     total energy              =   -2976.50556578 Ry
     estimated scf accuracy    <       0.00000024 Ry

     iteration # 78     ecut=    29.40 Ry     beta= 0.05
     Davidson diagonalization with overlap
     ethr =  3.84E-11,  avg # of iterations = 10.6

     negative rho (up, down):  1.504E-02 0.000E+00

     Adding external electric field

     Computed dipole along edir(3) :
        Dipole                0.9847 Ry au,          2.5027 Debye
        Dipole field          0.0019 Ry au,

        Potential amp.       -0.1723 Ry
        Total length         46.3494 bohr

     End of self-consistent calculation

          k = 0.0000 0.0000 0.0000 ( 18029 PWs)   bands (ev):

   -55.5111 -55.4808 -55.4770 -55.4475 -55.4447 -55.3594 -55.3285 -55.3266
   -55.3242 -55.2946 -55.2934 -55.2597 -55.0509 -54.8880 -54.4939 -54.4599
   -32.0251 -31.9948 -31.8834 -31.8606 -31.8266 -31.8036 -31.7853 -31.7836
   -31.7555 -31.7123 -31.7009 -31.6811 -31.6780 -31.6633 -31.6579 -31.6360
   -31.6166 -31.6113 -31.6103 -31.5779 -31.5681 -31.5593 -31.5334 -31.5215
   -31.5187 -31.5168 -31.5138 -31.5081 -31.4929 -31.4850 -31.4817 -31.4720
   -31.4696 -31.4580 -31.4468 -31.4375 -31.4057 -31.3068 -31.2615 -31.1510
   -31.1424 -31.0785 -30.9011 -30.8124 -30.7900 -30.7179 -30.6314 -30.5203
   -18.7233 -16.5564 -16.2213 -15.9840 -15.7617 -15.6684 -15.6262 -15.4293
   -15.3349 -15.2502 -15.1301 -15.0788 -15.0531 -15.0455 -15.0319 -15.0067
   -14.9723 -14.9661 -14.9631 -14.9389 -14.9195 -14.8682 -14.8622 -14.8553
   -14.7619 -14.6978 -14.6631 -14.6499 -14.6403 -14.5746 -14.2031 -12.9959
   -12.8794 -11.6361  -8.8635  -6.4616  -5.1577  -4.2733  -3.6988  -3.5958
    -3.4677  -3.4199  -3.3715  -3.3439  -3.1514  -3.0944  -2.9430  -2.7719
    -2.6984  -2.6600  -2.6268  -2.5922  -2.5562  -2.4342  -2.4090  -2.3349
    -2.3199  -2.3088  -2.2765  -2.2668  -2.2519  -2.2323  -2.1577  -2.1490
    -2.0630  -1.9514  -1.9012  -1.8863  -1.8676  -1.8264  -1.7888  -1.7755
    -1.7623  -1.7440  -1.7307  -1.6931  -1.5773  -1.5271  -1.4485  -1.3679
    -1.2967  -1.2078  -1.1326  -1.1051  -1.0364  -1.0117  -0.9513  -0.9270
    -0.9138  -0.9065  -0.7893  -0.6811  -0.6630  -0.5934  -0.5323  -0.4556
    -0.4119  -0.3859  -0.3167  -0.2837  -0.2728  -0.2593  -0.2332  -0.2186
    -0.1607  -0.0150   0.0622   0.0807   0.1394   0.1802   0.2316   0.2568
     0.2846   0.3330   0.3640   0.4040   0.4537   0.4573   0.4693   0.4935
     0.5077   0.6668   0.7221   0.7551   0.7811   0.8295   0.9417   0.9849
     1.1385   1.2114   1.2771   1.4547   1.5287   1.6094   1.7202   2.0588
     2.1000   2.1459   3.6146   3.7069   3.7479   3.7693   3.8563   3.8588
     4.0696   4.1146   4.1226   4.1893

[...]

          k = 0.0380-0.0419 0.0000 ( 17876 PWs)   bands (ev):

[...]

          k =-0.0760-0.0000 0.0000 ( 17886 PWs)   bands (ev):

[...]

          k =-0.0760-0.0839 0.0000 ( 17948 PWs)   bands (ev):

   -55.4943 -55.4937 -55.4649 -55.4605 -55.4449 -55.3451 -55.3385 -55.3290
   -55.3115 -55.3111 -55.2777 -55.2756 -55.0493 -54.8894 -54.4769 -54.4768
   -31.8385 -31.8218 -31.8103 -31.8099 -31.7892 -31.7887 -31.7488 -31.7414
   -31.7333 -31.7053 -31.6943 -31.6753 -31.6596 -31.6578 -31.6324 -31.6302
   -31.6279 -31.6258 -31.6178 -31.6168 -31.6144 -31.6131 -31.6127 -31.5610
   -31.5526 -31.5463 -31.5383 -31.5276 -31.5134 -31.5122 -31.5079 -31.5035
   -31.4932 -31.4906 -31.4854 -31.4833 -31.4124 -31.3095 -31.2570 -31.2124
   -31.1535 -31.1062 -30.8027 -30.8026 -30.7139 -30.7138 -30.6747 -30.6746
   -18.7219 -16.5329 -15.6582 -15.5872 -15.4712 -15.4421 -15.3825 -15.3323
   -15.3149 -15.2457 -15.2095 -15.1971 -15.1449 -15.1428 -15.0948 -15.0707
   -15.0441 -15.0403 -15.0250 -14.9825 -14.9719 -14.9566 -14.9525 -14.9490
   -14.8717 -14.8359 -14.8318 -14.8270 -14.7577 -14.6242 -14.3522 -12.9812
   -12.9811 -11.6430  -8.8725  -6.4574  -5.1609  -4.2683  -3.6411  -3.0825
    -2.9435  -2.7856  -2.7203  -2.6395  -2.6387  -2.5962  -2.4696  -2.4469
    -2.4084  -2.3813  -2.3501  -2.3398  -2.3307  -2.3266  -2.3149  -2.3007
    -2.2878  -2.2483  -2.2026  -2.1871  -2.1786  -2.1739  -2.1592  -2.1459
    -2.1304  -2.1278  -2.0917  -2.0628  -2.0355  -1.9995  -1.9464  -1.7457
    -1.7180  -1.6969  -1.6699  -1.6574  -1.6456  -1.6125  -1.5740  -1.5638
    -1.4915  -1.4033  -1.3154  -1.2374  -1.2043  -1.1914  -1.1222  -1.0367
    -0.9953  -0.9562  -0.9189  -0.8591  -0.7999  -0.7621  -0.7246  -0.6434
    -0.6253  -0.6149  -0.5535  -0.5372  -0.4770  -0.4688  -0.3906  -0.3489
    -0.3126  -0.2655  -0.2379  -0.2320  -0.2133  -0.1789  -0.1712  -0.1170
    -0.0003   0.0088   0.0289   0.1324   0.2207   0.4601   0.5174   0.5494
     0.6295   0.6923   0.7544   0.7756   0.7968   0.8006   0.8363   0.8969
     1.0114   1.0208   1.0597   1.1478   1.1808   1.8919   1.8927   1.9656
     1.9658   2.0618   3.9268   3.9531   3.9789   4.0147   4.1152   4.1325
     4.1548   4.1571   4.2711   4.3042

     the Fermi energy is     3.6198 ev

!    total energy              =   -2976.50557682 Ry
     estimated scf accuracy    <       0.00000005 Ry
     smearing contrib. (-TS)   =      -0.02132445 Ry
     internal energy E=F+TS    =   -2976.48425237 Ry

     The total energy is F=E-TS. E is the sum of the following terms:
     one-electron contribution =  -23892.23027831 Ry
     hartree contribution      =   12042.63539091 Ry
     xc contribution           =    -495.75312794 Ry
     ewald contribution        =    9368.86193331 Ry
     electric field correction =       0.00182966 Ry

     convergence has been achieved in  78 iterations

     Forces acting on atoms (cartesian axes, Ry/au):

     atom    1 type  1   force =     0.00015721   -0.00028186    0.09586260
     atom    2 type  1   force =    -0.00022671   -0.00062729   -0.17570274
     atom    3 type  2   force =     0.00006336   -0.00014859   -0.02383373
     atom    4 type  2   force =     0.00006521   -0.00153881    0.05351004
     atom    5 type  2   force =    -0.01127740   -0.00075958    0.00357081
     atom    6 type  2   force =     0.01298044    0.00006099    0.00269532
     atom    7 type  1   force =    -0.00096459    0.00064864   -0.00793867
     atom    8 type  1   force =     0.00042217    0.00623784    0.02296681
     atom    9 type  2   force =    -0.00005431   -0.00031048   -0.00094836
     atom   10 type  2   force =    -0.00136322    0.00127820   -0.01512203
     atom   11 type  2   force =    -0.00032963    0.00024223   -0.00023935
     atom   12 type  2   force =    -0.00020606    0.00022764   -0.00034015
     atom   13 type  1   force =     0.00073354   -0.00046404    0.00025910
     atom   14 type  1   force =    -0.00018720    0.00041519    0.00152065
     atom   15 type  2   force =     0.00001156   -0.00011632    0.00037685
     atom   16 type  2   force =     0.00025928    0.00005602    0.00010236
     atom   17 type  2   force =     0.00066931   -0.00024601    0.00037873
     atom   18 type  2   force =     0.00019179   -0.00047390    0.00040476
     atom   19 type  1   force =    -0.00123432    0.00024506    0.00064757
     atom   20 type  1   force =     0.00086068   -0.00002253   -0.00030368
     atom   21 type  2   force =     0.00008732   -0.00008189    0.10324855
     atom   22 type  2   force =    -0.00070166   -0.00037172   -0.00068996
     atom   23 type  2   force =    -0.07142500   -0.00018289   -0.02769168
     atom   24 type  2   force =     0.07139554    0.00027820   -0.02769410
     atom   25 type  1   force =     0.00002897   -0.00030605    0.09556634
     atom   26 type  1   force =    -0.00017635   -0.00031248   -0.17596781
     atom   27 type  2   force =     0.00009843   -0.00011538   -0.02293654
     atom   28 type  2   force =     0.00011611   -0.00127659    0.05316081
     atom   29 type  2   force =    -0.01152312    0.00015195    0.00362931
     atom   30 type  2   force =     0.01317524    0.00046415    0.00272165
     atom   31 type  1   force =    -0.00100635    0.00373745   -0.01105022
     atom   32 type  1   force =     0.00050418   -0.00740274    0.02336738
     atom   33 type  2   force =    -0.00023899    0.00031498   -0.00031454
     atom   34 type  2   force =    -0.00032959    0.00025175   -0.02185519
     atom   35 type  2   force =     0.00009296    0.00029838   -0.00038163
     atom   36 type  2   force =    -0.00036718    0.00030421   -0.00029830
     atom   37 type  1   force =     0.00039398    0.00057482   -0.00027001
     atom   38 type  1   force =    -0.00022679   -0.00041385    0.00135502
     atom   39 type  2   force =    -0.00005868   -0.00030644    0.00043878
     atom   40 type  2   force =     0.00032047    0.00008607   -0.00084476
     atom   41 type  2   force =     0.00114286    0.00053476    0.00005819
     atom   42 type  2   force =    -0.00073812    0.00029050    0.00002914
     atom   43 type  1   force =    -0.00095914   -0.00108089   -0.00009957
     atom   44 type  1   force =     0.00062814    0.00041827   -0.00000116
     atom   45 type  2   force =     0.00008909   -0.00010820    0.10325195
     atom   46 type  2   force =    -0.07144137   -0.00013989   -0.02767116
     atom   47 type  2   force =     0.07144256    0.00029463   -0.02769983
     atom   48 type  3   force =    -0.00025735   -0.00077111   -0.00048133
     atom   49 type  3   force =    -0.00218672   -0.00045500    0.00080106
     atom   50 type  4   force =    -0.00020459    0.00025158    0.00004493
     atom   51 type  5   force =     0.00011406    0.00071585    0.00008510
     atom   52 type  5   force =    -0.00045661   -0.00025471    0.00004013
     atom   53 type  5   force =     0.00034732   -0.00042204    0.00033776
     atom   54 type  5   force =     0.00019290    0.00012642    0.00003455
     atom   55 type  5   force =     0.00157921    0.00080850   -0.00062389
     atom   56 type  2   force =    -0.00077501   -0.00004174   -0.00006715
     atom   57 type  5   force =     0.00074729   -0.00011457   -0.00000974
     atom   58 type  5   force =     0.00000489   -0.00016666    0.00061104

     Total force =     0.366738     Total SCF correction =     0.000726
  @ DRIVER MODE: Message from server: STATUS
  @ DRIVER MODE: Message from server: GETFORCE
  @ DRIVER MODE: Returning v,forces,stress,ensemble

     Writing output data file ./calc.save/
  @ DRIVER MODE: Message from server: EXIT
  @ DRIVE MODE: Exiting

     General routines

     Parallel routines

   This run was terminated on:   7: 6:58  16Sep2021

   JOB DONE.