     Program PWSCF v.6.7GPU starts on 13Oct2021 at  4:37:13

     R & G space division:  proc/nbgrp/npool/nimage =       8
     Reading input from /storage/home/hcoda1/3/ntian30/research/carbon/ACS_vib/ads_slab/N2H6/out_0047/pw.inp
Warning: card &CELL ignored
Warning: card   CELL_DYNAMICS='IPI', ignored
Warning: card / ignored

     Current dimensions of program PWSCF are:
     Max number of different atomic species (ntypx) = 10
     Max number of k-points (npk) =  40000
     Max angular momentum in pseudopotentials (lmaxx) =  3
     Presently no symmetry can be used with electric field

     Message from routine cell_base_init:
     DEPRECATED: use true lattice parameter, not A to a.u. conversion factor

     IMPORTANT: XC functional enforced from input :
     Exchange-correlation= BEEF-VDW
                           (   1   4  43  14   2   0   0)
     Any further DFT definition will be discarded
     Please, verify this is what you really want

  @ DRIVER MODE: Connecting to
 qe_1139763_3181315.sched-torque.pace.gatech.edu5b27c07y_scratch
  using UNIX socket
  @ DRIVER MODE: Message from server: STATUS
  @ DRIVER MODE: Message from server: INIT
  @ DRIVER MODE: Receiving replica           0          -1
  @ DRIVER MODE: Receiving encoded integer          25
  @ DRIVER MODE:  SCF:  T  FORCE:  T  STRESS:  F  VC:  F  ENSEMBLE:  F
  @ DRIVER MODE:  SCF:  T  FORCE:  T  STRESS:  F  VC:  F  ENSEMBLE:  F

     Using Slab Decomposition

     bravais-lattice index     =            0
     lattice parameter (alat)  =       1.8897  a.u.
     unit-cell volume          =    6658.9804 (a.u.)^3
     number of atoms/cell      =           55
     number of atomic types    =            4
     number of electrons       =       394.00
     number of Kohn-Sham states=          207
     kinetic-energy cutoff     =      29.3995  Ry
     charge density cutoff     =     293.9946  Ry
     scf convergence threshold =      7.3E-08
     mixing beta               =       0.0500
     number of iterations used =            8  plain     mixing
     Exchange-correlation= BEEF-VDW
                           (   1   4  43  14   2   0   0)

     celldm(1)=   1.889726  celldm(2)=   0.000000  celldm(3)=   0.000000
     celldm(4)=   0.000000  celldm(5)=   0.000000  celldm(6)=   0.000000

     crystal axes: (cart. coord. in units of alat)
               a(1) = (   6.579727   0.000000   0.000000 )
               a(2) = (  -0.000775   5.961596   0.000000 )
               a(3) = (   0.000000   0.000000  25.155947 )

     reciprocal axes: (cart. coord. in units 2 pi/alat)
               b(1) = (  0.151982  0.000020  0.000000 )
               b(2) = (  0.000000  0.167740  0.000000 )
               b(3) = (  0.000000  0.000000  0.039752 )

     PseudoPot. # 1 for Ti read from file:
     /storage/coda1/p-amedford6/0/shared/rich_project_chbe-medford/medford-share/data/pseudos_module/espresso/nninc/pbe/van/Ti.UPF
     MD5 check sum: 8e4df49b7f0d34bbd5052bf3f5ea0213
     Pseudo is Ultrasoft, Zval = 12.0
     Generated by new atomic code, or converted to UPF format
     Using radial grid of  851 points,  6 beta functions with:
                l(1) =   0
                l(2) =   0
                l(3) =   1
                l(4) =   1
                l(5) =   2
                l(6) =   2
     Q(r) pseudized with  8 coefficients,  rinner =    1.000   1.000   1.000
                                                       1.000   1.000

     PseudoPot. # 2 for O  read from file:
     /storage/coda1/p-amedford6/0/shared/rich_project_chbe-medford/medford-share/data/pseudos_module/espresso/nninc/pbe/van/O.UPF
     MD5 check sum: 78c19812648e8988a0fe644b0f25305e
     Pseudo is Ultrasoft, Zval =  6.0
     Generated by new atomic code, or converted to UPF format
     Using radial grid of  737 points,  4 beta functions with:
                l(1) =   0
                l(2) =   0
                l(3) =   1
                l(4) =   1
     Q(r) pseudized with  8 coefficients,  rinner =    0.800   0.800   0.800

     PseudoPot. # 3 for N  read from file:
     /storage/coda1/p-amedford6/0/shared/rich_project_chbe-medford/medford-share/data/pseudos_module/espresso/nninc/pbe/van/N.UPF
     MD5 check sum: 90d10febe142ad51ac9d5be1deb811c4
     Pseudo is Ultrasoft, Zval =  5.0
     Generated by new atomic code, or converted to UPF format
     Using radial grid of  729 points,  4 beta functions with:
                l(1) =   0
                l(2) =   0
                l(3) =   1
                l(4) =   1
     Q(r) pseudized with  8 coefficients,  rinner =    0.800   0.800   0.800

     PseudoPot. # 4 for H  read from file:
     /storage/coda1/p-amedford6/0/shared/rich_project_chbe-medford/medford-share/data/pseudos_module/espresso/nninc/pbe/van/H.UPF
     MD5 check sum: b5ee9d7bfd3a09ee7748110bda690ff7
     Pseudo is Ultrasoft, Zval =  1.0
     Generated by new atomic code, or converted to UPF format
     Using radial grid of  615 points,  1 beta functions with:
                l(1) =   0
     Q(r) pseudized with  8 coefficients,  rinner =    0.800

     atomic species   valence    mass     pseudopotential
        Ti1           12.00    47.86700     Ti( 1.00)
        O1             6.00    15.99900     O ( 1.00)
        N1             5.00    14.00700     N ( 1.00)
        H1             1.00     1.00800     H ( 1.00)

     No symmetry found

   Cartesian axes

     site n.     atom                  positions (alat units)
         1           Ti1 tau(   1) = (   0.0004258   2.9801865   6.0000000  )
         2           Ti1 tau(   2) = (   3.2906075   1.4906267   6.0002472  )
         3           O1  tau(   3) = (   0.0006271   0.0005054   7.9858123  )
         4           O1  tau(   4) = (   3.2906025   0.0005020   7.3038282  )
         5           O1  tau(   5) = (   4.5942328   1.4918067   9.2879030  )
         6           O1  tau(   6) = (   1.9868534   1.4903216   9.2879459  )
         7           Ti1 tau(   7) = (   3.2905188   2.9817269   9.1608671  )
         8           Ti1 tau(   8) = (   0.0008727   1.4903491   9.2579811  )
         9           O1  tau(   9) = (   3.2897677   5.9391746  11.3820438  )
        10           O1  tau(  10) = (  -0.0000005   5.9544960  10.6146985  )
        11           O1  tau(  11) = (   1.2884133   1.4789655  12.6516217  )
        12           O1  tau(  12) = (   5.2921206   1.4788385  12.6515509  )
        13           Ti1 tau(  13) = (   0.0005720   2.9629092  12.4975245  )
        14           Ti1 tau(  14) = (   3.2903801   1.4745319  12.5205501  )
        15           O1  tau(  15) = (   0.0004407   0.0388239  14.7059933  )
        16           O1  tau(  16) = (   3.2897445   5.9465346  14.0037610  )
        17           O1  tau(  17) = (   4.5472543   1.4569283  16.2215039  )
        18           O1  tau(  18) = (   2.0329396   1.4568822  16.2213506  )
        19           Ti1 tau(  19) = (   3.2899346   2.9358424  15.7577366  )
        20           Ti1 tau(  20) = (   0.0004932   1.4309995  16.0137732  )
        21           O1  tau(  21) = (   3.2904802   0.0005063   4.7018136  )
        22           O1  tau(  22) = (  -0.0003511   5.7889056  17.2622344  )
        23           O1  tau(  23) = (   1.3043587   1.4918075   6.0039043  )
        24           O1  tau(  24) = (   5.2767064   1.4903225   6.0039473  )
        25           Ti1 tau(  25) = (   0.0000382   5.9609847   6.0000000  )
        26           Ti1 tau(  26) = (   3.2902200   4.4714249   6.0002472  )
        27           O1  tau(  27) = (   0.0002396   2.9813036   7.9858123  )
        28           O1  tau(  28) = (   3.2902150   2.9813002   7.3038282  )
        29           O1  tau(  29) = (   4.5938453   4.4726049   9.2879030  )
        30           O1  tau(  30) = (   1.9864658   4.4711199   9.2879459  )
        31           Ti1 tau(  31) = (   3.2908958   0.0009406   9.1591437  )
        32           Ti1 tau(  32) = (   0.0004876   4.4725358   9.2579169  )
        33           O1  tau(  33) = (   3.2901541   2.9707129  11.3740276  )
        34           O1  tau(  34) = (   0.0003862   2.9798045  10.6274311  )
        35           O1  tau(  35) = (   1.2860740   4.4511954  12.6821393  )
        36           O1  tau(  36) = (   5.2936768   4.4510845  12.6820400  )
        37           Ti1 tau(  37) = (   0.0001324   5.9497034  12.4914426  )
        38           Ti1 tau(  38) = (   3.2900283   4.4525324  12.5305491  )
        39           O1  tau(  39) = (   0.0000299   2.9046373  14.9484161  )
        40           O1  tau(  40) = (   3.2901113   2.9423191  13.9685580  )
        41           O1  tau(  41) = (   4.5465916   4.4073028  16.1601725  )
        42           O1  tau(  42) = (   2.0329218   4.4072560  16.1600144  )
        43           Ti1 tau(  43) = (   3.2897320   5.9176933  15.7983882  )
        44           Ti1 tau(  44) = (   0.0000796   4.6311109  15.9036278  )
        45           O1  tau(  45) = (   3.2900926   2.9813045   4.7018136  )
        46           O1  tau(  46) = (   1.3039711   4.4726057   6.0039043  )
        47           O1  tau(  47) = (   5.2763189   4.4711207   6.0039473  )
        48           N1  tau(  48) = (   6.5791966   2.5420708  18.0661808  )
        49           H1  tau(  49) = (   6.5785613   1.6509345  18.5577087  )
        50           H1  tau(  50) = (   0.8131443   3.0604954  18.3807411  )
        51           H1  tau(  51) = (   5.7641953   3.0602838  18.3787844  )
        52           N1  tau(  52) = (  -0.0000615   4.8677125  20.5088556  )
        53           H1  tau(  53) = (   6.5774456   5.1124690  21.4935560  )
        54           H1  tau(  54) = (   0.8078797   5.3121143  20.0844266  )
        55           H1  tau(  55) = (   5.7710899   5.3082688  20.0716402  )

     number of k points=    10  Fermi-Dirac smearing, width (Ry)=  0.0073
                       cart. coord. in units 2pi/alat
        k(    1) = (   0.0000000   0.0000000   0.0000000), wk =   0.1250000
        k(    2) = (   0.0000000   0.0419351   0.0000000), wk =   0.2500000
        k(    3) = (   0.0000000  -0.0838702   0.0000000), wk =   0.1250000
        k(    4) = (   0.0379955   0.0000049   0.0000000), wk =   0.2500000
        k(    5) = (   0.0379955   0.0419400   0.0000000), wk =   0.2500000
        k(    6) = (   0.0379955  -0.0838652   0.0000000), wk =   0.2500000
        k(    7) = (   0.0379955  -0.0419301   0.0000000), wk =   0.2500000
        k(    8) = (  -0.0759910  -0.0000099   0.0000000), wk =   0.1250000
        k(    9) = (  -0.0759910   0.0419252   0.0000000), wk =   0.2500000
        k(   10) = (  -0.0759910  -0.0838800   0.0000000), wk =   0.1250000

     Initial potential from superposition of free atoms

     starting charge  377.99918, renormalised to  394.00000

     negative rho (up, down):  1.302E-02 0.000E+00

     %%%%%%%%%%%%%%%%%%%%%%%%%%%%%%%%%%%%%%%%%%%%%%%%%%%%%%%%%%%%%%%%%%%%%%%%
     %                                                                      %
     % You are using vdW-DF, which was implemented by the Thonhauser group. %
     % Please cite the following two papers that made this development      %
     % possible and the two reviews that describe the various versions:     %
     %                                                                      %
     %   T. Thonhauser et al., PRL 115, 136402 (2015).                      %
     %   T. Thonhauser et al., PRB 76, 125112 (2007).                       %
     %   K. Berland et al., Rep. Prog. Phys. 78, 066501 (2015).             %
     %   D.C. Langreth et al., J. Phys.: Condens. Matter 21, 084203 (2009). %
     %                                                                      %
     %                                                                      %
     % If you are calculating the stress with vdW-DF, please also cite:     %
     %                                                                      %
     %   R. Sabatini et al., J. Phys.: Condens. Matter 24, 424209 (2012).   %
     %                                                                      %
     %%%%%%%%%%%%%%%%%%%%%%%%%%%%%%%%%%%%%%%%%%%%%%%%%%%%%%%%%%%%%%%%%%%%%%%%

     Adding external electric field

     Computed dipole along edir(3) :
        Dipole               -9.7168 Ry au,        -24.6976 Debye
        Dipole field         -0.0183 Ry au,

        Potential amp.        1.6998 Ry
        Total length         46.3494 bohr

     Starting wfcs are  298 atomic wfcs
  @ DRIVER MODE: Message from server: STATUS
  @ DRIVER MODE: Message from server: POSDATA
  @ DRIVER MODE: Reading and sharing cell
  @ DRIVER MODE: Reading and sharing positions
  @ DRIVER MODE: Received positions

     Self-consistent Calculation

     iteration #  1     ecut=    29.40 Ry     beta= 0.05
     Davidson diagonalization with overlap
     c_bands:  1 eigenvalues not converged
     c_bands:  1 eigenvalues not converged
     c_bands:  1 eigenvalues not converged
     c_bands:  1 eigenvalues not converged
     ethr =  1.00E-05,  avg # of iterations = 18.0

[...]

     total energy              =   -2596.85695761 Ry
     estimated scf accuracy    <    3733.99598692 Ry

     iteration #  2     ecut=    29.40 Ry     beta= 0.05
     Davidson diagonalization with overlap
     ethr =  1.00E-02,  avg # of iterations = 22.9

[...]

     iteration # 56     ecut=    29.40 Ry     beta= 0.05
     Davidson diagonalization with overlap
     c_bands:  1 eigenvalues not converged
     ethr =  1.70E-10,  avg # of iterations = 14.1

[...]

     total energy              =   -2931.48026776 Ry
     estimated scf accuracy    <       0.00000012 Ry

     iteration # 61     ecut=    29.40 Ry     beta= 0.05
     Davidson diagonalization with overlap
     ethr =  2.93E-11,  avg # of iterations =  9.4

     negative rho (up, down):  1.427E-02 0.000E+00

     Adding external electric field

     Computed dipole along edir(3) :
        Dipole                1.3608 Ry au,          3.4588 Debye
        Dipole field          0.0026 Ry au,

        Potential amp.       -0.2381 Ry
        Total length         46.3494 bohr

     End of self-consistent calculation

          k = 0.0000 0.0000 0.0000 ( 18029 PWs)   bands (ev):

   -55.2834 -55.2469 -55.2355 -55.2049 -55.2013 -55.1685 -55.1548 -55.1204
   -55.1133 -55.0843 -55.0791 -55.0620 -55.0278 -54.9528 -54.3258 -54.2917
   -31.8513 -31.7383 -31.7346 -31.6410 -31.6011 -31.5901 -31.5872 -31.5737
   -31.5276 -31.5255 -31.4900 -31.4899 -31.4804 -31.4756 -31.4561 -31.4414
   -31.4362 -31.4235 -31.4192 -31.3927 -31.3871 -31.3777 -31.3673 -31.3553
   -31.3523 -31.3390 -31.3340 -31.3213 -31.2914 -31.2859 -31.2694 -31.2650
   -31.2590 -31.2558 -31.2524 -31.2453 -31.2119 -31.2071 -31.1942 -31.1761
   -31.1557 -31.1549 -30.7377 -30.6360 -30.6144 -30.5538 -30.4673 -30.3565
   -16.1150 -15.8778 -15.7477 -15.5894 -15.4994 -15.4587 -15.3596 -15.3344
   -15.2257 -15.1501 -15.0171 -14.9832 -14.9415 -14.9343 -14.9265 -14.9070
   -14.9009 -14.8303 -14.8008 -14.7918 -14.7877 -14.7697 -14.7684 -14.7490
   -14.7197 -14.6665 -14.6463 -14.5170 -14.4359 -14.3779 -14.1286 -12.8274
   -12.7082  -5.6503  -5.5103  -4.9665  -4.7709  -3.4458  -3.2920  -3.2571
    -3.2066  -3.1952  -3.0419  -2.8811  -2.7319  -2.7126  -2.5630  -2.5340
    -2.4819  -2.4599  -2.3086  -2.2832  -2.2388  -2.2126  -2.1633  -2.1529
    -2.1454  -2.1339  -2.0549  -2.0436  -2.0281  -1.8922  -1.8726  -1.7612
    -1.7209  -1.6649  -1.6513  -1.6464  -1.6127  -1.5948  -1.5540  -1.5432
    -1.5266  -1.5012  -1.4911  -1.3269  -1.3003  -1.2018  -1.1409  -1.0502
    -1.0341  -0.8899  -0.8543  -0.7656  -0.7467  -0.7295  -0.7150  -0.6823
    -0.6338  -0.5260  -0.4365  -0.4150  -0.3543  -0.3299  -0.2914  -0.2035
    -0.0998  -0.0713  -0.0386  -0.0360   0.0805   0.1050   0.1503   0.2166
     0.2366   0.2474   0.2614   0.3511   0.3652   0.4634   0.4870   0.4941
     0.5427   0.6318   0.6360   0.6502   0.6602   0.6865   0.7573   0.7638
     0.8635   0.8866   1.0029   1.2138   1.2853   1.3116   1.5903   1.6507
     1.6993   1.8620   2.2824   2.3348   3.8148   3.8815   3.9145   3.9475
     3.9839   4.0247   4.3121   4.3201   4.3325   4.3370   4.3735

[...]

          k = 0.0380-0.0419 0.0000 ( 17876 PWs)   bands (ev):

[...]

          k =-0.0760-0.0000 0.0000 ( 17886 PWs)   bands (ev):

[...]

          k =-0.0760-0.0839 0.0000 ( 17948 PWs)   bands (ev):

   -55.2679 -55.2622 -55.2184 -55.2181 -55.2034 -55.1650 -55.1385 -55.1367
   -55.0974 -55.0946 -55.0878 -55.0474 -55.0426 -54.9540 -54.3087 -54.3086
   -31.6566 -31.6524 -31.6524 -31.5722 -31.5495 -31.5494 -31.5426 -31.5109
   -31.5108 -31.4845 -31.4844 -31.4807 -31.4770 -31.4585 -31.4380 -31.4186
   -31.4137 -31.4120 -31.4119 -31.4059 -31.4046 -31.4018 -31.3629 -31.3619
   -31.3583 -31.3551 -31.3525 -31.3517 -31.3495 -31.3370 -31.3367 -31.3318
   -31.3292 -31.2949 -31.2929 -31.2771 -31.2746 -31.2690 -31.2325 -31.2314
   -31.2270 -31.1595 -30.6270 -30.6269 -30.5504 -30.5502 -30.5107 -30.5105
   -15.6346 -15.5219 -15.5132 -15.4761 -15.3232 -15.3022 -15.2646 -15.2499
   -15.1315 -15.0955 -15.0762 -15.0602 -15.0278 -15.0238 -15.0167 -14.9799
   -14.8963 -14.8765 -14.8709 -14.8587 -14.7948 -14.7924 -14.7895 -14.7828
   -14.7819 -14.7468 -14.7432 -14.7012 -14.6981 -14.6928 -14.3775 -12.8093
   -12.8092  -5.6302  -5.5133  -4.9319  -4.7796  -2.7949  -2.7385  -2.7385
    -2.5480  -2.4769  -2.4597  -2.4428  -2.3599  -2.3203  -2.2908  -2.2674
    -2.2364  -2.1945  -2.1907  -2.1696  -2.1610  -2.1450  -2.0997  -2.0813
    -2.0557  -2.0020  -1.9774  -1.9693  -1.9571  -1.9484  -1.9437  -1.9203
    -1.9181  -1.8920  -1.8809  -1.8253  -1.6736  -1.6580  -1.5798  -1.5108
    -1.5064  -1.5047  -1.4214  -1.4013  -1.3467  -1.3375  -1.3315  -1.0883
    -1.0661  -1.0661  -1.0608  -1.0285  -0.9143  -0.9050  -0.8325  -0.8031
    -0.7845  -0.6774  -0.6669  -0.6070  -0.6031  -0.4959  -0.4941  -0.4356
    -0.3073  -0.3008  -0.2876  -0.2629  -0.2611  -0.2194  -0.2152  -0.1079
    -0.0719  -0.0210  -0.0096   0.0227   0.1857   0.2279   0.2498   0.2702
     0.4036   0.4248   0.5583   0.5659   0.6208   0.7305   0.7605   0.7994
     0.8274   0.9764   0.9873   1.0086   1.1003   1.1143   1.1520   1.1585
     2.0501   2.0515   2.1529   2.1532   3.9753   4.0571   4.0825   4.1221
     4.2271   4.3252   4.3403   4.3413   4.3753   4.3782   4.4787

     the Fermi energy is     3.8784 ev

!    total energy              =   -2931.48030850 Ry
     estimated scf accuracy    <       0.00000004 Ry
     smearing contrib. (-TS)   =      -0.03684744 Ry
     internal energy E=F+TS    =   -2931.44346106 Ry

     The total energy is F=E-TS. E is the sum of the following terms:
     one-electron contribution =  -23481.38007823 Ry
     hartree contribution      =   11831.36760022 Ry
     xc contribution           =    -484.16472776 Ry
     ewald contribution        =    9202.73025009 Ry
     electric field correction =       0.00349463 Ry

     convergence has been achieved in  61 iterations

     Forces acting on atoms (cartesian axes, Ry/au):

     atom    1 type  1   force =     0.00008504   -0.00010001    0.09075349
     atom    2 type  1   force =    -0.00005180    0.00052996   -0.18271366
     atom    3 type  2   force =     0.00005493   -0.00002558   -0.02344898
     atom    4 type  2   force =     0.00001898   -0.00006061    0.05277280
     atom    5 type  2   force =    -0.01301012   -0.00097429    0.00606751
     atom    6 type  2   force =     0.01295620   -0.00048252    0.00605603
     atom    7 type  1   force =    -0.00000245    0.00068013   -0.00328979
     atom    8 type  1   force =     0.00001950   -0.00015171    0.00137644
     atom    9 type  2   force =    -0.00003118   -0.00016320   -0.00047886
     atom   10 type  2   force =     0.00001835   -0.00005385   -0.00020645
     atom   11 type  2   force =     0.00016947    0.00017726    0.00017958
     atom   12 type  2   force =    -0.00008843    0.00017200    0.00015573
     atom   13 type  1   force =    -0.00019657   -0.00018405    0.00001927
     atom   14 type  1   force =     0.00014913    0.00046199   -0.00096415
     atom   15 type  2   force =     0.00002411   -0.00059935    0.00011876
     atom   16 type  2   force =    -0.00002747    0.00000739    0.00043220
     atom   17 type  2   force =     0.00042280    0.00001496    0.00048050
     atom   18 type  2   force =    -0.00045177    0.00000860    0.00047608
     atom   19 type  1   force =     0.00005155    0.00002419    0.00033700
     atom   20 type  1   force =    -0.00002971   -0.00079888    0.00030251
     atom   21 type  2   force =     0.00005687    0.00012392    0.10488217
     atom   22 type  2   force =    -0.00001700    0.00014175    0.00109937
     atom   23 type  2   force =    -0.06828802   -0.00021685   -0.02628461
     atom   24 type  2   force =     0.06819720    0.00022079   -0.02632893
     atom   25 type  1   force =     0.00009366    0.00005013    0.09037310
     atom   26 type  1   force =    -0.00005633   -0.00044774   -0.18289669
     atom   27 type  2   force =     0.00005059   -0.00093818   -0.02255854
     atom   28 type  2   force =     0.00001923   -0.00006915    0.05255068
     atom   29 type  2   force =    -0.01331181   -0.00073250    0.00528936
     atom   30 type  2   force =     0.01324999   -0.00023938    0.00527587
     atom   31 type  1   force =     0.00000883   -0.00072679   -0.00309759
     atom   32 type  1   force =     0.00001036   -0.00005876    0.00149472
     atom   33 type  2   force =    -0.00002910   -0.00015372    0.00020420
     atom   34 type  2   force =     0.00002158    0.00007426   -0.00046230
     atom   35 type  2   force =     0.00013903   -0.00014170    0.00024116
     atom   36 type  2   force =    -0.00006090   -0.00015677    0.00022032
     atom   37 type  1   force =    -0.00019324    0.00005571    0.00092554
     atom   38 type  1   force =     0.00014625   -0.00027904   -0.00096449
     atom   39 type  2   force =     0.00001135    0.00026351   -0.00012001
     atom   40 type  2   force =    -0.00002961   -0.00001283    0.00107565
     atom   41 type  2   force =     0.00056812   -0.00017381    0.00024774
     atom   42 type  2   force =    -0.00060997   -0.00017617    0.00024449
     atom   43 type  1   force =     0.00006368    0.00009525    0.00067332
     atom   44 type  1   force =    -0.00002837    0.00100340   -0.00114268
     atom   45 type  2   force =     0.00005438    0.00013980    0.10484726
     atom   46 type  2   force =    -0.06829191   -0.00010329   -0.02631821
     atom   47 type  2   force =     0.06819571    0.00034085   -0.02636000
     atom   48 type  3   force =    -0.00049856    0.00000225   -0.00030925
     atom   49 type  4   force =     0.00002784   -0.00003301    0.00079458
     atom   50 type  4   force =     0.00094588    0.00099078    0.00006209
     atom   51 type  4   force =    -0.00048635    0.00068881   -0.00015184
     atom   52 type  3   force =    -0.00417039    0.00311944   -0.00397396
     atom   53 type  4   force =    -0.00127154    0.00192221   -0.00205163
     atom   54 type  4   force =     0.00065969   -0.00026058   -0.00015062
     atom   55 type  4   force =     0.00474230   -0.00279504    0.00424369

     Total force =     0.366337     Total SCF correction =     0.000582
  @ DRIVER MODE: Message from server: STATUS
  @ DRIVER MODE: Message from server: GETFORCE
  @ DRIVER MODE: Returning v,forces,stress,ensemble

     Writing output data file ./calc.save/
  @ DRIVER MODE: Message from server: EXIT
  @ DRIVE MODE: Exiting

     General routines

     Parallel routines

   This run was terminated on:   4:58:31  13Oct2021

   JOB DONE.