     Program PWSCF v.6.7GPU starts on 28Sep2021 at  2:30:55

     R & G space division:  proc/nbgrp/npool/nimage =       8
     Reading input from /storage/home/hcoda1/3/ntian30/research/carbon/CxH_vib/H2O_calc/ads_slab/CHOHO_b/out_0027/pw.inp
Warning: card &CELL ignored
Warning: card   CELL_DYNAMICS='IPI', ignored
Warning: card / ignored

     Current dimensions of program PWSCF are:
     Max number of different atomic species (ntypx) = 10
     Max number of k-points (npk) =  40000
     Max angular momentum in pseudopotentials (lmaxx) =  3
     Presently no symmetry can be used with electric field

     Message from routine cell_base_init:
     DEPRECATED: use true lattice parameter, not A to a.u. conversion factor

     IMPORTANT: XC functional enforced from input :
     Exchange-correlation= BEEF-VDW
                           (   1   4  43  14   2   0   0)
     Any further DFT definition will be discarded
     Please, verify this is what you really want

  @ DRIVER MODE: Connecting to
 qe_1139763_3000314.sched-torque.pace.gatech.eduqakwd9_q_scratch
  using UNIX socket
  @ DRIVER MODE: Message from server: STATUS
  @ DRIVER MODE: Message from server: INIT
  @ DRIVER MODE: Receiving replica           0          -1
  @ DRIVER MODE: Receiving encoded integer          25
  @ DRIVER MODE:  SCF:  T  FORCE:  T  STRESS:  F  VC:  F  ENSEMBLE:  F
  @ DRIVER MODE:  SCF:  T  FORCE:  T  STRESS:  F  VC:  F  ENSEMBLE:  F

     Using Slab Decomposition

     bravais-lattice index     =            0
     lattice parameter (alat)  =       1.8897  a.u.
     unit-cell volume          =    6658.9804 (a.u.)^3
     number of atoms/cell      =           52
     number of atomic types    =            4
     number of electrons       =       396.00
     number of Kohn-Sham states=          208
     kinetic-energy cutoff     =      29.3995  Ry
     charge density cutoff     =     293.9946  Ry
     scf convergence threshold =      7.3E-08
     mixing beta               =       0.0500
     number of iterations used =            8  plain     mixing
     Exchange-correlation= BEEF-VDW
                           (   1   4  43  14   2   0   0)

     celldm(1)=   1.889726  celldm(2)=   0.000000  celldm(3)=   0.000000
     celldm(4)=   0.000000  celldm(5)=   0.000000  celldm(6)=   0.000000

     crystal axes: (cart. coord. in units of alat)
               a(1) = (   6.579727   0.000000   0.000000 )
               a(2) = (  -0.000775   5.961596   0.000000 )
               a(3) = (   0.000000   0.000000  25.155947 )

     reciprocal axes: (cart. coord. in units 2 pi/alat)
               b(1) = (  0.151982  0.000020  0.000000 )
               b(2) = (  0.000000  0.167740  0.000000 )
               b(3) = (  0.000000  0.000000  0.039752 )

     PseudoPot. # 1 for C  read from file:
     /storage/coda1/p-amedford6/0/shared/rich_project_chbe-medford/medford-share/data/pseudos_module/espresso/nninc/pbe/van/C.UPF
     MD5 check sum: 1a69bf6b8db32088f5b2163dbdb77a27
     Pseudo is Ultrasoft, Zval =  4.0
     Generated by new atomic code, or converted to UPF format
     Using radial grid of  721 points,  4 beta functions with:
                l(1) =   0
                l(2) =   0
                l(3) =   1
                l(4) =   1
     Q(r) pseudized with  8 coefficients,  rinner =    0.800   0.800   0.800

     PseudoPot. # 2 for H  read from file:
     /storage/coda1/p-amedford6/0/shared/rich_project_chbe-medford/medford-share/data/pseudos_module/espresso/nninc/pbe/van/H.UPF
     MD5 check sum: b5ee9d7bfd3a09ee7748110bda690ff7
     Pseudo is Ultrasoft, Zval =  1.0
     Generated by new atomic code, or converted to UPF format
     Using radial grid of  615 points,  1 beta functions with:
                l(1) =   0
     Q(r) pseudized with  8 coefficients,  rinner =    0.800

     PseudoPot. # 3 for O  read from file:
     /storage/coda1/p-amedford6/0/shared/rich_project_chbe-medford/medford-share/data/pseudos_module/espresso/nninc/pbe/van/O.UPF
     MD5 check sum: 78c19812648e8988a0fe644b0f25305e
     Pseudo is Ultrasoft, Zval =  6.0
     Generated by new atomic code, or converted to UPF format
     Using radial grid of  737 points,  4 beta functions with:
                l(1) =   0
                l(2) =   0
                l(3) =   1
                l(4) =   1
     Q(r) pseudized with  8 coefficients,  rinner =    0.800   0.800   0.800

     PseudoPot. # 4 for Ti read from file:
     /storage/coda1/p-amedford6/0/shared/rich_project_chbe-medford/medford-share/data/pseudos_module/espresso/nninc/pbe/van/Ti.UPF
     MD5 check sum: 8e4df49b7f0d34bbd5052bf3f5ea0213
     Pseudo is Ultrasoft, Zval = 12.0
     Generated by new atomic code, or converted to UPF format
     Using radial grid of  851 points,  6 beta functions with:
                l(1) =   0
                l(2) =   0
                l(3) =   1
                l(4) =   1
                l(5) =   2
                l(6) =   2
     Q(r) pseudized with  8 coefficients,  rinner =    1.000   1.000   1.000
                                                       1.000   1.000

     atomic species   valence    mass     pseudopotential
        C1             4.00    12.01100     C ( 1.00)
        H1             1.00     1.00800     H ( 1.00)
        O1             6.00    15.99900     O ( 1.00)
        Ti1           12.00    47.86700     Ti( 1.00)

     No symmetry found

   Cartesian axes

     site n.     atom                  positions (alat units)
         1           C1  tau(   1) = (   6.4174581   3.0630250  18.7433229  )
         2           H1  tau(   2) = (   6.4111689   4.1212957  19.1161716  )
         3           O1  tau(   3) = (   3.2904802   0.0005063   4.7018136  )
         4           O1  tau(   4) = (   3.2900926   2.9813045   4.7018136  )
         5           O1  tau(   5) = (   1.3043587   1.4918075   6.0039043  )
         6           O1  tau(   6) = (   1.3039711   4.4726057   6.0039043  )
         7           O1  tau(   7) = (   5.2767064   1.4903225   6.0039473  )
         8           O1  tau(   8) = (   5.2763189   4.4711207   6.0039473  )
         9           O1  tau(   9) = (   3.2906025   0.0005020   7.3038282  )
        10           O1  tau(  10) = (   3.2902150   2.9813002   7.3038282  )
        11           O1  tau(  11) = (   0.0006271   0.0005054   7.9858123  )
        12           O1  tau(  12) = (   0.0002396   2.9813036   7.9858123  )
        13           O1  tau(  13) = (   4.5942328   1.4918067   9.2879030  )
        14           O1  tau(  14) = (   4.5938453   4.4726049   9.2879030  )
        15           O1  tau(  15) = (   1.9868534   1.4903216   9.2879459  )
        16           O1  tau(  16) = (   1.9864658   4.4711199   9.2879459  )
        17           O1  tau(  17) = (   0.0063547   0.0038039  10.5886533  )
        18           O1  tau(  18) = (   0.0036009   2.9935247  10.5534957  )
        19           O1  tau(  19) = (   3.2887833   2.9558164  11.3026950  )
        20           O1  tau(  20) = (   3.2889155   0.0180965  11.3284547  )
        21           O1  tau(  21) = (   1.2693144   4.4854729  12.6486175  )
        22           O1  tau(  22) = (   1.2682469   1.5082983  12.6349555  )
        23           O1  tau(  23) = (   5.3117200   4.4832310  12.6447022  )
        24           O1  tau(  24) = (   5.3022439   1.5078309  12.6340177  )
        25           O1  tau(  25) = (   3.2906411   2.9682164  13.9081918  )
        26           O1  tau(  26) = (   3.2897682   5.9313675  13.9192633  )
        27           O1  tau(  27) = (   0.0102991   0.0146890  14.6966064  )
        28           O1  tau(  28) = (   6.5585574   2.9631049  14.7216645  )
        29           O1  tau(  29) = (   4.5396285   4.4015509  16.0671556  )
        30           O1  tau(  30) = (   4.5390945   1.4941059  16.1279003  )
        31           O1  tau(  31) = (   2.0082845   1.5156796  16.1272261  )
        32           O1  tau(  32) = (   2.0064512   4.3952525  16.0627866  )
        33           O1  tau(  33) = (   6.5747792   5.9015977  17.1979186  )
        34           O1  tau(  34) = (   6.5364340   3.0300823  17.4955599  )
        35           Ti1 tau(  35) = (   0.0004258   2.9801865   6.0000000  )
        36           Ti1 tau(  36) = (   0.0000382   5.9609847   6.0000000  )
        37           Ti1 tau(  37) = (   3.2906075   1.4906267   6.0002472  )
        38           Ti1 tau(  38) = (   3.2902200   4.4714249   6.0002472  )
        39           Ti1 tau(  39) = (   3.3327010   0.0642822   9.1729847  )
        40           Ti1 tau(  40) = (   3.3370945   3.0443960   9.2119432  )
        41           Ti1 tau(  41) = (   0.0627859   4.5109727   9.2698030  )
        42           Ti1 tau(  42) = (   0.0576648   1.5917673   9.3593984  )
        43           Ti1 tau(  43) = (   0.0253163   5.9063241  12.4905130  )
        44           Ti1 tau(  44) = (   3.2927504   4.6587819  12.6908054  )
        45           Ti1 tau(  45) = (   3.2752962   1.5585801  12.4345831  )
        46           Ti1 tau(  46) = (   6.5429176   2.9239390  12.8034251  )
        47           Ti1 tau(  47) = (   3.2945171   2.9475426  15.6852994  )
        48           Ti1 tau(  48) = (   3.3539256   5.9263172  16.3551506  )
        49           Ti1 tau(  49) = (   0.0620310   4.5244698  15.8688857  )
        50           Ti1 tau(  50) = (   0.0504038   1.3137671  16.0740927  )
        51           O1  tau(  51) = (   3.3002437   5.8605330  18.1582223  )
        52           H1  tau(  52) = (   3.3828385   0.5975072  18.8126307  )

     number of k points=    10  Fermi-Dirac smearing, width (Ry)=  0.0073
                       cart. coord. in units 2pi/alat
        k(    1) = (   0.0000000   0.0000000   0.0000000), wk =   0.1250000
        k(    2) = (   0.0000000   0.0419351   0.0000000), wk =   0.2500000
        k(    3) = (   0.0000000  -0.0838702   0.0000000), wk =   0.1250000
        k(    4) = (   0.0379955   0.0000049   0.0000000), wk =   0.2500000
        k(    5) = (   0.0379955   0.0419400   0.0000000), wk =   0.2500000
        k(    6) = (   0.0379955  -0.0838652   0.0000000), wk =   0.2500000
        k(    7) = (   0.0379955  -0.0419301   0.0000000), wk =   0.2500000
        k(    8) = (  -0.0759910  -0.0000099   0.0000000), wk =   0.1250000
        k(    9) = (  -0.0759910   0.0419252   0.0000000), wk =   0.2500000
        k(   10) = (  -0.0759910  -0.0838800   0.0000000), wk =   0.1250000

     Initial potential from superposition of free atoms

     starting charge  379.99919, renormalised to  396.00000

     negative rho (up, down):  1.747E-02 0.000E+00

     %%%%%%%%%%%%%%%%%%%%%%%%%%%%%%%%%%%%%%%%%%%%%%%%%%%%%%%%%%%%%%%%%%%%%%%%
     %                                                                      %
     % You are using vdW-DF, which was implemented by the Thonhauser group. %
     % Please cite the following two papers that made this development      %
     % possible and the two reviews that describe the various versions:     %
     %                                                                      %
     %   T. Thonhauser et al., PRL 115, 136402 (2015).                      %
     %   T. Thonhauser et al., PRB 76, 125112 (2007).                       %
     %   K. Berland et al., Rep. Prog. Phys. 78, 066501 (2015).             %
     %   D.C. Langreth et al., J. Phys.: Condens. Matter 21, 084203 (2009). %
     %                                                                      %
     %                                                                      %
     % If you are calculating the stress with vdW-DF, please also cite:     %
     %                                                                      %
     %   R. Sabatini et al., J. Phys.: Condens. Matter 24, 424209 (2012).   %
     %                                                                      %
     %%%%%%%%%%%%%%%%%%%%%%%%%%%%%%%%%%%%%%%%%%%%%%%%%%%%%%%%%%%%%%%%%%%%%%%%

     Adding external electric field

     Computed dipole along edir(3) :
        Dipole               -7.6492 Ry au,        -19.4423 Debye
        Dipole field         -0.0144 Ry au,

        Potential amp.        1.3381 Ry
        Total length         46.3494 bohr

     Starting wfcs are  298 atomic wfcs
  @ DRIVER MODE: Message from server: STATUS
  @ DRIVER MODE: Message from server: POSDATA
  @ DRIVER MODE: Reading and sharing cell
  @ DRIVER MODE: Reading and sharing positions
  @ DRIVER MODE: Received positions

     Self-consistent Calculation

     iteration #  1     ecut=    29.40 Ry     beta= 0.05
     Davidson diagonalization with overlap
     c_bands:  1 eigenvalues not converged
     c_bands:  2 eigenvalues not converged
     c_bands:  1 eigenvalues not converged
     c_bands:  1 eigenvalues not converged
     c_bands:  3 eigenvalues not converged
     c_bands:  1 eigenvalues not converged
     c_bands:  3 eigenvalues not converged
     c_bands:  1 eigenvalues not converged
     c_bands:  2 eigenvalues not converged
     c_bands:  1 eigenvalues not converged
     ethr =  1.00E-05,  avg # of iterations = 20.0

[...]

     total energy              =   -2670.39619951 Ry
     estimated scf accuracy    <    3232.66256908 Ry

[...]

     iteration #  3     ecut=    29.40 Ry     beta= 0.05
     Davidson diagonalization with overlap
     ethr =  1.00E-02,  avg # of iterations = 15.1

[...]

     iteration # 37     ecut=    29.40 Ry     beta= 0.05
     Davidson diagonalization with overlap
     c_bands:  1 eigenvalues not converged
     ethr =  4.57E-07,  avg # of iterations =  8.6

[...]

     total energy              =   -2962.43516649 Ry
     estimated scf accuracy    <       0.00000010 Ry

     iteration # 67     ecut=    29.40 Ry     beta= 0.05
     Davidson diagonalization with overlap
     ethr =  2.40E-11,  avg # of iterations =  2.2

     negative rho (up, down):  1.661E-02 0.000E+00

     Adding external electric field

     Computed dipole along edir(3) :
        Dipole                0.3216 Ry au,          0.8175 Debye
        Dipole field          0.0006 Ry au,

        Potential amp.       -0.0563 Ry
        Total length         46.3494 bohr

     End of self-consistent calculation

          k = 0.0000 0.0000 0.0000 ( 18029 PWs)   bands (ev):

   -56.3713 -56.3257 -56.1761 -56.0689 -56.0377 -56.0258 -55.9686 -55.9444
   -55.9139 -55.9080 -55.8899 -55.8765 -55.7933 -55.6658 -55.1523 -55.1183
   -32.8106 -32.6611 -32.6115 -32.5595 -32.5344 -32.5325 -32.5288 -32.5133
   -32.4373 -32.4342 -32.4242 -32.3992 -32.3905 -32.3481 -32.3202 -32.3188
   -32.2742 -32.2596 -32.2562 -32.2483 -32.2180 -32.2038 -32.1984 -32.1620
   -32.1532 -32.1494 -32.1384 -32.1371 -32.1351 -32.1107 -32.1010 -32.0980
   -32.0814 -32.0737 -32.0701 -32.0499 -32.0444 -32.0213 -31.9948 -31.9205
   -31.8777 -31.8755 -31.5530 -31.4826 -31.4590 -31.3697 -31.2839 -31.1727
   -19.9953 -17.0227 -16.7681 -16.6066 -16.4151 -16.2995 -16.2190 -16.0263
   -15.9178 -15.8641 -15.7876 -15.7474 -15.6671 -15.6623 -15.6500 -15.6116
   -15.5976 -15.5956 -15.5420 -15.5404 -15.5042 -15.4916 -15.4306 -15.3813
   -15.3392 -15.3094 -15.2383 -15.2263 -15.1564 -15.1488 -14.8708 -13.6539
   -13.5415  -8.1637  -5.0475  -4.8542  -4.1671  -4.1033  -4.0117  -3.9312
    -3.8524  -3.6600  -3.5647  -3.4907  -3.4056  -3.3063  -3.2543  -3.2176
    -3.1189  -3.1068  -3.0532  -3.0112  -2.9770  -2.9474  -2.8998  -2.8653
    -2.8178  -2.7885  -2.7740  -2.7310  -2.6896  -2.6749  -2.5868  -2.5675
    -2.5599  -2.5161  -2.4850  -2.4394  -2.4201  -2.3775  -2.3524  -2.3405
    -2.2232  -2.1528  -2.1392  -2.0673  -1.9420  -1.7375  -1.7003  -1.6717
    -1.6647  -1.5468  -1.5095  -1.4926  -1.4636  -1.4313  -1.3935  -1.2876
    -1.2824  -1.2207  -1.1806  -1.1673  -1.0203  -1.0018  -0.9719  -0.9002
    -0.8759  -0.8157  -0.8021  -0.6864  -0.6387  -0.6072  -0.5067  -0.4626
    -0.4440  -0.4312  -0.3863  -0.3620  -0.3527  -0.3066  -0.2293  -0.2201
    -0.1843  -0.1606  -0.1443  -0.1087  -0.0320   0.0074   0.0738   0.1530
     0.1814   0.1977   0.2634   0.3261   0.4396   0.5377   0.6663   0.8675
     0.8680   0.9894   1.0947   1.4253   1.4706   2.6453   2.8745   2.9800
     3.1341   3.1903   3.2098   3.2954   3.3322   3.4158   3.6253   3.6623

[...]

          k = 0.0380-0.0419 0.0000 ( 17876 PWs)   bands (ev):

[...]

          k =-0.0760-0.0000 0.0000 ( 17886 PWs)   bands (ev):

[...]

          k =-0.0760-0.0839 0.0000 ( 17948 PWs)   bands (ev):

   -56.3638 -56.3331 -56.1753 -56.0613 -56.0353 -56.0331 -55.9648 -55.9451
   -55.9109 -55.9018 -55.8935 -55.8877 -55.7910 -55.6679 -55.1359 -55.1347
   -32.6563 -32.6397 -32.6129 -32.6125 -32.4947 -32.4798 -32.4764 -32.4716
   -32.4197 -32.3838 -32.3716 -32.3704 -32.3532 -32.3176 -32.3095 -32.2765
   -32.2581 -32.2563 -32.2502 -32.2428 -32.2413 -32.2326 -32.2268 -32.2105
   -32.1855 -32.1805 -32.1732 -32.1607 -32.1403 -32.1398 -32.1236 -32.1158
   -32.1110 -32.1055 -32.0993 -32.0903 -32.0864 -32.0418 -31.9989 -31.9929
   -31.9220 -31.8804 -31.4725 -31.4713 -31.3679 -31.3657 -31.3269 -31.3253
   -19.9890 -17.0124 -16.2113 -16.1797 -16.0842 -16.0266 -16.0131 -15.9509
   -15.9251 -15.8778 -15.8722 -15.7820 -15.7766 -15.7548 -15.7169 -15.6930
   -15.6847 -15.6520 -15.6266 -15.5921 -15.5805 -15.5604 -15.5305 -15.4983
   -15.4483 -15.4423 -15.3787 -15.3528 -15.3276 -15.2159 -15.0272 -13.6452
   -13.6434  -8.1646  -5.0262  -4.8624  -3.6196  -3.4802  -3.3993  -3.2985
    -3.2108  -3.1605  -3.1365  -3.0975  -3.0768  -3.0264  -3.0240  -2.9802
    -2.9693  -2.9276  -2.9112  -2.8740  -2.8407  -2.8259  -2.8204  -2.8125
    -2.8099  -2.7943  -2.7626  -2.7514  -2.7343  -2.7307  -2.6826  -2.6484
    -2.6304  -2.5323  -2.4800  -2.4454  -2.3909  -2.3405  -2.3083  -2.2912
    -2.2756  -2.2283  -2.2110  -2.1822  -2.0725  -2.0321  -1.8663  -1.8095
    -1.7694  -1.7224  -1.6889  -1.6465  -1.5955  -1.5773  -1.5540  -1.5028
    -1.4903  -1.3567  -1.3536  -1.2985  -1.2172  -1.1875  -1.1798  -1.1694
    -1.1032  -1.0459  -1.0309  -1.0262  -0.9868  -0.8915  -0.8858  -0.8389
    -0.8274  -0.7921  -0.7208  -0.6525  -0.5556  -0.5210  -0.4667  -0.4392
    -0.3089  -0.2711  -0.1298  -0.1134  -0.0254   0.0123   0.0394   0.1216
     0.1433   0.1776   0.2571   0.2841   0.3653   0.4145   0.4584   0.4685
     0.5316   1.2447   1.2604   1.2774   1.2891   2.5481   3.2696   3.3740
     3.3790   3.4068   3.4196   3.5203   3.5341   3.6045   3.6384   3.6836

     the Fermi energy is     2.7865 ev

!    total energy              =   -2962.43519267 Ry
     estimated scf accuracy    <       0.00000007 Ry
     smearing contrib. (-TS)   =      -0.01290112 Ry
     internal energy E=F+TS    =   -2962.42229155 Ry

     The total energy is F=E-TS. E is the sum of the following terms:
     one-electron contribution =  -24149.99255237 Ry
     hartree contribution      =   12160.93515146 Ry
     xc contribution           =    -488.28141384 Ry
     ewald contribution        =    9514.91632799 Ry
     electric field correction =       0.00019522 Ry

     convergence has been achieved in  67 iterations

     Forces acting on atoms (cartesian axes, Ry/au):

     atom    1 type  1   force =    -0.00022864   -0.00013929    0.00022518
     atom    2 type  2   force =     0.00010915   -0.00041856   -0.00029812
     atom    3 type  3   force =    -0.00000568    0.00008281    0.10101322
     atom    4 type  3   force =    -0.00000129    0.00014144    0.10058099
     atom    5 type  3   force =    -0.07614311    0.00087818   -0.03119424
     atom    6 type  3   force =    -0.07559086   -0.00154723   -0.03119762
     atom    7 type  3   force =     0.07597535    0.00141830   -0.03125774
     atom    8 type  3   force =     0.07558427   -0.00104834   -0.03121853
     atom    9 type  3   force =     0.00102220    0.00071564    0.04690614
     atom   10 type  3   force =     0.00093698    0.00023196    0.04951198
     atom   11 type  3   force =     0.00038134   -0.00605606   -0.04131473
     atom   12 type  3   force =     0.00101564    0.00275164   -0.03528122
     atom   13 type  3   force =    -0.01264691   -0.00286986    0.00044244
     atom   14 type  3   force =    -0.01411850    0.00448308    0.00143832
     atom   15 type  3   force =     0.01210294   -0.00536454    0.00103453
     atom   16 type  3   force =     0.01170472    0.00182298    0.00133642
     atom   17 type  3   force =     0.00007792    0.00034893    0.00075823
     atom   18 type  3   force =     0.00013161   -0.00027482    0.00017405
     atom   19 type  3   force =    -0.00012348   -0.00001241    0.00022867
     atom   20 type  3   force =    -0.00006410    0.00053031   -0.00041782
     atom   21 type  3   force =     0.00031017    0.00006747   -0.00006850
     atom   22 type  3   force =    -0.00003078    0.00000555    0.00000458
     atom   23 type  3   force =    -0.00013160    0.00004872    0.00000852
     atom   24 type  3   force =    -0.00001560    0.00000474   -0.00019448
     atom   25 type  3   force =    -0.00011246    0.00021195   -0.00035245
     atom   26 type  3   force =    -0.00005581    0.00060798    0.00046107
     atom   27 type  3   force =    -0.00007627   -0.00010938   -0.00056699
     atom   28 type  3   force =    -0.00004127    0.00007132   -0.00015388
     atom   29 type  3   force =    -0.00012838   -0.00021986   -0.00029754
     atom   30 type  3   force =    -0.00045354    0.00038796   -0.00048543
     atom   31 type  3   force =     0.00008815    0.00027407   -0.00033706
     atom   32 type  3   force =    -0.00027177   -0.00002258   -0.00014424
     atom   33 type  3   force =    -0.00001649   -0.00012909    0.00085976
     atom   34 type  3   force =     0.00007033    0.00016609   -0.00018065
     atom   35 type  4   force =    -0.00008604   -0.00132668    0.10984105
     atom   36 type  4   force =    -0.00019742    0.00142585    0.12391308
     atom   37 type  4   force =    -0.00028540    0.00759343   -0.16585032
     atom   38 type  4   force =     0.00000367   -0.00693655   -0.16570178
     atom   39 type  4   force =     0.00075936   -0.00133156   -0.00022532
     atom   40 type  4   force =     0.00083180    0.00162291   -0.00033182
     atom   41 type  4   force =    -0.00062559    0.00000263   -0.00006818
     atom   42 type  4   force =    -0.00070878    0.00003172   -0.00029476
     atom   43 type  4   force =     0.00010226   -0.00015357    0.00004435
     atom   44 type  4   force =     0.00033656    0.00008731   -0.00031412
     atom   45 type  4   force =     0.00013159    0.00099422   -0.00019535
     atom   46 type  4   force =    -0.00000483   -0.00004879   -0.00041763
     atom   47 type  4   force =     0.00035472    0.00022492    0.00031706
     atom   48 type  4   force =     0.00024267   -0.00014866    0.00024466
     atom   49 type  4   force =    -0.00040861    0.00076799    0.00003403
     atom   50 type  4   force =    -0.00045683   -0.00009648   -0.00052388
     atom   51 type  3   force =    -0.00117555   -0.01044936   -0.00997063
     atom   52 type  2   force =     0.00193219    0.01070157    0.00947672

     Total force =     0.372165     Total SCF correction =     0.001190
  @ DRIVER MODE: Message from server: STATUS
  @ DRIVER MODE: Message from server: GETFORCE
  @ DRIVER MODE: Returning v,forces,stress,ensemble

     Writing output data file ./calc.save/
  @ DRIVER MODE: Message from server: EXIT
  @ DRIVE MODE: Exiting

     General routines

     Parallel routines

   This run was terminated on:   2:54:43  28Sep2021

   JOB DONE.