     Program PWSCF v.6.7GPU starts on 19Oct2021 at  0: 2:20

     R & G space division:  proc/nbgrp/npool/nimage =       8
     Reading input from /storage/home/hcoda1/3/ntian30/research/carbon/CxH_vib/Thiel_calc/ads_slab/NH2NH2HH_perslab/out_0026/pw.inp
Warning: card &CELL ignored
Warning: card   CELL_DYNAMICS='IPI', ignored
Warning: card / ignored

     Current dimensions of program PWSCF are:
     Max number of different atomic species (ntypx) = 10
     Max number of k-points (npk) =  40000
     Max angular momentum in pseudopotentials (lmaxx) =  3
     Presently no symmetry can be used with electric field

     Message from routine cell_base_init:
     DEPRECATED: use true lattice parameter, not A to a.u. conversion factor

     IMPORTANT: XC functional enforced from input :
     Exchange-correlation= BEEF-VDW
                           (   1   4  43  14   2   0   0)
     Any further DFT definition will be discarded
     Please, verify this is what you really want

  @ DRIVER MODE: Connecting to
 qe_1139763_3255137.sched-torque.pace.gatech.edu2c0toof4_scratch
  using UNIX socket
  @ DRIVER MODE: Message from server: STATUS
  @ DRIVER MODE: Message from server: INIT
  @ DRIVER MODE: Receiving replica           0          -1
  @ DRIVER MODE: Receiving encoded integer          25
  @ DRIVER MODE:  SCF:  T  FORCE:  T  STRESS:  F  VC:  F  ENSEMBLE:  F
  @ DRIVER MODE:  SCF:  T  FORCE:  T  STRESS:  F  VC:  F  ENSEMBLE:  F

     Using Slab Decomposition

     bravais-lattice index     =            0
     lattice parameter (alat)  =       1.8897  a.u.
     unit-cell volume          =    9988.4706 (a.u.)^3
     number of atoms/cell      =           61
     number of atomic types    =            4
     number of electrons       =       442.00
     number of Kohn-Sham states=          231
     kinetic-energy cutoff     =      29.3995  Ry
     charge density cutoff     =     293.9946  Ry
     scf convergence threshold =      7.3E-08
     mixing beta               =       0.0500
     number of iterations used =            8  plain     mixing
     Exchange-correlation= BEEF-VDW
                           (   1   4  43  14   2   0   0)

     celldm(1)=   1.889726  celldm(2)=   0.000000  celldm(3)=   0.000000
     celldm(4)=   0.000000  celldm(5)=   0.000000  celldm(6)=   0.000000

     crystal axes: (cart. coord. in units of alat)
               a(1) = (   6.579727   0.000000   0.000000 )
               a(2) = (  -0.001163   8.942395   0.000000 )
               a(3) = (   0.000000   0.000000  25.155947 )

     reciprocal axes: (cart. coord. in units 2 pi/alat)
               b(1) = (  0.151982  0.000020  0.000000 )
               b(2) = (  0.000000  0.111827  0.000000 )
               b(3) = (  0.000000  0.000000  0.039752 )

     PseudoPot. # 1 for O  read from file:
     /storage/coda1/p-amedford6/0/shared/rich_project_chbe-medford/medford-share/data/pseudos_module/espresso/nninc/pbe/van/O.UPF
     MD5 check sum: 78c19812648e8988a0fe644b0f25305e
     Pseudo is Ultrasoft, Zval =  6.0
     Generated by new atomic code, or converted to UPF format
     Using radial grid of  737 points,  4 beta functions with:
                l(1) =   0
                l(2) =   0
                l(3) =   1
                l(4) =   1
     Q(r) pseudized with  8 coefficients,  rinner =    0.800   0.800   0.800

     PseudoPot. # 2 for Ti read from file:
     /storage/coda1/p-amedford6/0/shared/rich_project_chbe-medford/medford-share/data/pseudos_module/espresso/nninc/pbe/van/Ti.UPF
     MD5 check sum: 8e4df49b7f0d34bbd5052bf3f5ea0213
     Pseudo is Ultrasoft, Zval = 12.0
     Generated by new atomic code, or converted to UPF format
     Using radial grid of  851 points,  6 beta functions with:
                l(1) =   0
                l(2) =   0
                l(3) =   1
                l(4) =   1
                l(5) =   2
                l(6) =   2
     Q(r) pseudized with  8 coefficients,  rinner =    1.000   1.000   1.000
                                                       1.000   1.000

     PseudoPot. # 3 for N  read from file:
     /storage/coda1/p-amedford6/0/shared/rich_project_chbe-medford/medford-share/data/pseudos_module/espresso/nninc/pbe/van/N.UPF
     MD5 check sum: 90d10febe142ad51ac9d5be1deb811c4
     Pseudo is Ultrasoft, Zval =  5.0
     Generated by new atomic code, or converted to UPF format
     Using radial grid of  729 points,  4 beta functions with:
                l(1) =   0
                l(2) =   0
                l(3) =   1
                l(4) =   1
     Q(r) pseudized with  8 coefficients,  rinner =    0.800   0.800   0.800

     PseudoPot. # 4 for H  read from file:
     /storage/coda1/p-amedford6/0/shared/rich_project_chbe-medford/medford-share/data/pseudos_module/espresso/nninc/pbe/van/H.UPF
     MD5 check sum: b5ee9d7bfd3a09ee7748110bda690ff7
     Pseudo is Ultrasoft, Zval =  1.0
     Generated by new atomic code, or converted to UPF format
     Using radial grid of  615 points,  1 beta functions with:
                l(1) =   0
     Q(r) pseudized with  8 coefficients,  rinner =    0.800

     atomic species   valence    mass     pseudopotential
        O1             6.00    15.99900     O ( 1.00)
        Ti1           12.00    47.86700     Ti( 1.00)
        N1             5.00    14.00700     N ( 1.00)
        H1             1.00     1.00800     H ( 1.00)

     No symmetry found

   Cartesian axes

     site n.     atom                  positions (alat units)
         1           O1  tau(   1) = (   0.0007354   0.0005023  10.5931620  )
         2           O1  tau(   2) = (   3.2456387   0.0208629  13.8623892  )
         3           O1  tau(   3) = (   6.5569189   0.0555649  17.3369326  )
         4           O1  tau(   4) = (   0.0006271   0.0005054   7.9858123  )
         5           O1  tau(   5) = (   3.2933513   8.9300833  11.1812556  )
         6           O1  tau(   6) = (   0.0337597   0.0712708  14.6279364  )
         7           O1  tau(   7) = (   1.9868534   1.4903216   9.2879459  )
         8           O1  tau(   8) = (   5.2215124   1.6184176  12.5791628  )
         9           O1  tau(   9) = (   1.9922958   1.5902288  16.0980526  )
        10           Ti1 tau(  10) = (   0.0007404   1.4906270   9.2895810  )
        11           Ti1 tau(  11) = (   3.2860490   1.3455809  12.4359399  )
        12           Ti1 tau(  12) = (   6.5618936   1.3602716  15.8812525  )
        13           O1  tau(  13) = (   4.5942328   1.4918067   9.2879030  )
        14           O1  tau(  14) = (   1.3307156   1.5887400  12.5381291  )
        15           O1  tau(  15) = (   4.5725103   1.6118788  16.0006659  )
        16           Ti1 tau(  16) = (   3.2902859   2.9801868   9.2893338  )
        17           Ti1 tau(  17) = (   0.0046584   2.8227806  12.4510757  )
        18           Ti1 tau(  18) = (   3.2555632   2.8898243  15.6661830  )
        19           O1  tau(  19) = (   0.0003479   2.9813005  10.5931620  )
        20           O1  tau(  20) = (   3.2279248   2.9553539  13.8813459  )
        21           O1  tau(  21) = (   0.0002396   2.9813036   7.9858123  )
        22           O1  tau(  22) = (   3.2889556   2.9859946  11.1941525  )
        23           O1  tau(  23) = (   0.0559812   2.9852445  14.6488683  )
        24           O1  tau(  24) = (   1.9864658   4.4711199   9.2879459  )
        25           O1  tau(  25) = (   5.2314886   4.5920767  12.6107679  )
        26           O1  tau(  26) = (   1.9969377   4.5324570  16.1535429  )
        27           Ti1 tau(  27) = (   0.0003529   4.4714252   9.2895810  )
        28           Ti1 tau(  28) = (   3.2845268   4.3564118  12.5295435  )
        29           Ti1 tau(  29) = (   6.5676402   4.3565080  15.8255799  )
        30           O1  tau(  30) = (   4.5938453   4.4726049   9.2879030  )
        31           O1  tau(  31) = (   1.3315080   4.5776727  12.5731030  )
        32           O1  tau(  32) = (   4.5871741   4.4544688  15.9274438  )
        33           Ti1 tau(  33) = (   3.2898983   5.9609850   9.2893338  )
        34           Ti1 tau(  34) = (   6.5783773   5.8108302  12.4536689  )
        35           Ti1 tau(  35) = (   3.3162440   5.8110762  16.0333210  )
        36           O1  tau(  36) = (  -0.0000397   5.9620987  10.5931620  )
        37           O1  tau(  37) = (   3.2636778   5.9869953  13.9790019  )
        38           O1  tau(  38) = (   6.4104969   6.0475349  17.2872242  )
        39           O1  tau(  39) = (  -0.0001480   5.9621018   7.9858123  )
        40           O1  tau(  40) = (   3.2905218   5.9516507  11.2202175  )
        41           O1  tau(  41) = (   0.0617018   5.9803669  14.6637187  )
        42           O1  tau(  42) = (   1.9860782   7.4519181   9.2879459  )
        43           O1  tau(  43) = (   5.2407037   7.5572870  12.6049163  )
        44           O1  tau(  44) = (   1.9881273   7.5959696  16.0809372  )
        45           Ti1 tau(  45) = (  -0.0000347   7.4522234   9.2895810  )
        46           Ti1 tau(  46) = (   3.2912638   7.2305267  12.6172466  )
        47           Ti1 tau(  47) = (   0.0232661   7.3094817  15.9177444  )
        48           O1  tau(  48) = (   4.5934577   7.4534031   9.2879030  )
        49           O1  tau(  49) = (   1.3287160   7.5404973  12.5734398  )
        50           O1  tau(  50) = (   4.6507959   7.6754627  15.9163669  )
        51           Ti1 tau(  51) = (   3.2895107   8.9417832   9.2893338  )
        52           Ti1 tau(  52) = (   0.0077981   8.7799231  12.4640552  )
        53           Ti1 tau(  53) = (   3.2910717   8.8534038  15.6608489  )
        54           N1  tau(  54) = (   3.7626148   6.0985185  18.0019073  )
        55           H1  tau(  55) = (   3.4663780   5.3841571  18.6619304  )
        56           H1  tau(  56) = (   3.5565419   6.9988739  18.4208443  )
        57           N1  tau(  57) = (   6.5319303   3.0529623  17.4095181  )
        58           H1  tau(  58) = (   5.7113393   3.0140474  17.9904383  )
        59           H1  tau(  59) = (   0.7603229   3.1006543  18.0203722  )
        60           H1  tau(  60) = (   5.4974376   6.0468821  17.7423635  )
        61           H1  tau(  61) = (   0.7324116   0.0679216  17.9402240  )

     number of k points=    10  Fermi-Dirac smearing, width (Ry)=  0.0073
                       cart. coord. in units 2pi/alat
        k(    1) = (   0.0000000   0.0000000   0.0000000), wk =   0.1250000
        k(    2) = (   0.0000000   0.0279567   0.0000000), wk =   0.2500000
        k(    3) = (   0.0000000  -0.0559134   0.0000000), wk =   0.1250000
        k(    4) = (   0.0379955   0.0000049   0.0000000), wk =   0.2500000
        k(    5) = (   0.0379955   0.0279617   0.0000000), wk =   0.2500000
        k(    6) = (   0.0379955  -0.0559085   0.0000000), wk =   0.2500000
        k(    7) = (   0.0379955  -0.0279518   0.0000000), wk =   0.2500000
        k(    8) = (  -0.0759910  -0.0000099   0.0000000), wk =   0.1250000
        k(    9) = (  -0.0759910   0.0279468   0.0000000), wk =   0.2500000
        k(   10) = (  -0.0759910  -0.0559233   0.0000000), wk =   0.1250000

     Initial potential from superposition of free atoms

     starting charge  423.99908, renormalised to  442.00000

     negative rho (up, down):  3.745E-02 0.000E+00

     %%%%%%%%%%%%%%%%%%%%%%%%%%%%%%%%%%%%%%%%%%%%%%%%%%%%%%%%%%%%%%%%%%%%%%%%
     %                                                                      %
     % You are using vdW-DF, which was implemented by the Thonhauser group. %
     % Please cite the following two papers that made this development      %
     % possible and the two reviews that describe the various versions:     %
     %                                                                      %
     %   T. Thonhauser et al., PRL 115, 136402 (2015).                      %
     %   T. Thonhauser et al., PRB 76, 125112 (2007).                       %
     %   K. Berland et al., Rep. Prog. Phys. 78, 066501 (2015).             %
     %   D.C. Langreth et al., J. Phys.: Condens. Matter 21, 084203 (2009). %
     %                                                                      %
     %                                                                      %
     % If you are calculating the stress with vdW-DF, please also cite:     %
     %                                                                      %
     %   R. Sabatini et al., J. Phys.: Condens. Matter 24, 424209 (2012).   %
     %                                                                      %
     %%%%%%%%%%%%%%%%%%%%%%%%%%%%%%%%%%%%%%%%%%%%%%%%%%%%%%%%%%%%%%%%%%%%%%%%

     Adding external electric field

     Computed dipole along edir(3) :
        Dipole               -5.9687 Ry au,        -15.1708 Debye
        Dipole field         -0.0075 Ry au,

        Potential amp.        0.6961 Ry
        Total length         46.3494 bohr

     Starting wfcs are  334 atomic wfcs
  @ DRIVER MODE: Message from server: STATUS
  @ DRIVER MODE: Message from server: POSDATA
  @ DRIVER MODE: Reading and sharing cell
  @ DRIVER MODE: Reading and sharing positions
  @ DRIVER MODE: Received positions

     Self-consistent Calculation

     iteration #  1     ecut=    29.40 Ry     beta= 0.05
     Davidson diagonalization with overlap
     c_bands:  1 eigenvalues not converged
     c_bands:  3 eigenvalues not converged
     c_bands:  5 eigenvalues not converged
     c_bands:  2 eigenvalues not converged
     c_bands:  4 eigenvalues not converged
     c_bands:  4 eigenvalues not converged
     c_bands:  4 eigenvalues not converged
     c_bands:  2 eigenvalues not converged
     c_bands:  5 eigenvalues not converged
     ethr =  1.00E-05,  avg # of iterations = 21.0

[...]

     total energy              =   -3277.93404445 Ry
     estimated scf accuracy    <     239.59926033 Ry

     iteration #  2     ecut=    29.40 Ry     beta= 0.05
     Davidson diagonalization with overlap
     ethr =  1.00E-02,  avg # of iterations = 16.3

[...]

     iteration # 52     ecut=    29.40 Ry     beta= 0.05
     Davidson diagonalization with overlap
     c_bands:  2 eigenvalues not converged
     ethr =  9.38E-11,  avg # of iterations = 11.2

[...]

     total energy              =   -3295.80743585 Ry
     estimated scf accuracy    <       0.00000013 Ry

     iteration # 56     ecut=    29.40 Ry     beta= 0.05
     Davidson diagonalization with overlap
     ethr =  2.84E-11,  avg # of iterations =  7.7

     negative rho (up, down):  3.607E-02 0.000E+00

     Adding external electric field

     Computed dipole along edir(3) :
        Dipole                1.5114 Ry au,          3.8416 Debye
        Dipole field          0.0019 Ry au,

        Potential amp.       -0.1763 Ry
        Total length         46.3494 bohr

     End of self-consistent calculation

          k = 0.0000 0.0000 0.0000 ( 26871 PWs)   bands (ev):

   -57.7250 -57.6992 -57.6889 -57.6627 -57.6535 -57.6203 -57.6062 -57.5986
   -57.5708 -57.5584 -57.5083 -57.4778 -57.4614 -57.4551 -57.4471 -56.7468
   -56.7227 -56.7182 -34.1066 -34.1032 -34.0946 -34.0855 -34.0737 -34.0570
   -34.0565 -34.0422 -34.0291 -34.0176 -33.9877 -33.9696 -33.9499 -33.9438
   -33.9361 -33.9177 -33.9126 -33.9110 -33.8926 -33.8874 -33.8655 -33.8633
   -33.8428 -33.8332 -33.8290 -33.8231 -33.8122 -33.8102 -33.8051 -33.7956
   -33.7838 -33.7819 -33.7677 -33.7320 -33.7231 -33.7187 -33.7044 -33.7033
   -33.6956 -33.6946 -33.6834 -33.6749 -33.6681 -33.6621 -33.6396 -33.0621
   -33.0610 -33.0565 -33.0450 -33.0407 -32.9729 -32.9109 -32.9055 -32.7727
   -19.3028 -18.7610 -18.5256 -18.2268 -18.0163 -17.9738 -17.9409 -17.8195
   -17.7839 -17.7599 -17.6622 -17.6509 -17.5876 -17.5340 -17.5059 -17.4572
   -17.4386 -17.3787 -17.3647 -17.3564 -17.3510 -17.3409 -17.3307 -17.2650
   -17.2379 -17.2098 -17.1709 -17.1552 -17.1486 -17.1412 -17.1187 -16.8461
   -15.5376 -15.2131 -15.1550 -15.1538 -15.0825  -6.9865  -6.8220  -6.6493
    -6.3413  -5.8606  -5.7868  -5.6374  -5.5136  -5.2217  -5.1964  -5.1424
    -5.1158  -5.0866  -5.0220  -5.0019  -4.9890  -4.9335  -4.9166  -4.8438
    -4.8212  -4.7793  -4.7566  -4.7301  -4.6848  -4.6446  -4.6174  -4.6057
    -4.5758  -4.5674  -4.5108  -4.4874  -4.4580  -4.4523  -4.4358  -4.3269
    -4.2952  -4.2383  -4.1694  -4.0923  -4.0394  -4.0312  -3.9752  -3.9554
    -3.9029  -3.8633  -3.8266  -3.8172  -3.7809  -3.7425  -3.6436  -3.6107
    -3.5886  -3.5222  -3.5004  -3.4315  -3.4140  -3.3809  -3.3397  -3.3330
    -3.2961  -3.1985  -3.1646  -3.0839  -3.0281  -2.9740  -2.9347  -2.8902
    -2.8438  -2.8104  -2.7855  -2.7035  -2.6274  -2.5435  -2.4933  -2.4806
    -2.4687  -2.4181  -2.4112  -2.4087  -2.3518  -2.3257  -2.3150  -2.2775
    -2.2259  -2.2030  -2.1409  -2.0959  -2.0607  -1.9932  -1.9776  -1.8968
    -1.8881  -1.8268  -1.7836  -1.7442  -1.6325  -1.5974  -1.5653  -1.5627
    -1.4440  -1.4077  -1.1460  -1.0046  -0.7865  -0.7538  -0.5002  -0.4514
    -0.4486  -0.1856  -0.1822  -0.0540   1.3222   1.5108   1.6445   1.7001
     1.7049   1.7383   1.8045   1.8911   1.9162   1.9634   1.9957

[...]

          k = 0.0380-0.0280 0.0000 ( 26873 PWs)   bands (ev):

[...]

          k =-0.0760-0.0000 0.0000 ( 26902 PWs)   bands (ev):

[...]

          k =-0.0760-0.0559 0.0000 ( 26868 PWs)   bands (ev):

   -57.7214 -57.7069 -57.6847 -57.6616 -57.6534 -57.6210 -57.6075 -57.5983
   -57.5702 -57.5582 -57.5085 -57.4728 -57.4653 -57.4610 -57.4423 -56.7406
   -56.7352 -56.7118 -34.1939 -34.1566 -34.1544 -34.0943 -34.0602 -34.0526
   -34.0420 -34.0392 -34.0019 -33.9679 -33.9340 -33.9205 -33.9149 -33.9135
   -33.9024 -33.9004 -33.8805 -33.8732 -33.8688 -33.8685 -33.8647 -33.8591
   -33.8539 -33.8460 -33.8314 -33.8264 -33.8239 -33.8188 -33.8149 -33.7937
   -33.7929 -33.7705 -33.7638 -33.7563 -33.7506 -33.7320 -33.7264 -33.7206
   -33.7010 -33.7005 -33.6986 -33.6953 -33.6860 -33.6679 -33.6510 -33.1509
   -33.0618 -33.0566 -33.0342 -32.9544 -32.9484 -32.8867 -32.8722 -32.8669
   -19.2893 -18.7354 -18.2717 -18.1350 -17.9632 -17.9217 -17.8476 -17.8348
   -17.8230 -17.7935 -17.7017 -17.6782 -17.6517 -17.5690 -17.5500 -17.5003
   -17.4564 -17.4432 -17.4251 -17.4140 -17.4059 -17.3892 -17.3553 -17.3232
   -17.2902 -17.2386 -17.1766 -17.1579 -17.1094 -17.0947 -17.0640 -16.8798
   -15.5322 -15.2111 -15.2091 -15.0923 -15.0838  -6.9914  -6.8533  -6.6408
    -6.3230  -5.5170  -5.4540  -5.3705  -5.3560  -5.2382  -5.2106  -5.0145
    -5.0043  -4.9895  -4.9578  -4.9255  -4.8895  -4.8626  -4.8385  -4.8249
    -4.8113  -4.7897  -4.7639  -4.7522  -4.7354  -4.6913  -4.6447  -4.6386
    -4.6278  -4.6049  -4.5503  -4.5057  -4.4811  -4.4253  -4.4220  -4.3415
    -4.3181  -4.3004  -4.2264  -4.2177  -4.0967  -3.9483  -3.8872  -3.8672
    -3.8430  -3.7957  -3.7856  -3.7321  -3.7103  -3.6930  -3.5568  -3.4745
    -3.4508  -3.4159  -3.3847  -3.3617  -3.3260  -3.2986  -3.2767  -3.2509
    -3.2349  -3.1825  -3.1661  -3.1224  -3.0802  -2.9987  -2.9547  -2.8970
    -2.8736  -2.8556  -2.8371  -2.8335  -2.8128  -2.7800  -2.7509  -2.6956
    -2.6865  -2.6560  -2.5843  -2.5296  -2.5016  -2.4769  -2.4347  -2.4277
    -2.2729  -2.2536  -2.2204  -2.2083  -2.1348  -2.0916  -1.9995  -1.9732
    -1.9505  -1.8789  -1.8074  -1.7640  -1.7075  -1.5111  -1.5024  -1.3834
    -1.3466  -1.2977  -1.2722  -1.2305  -1.0693  -0.7343  -0.6627  -0.3795
    -0.3683  -0.3422  -0.1868  -0.1805   1.4294   1.4529   1.5381   1.5944
     1.6131   1.6509   1.6637   1.7028   1.7232   1.7798   1.9159

     the Fermi energy is     1.3731 ev

!    total energy              =   -3295.80749640 Ry
     estimated scf accuracy    <       0.00000007 Ry
     smearing contrib. (-TS)   =      -0.03571903 Ry
     internal energy E=F+TS    =   -3295.77177738 Ry

     The total energy is F=E-TS. E is the sum of the following terms:
     one-electron contribution =  -34705.87004607 Ry
     hartree contribution      =   17418.85719097 Ry
     xc contribution           =    -543.87192775 Ry
     ewald contribution        =   14535.11013159 Ry
     electric field correction =       0.00287388 Ry

     convergence has been achieved in  56 iterations

     Forces acting on atoms (cartesian axes, Ry/au):

     atom    1 type  1   force =    -0.00168710    0.00377214    0.05471682
     atom    2 type  1   force =     0.00024333   -0.00249925   -0.00841994
     atom    3 type  1   force =     0.00045275   -0.00350000    0.00035501
     atom    4 type  1   force =     0.00004515   -0.00002954    0.10676844
     atom    5 type  1   force =    -0.00020298    0.00066273    0.00659704
     atom    6 type  1   force =     0.00003008   -0.00444081    0.00376946
     atom    7 type  1   force =     0.06648173    0.00079985   -0.02966584
     atom    8 type  1   force =     0.00659632   -0.02712854    0.00195719
     atom    9 type  1   force =     0.00664409   -0.02258301    0.00508849
     atom   10 type  2   force =    -0.00011523   -0.00450633   -0.18345384
     atom   11 type  2   force =     0.00067469    0.02088007   -0.00412732
     atom   12 type  2   force =    -0.00178402    0.02768536   -0.00663430
     atom   13 type  1   force =    -0.06653963    0.00045466   -0.02981022
     atom   14 type  1   force =    -0.00433893   -0.02770610    0.00253708
     atom   15 type  1   force =    -0.00655007   -0.02336092    0.00502676
     atom   16 type  2   force =     0.00008534    0.00069013    0.06699808
     atom   17 type  2   force =    -0.00237969    0.03352523    0.00349877
     atom   18 type  2   force =     0.00130008    0.02451939   -0.00356488
     atom   19 type  1   force =    -0.00169738    0.00675119    0.05327028
     atom   20 type  1   force =     0.00023671   -0.00115145   -0.00662579
     atom   21 type  1   force =     0.00003474    0.00110307    0.10724673
     atom   22 type  1   force =    -0.00025185   -0.00198332    0.00722205
     atom   23 type  1   force =     0.00072683   -0.00581200    0.00420063
     atom   24 type  1   force =     0.06751724    0.00137499   -0.02907116
     atom   25 type  1   force =     0.00528780   -0.03016169    0.00245849
     atom   26 type  1   force =     0.00677109   -0.02604473   -0.00417727
     atom   27 type  2   force =     0.00011161   -0.00121258   -0.18674676
     atom   28 type  2   force =     0.00008133    0.02386432   -0.00245196
     atom   29 type  2   force =    -0.00112606    0.02214921    0.00085801
     atom   30 type  1   force =    -0.06762001    0.00086987   -0.02892274
     atom   31 type  1   force =    -0.00537914   -0.02962510    0.00279859
     atom   32 type  1   force =    -0.00424424   -0.02246618    0.00260600
     atom   33 type  2   force =    -0.00004841    0.00131862    0.07475089
     atom   34 type  2   force =     0.00092642    0.03692003    0.00406696
     atom   35 type  2   force =    -0.00216155    0.03476354    0.00501107
     atom   36 type  1   force =    -0.00186582    0.00288181    0.05589538
     atom   37 type  1   force =     0.00132569    0.00401876   -0.01134665
     atom   38 type  1   force =     0.00015251   -0.00407309    0.00420374
     atom   39 type  1   force =     0.00002184   -0.00064317    0.10725998
     atom   40 type  1   force =     0.00015701   -0.00142162    0.00715582
     atom   41 type  1   force =    -0.00025836   -0.00400182    0.00185371
     atom   42 type  1   force =     0.06783799   -0.00222365   -0.02970956
     atom   43 type  1   force =     0.00369662   -0.02636074    0.00153495
     atom   44 type  1   force =     0.01000735   -0.01799746    0.00267259
     atom   45 type  2   force =     0.00003463    0.00217411   -0.18331416
     atom   46 type  2   force =    -0.00023457    0.01478718    0.00207165
     atom   47 type  2   force =     0.00297642    0.02646811   -0.00878501
     atom   48 type  1   force =    -0.06790324   -0.00285175   -0.02986618
     atom   49 type  1   force =    -0.00376036   -0.02550437    0.00183661
     atom   50 type  1   force =    -0.00792340   -0.02367875    0.00525238
     atom   51 type  2   force =     0.00045078   -0.00350047    0.06840120
     atom   52 type  2   force =    -0.00011055    0.03119159    0.00595840
     atom   53 type  2   force =    -0.00211112    0.02596714   -0.00057336
     atom   54 type  3   force =     0.00071255   -0.00195327   -0.00088528
     atom   55 type  4   force =    -0.00073261    0.00038193   -0.00051194
     atom   56 type  4   force =     0.00028017    0.00088767    0.00127701
     atom   57 type  3   force =     0.01262866   -0.00220857   -0.00655430
     atom   58 type  4   force =    -0.01179992    0.00048404    0.00696435
     atom   59 type  4   force =     0.00093995    0.00031658   -0.00012211
     atom   60 type  4   force =    -0.00141668    0.00009015    0.00009567
     atom   61 type  4   force =    -0.00122660   -0.00112319    0.00110430

     Total force =     0.459955     Total SCF correction =     0.000726
  @ DRIVER MODE: Message from server: STATUS
  @ DRIVER MODE: Message from server: GETFORCE
  @ DRIVER MODE: Returning v,forces,stress,ensemble

     Writing output data file ./calc.save/
  @ DRIVER MODE: Message from server: EXIT
  @ DRIVE MODE: Exiting

     General routines

     Parallel routines

   This run was terminated on:   0:31: 1  19Oct2021

   JOB DONE.