     Program PWSCF v.6.7GPU starts on 16Sep2021 at  3:31: 7

     R & G space division:  proc/nbgrp/npool/nimage =      10
     Reading input from /storage/home/hcoda1/3/ntian30/research/carbon/CxH_vib/H2O_calc/ads_slab/CH2N2HH2O_a/out_0036/pw.inp
Warning: card &CELL ignored
Warning: card   CELL_DYNAMICS='IPI', ignored
Warning: card / ignored

     Current dimensions of program PWSCF are:
     Max number of different atomic species (ntypx) = 10
     Max number of k-points (npk) =  40000
     Max angular momentum in pseudopotentials (lmaxx) =  3
     Presently no symmetry can be used with electric field

     Message from routine cell_base_init:
     DEPRECATED: use true lattice parameter, not A to a.u. conversion factor

     IMPORTANT: XC functional enforced from input :
     Exchange-correlation= BEEF-VDW
                           (   1   4  43  14   2   0   0)
     Any further DFT definition will be discarded
     Please, verify this is what you really want

  @ DRIVER MODE: Connecting to
 qe_1139763_2852606.sched-torque.pace.gatech.eduo382aimz_scratch
  using UNIX socket
  @ DRIVER MODE: Message from server: STATUS
  @ DRIVER MODE: Message from server: INIT
  @ DRIVER MODE: Receiving replica           0          -1
  @ DRIVER MODE: Receiving encoded integer          25
  @ DRIVER MODE:  SCF:  T  FORCE:  T  STRESS:  F  VC:  F  ENSEMBLE:  F
  @ DRIVER MODE:  SCF:  T  FORCE:  T  STRESS:  F  VC:  F  ENSEMBLE:  F

     Using Slab Decomposition

     bravais-lattice index     =            0
     lattice parameter (alat)  =       1.8897  a.u.
     unit-cell volume          =    6658.9804 (a.u.)^3
     number of atoms/cell      =           56
     number of atomic types    =            5
     number of electrons       =       403.00
     number of Kohn-Sham states=          211
     kinetic-energy cutoff     =      29.3995  Ry
     charge density cutoff     =     293.9946  Ry
     scf convergence threshold =      7.3E-08
     mixing beta               =       0.0500
     number of iterations used =            8  plain     mixing
     Exchange-correlation= BEEF-VDW
                           (   1   4  43  14   2   0   0)

     celldm(1)=   1.889726  celldm(2)=   0.000000  celldm(3)=   0.000000
     celldm(4)=   0.000000  celldm(5)=   0.000000  celldm(6)=   0.000000

     crystal axes: (cart. coord. in units of alat)
               a(1) = (   6.579727   0.000000   0.000000 )
               a(2) = (  -0.000775   5.961596   0.000000 )
               a(3) = (   0.000000   0.000000  25.155947 )

     reciprocal axes: (cart. coord. in units 2 pi/alat)
               b(1) = (  0.151982  0.000020  0.000000 )
               b(2) = (  0.000000  0.167740  0.000000 )
               b(3) = (  0.000000  0.000000  0.039752 )

     PseudoPot. # 1 for Ti read from file:
     /storage/coda1/p-amedford6/0/shared/rich_project_chbe-medford/medford-share/data/pseudos_module/espresso/nninc/pbe/van/Ti.UPF
     MD5 check sum: 8e4df49b7f0d34bbd5052bf3f5ea0213
     Pseudo is Ultrasoft, Zval = 12.0
     Generated by new atomic code, or converted to UPF format
     Using radial grid of  851 points,  6 beta functions with:
                l(1) =   0
                l(2) =   0
                l(3) =   1
                l(4) =   1
                l(5) =   2
                l(6) =   2
     Q(r) pseudized with  8 coefficients,  rinner =    1.000   1.000   1.000
                                                       1.000   1.000

     PseudoPot. # 2 for O  read from file:
     /storage/coda1/p-amedford6/0/shared/rich_project_chbe-medford/medford-share/data/pseudos_module/espresso/nninc/pbe/van/O.UPF
     MD5 check sum: 78c19812648e8988a0fe644b0f25305e
     Pseudo is Ultrasoft, Zval =  6.0
     Generated by new atomic code, or converted to UPF format
     Using radial grid of  737 points,  4 beta functions with:
                l(1) =   0
                l(2) =   0
                l(3) =   1
                l(4) =   1
     Q(r) pseudized with  8 coefficients,  rinner =    0.800   0.800   0.800

     PseudoPot. # 3 for N  read from file:
     /storage/coda1/p-amedford6/0/shared/rich_project_chbe-medford/medford-share/data/pseudos_module/espresso/nninc/pbe/van/N.UPF
     MD5 check sum: 90d10febe142ad51ac9d5be1deb811c4
     Pseudo is Ultrasoft, Zval =  5.0
     Generated by new atomic code, or converted to UPF format
     Using radial grid of  729 points,  4 beta functions with:
                l(1) =   0
                l(2) =   0
                l(3) =   1
                l(4) =   1
     Q(r) pseudized with  8 coefficients,  rinner =    0.800   0.800   0.800

     PseudoPot. # 4 for C  read from file:
     /storage/coda1/p-amedford6/0/shared/rich_project_chbe-medford/medford-share/data/pseudos_module/espresso/nninc/pbe/van/C.UPF
     MD5 check sum: 1a69bf6b8db32088f5b2163dbdb77a27
     Pseudo is Ultrasoft, Zval =  4.0
     Generated by new atomic code, or converted to UPF format
     Using radial grid of  721 points,  4 beta functions with:
                l(1) =   0
                l(2) =   0
                l(3) =   1
                l(4) =   1
     Q(r) pseudized with  8 coefficients,  rinner =    0.800   0.800   0.800

     PseudoPot. # 5 for H  read from file:
     /storage/coda1/p-amedford6/0/shared/rich_project_chbe-medford/medford-share/data/pseudos_module/espresso/nninc/pbe/van/H.UPF
     MD5 check sum: b5ee9d7bfd3a09ee7748110bda690ff7
     Pseudo is Ultrasoft, Zval =  1.0
     Generated by new atomic code, or converted to UPF format
     Using radial grid of  615 points,  1 beta functions with:
                l(1) =   0
     Q(r) pseudized with  8 coefficients,  rinner =    0.800

     atomic species   valence    mass     pseudopotential
        Ti1           12.00    47.86700     Ti( 1.00)
        O1             6.00    15.99900     O ( 1.00)
        N1             5.00    14.00700     N ( 1.00)
        C1             4.00    12.01100     C ( 1.00)
        H1             1.00     1.00800     H ( 1.00)

     No symmetry found

   Cartesian axes

     site n.     atom                  positions (alat units)
         1           Ti1 tau(   1) = (   0.0004258   2.9801865   6.0000000  )
         2           Ti1 tau(   2) = (   3.2906075   1.4906267   6.0002472  )
         3           O1  tau(   3) = (   0.0006271   0.0005054   7.9858123  )
         4           O1  tau(   4) = (   3.2906025   0.0005020   7.3038282  )
         5           O1  tau(   5) = (   4.5942328   1.4918067   9.2879030  )
         6           O1  tau(   6) = (   1.9868534   1.4903216   9.2879459  )
         7           Ti1 tau(   7) = (   3.2907910   2.8959150   9.1758416  )
         8           Ti1 tau(   8) = (   0.0015273   1.4827037   9.2680791  )
         9           O1  tau(   9) = (   3.2932810   5.9556063  11.3276769  )
        10           O1  tau(  10) = (   0.0116148   5.9584955  10.6183126  )
        11           O1  tau(  11) = (   1.2966828   1.5020869  12.6141357  )
        12           O1  tau(  12) = (   5.2995835   1.4923495  12.6341875  )
        13           Ti1 tau(  13) = (   6.5470072   2.9473109  12.5798724  )
        14           Ti1 tau(  14) = (   3.2302912   1.4573256  12.5082679  )
        15           O1  tau(  15) = (   0.0525813   0.0137714  14.6435187  )
        16           O1  tau(  16) = (   3.2708393   0.0302713  13.9228694  )
        17           O1  tau(  17) = (   4.5627544   1.5900677  16.0055000  )
        18           O1  tau(  18) = (   2.0437599   1.5040777  16.0764052  )
        19           Ti1 tau(  19) = (   3.3063064   2.9825517  15.6619520  )
        20           Ti1 tau(  20) = (   6.5607061   1.3194196  15.9785141  )
        21           O1  tau(  21) = (   3.2904802   0.0005063   4.7018136  )
        22           O1  tau(  22) = (   6.3855286   5.9589440  17.1610702  )
        23           O1  tau(  23) = (   1.3043587   1.4918075   6.0039043  )
        24           O1  tau(  24) = (   5.2767064   1.4903225   6.0039473  )
        25           Ti1 tau(  25) = (   0.0000382   5.9609847   6.0000000  )
        26           Ti1 tau(  26) = (   3.2902200   4.4714249   6.0002472  )
        27           O1  tau(  27) = (   0.0002396   2.9813036   7.9858123  )
        28           O1  tau(  28) = (   3.2902150   2.9813002   7.3038282  )
        29           O1  tau(  29) = (   4.5938453   4.4726049   9.2879030  )
        30           O1  tau(  30) = (   1.9864658   4.4711199   9.2879459  )
        31           Ti1 tau(  31) = (   3.2891106   5.8743827   9.1763621  )
        32           Ti1 tau(  32) = (   0.0006254   4.4649316   9.2693709  )
        33           O1  tau(  33) = (   3.2946552   2.9814125  11.3288906  )
        34           O1  tau(  34) = (   0.0092240   2.9805883  10.6323155  )
        35           O1  tau(  35) = (   1.2978438   4.4726441  12.6233041  )
        36           O1  tau(  36) = (   5.2969606   4.4732664  12.6435870  )
        37           Ti1 tau(  37) = (   6.5415350   5.9305516  12.5357152  )
        38           Ti1 tau(  38) = (   3.2303862   4.4559975  12.4807118  )
        39           O1  tau(  39) = (   0.0164246   2.9899045  14.7829194  )
        40           O1  tau(  40) = (   3.2688228   2.9752494  13.8698570  )
        41           O1  tau(  41) = (   4.5210259   4.4573316  15.9082071  )
        42           O1  tau(  42) = (   2.0412773   4.4882057  16.0214637  )
        43           Ti1 tau(  43) = (   3.2233344   5.9452837  15.7820064  )
        44           Ti1 tau(  44) = (   6.5355943   4.4735413  15.8975681  )
        45           O1  tau(  45) = (   3.2900926   2.9813045   4.7018136  )
        46           O1  tau(  46) = (   1.3039711   4.4726057   6.0039043  )
        47           O1  tau(  47) = (   5.2763189   4.4711207   6.0039473  )
        48           N1  tau(  48) = (   0.2167872   2.3688911  18.0161765  )
        49           C1  tau(  49) = (   0.4968348   1.8934616  19.1878903  )
        50           H1  tau(  50) = (   0.5617972   2.5522217  20.0513624  )
        51           H1  tau(  51) = (   0.6371857   0.8299532  19.2874115  )
        52           N1  tau(  52) = (   6.5661014   3.6386027  17.7750644  )
        53           H1  tau(  53) = (   0.0713089   4.2532688  18.5984219  )
        54           O1  tau(  54) = (   3.6608114   5.9026821  18.0962282  )
        55           H1  tau(  55) = (   4.6425638   0.0038819  18.0438526  )
        56           H1  tau(  56) = (   3.3558581   0.7595698  18.5153002  )

     number of k points=    10  Fermi-Dirac smearing, width (Ry)=  0.0073
                       cart. coord. in units 2pi/alat
        k(    1) = (   0.0000000   0.0000000   0.0000000), wk =   0.1250000
        k(    2) = (   0.0000000   0.0419351   0.0000000), wk =   0.2500000
        k(    3) = (   0.0000000  -0.0838702   0.0000000), wk =   0.1250000
        k(    4) = (   0.0379955   0.0000049   0.0000000), wk =   0.2500000
        k(    5) = (   0.0379955   0.0419400   0.0000000), wk =   0.2500000
        k(    6) = (   0.0379955  -0.0838652   0.0000000), wk =   0.2500000
        k(    7) = (   0.0379955  -0.0419301   0.0000000), wk =   0.2500000
        k(    8) = (  -0.0759910  -0.0000099   0.0000000), wk =   0.1250000
        k(    9) = (  -0.0759910   0.0419252   0.0000000), wk =   0.2500000
        k(   10) = (  -0.0759910  -0.0838800   0.0000000), wk =   0.1250000

     Initial potential from superposition of free atoms

     starting charge  386.99914, renormalised to  403.00000

     negative rho (up, down):  1.554E-02 0.000E+00

     %%%%%%%%%%%%%%%%%%%%%%%%%%%%%%%%%%%%%%%%%%%%%%%%%%%%%%%%%%%%%%%%%%%%%%%%
     %                                                                      %
     % You are using vdW-DF, which was implemented by the Thonhauser group. %
     % Please cite the following two papers that made this development      %
     % possible and the two reviews that describe the various versions:     %
     %                                                                      %
     %   T. Thonhauser et al., PRL 115, 136402 (2015).                      %
     %   T. Thonhauser et al., PRB 76, 125112 (2007).                       %
     %   K. Berland et al., Rep. Prog. Phys. 78, 066501 (2015).             %
     %   D.C. Langreth et al., J. Phys.: Condens. Matter 21, 084203 (2009). %
     %                                                                      %
     %                                                                      %
     % If you are calculating the stress with vdW-DF, please also cite:     %
     %                                                                      %
     %   R. Sabatini et al., J. Phys.: Condens. Matter 24, 424209 (2012).   %
     %                                                                      %
     %%%%%%%%%%%%%%%%%%%%%%%%%%%%%%%%%%%%%%%%%%%%%%%%%%%%%%%%%%%%%%%%%%%%%%%%

     Adding external electric field

     Computed dipole along edir(3) :
        Dipole              -12.7960 Ry au,        -32.5241 Debye
        Dipole field         -0.0241 Ry au,

        Potential amp.        2.2385 Ry
        Total length         46.3494 bohr

     Starting wfcs are  305 atomic wfcs
  @ DRIVER MODE: Message from server: STATUS
  @ DRIVER MODE: Message from server: POSDATA
  @ DRIVER MODE: Reading and sharing cell
  @ DRIVER MODE: Reading and sharing positions
  @ DRIVER MODE: Received positions

     Self-consistent Calculation

     iteration #  1     ecut=    29.40 Ry     beta= 0.05
     Davidson diagonalization with overlap
     c_bands:  3 eigenvalues not converged
     c_bands:  3 eigenvalues not converged
     c_bands:  4 eigenvalues not converged
     c_bands:  5 eigenvalues not converged
     c_bands:  1 eigenvalues not converged
     c_bands:  1 eigenvalues not converged
     c_bands:  4 eigenvalues not converged
     c_bands:  3 eigenvalues not converged
     ethr =  1.00E-05,  avg # of iterations = 27.5

[...]

     total energy              =   -2369.07766360 Ry
     estimated scf accuracy    <    6884.49839821 Ry

     iteration #  2     ecut=    29.40 Ry     beta= 0.05
     Davidson diagonalization with overlap
     ethr =  1.00E-02,  avg # of iterations = 25.8

[...]

     iteration # 76     ecut=    29.40 Ry     beta= 0.05
     Davidson diagonalization with overlap
     c_bands:  1 eigenvalues not converged
     ethr =  2.02E-08,  avg # of iterations = 15.2

[...]

     total energy              =   -2973.98326455 Ry
     estimated scf accuracy    <       0.00000012 Ry

     iteration # 93     ecut=    29.40 Ry     beta= 0.05
     Davidson diagonalization with overlap
     ethr =  1.94E-11,  avg # of iterations = 10.6

     negative rho (up, down):  1.541E-02 0.000E+00

     Adding external electric field

     Computed dipole along edir(3) :
        Dipole                0.9246 Ry au,          2.3500 Debye
        Dipole field          0.0017 Ry au,

        Potential amp.       -0.1617 Ry
        Total length         46.3494 bohr

     End of self-consistent calculation

          k = 0.0000 0.0000 0.0000 ( 18029 PWs)   bands (ev):

   -55.6135 -55.5855 -55.5795 -55.5474 -55.4949 -55.4836 -55.4533 -55.4310
   -55.3970 -55.3926 -55.3585 -55.3355 -55.0418 -54.9919 -54.5933 -54.5592
   -32.1295 -32.0976 -31.9858 -31.9308 -31.9174 -31.9054 -31.8838 -31.8710
   -31.8580 -31.8171 -31.7660 -31.7620 -31.7337 -31.7331 -31.7295 -31.7195
   -31.7149 -31.7116 -31.7085 -31.7063 -31.6757 -31.6709 -31.6621 -31.6344
   -31.6249 -31.6240 -31.6167 -31.6137 -31.5984 -31.5900 -31.5728 -31.5597
   -31.5472 -31.5410 -31.5359 -31.5060 -31.5035 -31.3054 -31.2660 -31.2430
   -31.1906 -31.1474 -31.0001 -30.9122 -30.8898 -30.8172 -30.7307 -30.6193
   -18.6656 -17.9013 -16.3333 -16.0910 -15.8514 -15.7743 -15.7419 -15.5283
   -15.4253 -15.3697 -15.2344 -15.1856 -15.1720 -15.1519 -15.1268 -15.0924
   -15.0664 -15.0529 -15.0459 -15.0295 -15.0040 -14.9773 -14.9569 -14.9532
   -14.9121 -14.8433 -14.7739 -14.7483 -14.6864 -14.6742 -14.2340 -13.0946
   -12.9781 -12.0596  -7.8133  -6.4496  -5.2908  -4.4972  -3.7071  -3.5691
    -3.5215  -3.4720  -3.4634  -3.2740  -3.1892  -3.0586  -2.8978  -2.8502
    -2.7800  -2.7419  -2.7030  -2.6404  -2.5996  -2.4935  -2.4557  -2.4262
    -2.4109  -2.3658  -2.3605  -2.3566  -2.2951  -2.2584  -2.1798  -2.1535
    -2.0741  -2.0044  -1.9759  -1.9496  -1.9277  -1.9103  -1.9068  -1.8579
    -1.8567  -1.8548  -1.7832  -1.7357  -1.6606  -1.6149  -1.5586  -1.4182
    -1.3769  -1.2671  -1.2212  -1.0998  -1.0959  -1.0733  -1.0488  -1.0099
    -1.0019  -0.8783  -0.7931  -0.7440  -0.7083  -0.6460  -0.5426  -0.5220
    -0.4326  -0.4277  -0.3738  -0.3605  -0.3449  -0.3158  -0.2371  -0.1241
    -0.1061  -0.0456   0.0036   0.0664   0.1102   0.1349   0.1727   0.2226
     0.2463   0.2879   0.3139   0.3249   0.3581   0.3958   0.4181   0.4962
     0.5687   0.6187   0.6676   0.7082   0.7130   0.8901   1.0023   1.0410
     1.1721   1.1932   1.3625   1.4301   1.5003   1.6220   2.0003   2.0460
     2.2192   3.4942   3.6079   3.6323   3.6423   3.7456   3.8790   3.9619
     4.0025   4.0270   4.0659

[...]

          k = 0.0380-0.0419 0.0000 ( 17876 PWs)   bands (ev):

[...]

          k =-0.0760-0.0000 0.0000 ( 17886 PWs)   bands (ev):

[...]

          k =-0.0760-0.0839 0.0000 ( 17948 PWs)   bands (ev):

   -55.5966 -55.5963 -55.5728 -55.5598 -55.4859 -55.4815 -55.4623 -55.4143
   -55.4133 -55.3782 -55.3731 -55.3375 -55.0348 -54.9988 -54.5763 -54.5761
   -31.9458 -31.9206 -31.9130 -31.9127 -31.8910 -31.8906 -31.8258 -31.8210
   -31.8127 -31.8078 -31.7891 -31.7390 -31.7352 -31.7320 -31.7228 -31.7213
   -31.7192 -31.7165 -31.7157 -31.7140 -31.7124 -31.6999 -31.6907 -31.6760
   -31.6734 -31.6687 -31.6473 -31.6184 -31.6174 -31.6078 -31.5990 -31.5949
   -31.5917 -31.5907 -31.5892 -31.5445 -31.5189 -31.2942 -31.2688 -31.2630
   -31.2470 -31.1916 -30.9026 -30.9024 -30.8130 -30.8128 -30.7740 -30.7739
   -18.6636 -17.8886 -15.7742 -15.6812 -15.5942 -15.5521 -15.4734 -15.4551
   -15.4010 -15.3361 -15.2977 -15.2792 -15.2377 -15.2090 -15.1646 -15.1522
   -15.1445 -15.1209 -15.0968 -15.0726 -15.0613 -15.0553 -15.0505 -15.0372
   -15.0036 -14.9719 -14.9349 -14.9311 -14.9027 -14.6601 -14.5826 -13.0800
   -13.0798 -12.0133  -7.7347  -6.4436  -5.3567  -4.5673  -3.1864  -3.0621
    -2.8915  -2.8515  -2.8038  -2.7503  -2.7425  -2.6882  -2.5638  -2.5547
    -2.5239  -2.4595  -2.4360  -2.4330  -2.4243  -2.4204  -2.3994  -2.3627
    -2.3619  -2.3073  -2.2980  -2.2868  -2.2815  -2.2626  -2.2459  -2.2429
    -2.2192  -2.1730  -2.1582  -2.1426  -2.0357  -1.9341  -1.8775  -1.8396
    -1.8089  -1.7622  -1.7573  -1.7370  -1.7215  -1.6833  -1.6673  -1.6113
    -1.4963  -1.4179  -1.3318  -1.3015  -1.2724  -1.2020  -1.1570  -1.0928
    -1.0524  -1.0468  -0.9632  -0.8486  -0.8356  -0.7985  -0.7705  -0.6942
    -0.6655  -0.6329  -0.5724  -0.5656  -0.5382  -0.5099  -0.4753  -0.3820
    -0.3643  -0.3579  -0.3283  -0.3193  -0.3080  -0.2676  -0.1938  -0.0952
    -0.0234  -0.0168   0.0889   0.2171   0.3132   0.4450   0.4733   0.5215
     0.5744   0.6074   0.6920   0.6997   0.7262   0.7896   0.8328   0.9005
     0.9248   0.9399   1.0246   1.0321   1.7941   1.7953   1.8660   1.8661
     2.1630   3.8587   3.8870   3.9077   3.9524   4.0298   4.0538   4.0546
     4.0606   4.1768   4.1848

     the Fermi energy is     3.5131 ev

!    total energy              =   -2973.98326683 Ry
     estimated scf accuracy    <       0.00000002 Ry
     smearing contrib. (-TS)   =      -0.02040267 Ry
     internal energy E=F+TS    =   -2973.96286416 Ry

     The total energy is F=E-TS. E is the sum of the following terms:
     one-electron contribution =  -24203.68579537 Ry
     hartree contribution      =   12196.47028893 Ry
     xc contribution           =    -494.25369364 Ry
     ewald contribution        =    9527.50472276 Ry
     electric field correction =       0.00161315 Ry

     convergence has been achieved in  93 iterations

     Forces acting on atoms (cartesian axes, Ry/au):

     atom    1 type  1   force =    -0.00006402   -0.00019201    0.09552700
     atom    2 type  1   force =     0.00002334   -0.00036327   -0.17555775
     atom    3 type  2   force =     0.00009424   -0.00012757   -0.02315765
     atom    4 type  2   force =     0.00000863   -0.00138980    0.05290884
     atom    5 type  2   force =    -0.01000366   -0.00075503    0.00325205
     atom    6 type  2   force =     0.01153479   -0.00009725    0.00282928
     atom    7 type  1   force =     0.00046427    0.00027167   -0.00663495
     atom    8 type  1   force =     0.00028822    0.00537267    0.01757658
     atom    9 type  2   force =    -0.00014866   -0.00015551   -0.00039335
     atom   10 type  2   force =    -0.00346387    0.00074665   -0.01264398
     atom   11 type  2   force =    -0.00080902   -0.00032787    0.00009827
     atom   12 type  2   force =     0.00032258   -0.00017181    0.00010451
     atom   13 type  1   force =    -0.00026959    0.00039552   -0.00023883
     atom   14 type  1   force =     0.00021938    0.00003081    0.00066636
     atom   15 type  2   force =    -0.00013220   -0.00001141   -0.00036285
     atom   16 type  2   force =    -0.00003544   -0.00022221   -0.00008495
     atom   17 type  2   force =     0.00051296   -0.00012687   -0.00007334
     atom   18 type  2   force =    -0.00024218   -0.00038011   -0.00004596
     atom   19 type  1   force =    -0.00012027   -0.00011362    0.00028193
     atom   20 type  1   force =     0.00049896   -0.00019281   -0.00039613
     atom   21 type  2   force =     0.00007054    0.00003602    0.10317472
     atom   22 type  2   force =     0.00003036    0.00012708   -0.00019729
     atom   23 type  2   force =    -0.07160446   -0.00013271   -0.02753669
     atom   24 type  2   force =     0.07153235    0.00036778   -0.02757733
     atom   25 type  1   force =     0.00019124   -0.00009220    0.09519668
     atom   26 type  1   force =     0.00008436   -0.00040379   -0.17573153
     atom   27 type  2   force =     0.00011134   -0.00023903   -0.02207767
     atom   28 type  2   force =     0.00002859   -0.00099117    0.05231035
     atom   29 type  2   force =    -0.01015262    0.00036938    0.00285784
     atom   30 type  2   force =     0.01155360    0.00074433    0.00248113
     atom   31 type  1   force =     0.00027951    0.00392912   -0.01131758
     atom   32 type  1   force =     0.00045864   -0.00672764    0.01786401
     atom   33 type  2   force =    -0.00007982    0.00005130   -0.00019682
     atom   34 type  2   force =    -0.00395464    0.00073813   -0.01212385
     atom   35 type  2   force =    -0.00021144    0.00008218   -0.00016809
     atom   36 type  2   force =    -0.00000875    0.00003249   -0.00007569
     atom   37 type  1   force =    -0.00005147   -0.00042250    0.00034557
     atom   38 type  1   force =     0.00006393    0.00001745    0.00040742
     atom   39 type  2   force =     0.00035930   -0.00032778    0.00027703
     atom   40 type  2   force =    -0.00050377    0.00026911   -0.00010010
     atom   41 type  2   force =     0.00009707    0.00008410   -0.00016981
     atom   42 type  2   force =     0.00033072    0.00018950    0.00021059
     atom   43 type  1   force =    -0.00013980   -0.00034096    0.00000596
     atom   44 type  1   force =    -0.00007798    0.00016596    0.00036516
     atom   45 type  2   force =     0.00007327   -0.00000222    0.10313467
     atom   46 type  2   force =    -0.07160471   -0.00004033   -0.02750730
     atom   47 type  2   force =     0.07153634    0.00035054   -0.02759796
     atom   48 type  3   force =     0.00010015    0.00013631   -0.00060355
     atom   49 type  4   force =     0.00081101   -0.00039626    0.00015675
     atom   50 type  5   force =     0.00025582   -0.00016210    0.00037610
     atom   51 type  5   force =     0.00048588   -0.00026505    0.00007102
     atom   52 type  3   force =     0.00092733    0.00592608    0.01000779
     atom   53 type  5   force =    -0.00052096   -0.00552757   -0.01000442
     atom   54 type  2   force =    -0.00059594   -0.00130836   -0.00063986
     atom   55 type  5   force =     0.00175138   -0.00000686    0.00016471
     atom   56 type  5   force =    -0.00030481    0.00157950    0.00056294

     Total force =     0.365065     Total SCF correction =     0.000285
  @ DRIVER MODE: Message from server: STATUS
  @ DRIVER MODE: Message from server: GETFORCE
  @ DRIVER MODE: Returning v,forces,stress,ensemble

     Writing output data file ./calc.save/
  @ DRIVER MODE: Message from server: EXIT
  @ DRIVE MODE: Exiting

     General routines

     Parallel routines

   This run was terminated on:   3:56:25  16Sep2021

   JOB DONE.