     Program PWSCF v.6.7GPU starts on 17Jul2021 at  1: 9:41

     R & G space division:  proc/nbgrp/npool/nimage =      16
     Reading input from /storage/home/hcoda1/3/ntian30/research/carbon/15Jul_vib/ads_slab/CH3NH2_a/out_0015/pw.inp
Warning: card &CELL ignored
Warning: card   CELL_DYNAMICS='IPI', ignored
Warning: card / ignored

     Current dimensions of program PWSCF are:
     Max number of different atomic species (ntypx) = 10
     Max number of k-points (npk) =  40000
     Max angular momentum in pseudopotentials (lmaxx) =  3
     Presently no symmetry can be used with electric field

     Message from routine cell_base_init:
     DEPRECATED: use true lattice parameter, not A to a.u. conversion factor

     IMPORTANT: XC functional enforced from input :
     Exchange-correlation= BEEF-VDW
                           (   1   4  43  14   2   0   0)
     Any further DFT definition will be discarded
     Please, verify this is what you really want

  @ DRIVER MODE: Connecting to
 qe_1139763_2351647.sched-torque.pace.gatech.edufbboj9og_scratch
  using UNIX socket
  @ DRIVER MODE: Message from server: STATUS
  @ DRIVER MODE: Message from server: INIT
  @ DRIVER MODE: Receiving replica           0          -1
  @ DRIVER MODE: Receiving encoded integer          25
  @ DRIVER MODE:  SCF:  T  FORCE:  T  STRESS:  F  VC:  F  ENSEMBLE:  F
  @ DRIVER MODE:  SCF:  T  FORCE:  T  STRESS:  F  VC:  F  ENSEMBLE:  F

     Using Slab Decomposition

     bravais-lattice index     =            0
     lattice parameter (alat)  =       1.8897  a.u.
     unit-cell volume          =    6658.9804 (a.u.)^3
     number of atoms/cell      =           54
     number of atomic types    =            5
     number of electrons       =       392.00
     number of Kohn-Sham states=          206
     kinetic-energy cutoff     =      29.3995  Ry
     charge density cutoff     =     293.9946  Ry
     scf convergence threshold =      7.3E-08
     mixing beta               =       0.0500
     number of iterations used =            8  plain     mixing
     Exchange-correlation= BEEF-VDW
                           (   1   4  43  14   2   0   0)

     celldm(1)=   1.889726  celldm(2)=   0.000000  celldm(3)=   0.000000
     celldm(4)=   0.000000  celldm(5)=   0.000000  celldm(6)=   0.000000

     crystal axes: (cart. coord. in units of alat)
               a(1) = (   6.579727   0.000000   0.000000 )
               a(2) = (  -0.000775   5.961596   0.000000 )
               a(3) = (   0.000000   0.000000  25.155947 )

     reciprocal axes: (cart. coord. in units 2 pi/alat)
               b(1) = (  0.151982  0.000020  0.000000 )
               b(2) = (  0.000000  0.167740  0.000000 )
               b(3) = (  0.000000  0.000000  0.039752 )

     PseudoPot. # 1 for Ti read from file:
     /storage/coda1/p-amedford6/0/shared/rich_project_chbe-medford/medford-share/data/pseudos_module/espresso/nninc/pbe/van/Ti.UPF
     MD5 check sum: 8e4df49b7f0d34bbd5052bf3f5ea0213
     Pseudo is Ultrasoft, Zval = 12.0
     Generated by new atomic code, or converted to UPF format
     Using radial grid of  851 points,  6 beta functions with:
                l(1) =   0
                l(2) =   0
                l(3) =   1
                l(4) =   1
                l(5) =   2
                l(6) =   2
     Q(r) pseudized with  8 coefficients,  rinner =    1.000   1.000   1.000
                                                       1.000   1.000

     PseudoPot. # 2 for O  read from file:
     /storage/coda1/p-amedford6/0/shared/rich_project_chbe-medford/medford-share/data/pseudos_module/espresso/nninc/pbe/van/O.UPF
     MD5 check sum: 78c19812648e8988a0fe644b0f25305e
     Pseudo is Ultrasoft, Zval =  6.0
     Generated by new atomic code, or converted to UPF format
     Using radial grid of  737 points,  4 beta functions with:
                l(1) =   0
                l(2) =   0
                l(3) =   1
                l(4) =   1
     Q(r) pseudized with  8 coefficients,  rinner =    0.800   0.800   0.800

     PseudoPot. # 3 for H  read from file:
     /storage/coda1/p-amedford6/0/shared/rich_project_chbe-medford/medford-share/data/pseudos_module/espresso/nninc/pbe/van/H.UPF
     MD5 check sum: b5ee9d7bfd3a09ee7748110bda690ff7
     Pseudo is Ultrasoft, Zval =  1.0
     Generated by new atomic code, or converted to UPF format
     Using radial grid of  615 points,  1 beta functions with:
                l(1) =   0
     Q(r) pseudized with  8 coefficients,  rinner =    0.800

     PseudoPot. # 4 for N  read from file:
     /storage/coda1/p-amedford6/0/shared/rich_project_chbe-medford/medford-share/data/pseudos_module/espresso/nninc/pbe/van/N.UPF
     MD5 check sum: 90d10febe142ad51ac9d5be1deb811c4
     Pseudo is Ultrasoft, Zval =  5.0
     Generated by new atomic code, or converted to UPF format
     Using radial grid of  729 points,  4 beta functions with:
                l(1) =   0
                l(2) =   0
                l(3) =   1
                l(4) =   1
     Q(r) pseudized with  8 coefficients,  rinner =    0.800   0.800   0.800

     PseudoPot. # 5 for C  read from file:
     /storage/coda1/p-amedford6/0/shared/rich_project_chbe-medford/medford-share/data/pseudos_module/espresso/nninc/pbe/van/C.UPF
     MD5 check sum: 1a69bf6b8db32088f5b2163dbdb77a27
     Pseudo is Ultrasoft, Zval =  4.0
     Generated by new atomic code, or converted to UPF format
     Using radial grid of  721 points,  4 beta functions with:
                l(1) =   0
                l(2) =   0
                l(3) =   1
                l(4) =   1
     Q(r) pseudized with  8 coefficients,  rinner =    0.800   0.800   0.800

     atomic species   valence    mass     pseudopotential
        Ti1           12.00    47.86700     Ti( 1.00)
        O1             6.00    15.99900     O ( 1.00)
        H1             1.00     1.00800     H ( 1.00)
        N1             5.00    14.00700     N ( 1.00)
        C1             4.00    12.01100     C ( 1.00)

     Starting magnetic structure
     atomic species   magnetization
        Ti1          0.000
        O1           0.000
        H1           0.000
        N1           0.000
        C1           0.025

     No symmetry found

   Cartesian axes

     site n.     atom                  positions (alat units)
         1           Ti1 tau(   1) = (   0.0004258   2.9801865   6.0000000  )
         2           Ti1 tau(   2) = (   3.2906075   1.4906267   6.0002472  )
         3           O1  tau(   3) = (   0.0006271   0.0005054   7.9858123  )
         4           O1  tau(   4) = (   3.2906025   0.0005020   7.3038282  )
         5           O1  tau(   5) = (   4.5942328   1.4918067   9.2879030  )
         6           O1  tau(   6) = (   1.9868534   1.4903216   9.2879459  )
         7           Ti1 tau(   7) = (   3.2907910   2.8959150   9.1758416  )
         8           Ti1 tau(   8) = (   0.0015273   1.4827037   9.2680791  )
         9           O1  tau(   9) = (   3.2764298   0.0032354  11.3770789  )
        10           O1  tau(  10) = (   0.0116148   5.9584955  10.6183126  )
        11           O1  tau(  11) = (   1.2747638   1.4931710  12.6971893  )
        12           O1  tau(  12) = (   5.2817712   1.4903522  12.6806618  )
        13           Ti1 tau(  13) = (   6.5676529   2.9732189  12.5062122  )
        14           Ti1 tau(  14) = (   3.2766800   1.4809802  12.5336434  )
        15           O1  tau(  15) = (   6.5470194   5.8867849  14.7036171  )
        16           O1  tau(  16) = (   3.2776651   5.9556151  14.0032320  )
        17           O1  tau(  17) = (   4.5091997   1.5331545  16.1660716  )
        18           O1  tau(  18) = (   1.9944719   1.5276542  16.1393230  )
        19           Ti1 tau(  19) = (   3.2573122   3.0077756  15.7593658  )
        20           Ti1 tau(  20) = (   6.5589466   1.3143649  15.8680718  )
        21           O1  tau(  21) = (   3.2904802   0.0005063   4.7018136  )
        22           O1  tau(  22) = (   6.5386106   0.1512346  17.2501133  )
        23           O1  tau(  23) = (   1.3043587   1.4918075   6.0039043  )
        24           O1  tau(  24) = (   5.2767064   1.4903225   6.0039473  )
        25           Ti1 tau(  25) = (   0.0000382   5.9609847   6.0000000  )
        26           Ti1 tau(  26) = (   3.2902200   4.4714249   6.0002472  )
        27           O1  tau(  27) = (   0.0002396   2.9813036   7.9858123  )
        28           O1  tau(  28) = (   3.2902150   2.9813002   7.3038282  )
        29           O1  tau(  29) = (   4.5938453   4.4726049   9.2879030  )
        30           O1  tau(  30) = (   1.9864658   4.4711199   9.2879459  )
        31           Ti1 tau(  31) = (   3.2891106   5.8743827   9.1763621  )
        32           Ti1 tau(  32) = (   0.0006254   4.4649316   9.2693709  )
        33           O1  tau(  33) = (   3.2800745   2.9703478  11.3709363  )
        34           O1  tau(  34) = (   0.0092240   2.9805883  10.6323155  )
        35           O1  tau(  35) = (   1.2777299   4.4606407  12.6608526  )
        36           O1  tau(  36) = (   5.2778393   4.4632610  12.6460003  )
        37           Ti1 tau(  37) = (   6.5690533   5.9429793  12.5031582  )
        38           Ti1 tau(  38) = (   3.2786254   4.4589551  12.5214668  )
        39           O1  tau(  39) = (   6.5354733   3.0384833  14.9766919  )
        40           O1  tau(  40) = (   3.2791638   3.0036098  13.9700814  )
        41           O1  tau(  41) = (   4.4983502   4.4848413  16.2456934  )
        42           O1  tau(  42) = (   1.9866127   4.4820094  16.2221982  )
        43           Ti1 tau(  43) = (   3.2666378   0.0261420  15.7997788  )
        44           Ti1 tau(  44) = (   6.5668271   4.5279224  16.0664899  )
        45           O1  tau(  45) = (   3.2900926   2.9813045   4.7018136  )
        46           O1  tau(  46) = (   1.3039711   4.4726057   6.0039043  )
        47           O1  tau(  47) = (   5.2763189   4.4711207   6.0039473  )
        48           H1  tau(  48) = (   5.7254277   4.1132278  18.4743583  )
        49           H1  tau(  49) = (   5.8544422   2.5125186  18.2095680  )
        50           N1  tau(  50) = (   6.3703568   3.3806518  18.1617682  )
        51           C1  tau(  51) = (   0.9530889   3.3347298  19.0741625  )
        52           H1  tau(  52) = (   1.4659278   4.2935310  19.0402106  )
        53           H1  tau(  53) = (   0.6569204   3.1189037  20.1036144  )
        54           H1  tau(  54) = (   1.6325849   2.5561260  18.7331930  )

     number of k points=    10  Fermi-Dirac smearing, width (Ry)=  0.0073
                       cart. coord. in units 2pi/alat
        k(    1) = (   0.0000000   0.0000000   0.0000000), wk =   0.0625000
        k(    2) = (   0.0000000   0.0419351   0.0000000), wk =   0.1250000
        k(    3) = (   0.0000000  -0.0838702   0.0000000), wk =   0.0625000
        k(    4) = (   0.0379955   0.0000049   0.0000000), wk =   0.1250000
        k(    5) = (   0.0379955   0.0419400   0.0000000), wk =   0.1250000
        k(    6) = (   0.0379955  -0.0838652   0.0000000), wk =   0.1250000
        k(    7) = (   0.0379955  -0.0419301   0.0000000), wk =   0.1250000
[...]
     %                                                                      %
     % You are using vdW-DF, which was implemented by the Thonhauser group. %
     % Please cite the following two papers that made this development      %
     % possible and the two reviews that describe the various versions:     %
     %                                                                      %
     %   T. Thonhauser et al., PRL 115, 136402 (2015).                      %
     %   T. Thonhauser et al., PRB 76, 125112 (2007).                       %
     %   K. Berland et al., Rep. Prog. Phys. 78, 066501 (2015).             %
     %   D.C. Langreth et al., J. Phys.: Condens. Matter 21, 084203 (2009). %
     %                                                                      %
     %                                                                      %
     % If you are calculating the stress with vdW-DF, please also cite:     %
     %                                                                      %
     %   R. Sabatini et al., J. Phys.: Condens. Matter 24, 424209 (2012).   %
     %                                                                      %
     %%%%%%%%%%%%%%%%%%%%%%%%%%%%%%%%%%%%%%%%%%%%%%%%%%%%%%%%%%%%%%%%%%%%%%%%

     Adding external electric field

     Computed dipole along edir(3) :
        Dipole               -7.5680 Ry au,        -19.2360 Debye
        Dipole field         -0.0143 Ry au,

        Potential amp.        1.3239 Ry
        Total length         46.3494 bohr

[...]

     Starting wfcs are  297 atomic wfcs
  @ DRIVER MODE: Message from server: STATUS
  @ DRIVER MODE: Message from server: POSDATA
  @ DRIVER MODE: Reading and sharing cell
  @ DRIVER MODE: Reading and sharing positions
  @ DRIVER MODE: Received positions

     Self-consistent Calculation

     iteration #  1     ecut=    29.40 Ry     beta= 0.05
     Davidson diagonalization with overlap
     c_bands:  1 eigenvalues not converged
     c_bands:  2 eigenvalues not converged
     c_bands:  1 eigenvalues not converged
     c_bands:  1 eigenvalues not converged
     c_bands:  1 eigenvalues not converged
     c_bands:  1 eigenvalues not converged
     c_bands:  1 eigenvalues not converged
     c_bands:  2 eigenvalues not converged
     c_bands:  1 eigenvalues not converged
     c_bands:  1 eigenvalues not converged
     c_bands:  1 eigenvalues not converged
     c_bands:  1 eigenvalues not converged
     ethr =  1.00E-05,  avg # of iterations = 19.6

[...]

     total energy              =   -2678.26537500 Ry
     estimated scf accuracy    <    2693.46269616 Ry

     total magnetization       =     0.00 Bohr mag/cell
     absolute magnetization    =     0.01 Bohr mag/cell

[...]

     iteration #  3     ecut=    29.40 Ry     beta= 0.05
     Davidson diagonalization with overlap
     ethr =  1.00E-02,  avg # of iterations = 14.8

[...]

     iteration #190     ecut=    29.40 Ry     beta= 0.05
     Davidson diagonalization with overlap
     ethr =  5.34E-11,  avg # of iterations =  4.4

[...]

     total energy              =   -2921.63328676 Ry
     estimated scf accuracy    <       0.00000007 Ry

[...]

     iteration #245     ecut=    29.40 Ry     beta= 0.05
     Davidson diagonalization with overlap
     c_bands:  3 eigenvalues not converged
     c_bands:  1 eigenvalues not converged
     c_bands:  3 eigenvalues not converged
     c_bands:  3 eigenvalues not converged
     c_bands:  2 eigenvalues not converged
     c_bands:  2 eigenvalues not converged
     c_bands:  1 eigenvalues not converged
     c_bands:  2 eigenvalues not converged
     c_bands:  3 eigenvalues not converged
     c_bands:  2 eigenvalues not converged
     ethr =  1.88E-11,  avg # of iterations = 19.1

     negative rho (up, down):  8.553E-03 8.554E-03

[...]

     Adding external electric field

     Computed dipole along edir(3) :
        Dipole                1.3061 Ry au,          3.3197 Debye
        Dipole field          0.0025 Ry au,

        Potential amp.       -0.2285 Ry
        Total length         46.3494 bohr

     Magnetic moment per site  (integrated on atomic sphere of radius R)
     atom   1 (R=0.738)  charge=  8.0466  magn= -0.0058
     atom   2 (R=0.738)  charge=  8.0283  magn= -0.0002
     atom   3 (R=0.738)  charge=  5.0153  magn=  0.0003
     atom   4 (R=0.738)  charge=  5.0522  magn=  0.0000
     atom   5 (R=0.738)  charge=  5.0214  magn= -0.0000
     atom   6 (R=0.738)  charge=  5.0219  magn= -0.0000
     atom   7 (R=0.738)  charge=  8.0284  magn= -0.0001
     atom   8 (R=0.738)  charge=  8.0296  magn= -0.0009
     atom   9 (R=0.738)  charge=  5.0288  magn= -0.0003
     atom  10 (R=0.738)  charge=  5.0292  magn= -0.0001
     atom  11 (R=0.738)  charge=  5.0169  magn= -0.0002
     atom  12 (R=0.738)  charge=  5.0160  magn= -0.0002
     atom  13 (R=0.738)  charge=  8.0365  magn=  0.0007
     atom  14 (R=0.738)  charge=  8.0338  magn=  0.0027
     atom  15 (R=0.738)  charge=  5.0278  magn= -0.0000
     atom  16 (R=0.738)  charge=  5.0249  magn= -0.0007
     atom  17 (R=0.738)  charge=  5.0031  magn= -0.0006
     atom  18 (R=0.738)  charge=  5.0056  magn= -0.0006
     atom  19 (R=0.738)  charge=  8.0663  magn=  0.0099
     atom  20 (R=0.738)  charge=  8.0804  magn=  0.0020
     atom  21 (R=0.738)  charge=  4.9002  magn=  0.0001
     atom  22 (R=0.738)  charge=  4.9790  magn= -0.0004
     atom  23 (R=0.738)  charge=  5.0125  magn=  0.0007
     atom  24 (R=0.738)  charge=  5.0127  magn=  0.0007
     atom  25 (R=0.738)  charge=  8.0467  magn= -0.0058
     atom  26 (R=0.738)  charge=  8.0283  magn= -0.0002
     atom  27 (R=0.738)  charge=  5.0151  magn=  0.0003
     atom  28 (R=0.738)  charge=  5.0525  magn=  0.0000
     atom  29 (R=0.738)  charge=  5.0223  magn= -0.0000
     atom  30 (R=0.738)  charge=  5.0226  magn= -0.0000
     atom  31 (R=0.738)  charge=  8.0286  magn= -0.0001
     atom  32 (R=0.738)  charge=  8.0297  magn= -0.0009
     atom  33 (R=0.738)  charge=  5.0280  magn= -0.0003
     atom  34 (R=0.738)  charge=  5.0267  magn= -0.0001
     atom  35 (R=0.738)  charge=  5.0201  magn= -0.0002
     atom  36 (R=0.738)  charge=  5.0197  magn= -0.0002
     atom  37 (R=0.738)  charge=  8.0323  magn=  0.0010
     atom  38 (R=0.738)  charge=  8.0345  magn=  0.0028
     atom  39 (R=0.738)  charge=  5.0089  magn= -0.0003
     atom  40 (R=0.738)  charge=  5.0372  magn= -0.0007
     atom  41 (R=0.738)  charge=  5.0004  magn= -0.0008
     atom  42 (R=0.738)  charge=  5.0042  magn= -0.0008
     atom  43 (R=0.738)  charge=  8.0647  magn=  0.0101
     atom  44 (R=0.738)  charge=  8.0445  magn=  0.0046
     atom  45 (R=0.738)  charge=  4.9002  magn=  0.0001
     atom  46 (R=0.738)  charge=  5.0125  magn=  0.0007
     atom  47 (R=0.738)  charge=  5.0127  magn=  0.0007
     atom  48 (R=0.417)  charge=  0.4389  magn=  0.0000
     atom  49 (R=0.417)  charge=  0.4512  magn=  0.0000
     atom  50 (R=0.417)  charge=  1.3185  magn= -0.0000
     atom  51 (R=0.449)  charge=  0.8459  magn=  0.0000
     atom  52 (R=0.417)  charge=  0.4383  magn= -0.0000
     atom  53 (R=0.417)  charge=  0.4404  magn= -0.0000
     atom  54 (R=0.417)  charge=  0.4386  magn= -0.0000

     End of self-consistent calculation

 ------ SPIN UP ------------

          k = 0.0000 0.0000 0.0000 ( 18029 PWs)   bands (ev):

   -55.4327 -55.3954 -55.3750 -55.3588 -55.3408 -55.3181 -55.3095 -55.2751
   -55.2503 -55.2412 -55.2158 -55.2113 -55.1776 -55.1030 -54.4106 -54.3765
   -31.9999 -31.8849 -31.8706 -31.7969 -31.7470 -31.7434 -31.7396 -31.7167
   -31.6722 -31.6632 -31.6419 -31.6412 -31.6196 -31.6185 -31.6017 -31.5987
   -31.5872 -31.5756 -31.5692 -31.5465 -31.5307 -31.5264 -31.5077 -31.4919
   -31.4865 -31.4810 -31.4762 -31.4527 -31.4394 -31.4308 -31.4304 -31.4151
   -31.4117 -31.4107 -31.3996 -31.3967 -31.3639 -31.3614 -31.3400 -31.3225
   -31.3099 -31.2915 -30.8199 -30.7254 -30.7034 -30.6361 -30.5493 -30.4386
   -16.2822 -16.1573 -15.9738 -15.8232 -15.7376 -15.6290 -15.5096 -15.4908
   -15.3592 -15.2812 -15.1555 -15.1292 -15.1005 -15.0842 -15.0735 -15.0604
   -14.9751 -14.9695 -14.9533 -14.9244 -14.9237 -14.8778 -14.8688 -14.8277
   -14.8049 -14.7935 -14.6787 -14.5897 -14.5169 -14.2731 -12.9131 -12.7957
   -10.2213  -6.2872  -4.8235  -3.9482  -3.6016  -3.4500  -3.3570  -3.3280
    -3.3213  -3.1856  -3.0339  -2.8855  -2.8369  -2.8357  -2.7144  -2.6406
    -2.6300  -2.6102  -2.4577  -2.4263  -2.3782  -2.3313  -2.2896  -2.2386
    -2.2207  -2.2109  -2.1953  -2.1721  -2.1613  -2.0532  -1.9966  -1.9111
    -1.8546  -1.8308  -1.7812  -1.7648  -1.7381  -1.7195  -1.7095  -1.6631
    -1.6378  -1.6235  -1.5694  -1.4572  -1.3525  -1.3023  -1.1828  -1.0676
    -1.0291  -1.0150  -0.9621  -0.9253  -0.9141  -0.8433  -0.8068  -0.7761
    -0.7034  -0.6603  -0.5918  -0.5432  -0.4767  -0.4613  -0.4176  -0.3546
    -0.2483  -0.2119  -0.1968  -0.1694  -0.0724  -0.0401   0.0101   0.0905
     0.0961   0.1090   0.2132   0.2273   0.2989   0.3481   0.3648   0.4516
     0.4862   0.5011   0.5047   0.5312   0.5551   0.6109   0.6438   0.6715
     0.7468   0.8706   1.0931   1.1631   1.1822   1.5079   1.5174   1.6122
     1.7955   2.1883   2.2368   3.6680   3.7351   3.8192   3.8203   3.8237
     3.9064   4.1407   4.1614   4.1742   4.1777   4.1967

[...]

          k =-0.0760-0.0000 0.0000 ( 17886 PWs)   bands (ev):

[...]

 ------ SPIN DOWN ----------

[...]

          k = 0.0380-0.0419 0.0000 ( 17876 PWs)   bands (ev):

[...]

          k =-0.0760-0.0839 0.0000 ( 17948 PWs)   bands (ev):

   -55.4142 -55.4040 -55.3687 -55.3681 -55.3490 -55.2968 -55.2914 -55.2897
   -55.2349 -55.2309 -55.2278 -55.1959 -55.1950 -55.1007 -54.3939 -54.3936
   -31.8039 -31.7982 -31.7967 -31.7069 -31.6902 -31.6898 -31.6844 -31.6602
   -31.6600 -31.6373 -31.6303 -31.6245 -31.6167 -31.5945 -31.5778 -31.5707
   -31.5675 -31.5632 -31.5608 -31.5528 -31.5505 -31.5479 -31.5093 -31.5057
   -31.4971 -31.4954 -31.4927 -31.4894 -31.4889 -31.4843 -31.4806 -31.4679
   -31.4640 -31.4479 -31.4440 -31.4289 -31.4259 -31.4148 -31.3759 -31.3755
   -31.3668 -31.3099 -30.7165 -30.7163 -30.6325 -30.6323 -30.5931 -30.5929
   -16.1294 -15.7654 -15.6781 -15.6304 -15.4666 -15.4337 -15.4130 -15.3957
   -15.2650 -15.2385 -15.2143 -15.1967 -15.1744 -15.1380 -15.1323 -15.1269
   -15.0511 -15.0350 -15.0303 -15.0121 -14.9492 -14.9397 -14.9366 -14.9295
   -14.8784 -14.8748 -14.8091 -14.7828 -14.7797 -14.5638 -12.8973 -12.8972
   -10.2251  -6.2595  -4.8195  -3.9113  -2.9482  -2.9199  -2.8837  -2.8799
    -2.6823  -2.6315  -2.5980  -2.5710  -2.4822  -2.4472  -2.4228  -2.4197
    -2.3483  -2.3302  -2.3135  -2.2721  -2.2652  -2.2507  -2.2282  -2.1914
    -2.1651  -2.1561  -2.1495  -2.1261  -2.0823  -2.0691  -2.0529  -2.0277
    -2.0240  -2.0135  -1.9859  -1.9375  -1.8115  -1.8025  -1.7272  -1.6379
    -1.6330  -1.5567  -1.5403  -1.4925  -1.4759  -1.4625  -1.4199  -1.2367
    -1.1989  -1.1771  -1.1670  -1.0974  -1.0392  -1.0232  -0.9503  -0.9340
    -0.9174  -0.8090  -0.7618  -0.7506  -0.6576  -0.6483  -0.5700  -0.5063
    -0.4562  -0.4354  -0.3899  -0.3852  -0.3816  -0.3370  -0.3297  -0.2442
    -0.2002  -0.1640  -0.1502  -0.1170   0.0838   0.0899   0.1128   0.2559
     0.2868   0.4120   0.4446   0.4972   0.5730   0.6060   0.6816   0.7165
     0.8494   0.8766   0.8775   0.9493   0.9585   1.0225   1.0321   1.9685
     1.9692   2.0564   2.0566   3.8337   3.9156   3.9333   3.9728   4.0882
     4.1613   4.1828   4.2054   4.2513   4.2545   4.3146

     the Fermi energy is     3.7318 ev

!    total energy              =   -2921.63328791 Ry
     estimated scf accuracy    <       0.00000005 Ry
     smearing contrib. (-TS)   =      -0.03704014 Ry
     internal energy E=F+TS    =   -2921.59624777 Ry

     The total energy is F=E-TS. E is the sum of the following terms:
     one-electron contribution =  -23999.83203763 Ry
     hartree contribution      =   12089.05047002 Ry
     xc contribution           =    -481.73699769 Ry
     ewald contribution        =    9470.91909839 Ry
     electric field correction =       0.00321913 Ry

     total magnetization       =     0.03 Bohr mag/cell
     absolute magnetization    =     0.09 Bohr mag/cell

     convergence has been achieved in 245 iterations

     Forces acting on atoms (cartesian axes, Ry/au):

     atom    1 type  1   force =     0.00019047   -0.00023094    0.09320728
     atom    2 type  1   force =    -0.00003723   -0.00041767   -0.17834424
     atom    3 type  2   force =     0.00008052   -0.00039975   -0.02016874
     atom    4 type  2   force =     0.00001477   -0.00194834    0.05891341
     atom    5 type  2   force =    -0.01033256   -0.00094768    0.00824724
     atom    6 type  2   force =     0.01151857   -0.00018330    0.00658456
     atom    7 type  1   force =    -0.00062613    0.00207166   -0.01451907
     atom    8 type  1   force =     0.00067316   -0.00093188   -0.00514569
     atom    9 type  2   force =     0.00014023    0.00031936    0.00007804
     atom   10 type  2   force =    -0.00249165    0.00189500    0.00101007
     atom   11 type  2   force =    -0.00015289    0.00003711    0.00029836
     atom   12 type  2   force =     0.00001294    0.00030271    0.00019004
     atom   13 type  1   force =    -0.00002859    0.00007083    0.00010421
     atom   14 type  1   force =     0.00005989   -0.00003152    0.00013484
     atom   15 type  2   force =     0.00007897   -0.00040740   -0.00000920
     atom   16 type  2   force =     0.00034464   -0.00000004   -0.00004288
     atom   17 type  2   force =     0.00005515   -0.00038077    0.00004749
     atom   18 type  2   force =     0.00010574   -0.00004055   -0.00006153
     atom   19 type  1   force =     0.00043386   -0.00005811    0.00052948
     atom   20 type  1   force =     0.00035307    0.00086919    0.00051807
     atom   21 type  2   force =     0.00014349   -0.00009169    0.10393562
     atom   22 type  2   force =     0.00010201    0.00007121    0.00061235
     atom   23 type  2   force =    -0.07031554   -0.00018921   -0.02691244
     atom   24 type  2   force =     0.07033008    0.00027224   -0.02694522
     atom   25 type  1   force =     0.00013238   -0.00017828    0.09279018
     atom   26 type  1   force =    -0.00004872   -0.00052941   -0.17837800
     atom   27 type  2   force =     0.00011638   -0.00026043   -0.01924133
     atom   28 type  2   force =     0.00008629   -0.00170968    0.05822817
     atom   29 type  2   force =    -0.01083078   -0.00099410    0.00882213
     atom   30 type  2   force =     0.01193747   -0.00068503    0.00714105
     atom   31 type  1   force =    -0.00064804    0.00611194   -0.01533803
     atom   32 type  1   force =     0.00082151    0.00035485   -0.00554498
     atom   33 type  2   force =    -0.00037825   -0.00032864    0.00016967
     atom   34 type  2   force =    -0.00223803   -0.00204077   -0.00002470
     atom   35 type  2   force =    -0.00072909    0.00026269    0.00035189
     atom   36 type  2   force =     0.00075637   -0.00010178   -0.00017019
     atom   37 type  1   force =     0.00004324    0.00020941    0.00003815
     atom   38 type  1   force =    -0.00029170    0.00022595    0.00050772
     atom   39 type  2   force =    -0.00038186   -0.00007612   -0.00019888
     atom   40 type  2   force =    -0.00006361   -0.00008590    0.00032701
     atom   41 type  2   force =    -0.00023489    0.00006962   -0.00011991
     atom   42 type  2   force =     0.00039126   -0.00016472   -0.00011492
     atom   43 type  1   force =    -0.00026848    0.00003642    0.00010295
     atom   44 type  1   force =     0.00036462   -0.00023506    0.00001658
     atom   45 type  2   force =     0.00012610   -0.00010722    0.10390341
     atom   46 type  2   force =    -0.07029883   -0.00012028   -0.02686142
     atom   47 type  2   force =     0.07029366    0.00029555   -0.02689676
     atom   48 type  3   force =     0.00604474   -0.00865186   -0.00400940
     atom   49 type  3   force =    -0.00537168   -0.01131094    0.00076051
     atom   50 type  4   force =    -0.00064095    0.02376216    0.00211990
     atom   51 type  5   force =     0.00110696   -0.00319383   -0.00073643
     atom   52 type  3   force =    -0.00102143   -0.00031486   -0.00086603
     atom   53 type  3   force =     0.00023358    0.00008724    0.00007278
     atom   54 type  3   force =     0.00033884    0.00002265    0.00088683

     Total force =     0.367453     Total SCF correction =     0.000483
  @ DRIVER MODE: Message from server: STATUS
  @ DRIVER MODE: Message from server: GETFORCE
  @ DRIVER MODE: Returning v,forces,stress,ensemble

     Writing output data file ./calc.save/
  @ DRIVER MODE: Message from server: EXIT
  @ DRIVE MODE: Exiting

     General routines

     Parallel routines

   This run was terminated on:   3:23: 6  17Jul2021

   JOB DONE.