     Program PWSCF v.6.7GPU starts on 24Aug2021 at  4:43:24

     R & G space division:  proc/nbgrp/npool/nimage =       6
     Reading input from /storage/home/hcoda1/3/ntian30/research/carbon/CH_vib/ads_slab/CHN2H_a/out_0030/pw.inp
Warning: card &CELL ignored
Warning: card   CELL_DYNAMICS='IPI', ignored
Warning: card / ignored

     Current dimensions of program PWSCF are:
     Max number of different atomic species (ntypx) = 10
     Max number of k-points (npk) =  40000
     Max angular momentum in pseudopotentials (lmaxx) =  3
     Presently no symmetry can be used with electric field

     Message from routine cell_base_init:
     DEPRECATED: use true lattice parameter, not A to a.u. conversion factor

     IMPORTANT: XC functional enforced from input :
     Exchange-correlation= BEEF-VDW
                           (   1   4  43  14   2   0   0)
     Any further DFT definition will be discarded
     Please, verify this is what you really want

  @ DRIVER MODE: Connecting to
 qe_1139763_2632792.sched-torque.pace.gatech.eduych3fbk9_scratch
  using UNIX socket
  @ DRIVER MODE: Message from server: STATUS
  @ DRIVER MODE: Message from server: INIT
  @ DRIVER MODE: Receiving replica           0          -1
  @ DRIVER MODE: Receiving encoded integer          25
  @ DRIVER MODE:  SCF:  T  FORCE:  T  STRESS:  F  VC:  F  ENSEMBLE:  F
  @ DRIVER MODE:  SCF:  T  FORCE:  T  STRESS:  F  VC:  F  ENSEMBLE:  F

     Using Slab Decomposition

     bravais-lattice index     =            0
     lattice parameter (alat)  =       1.8897  a.u.
     unit-cell volume          =    6658.9804 (a.u.)^3
     number of atoms/cell      =           52
     number of atomic types    =            5
     number of electrons       =       394.00
     number of Kohn-Sham states=          207
     kinetic-energy cutoff     =      29.3995  Ry
     charge density cutoff     =     293.9946  Ry
     scf convergence threshold =      7.3E-08
     mixing beta               =       0.0500
     number of iterations used =            8  plain     mixing
     Exchange-correlation= BEEF-VDW
                           (   1   4  43  14   2   0   0)

     celldm(1)=   1.889726  celldm(2)=   0.000000  celldm(3)=   0.000000
     celldm(4)=   0.000000  celldm(5)=   0.000000  celldm(6)=   0.000000

     crystal axes: (cart. coord. in units of alat)
               a(1) = (   6.579727   0.000000   0.000000 )
               a(2) = (  -0.000775   5.961596   0.000000 )
               a(3) = (   0.000000   0.000000  25.155947 )

     reciprocal axes: (cart. coord. in units 2 pi/alat)
               b(1) = (  0.151982  0.000020  0.000000 )
               b(2) = (  0.000000  0.167740  0.000000 )
               b(3) = (  0.000000  0.000000  0.039752 )

     PseudoPot. # 1 for Ti read from file:
     /storage/coda1/p-amedford6/0/shared/rich_project_chbe-medford/medford-share/data/pseudos_module/espresso/nninc/pbe/van/Ti.UPF
     MD5 check sum: 8e4df49b7f0d34bbd5052bf3f5ea0213
     Pseudo is Ultrasoft, Zval = 12.0
     Generated by new atomic code, or converted to UPF format
     Using radial grid of  851 points,  6 beta functions with:
                l(1) =   0
                l(2) =   0
                l(3) =   1
                l(4) =   1
                l(5) =   2
                l(6) =   2
     Q(r) pseudized with  8 coefficients,  rinner =    1.000   1.000   1.000
                                                       1.000   1.000

     PseudoPot. # 2 for O  read from file:
     /storage/coda1/p-amedford6/0/shared/rich_project_chbe-medford/medford-share/data/pseudos_module/espresso/nninc/pbe/van/O.UPF
     MD5 check sum: 78c19812648e8988a0fe644b0f25305e
     Pseudo is Ultrasoft, Zval =  6.0
     Generated by new atomic code, or converted to UPF format
     Using radial grid of  737 points,  4 beta functions with:
                l(1) =   0
                l(2) =   0
                l(3) =   1
                l(4) =   1
     Q(r) pseudized with  8 coefficients,  rinner =    0.800   0.800   0.800

     PseudoPot. # 3 for N  read from file:
     /storage/coda1/p-amedford6/0/shared/rich_project_chbe-medford/medford-share/data/pseudos_module/espresso/nninc/pbe/van/N.UPF
     MD5 check sum: 90d10febe142ad51ac9d5be1deb811c4
     Pseudo is Ultrasoft, Zval =  5.0
     Generated by new atomic code, or converted to UPF format
     Using radial grid of  729 points,  4 beta functions with:
                l(1) =   0
                l(2) =   0
                l(3) =   1
                l(4) =   1
     Q(r) pseudized with  8 coefficients,  rinner =    0.800   0.800   0.800

     PseudoPot. # 4 for C  read from file:
     /storage/coda1/p-amedford6/0/shared/rich_project_chbe-medford/medford-share/data/pseudos_module/espresso/nninc/pbe/van/C.UPF
     MD5 check sum: 1a69bf6b8db32088f5b2163dbdb77a27
     Pseudo is Ultrasoft, Zval =  4.0
     Generated by new atomic code, or converted to UPF format
     Using radial grid of  721 points,  4 beta functions with:
                l(1) =   0
                l(2) =   0
                l(3) =   1
                l(4) =   1
     Q(r) pseudized with  8 coefficients,  rinner =    0.800   0.800   0.800

     PseudoPot. # 5 for H  read from file:
     /storage/coda1/p-amedford6/0/shared/rich_project_chbe-medford/medford-share/data/pseudos_module/espresso/nninc/pbe/van/H.UPF
     MD5 check sum: b5ee9d7bfd3a09ee7748110bda690ff7
     Pseudo is Ultrasoft, Zval =  1.0
     Generated by new atomic code, or converted to UPF format
     Using radial grid of  615 points,  1 beta functions with:
                l(1) =   0
     Q(r) pseudized with  8 coefficients,  rinner =    0.800

     atomic species   valence    mass     pseudopotential
        Ti1           12.00    47.86700     Ti( 1.00)
        O1             6.00    15.99900     O ( 1.00)
        N1             5.00    14.00700     N ( 1.00)
        C1             4.00    12.01100     C ( 1.00)
        H1             1.00     1.00800     H ( 1.00)

     No symmetry found

   Cartesian axes

     site n.     atom                  positions (alat units)
         1           Ti1 tau(   1) = (   0.0004258   2.9801865   6.0000000  )
         2           Ti1 tau(   2) = (   3.2906075   1.4906267   6.0002472  )
         3           O1  tau(   3) = (   0.0006271   0.0005054   7.9858123  )
         4           O1  tau(   4) = (   3.2906025   0.0005020   7.3038282  )
         5           O1  tau(   5) = (   4.5942328   1.4918067   9.2879030  )
         6           O1  tau(   6) = (   1.9868534   1.4903216   9.2879459  )
         7           Ti1 tau(   7) = (   3.2907910   2.8959150   9.1758416  )
         8           Ti1 tau(   8) = (   0.0015273   1.4827037   9.2680791  )
         9           O1  tau(   9) = (   3.3079035   5.9465650  11.3667630  )
        10           O1  tau(  10) = (   0.0116148   5.9584955  10.6183126  )
        11           O1  tau(  11) = (   1.3159687   1.4802111  12.6598234  )
        12           O1  tau(  12) = (   5.3141237   1.4785834  12.6569702  )
        13           Ti1 tau(  13) = (   0.0356438   2.9569522  12.5500042  )
        14           Ti1 tau(  14) = (   3.3321116   1.4682926  12.5176941  )
        15           O1  tau(  15) = (   0.0287262   5.9365737  14.6848071  )
        16           O1  tau(  16) = (   3.3260766   5.9477468  13.9918032  )
        17           O1  tau(  17) = (   4.5788076   1.5006004  16.1778977  )
        18           O1  tau(  18) = (   2.0653823   1.4932191  16.1519216  )
        19           Ti1 tau(  19) = (   3.3252840   2.9629899  15.7366588  )
        20           Ti1 tau(  20) = (   0.0567170   1.3280226  15.9864722  )
        21           O1  tau(  21) = (   3.2904802   0.0005063   4.7018136  )
        22           O1  tau(  22) = (   0.0395201   5.9563027  17.2132275  )
        23           O1  tau(  23) = (   1.3043587   1.4918075   6.0039043  )
        24           O1  tau(  24) = (   5.2767064   1.4903225   6.0039473  )
        25           Ti1 tau(  25) = (   0.0000382   5.9609847   6.0000000  )
        26           Ti1 tau(  26) = (   3.2902200   4.4714249   6.0002472  )
        27           O1  tau(  27) = (   0.0002396   2.9813036   7.9858123  )
        28           O1  tau(  28) = (   3.2902150   2.9813002   7.3038282  )
        29           O1  tau(  29) = (   4.5938453   4.4726049   9.2879030  )
        30           O1  tau(  30) = (   1.9864658   4.4711199   9.2879459  )
        31           Ti1 tau(  31) = (   3.2891106   5.8743827   9.1763621  )
        32           Ti1 tau(  32) = (   0.0006254   4.4649316   9.2693709  )
        33           O1  tau(  33) = (   3.3109971   2.9638951  11.3609806  )
        34           O1  tau(  34) = (   0.0092240   2.9805883  10.6323155  )
        35           O1  tau(  35) = (   1.3172493   4.4579999  12.6547637  )
        36           O1  tau(  36) = (   5.3123203   4.4599931  12.6537913  )
        37           Ti1 tau(  37) = (   0.0349292   5.9384232  12.5038109  )
        38           Ti1 tau(  38) = (   3.3308216   4.4462378  12.5132791  )
        39           O1  tau(  39) = (   0.0262156   2.9786664  14.8481040  )
        40           O1  tau(  40) = (   3.3240488   2.9673873  13.9486158  )
        41           O1  tau(  41) = (   4.5778164   4.4375445  16.1741249  )
        42           O1  tau(  42) = (   2.0647505   4.4412733  16.1578575  )
        43           Ti1 tau(  43) = (   3.3314326   5.9455663  15.7867969  )
        44           Ti1 tau(  44) = (   0.0345939   4.5236910  15.9072353  )
        45           O1  tau(  45) = (   3.2900926   2.9813045   4.7018136  )
        46           O1  tau(  46) = (   1.3039711   4.4726057   6.0039043  )
        47           O1  tau(  47) = (   5.2763189   4.4711207   6.0039473  )
        48           N1  tau(  48) = (   0.8843530   3.1395628  18.6524426  )
        49           C1  tau(  49) = (   1.8908588   3.1194352  19.2834450  )
        50           H1  tau(  50) = (   2.4245030   3.8971110  19.8100181  )
        51           N1  tau(  51) = (   6.5588057   2.9807634  17.7841789  )
        52           H1  tau(  52) = (   5.6432114   2.8891999  18.2370943  )

     number of k points=    10  Fermi-Dirac smearing, width (Ry)=  0.0073
                       cart. coord. in units 2pi/alat
        k(    1) = (   0.0000000   0.0000000   0.0000000), wk =   0.1250000
        k(    2) = (   0.0000000   0.0419351   0.0000000), wk =   0.2500000
        k(    3) = (   0.0000000  -0.0838702   0.0000000), wk =   0.1250000
        k(    4) = (   0.0379955   0.0000049   0.0000000), wk =   0.2500000
        k(    5) = (   0.0379955   0.0419400   0.0000000), wk =   0.2500000
        k(    6) = (   0.0379955  -0.0838652   0.0000000), wk =   0.2500000
        k(    7) = (   0.0379955  -0.0419301   0.0000000), wk =   0.2500000
        k(    8) = (  -0.0759910  -0.0000099   0.0000000), wk =   0.1250000
        k(    9) = (  -0.0759910   0.0419252   0.0000000), wk =   0.2500000
        k(   10) = (  -0.0759910  -0.0838800   0.0000000), wk =   0.1250000

     Initial potential from superposition of free atoms

     starting charge  377.99917, renormalised to  394.00000

     negative rho (up, down):  1.652E-02 0.000E+00

     %%%%%%%%%%%%%%%%%%%%%%%%%%%%%%%%%%%%%%%%%%%%%%%%%%%%%%%%%%%%%%%%%%%%%%%%
     %                                                                      %
     % You are using vdW-DF, which was implemented by the Thonhauser group. %
     % Please cite the following two papers that made this development      %
     % possible and the two reviews that describe the various versions:     %
     %                                                                      %
     %   T. Thonhauser et al., PRL 115, 136402 (2015).                      %
     %   T. Thonhauser et al., PRB 76, 125112 (2007).                       %
     %   K. Berland et al., Rep. Prog. Phys. 78, 066501 (2015).             %
     %   D.C. Langreth et al., J. Phys.: Condens. Matter 21, 084203 (2009). %
     %                                                                      %
     %                                                                      %
     % If you are calculating the stress with vdW-DF, please also cite:     %
     %                                                                      %
     %   R. Sabatini et al., J. Phys.: Condens. Matter 24, 424209 (2012).   %
     %                                                                      %
     %%%%%%%%%%%%%%%%%%%%%%%%%%%%%%%%%%%%%%%%%%%%%%%%%%%%%%%%%%%%%%%%%%%%%%%%

     Adding external electric field

     Computed dipole along edir(3) :
        Dipole               -8.5003 Ry au,        -21.6056 Debye
        Dipole field         -0.0160 Ry au,

        Potential amp.        1.4870 Ry
        Total length         46.3494 bohr

     Starting wfcs are  298 atomic wfcs
  @ DRIVER MODE: Message from server: STATUS
  @ DRIVER MODE: Message from server: POSDATA
  @ DRIVER MODE: Reading and sharing cell
  @ DRIVER MODE: Reading and sharing positions
  @ DRIVER MODE: Received positions

     Self-consistent Calculation

     iteration #  1     ecut=    29.40 Ry     beta= 0.05
     Davidson diagonalization with overlap
     c_bands:  1 eigenvalues not converged
     c_bands:  1 eigenvalues not converged
     c_bands:  2 eigenvalues not converged
     c_bands:  2 eigenvalues not converged
     c_bands:  2 eigenvalues not converged
     c_bands:  1 eigenvalues not converged
     ethr =  1.00E-05,  avg # of iterations = 19.0

[...]

     total energy              =   -2624.27994886 Ry
     estimated scf accuracy    <    3488.43842742 Ry

[...]

     iteration #  3     ecut=    29.40 Ry     beta= 0.05
     Davidson diagonalization with overlap
     ethr =  1.00E-02,  avg # of iterations = 14.5

[...]

     iteration # 68     ecut=    29.40 Ry     beta= 0.05
     Davidson diagonalization with overlap
     c_bands:  1 eigenvalues not converged
     ethr =  3.36E-11,  avg # of iterations = 12.6

[...]

     total energy              =   -2937.80852762 Ry
     estimated scf accuracy    <       0.00000009 Ry

     iteration # 69     ecut=    29.40 Ry     beta= 0.05
     Davidson diagonalization with overlap
     ethr =  2.38E-11,  avg # of iterations =  2.0

     negative rho (up, down):  1.628E-02 0.000E+00

     Adding external electric field

     Computed dipole along edir(3) :
        Dipole                1.2927 Ry au,          3.2856 Debye
        Dipole field          0.0024 Ry au,

        Potential amp.       -0.2261 Ry
        Total length         46.3494 bohr

     End of self-consistent calculation

          k = 0.0000 0.0000 0.0000 ( 18029 PWs)   bands (ev):

   -55.4337 -55.3978 -55.3977 -55.3637 -55.3272 -55.3115 -55.2683 -55.2468
   -55.2427 -55.2316 -55.2241 -55.2123 -55.1907 -55.1644 -54.4162 -54.3821
   -32.0028 -31.8885 -31.8280 -31.7972 -31.7531 -31.7453 -31.7360 -31.7270
   -31.6874 -31.6804 -31.6429 -31.6423 -31.6347 -31.6074 -31.5882 -31.5698
   -31.5656 -31.5594 -31.5511 -31.5454 -31.5110 -31.5100 -31.5002 -31.4916
   -31.4772 -31.4548 -31.4491 -31.4476 -31.4422 -31.4381 -31.4351 -31.4208
   -31.4129 -31.4064 -31.4009 -31.3960 -31.3745 -31.3613 -31.3593 -31.3535
   -31.3328 -31.2716 -30.8251 -30.7321 -30.7100 -30.6415 -30.5548 -30.4439
   -20.2354 -16.2484 -15.9761 -15.8321 -15.7088 -15.6243 -15.4974 -15.4589
   -15.3420 -15.3381 -15.2260 -15.1505 -15.0834 -15.0813 -15.0629 -15.0363
   -14.9858 -14.9692 -14.9667 -14.9243 -14.9220 -14.8801 -14.8607 -14.8267
   -14.8089 -14.7897 -14.7719 -14.6499 -14.5806 -14.5219 -14.1608 -12.9187
   -12.8015  -8.7775  -7.1491  -5.4387  -4.7218  -3.5935  -3.4336  -3.3467
    -3.3306  -3.3276  -3.1618  -3.0338  -2.8065  -2.7697  -2.6950  -2.6407
    -2.6227  -2.6008  -2.4232  -2.3988  -2.3390  -2.3117  -2.2743  -2.2443
    -2.2193  -2.1997  -2.1917  -2.1733  -2.1595  -1.9989  -1.9001  -1.8694
    -1.8336  -1.8195  -1.7601  -1.7271  -1.7213  -1.7194  -1.7103  -1.6670
    -1.6471  -1.5995  -1.4982  -1.4722  -1.4466  -1.3181  -1.2995  -1.1512
    -1.0667  -0.9817  -0.9745  -0.9078  -0.9020  -0.8688  -0.8180  -0.7933
    -0.7693  -0.6357  -0.5654  -0.5084  -0.4928  -0.4483  -0.4030  -0.3670
    -0.2740  -0.2096  -0.2018  -0.1900  -0.0248  -0.0104   0.0364   0.0857
     0.1102   0.1589   0.1839   0.2536   0.2871   0.3332   0.3635   0.4599
     0.4997   0.5200   0.5337   0.5533   0.5656   0.6256   0.6928   0.7113
     0.7597   0.8161   0.9277   1.1251   1.1870   1.2003   1.5162   1.5504
     1.6065   1.7918   2.1815   2.2292   3.6662   3.7377   3.8014   3.8164
     3.8254   3.9017   4.0786   4.1494   4.1650   4.1717   4.1829

[...]

          k = 0.0380-0.0419 0.0000 ( 17876 PWs)   bands (ev):

[...]

          k =-0.0760-0.0000 0.0000 ( 17886 PWs)   bands (ev):

[...]

          k =-0.0760-0.0839 0.0000 ( 17948 PWs)   bands (ev):

   -55.4169 -55.4144 -55.3808 -55.3806 -55.3239 -55.3030 -55.2767 -55.2384
   -55.2348 -55.2303 -55.2281 -55.2081 -55.2072 -55.1685 -54.3991 -54.3990
   -31.8077 -31.8048 -31.7465 -31.7263 -31.7037 -31.7036 -31.6913 -31.6729
   -31.6727 -31.6444 -31.6349 -31.6295 -31.6263 -31.5859 -31.5642 -31.5611
   -31.5609 -31.5530 -31.5524 -31.5420 -31.5291 -31.5198 -31.5096 -31.5057
   -31.5016 -31.5003 -31.4999 -31.4952 -31.4710 -31.4634 -31.4631 -31.4609
   -31.4440 -31.4414 -31.4414 -31.4319 -31.4309 -31.4256 -31.3882 -31.3872
   -31.3822 -31.3629 -30.7227 -30.7226 -30.6377 -30.6375 -30.5982 -30.5982
   -20.2342 -15.7041 -15.6836 -15.6248 -15.4187 -15.4164 -15.4042 -15.3899
   -15.3693 -15.2314 -15.2120 -15.1960 -15.1784 -15.1364 -15.1329 -15.1172
   -15.1067 -15.0073 -15.0052 -15.0030 -15.0016 -14.9394 -14.9315 -14.9176
   -14.8832 -14.8800 -14.8508 -14.7811 -14.7781 -14.6455 -14.4814 -12.9031
   -12.9030  -8.7623  -7.1692  -5.4371  -4.7054  -2.9590  -2.8887  -2.8457
    -2.6360  -2.6134  -2.5986  -2.5158  -2.4665  -2.4045  -2.3970  -2.3907
    -2.3313  -2.2961  -2.2826  -2.2643  -2.2562  -2.2392  -2.2173  -2.2062
    -2.1605  -2.1490  -2.1395  -2.1042  -2.0913  -2.0729  -2.0492  -2.0320
    -2.0142  -2.0090  -1.9897  -1.8289  -1.7778  -1.7308  -1.6818  -1.6708
    -1.6258  -1.6183  -1.5243  -1.4897  -1.4610  -1.4329  -1.4248  -1.2342
    -1.2180  -1.1654  -1.1609  -1.1371  -0.9815  -0.9612  -0.9458  -0.9282
    -0.8826  -0.8013  -0.7939  -0.7562  -0.6494  -0.6190  -0.6137  -0.5618
    -0.4417  -0.4187  -0.3965  -0.3908  -0.3849  -0.2919  -0.2747  -0.2663
    -0.2337  -0.2002  -0.1495  -0.1431  -0.0903   0.0921   0.1369   0.2022
     0.2814   0.4502   0.4896   0.5167   0.5578   0.6192   0.6919   0.7082
     0.7727   0.8666   0.8813   0.9113   0.9836   1.0366   1.0444   1.0689
     1.9645   1.9653   2.0491   2.0492   3.8357   3.8480   3.9102   3.9470
     3.9961   4.0858   4.1851   4.2011   4.2458   4.3258   4.3288

     the Fermi energy is     3.7201 ev

!    total energy              =   -2937.80855555 Ry
     estimated scf accuracy    <       0.00000006 Ry
     smearing contrib. (-TS)   =      -0.03813029 Ry
     internal energy E=F+TS    =   -2937.77042526 Ry

     The total energy is F=E-TS. E is the sum of the following terms:
     one-electron contribution =  -24091.78230217 Ry
     hartree contribution      =   12135.97151311 Ry
     xc contribution           =    -484.38196082 Ry
     ewald contribution        =    9502.41917122 Ry
     electric field correction =       0.00315339 Ry

     convergence has been achieved in  69 iterations

     Forces acting on atoms (cartesian axes, Ry/au):

     atom    1 type  1   force =     0.00007186   -0.00011757    0.09408438
     atom    2 type  1   force =    -0.00016716   -0.00022458   -0.17761820
     atom    3 type  2   force =     0.00011210   -0.00019259   -0.02137124
     atom    4 type  2   force =     0.00002498   -0.00184371    0.05752405
     atom    5 type  2   force =    -0.01068332   -0.00139015    0.00632613
     atom    6 type  2   force =     0.01275270   -0.00074296    0.00660870
     atom    7 type  1   force =     0.00011602    0.00197437   -0.01403920
     atom    8 type  1   force =    -0.00046560    0.00583004    0.00396059
     atom    9 type  2   force =     0.00036305    0.00023103   -0.00008251
     atom   10 type  2   force =    -0.00023942    0.00023209   -0.00513302
     atom   11 type  2   force =     0.00005884   -0.00016668   -0.00045119
     atom   12 type  2   force =    -0.00029983   -0.00000417    0.00008379
     atom   13 type  1   force =    -0.00026330    0.00001897   -0.00030056
     atom   14 type  1   force =    -0.00008350    0.00015597   -0.00014954
     atom   15 type  2   force =    -0.00048200   -0.00041882   -0.00013434
     atom   16 type  2   force =    -0.00018999    0.00019117    0.00001671
     atom   17 type  2   force =    -0.00004436   -0.00025726   -0.00020469
     atom   18 type  2   force =    -0.00051535   -0.00009669   -0.00043581
     atom   19 type  1   force =    -0.00006533    0.00011829   -0.00020396
     atom   20 type  1   force =    -0.00049668   -0.00012003    0.00061077
     atom   21 type  2   force =     0.00001964    0.00001650    0.10383189
     atom   22 type  2   force =     0.00004921    0.00010409   -0.00005682
     atom   23 type  2   force =    -0.07064762   -0.00007704   -0.02705939
     atom   24 type  2   force =     0.07053929    0.00036833   -0.02710907
     atom   25 type  1   force =     0.00001878   -0.00008359    0.09371996
     atom   26 type  1   force =    -0.00013823   -0.00016408   -0.17768724
     atom   27 type  2   force =     0.00013706   -0.00025357   -0.02037445
     atom   28 type  2   force =     0.00006686   -0.00155081    0.05699800
     atom   29 type  2   force =    -0.01103380   -0.00053572    0.00634747
     atom   30 type  2   force =     0.01295745   -0.00027250    0.00663994
     atom   31 type  1   force =     0.00029688    0.00519888   -0.01481473
     atom   32 type  1   force =    -0.00039646   -0.00658590    0.00412860
     atom   33 type  2   force =     0.00015952    0.00007658   -0.00031901
     atom   34 type  2   force =     0.00036079   -0.00103886   -0.00204104
     atom   35 type  2   force =    -0.00030382    0.00016389   -0.00021676
     atom   36 type  2   force =    -0.00004889    0.00001067    0.00011178
     atom   37 type  1   force =    -0.00007797    0.00024417   -0.00013872
     atom   38 type  1   force =     0.00006633    0.00024783    0.00022534
     atom   39 type  2   force =    -0.00003970    0.00019109    0.00014344
     atom   40 type  2   force =    -0.00030291    0.00009238   -0.00023643
     atom   41 type  2   force =    -0.00022558   -0.00000618    0.00004112
     atom   42 type  2   force =    -0.00033045    0.00011511   -0.00013226
     atom   43 type  1   force =    -0.00005356    0.00014981   -0.00011568
     atom   44 type  1   force =    -0.00022321   -0.00030434   -0.00014308
     atom   45 type  2   force =     0.00001068   -0.00000030    0.10384943
     atom   46 type  2   force =    -0.07067799   -0.00004550   -0.02707886
     atom   47 type  2   force =     0.07055237    0.00039605   -0.02711514
     atom   48 type  3   force =     0.00254904    0.00018775    0.00056497
     atom   49 type  4   force =    -0.00102583    0.00038345   -0.00024166
     atom   50 type  5   force =    -0.00005855   -0.00003894   -0.00021949
     atom   51 type  3   force =    -0.00637806   -0.00095741    0.00378267
     atom   52 type  5   force =     0.00467501    0.00079140   -0.00437565

     Total force =     0.366156     Total SCF correction =     0.000728
  @ DRIVER MODE: Message from server: STATUS
  @ DRIVER MODE: Message from server: GETFORCE
  @ DRIVER MODE: Returning v,forces,stress,ensemble

     Writing output data file ./calc.save/
  @ DRIVER MODE: Message from server: EXIT
  @ DRIVE MODE: Exiting

     General routines

     Parallel routines

   This run was terminated on:   5:14: 3  24Aug2021

   JOB DONE.