     Program PWSCF v.6.7GPU starts on 23Aug2021 at 13:44: 4

     R & G space division:  proc/nbgrp/npool/nimage =       6
     Reading input from /storage/home/hcoda1/3/ntian30/research/carbon/CH_vib/ads_slab/CHNNHH_a/out_0002/pw.inp
Warning: card &CELL ignored
Warning: card   CELL_DYNAMICS='IPI', ignored
Warning: card / ignored

     Current dimensions of program PWSCF are:
     Max number of different atomic species (ntypx) = 10
     Max number of k-points (npk) =  40000
     Max angular momentum in pseudopotentials (lmaxx) =  3
     Presently no symmetry can be used with electric field

     Message from routine cell_base_init:
     DEPRECATED: use true lattice parameter, not A to a.u. conversion factor

     IMPORTANT: XC functional enforced from input :
     Exchange-correlation= BEEF-VDW
                           (   1   4  43  14   2   0   0)
     Any further DFT definition will be discarded
     Please, verify this is what you really want

  @ DRIVER MODE: Connecting to
 qe_1139763_2632796.sched-torque.pace.gatech.edu8miyquve_scratch
  using UNIX socket
  @ DRIVER MODE: Message from server: STATUS
  @ DRIVER MODE: Message from server: INIT
  @ DRIVER MODE: Receiving replica           0          -1
  @ DRIVER MODE: Receiving encoded integer          25
  @ DRIVER MODE:  SCF:  T  FORCE:  T  STRESS:  F  VC:  F  ENSEMBLE:  F
  @ DRIVER MODE:  SCF:  T  FORCE:  T  STRESS:  F  VC:  F  ENSEMBLE:  F

     Using Slab Decomposition

     bravais-lattice index     =            0
     lattice parameter (alat)  =       1.8897  a.u.
     unit-cell volume          =    6658.9804 (a.u.)^3
     number of atoms/cell      =           53
     number of atomic types    =            5
     number of electrons       =       395.00
     number of Kohn-Sham states=          207
     kinetic-energy cutoff     =      29.3995  Ry
     charge density cutoff     =     293.9946  Ry
     scf convergence threshold =      7.3E-08
     mixing beta               =       0.0500
     number of iterations used =            8  plain     mixing
     Exchange-correlation= BEEF-VDW
                           (   1   4  43  14   2   0   0)

     celldm(1)=   1.889726  celldm(2)=   0.000000  celldm(3)=   0.000000
     celldm(4)=   0.000000  celldm(5)=   0.000000  celldm(6)=   0.000000

     crystal axes: (cart. coord. in units of alat)
               a(1) = (   6.579727   0.000000   0.000000 )
               a(2) = (  -0.000775   5.961596   0.000000 )
               a(3) = (   0.000000   0.000000  25.155947 )

     reciprocal axes: (cart. coord. in units 2 pi/alat)
               b(1) = (  0.151982  0.000020  0.000000 )
               b(2) = (  0.000000  0.167740  0.000000 )
               b(3) = (  0.000000  0.000000  0.039752 )

     PseudoPot. # 1 for Ti read from file:
     /storage/coda1/p-amedford6/0/shared/rich_project_chbe-medford/medford-share/data/pseudos_module/espresso/nninc/pbe/van/Ti.UPF
     MD5 check sum: 8e4df49b7f0d34bbd5052bf3f5ea0213
     Pseudo is Ultrasoft, Zval = 12.0
     Generated by new atomic code, or converted to UPF format
     Using radial grid of  851 points,  6 beta functions with:
                l(1) =   0
                l(2) =   0
                l(3) =   1
                l(4) =   1
                l(5) =   2
                l(6) =   2
     Q(r) pseudized with  8 coefficients,  rinner =    1.000   1.000   1.000
                                                       1.000   1.000

     PseudoPot. # 2 for O  read from file:
     /storage/coda1/p-amedford6/0/shared/rich_project_chbe-medford/medford-share/data/pseudos_module/espresso/nninc/pbe/van/O.UPF
     MD5 check sum: 78c19812648e8988a0fe644b0f25305e
     Pseudo is Ultrasoft, Zval =  6.0
     Generated by new atomic code, or converted to UPF format
     Using radial grid of  737 points,  4 beta functions with:
                l(1) =   0
                l(2) =   0
                l(3) =   1
                l(4) =   1
     Q(r) pseudized with  8 coefficients,  rinner =    0.800   0.800   0.800

     PseudoPot. # 3 for N  read from file:
     /storage/coda1/p-amedford6/0/shared/rich_project_chbe-medford/medford-share/data/pseudos_module/espresso/nninc/pbe/van/N.UPF
     MD5 check sum: 90d10febe142ad51ac9d5be1deb811c4
     Pseudo is Ultrasoft, Zval =  5.0
     Generated by new atomic code, or converted to UPF format
     Using radial grid of  729 points,  4 beta functions with:
                l(1) =   0
                l(2) =   0
                l(3) =   1
                l(4) =   1
     Q(r) pseudized with  8 coefficients,  rinner =    0.800   0.800   0.800

     PseudoPot. # 4 for C  read from file:
     /storage/coda1/p-amedford6/0/shared/rich_project_chbe-medford/medford-share/data/pseudos_module/espresso/nninc/pbe/van/C.UPF
     MD5 check sum: 1a69bf6b8db32088f5b2163dbdb77a27
     Pseudo is Ultrasoft, Zval =  4.0
     Generated by new atomic code, or converted to UPF format
     Using radial grid of  721 points,  4 beta functions with:
                l(1) =   0
                l(2) =   0
                l(3) =   1
                l(4) =   1
     Q(r) pseudized with  8 coefficients,  rinner =    0.800   0.800   0.800

     PseudoPot. # 5 for H  read from file:
     /storage/coda1/p-amedford6/0/shared/rich_project_chbe-medford/medford-share/data/pseudos_module/espresso/nninc/pbe/van/H.UPF
     MD5 check sum: b5ee9d7bfd3a09ee7748110bda690ff7
     Pseudo is Ultrasoft, Zval =  1.0
     Generated by new atomic code, or converted to UPF format
     Using radial grid of  615 points,  1 beta functions with:
                l(1) =   0
     Q(r) pseudized with  8 coefficients,  rinner =    0.800

     atomic species   valence    mass     pseudopotential
        Ti1           12.00    47.86700     Ti( 1.00)
        O1             6.00    15.99900     O ( 1.00)
        N1             5.00    14.00700     N ( 1.00)
        C1             4.00    12.01100     C ( 1.00)
        H1             1.00     1.00800     H ( 1.00)

     No symmetry found

   Cartesian axes

     site n.     atom                  positions (alat units)
         1           Ti1 tau(   1) = (   0.0004258   2.9801865   6.0000000  )
         2           Ti1 tau(   2) = (   3.2906075   1.4906267   6.0002472  )
         3           O1  tau(   3) = (   0.0006271   0.0005054   7.9858123  )
         4           O1  tau(   4) = (   3.2906025   0.0005020   7.3038282  )
         5           O1  tau(   5) = (   4.5942328   1.4918067   9.2879030  )
         6           O1  tau(   6) = (   1.9868534   1.4903216   9.2879459  )
         7           Ti1 tau(   7) = (   3.2907910   2.8959150   9.1758416  )
         8           Ti1 tau(   8) = (   0.0015273   1.4827037   9.2680791  )
         9           O1  tau(   9) = (   3.2912281   5.9459940  11.3193265  )
        10           O1  tau(  10) = (   0.0116148   5.9584955  10.6183126  )
        11           O1  tau(  11) = (   1.3103257   1.4650607  12.6442557  )
        12           O1  tau(  12) = (   5.3047449   1.4806448  12.6312737  )
        13           Ti1 tau(  13) = (   6.5337005   3.0128982  12.6900614  )
        14           Ti1 tau(  14) = (   3.2207025   1.4698770  12.4715817  )
        15           O1  tau(  15) = (   6.5518216   5.9146589  14.6704082  )
        16           O1  tau(  16) = (   3.3240203   5.9583723  13.8895330  )
        17           O1  tau(  17) = (   4.5456974   1.5225049  16.1264218  )
        18           O1  tau(  18) = (   2.0489736   1.4727210  15.9535721  )
        19           Ti1 tau(  19) = (   3.2591190   2.9927146  15.6788090  )
        20           Ti1 tau(  20) = (   0.0289511   1.3544711  15.7732889  )
        21           O1  tau(  21) = (   3.2904802   0.0005063   4.7018136  )
        22           O1  tau(  22) = (   0.0559926   0.0451390  17.2112278  )
        23           O1  tau(  23) = (   1.3043587   1.4918075   6.0039043  )
        24           O1  tau(  24) = (   5.2767064   1.4903225   6.0039473  )
        25           Ti1 tau(  25) = (   0.0000382   5.9609847   6.0000000  )
        26           Ti1 tau(  26) = (   3.2902200   4.4714249   6.0002472  )
        27           O1  tau(  27) = (   0.0002396   2.9813036   7.9858123  )
        28           O1  tau(  28) = (   3.2902150   2.9813002   7.3038282  )
        29           O1  tau(  29) = (   4.5938453   4.4726049   9.2879030  )
        30           O1  tau(  30) = (   1.9864658   4.4711199   9.2879459  )
        31           Ti1 tau(  31) = (   3.2891106   5.8743827   9.1763621  )
        32           Ti1 tau(  32) = (   0.0006254   4.4649316   9.2693709  )
        33           O1  tau(  33) = (   3.2889932   2.9698301  11.3211337  )
        34           O1  tau(  34) = (   0.0092240   2.9805883  10.6323155  )
        35           O1  tau(  35) = (   1.3069247   4.4567274  12.6410950  )
        36           O1  tau(  36) = (   5.3013738   4.4587240  12.6283471  )
        37           Ti1 tau(  37) = (   6.5339814   0.0202798  12.5235249  )
        38           Ti1 tau(  38) = (   3.2191325   4.4512509  12.4750946  )
        39           O1  tau(  39) = (   6.5688456   2.9522374  14.7547250  )
        40           O1  tau(  40) = (   3.3031296   2.9710333  13.8824388  )
        41           O1  tau(  41) = (   4.5425837   4.4734130  15.9989242  )
        42           O1  tau(  42) = (   2.0771424   4.4889556  16.0364895  )
        43           Ti1 tau(  43) = (   3.3121389   0.0026565  15.6888161  )
        44           Ti1 tau(  44) = (   6.5128106   4.4989306  16.3061806  )
        45           O1  tau(  45) = (   3.2900926   2.9813045   4.7018136  )
        46           O1  tau(  46) = (   1.3039711   4.4726057   6.0039043  )
        47           O1  tau(  47) = (   5.2763189   4.4711207   6.0039473  )
        48           N1  tau(  48) = (   0.4728824   2.9849886  17.7976856  )
        49           C1  tau(  49) = (   1.4182946   2.9518240  18.6700831  )
        50           H1  tau(  50) = (   2.3503500   2.6458988  18.1556329  )
        51           N1  tau(  51) = (   5.7893717   3.5482605  18.2279111  )
        52           H1  tau(  52) = (   5.8942619   4.0012392  19.1365464  )
        53           H1  tau(  53) = (   5.0734348   2.8266848  18.2415795  )

     number of k points=    10  Fermi-Dirac smearing, width (Ry)=  0.0073
                       cart. coord. in units 2pi/alat
        k(    1) = (   0.0000000   0.0000000   0.0000000), wk =   0.1250000
        k(    2) = (   0.0000000   0.0419351   0.0000000), wk =   0.2500000
        k(    3) = (   0.0000000  -0.0838702   0.0000000), wk =   0.1250000
        k(    4) = (   0.0379955   0.0000049   0.0000000), wk =   0.2500000
        k(    5) = (   0.0379955   0.0419400   0.0000000), wk =   0.2500000
        k(    6) = (   0.0379955  -0.0838652   0.0000000), wk =   0.2500000
        k(    7) = (   0.0379955  -0.0419301   0.0000000), wk =   0.2500000
        k(    8) = (  -0.0759910  -0.0000099   0.0000000), wk =   0.1250000
        k(    9) = (  -0.0759910   0.0419252   0.0000000), wk =   0.2500000
        k(   10) = (  -0.0759910  -0.0838800   0.0000000), wk =   0.1250000

     Initial potential from superposition of free atoms

     starting charge  378.99916, renormalised to  395.00000

     negative rho (up, down):  1.775E-02 0.000E+00

     %%%%%%%%%%%%%%%%%%%%%%%%%%%%%%%%%%%%%%%%%%%%%%%%%%%%%%%%%%%%%%%%%%%%%%%%
     %                                                                      %
     % You are using vdW-DF, which was implemented by the Thonhauser group. %
     % Please cite the following two papers that made this development      %
     % possible and the two reviews that describe the various versions:     %
     %                                                                      %
     %   T. Thonhauser et al., PRL 115, 136402 (2015).                      %
     %   T. Thonhauser et al., PRB 76, 125112 (2007).                       %
     %   K. Berland et al., Rep. Prog. Phys. 78, 066501 (2015).             %
     %   D.C. Langreth et al., J. Phys.: Condens. Matter 21, 084203 (2009). %
     %                                                                      %
     %                                                                      %
     % If you are calculating the stress with vdW-DF, please also cite:     %
     %                                                                      %
     %   R. Sabatini et al., J. Phys.: Condens. Matter 24, 424209 (2012).   %
     %                                                                      %
     %%%%%%%%%%%%%%%%%%%%%%%%%%%%%%%%%%%%%%%%%%%%%%%%%%%%%%%%%%%%%%%%%%%%%%%%

     Adding external electric field

     Computed dipole along edir(3) :
        Dipole               -8.0620 Ry au,        -20.4914 Debye
        Dipole field         -0.0152 Ry au,

        Potential amp.        1.4103 Ry
        Total length         46.3494 bohr

     Starting wfcs are  299 atomic wfcs
  @ DRIVER MODE: Message from server: STATUS
  @ DRIVER MODE: Message from server: POSDATA
  @ DRIVER MODE: Reading and sharing cell
  @ DRIVER MODE: Reading and sharing positions
  @ DRIVER MODE: Received positions

     Self-consistent Calculation

     iteration #  1     ecut=    29.40 Ry     beta= 0.05
     Davidson diagonalization with overlap
     c_bands:  1 eigenvalues not converged
     c_bands:  1 eigenvalues not converged
     c_bands:  2 eigenvalues not converged
     c_bands:  3 eigenvalues not converged
     c_bands:  3 eigenvalues not converged
     c_bands:  2 eigenvalues not converged
     c_bands:  1 eigenvalues not converged
     ethr =  1.00E-05,  avg # of iterations = 19.3

[...]

     total energy              =   -2614.88424739 Ry
     estimated scf accuracy    <    3583.69966731 Ry

[...]

     iteration #  3     ecut=    29.40 Ry     beta= 0.05
     Davidson diagonalization with overlap
     ethr =  1.00E-02,  avg # of iterations = 14.5

[...]

     iteration # 43     ecut=    29.40 Ry     beta= 0.05
     Davidson diagonalization with overlap
     c_bands:  1 eigenvalues not converged
     ethr =  3.03E-07,  avg # of iterations = 11.9

[...]

     total energy              =   -2939.00593138 Ry
     estimated scf accuracy    <       0.00000021 Ry

     iteration # 72     ecut=    29.40 Ry     beta= 0.05
     Davidson diagonalization with overlap
     ethr =  2.86E-11,  avg # of iterations =  8.9

     negative rho (up, down):  1.647E-02 0.000E+00

     Adding external electric field

     Computed dipole along edir(3) :
        Dipole                0.3039 Ry au,          0.7724 Debye
        Dipole field          0.0006 Ry au,

        Potential amp.       -0.0532 Ry
        Total length         46.3494 bohr

     End of self-consistent calculation

          k = 0.0000 0.0000 0.0000 ( 18029 PWs)   bands (ev):

   -56.1080 -56.1056 -56.0739 -56.0693 -55.9961 -55.9613 -55.9558 -55.9204
   -55.9052 -55.8710 -55.8698 -55.8355 -55.6518 -55.5881 -55.0777 -55.0437
   -32.6647 -32.5891 -32.4877 -32.4271 -32.4130 -32.4091 -32.4006 -32.3609
   -32.3481 -32.3333 -32.3072 -32.2860 -32.2796 -32.2604 -32.2532 -32.2464
   -32.2110 -32.1977 -32.1953 -32.1908 -32.1866 -32.1654 -32.1610 -32.1431
   -32.1186 -32.1039 -32.1028 -32.1015 -32.0968 -32.0932 -32.0720 -32.0451
   -32.0447 -32.0298 -32.0229 -32.0033 -31.9818 -31.9560 -31.8787 -31.8500
   -31.8033 -31.7408 -31.4844 -31.3971 -31.3746 -31.3014 -31.2149 -31.1037
   -17.9182 -16.8738 -16.5840 -16.3682 -16.2631 -16.2479 -16.1414 -15.9561
   -15.8228 -15.7946 -15.6879 -15.6814 -15.6402 -15.6283 -15.5988 -15.5752
   -15.5669 -15.5405 -15.5378 -15.5215 -15.4773 -15.4540 -15.4347 -15.3395
   -15.2988 -15.2381 -15.2161 -15.1550 -15.0329 -14.7990 -13.5799 -13.4636
   -13.3635  -8.0108  -6.3319  -4.3493  -4.2479  -4.0714  -4.0105  -3.9673
    -3.9585  -3.7204  -3.6875  -3.3288  -3.2962  -3.2754  -3.2658  -3.2546
    -3.1257  -3.0201  -2.9651  -2.9223  -2.9121  -2.9011  -2.8940  -2.8813
    -2.8553  -2.8331  -2.7311  -2.6846  -2.6539  -2.5429  -2.5260  -2.4300
    -2.4177  -2.4062  -2.3716  -2.3509  -2.3429  -2.3172  -2.3058  -2.2747
    -2.1958  -2.1457  -2.0303  -1.9710  -1.8884  -1.8537  -1.7044  -1.6618
    -1.5744  -1.5671  -1.5487  -1.5257  -1.4925  -1.4065  -1.3363  -1.2431
    -1.2000  -1.1638  -1.1273  -1.0842  -1.0023  -0.9835  -0.9661  -0.8700
    -0.8660  -0.8567  -0.8143  -0.6130  -0.5895  -0.5534  -0.5409  -0.4648
    -0.4051  -0.3899  -0.3678  -0.3201  -0.2595  -0.1968  -0.1506  -0.1356
    -0.1240  -0.1206  -0.0866  -0.0604   0.0823   0.0925   0.1867   0.1991
     0.2208   0.3481   0.5223   0.5613   0.5768   0.6993   0.8754   0.9446
     1.0464   1.1376   1.5150   1.5603   2.4137   3.0299   3.1161   3.1498
     3.1693   3.2747   3.3077   3.4774   3.4928   3.5277   3.5472

[...]

          k = 0.0380-0.0419 0.0000 ( 17876 PWs)   bands (ev):

[...]

          k =-0.0760-0.0000 0.0000 ( 17886 PWs)   bands (ev):

[...]

          k =-0.0760-0.0839 0.0000 ( 17948 PWs)   bands (ev):

   -56.0920 -56.0898 -56.0893 -56.0853 -55.9870 -55.9649 -55.9517 -55.9299
   -55.8901 -55.8857 -55.8561 -55.8494 -55.6487 -55.5911 -55.0607 -55.0606
   -32.4681 -32.4636 -32.4050 -32.4038 -32.3869 -32.3853 -32.3667 -32.3545
   -32.3357 -32.3162 -32.2925 -32.2761 -32.2504 -32.2407 -32.2397 -32.2214
   -32.2211 -32.2118 -32.2094 -32.2037 -32.2025 -32.1946 -32.1888 -32.1746
   -32.1698 -32.1513 -32.1352 -32.1326 -32.0897 -32.0878 -32.0859 -32.0820
   -32.0748 -32.0710 -32.0678 -32.0657 -32.0618 -31.9741 -31.8904 -31.8433
   -31.8066 -31.7968 -31.3874 -31.3873 -31.2973 -31.2971 -31.2582 -31.2581
   -17.9077 -16.3096 -16.2937 -16.0773 -16.0326 -16.0284 -16.0077 -15.9195
   -15.8289 -15.8099 -15.7958 -15.7781 -15.7630 -15.6831 -15.6576 -15.6352
   -15.6313 -15.6186 -15.5637 -15.5579 -15.5546 -15.5498 -15.5298 -15.4967
   -15.4142 -15.4092 -15.3990 -15.1610 -15.0953 -15.0236 -13.5657 -13.5652
   -13.3764  -7.9680  -6.2705  -4.3644  -3.6023  -3.5838  -3.3557  -3.2993
    -3.2828  -3.2740  -3.1600  -3.0580  -3.0282  -3.0157  -2.9768  -2.9589
    -2.9461  -2.9339  -2.9211  -2.9019  -2.8762  -2.8431  -2.8375  -2.7912
    -2.7744  -2.7534  -2.7360  -2.7143  -2.7134  -2.6727  -2.6664  -2.6281
    -2.5901  -2.5425  -2.4303  -2.3816  -2.3434  -2.2927  -2.2368  -2.2257
    -2.2173  -2.1632  -2.1580  -2.1225  -2.0382  -1.9635  -1.8281  -1.8061
    -1.7731  -1.7332  -1.6993  -1.6058  -1.5595  -1.5088  -1.4571  -1.4012
    -1.3891  -1.3468  -1.3105  -1.2432  -1.2267  -1.1863  -1.1662  -1.1036
    -1.0613  -1.0572  -0.9937  -0.9263  -0.8688  -0.8663  -0.8457  -0.8295
    -0.7726  -0.7242  -0.6578  -0.6085  -0.5668  -0.4708  -0.4132  -0.2991
    -0.1884  -0.0694   0.0018   0.0056   0.0612   0.1387   0.1835   0.2189
     0.2277   0.2447   0.3390   0.4097   0.4299   0.4422   0.5022   0.6966
     1.3094   1.3106   1.3796   1.3805   2.4085   3.3181   3.3563   3.3706
     3.4016   3.5468   3.5494   3.5616   3.5652   3.6837   3.7277

     the Fermi energy is     3.0271 ev

!    total energy              =   -2939.00594464 Ry
     estimated scf accuracy    <       0.00000003 Ry
     smearing contrib. (-TS)   =      -0.02202416 Ry
     internal energy E=F+TS    =   -2938.98392048 Ry

     The total energy is F=E-TS. E is the sum of the following terms:
     one-electron contribution =  -24452.63035627 Ry
     hartree contribution      =   12311.37420272 Ry
     xc contribution           =    -485.13131932 Ry
     ewald contribution        =    9687.40337813 Ry
     electric field correction =       0.00017426 Ry

     convergence has been achieved in  72 iterations

     Forces acting on atoms (cartesian axes, Ry/au):

     atom    1 type  1   force =     0.00017988   -0.00028079    0.09692071
     atom    2 type  1   force =     0.00006584   -0.00078237   -0.17499390
     atom    3 type  2   force =     0.00014690   -0.00008629   -0.02554887
     atom    4 type  2   force =    -0.00003231   -0.00142531    0.05153073
     atom    5 type  2   force =    -0.01204908   -0.00173137    0.00279595
     atom    6 type  2   force =     0.01346488   -0.00134191    0.00223638
     atom    7 type  1   force =     0.00041084    0.00015506   -0.01208793
     atom    8 type  1   force =     0.00019533    0.02418238    0.02897526
     atom    9 type  2   force =    -0.00004098    0.00051830   -0.00005902
     atom   10 type  2   force =    -0.00266259    0.00014721   -0.01162127
     atom   11 type  2   force =    -0.00003588    0.00026818    0.00004804
     atom   12 type  2   force =    -0.00024351   -0.00000912    0.00014208
     atom   13 type  1   force =    -0.00012254    0.00114293   -0.00022554
     atom   14 type  1   force =     0.00000268    0.00050979    0.00004397
     atom   15 type  2   force =     0.00010936   -0.00006749   -0.00001242
     atom   16 type  2   force =    -0.00021338    0.00023048   -0.00032457
     atom   17 type  2   force =     0.00044438    0.00017885   -0.00041018
     atom   18 type  2   force =    -0.00014270    0.00005220   -0.00018598
     atom   19 type  1   force =    -0.00009746   -0.00019692   -0.00049941
     atom   20 type  1   force =     0.00022421   -0.00030260   -0.00037268
     atom   21 type  2   force =     0.00006660   -0.00007194    0.10298934
     atom   22 type  2   force =    -0.00000498   -0.00016398   -0.00055654
     atom   23 type  2   force =    -0.07170011   -0.00017220   -0.02790736
     atom   24 type  2   force =     0.07160289    0.00028803   -0.02794311
     atom   25 type  1   force =     0.00003139   -0.00025541    0.09682523
     atom   26 type  1   force =    -0.00000374   -0.00018097   -0.17515506
     atom   27 type  2   force =     0.00015753   -0.00026862   -0.02421296
     atom   28 type  2   force =     0.00001457   -0.00118029    0.05208045
     atom   29 type  2   force =    -0.01220662    0.00078136    0.00247156
     atom   30 type  2   force =     0.01350667    0.00126083    0.00188465
     atom   31 type  1   force =     0.00045382    0.00286305   -0.01396074
     atom   32 type  1   force =     0.00039213   -0.02517883    0.03047137
     atom   33 type  2   force =     0.00004698   -0.00008069   -0.00016502
     atom   34 type  2   force =    -0.00184306   -0.00050176   -0.02068936
     atom   35 type  2   force =    -0.00001125    0.00021559   -0.00005093
     atom   36 type  2   force =     0.00018071    0.00032900    0.00017059
     atom   37 type  1   force =    -0.00021584   -0.00084929   -0.00007238
     atom   38 type  1   force =     0.00008515    0.00011898   -0.00020830
     atom   39 type  2   force =     0.00004128    0.00037331   -0.00003325
     atom   40 type  2   force =    -0.00007226    0.00008669    0.00039185
     atom   41 type  2   force =     0.00060902    0.00007514   -0.00016752
     atom   42 type  2   force =    -0.00025364    0.00004131   -0.00035603
     atom   43 type  1   force =    -0.00034787    0.00032181    0.00012512
     atom   44 type  1   force =     0.00030874    0.00013865    0.00045262
     atom   45 type  2   force =     0.00005359   -0.00006744    0.10300841
     atom   46 type  2   force =    -0.07172965   -0.00011831   -0.02790288
     atom   47 type  2   force =     0.07161547    0.00025765   -0.02792703
     atom   48 type  3   force =    -0.01669304    0.00288587   -0.00523272
     atom   49 type  4   force =     0.00984704   -0.00121808    0.00616768
     atom   50 type  5   force =     0.00165544    0.00063090    0.00096477
     atom   51 type  3   force =     0.00370846   -0.00038997   -0.00162616
     atom   52 type  5   force =     0.00010273   -0.00037839   -0.00038232
     atom   53 type  5   force =     0.00099800   -0.00075322    0.00019467

     Total force =     0.369645     Total SCF correction =     0.000696
  @ DRIVER MODE: Message from server: STATUS
  @ DRIVER MODE: Message from server: GETFORCE
  @ DRIVER MODE: Returning v,forces,stress,ensemble

     Writing output data file ./calc.save/
  @ DRIVER MODE: Message from server: EXIT
  @ DRIVE MODE: Exiting

     General routines

     Parallel routines

   This run was terminated on:  14:17:32  23Aug2021

   JOB DONE.