     Program PWSCF v.6.7GPU starts on 24Sep2021 at  9:25:45

     R & G space division:  proc/nbgrp/npool/nimage =       8
     Reading input from /storage/home/hcoda1/3/ntian30/research/carbon/CxH_vib/H2O_calc/ads_slab/CH3NH2NHHO_c/out_0052/pw.inp
Warning: card &CELL ignored
Warning: card   CELL_DYNAMICS='IPI', ignored
Warning: card / ignored

     Current dimensions of program PWSCF are:
     Max number of different atomic species (ntypx) = 10
     Max number of k-points (npk) =  40000
     Max angular momentum in pseudopotentials (lmaxx) =  3
     Presently no symmetry can be used with electric field

     Message from routine cell_base_init:
     DEPRECATED: use true lattice parameter, not A to a.u. conversion factor

     IMPORTANT: XC functional enforced from input :
     Exchange-correlation= BEEF-VDW
                           (   1   4  43  14   2   0   0)
     Any further DFT definition will be discarded
     Please, verify this is what you really want

  @ DRIVER MODE: Connecting to
 qe_1139763_2947310.sched-torque.pace.gatech.edufsepj4d4_scratch
  using UNIX socket
  @ DRIVER MODE: Message from server: STATUS
  @ DRIVER MODE: Message from server: INIT
  @ DRIVER MODE: Receiving replica           0          -1
  @ DRIVER MODE: Receiving encoded integer          25
  @ DRIVER MODE:  SCF:  T  FORCE:  T  STRESS:  F  VC:  F  ENSEMBLE:  F
  @ DRIVER MODE:  SCF:  T  FORCE:  T  STRESS:  F  VC:  F  ENSEMBLE:  F

     Using Slab Decomposition

     bravais-lattice index     =            0
     lattice parameter (alat)  =       1.8897  a.u.
     unit-cell volume          =    6658.9804 (a.u.)^3
     number of atoms/cell      =           58
     number of atomic types    =            5
     number of electrons       =       405.00
     number of Kohn-Sham states=          212
     kinetic-energy cutoff     =      29.3995  Ry
     charge density cutoff     =     293.9946  Ry
     scf convergence threshold =      7.3E-08
     mixing beta               =       0.0500
     number of iterations used =            8  plain     mixing
     Exchange-correlation= BEEF-VDW
                           (   1   4  43  14   2   0   0)

     celldm(1)=   1.889726  celldm(2)=   0.000000  celldm(3)=   0.000000
     celldm(4)=   0.000000  celldm(5)=   0.000000  celldm(6)=   0.000000

     crystal axes: (cart. coord. in units of alat)
               a(1) = (   6.579727   0.000000   0.000000 )
               a(2) = (  -0.000775   5.961596   0.000000 )
               a(3) = (   0.000000   0.000000  25.155947 )

     reciprocal axes: (cart. coord. in units 2 pi/alat)
               b(1) = (  0.151982  0.000020  0.000000 )
               b(2) = (  0.000000  0.167740  0.000000 )
               b(3) = (  0.000000  0.000000  0.039752 )

     PseudoPot. # 1 for Ti read from file:
     /storage/coda1/p-amedford6/0/shared/rich_project_chbe-medford/medford-share/data/pseudos_module/espresso/nninc/pbe/van/Ti.UPF
     MD5 check sum: 8e4df49b7f0d34bbd5052bf3f5ea0213
     Pseudo is Ultrasoft, Zval = 12.0
     Generated by new atomic code, or converted to UPF format
     Using radial grid of  851 points,  6 beta functions with:
                l(1) =   0
                l(2) =   0
                l(3) =   1
                l(4) =   1
                l(5) =   2
                l(6) =   2
     Q(r) pseudized with  8 coefficients,  rinner =    1.000   1.000   1.000
                                                       1.000   1.000

     PseudoPot. # 2 for O  read from file:
     /storage/coda1/p-amedford6/0/shared/rich_project_chbe-medford/medford-share/data/pseudos_module/espresso/nninc/pbe/van/O.UPF
     MD5 check sum: 78c19812648e8988a0fe644b0f25305e
     Pseudo is Ultrasoft, Zval =  6.0
     Generated by new atomic code, or converted to UPF format
     Using radial grid of  737 points,  4 beta functions with:
                l(1) =   0
                l(2) =   0
                l(3) =   1
                l(4) =   1
     Q(r) pseudized with  8 coefficients,  rinner =    0.800   0.800   0.800

     PseudoPot. # 3 for N  read from file:
     /storage/coda1/p-amedford6/0/shared/rich_project_chbe-medford/medford-share/data/pseudos_module/espresso/nninc/pbe/van/N.UPF
     MD5 check sum: 90d10febe142ad51ac9d5be1deb811c4
     Pseudo is Ultrasoft, Zval =  5.0
     Generated by new atomic code, or converted to UPF format
     Using radial grid of  729 points,  4 beta functions with:
                l(1) =   0
                l(2) =   0
                l(3) =   1
                l(4) =   1
     Q(r) pseudized with  8 coefficients,  rinner =    0.800   0.800   0.800

     PseudoPot. # 4 for C  read from file:
     /storage/coda1/p-amedford6/0/shared/rich_project_chbe-medford/medford-share/data/pseudos_module/espresso/nninc/pbe/van/C.UPF
     MD5 check sum: 1a69bf6b8db32088f5b2163dbdb77a27
     Pseudo is Ultrasoft, Zval =  4.0
     Generated by new atomic code, or converted to UPF format
     Using radial grid of  721 points,  4 beta functions with:
                l(1) =   0
                l(2) =   0
                l(3) =   1
                l(4) =   1
     Q(r) pseudized with  8 coefficients,  rinner =    0.800   0.800   0.800

     PseudoPot. # 5 for H  read from file:
     /storage/coda1/p-amedford6/0/shared/rich_project_chbe-medford/medford-share/data/pseudos_module/espresso/nninc/pbe/van/H.UPF
     MD5 check sum: b5ee9d7bfd3a09ee7748110bda690ff7
     Pseudo is Ultrasoft, Zval =  1.0
     Generated by new atomic code, or converted to UPF format
     Using radial grid of  615 points,  1 beta functions with:
                l(1) =   0
     Q(r) pseudized with  8 coefficients,  rinner =    0.800

     atomic species   valence    mass     pseudopotential
        Ti1           12.00    47.86700     Ti( 1.00)
        O1             6.00    15.99900     O ( 1.00)
        N1             5.00    14.00700     N ( 1.00)
        C1             4.00    12.01100     C ( 1.00)
        H1             1.00     1.00800     H ( 1.00)

     No symmetry found

   Cartesian axes

     site n.     atom                  positions (alat units)
         1           Ti1 tau(   1) = (   0.0004258   2.9801865   6.0000000  )
         2           Ti1 tau(   2) = (   3.2906075   1.4906267   6.0002472  )
         3           O1  tau(   3) = (   0.0006271   0.0005054   7.9858123  )
         4           O1  tau(   4) = (   3.2906025   0.0005020   7.3038282  )
         5           O1  tau(   5) = (   4.5942328   1.4918067   9.2879030  )
         6           O1  tau(   6) = (   1.9868534   1.4903216   9.2879459  )
         7           Ti1 tau(   7) = (   3.2907910   2.8959150   9.1758416  )
         8           Ti1 tau(   8) = (   0.0015273   1.4827037   9.2680791  )
         9           O1  tau(   9) = (   3.2766908   5.9368450  11.3531397  )
        10           O1  tau(  10) = (   0.0116148   5.9584955  10.6183126  )
        11           O1  tau(  11) = (   1.2656210   1.4746568  12.6519442  )
        12           O1  tau(  12) = (   5.2821112   1.4671822  12.6528637  )
        13           Ti1 tau(  13) = (   0.0097886   3.0246942  12.5604876  )
        14           Ti1 tau(  14) = (   3.2716845   1.2919425  12.6923688  )
        15           O1  tau(  15) = (   6.5701288   5.9533353  14.7096902  )
        16           O1  tau(  16) = (   3.2612835   0.0684280  14.0222998  )
        17           O1  tau(  17) = (   4.5366247   1.5847279  16.0182572  )
        18           O1  tau(  18) = (   1.9973522   1.5932486  16.1410213  )
        19           Ti1 tau(  19) = (   3.3011230   3.0369928  15.6528835  )
        20           Ti1 tau(  20) = (   6.4616919   1.5442775  15.7581475  )
        21           O1  tau(  21) = (   3.2904802   0.0005063   4.7018136  )
        22           O1  tau(  22) = (   6.5264998   0.0144113  17.2942622  )
        23           O1  tau(  23) = (   1.3043587   1.4918075   6.0039043  )
        24           O1  tau(  24) = (   5.2767064   1.4903225   6.0039473  )
        25           Ti1 tau(  25) = (   0.0000382   5.9609847   6.0000000  )
        26           Ti1 tau(  26) = (   3.2902200   4.4714249   6.0002472  )
        27           O1  tau(  27) = (   0.0002396   2.9813036   7.9858123  )
        28           O1  tau(  28) = (   3.2902150   2.9813002   7.3038282  )
        29           O1  tau(  29) = (   4.5938453   4.4726049   9.2879030  )
        30           O1  tau(  30) = (   1.9864658   4.4711199   9.2879459  )
        31           Ti1 tau(  31) = (   3.2891106   5.8743827   9.1763621  )
        32           Ti1 tau(  32) = (   0.0006254   4.4649316   9.2693709  )
        33           O1  tau(  33) = (   3.2807216   2.9716845  11.3098041  )
        34           O1  tau(  34) = (   0.0092240   2.9805883  10.6323155  )
        35           O1  tau(  35) = (   1.2724369   4.4570745  12.6376724  )
        36           O1  tau(  36) = (   5.2808598   4.4590940  12.6336130  )
        37           Ti1 tau(  37) = (   6.5522345   0.0346224  12.5198063  )
        38           Ti1 tau(  38) = (   3.2841791   4.3624788  12.4156291  )
        39           O1  tau(  39) = (   6.5678423   2.9906399  14.7075790  )
        40           O1  tau(  40) = (   3.2630306   2.9991211  13.8878987  )
        41           O1  tau(  41) = (   4.5399391   4.4365880  16.1202346  )
        42           O1  tau(  42) = (   1.9952260   4.4486394  16.1468368  )
        43           Ti1 tau(  43) = (   3.1909378   0.0332154  16.1742435  )
        44           Ti1 tau(  44) = (   6.5525253   4.6749982  16.1158565  )
        45           O1  tau(  45) = (   3.2900926   2.9813045   4.7018136  )
        46           O1  tau(  46) = (   1.3039711   4.4726057   6.0039043  )
        47           O1  tau(  47) = (   5.2763189   4.4711207   6.0039473  )
        48           N1  tau(  48) = (   0.9351815   2.3805788  18.4294677  )
        49           N1  tau(  49) = (   6.5001775   2.8750743  17.5309975  )
        50           C1  tau(  50) = (   1.3386797   3.2909482  19.5301671  )
        51           H1  tau(  51) = (   0.4734699   3.4817333  20.1622224  )
        52           H1  tau(  52) = (   2.1262835   2.8019037  20.1042238  )
        53           H1  tau(  53) = (   1.7016266   4.2178517  19.0939426  )
        54           H1  tau(  54) = (   0.6429753   1.4474929  18.7566963  )
        55           H1  tau(  55) = (   5.6191021   2.8022447  18.0351622  )
        56           H1  tau(  56) = (   1.7303324   2.1540475  17.7969061  )
        57           O1  tau(  57) = (   3.3671931   0.1367260  18.0860582  )
        58           H1  tau(  58) = (   4.3009782   5.9598238  18.3144400  )

     number of k points=    10  Fermi-Dirac smearing, width (Ry)=  0.0073
                       cart. coord. in units 2pi/alat
        k(    1) = (   0.0000000   0.0000000   0.0000000), wk =   0.1250000
        k(    2) = (   0.0000000   0.0419351   0.0000000), wk =   0.2500000
        k(    3) = (   0.0000000  -0.0838702   0.0000000), wk =   0.1250000
        k(    4) = (   0.0379955   0.0000049   0.0000000), wk =   0.2500000
        k(    5) = (   0.0379955   0.0419400   0.0000000), wk =   0.2500000
        k(    6) = (   0.0379955  -0.0838652   0.0000000), wk =   0.2500000
        k(    7) = (   0.0379955  -0.0419301   0.0000000), wk =   0.2500000
        k(    8) = (  -0.0759910  -0.0000099   0.0000000), wk =   0.1250000
        k(    9) = (  -0.0759910   0.0419252   0.0000000), wk =   0.2500000
        k(   10) = (  -0.0759910  -0.0838800   0.0000000), wk =   0.1250000

     Initial potential from superposition of free atoms

     starting charge  388.99913, renormalised to  405.00000

     negative rho (up, down):  1.469E-02 0.000E+00

     %%%%%%%%%%%%%%%%%%%%%%%%%%%%%%%%%%%%%%%%%%%%%%%%%%%%%%%%%%%%%%%%%%%%%%%%
     %                                                                      %
     % You are using vdW-DF, which was implemented by the Thonhauser group. %
     % Please cite the following two papers that made this development      %
     % possible and the two reviews that describe the various versions:     %
     %                                                                      %
     %   T. Thonhauser et al., PRL 115, 136402 (2015).                      %
     %   T. Thonhauser et al., PRB 76, 125112 (2007).                       %
     %   K. Berland et al., Rep. Prog. Phys. 78, 066501 (2015).             %
     %   D.C. Langreth et al., J. Phys.: Condens. Matter 21, 084203 (2009). %
     %                                                                      %
     %                                                                      %
     % If you are calculating the stress with vdW-DF, please also cite:     %
     %                                                                      %
     %   R. Sabatini et al., J. Phys.: Condens. Matter 24, 424209 (2012).   %
     %                                                                      %
     %%%%%%%%%%%%%%%%%%%%%%%%%%%%%%%%%%%%%%%%%%%%%%%%%%%%%%%%%%%%%%%%%%%%%%%%

     Adding external electric field

     Computed dipole along edir(3) :
        Dipole              -13.9957 Ry au,        -35.5736 Debye
        Dipole field         -0.0264 Ry au,

        Potential amp.        2.4483 Ry
        Total length         46.3494 bohr

     Starting wfcs are  307 atomic wfcs
  @ DRIVER MODE: Message from server: STATUS
  @ DRIVER MODE: Message from server: POSDATA
  @ DRIVER MODE: Reading and sharing cell
  @ DRIVER MODE: Reading and sharing positions
  @ DRIVER MODE: Received positions

     Self-consistent Calculation

     iteration #  1     ecut=    29.40 Ry     beta= 0.05
     Davidson diagonalization with overlap
     c_bands:  5 eigenvalues not converged
     c_bands:  5 eigenvalues not converged
     c_bands:  1 eigenvalues not converged
     c_bands:  2 eigenvalues not converged
     c_bands:  3 eigenvalues not converged
     ethr =  1.00E-05,  avg # of iterations = 28.6

[...]

     total energy              =   -2225.12513218 Ry
     estimated scf accuracy    <    8520.70607537 Ry

[...]

     iteration #  3     ecut=    29.40 Ry     beta= 0.05
     Davidson diagonalization with overlap
     ethr =  1.00E-02,  avg # of iterations = 16.2

[...]

     iteration # 37     ecut=    29.40 Ry     beta= 0.05
     Davidson diagonalization with overlap
     c_bands:  1 eigenvalues not converged
     ethr =  7.29E-07,  avg # of iterations =  5.8

[...]

     total energy              =   -2976.49314025 Ry
     estimated scf accuracy    <       0.00000012 Ry

     iteration # 57     ecut=    29.40 Ry     beta= 0.05
     Davidson diagonalization with overlap
     ethr =  2.86E-11,  avg # of iterations =  6.2

     negative rho (up, down):  1.567E-02 0.000E+00

     Adding external electric field

     Computed dipole along edir(3) :
        Dipole                1.5019 Ry au,          3.8175 Debye
        Dipole field          0.0028 Ry au,

        Potential amp.       -0.2627 Ry
        Total length         46.3494 bohr

     End of self-consistent calculation

          k = 0.0000 0.0000 0.0000 ( 18029 PWs)   bands (ev):

   -55.2973 -55.1732 -55.1392 -55.0035 -54.9939 -54.9895 -54.9686 -54.9603
   -54.9302 -54.8815 -54.8493 -54.8130 -54.7919 -54.7510 -54.1367 -54.1027
   -31.6559 -31.6248 -31.5437 -31.4952 -31.4930 -31.4881 -31.4653 -31.4461
   -31.4188 -31.4142 -31.3694 -31.3346 -31.3255 -31.2780 -31.2651 -31.2577
   -31.2511 -31.2306 -31.2149 -31.1979 -31.1842 -31.1819 -31.1714 -31.1680
   -31.1491 -31.1261 -31.1238 -31.1202 -31.1104 -31.1026 -31.0965 -31.0762
   -31.0683 -31.0542 -31.0369 -31.0243 -31.0226 -31.0108 -31.0077 -31.0067
   -30.9805 -30.9411 -30.5424 -30.4572 -30.4346 -30.3600 -30.2736 -30.1618
   -18.8807 -16.0434 -15.8057 -15.6546 -15.4863 -15.3410 -15.2546 -15.0550
   -14.9392 -14.8986 -14.8817 -14.8076 -14.7050 -14.7045 -14.6605 -14.6333
   -14.6292 -14.6004 -14.5889 -14.5871 -14.5685 -14.5202 -14.5052 -14.4602
   -14.4540 -14.4149 -14.3027 -14.2331 -14.1885 -14.1160 -13.9989 -13.0911
   -12.6360 -12.5198 -10.7871  -7.6047  -6.2343  -5.5868  -3.7420  -3.6336
    -3.4421  -3.1659  -3.0997  -3.0711  -3.0440  -2.8908  -2.7654  -2.5851
    -2.4765  -2.4305  -2.3125  -2.2951  -2.2135  -2.1649  -2.1205  -2.0725
    -2.0424  -1.9773  -1.9599  -1.9554  -1.9272  -1.8605  -1.8327  -1.7176
    -1.6883  -1.6246  -1.5674  -1.4986  -1.4814  -1.4749  -1.4676  -1.4564
    -1.4276  -1.4125  -1.3811  -1.3410  -1.2606  -1.2068  -1.1994  -1.1597
    -1.0763  -0.8908  -0.7676  -0.7434  -0.6854  -0.6419  -0.5907  -0.5785
    -0.5552  -0.5163  -0.4109  -0.3976  -0.3337  -0.3051  -0.2414  -0.1914
    -0.1637  -0.1005  -0.0388   0.0483   0.0689   0.0871   0.1286   0.1753
     0.2472   0.2830   0.3222   0.3522   0.4409   0.4942   0.5544   0.5610
     0.5934   0.6658   0.7223   0.7696   0.7902   0.8092   0.8605   0.8767
     0.9197   0.9750   1.0154   1.0310   1.1017   1.1603   1.2081   1.2408
     1.3386   1.3535   1.5135   1.5688   1.8365   1.8890   1.9566   2.0825
     2.4554   2.5002   3.9353   4.0558   4.0670   4.0895   4.1683   4.2312
     4.3987   4.4055   4.5174   4.6179

[...]

          k = 0.0380-0.0419 0.0000 ( 17876 PWs)   bands (ev):

[...]

          k =-0.0760-0.0000 0.0000 ( 17886 PWs)   bands (ev):

[...]

          k =-0.0760-0.0839 0.0000 ( 17948 PWs)   bands (ev):

   -55.2966 -55.1566 -55.1556 -54.9901 -54.9874 -54.9846 -54.9778 -54.9760
   -54.9234 -54.8883 -54.8390 -54.8232 -54.7848 -54.7580 -54.1201 -54.1192
   -31.5580 -31.5351 -31.4894 -31.4716 -31.4709 -31.4512 -31.4503 -31.4128
   -31.3138 -31.3069 -31.3010 -31.2998 -31.2946 -31.2763 -31.2753 -31.2661
   -31.2660 -31.2449 -31.2436 -31.2143 -31.2012 -31.1974 -31.1961 -31.1902
   -31.1756 -31.1655 -31.1571 -31.1521 -31.1495 -31.1447 -31.1403 -31.1209
   -31.1096 -31.0877 -31.0732 -31.0666 -31.0322 -31.0296 -31.0180 -31.0152
   -31.0103 -30.9932 -30.4477 -30.4470 -30.3559 -30.3547 -30.3172 -30.3165
   -18.8766 -16.0089 -15.3732 -15.1693 -15.1067 -15.0826 -15.0683 -15.0312
   -15.0063 -14.9513 -14.9325 -14.8744 -14.8439 -14.8309 -14.7594 -14.7437
   -14.6883 -14.6589 -14.6464 -14.6066 -14.6020 -14.5797 -14.5473 -14.5388
   -14.4735 -14.4596 -14.4561 -14.3642 -14.3544 -14.2335 -14.1853 -13.1020
   -12.6220 -12.6214 -10.7892  -7.6153  -6.2203  -5.5767  -3.6842  -3.6498
    -3.3993  -2.5851  -2.4488  -2.4398  -2.3017  -2.2887  -2.1930  -2.1459
    -2.0929  -2.0746  -2.0520  -2.0335  -2.0028  -1.9697  -1.9534  -1.9462
    -1.9180  -1.8958  -1.8707  -1.8648  -1.8291  -1.8243  -1.8029  -1.7798
    -1.7696  -1.7348  -1.7212  -1.7170  -1.7029  -1.6501  -1.6305  -1.4678
    -1.4373  -1.3462  -1.3126  -1.2896  -1.2802  -1.2544  -1.2373  -1.2166
    -1.1614  -1.1087  -1.0475  -0.9208  -0.8757  -0.8112  -0.7754  -0.6982
    -0.6567  -0.6231  -0.5949  -0.5714  -0.5376  -0.4812  -0.4040  -0.3492
    -0.3033  -0.2620  -0.1643  -0.1450  -0.1228  -0.1115  -0.0778  -0.0188
    -0.0121   0.0441   0.0628   0.1259   0.1410   0.1566   0.1745   0.2583
     0.3523   0.4326   0.4568   0.5481   0.5660   0.6557   0.7024   0.8028
     0.9145   0.9604   1.0002   1.0100   1.0930   1.0993   1.1551   1.1780
     1.2611   1.3491   1.4136   1.4218   1.4417   1.4957   2.2518   2.2604
     2.3204   2.3207   4.1857   4.3487   4.4283   4.4400   4.4720   4.4833
     4.5158   4.5184   4.6040   4.6163

     the Fermi energy is     3.9544 ev

!    total energy              =   -2976.49322551 Ry
     estimated scf accuracy    <       0.00000005 Ry
     smearing contrib. (-TS)   =      -0.02056940 Ry
     internal energy E=F+TS    =   -2976.47265611 Ry

     The total energy is F=E-TS. E is the sum of the following terms:
     one-electron contribution =  -23617.09311093 Ry
     hartree contribution      =   11908.28250949 Ry
     xc contribution           =    -495.76858260 Ry
     ewald contribution        =    9228.10227099 Ry
     electric field correction =       0.00425694 Ry

     convergence has been achieved in  57 iterations

     Forces acting on atoms (cartesian axes, Ry/au):

     atom    1 type  1   force =     0.00014473   -0.00012139    0.09536833
     atom    2 type  1   force =    -0.00003123    0.00039957   -0.17473760
     atom    3 type  2   force =     0.00004173   -0.00018447   -0.02254949
     atom    4 type  2   force =     0.00001385   -0.00200489    0.05319282
     atom    5 type  2   force =    -0.00814012   -0.00302184    0.00228074
     atom    6 type  2   force =     0.00923715   -0.00231736    0.00057262
     atom    7 type  1   force =    -0.00079598   -0.00507533    0.00570001
     atom    8 type  1   force =     0.00084197    0.00656619    0.01468108
     atom    9 type  2   force =     0.00011699    0.00042782    0.00075008
     atom   10 type  2   force =    -0.00346729    0.00091539   -0.01236843
     atom   11 type  2   force =    -0.00001508   -0.00055500    0.00028391
     atom   12 type  2   force =     0.00007667   -0.00043361    0.00023936
     atom   13 type  1   force =     0.00091637    0.00086912    0.00008803
     atom   14 type  1   force =    -0.00019812    0.00012344   -0.00041971
     atom   15 type  2   force =     0.00014364   -0.00078815   -0.00068823
     atom   16 type  2   force =     0.00012361   -0.00012807    0.00090062
     atom   17 type  2   force =    -0.00000618    0.00013441   -0.00006152
     atom   18 type  2   force =     0.00004039    0.00043527   -0.00025218
     atom   19 type  1   force =     0.00018941   -0.00019429   -0.00019071
     atom   20 type  1   force =     0.00020476   -0.00001634   -0.00024714
     atom   21 type  2   force =     0.00009096    0.00000091    0.10301553
     atom   22 type  2   force =     0.00007426    0.00021842    0.00071201
     atom   23 type  2   force =    -0.07212188   -0.00022392   -0.02758930
     atom   24 type  2   force =     0.07208045    0.00026376   -0.02760726
     atom   25 type  1   force =     0.00017206   -0.00030597    0.09520915
     atom   26 type  1   force =     0.00000900   -0.00124039   -0.17522291
     atom   27 type  2   force =    -0.00000408    0.00008650   -0.02151728
     atom   28 type  2   force =     0.00005373   -0.00043748    0.04877094
     atom   29 type  2   force =    -0.00786146    0.00198769    0.00252111
     atom   30 type  2   force =     0.00888800    0.00234591    0.00070074
     atom   31 type  1   force =    -0.00068718    0.00834844   -0.00445561
     atom   32 type  1   force =     0.00106513   -0.00752562    0.01446253
     atom   33 type  2   force =     0.00012608    0.00023503   -0.00000049
     atom   34 type  2   force =    -0.00270045   -0.00027357   -0.01824340
     atom   35 type  2   force =    -0.00056402    0.00026635    0.00009012
     atom   36 type  2   force =     0.00073352    0.00039539    0.00024167
     atom   37 type  1   force =     0.00018833   -0.00038419    0.00022996
     atom   38 type  1   force =    -0.00006259   -0.00005925   -0.00072911
     atom   39 type  2   force =     0.00028016    0.00032348   -0.00008081
     atom   40 type  2   force =     0.00023961    0.00001691    0.00067896
     atom   41 type  2   force =    -0.00016317   -0.00035910    0.00001592
     atom   42 type  2   force =     0.00039875   -0.00024214    0.00054194
     atom   43 type  1   force =    -0.00009106    0.00044853   -0.00031199
     atom   44 type  1   force =     0.00025993   -0.00008649   -0.00017071
     atom   45 type  2   force =     0.00008790   -0.00010166    0.10282744
     atom   46 type  2   force =    -0.07217288   -0.00003722   -0.02761351
     atom   47 type  2   force =     0.07211653    0.00035772   -0.02762255
     atom   48 type  3   force =    -0.00103599    0.00261239    0.00105146
     atom   49 type  3   force =    -0.00128753    0.00059744   -0.00015427
     atom   50 type  4   force =    -0.00040073    0.00092629    0.00092105
     atom   51 type  5   force =     0.00028039    0.00048349   -0.00017241
     atom   52 type  5   force =    -0.00026795   -0.00025164   -0.00054733
     atom   53 type  5   force =     0.00040032    0.00015639   -0.00027144
     atom   54 type  5   force =     0.00088426   -0.00064108   -0.00079303
     atom   55 type  5   force =    -0.00030603   -0.00030921   -0.00011560
     atom   56 type  5   force =     0.00128562   -0.00260177   -0.00129758
     atom   57 type  2   force =     0.00022524   -0.00054523   -0.00012809
     atom   58 type  5   force =     0.00034953    0.00052439    0.00011153

     Total force =     0.363552     Total SCF correction =     0.000499
  @ DRIVER MODE: Message from server: STATUS
  @ DRIVER MODE: Message from server: GETFORCE
  @ DRIVER MODE: Returning v,forces,stress,ensemble

     Writing output data file ./calc.save/
  @ DRIVER MODE: Message from server: EXIT
  @ DRIVE MODE: Exiting

     General routines

     Parallel routines

   This run was terminated on:   9:47:40  24Sep2021

   JOB DONE.