     Program PWSCF v.6.7GPU starts on  9Sep2021 at  4:29:41

     R & G space division:  proc/nbgrp/npool/nimage =      10
     Reading input from /storage/home/hcoda1/3/ntian30/research/carbon/CxH_vib/CH3_calc/ads_slab/CH3N2H_a/out_0021/pw.inp
Warning: card &CELL ignored
Warning: card   CELL_DYNAMICS='IPI', ignored
Warning: card / ignored

     Current dimensions of program PWSCF are:
     Max number of different atomic species (ntypx) = 10
     Max number of k-points (npk) =  40000
     Max angular momentum in pseudopotentials (lmaxx) =  3
     Presently no symmetry can be used with electric field

     Message from routine cell_base_init:
     DEPRECATED: use true lattice parameter, not A to a.u. conversion factor

     IMPORTANT: XC functional enforced from input :
     Exchange-correlation= BEEF-VDW
                           (   1   4  43  14   2   0   0)
     Any further DFT definition will be discarded
     Please, verify this is what you really want

  @ DRIVER MODE: Connecting to
 qe_1139763_2767396.sched-torque.pace.gatech.eduvvphez6m_scratch
  using UNIX socket
  @ DRIVER MODE: Message from server: STATUS
  @ DRIVER MODE: Message from server: INIT
  @ DRIVER MODE: Receiving replica           0          -1
  @ DRIVER MODE: Receiving encoded integer          25
  @ DRIVER MODE:  SCF:  T  FORCE:  T  STRESS:  F  VC:  F  ENSEMBLE:  F
  @ DRIVER MODE:  SCF:  T  FORCE:  T  STRESS:  F  VC:  F  ENSEMBLE:  F

     Using Slab Decomposition

     bravais-lattice index     =            0
     lattice parameter (alat)  =       1.8897  a.u.
     unit-cell volume          =    6658.9804 (a.u.)^3
     number of atoms/cell      =           54
     number of atomic types    =            5
     number of electrons       =       396.00
     number of Kohn-Sham states=          208
     kinetic-energy cutoff     =      29.3995  Ry
     charge density cutoff     =     293.9946  Ry
     scf convergence threshold =      7.3E-08
     mixing beta               =       0.0500
     number of iterations used =            8  plain     mixing
     Exchange-correlation= BEEF-VDW
                           (   1   4  43  14   2   0   0)

     celldm(1)=   1.889726  celldm(2)=   0.000000  celldm(3)=   0.000000
     celldm(4)=   0.000000  celldm(5)=   0.000000  celldm(6)=   0.000000

     crystal axes: (cart. coord. in units of alat)
               a(1) = (   6.579727   0.000000   0.000000 )
               a(2) = (  -0.000775   5.961596   0.000000 )
               a(3) = (   0.000000   0.000000  25.155947 )

     reciprocal axes: (cart. coord. in units 2 pi/alat)
               b(1) = (  0.151982  0.000020  0.000000 )
               b(2) = (  0.000000  0.167740  0.000000 )
               b(3) = (  0.000000  0.000000  0.039752 )

     PseudoPot. # 1 for Ti read from file:
     /storage/coda1/p-amedford6/0/shared/rich_project_chbe-medford/medford-share/data/pseudos_module/espresso/nninc/pbe/van/Ti.UPF
     MD5 check sum: 8e4df49b7f0d34bbd5052bf3f5ea0213
     Pseudo is Ultrasoft, Zval = 12.0
     Generated by new atomic code, or converted to UPF format
     Using radial grid of  851 points,  6 beta functions with:
                l(1) =   0
                l(2) =   0
                l(3) =   1
                l(4) =   1
                l(5) =   2
                l(6) =   2
     Q(r) pseudized with  8 coefficients,  rinner =    1.000   1.000   1.000
                                                       1.000   1.000

     PseudoPot. # 2 for O  read from file:
     /storage/coda1/p-amedford6/0/shared/rich_project_chbe-medford/medford-share/data/pseudos_module/espresso/nninc/pbe/van/O.UPF
     MD5 check sum: 78c19812648e8988a0fe644b0f25305e
     Pseudo is Ultrasoft, Zval =  6.0
     Generated by new atomic code, or converted to UPF format
     Using radial grid of  737 points,  4 beta functions with:
                l(1) =   0
                l(2) =   0
                l(3) =   1
                l(4) =   1
     Q(r) pseudized with  8 coefficients,  rinner =    0.800   0.800   0.800

     PseudoPot. # 3 for N  read from file:
     /storage/coda1/p-amedford6/0/shared/rich_project_chbe-medford/medford-share/data/pseudos_module/espresso/nninc/pbe/van/N.UPF
     MD5 check sum: 90d10febe142ad51ac9d5be1deb811c4
     Pseudo is Ultrasoft, Zval =  5.0
     Generated by new atomic code, or converted to UPF format
     Using radial grid of  729 points,  4 beta functions with:
                l(1) =   0
                l(2) =   0
                l(3) =   1
                l(4) =   1
     Q(r) pseudized with  8 coefficients,  rinner =    0.800   0.800   0.800

     PseudoPot. # 4 for C  read from file:
     /storage/coda1/p-amedford6/0/shared/rich_project_chbe-medford/medford-share/data/pseudos_module/espresso/nninc/pbe/van/C.UPF
     MD5 check sum: 1a69bf6b8db32088f5b2163dbdb77a27
     Pseudo is Ultrasoft, Zval =  4.0
     Generated by new atomic code, or converted to UPF format
     Using radial grid of  721 points,  4 beta functions with:
                l(1) =   0
                l(2) =   0
                l(3) =   1
                l(4) =   1
     Q(r) pseudized with  8 coefficients,  rinner =    0.800   0.800   0.800

     PseudoPot. # 5 for H  read from file:
     /storage/coda1/p-amedford6/0/shared/rich_project_chbe-medford/medford-share/data/pseudos_module/espresso/nninc/pbe/van/H.UPF
     MD5 check sum: b5ee9d7bfd3a09ee7748110bda690ff7
     Pseudo is Ultrasoft, Zval =  1.0
     Generated by new atomic code, or converted to UPF format
     Using radial grid of  615 points,  1 beta functions with:
                l(1) =   0
     Q(r) pseudized with  8 coefficients,  rinner =    0.800

     atomic species   valence    mass     pseudopotential
        Ti1           12.00    47.86700     Ti( 1.00)
        O1             6.00    15.99900     O ( 1.00)
        N1             5.00    14.00700     N ( 1.00)
        C1             4.00    12.01100     C ( 1.00)
        H1             1.00     1.00800     H ( 1.00)

     No symmetry found

   Cartesian axes

     site n.     atom                  positions (alat units)
         1           Ti1 tau(   1) = (   0.0004258   2.9801865   6.0000000  )
         2           Ti1 tau(   2) = (   3.2906075   1.4906267   6.0002472  )
         3           O1  tau(   3) = (   0.0006271   0.0005054   7.9858123  )
         4           O1  tau(   4) = (   3.2906025   0.0005020   7.3038282  )
         5           O1  tau(   5) = (   4.5942328   1.4918067   9.2879030  )
         6           O1  tau(   6) = (   1.9868534   1.4903216   9.2879459  )
         7           Ti1 tau(   7) = (   3.2907910   2.8959150   9.1758416  )
         8           Ti1 tau(   8) = (   0.0015273   1.4827037   9.2680791  )
         9           O1  tau(   9) = (   3.2896288   0.0042867  11.3205077  )
        10           O1  tau(  10) = (   0.0116148   5.9584955  10.6183126  )
        11           O1  tau(  11) = (   1.2848067   1.4985890  12.6232755  )
        12           O1  tau(  12) = (   5.2688617   1.4893877  12.6055203  )
        13           Ti1 tau(  13) = (   0.0799559   3.0171279  12.6206390  )
        14           Ti1 tau(  14) = (   3.4009582   1.4891986  12.4726338  )
        15           O1  tau(  15) = (   6.5707323   0.0080309  14.6263129  )
        16           O1  tau(  16) = (   3.2902489   0.0120312  13.8979102  )
        17           O1  tau(  17) = (   4.5126121   1.5346005  16.0500440  )
        18           O1  tau(  18) = (   2.0453867   1.5362785  16.0447169  )
        19           Ti1 tau(  19) = (   3.2767562   3.0203775  15.6892921  )
        20           Ti1 tau(  20) = (   6.5596632   1.5778499  15.8310978  )
        21           O1  tau(  21) = (   3.2904802   0.0005063   4.7018136  )
        22           O1  tau(  22) = (   6.5709656   0.0671247  17.2345223  )
        23           O1  tau(  23) = (   1.3043587   1.4918075   6.0039043  )
        24           O1  tau(  24) = (   5.2767064   1.4903225   6.0039473  )
        25           Ti1 tau(  25) = (   0.0000382   5.9609847   6.0000000  )
        26           Ti1 tau(  26) = (   3.2902200   4.4714249   6.0002472  )
        27           O1  tau(  27) = (   0.0002396   2.9813036   7.9858123  )
        28           O1  tau(  28) = (   3.2902150   2.9813002   7.3038282  )
        29           O1  tau(  29) = (   4.5938453   4.4726049   9.2879030  )
        30           O1  tau(  30) = (   1.9864658   4.4711199   9.2879459  )
        31           Ti1 tau(  31) = (   3.2891106   5.8743827   9.1763621  )
        32           Ti1 tau(  32) = (   0.0006254   4.4649316   9.2693709  )
        33           O1  tau(  33) = (   3.2919429   2.9835650  11.3172650  )
        34           O1  tau(  34) = (   0.0092240   2.9805883  10.6323155  )
        35           O1  tau(  35) = (   1.2842535   4.4799506  12.6241420  )
        36           O1  tau(  36) = (   5.2755836   4.4732255  12.6042992  )
        37           Ti1 tau(  37) = (   0.0783641   0.0295629  12.6394962  )
        38           Ti1 tau(  38) = (   3.4022659   4.4693352  12.4708195  )
        39           O1  tau(  39) = (   6.5693815   2.9799975  14.6326336  )
        40           O1  tau(  40) = (   3.2899495   3.0014797  13.8849495  )
        41           O1  tau(  41) = (   4.5062741   4.5069571  16.0893315  )
        42           O1  tau(  42) = (   2.0480812   4.5060041  16.0753496  )
        43           Ti1 tau(  43) = (   3.2742444   0.0367023  15.7020416  )
        44           Ti1 tau(  44) = (   6.5658628   4.6518251  16.1481936  )
        45           O1  tau(  45) = (   3.2900926   2.9813045   4.7018136  )
        46           O1  tau(  46) = (   1.3039711   4.4726057   6.0039043  )
        47           O1  tau(  47) = (   5.2763189   4.4711207   6.0039473  )
        48           N1  tau(  48) = (   6.5201982   2.6597193  18.5868863  )
        49           N1  tau(  49) = (   6.5663212   2.9659568  17.3251533  )
        50           C1  tau(  50) = (   0.1092964   3.6297355  19.6533281  )
        51           H1  tau(  51) = (   6.1365678   4.5255971  19.4091500  )
        52           H1  tau(  52) = (   6.3142024   3.1981282  20.5813133  )
        53           H1  tau(  53) = (   1.1661384   3.8973747  19.7839464  )
        54           H1  tau(  54) = (   6.5756389   1.6632157  18.8047554  )

     number of k points=    10  Fermi-Dirac smearing, width (Ry)=  0.0073
                       cart. coord. in units 2pi/alat
        k(    1) = (   0.0000000   0.0000000   0.0000000), wk =   0.1250000
        k(    2) = (   0.0000000   0.0419351   0.0000000), wk =   0.2500000
        k(    3) = (   0.0000000  -0.0838702   0.0000000), wk =   0.1250000
        k(    4) = (   0.0379955   0.0000049   0.0000000), wk =   0.2500000
        k(    5) = (   0.0379955   0.0419400   0.0000000), wk =   0.2500000
        k(    6) = (   0.0379955  -0.0838652   0.0000000), wk =   0.2500000
        k(    7) = (   0.0379955  -0.0419301   0.0000000), wk =   0.2500000
        k(    8) = (  -0.0759910  -0.0000099   0.0000000), wk =   0.1250000
        k(    9) = (  -0.0759910   0.0419252   0.0000000), wk =   0.2500000
        k(   10) = (  -0.0759910  -0.0838800   0.0000000), wk =   0.1250000

     Initial potential from superposition of free atoms

     starting charge  379.99915, renormalised to  396.00000

     negative rho (up, down):  1.474E-02 0.000E+00

     %%%%%%%%%%%%%%%%%%%%%%%%%%%%%%%%%%%%%%%%%%%%%%%%%%%%%%%%%%%%%%%%%%%%%%%%
     %                                                                      %
     % You are using vdW-DF, which was implemented by the Thonhauser group. %
     % Please cite the following two papers that made this development      %
     % possible and the two reviews that describe the various versions:     %
     %                                                                      %
     %   T. Thonhauser et al., PRL 115, 136402 (2015).                      %
     %   T. Thonhauser et al., PRB 76, 125112 (2007).                       %
     %   K. Berland et al., Rep. Prog. Phys. 78, 066501 (2015).             %
     %   D.C. Langreth et al., J. Phys.: Condens. Matter 21, 084203 (2009). %
     %                                                                      %
     %                                                                      %
     % If you are calculating the stress with vdW-DF, please also cite:     %
     %                                                                      %
     %   R. Sabatini et al., J. Phys.: Condens. Matter 24, 424209 (2012).   %
     %                                                                      %
     %%%%%%%%%%%%%%%%%%%%%%%%%%%%%%%%%%%%%%%%%%%%%%%%%%%%%%%%%%%%%%%%%%%%%%%%

     Adding external electric field

     Computed dipole along edir(3) :
        Dipole               -9.2704 Ry au,        -23.5631 Debye
        Dipole field         -0.0175 Ry au,

        Potential amp.        1.6217 Ry
        Total length         46.3494 bohr

     Starting wfcs are  300 atomic wfcs
  @ DRIVER MODE: Message from server: STATUS
  @ DRIVER MODE: Message from server: POSDATA
  @ DRIVER MODE: Reading and sharing cell
  @ DRIVER MODE: Reading and sharing positions
  @ DRIVER MODE: Received positions

     Self-consistent Calculation

     iteration #  1     ecut=    29.40 Ry     beta= 0.05
     Davidson diagonalization with overlap
     c_bands:  1 eigenvalues not converged
     c_bands:  1 eigenvalues not converged
     c_bands:  1 eigenvalues not converged
     ethr =  1.00E-05,  avg # of iterations = 17.9

[...]

     total energy              =   -2585.53142591 Ry
     estimated scf accuracy    <    3944.41810425 Ry

     iteration #  2     ecut=    29.40 Ry     beta= 0.05
     Davidson diagonalization with overlap
     ethr =  1.00E-02,  avg # of iterations = 22.4

[...]

     iteration # 43     ecut=    29.40 Ry     beta= 0.05
     Davidson diagonalization with overlap
     c_bands:  1 eigenvalues not converged
     ethr =  4.17E-07,  avg # of iterations = 13.6

[...]

     total energy              =   -2940.39761038 Ry
     estimated scf accuracy    <       0.00000009 Ry

     iteration # 63     ecut=    29.40 Ry     beta= 0.05
     Davidson diagonalization with overlap
     ethr =  2.24E-11,  avg # of iterations = 10.1

     negative rho (up, down):  1.568E-02 0.000E+00

     Adding external electric field

     Computed dipole along edir(3) :
        Dipole                1.1327 Ry au,          2.8791 Debye
        Dipole field          0.0021 Ry au,

        Potential amp.       -0.1982 Ry
        Total length         46.3494 bohr

     End of self-consistent calculation

          k = 0.0000 0.0000 0.0000 ( 18029 PWs)   bands (ev):

   -55.6424 -55.6084 -55.5501 -55.5125 -55.4063 -55.3838 -55.3725 -55.3487
   -55.3414 -55.3345 -55.3148 -55.2648 -54.7243 -54.5845 -54.5559 -54.5505
   -32.1170 -32.0936 -31.9367 -31.9235 -31.8932 -31.8629 -31.8447 -31.8381
   -31.7956 -31.7787 -31.7779 -31.7393 -31.7299 -31.7121 -31.7011 -31.6910
   -31.6806 -31.6719 -31.6386 -31.6272 -31.6045 -31.5846 -31.5772 -31.5630
   -31.5500 -31.5435 -31.5369 -31.5353 -31.5296 -31.5125 -31.5030 -31.5017
   -31.4977 -31.4609 -31.4464 -31.3789 -31.2220 -30.9903 -30.9474 -30.9328
   -30.9056 -30.8933 -30.8829 -30.8071 -30.7643 -30.7356 -30.7209 -30.6098
   -18.0007 -16.2765 -16.0489 -15.7714 -15.6704 -15.6470 -15.5262 -15.3939
   -15.2935 -15.1982 -15.1582 -15.1038 -15.0990 -15.0698 -15.0397 -15.0036
   -14.9757 -14.9367 -14.9181 -14.8989 -14.8732 -14.8643 -14.7543 -14.7402
   -14.7159 -14.6246 -14.6143 -14.5411 -14.5153 -14.0847 -13.0867 -12.9709
   -12.0274  -8.9395  -5.7252  -4.4576  -4.1668  -3.6594  -3.5337  -3.5033
    -3.4019  -3.2287  -3.1374  -3.0772  -2.9624  -2.7636  -2.7287  -2.7188
    -2.6986  -2.6409  -2.4429  -2.4174  -2.3858  -2.3462  -2.3364  -2.3341
    -2.3198  -2.2580  -2.1915  -2.1272  -2.0291  -2.0241  -1.9675  -1.9540
    -1.9371  -1.9021  -1.8587  -1.8195  -1.7979  -1.7558  -1.7372  -1.7307
    -1.6889  -1.6074  -1.5045  -1.3475  -1.3318  -1.2997  -1.2512  -1.1966
    -1.0319  -1.0160  -0.9787  -0.9727  -0.9406  -0.8654  -0.7985  -0.7132
    -0.6770  -0.6000  -0.5844  -0.5556  -0.4812  -0.3957  -0.3729  -0.3579
    -0.3503  -0.3348  -0.2767  -0.1619  -0.0669  -0.0371   0.0843   0.0889
     0.1241   0.1683   0.1849   0.2665   0.3027   0.3168   0.3679   0.3683
     0.3801   0.4240   0.4470   0.5095   0.5655   0.6497   0.7229   0.7882
     0.8251   0.9414   1.0124   1.0775   1.1099   1.2390   1.3672   1.3757
     1.4372   1.6330   1.6353   2.0058   2.0501   3.5290   3.5501   3.6427
     3.6863   3.7842   3.8232   3.9675   4.0226   4.0601   4.1738   4.2062

[...]

          k = 0.0380-0.0419 0.0000 ( 17876 PWs)   bands (ev):

[...]

          k =-0.0760-0.0000 0.0000 ( 17886 PWs)   bands (ev):

[...]

          k =-0.0760-0.0839 0.0000 ( 17948 PWs)   bands (ev):

   -55.6255 -55.6252 -55.5371 -55.5253 -55.3894 -55.3891 -55.3747 -55.3504
   -55.3332 -55.3304 -55.3298 -55.2694 -54.7227 -54.5675 -54.5674 -54.5573
   -31.9325 -31.9324 -31.9219 -31.9218 -31.9015 -31.8921 -31.7947 -31.7849
   -31.7611 -31.7483 -31.7463 -31.7459 -31.7013 -31.6984 -31.6858 -31.6825
   -31.6738 -31.6700 -31.6695 -31.6442 -31.5999 -31.5980 -31.5851 -31.5821
   -31.5777 -31.5760 -31.5743 -31.5640 -31.5615 -31.5558 -31.5481 -31.5451
   -31.5381 -31.5277 -31.5016 -31.4671 -31.1313 -30.9676 -30.9337 -30.9208
   -30.8957 -30.8956 -30.8033 -30.8031 -30.7834 -30.7655 -30.7641 -30.7640
   -17.9949 -15.6994 -15.6881 -15.5092 -15.5040 -15.4434 -15.4372 -15.2846
   -15.2837 -15.2650 -15.2567 -15.1338 -15.1300 -15.0981 -15.0945 -15.0522
   -15.0435 -15.0256 -15.0172 -15.0156 -15.0090 -14.9821 -14.9312 -14.8977
   -14.8922 -14.7146 -14.7139 -14.5935 -14.5606 -14.2199 -13.0730 -13.0729
   -12.0284  -8.9493  -5.7171  -4.3956  -4.1700  -2.9893  -2.9818  -2.9770
    -2.7039  -2.6988  -2.6745  -2.6639  -2.4588  -2.4461  -2.4249  -2.4193
    -2.3919  -2.3861  -2.3711  -2.3640  -2.2809  -2.2707  -2.2592  -2.2355
    -2.2330  -2.2272  -2.2108  -2.2034  -2.1935  -2.1599  -2.1242  -2.0950
    -2.0604  -2.0379  -1.9184  -1.8080  -1.7304  -1.7236  -1.6931  -1.6874
    -1.6816  -1.6751  -1.6419  -1.5376  -1.4831  -1.4270  -1.2900  -1.2641
    -1.2475  -1.2009  -1.1123  -1.0317  -0.9687  -0.9513  -0.9040  -0.8608
    -0.8359  -0.7515  -0.7277  -0.7198  -0.6524  -0.6196  -0.5751  -0.5695
    -0.5544  -0.4889  -0.4407  -0.3913  -0.3680  -0.3373  -0.2920  -0.2714
    -0.2085  -0.1570  -0.1092  -0.1037  -0.0554  -0.0471   0.0181   0.1678
     0.2171   0.4706   0.4849   0.5159   0.6405   0.7115   0.7168   0.7449
     0.7769   0.8283   0.8402   0.9737   0.9855   0.9882   1.1533   1.1776
     1.2653   1.8056   1.8059   1.8691   1.8695   3.4315   3.9216   3.9389
     3.9640   3.9792   4.0504   4.0514   4.0595   4.0670   4.2455   4.2654

     the Fermi energy is     3.5061 ev

!    total energy              =   -2940.39763938 Ry
     estimated scf accuracy    <       0.00000004 Ry
     smearing contrib. (-TS)   =      -0.02302404 Ry
     internal energy E=F+TS    =   -2940.37461534 Ry

     The total energy is F=E-TS. E is the sum of the following terms:
     one-electron contribution =  -24109.40898884 Ry
     hartree contribution      =   12145.93942357 Ry
     xc contribution           =    -486.05165821 Ry
     ewald contribution        =    9509.14418681 Ry
     electric field correction =       0.00242133 Ry

     convergence has been achieved in  63 iterations

     Forces acting on atoms (cartesian axes, Ry/au):

     atom    1 type  1   force =     0.00015797   -0.00012117    0.09935134
     atom    2 type  1   force =    -0.00012911   -0.00047434   -0.17358975
     atom    3 type  2   force =    -0.00005030   -0.00000240   -0.02878742
     atom    4 type  2   force =     0.00007384   -0.00125133    0.04997327
     atom    5 type  2   force =    -0.01306949    0.00058094    0.00121857
     atom    6 type  2   force =     0.01461710    0.00138934   -0.00010482
     atom    7 type  1   force =    -0.00144520   -0.00059397   -0.00834741
     atom    8 type  1   force =     0.00087565   -0.00412849    0.04511775
     atom    9 type  2   force =    -0.00003109   -0.00066000   -0.00024380
     atom   10 type  2   force =    -0.00129157    0.00227355   -0.02840898
     atom   11 type  2   force =     0.00018251    0.00060808   -0.00003472
     atom   12 type  2   force =     0.00025586    0.00040594    0.00011044
     atom   13 type  1   force =     0.00038340    0.00021336   -0.00058260
     atom   14 type  1   force =     0.00003594    0.00047179    0.00031640
     atom   15 type  2   force =     0.00034094   -0.00009068   -0.00006421
     atom   16 type  2   force =    -0.00040722   -0.00023426   -0.00018058
     atom   17 type  2   force =    -0.00102181    0.00015017   -0.00052100
     atom   18 type  2   force =     0.00090076    0.00020362    0.00023968
     atom   19 type  1   force =     0.00021419   -0.00007518    0.00001352
     atom   20 type  1   force =    -0.00048619   -0.00084728    0.00022173
     atom   21 type  2   force =     0.00009019   -0.00007095    0.10274348
     atom   22 type  2   force =     0.00009664   -0.00000547    0.00009266
     atom   23 type  2   force =    -0.07214584   -0.00015526   -0.02833083
     atom   24 type  2   force =     0.07214591    0.00030490   -0.02833387
     atom   25 type  1   force =     0.00012799   -0.00020231    0.09864688
     atom   26 type  1   force =    -0.00011391   -0.00046085   -0.17380912
     atom   27 type  2   force =     0.00001155   -0.00002525   -0.02807223
     atom   28 type  2   force =     0.00011380   -0.00099770    0.04942681
     atom   29 type  2   force =    -0.01338918    0.00005611    0.00127886
     atom   30 type  2   force =     0.01484506    0.00042175   -0.00006301
     atom   31 type  1   force =    -0.00139317    0.00251378   -0.00863571
     atom   32 type  1   force =     0.00106215    0.00237145    0.04544141
     atom   33 type  2   force =    -0.00012938    0.00104542    0.00057541
     atom   34 type  2   force =    -0.00071868    0.00120507   -0.03115105
     atom   35 type  2   force =     0.00067489   -0.00051059   -0.00018231
     atom   36 type  2   force =    -0.00162973   -0.00011096    0.00006436
     atom   37 type  1   force =    -0.00017420   -0.00153456    0.00020661
     atom   38 type  1   force =     0.00078397   -0.00004696    0.00050427
     atom   39 type  2   force =     0.00032391    0.00017288   -0.00057035
     atom   40 type  2   force =    -0.00040191    0.00033131   -0.00003403
     atom   41 type  2   force =     0.00042712   -0.00059813    0.00004185
     atom   42 type  2   force =    -0.00040892   -0.00071916    0.00053328
     atom   43 type  1   force =     0.00036669   -0.00032266   -0.00057318
     atom   44 type  1   force =    -0.00033050   -0.00061661   -0.00023230
     atom   45 type  2   force =     0.00010993   -0.00006779    0.10276618
     atom   46 type  2   force =    -0.07216794   -0.00010035   -0.02832788
     atom   47 type  2   force =     0.07215367    0.00034013   -0.02830546
     atom   48 type  3   force =     0.00025982   -0.00158992   -0.00101023
     atom   49 type  3   force =    -0.00007020   -0.00038821   -0.00000408
     atom   50 type  4   force =     0.00538701   -0.00808718    0.00278128
     atom   51 type  5   force =    -0.00483844    0.00895021   -0.00181344
     atom   52 type  5   force =     0.00051515   -0.00012478   -0.00033958
     atom   53 type  5   force =    -0.00119850    0.00076980   -0.00095503
     atom   54 type  5   force =    -0.00049110    0.00043517   -0.00005707

     Total force =     0.372486     Total SCF correction =     0.000360
  @ DRIVER MODE: Message from server: STATUS
  @ DRIVER MODE: Message from server: GETFORCE
  @ DRIVER MODE: Returning v,forces,stress,ensemble

     Writing output data file ./calc.save/
  @ DRIVER MODE: Message from server: EXIT
  @ DRIVE MODE: Exiting

     General routines

     Parallel routines

   This run was terminated on:   4:46: 6   9Sep2021

   JOB DONE.