     Program PWSCF v.6.7GPU starts on 10Sep2021 at 19:40:42

     R & G space division:  proc/nbgrp/npool/nimage =      10
     Reading input from /storage/home/hcoda1/3/ntian30/research/carbon/CxH_vib/CH2_calc/ads_slab/CH2NHNH2_a/out_0006/pw.inp
Warning: card &CELL ignored
Warning: card   CELL_DYNAMICS='IPI', ignored
Warning: card / ignored

     Current dimensions of program PWSCF are:
     Max number of different atomic species (ntypx) = 10
     Max number of k-points (npk) =  40000
     Max angular momentum in pseudopotentials (lmaxx) =  3
     Presently no symmetry can be used with electric field

     Message from routine cell_base_init:
     DEPRECATED: use true lattice parameter, not A to a.u. conversion factor

     IMPORTANT: XC functional enforced from input :
     Exchange-correlation= BEEF-VDW
                           (   1   4  43  14   2   0   0)
     Any further DFT definition will be discarded
     Please, verify this is what you really want

  @ DRIVER MODE: Connecting to
 qe_1139763_2792044.sched-torque.pace.gatech.eduvdss71c8_scratch
  using UNIX socket
  @ DRIVER MODE: Message from server: STATUS
  @ DRIVER MODE: Message from server: INIT
  @ DRIVER MODE: Receiving replica           0          -1
  @ DRIVER MODE: Receiving encoded integer          25
  @ DRIVER MODE:  SCF:  T  FORCE:  T  STRESS:  F  VC:  F  ENSEMBLE:  F
  @ DRIVER MODE:  SCF:  T  FORCE:  T  STRESS:  F  VC:  F  ENSEMBLE:  F

     Using Slab Decomposition

     bravais-lattice index     =            0
     lattice parameter (alat)  =       1.8897  a.u.
     unit-cell volume          =    6658.9804 (a.u.)^3
     number of atoms/cell      =           55
     number of atomic types    =            5
     number of electrons       =       397.00
     number of Kohn-Sham states=          208
     kinetic-energy cutoff     =      29.3995  Ry
     charge density cutoff     =     293.9946  Ry
     scf convergence threshold =      7.3E-08
     mixing beta               =       0.0500
     number of iterations used =            8  plain     mixing
     Exchange-correlation= BEEF-VDW
                           (   1   4  43  14   2   0   0)

     celldm(1)=   1.889726  celldm(2)=   0.000000  celldm(3)=   0.000000
     celldm(4)=   0.000000  celldm(5)=   0.000000  celldm(6)=   0.000000

     crystal axes: (cart. coord. in units of alat)
               a(1) = (   6.579727   0.000000   0.000000 )
               a(2) = (  -0.000775   5.961596   0.000000 )
               a(3) = (   0.000000   0.000000  25.155947 )

     reciprocal axes: (cart. coord. in units 2 pi/alat)
               b(1) = (  0.151982  0.000020  0.000000 )
               b(2) = (  0.000000  0.167740  0.000000 )
               b(3) = (  0.000000  0.000000  0.039752 )

     PseudoPot. # 1 for Ti read from file:
     /storage/coda1/p-amedford6/0/shared/rich_project_chbe-medford/medford-share/data/pseudos_module/espresso/nninc/pbe/van/Ti.UPF
     MD5 check sum: 8e4df49b7f0d34bbd5052bf3f5ea0213
     Pseudo is Ultrasoft, Zval = 12.0
     Generated by new atomic code, or converted to UPF format
     Using radial grid of  851 points,  6 beta functions with:
                l(1) =   0
                l(2) =   0
                l(3) =   1
                l(4) =   1
                l(5) =   2
                l(6) =   2
     Q(r) pseudized with  8 coefficients,  rinner =    1.000   1.000   1.000
                                                       1.000   1.000

     PseudoPot. # 2 for O  read from file:
     /storage/coda1/p-amedford6/0/shared/rich_project_chbe-medford/medford-share/data/pseudos_module/espresso/nninc/pbe/van/O.UPF
     MD5 check sum: 78c19812648e8988a0fe644b0f25305e
     Pseudo is Ultrasoft, Zval =  6.0
     Generated by new atomic code, or converted to UPF format
     Using radial grid of  737 points,  4 beta functions with:
                l(1) =   0
                l(2) =   0
                l(3) =   1
                l(4) =   1
     Q(r) pseudized with  8 coefficients,  rinner =    0.800   0.800   0.800

     PseudoPot. # 3 for N  read from file:
     /storage/coda1/p-amedford6/0/shared/rich_project_chbe-medford/medford-share/data/pseudos_module/espresso/nninc/pbe/van/N.UPF
     MD5 check sum: 90d10febe142ad51ac9d5be1deb811c4
     Pseudo is Ultrasoft, Zval =  5.0
     Generated by new atomic code, or converted to UPF format
     Using radial grid of  729 points,  4 beta functions with:
                l(1) =   0
                l(2) =   0
                l(3) =   1
                l(4) =   1
     Q(r) pseudized with  8 coefficients,  rinner =    0.800   0.800   0.800

     PseudoPot. # 4 for C  read from file:
     /storage/coda1/p-amedford6/0/shared/rich_project_chbe-medford/medford-share/data/pseudos_module/espresso/nninc/pbe/van/C.UPF
     MD5 check sum: 1a69bf6b8db32088f5b2163dbdb77a27
     Pseudo is Ultrasoft, Zval =  4.0
     Generated by new atomic code, or converted to UPF format
     Using radial grid of  721 points,  4 beta functions with:
                l(1) =   0
                l(2) =   0
                l(3) =   1
                l(4) =   1
     Q(r) pseudized with  8 coefficients,  rinner =    0.800   0.800   0.800

     PseudoPot. # 5 for H  read from file:
     /storage/coda1/p-amedford6/0/shared/rich_project_chbe-medford/medford-share/data/pseudos_module/espresso/nninc/pbe/van/H.UPF
     MD5 check sum: b5ee9d7bfd3a09ee7748110bda690ff7
     Pseudo is Ultrasoft, Zval =  1.0
     Generated by new atomic code, or converted to UPF format
     Using radial grid of  615 points,  1 beta functions with:
                l(1) =   0
     Q(r) pseudized with  8 coefficients,  rinner =    0.800

     atomic species   valence    mass     pseudopotential
        Ti1           12.00    47.86700     Ti( 1.00)
        O1             6.00    15.99900     O ( 1.00)
        N1             5.00    14.00700     N ( 1.00)
        C1             4.00    12.01100     C ( 1.00)
        H1             1.00     1.00800     H ( 1.00)

     No symmetry found

   Cartesian axes

     site n.     atom                  positions (alat units)
         1           Ti1 tau(   1) = (   0.0004258   2.9801865   6.0000000  )
         2           Ti1 tau(   2) = (   3.2906075   1.4906267   6.0002472  )
         3           O1  tau(   3) = (   0.0006271   0.0005054   7.9858123  )
         4           O1  tau(   4) = (   3.2906025   0.0005020   7.3038282  )
         5           O1  tau(   5) = (   4.5942328   1.4918067   9.2879030  )
         6           O1  tau(   6) = (   1.9868534   1.4903216   9.2879459  )
         7           Ti1 tau(   7) = (   3.2907910   2.8959150   9.1758416  )
         8           Ti1 tau(   8) = (   0.0015273   1.4827037   9.2680791  )
         9           O1  tau(   9) = (   3.2904964   5.9585769  11.3857690  )
        10           O1  tau(  10) = (   0.0116148   5.9584955  10.6183126  )
        11           O1  tau(  11) = (   1.2878431   1.4867815  12.6991744  )
        12           O1  tau(  12) = (   5.2968392   1.4897239  12.6840540  )
        13           Ti1 tau(  13) = (   0.0031652   2.9724310  12.5021289  )
        14           Ti1 tau(  14) = (   3.2974598   1.4750309  12.5411678  )
        15           O1  tau(  15) = (   6.5490940   5.8844369  14.7025010  )
        16           O1  tau(  16) = (   3.3056738   5.9474069  14.0077327  )
        17           O1  tau(  17) = (   4.5358307   1.5199601  16.1809847  )
        18           O1  tau(  18) = (   2.0145668   1.5037208  16.1256758  )
        19           Ti1 tau(  19) = (   3.2722398   2.9952086  15.7861162  )
        20           Ti1 tau(  20) = (   6.5630583   1.3046800  15.8709962  )
        21           O1  tau(  21) = (   3.2904802   0.0005063   4.7018136  )
        22           O1  tau(  22) = (   0.0019326   0.1554656  17.2922311  )
        23           O1  tau(  23) = (   1.3043587   1.4918075   6.0039043  )
        24           O1  tau(  24) = (   5.2767064   1.4903225   6.0039473  )
        25           Ti1 tau(  25) = (   0.0000382   5.9609847   6.0000000  )
        26           Ti1 tau(  26) = (   3.2902200   4.4714249   6.0002472  )
        27           O1  tau(  27) = (   0.0002396   2.9813036   7.9858123  )
        28           O1  tau(  28) = (   3.2902150   2.9813002   7.3038282  )
        29           O1  tau(  29) = (   4.5938453   4.4726049   9.2879030  )
        30           O1  tau(  30) = (   1.9864658   4.4711199   9.2879459  )
        31           Ti1 tau(  31) = (   3.2891106   5.8743827   9.1763621  )
        32           Ti1 tau(  32) = (   0.0006254   4.4649316   9.2693709  )
        33           O1  tau(  33) = (   3.2902589   2.9648534  11.3782866  )
        34           O1  tau(  34) = (   0.0092240   2.9805883  10.6323155  )
        35           O1  tau(  35) = (   1.2907939   4.4579819  12.6664495  )
        36           O1  tau(  36) = (   5.2949113   4.4550998  12.6520156  )
        37           Ti1 tau(  37) = (   0.0082621   5.9437129  12.5015890  )
        38           Ti1 tau(  38) = (   3.2989848   4.4491302  12.5337562  )
        39           O1  tau(  39) = (   6.5545586   3.0159292  14.9830317  )
        40           O1  tau(  40) = (   3.2960925   2.9977268  13.9872472  )
        41           O1  tau(  41) = (   4.5245867   4.4695491  16.2648171  )
        42           O1  tau(  42) = (   2.0004542   4.4779941  16.2115700  )
        43           Ti1 tau(  43) = (   3.2998562   0.0139781  15.8031611  )
        44           Ti1 tau(  44) = (   0.0298651   4.5190837  16.0363964  )
        45           O1  tau(  45) = (   3.2900926   2.9813045   4.7018136  )
        46           O1  tau(  46) = (   1.3039711   4.4726057   6.0039043  )
        47           O1  tau(  47) = (   5.2763189   4.4711207   6.0039473  )
        48           N1  tau(  48) = (   0.7490466   2.5008218  18.8453846  )
        49           N1  tau(  49) = (   6.4369825   3.4131575  18.1751453  )
        50           C1  tau(  50) = (   1.9829018   2.9174465  19.1941100  )
        51           H1  tau(  51) = (   2.1359794   3.9544348  19.4490303  )
        52           H1  tau(  52) = (   2.6935556   2.1521737  19.4548401  )
        53           H1  tau(  53) = (   0.6355624   1.5475814  18.4636284  )
        54           H1  tau(  54) = (   6.4936903   4.3158724  18.6511896  )
        55           H1  tau(  55) = (   5.4890587   3.0624770  18.3097170  )

     number of k points=    10  Fermi-Dirac smearing, width (Ry)=  0.0073
                       cart. coord. in units 2pi/alat
        k(    1) = (   0.0000000   0.0000000   0.0000000), wk =   0.1250000
        k(    2) = (   0.0000000   0.0419351   0.0000000), wk =   0.2500000
        k(    3) = (   0.0000000  -0.0838702   0.0000000), wk =   0.1250000
        k(    4) = (   0.0379955   0.0000049   0.0000000), wk =   0.2500000
        k(    5) = (   0.0379955   0.0419400   0.0000000), wk =   0.2500000
        k(    6) = (   0.0379955  -0.0838652   0.0000000), wk =   0.2500000
        k(    7) = (   0.0379955  -0.0419301   0.0000000), wk =   0.2500000
        k(    8) = (  -0.0759910  -0.0000099   0.0000000), wk =   0.1250000
        k(    9) = (  -0.0759910   0.0419252   0.0000000), wk =   0.2500000
        k(   10) = (  -0.0759910  -0.0838800   0.0000000), wk =   0.1250000

     Initial potential from superposition of free atoms

     starting charge  380.99914, renormalised to  397.00000

     negative rho (up, down):  1.606E-02 0.000E+00

     %%%%%%%%%%%%%%%%%%%%%%%%%%%%%%%%%%%%%%%%%%%%%%%%%%%%%%%%%%%%%%%%%%%%%%%%
     %                                                                      %
     % You are using vdW-DF, which was implemented by the Thonhauser group. %
     % Please cite the following two papers that made this development      %
     % possible and the two reviews that describe the various versions:     %
     %                                                                      %
     %   T. Thonhauser et al., PRL 115, 136402 (2015).                      %
     %   T. Thonhauser et al., PRB 76, 125112 (2007).                       %
     %   K. Berland et al., Rep. Prog. Phys. 78, 066501 (2015).             %
     %   D.C. Langreth et al., J. Phys.: Condens. Matter 21, 084203 (2009). %
     %                                                                      %
     %                                                                      %
     % If you are calculating the stress with vdW-DF, please also cite:     %
     %                                                                      %
     %   R. Sabatini et al., J. Phys.: Condens. Matter 24, 424209 (2012).   %
     %                                                                      %
     %%%%%%%%%%%%%%%%%%%%%%%%%%%%%%%%%%%%%%%%%%%%%%%%%%%%%%%%%%%%%%%%%%%%%%%%

     Adding external electric field

     Computed dipole along edir(3) :
        Dipole              -10.6809 Ry au,        -27.1482 Debye
        Dipole field         -0.0202 Ry au,

        Potential amp.        1.8685 Ry
        Total length         46.3494 bohr

     Starting wfcs are  301 atomic wfcs
  @ DRIVER MODE: Message from server: STATUS
  @ DRIVER MODE: Message from server: POSDATA
  @ DRIVER MODE: Reading and sharing cell
  @ DRIVER MODE: Reading and sharing positions
  @ DRIVER MODE: Received positions

     Self-consistent Calculation

     iteration #  1     ecut=    29.40 Ry     beta= 0.05
     Davidson diagonalization with overlap
     c_bands:  2 eigenvalues not converged
     c_bands:  3 eigenvalues not converged
     c_bands:  1 eigenvalues not converged
     c_bands:  4 eigenvalues not converged
     c_bands:  4 eigenvalues not converged
     c_bands:  4 eigenvalues not converged
     c_bands:  1 eigenvalues not converged
     c_bands:  2 eigenvalues not converged
     c_bands:  2 eigenvalues not converged
     ethr =  1.00E-05,  avg # of iterations = 20.0

[...]

     total energy              =   -2465.30890304 Ry
     estimated scf accuracy    <    5331.67253471 Ry

     iteration #  2     ecut=    29.40 Ry     beta= 0.05
     Davidson diagonalization with overlap
     ethr =  1.00E-02,  avg # of iterations = 23.2

[...]

     iteration # 81     ecut=    29.40 Ry     beta= 0.05
     Davidson diagonalization with overlap
     ethr =  7.30E-10,  avg # of iterations =  7.8

[...]

     total energy              =   -2941.51056060 Ry
     estimated scf accuracy    <       0.00000020 Ry

     iteration # 87     ecut=    29.40 Ry     beta= 0.05
     Davidson diagonalization with overlap
     c_bands:  1 eigenvalues not converged
     ethr =  2.53E-11,  avg # of iterations = 12.6

     negative rho (up, down):  1.517E-02 0.000E+00

     Adding external electric field

     Computed dipole along edir(3) :
        Dipole                1.2019 Ry au,          3.0549 Debye
        Dipole field          0.0023 Ry au,

        Potential amp.       -0.2103 Ry
        Total length         46.3494 bohr

     End of self-consistent calculation

          k = 0.0000 0.0000 0.0000 ( 18029 PWs)   bands (ev):

   -55.3850 -55.3481 -55.3394 -55.3053 -55.2668 -55.2605 -55.2322 -55.2138
   -55.1897 -55.1873 -55.1794 -55.1699 -55.1362 -55.0352 -54.3722 -54.3382
   -31.9478 -31.8326 -31.7805 -31.7542 -31.7029 -31.6922 -31.6866 -31.6764
   -31.6280 -31.6194 -31.5973 -31.5840 -31.5747 -31.5506 -31.5443 -31.5372
   -31.5248 -31.5089 -31.5073 -31.4921 -31.4914 -31.4549 -31.4540 -31.4441
   -31.4440 -31.4160 -31.3972 -31.3966 -31.3962 -31.3915 -31.3758 -31.3687
   -31.3678 -31.3616 -31.3616 -31.3590 -31.3271 -31.3028 -31.2977 -31.2813
   -31.2501 -31.2054 -30.7819 -30.6871 -30.6651 -30.5981 -30.5113 -30.4005
   -18.8580 -16.2172 -15.9636 -15.8165 -15.7089 -15.5915 -15.4829 -15.4279
   -15.3217 -15.2502 -15.1361 -15.0869 -15.0704 -15.0383 -15.0297 -15.0173
   -14.9377 -14.9314 -14.9137 -14.8906 -14.8848 -14.8429 -14.8313 -14.7903
   -14.7653 -14.7589 -14.6381 -14.5521 -14.4773 -14.3305 -14.3143 -12.8752
   -12.7577  -9.8335  -7.4339  -6.2320  -4.9904  -4.0022  -3.5812  -3.5495
    -3.4108  -3.3025  -3.2818  -3.2426  -3.1453  -2.9645  -2.8280  -2.7946
    -2.6783  -2.5977  -2.5845  -2.5539  -2.4289  -2.3919  -2.3529  -2.2881
    -2.2585  -2.1962  -2.1775  -2.1660  -2.1469  -2.1225  -2.0983  -1.9972
    -1.9586  -1.8628  -1.8229  -1.7896  -1.7483  -1.7312  -1.7111  -1.6802
    -1.6701  -1.6159  -1.6020  -1.5881  -1.5393  -1.4214  -1.3003  -1.2669
    -1.1779  -1.0304  -0.9933  -0.9731  -0.9159  -0.8809  -0.8581  -0.8279
    -0.7673  -0.7284  -0.6715  -0.6127  -0.5443  -0.4991  -0.4536  -0.4193
    -0.3805  -0.2958  -0.2161  -0.1703  -0.1571  -0.1402  -0.0406  -0.0045
     0.0503   0.1268   0.1288   0.1410   0.1836   0.2659   0.3433   0.3610
     0.3843   0.4892   0.4938   0.5368   0.5392   0.5595   0.5936   0.6281
     0.6784   0.7054   0.7927   0.8895   1.1157   1.2169   1.2197   1.5431
     1.5539   1.6501   1.8332   2.2268   2.2753   3.7068   3.7771   3.7971
     3.8546   3.8576   3.9266   3.9440   4.1898   4.2153   4.2158   4.2348

[...]

          k = 0.0380-0.0419 0.0000 ( 17876 PWs)   bands (ev):

[...]

          k =-0.0760-0.0000 0.0000 ( 17886 PWs)   bands (ev):

[...]

          k =-0.0760-0.0839 0.0000 ( 17948 PWs)   bands (ev):

   -55.3709 -55.3619 -55.3225 -55.3220 -55.2561 -55.2517 -55.2473 -55.1980
   -55.1947 -55.1926 -55.1863 -55.1534 -55.1527 -55.0374 -54.3552 -54.3550
   -31.7569 -31.7479 -31.6894 -31.6644 -31.6479 -31.6475 -31.6295 -31.6134
   -31.6131 -31.5967 -31.5888 -31.5804 -31.5650 -31.5333 -31.5310 -31.5266
   -31.5261 -31.5249 -31.5135 -31.5093 -31.4802 -31.4678 -31.4638 -31.4540
   -31.4485 -31.4448 -31.4424 -31.4418 -31.4391 -31.4304 -31.4277 -31.4107
   -31.4097 -31.4072 -31.3877 -31.3860 -31.3857 -31.3763 -31.3340 -31.3331
   -31.2993 -31.2519 -30.6778 -30.6776 -30.5944 -30.5942 -30.5548 -30.5547
   -18.8517 -15.7690 -15.5998 -15.5808 -15.4366 -15.4003 -15.3573 -15.3463
   -15.2522 -15.2169 -15.1909 -15.1601 -15.1391 -15.1035 -15.0901 -15.0730
   -15.0161 -14.9938 -14.9882 -14.9683 -14.9091 -14.9048 -14.8971 -14.8942
   -14.8394 -14.8362 -14.8280 -14.7455 -14.7426 -14.6308 -14.2536 -12.8592
   -12.8592  -9.8034  -7.3927  -6.2297  -5.0875  -3.9441  -3.6057  -2.8573
    -2.8509  -2.8376  -2.6526  -2.5697  -2.5471  -2.5417  -2.4516  -2.4142
    -2.3689  -2.3665  -2.3131  -2.3068  -2.2796  -2.2390  -2.2275  -2.2076
    -2.1889  -2.1799  -2.1442  -2.1212  -2.1113  -2.0812  -2.0502  -2.0338
    -2.0265  -2.0049  -1.9741  -1.9548  -1.9424  -1.8895  -1.7777  -1.7624
    -1.6670  -1.6003  -1.5960  -1.5226  -1.4987  -1.4560  -1.4490  -1.4238
    -1.3792  -1.1997  -1.1682  -1.1372  -1.1295  -1.0441  -0.9914  -0.9197
    -0.9144  -0.8885  -0.8535  -0.7595  -0.7234  -0.7044  -0.6294  -0.6055
    -0.5395  -0.4979  -0.4314  -0.4006  -0.3467  -0.3447  -0.3109  -0.2964
    -0.2795  -0.2071  -0.1608  -0.1264  -0.1142  -0.0823   0.1144   0.1237
     0.1400   0.2483   0.2934   0.4408   0.4555   0.5183   0.6242   0.6505
     0.7204   0.7453   0.9019   0.9136   0.9288   0.9821   0.9902   1.0600
     1.0694   2.0062   2.0067   2.0951   2.0954   3.6772   3.8941   3.9651
     3.9798   4.0128   4.1378   4.2059   4.2244   4.2928   4.2954   4.3250

     the Fermi energy is     3.7727 ev

!    total energy              =   -2941.51056649 Ry
     estimated scf accuracy    <       0.00000006 Ry
     smearing contrib. (-TS)   =      -0.04441697 Ry
     internal energy E=F+TS    =   -2941.46614952 Ry

     The total energy is F=E-TS. E is the sum of the following terms:
     one-electron contribution =  -23631.27821593 Ry
     hartree contribution      =   11907.90149076 Ry
     xc contribution           =    -486.88245668 Ry
     ewald contribution        =    9268.79030622 Ry
     electric field correction =       0.00272611 Ry

     convergence has been achieved in  87 iterations

     Forces acting on atoms (cartesian axes, Ry/au):

     atom    1 type  1   force =     0.00012542   -0.00019165    0.09301036
     atom    2 type  1   force =    -0.00009115   -0.00045619   -0.17840217
     atom    3 type  2   force =     0.00004654   -0.00037171   -0.02004207
     atom    4 type  2   force =    -0.00001004   -0.00201683    0.05932653
     atom    5 type  2   force =    -0.01030073   -0.00099146    0.00817876
     atom    6 type  2   force =     0.01173328   -0.00039084    0.00732077
     atom    7 type  1   force =    -0.00038251    0.00239778   -0.01420672
     atom    8 type  1   force =     0.00022876   -0.00123376   -0.00619927
     atom    9 type  2   force =    -0.00023446    0.00022151    0.00015063
     atom   10 type  2   force =    -0.00162397    0.00148224    0.00163409
     atom   11 type  2   force =    -0.00004329   -0.00016228    0.00010425
     atom   12 type  2   force =    -0.00018743   -0.00016010   -0.00000434
     atom   13 type  1   force =     0.00007990   -0.00027742    0.00005408
     atom   14 type  1   force =     0.00019207    0.00019697    0.00029366
     atom   15 type  2   force =    -0.00009013    0.00025119   -0.00024162
     atom   16 type  2   force =     0.00017278   -0.00021101    0.00012097
     atom   17 type  2   force =    -0.00006358   -0.00003638    0.00035771
     atom   18 type  2   force =    -0.00032135   -0.00006079   -0.00011133
     atom   19 type  1   force =    -0.00010637   -0.00005941    0.00033308
     atom   20 type  1   force =    -0.00014878    0.00006123    0.00031721
     atom   21 type  2   force =     0.00005900   -0.00008441    0.10397563
     atom   22 type  2   force =     0.00018732    0.00017536   -0.00044098
     atom   23 type  2   force =    -0.07029269   -0.00017621   -0.02686448
     atom   24 type  2   force =     0.07017633    0.00027193   -0.02688933
     atom   25 type  1   force =    -0.00001467   -0.00013399    0.09259729
     atom   26 type  1   force =    -0.00007127   -0.00038931   -0.17856552
     atom   27 type  2   force =     0.00009568   -0.00030161   -0.01913234
     atom   28 type  2   force =     0.00003880   -0.00178747    0.05867014
     atom   29 type  2   force =    -0.01079923   -0.00126578    0.00872551
     atom   30 type  2   force =     0.01215179   -0.00086482    0.00782796
     atom   31 type  1   force =    -0.00029127    0.00613865   -0.01443986
     atom   32 type  1   force =     0.00028959    0.00070909   -0.00651777
     atom   33 type  2   force =    -0.00022645   -0.00024910    0.00001203
     atom   34 type  2   force =    -0.00093523   -0.00222737   -0.00016901
     atom   35 type  2   force =    -0.00039827    0.00023635    0.00015339
     atom   36 type  2   force =     0.00010492    0.00019577   -0.00026590
     atom   37 type  1   force =     0.00018253   -0.00001809    0.00002316
     atom   38 type  1   force =     0.00032398    0.00019368    0.00010982
     atom   39 type  2   force =    -0.00026356    0.00017285   -0.00027254
     atom   40 type  2   force =    -0.00009486   -0.00015977   -0.00011538
     atom   41 type  2   force =    -0.00008502    0.00033216   -0.00005408
     atom   42 type  2   force =    -0.00019201    0.00015959   -0.00005681
     atom   43 type  1   force =     0.00047421   -0.00005010    0.00024813
     atom   44 type  1   force =     0.00021998   -0.00032606    0.00004416
     atom   45 type  2   force =     0.00004410   -0.00008811    0.10396035
     atom   46 type  2   force =    -0.07026890   -0.00010304   -0.02681933
     atom   47 type  2   force =     0.07014845    0.00031543   -0.02685572
     atom   48 type  3   force =    -0.00631174   -0.00513863   -0.00647802
     atom   49 type  3   force =     0.00234543   -0.00074447    0.00143136
     atom   50 type  4   force =     0.00306954    0.00144545    0.00033216
     atom   51 type  5   force =     0.00078537   -0.00082668    0.00032725
     atom   52 type  5   force =     0.00076070    0.00058047    0.00012508
     atom   53 type  5   force =     0.00078016    0.00508923    0.00311212
     atom   54 type  5   force =    -0.00052409    0.00126831    0.00007134
     atom   55 type  5   force =    -0.00044354   -0.00034042    0.00019562

     Total force =     0.366600     Total SCF correction =     0.000902
  @ DRIVER MODE: Message from server: STATUS
  @ DRIVER MODE: Message from server: GETFORCE
  @ DRIVER MODE: Returning v,forces,stress,ensemble

     Writing output data file ./calc.save/
  @ DRIVER MODE: Message from server: EXIT
  @ DRIVE MODE: Exiting

     General routines

     Parallel routines

   This run was terminated on:  20: 3:58  10Sep2021

   JOB DONE.