     Program PWSCF v.6.7GPU starts on 16Sep2021 at  7:50: 3

     R & G space division:  proc/nbgrp/npool/nimage =      10
     Reading input from /storage/home/hcoda1/3/ntian30/research/carbon/CxH_vib/H2O_calc/ads_slab/CH3N2HH2O_a/out_0050/pw.inp
Warning: card &CELL ignored
Warning: card   CELL_DYNAMICS='IPI', ignored
Warning: card / ignored

     Current dimensions of program PWSCF are:
     Max number of different atomic species (ntypx) = 10
     Max number of k-points (npk) =  40000
     Max angular momentum in pseudopotentials (lmaxx) =  3
     Presently no symmetry can be used with electric field

     Message from routine cell_base_init:
     DEPRECATED: use true lattice parameter, not A to a.u. conversion factor

     IMPORTANT: XC functional enforced from input :
     Exchange-correlation= BEEF-VDW
                           (   1   4  43  14   2   0   0)
     Any further DFT definition will be discarded
     Please, verify this is what you really want

  @ DRIVER MODE: Connecting to
 qe_1139763_2852617.sched-torque.pace.gatech.edupzgv8bci_scratch
  using UNIX socket
  @ DRIVER MODE: Message from server: STATUS
  @ DRIVER MODE: Message from server: INIT
  @ DRIVER MODE: Receiving replica           0          -1
  @ DRIVER MODE: Receiving encoded integer          25
  @ DRIVER MODE:  SCF:  T  FORCE:  T  STRESS:  F  VC:  F  ENSEMBLE:  F
  @ DRIVER MODE:  SCF:  T  FORCE:  T  STRESS:  F  VC:  F  ENSEMBLE:  F

     Using Slab Decomposition

     bravais-lattice index     =            0
     lattice parameter (alat)  =       1.8897  a.u.
     unit-cell volume          =    6658.9804 (a.u.)^3
     number of atoms/cell      =           57
     number of atomic types    =            5
     number of electrons       =       404.00
     number of Kohn-Sham states=          212
     kinetic-energy cutoff     =      29.3995  Ry
     charge density cutoff     =     293.9946  Ry
     scf convergence threshold =      7.3E-08
     mixing beta               =       0.0500
     number of iterations used =            8  plain     mixing
     Exchange-correlation= BEEF-VDW
                           (   1   4  43  14   2   0   0)

     celldm(1)=   1.889726  celldm(2)=   0.000000  celldm(3)=   0.000000
     celldm(4)=   0.000000  celldm(5)=   0.000000  celldm(6)=   0.000000

     crystal axes: (cart. coord. in units of alat)
               a(1) = (   6.579727   0.000000   0.000000 )
               a(2) = (  -0.000775   5.961596   0.000000 )
               a(3) = (   0.000000   0.000000  25.155947 )

     reciprocal axes: (cart. coord. in units 2 pi/alat)
               b(1) = (  0.151982  0.000020  0.000000 )
               b(2) = (  0.000000  0.167740  0.000000 )
               b(3) = (  0.000000  0.000000  0.039752 )

     PseudoPot. # 1 for Ti read from file:
     /storage/coda1/p-amedford6/0/shared/rich_project_chbe-medford/medford-share/data/pseudos_module/espresso/nninc/pbe/van/Ti.UPF
     MD5 check sum: 8e4df49b7f0d34bbd5052bf3f5ea0213
     Pseudo is Ultrasoft, Zval = 12.0
     Generated by new atomic code, or converted to UPF format
     Using radial grid of  851 points,  6 beta functions with:
                l(1) =   0
                l(2) =   0
                l(3) =   1
                l(4) =   1
                l(5) =   2
                l(6) =   2
     Q(r) pseudized with  8 coefficients,  rinner =    1.000   1.000   1.000
                                                       1.000   1.000

     PseudoPot. # 2 for O  read from file:
     /storage/coda1/p-amedford6/0/shared/rich_project_chbe-medford/medford-share/data/pseudos_module/espresso/nninc/pbe/van/O.UPF
     MD5 check sum: 78c19812648e8988a0fe644b0f25305e
     Pseudo is Ultrasoft, Zval =  6.0
     Generated by new atomic code, or converted to UPF format
     Using radial grid of  737 points,  4 beta functions with:
                l(1) =   0
                l(2) =   0
                l(3) =   1
                l(4) =   1
     Q(r) pseudized with  8 coefficients,  rinner =    0.800   0.800   0.800

     PseudoPot. # 3 for N  read from file:
     /storage/coda1/p-amedford6/0/shared/rich_project_chbe-medford/medford-share/data/pseudos_module/espresso/nninc/pbe/van/N.UPF
     MD5 check sum: 90d10febe142ad51ac9d5be1deb811c4
     Pseudo is Ultrasoft, Zval =  5.0
     Generated by new atomic code, or converted to UPF format
     Using radial grid of  729 points,  4 beta functions with:
                l(1) =   0
                l(2) =   0
                l(3) =   1
                l(4) =   1
     Q(r) pseudized with  8 coefficients,  rinner =    0.800   0.800   0.800

     PseudoPot. # 4 for C  read from file:
     /storage/coda1/p-amedford6/0/shared/rich_project_chbe-medford/medford-share/data/pseudos_module/espresso/nninc/pbe/van/C.UPF
     MD5 check sum: 1a69bf6b8db32088f5b2163dbdb77a27
     Pseudo is Ultrasoft, Zval =  4.0
     Generated by new atomic code, or converted to UPF format
     Using radial grid of  721 points,  4 beta functions with:
                l(1) =   0
                l(2) =   0
                l(3) =   1
                l(4) =   1
     Q(r) pseudized with  8 coefficients,  rinner =    0.800   0.800   0.800

     PseudoPot. # 5 for H  read from file:
     /storage/coda1/p-amedford6/0/shared/rich_project_chbe-medford/medford-share/data/pseudos_module/espresso/nninc/pbe/van/H.UPF
     MD5 check sum: b5ee9d7bfd3a09ee7748110bda690ff7
     Pseudo is Ultrasoft, Zval =  1.0
     Generated by new atomic code, or converted to UPF format
     Using radial grid of  615 points,  1 beta functions with:
                l(1) =   0
     Q(r) pseudized with  8 coefficients,  rinner =    0.800

     atomic species   valence    mass     pseudopotential
        Ti1           12.00    47.86700     Ti( 1.00)
        O1             6.00    15.99900     O ( 1.00)
        N1             5.00    14.00700     N ( 1.00)
        C1             4.00    12.01100     C ( 1.00)
        H1             1.00     1.00800     H ( 1.00)

     No symmetry found

   Cartesian axes

     site n.     atom                  positions (alat units)
         1           Ti1 tau(   1) = (   0.0004258   2.9801865   6.0000000  )
         2           Ti1 tau(   2) = (   3.2906075   1.4906267   6.0002472  )
         3           O1  tau(   3) = (   0.0006271   0.0005054   7.9858123  )
         4           O1  tau(   4) = (   3.2906025   0.0005020   7.3038282  )
         5           O1  tau(   5) = (   4.5942328   1.4918067   9.2879030  )
         6           O1  tau(   6) = (   1.9868534   1.4903216   9.2879459  )
         7           Ti1 tau(   7) = (   3.2907910   2.8959150   9.1758416  )
         8           Ti1 tau(   8) = (   0.0015273   1.4827037   9.2680791  )
         9           O1  tau(   9) = (   3.2846840   0.0164488  11.3171736  )
        10           O1  tau(  10) = (   0.0116148   5.9584955  10.6183126  )
        11           O1  tau(  11) = (   1.2780696   1.4966870  12.6228330  )
        12           O1  tau(  12) = (   5.2671132   1.5021727  12.6038655  )
        13           Ti1 tau(  13) = (   0.0814623   2.9703834  12.6092300  )
        14           Ti1 tau(  14) = (   3.3984034   1.5042134  12.4754612  )
        15           O1  tau(  15) = (   6.5611900   5.9602394  14.6246442  )
        16           O1  tau(  16) = (   3.2847170   0.0117735  13.9091713  )
        17           O1  tau(  17) = (   4.5127615   1.5439160  15.9886145  )
        18           O1  tau(  18) = (   2.0245574   1.5486524  15.9865356  )
        19           Ti1 tau(  19) = (   3.2678410   3.0292036  15.6627315  )
        20           Ti1 tau(  20) = (   6.5437773   1.5790868  15.8036792  )
        21           O1  tau(  21) = (   3.2904802   0.0005063   4.7018136  )
        22           O1  tau(  22) = (   6.5616667   0.0409992  17.2467836  )
        23           O1  tau(  23) = (   1.3043587   1.4918075   6.0039043  )
        24           O1  tau(  24) = (   5.2767064   1.4903225   6.0039473  )
        25           Ti1 tau(  25) = (   0.0000382   5.9609847   6.0000000  )
        26           Ti1 tau(  26) = (   3.2902200   4.4714249   6.0002472  )
        27           O1  tau(  27) = (   0.0002396   2.9813036   7.9858123  )
        28           O1  tau(  28) = (   3.2902150   2.9813002   7.3038282  )
        29           O1  tau(  29) = (   4.5938453   4.4726049   9.2879030  )
        30           O1  tau(  30) = (   1.9864658   4.4711199   9.2879459  )
        31           Ti1 tau(  31) = (   3.2891106   5.8743827   9.1763621  )
        32           Ti1 tau(  32) = (   0.0006254   4.4649316   9.2693709  )
        33           O1  tau(  33) = (   3.2886753   2.9955121  11.3174028  )
        34           O1  tau(  34) = (   0.0092240   2.9805883  10.6323155  )
        35           O1  tau(  35) = (   1.2771457   4.4765085  12.6200386  )
        36           O1  tau(  36) = (   5.2716127   4.4859779  12.5990880  )
        37           Ti1 tau(  37) = (   0.0719143   5.9417653  12.6408960  )
        38           Ti1 tau(  38) = (   3.4009286   4.4967646  12.4819834  )
        39           O1  tau(  39) = (   6.5633752   2.9851081  14.6229342  )
        40           O1  tau(  40) = (   3.2806164   3.0132077  13.8636590  )
        41           O1  tau(  41) = (   4.5054435   4.4842064  16.0752605  )
        42           O1  tau(  42) = (   2.0287922   4.4846499  16.0567397  )
        43           Ti1 tau(  43) = (   3.2585180   0.0608266  15.7494983  )
        44           Ti1 tau(  44) = (   6.5556145   4.6328118  16.1363011  )
        45           O1  tau(  45) = (   3.2900926   2.9813045   4.7018136  )
        46           O1  tau(  46) = (   1.3039711   4.4726057   6.0039043  )
        47           O1  tau(  47) = (   5.2763189   4.4711207   6.0039473  )
        48           N1  tau(  48) = (   6.4582227   2.6263240  18.5734135  )
        49           N1  tau(  49) = (   6.5493832   2.9496485  17.3103279  )
        50           C1  tau(  50) = (   0.1600853   3.5596473  19.6455425  )
        51           H1  tau(  51) = (   6.1911903   4.4878083  19.4849519  )
        52           H1  tau(  52) = (   6.4401482   3.1080517  20.5902855  )
        53           H1  tau(  53) = (   1.2308410   3.8049764  19.6956042  )
        54           H1  tau(  54) = (   6.5044843   1.6253530  18.7706356  )
        55           O1  tau(  55) = (   3.2415852   0.0755412  18.2049893  )
        56           H1  tau(  56) = (   4.0209045   5.4607113  18.3409029  )
        57           H1  tau(  57) = (   2.4534619   5.4803556  18.3240773  )

     number of k points=    10  Fermi-Dirac smearing, width (Ry)=  0.0073
                       cart. coord. in units 2pi/alat
        k(    1) = (   0.0000000   0.0000000   0.0000000), wk =   0.1250000
        k(    2) = (   0.0000000   0.0419351   0.0000000), wk =   0.2500000
        k(    3) = (   0.0000000  -0.0838702   0.0000000), wk =   0.1250000
        k(    4) = (   0.0379955   0.0000049   0.0000000), wk =   0.2500000
        k(    5) = (   0.0379955   0.0419400   0.0000000), wk =   0.2500000
        k(    6) = (   0.0379955  -0.0838652   0.0000000), wk =   0.2500000
        k(    7) = (   0.0379955  -0.0419301   0.0000000), wk =   0.2500000
        k(    8) = (  -0.0759910  -0.0000099   0.0000000), wk =   0.1250000
        k(    9) = (  -0.0759910   0.0419252   0.0000000), wk =   0.2500000
        k(   10) = (  -0.0759910  -0.0838800   0.0000000), wk =   0.1250000

     Initial potential from superposition of free atoms

     starting charge  387.99913, renormalised to  404.00000

     negative rho (up, down):  1.445E-02 0.000E+00

     %%%%%%%%%%%%%%%%%%%%%%%%%%%%%%%%%%%%%%%%%%%%%%%%%%%%%%%%%%%%%%%%%%%%%%%%
     %                                                                      %
     % You are using vdW-DF, which was implemented by the Thonhauser group. %
     % Please cite the following two papers that made this development      %
     % possible and the two reviews that describe the various versions:     %
     %                                                                      %
     %   T. Thonhauser et al., PRL 115, 136402 (2015).                      %
     %   T. Thonhauser et al., PRB 76, 125112 (2007).                       %
     %   K. Berland et al., Rep. Prog. Phys. 78, 066501 (2015).             %
     %   D.C. Langreth et al., J. Phys.: Condens. Matter 21, 084203 (2009). %
     %                                                                      %
     %                                                                      %
     % If you are calculating the stress with vdW-DF, please also cite:     %
     %                                                                      %
     %   R. Sabatini et al., J. Phys.: Condens. Matter 24, 424209 (2012).   %
     %                                                                      %
     %%%%%%%%%%%%%%%%%%%%%%%%%%%%%%%%%%%%%%%%%%%%%%%%%%%%%%%%%%%%%%%%%%%%%%%%

     Adding external electric field

     Computed dipole along edir(3) :
        Dipole              -13.5668 Ry au,        -34.4835 Debye
        Dipole field         -0.0256 Ry au,

        Potential amp.        2.3733 Ry
        Total length         46.3494 bohr

     Starting wfcs are  306 atomic wfcs
  @ DRIVER MODE: Message from server: STATUS
  @ DRIVER MODE: Message from server: POSDATA
  @ DRIVER MODE: Reading and sharing cell
  @ DRIVER MODE: Reading and sharing positions
  @ DRIVER MODE: Received positions

     Self-consistent Calculation

     iteration #  1     ecut=    29.40 Ry     beta= 0.05
     Davidson diagonalization with overlap
     c_bands:  4 eigenvalues not converged
     c_bands:  4 eigenvalues not converged
     c_bands:  4 eigenvalues not converged
     c_bands:  4 eigenvalues not converged
     c_bands:  3 eigenvalues not converged
     c_bands:  3 eigenvalues not converged
     ethr =  1.00E-05,  avg # of iterations = 25.3

[...]

     total energy              =   -2339.14557339 Ry
     estimated scf accuracy    <    7250.84824294 Ry

     iteration #  2     ecut=    29.40 Ry     beta= 0.05
     Davidson diagonalization with overlap
     ethr =  1.00E-02,  avg # of iterations = 23.7

[...]

     iteration # 51     ecut=    29.40 Ry     beta= 0.05
     Davidson diagonalization with overlap
     c_bands:  1 eigenvalues not converged
     c_bands:  1 eigenvalues not converged
     ethr =  3.32E-07,  avg # of iterations = 14.7

[...]

     total energy              =   -2975.23039454 Ry
     estimated scf accuracy    <       0.00000023 Ry

     iteration # 77     ecut=    29.40 Ry     beta= 0.05
     Davidson diagonalization with overlap
     ethr =  4.84E-11,  avg # of iterations =  2.9

     negative rho (up, down):  1.507E-02 0.000E+00

     Adding external electric field

     Computed dipole along edir(3) :
        Dipole                1.1610 Ry au,          2.9509 Debye
        Dipole field          0.0022 Ry au,

        Potential amp.       -0.2031 Ry
        Total length         46.3494 bohr

     End of self-consistent calculation

          k = 0.0000 0.0000 0.0000 ( 18029 PWs)   bands (ev):

   -55.5058 -55.4719 -55.3330 -55.2965 -55.2628 -55.2291 -55.2028 -55.1982
   -55.1881 -55.1652 -55.1537 -55.0141 -54.5533 -54.4363 -54.4023 -54.3897
   -31.9788 -31.8683 -31.8002 -31.7851 -31.7218 -31.7129 -31.6771 -31.6592
   -31.6219 -31.6040 -31.6013 -31.5743 -31.5648 -31.5203 -31.5123 -31.5013
   -31.4822 -31.4797 -31.4560 -31.4386 -31.4249 -31.4173 -31.4142 -31.3959
   -31.3929 -31.3852 -31.3755 -31.3683 -31.3662 -31.3640 -31.3419 -31.3305
   -31.3180 -31.3005 -31.2063 -31.1790 -31.0473 -30.8413 -30.7776 -30.7633
   -30.7582 -30.7354 -30.7249 -30.6583 -30.6000 -30.5721 -30.5692 -30.4610
   -18.7356 -17.7495 -16.0743 -15.8822 -15.6099 -15.4861 -15.4594 -15.2755
   -15.1991 -15.1478 -15.0156 -14.9684 -14.9392 -14.9090 -14.8966 -14.8393
   -14.8117 -14.7849 -14.7548 -14.7508 -14.7313 -14.7091 -14.6675 -14.6106
   -14.5854 -14.5240 -14.4740 -14.4523 -14.3585 -14.3544 -13.9302 -12.9379
   -12.8223 -11.9022  -8.8056  -6.5335  -5.6086  -4.3232  -4.0892  -3.4589
    -3.3835  -3.3245  -3.2080  -3.1277  -2.9902  -2.9405  -2.8821  -2.7669
    -2.6054  -2.5474  -2.5194  -2.4925  -2.4074  -2.2746  -2.2632  -2.2152
    -2.1874  -2.1667  -2.1521  -2.1361  -2.0398  -2.0020  -1.9648  -1.8544
    -1.8173  -1.7960  -1.7790  -1.7698  -1.7536  -1.6891  -1.6568  -1.6379
    -1.6287  -1.5918  -1.5567  -1.5457  -1.4163  -1.3954  -1.2780  -1.1518
    -1.1295  -1.0718  -1.0474  -0.8885  -0.8803  -0.8611  -0.8198  -0.8123
    -0.7404  -0.6675  -0.6246  -0.5508  -0.4323  -0.4229  -0.3879  -0.2417
    -0.2381  -0.2155  -0.1772  -0.1657  -0.1137  -0.1041  -0.0590   0.0017
     0.0961   0.1670   0.2723   0.2753   0.3283   0.3675   0.3805   0.4378
     0.4546   0.5043   0.5160   0.5237   0.5755   0.6104   0.6231   0.6813
     0.7323   0.8493   0.9187   0.9435   0.9902   1.1122   1.1874   1.2350
     1.2401   1.4086   1.5310   1.5605   1.5860   1.7862   1.8179   2.1528
     2.1966   3.6682   3.6850   3.7747   3.8338   3.9478   4.0195   4.1079
     4.1882   4.2573   4.3497   4.3743

[...]

          k = 0.0380-0.0419 0.0000 ( 17876 PWs)   bands (ev):

[...]

          k =-0.0760-0.0000 0.0000 ( 17886 PWs)   bands (ev):

[...]

          k =-0.0760-0.0839 0.0000 ( 17948 PWs)   bands (ev):

   -55.4889 -55.4886 -55.3185 -55.3108 -55.2459 -55.2456 -55.1965 -55.1912
   -55.1766 -55.1742 -55.1676 -55.0157 -54.5517 -54.4193 -54.4191 -54.3912
   -31.7944 -31.7943 -31.7854 -31.7854 -31.6814 -31.6642 -31.6100 -31.6095
   -31.5706 -31.5659 -31.5627 -31.5579 -31.5552 -31.5496 -31.5171 -31.5121
   -31.4903 -31.4804 -31.4787 -31.4705 -31.4391 -31.4369 -31.4288 -31.4262
   -31.4155 -31.4122 -31.4024 -31.3998 -31.3954 -31.3896 -31.3884 -31.3837
   -31.3563 -31.3321 -31.3161 -31.2140 -30.9568 -30.8013 -30.7664 -30.7483
   -30.7481 -30.7461 -30.6544 -30.6542 -30.6188 -30.6153 -30.6153 -30.6001
   -18.7346 -17.7436 -15.4974 -15.4314 -15.3608 -15.3569 -15.2520 -15.1990
   -15.1043 -15.0936 -15.0864 -15.0833 -14.9829 -14.9796 -14.9133 -14.9044
   -14.8650 -14.8585 -14.8548 -14.8380 -14.8231 -14.8180 -14.8028 -14.7562
   -14.7394 -14.7336 -14.5701 -14.5448 -14.4295 -14.4110 -14.0545 -12.9245
   -12.9243 -11.9035  -8.8160  -6.5171  -5.6006  -4.2728  -4.1097  -2.9317
    -2.8948  -2.7888  -2.6581  -2.5291  -2.5168  -2.4956  -2.4591  -2.2931
    -2.2804  -2.2650  -2.2554  -2.2138  -2.2025  -2.1836  -2.1693  -2.1153
    -2.0979  -2.0794  -2.0747  -2.0637  -2.0572  -2.0475  -2.0381  -2.0302
    -2.0067  -1.9586  -1.9381  -1.8556  -1.7704  -1.7598  -1.6835  -1.5545
    -1.5481  -1.5365  -1.5350  -1.5219  -1.5125  -1.4713  -1.4326  -1.3813
    -1.2697  -1.1503  -1.1022  -1.0837  -1.0289  -1.0104  -0.9217  -0.8412
    -0.8065  -0.7879  -0.7025  -0.6539  -0.5747  -0.5587  -0.5225  -0.4719
    -0.4474  -0.4340  -0.4180  -0.4097  -0.3467  -0.3023  -0.2343  -0.2210
    -0.1652  -0.1337  -0.1049  -0.0819  -0.0415   0.0514   0.0595   0.0881
     0.1146   0.1296   0.2042   0.3547   0.3953   0.6344   0.6436   0.7153
     0.8438   0.8663   0.8735   0.9499   0.9634   1.0009   1.0221   1.1422
     1.1651   1.1896   1.3178   1.3531   1.4453   1.9558   1.9567   2.0156
     2.0161   3.5309   4.1325   4.1426   4.1596   4.1729   4.1983   4.2049
     4.2476   4.2609   4.3937   4.4146

     the Fermi energy is     3.6441 ev

!    total energy              =   -2975.23040509 Ry
     estimated scf accuracy    <       0.00000003 Ry
     smearing contrib. (-TS)   =      -0.02107562 Ry
     internal energy E=F+TS    =   -2975.20932947 Ry

     The total energy is F=E-TS. E is the sum of the following terms:
     one-electron contribution =  -23878.55673909 Ry
     hartree contribution      =   12036.69076939 Ry
     xc contribution           =    -494.91965769 Ry
     ewald contribution        =    9361.57375434 Ry
     electric field correction =       0.00254357 Ry

     convergence has been achieved in  77 iterations

     Forces acting on atoms (cartesian axes, Ry/au):

     atom    1 type  1   force =     0.00016932   -0.00022950    0.09948010
     atom    2 type  1   force =    -0.00014644   -0.00038963   -0.17307917
     atom    3 type  2   force =    -0.00006743   -0.00000197   -0.02913316
     atom    4 type  2   force =     0.00004028   -0.00102539    0.04891378
     atom    5 type  2   force =    -0.01224506    0.00099579    0.00047691
     atom    6 type  2   force =     0.01355550    0.00186826   -0.00111834
     atom    7 type  1   force =    -0.00136498   -0.00053074   -0.00300062
     atom    8 type  1   force =     0.00094880   -0.00608533    0.04541152
     atom    9 type  2   force =    -0.00000315   -0.00023278   -0.00003401
     atom   10 type  2   force =    -0.00155409    0.00261765   -0.03096238
     atom   11 type  2   force =    -0.00018084   -0.00044865    0.00004474
     atom   12 type  2   force =     0.00009015   -0.00023321    0.00014670
     atom   13 type  1   force =    -0.00019328   -0.00054464   -0.00035026
     atom   14 type  1   force =     0.00030678   -0.00017535    0.00025926
     atom   15 type  2   force =     0.00000099   -0.00012769   -0.00024040
     atom   16 type  2   force =    -0.00021647    0.00004958    0.00009448
     atom   17 type  2   force =     0.00021008   -0.00026987    0.00015941
     atom   18 type  2   force =    -0.00007478   -0.00033886    0.00000422
     atom   19 type  1   force =     0.00004686   -0.00012686    0.00039698
     atom   20 type  1   force =    -0.00001094   -0.00048369    0.00019175
     atom   21 type  2   force =     0.00008827   -0.00000527    0.10255455
     atom   22 type  2   force =     0.00000979   -0.00021731    0.00007241
     atom   23 type  2   force =    -0.07248843   -0.00008818   -0.02845568
     atom   24 type  2   force =     0.07245307    0.00034409   -0.02843678
     atom   25 type  1   force =     0.00009516   -0.00027462    0.09898763
     atom   26 type  1   force =    -0.00006074   -0.00041506   -0.17325666
     atom   27 type  2   force =    -0.00003264    0.00000640   -0.02843907
     atom   28 type  2   force =     0.00009567   -0.00075701    0.04807730
     atom   29 type  2   force =    -0.01261553    0.00063324    0.00051103
     atom   30 type  2   force =     0.01385195    0.00096177   -0.00105790
     atom   31 type  1   force =    -0.00146323    0.00225715   -0.00571988
     atom   32 type  1   force =     0.00112345    0.00383943    0.04592596
     atom   33 type  2   force =    -0.00006637   -0.00026330   -0.00011248
     atom   34 type  2   force =    -0.00096221    0.00134143   -0.03381698
     atom   35 type  2   force =    -0.00028708    0.00004471   -0.00024393
     atom   36 type  2   force =     0.00049311    0.00010203   -0.00003603
     atom   37 type  1   force =    -0.00031661    0.00007212    0.00024178
     atom   38 type  1   force =     0.00017808   -0.00028663    0.00007100
     atom   39 type  2   force =     0.00002518   -0.00052261    0.00042385
     atom   40 type  2   force =    -0.00005109    0.00017522   -0.00026583
     atom   41 type  2   force =    -0.00005076   -0.00027118    0.00001657
     atom   42 type  2   force =     0.00017936   -0.00019711   -0.00010403
     atom   43 type  1   force =     0.00004467   -0.00000392    0.00007837
     atom   44 type  1   force =     0.00003780   -0.00033845   -0.00010505
     atom   45 type  2   force =     0.00009634   -0.00001060    0.10255239
     atom   46 type  2   force =    -0.07250769   -0.00000787   -0.02844643
     atom   47 type  2   force =     0.07246904    0.00037781   -0.02843842
     atom   48 type  3   force =    -0.00036194   -0.00038971   -0.00033802
     atom   49 type  3   force =     0.00012790   -0.00056984   -0.00019526
     atom   50 type  4   force =     0.00023029   -0.00040540    0.00008608
     atom   51 type  5   force =     0.00018035   -0.00014021    0.00022756
     atom   52 type  5   force =    -0.00011787    0.00024862    0.00021361
     atom   53 type  5   force =     0.00004180   -0.00007778    0.00013040
     atom   54 type  5   force =     0.00033852    0.00010494    0.00019633
     atom   55 type  2   force =     0.01253949   -0.00618743    0.00128803
     atom   56 type  5   force =    -0.01312183    0.00747379   -0.00222711
     atom   57 type  5   force =     0.00049345   -0.00084038    0.00037920

     Total force =     0.372609     Total SCF correction =     0.000570
  @ DRIVER MODE: Message from server: STATUS
  @ DRIVER MODE: Message from server: GETFORCE
  @ DRIVER MODE: Returning v,forces,stress,ensemble

     Writing output data file ./calc.save/
  @ DRIVER MODE: Message from server: EXIT
  @ DRIVE MODE: Exiting

     General routines

     Parallel routines

   This run was terminated on:   8:10:25  16Sep2021

   JOB DONE.