     Program PWSCF v.6.7GPU starts on 12Oct2021 at 12:21:41

     R & G space division:  proc/nbgrp/npool/nimage =       8
     Reading input from /storage/home/hcoda1/3/ntian30/research/carbon/ACS_vib/ads_slab/N2/out_0009/pw.inp
Warning: card &CELL ignored
Warning: card   CELL_DYNAMICS='IPI', ignored
Warning: card / ignored

     Current dimensions of program PWSCF are:
     Max number of different atomic species (ntypx) = 10
     Max number of k-points (npk) =  40000
     Max angular momentum in pseudopotentials (lmaxx) =  3
     Presently no symmetry can be used with electric field

     Message from routine cell_base_init:
     DEPRECATED: use true lattice parameter, not A to a.u. conversion factor

     IMPORTANT: XC functional enforced from input :
     Exchange-correlation= BEEF-VDW
                           (   1   4  43  14   2   0   0)
     Any further DFT definition will be discarded
     Please, verify this is what you really want

  @ DRIVER MODE: Connecting to
 qe_1139763_3181313.sched-torque.pace.gatech.edudigwuw55_scratch
  using UNIX socket
  @ DRIVER MODE: Message from server: STATUS
  @ DRIVER MODE: Message from server: INIT
  @ DRIVER MODE: Receiving replica           0          -1
  @ DRIVER MODE: Receiving encoded integer          25
  @ DRIVER MODE:  SCF:  T  FORCE:  T  STRESS:  F  VC:  F  ENSEMBLE:  F
  @ DRIVER MODE:  SCF:  T  FORCE:  T  STRESS:  F  VC:  F  ENSEMBLE:  F

     Using Slab Decomposition

     bravais-lattice index     =            0
     lattice parameter (alat)  =       1.8897  a.u.
     unit-cell volume          =    6658.9804 (a.u.)^3
     number of atoms/cell      =           49
     number of atomic types    =            3
     number of electrons       =       388.00
     number of Kohn-Sham states=          204
     kinetic-energy cutoff     =      29.3995  Ry
     charge density cutoff     =     293.9946  Ry
     scf convergence threshold =      7.3E-08
     mixing beta               =       0.0500
     number of iterations used =            8  plain     mixing
     Exchange-correlation= BEEF-VDW
                           (   1   4  43  14   2   0   0)

     celldm(1)=   1.889726  celldm(2)=   0.000000  celldm(3)=   0.000000
     celldm(4)=   0.000000  celldm(5)=   0.000000  celldm(6)=   0.000000

     crystal axes: (cart. coord. in units of alat)
               a(1) = (   6.579727   0.000000   0.000000 )
               a(2) = (  -0.000775   5.961596   0.000000 )
               a(3) = (   0.000000   0.000000  25.155947 )

     reciprocal axes: (cart. coord. in units 2 pi/alat)
               b(1) = (  0.151982  0.000020  0.000000 )
               b(2) = (  0.000000  0.167740  0.000000 )
               b(3) = (  0.000000  0.000000  0.039752 )

     PseudoPot. # 1 for Ti read from file:
     /storage/coda1/p-amedford6/0/shared/rich_project_chbe-medford/medford-share/data/pseudos_module/espresso/nninc/pbe/van/Ti.UPF
     MD5 check sum: 8e4df49b7f0d34bbd5052bf3f5ea0213
     Pseudo is Ultrasoft, Zval = 12.0
     Generated by new atomic code, or converted to UPF format
     Using radial grid of  851 points,  6 beta functions with:
                l(1) =   0
                l(2) =   0
                l(3) =   1
                l(4) =   1
                l(5) =   2
                l(6) =   2
     Q(r) pseudized with  8 coefficients,  rinner =    1.000   1.000   1.000
                                                       1.000   1.000

     PseudoPot. # 2 for O  read from file:
     /storage/coda1/p-amedford6/0/shared/rich_project_chbe-medford/medford-share/data/pseudos_module/espresso/nninc/pbe/van/O.UPF
     MD5 check sum: 78c19812648e8988a0fe644b0f25305e
     Pseudo is Ultrasoft, Zval =  6.0
     Generated by new atomic code, or converted to UPF format
     Using radial grid of  737 points,  4 beta functions with:
                l(1) =   0
                l(2) =   0
                l(3) =   1
                l(4) =   1
     Q(r) pseudized with  8 coefficients,  rinner =    0.800   0.800   0.800

     PseudoPot. # 3 for N  read from file:
     /storage/coda1/p-amedford6/0/shared/rich_project_chbe-medford/medford-share/data/pseudos_module/espresso/nninc/pbe/van/N.UPF
     MD5 check sum: 90d10febe142ad51ac9d5be1deb811c4
     Pseudo is Ultrasoft, Zval =  5.0
     Generated by new atomic code, or converted to UPF format
     Using radial grid of  729 points,  4 beta functions with:
                l(1) =   0
                l(2) =   0
                l(3) =   1
                l(4) =   1
     Q(r) pseudized with  8 coefficients,  rinner =    0.800   0.800   0.800

     atomic species   valence    mass     pseudopotential
        Ti1           12.00    47.86700     Ti( 1.00)
        O1             6.00    15.99900     O ( 1.00)
        N1             5.00    14.00700     N ( 1.00)

     No symmetry found

   Cartesian axes

     site n.     atom                  positions (alat units)
         1           Ti1 tau(   1) = (   0.0004258   2.9801865   6.0000000  )
         2           Ti1 tau(   2) = (   3.2906075   1.4906267   6.0002472  )
         3           O1  tau(   3) = (   0.0006271   0.0005054   7.9858123  )
         4           O1  tau(   4) = (   3.2906025   0.0005020   7.3038282  )
         5           O1  tau(   5) = (   4.5942328   1.4918067   9.2879030  )
         6           O1  tau(   6) = (   1.9868534   1.4903216   9.2879459  )
         7           Ti1 tau(   7) = (   3.2908115   2.9770768   9.1558106  )
         8           Ti1 tau(   8) = (   0.0014744   1.4899521   9.2574773  )
         9           O1  tau(   9) = (   3.2881910   5.9516080  11.3945402  )
        10           O1  tau(  10) = (  -0.0003163   5.9583821  10.6097302  )
        11           O1  tau(  11) = (   1.2852796   1.4845524  12.6702349  )
        12           O1  tau(  12) = (   5.2939406   1.4843235  12.6686536  )
        13           Ti1 tau(  13) = (   6.5787960   2.9666663  12.5005329  )
        14           Ti1 tau(  14) = (   3.2867911   1.4810929  12.5380613  )
        15           O1  tau(  15) = (   6.5784438   5.9555467  14.6881035  )
        16           O1  tau(  16) = (   3.2900815   5.9490801  14.0192640  )
        17           O1  tau(  17) = (   4.5550846   1.4910540  16.1905095  )
        18           O1  tau(  18) = (   2.0267255   1.4911840  16.1885357  )
        19           Ti1 tau(  19) = (   3.2920947   2.9632608  15.7783766  )
        20           Ti1 tau(  20) = (   0.0012713   1.3437142  15.9485351  )
        21           O1  tau(  21) = (   3.2904802   0.0005063   4.7018136  )
        22           O1  tau(  22) = (   0.0010154   5.9436293  17.2207844  )
        23           O1  tau(  23) = (   1.3043587   1.4918075   6.0039043  )
        24           O1  tau(  24) = (   5.2767064   1.4903225   6.0039473  )
        25           Ti1 tau(  25) = (   0.0000382   5.9609847   6.0000000  )
        26           Ti1 tau(  26) = (   3.2902200   4.4714249   6.0002472  )
        27           O1  tau(  27) = (   0.0002396   2.9813036   7.9858123  )
        28           O1  tau(  28) = (   3.2902150   2.9813002   7.3038282  )
        29           O1  tau(  29) = (   4.5938453   4.4726049   9.2879030  )
        30           O1  tau(  30) = (   1.9864658   4.4711199   9.2879459  )
        31           Ti1 tau(  31) = (   3.2904075   5.9576890   9.1543145  )
        32           Ti1 tau(  32) = (   0.0010733   4.4688904   9.2576998  )
        33           O1  tau(  33) = (   3.2885442   2.9721716  11.3880939  )
        34           O1  tau(  34) = (   0.0004144   2.9779705  10.6294865  )
        35           O1  tau(  35) = (   1.2846651   4.4573380  12.6727508  )
        36           O1  tau(  36) = (   5.2936233   4.4572296  12.6712295  )
        37           Ti1 tau(  37) = (   6.5756527   5.9477167  12.4782878  )
        38           Ti1 tau(  38) = (   3.2865705   4.4596354  12.5399379  )
        39           O1  tau(  39) = (   6.5788522   2.9667014  14.9890502  )
        40           O1  tau(  40) = (   3.2903707   2.9673551  13.9858356  )
        41           O1  tau(  41) = (   4.5543970   4.4428783  16.1860255  )
        42           O1  tau(  42) = (   2.0267162   4.4429101  16.1842223  )
        43           Ti1 tau(  43) = (   3.2900514   5.9435888  15.8195923  )
        44           Ti1 tau(  44) = (   0.0007397   4.6011056  15.9424949  )
        45           O1  tau(  45) = (   3.2900926   2.9813045   4.7018136  )
        46           O1  tau(  46) = (   1.3039711   4.4726057   6.0039043  )
        47           O1  tau(  47) = (   5.2763189   4.4711207   6.0039473  )
        48           N1  tau(  48) = (   0.1199037   2.9187272  19.5607373  )
        49           N1  tau(  49) = (   0.0588536   2.9254595  18.4591164  )

     number of k points=    10  Fermi-Dirac smearing, width (Ry)=  0.0073
                       cart. coord. in units 2pi/alat
        k(    1) = (   0.0000000   0.0000000   0.0000000), wk =   0.1250000
        k(    2) = (   0.0000000   0.0419351   0.0000000), wk =   0.2500000
        k(    3) = (   0.0000000  -0.0838702   0.0000000), wk =   0.1250000
        k(    4) = (   0.0379955   0.0000049   0.0000000), wk =   0.2500000
        k(    5) = (   0.0379955   0.0419400   0.0000000), wk =   0.2500000
        k(    6) = (   0.0379955  -0.0838652   0.0000000), wk =   0.2500000
        k(    7) = (   0.0379955  -0.0419301   0.0000000), wk =   0.2500000
        k(    8) = (  -0.0759910  -0.0000099   0.0000000), wk =   0.1250000
        k(    9) = (  -0.0759910   0.0419252   0.0000000), wk =   0.2500000
        k(   10) = (  -0.0759910  -0.0838800   0.0000000), wk =   0.1250000

     Initial potential from superposition of free atoms

     starting charge  371.99923, renormalised to  388.00000

     negative rho (up, down):  1.868E-02 0.000E+00

     %%%%%%%%%%%%%%%%%%%%%%%%%%%%%%%%%%%%%%%%%%%%%%%%%%%%%%%%%%%%%%%%%%%%%%%%
     %                                                                      %
     % You are using vdW-DF, which was implemented by the Thonhauser group. %
     % Please cite the following two papers that made this development      %
     % possible and the two reviews that describe the various versions:     %
     %                                                                      %
     %   T. Thonhauser et al., PRL 115, 136402 (2015).                      %
     %   T. Thonhauser et al., PRB 76, 125112 (2007).                       %
     %   K. Berland et al., Rep. Prog. Phys. 78, 066501 (2015).             %
     %   D.C. Langreth et al., J. Phys.: Condens. Matter 21, 084203 (2009). %
     %                                                                      %
     %                                                                      %
     % If you are calculating the stress with vdW-DF, please also cite:     %
     %                                                                      %
     %   R. Sabatini et al., J. Phys.: Condens. Matter 24, 424209 (2012).   %
     %                                                                      %
     %%%%%%%%%%%%%%%%%%%%%%%%%%%%%%%%%%%%%%%%%%%%%%%%%%%%%%%%%%%%%%%%%%%%%%%%

     Adding external electric field

     Computed dipole along edir(3) :
        Dipole               -5.4531 Ry au,        -13.8604 Debye
        Dipole field         -0.0103 Ry au,

        Potential amp.        0.9539 Ry
        Total length         46.3494 bohr

     Starting wfcs are  292 atomic wfcs
  @ DRIVER MODE: Message from server: STATUS
  @ DRIVER MODE: Message from server: POSDATA
  @ DRIVER MODE: Reading and sharing cell
  @ DRIVER MODE: Reading and sharing positions
  @ DRIVER MODE: Received positions

     Self-consistent Calculation

     iteration #  1     ecut=    29.40 Ry     beta= 0.05
     Davidson diagonalization with overlap
     c_bands:  3 eigenvalues not converged
     c_bands:  2 eigenvalues not converged
     c_bands:  2 eigenvalues not converged
     c_bands:  1 eigenvalues not converged
     c_bands:  3 eigenvalues not converged
     c_bands:  2 eigenvalues not converged
     c_bands:  4 eigenvalues not converged
     c_bands:  1 eigenvalues not converged
     ethr =  1.00E-05,  avg # of iterations = 21.4

[...]

     total energy              =   -2822.48260644 Ry
     estimated scf accuracy    <    1128.77620443 Ry

     iteration #  2     ecut=    29.40 Ry     beta= 0.05
     Davidson diagonalization with overlap
     ethr =  1.00E-02,  avg # of iterations = 17.1

[...]

     iteration # 54     ecut=    29.40 Ry     beta= 0.05
     Davidson diagonalization with overlap
     c_bands:  1 eigenvalues not converged
     ethr =  4.64E-11,  avg # of iterations = 14.2

[...]

     total energy              =   -2924.04886299 Ry
     estimated scf accuracy    <       0.00000011 Ry

     iteration # 56     ecut=    29.40 Ry     beta= 0.05
     Davidson diagonalization with overlap
     ethr =  2.90E-11,  avg # of iterations =  4.8

     negative rho (up, down):  1.840E-02 0.000E+00

     Adding external electric field

     Computed dipole along edir(3) :
        Dipole                0.7001 Ry au,          1.7794 Debye
        Dipole field          0.0013 Ry au,

        Potential amp.       -0.1225 Ry
        Total length         46.3494 bohr

     End of self-consistent calculation

          k = 0.0000 0.0000 0.0000 ( 18029 PWs)   bands (ev):

   -55.9035 -55.8676 -55.8575 -55.8233 -55.7866 -55.7761 -55.7416 -55.7412
   -55.7296 -55.7074 -55.7050 -55.6841 -55.6678 -55.6502 -54.9682 -54.9341
   -32.4675 -32.4141 -32.3587 -32.2616 -32.2143 -32.2112 -32.2090 -32.1972
   -32.1477 -32.1362 -32.1105 -32.1040 -32.1026 -32.0757 -32.0706 -32.0536
   -32.0396 -32.0375 -32.0317 -32.0182 -32.0094 -32.0059 -32.0028 -32.0011
   -31.9792 -31.9729 -31.9552 -31.9132 -31.9067 -31.8998 -31.8930 -31.8877
   -31.8794 -31.8777 -31.8763 -31.8704 -31.8610 -31.8388 -31.8276 -31.8167
   -31.7988 -31.7453 -31.3810 -31.2767 -31.2553 -31.1971 -31.1108 -30.9998
   -21.8257 -16.7343 -16.5013 -16.3635 -16.2354 -16.1298 -16.0209 -15.9218
   -15.8550 -15.7836 -15.6288 -15.5971 -15.5674 -15.5318 -15.5109 -15.5056
   -15.4957 -15.4605 -15.4386 -15.4144 -15.4127 -15.3963 -15.3825 -15.3498
   -15.2961 -15.2143 -15.1356 -15.0657 -15.0074 -14.6779 -13.4692 -13.3495
    -7.2596  -4.9673  -4.9604  -4.0699  -4.0212  -3.9168  -3.8390  -3.8253
    -3.7315  -3.6694  -3.4648  -3.3887  -3.3517  -3.2011  -3.1583  -3.1014
    -3.0511  -2.9624  -2.8980  -2.8910  -2.8016  -2.7782  -2.7764  -2.7668
    -2.6771  -2.6644  -2.6287  -2.6209  -2.5942  -2.4997  -2.3759  -2.3403
    -2.2855  -2.2843  -2.2622  -2.2486  -2.2235  -2.1838  -2.1609  -2.1519
    -2.1003  -2.0885  -1.9474  -1.8034  -1.7688  -1.6927  -1.6074  -1.5141
    -1.4642  -1.4232  -1.3635  -1.3589  -1.3120  -1.2841  -1.2482  -1.1639
    -1.0738  -1.0331  -0.9377  -0.9210  -0.8487  -0.8117  -0.7579  -0.6986
    -0.6965  -0.6567  -0.5614  -0.5271  -0.4094  -0.3996  -0.3856  -0.3658
    -0.3019  -0.2489  -0.1433  -0.1147  -0.1130  -0.1035   0.0044   0.0325
     0.0345   0.0477   0.0589   0.1222   0.1910   0.2313   0.2741   0.4214
     0.6457   0.6488   0.7088   0.9420   1.0199   1.0578   1.2149   1.6439
     1.6979   3.1917   3.2585   3.2893   3.3223   3.3570   3.3988   3.6876
     3.7035   3.7301   3.7466   3.7669

[...]

          k = 0.0380-0.0419 0.0000 ( 17876 PWs)   bands (ev):

[...]

          k =-0.0760-0.0000 0.0000 ( 17886 PWs)   bands (ev):

[...]

          k =-0.0760-0.0839 0.0000 ( 17948 PWs)   bands (ev):

   -55.8857 -55.8852 -55.8410 -55.8397 -55.7827 -55.7618 -55.7555 -55.7256
   -55.7232 -55.7231 -55.7087 -55.6743 -55.6672 -55.6671 -54.9511 -54.9511
   -32.3392 -32.2715 -32.2707 -32.1773 -32.1741 -32.1728 -32.1572 -32.1340
   -32.1319 -32.1037 -32.1022 -32.0998 -32.0926 -32.0503 -32.0442 -32.0429
   -32.0402 -32.0388 -32.0286 -32.0238 -32.0228 -32.0109 -32.0007 -31.9881
   -31.9834 -31.9834 -31.9809 -31.9789 -31.9591 -31.9582 -31.9553 -31.9477
   -31.9214 -31.9200 -31.9045 -31.8960 -31.8957 -31.8906 -31.8763 -31.8531
   -31.8522 -31.8469 -31.2678 -31.2678 -31.1937 -31.1936 -31.1540 -31.1539
   -21.8255 -16.4113 -16.1046 -16.0645 -15.9501 -15.9450 -15.8638 -15.8482
   -15.7423 -15.6971 -15.6869 -15.6856 -15.6248 -15.6221 -15.6022 -15.5908
   -15.5175 -15.5065 -15.4824 -15.4790 -15.4219 -15.4177 -15.4163 -15.4121
   -15.3744 -15.3739 -15.3382 -15.3351 -15.2160 -15.0489 -13.4504 -13.4504
    -7.2639  -4.9633  -4.9624  -3.9864  -3.4415  -3.3771  -3.3229  -3.1717
    -3.0942  -3.0832  -3.0376  -3.0082  -2.9346  -2.8989  -2.8984  -2.8164
    -2.8067  -2.8014  -2.8000  -2.7325  -2.7191  -2.6891  -2.6731  -2.6211
    -2.6206  -2.5985  -2.5948  -2.5795  -2.5705  -2.5516  -2.5453  -2.5160
    -2.4859  -2.4312  -2.4232  -2.2836  -2.2728  -2.2176  -2.1426  -2.1396
    -2.0575  -2.0428  -2.0065  -1.9751  -1.9101  -1.8948  -1.7256  -1.7046
    -1.7011  -1.6404  -1.5530  -1.5300  -1.4822  -1.4630  -1.4113  -1.3571
    -1.2535  -1.2271  -1.2070  -1.1002  -1.0926  -1.0281  -0.9423  -0.9011
    -0.8992  -0.8946  -0.8711  -0.8510  -0.8490  -0.7471  -0.6965  -0.6489
    -0.6380  -0.6254  -0.4249  -0.3686  -0.3412  -0.2346  -0.1917   0.0045
     0.0121   0.0392   0.1549   0.1557   0.1615   0.2213   0.3479   0.3529
     0.4231   0.4647   0.4926   0.5161   0.5183   1.4068   1.4079   1.5150
     1.5155   3.3525   3.4340   3.4513   3.5083   3.6378   3.6456   3.7001
     3.7387   3.7469   3.7475   3.8335

     the Fermi energy is     3.2561 ev

!    total energy              =   -2924.04892577 Ry
     estimated scf accuracy    <       0.00000007 Ry
     smearing contrib. (-TS)   =      -0.03676886 Ry
     internal energy E=F+TS    =   -2924.01215691 Ry

     The total energy is F=E-TS. E is the sum of the following terms:
     one-electron contribution =  -24117.11183902 Ry
     hartree contribution      =   12140.98794109 Ry
     xc contribution           =    -479.17682688 Ry
     ewald contribution        =    9531.28764296 Ry
     electric field correction =       0.00092493 Ry

     convergence has been achieved in  56 iterations

     Forces acting on atoms (cartesian axes, Ry/au):

     atom    1 type  1   force =     0.00004110    0.00004930    0.09034527
     atom    2 type  1   force =    -0.00001937    0.00037209   -0.18447426
     atom    3 type  2   force =     0.00007221   -0.00045600   -0.02390182
     atom    4 type  2   force =     0.00002230   -0.00009049    0.05157803
     atom    5 type  2   force =    -0.01361357   -0.00063733    0.00573357
     atom    6 type  2   force =     0.01348866   -0.00015912    0.00563992
     atom    7 type  1   force =     0.00011748   -0.00002272    0.00097798
     atom    8 type  1   force =     0.00001633    0.00010391    0.00019630
     atom    9 type  2   force =     0.00005992    0.00011831   -0.00045061
     atom   10 type  2   force =    -0.00000031    0.00008728    0.00077303
     atom   11 type  2   force =    -0.00003305    0.00023073   -0.00000007
     atom   12 type  2   force =     0.00002165    0.00023302    0.00008274
     atom   13 type  1   force =     0.00002240    0.00030533   -0.00057266
     atom   14 type  1   force =    -0.00005424    0.00012644   -0.00111197
     atom   15 type  2   force =     0.00008845   -0.00042806   -0.00038141
     atom   16 type  2   force =    -0.00005216    0.00021762   -0.00018179
     atom   17 type  2   force =    -0.00020423   -0.00016854    0.00014547
     atom   18 type  2   force =     0.00029602   -0.00021854    0.00019142
     atom   19 type  1   force =     0.00013750   -0.00000794    0.00066560
     atom   20 type  1   force =    -0.00005863    0.00027265    0.00201701
     atom   21 type  2   force =     0.00007330    0.00014569    0.10524184
     atom   22 type  2   force =     0.00001122   -0.00019747   -0.00097344
     atom   23 type  2   force =    -0.06754624   -0.00011770   -0.02616959
     atom   24 type  2   force =     0.06747538    0.00031818   -0.02621409
     atom   25 type  1   force =     0.00006176    0.00004696    0.09060611
     atom   26 type  1   force =    -0.00007503   -0.00033084   -0.18439195
     atom   27 type  2   force =     0.00006397   -0.00049728   -0.02271555
     atom   28 type  2   force =     0.00002775   -0.00008462    0.05140931
     atom   29 type  2   force =    -0.01363153   -0.00058183    0.00566606
     atom   30 type  2   force =     0.01349865   -0.00006786    0.00557586
     atom   31 type  1   force =     0.00008346    0.00008505    0.00081883
     atom   32 type  1   force =     0.00001245   -0.00002113    0.00015407
     atom   33 type  2   force =     0.00007024   -0.00006067   -0.00003741
     atom   34 type  2   force =    -0.00000706   -0.00004223   -0.00001071
     atom   35 type  2   force =    -0.00011868    0.00000100   -0.00004612
     atom   36 type  2   force =     0.00013664   -0.00000283    0.00002118
     atom   37 type  1   force =     0.00007462    0.00012731    0.00088277
     atom   38 type  1   force =    -0.00005996   -0.00015221   -0.00127662
     atom   39 type  2   force =     0.00009913    0.00029856   -0.00001006
     atom   40 type  2   force =     0.00004560    0.00001193    0.00017228
     atom   41 type  2   force =     0.00014345    0.00001172    0.00022594
     atom   42 type  2   force =    -0.00007201   -0.00001828    0.00029291
     atom   43 type  1   force =     0.00001447    0.00050948    0.00087160
     atom   44 type  1   force =    -0.00010370   -0.00001905    0.00139589
     atom   45 type  2   force =     0.00006658    0.00013745    0.10518907
     atom   46 type  2   force =    -0.06755241   -0.00019126   -0.02616815
     atom   47 type  2   force =     0.06747851    0.00023863   -0.02621399
     atom   48 type  3   force =    -0.00011071    0.00036807    0.00080496
     atom   49 type  3   force =    -0.00050830    0.00015731   -0.00237275

     Total force =     0.367149     Total SCF correction =     0.000753
  @ DRIVER MODE: Message from server: STATUS
  @ DRIVER MODE: Message from server: GETFORCE
  @ DRIVER MODE: Returning v,forces,stress,ensemble

     Writing output data file ./calc.save/
  @ DRIVER MODE: Message from server: EXIT
  @ DRIVE MODE: Exiting

     General routines

     Parallel routines

   This run was terminated on:  12:41:17  12Oct2021

   JOB DONE.