     Program PWSCF v.6.7GPU starts on  9Sep2021 at  6: 5:44

     R & G space division:  proc/nbgrp/npool/nimage =      10
     Reading input from /storage/home/hcoda1/3/ntian30/research/carbon/CxH_vib/CH_calc/ads_slab/CHNNHH_a/out_0022/pw.inp
Warning: card &CELL ignored
Warning: card   CELL_DYNAMICS='IPI', ignored
Warning: card / ignored

     Current dimensions of program PWSCF are:
     Max number of different atomic species (ntypx) = 10
     Max number of k-points (npk) =  40000
     Max angular momentum in pseudopotentials (lmaxx) =  3
     Presently no symmetry can be used with electric field

     Message from routine cell_base_init:
     DEPRECATED: use true lattice parameter, not A to a.u. conversion factor

     IMPORTANT: XC functional enforced from input :
     Exchange-correlation= BEEF-VDW
                           (   1   4  43  14   2   0   0)
     Any further DFT definition will be discarded
     Please, verify this is what you really want

  @ DRIVER MODE: Connecting to
 qe_1139763_2767382.sched-torque.pace.gatech.eduqgxqmmvi_scratch
  using UNIX socket
  @ DRIVER MODE: Message from server: STATUS
  @ DRIVER MODE: Message from server: INIT
  @ DRIVER MODE: Receiving replica           0          -1
  @ DRIVER MODE: Receiving encoded integer          25
  @ DRIVER MODE:  SCF:  T  FORCE:  T  STRESS:  F  VC:  F  ENSEMBLE:  F
  @ DRIVER MODE:  SCF:  T  FORCE:  T  STRESS:  F  VC:  F  ENSEMBLE:  F

     Using Slab Decomposition

     bravais-lattice index     =            0
     lattice parameter (alat)  =       1.8897  a.u.
     unit-cell volume          =    6658.9804 (a.u.)^3
     number of atoms/cell      =           53
     number of atomic types    =            5
     number of electrons       =       395.00
     number of Kohn-Sham states=          207
     kinetic-energy cutoff     =      29.3995  Ry
     charge density cutoff     =     293.9946  Ry
     scf convergence threshold =      7.3E-08
     mixing beta               =       0.0500
     number of iterations used =            8  plain     mixing
     Exchange-correlation= BEEF-VDW
                           (   1   4  43  14   2   0   0)

     celldm(1)=   1.889726  celldm(2)=   0.000000  celldm(3)=   0.000000
     celldm(4)=   0.000000  celldm(5)=   0.000000  celldm(6)=   0.000000

     crystal axes: (cart. coord. in units of alat)
               a(1) = (   6.579727   0.000000   0.000000 )
               a(2) = (  -0.000775   5.961596   0.000000 )
               a(3) = (   0.000000   0.000000  25.155947 )

     reciprocal axes: (cart. coord. in units 2 pi/alat)
               b(1) = (  0.151982  0.000020  0.000000 )
               b(2) = (  0.000000  0.167740  0.000000 )
               b(3) = (  0.000000  0.000000  0.039752 )

     PseudoPot. # 1 for Ti read from file:
     /storage/coda1/p-amedford6/0/shared/rich_project_chbe-medford/medford-share/data/pseudos_module/espresso/nninc/pbe/van/Ti.UPF
     MD5 check sum: 8e4df49b7f0d34bbd5052bf3f5ea0213
     Pseudo is Ultrasoft, Zval = 12.0
     Generated by new atomic code, or converted to UPF format
     Using radial grid of  851 points,  6 beta functions with:
                l(1) =   0
                l(2) =   0
                l(3) =   1
                l(4) =   1
                l(5) =   2
                l(6) =   2
     Q(r) pseudized with  8 coefficients,  rinner =    1.000   1.000   1.000
                                                       1.000   1.000

     PseudoPot. # 2 for O  read from file:
     /storage/coda1/p-amedford6/0/shared/rich_project_chbe-medford/medford-share/data/pseudos_module/espresso/nninc/pbe/van/O.UPF
     MD5 check sum: 78c19812648e8988a0fe644b0f25305e
     Pseudo is Ultrasoft, Zval =  6.0
     Generated by new atomic code, or converted to UPF format
     Using radial grid of  737 points,  4 beta functions with:
                l(1) =   0
                l(2) =   0
                l(3) =   1
                l(4) =   1
     Q(r) pseudized with  8 coefficients,  rinner =    0.800   0.800   0.800

     PseudoPot. # 3 for N  read from file:
     /storage/coda1/p-amedford6/0/shared/rich_project_chbe-medford/medford-share/data/pseudos_module/espresso/nninc/pbe/van/N.UPF
     MD5 check sum: 90d10febe142ad51ac9d5be1deb811c4
     Pseudo is Ultrasoft, Zval =  5.0
     Generated by new atomic code, or converted to UPF format
     Using radial grid of  729 points,  4 beta functions with:
                l(1) =   0
                l(2) =   0
                l(3) =   1
                l(4) =   1
     Q(r) pseudized with  8 coefficients,  rinner =    0.800   0.800   0.800

     PseudoPot. # 4 for C  read from file:
     /storage/coda1/p-amedford6/0/shared/rich_project_chbe-medford/medford-share/data/pseudos_module/espresso/nninc/pbe/van/C.UPF
     MD5 check sum: 1a69bf6b8db32088f5b2163dbdb77a27
     Pseudo is Ultrasoft, Zval =  4.0
     Generated by new atomic code, or converted to UPF format
     Using radial grid of  721 points,  4 beta functions with:
                l(1) =   0
                l(2) =   0
                l(3) =   1
                l(4) =   1
     Q(r) pseudized with  8 coefficients,  rinner =    0.800   0.800   0.800

     PseudoPot. # 5 for H  read from file:
     /storage/coda1/p-amedford6/0/shared/rich_project_chbe-medford/medford-share/data/pseudos_module/espresso/nninc/pbe/van/H.UPF
     MD5 check sum: b5ee9d7bfd3a09ee7748110bda690ff7
     Pseudo is Ultrasoft, Zval =  1.0
     Generated by new atomic code, or converted to UPF format
     Using radial grid of  615 points,  1 beta functions with:
                l(1) =   0
     Q(r) pseudized with  8 coefficients,  rinner =    0.800

     atomic species   valence    mass     pseudopotential
        Ti1           12.00    47.86700     Ti( 1.00)
        O1             6.00    15.99900     O ( 1.00)
        N1             5.00    14.00700     N ( 1.00)
        C1             4.00    12.01100     C ( 1.00)
        H1             1.00     1.00800     H ( 1.00)

     No symmetry found

   Cartesian axes

     site n.     atom                  positions (alat units)
         1           Ti1 tau(   1) = (   0.0004258   2.9801865   6.0000000  )
         2           Ti1 tau(   2) = (   3.2906075   1.4906267   6.0002472  )
         3           O1  tau(   3) = (   0.0006271   0.0005054   7.9858123  )
         4           O1  tau(   4) = (   3.2906025   0.0005020   7.3038282  )
         5           O1  tau(   5) = (   4.5942328   1.4918067   9.2879030  )
         6           O1  tau(   6) = (   1.9868534   1.4903216   9.2879459  )
         7           Ti1 tau(   7) = (   3.2907910   2.8959150   9.1758416  )
         8           Ti1 tau(   8) = (   0.0015273   1.4827037   9.2680791  )
         9           O1  tau(   9) = (   3.2912281   5.9459940  11.3193265  )
        10           O1  tau(  10) = (   0.0116148   5.9584955  10.6183126  )
        11           O1  tau(  11) = (   1.3103257   1.4650607  12.6442557  )
        12           O1  tau(  12) = (   5.3047449   1.4806448  12.6312737  )
        13           Ti1 tau(  13) = (   6.5337005   3.0128982  12.6900614  )
        14           Ti1 tau(  14) = (   3.2207025   1.4698770  12.4715817  )
        15           O1  tau(  15) = (   6.5518216   5.9146589  14.6704082  )
        16           O1  tau(  16) = (   3.3240203   5.9583723  13.8895330  )
        17           O1  tau(  17) = (   4.5456974   1.5225049  16.1264218  )
        18           O1  tau(  18) = (   2.0489736   1.4727210  15.9535721  )
        19           Ti1 tau(  19) = (   3.2591190   2.9927146  15.6788090  )
        20           Ti1 tau(  20) = (   0.0289511   1.3544711  15.7732889  )
        21           O1  tau(  21) = (   3.2904802   0.0005063   4.7018136  )
        22           O1  tau(  22) = (   0.0559926   0.0451390  17.2112278  )
        23           O1  tau(  23) = (   1.3043587   1.4918075   6.0039043  )
        24           O1  tau(  24) = (   5.2767064   1.4903225   6.0039473  )
        25           Ti1 tau(  25) = (   0.0000382   5.9609847   6.0000000  )
        26           Ti1 tau(  26) = (   3.2902200   4.4714249   6.0002472  )
        27           O1  tau(  27) = (   0.0002396   2.9813036   7.9858123  )
        28           O1  tau(  28) = (   3.2902150   2.9813002   7.3038282  )
        29           O1  tau(  29) = (   4.5938453   4.4726049   9.2879030  )
        30           O1  tau(  30) = (   1.9864658   4.4711199   9.2879459  )
        31           Ti1 tau(  31) = (   3.2891106   5.8743827   9.1763621  )
        32           Ti1 tau(  32) = (   0.0006254   4.4649316   9.2693709  )
        33           O1  tau(  33) = (   3.2889932   2.9698301  11.3211337  )
        34           O1  tau(  34) = (   0.0092240   2.9805883  10.6323155  )
        35           O1  tau(  35) = (   1.3069247   4.4567274  12.6410950  )
        36           O1  tau(  36) = (   5.3013738   4.4587240  12.6283471  )
        37           Ti1 tau(  37) = (   6.5339814   0.0202798  12.5235249  )
        38           Ti1 tau(  38) = (   3.2191325   4.4512509  12.4750946  )
        39           O1  tau(  39) = (   6.5688456   2.9522374  14.7547250  )
        40           O1  tau(  40) = (   3.3031296   2.9710333  13.8824388  )
        41           O1  tau(  41) = (   4.5425837   4.4734130  15.9989242  )
        42           O1  tau(  42) = (   2.0771424   4.4889556  16.0364895  )
        43           Ti1 tau(  43) = (   3.3121389   0.0026565  15.6888161  )
        44           Ti1 tau(  44) = (   6.5128106   4.4989306  16.3061806  )
        45           O1  tau(  45) = (   3.2900926   2.9813045   4.7018136  )
        46           O1  tau(  46) = (   1.3039711   4.4726057   6.0039043  )
        47           O1  tau(  47) = (   5.2763189   4.4711207   6.0039473  )
        48           N1  tau(  48) = (   0.4628824   2.9849886  17.7976856  )
        49           C1  tau(  49) = (   1.4182946   2.9518240  18.6700831  )
        50           H1  tau(  50) = (   2.3503500   2.6458988  18.1556329  )
        51           N1  tau(  51) = (   5.7893717   3.5582605  18.2279111  )
        52           H1  tau(  52) = (   5.8942619   4.0012392  19.1365464  )
        53           H1  tau(  53) = (   5.0734348   2.8266848  18.2415795  )

     number of k points=    10  Fermi-Dirac smearing, width (Ry)=  0.0073
                       cart. coord. in units 2pi/alat
        k(    1) = (   0.0000000   0.0000000   0.0000000), wk =   0.1250000
        k(    2) = (   0.0000000   0.0419351   0.0000000), wk =   0.2500000
        k(    3) = (   0.0000000  -0.0838702   0.0000000), wk =   0.1250000
        k(    4) = (   0.0379955   0.0000049   0.0000000), wk =   0.2500000
        k(    5) = (   0.0379955   0.0419400   0.0000000), wk =   0.2500000
        k(    6) = (   0.0379955  -0.0838652   0.0000000), wk =   0.2500000
        k(    7) = (   0.0379955  -0.0419301   0.0000000), wk =   0.2500000
        k(    8) = (  -0.0759910  -0.0000099   0.0000000), wk =   0.1250000
        k(    9) = (  -0.0759910   0.0419252   0.0000000), wk =   0.2500000
        k(   10) = (  -0.0759910  -0.0838800   0.0000000), wk =   0.1250000

     Initial potential from superposition of free atoms

     starting charge  378.99916, renormalised to  395.00000

     negative rho (up, down):  1.775E-02 0.000E+00

     %%%%%%%%%%%%%%%%%%%%%%%%%%%%%%%%%%%%%%%%%%%%%%%%%%%%%%%%%%%%%%%%%%%%%%%%
     %                                                                      %
     % You are using vdW-DF, which was implemented by the Thonhauser group. %
     % Please cite the following two papers that made this development      %
     % possible and the two reviews that describe the various versions:     %
     %                                                                      %
     %   T. Thonhauser et al., PRL 115, 136402 (2015).                      %
     %   T. Thonhauser et al., PRB 76, 125112 (2007).                       %
     %   K. Berland et al., Rep. Prog. Phys. 78, 066501 (2015).             %
     %   D.C. Langreth et al., J. Phys.: Condens. Matter 21, 084203 (2009). %
     %                                                                      %
     %                                                                      %
     % If you are calculating the stress with vdW-DF, please also cite:     %
     %                                                                      %
     %   R. Sabatini et al., J. Phys.: Condens. Matter 24, 424209 (2012).   %
     %                                                                      %
     %%%%%%%%%%%%%%%%%%%%%%%%%%%%%%%%%%%%%%%%%%%%%%%%%%%%%%%%%%%%%%%%%%%%%%%%

     Adding external electric field

     Computed dipole along edir(3) :
        Dipole               -8.0620 Ry au,        -20.4914 Debye
        Dipole field         -0.0152 Ry au,

        Potential amp.        1.4103 Ry
        Total length         46.3494 bohr

     Starting wfcs are  299 atomic wfcs
  @ DRIVER MODE: Message from server: STATUS
  @ DRIVER MODE: Message from server: POSDATA
  @ DRIVER MODE: Reading and sharing cell
  @ DRIVER MODE: Reading and sharing positions
  @ DRIVER MODE: Received positions

     Self-consistent Calculation

     iteration #  1     ecut=    29.40 Ry     beta= 0.05
     Davidson diagonalization with overlap
     c_bands:  1 eigenvalues not converged
     c_bands:  1 eigenvalues not converged
     c_bands:  2 eigenvalues not converged
     c_bands:  3 eigenvalues not converged
     c_bands:  3 eigenvalues not converged
     c_bands:  2 eigenvalues not converged
     c_bands:  1 eigenvalues not converged
     ethr =  1.00E-05,  avg # of iterations = 19.3

[...]

     total energy              =   -2614.87812809 Ry
     estimated scf accuracy    <    3583.87480866 Ry

[...]

     iteration #  3     ecut=    29.40 Ry     beta= 0.05
     Davidson diagonalization with overlap
     ethr =  1.00E-02,  avg # of iterations = 14.7

[...]

     iteration # 80     ecut=    29.40 Ry     beta= 0.05
     Davidson diagonalization with overlap
     c_bands:  1 eigenvalues not converged
     ethr =  5.08E-11,  avg # of iterations = 13.1

[...]

     total energy              =   -2939.00593851 Ry
     estimated scf accuracy    <       0.00000012 Ry

     iteration # 83     ecut=    29.40 Ry     beta= 0.05
     Davidson diagonalization with overlap
     ethr =  2.98E-11,  avg # of iterations =  7.3

     negative rho (up, down):  1.647E-02 0.000E+00

     Adding external electric field

     Computed dipole along edir(3) :
        Dipole                0.3053 Ry au,          0.7761 Debye
        Dipole field          0.0006 Ry au,

        Potential amp.       -0.0534 Ry
        Total length         46.3494 bohr

     End of self-consistent calculation

          k = 0.0000 0.0000 0.0000 ( 18029 PWs)   bands (ev):

   -56.1066 -56.1041 -56.0725 -56.0678 -55.9944 -55.9603 -55.9540 -55.9193
   -55.9037 -55.8694 -55.8677 -55.8334 -55.6472 -55.5850 -55.0761 -55.0420
   -32.6632 -32.5878 -32.4860 -32.4260 -32.4116 -32.4075 -32.3990 -32.3588
   -32.3465 -32.3318 -32.3062 -32.2846 -32.2784 -32.2588 -32.2517 -32.2449
   -32.2098 -32.1965 -32.1935 -32.1891 -32.1847 -32.1639 -32.1576 -32.1414
   -32.1163 -32.1021 -32.1010 -32.1004 -32.0950 -32.0915 -32.0699 -32.0433
   -32.0431 -32.0287 -32.0208 -32.0017 -31.9797 -31.9521 -31.8749 -31.8463
   -31.8006 -31.7367 -31.4827 -31.3955 -31.3730 -31.2996 -31.2132 -31.1020
   -17.9463 -16.8720 -16.5824 -16.3669 -16.2615 -16.2460 -16.1397 -15.9543
   -15.8211 -15.7929 -15.6861 -15.6796 -15.6387 -15.6257 -15.5970 -15.5736
   -15.5650 -15.5386 -15.5361 -15.5200 -15.4752 -15.4521 -15.4328 -15.3360
   -15.2970 -15.2366 -15.2145 -15.1531 -15.0308 -14.7951 -13.5782 -13.4619
   -13.3086  -8.0316  -6.3292  -4.3564  -4.2462  -4.0697  -4.0091  -3.9673
    -3.9603  -3.7187  -3.6859  -3.3269  -3.2946  -3.2745  -3.2642  -3.2529
    -3.1343  -3.0180  -2.9625  -2.9205  -2.9102  -2.8995  -2.8924  -2.8797
    -2.8534  -2.8314  -2.7280  -2.6823  -2.6520  -2.5416  -2.5242  -2.4279
    -2.4163  -2.4053  -2.3703  -2.3498  -2.3412  -2.3154  -2.3041  -2.2750
    -2.1936  -2.1430  -2.0284  -1.9641  -1.8845  -1.8501  -1.7026  -1.6589
    -1.5730  -1.5665  -1.5461  -1.5240  -1.4909  -1.4048  -1.3311  -1.2410
    -1.1991  -1.1612  -1.1256  -1.0823  -1.0015  -0.9818  -0.9646  -0.8683
    -0.8641  -0.8551  -0.8110  -0.6111  -0.5851  -0.5517  -0.5390  -0.4615
    -0.4033  -0.3897  -0.3658  -0.3180  -0.2574  -0.1947  -0.1484  -0.1336
    -0.1221  -0.1189  -0.0841  -0.0583   0.0844   0.0950   0.1889   0.2011
     0.2238   0.3520   0.5245   0.5631   0.5784   0.7006   0.8771   0.9463
     1.0483   1.1393   1.5166   1.5619   2.4089   3.0314   3.1177   3.1515
     3.1710   3.2766   3.3094   3.4788   3.4944   3.5295   3.5486

[...]

          k = 0.0380-0.0419 0.0000 ( 17876 PWs)   bands (ev):

[...]

          k =-0.0760-0.0000 0.0000 ( 17886 PWs)   bands (ev):

[...]

          k =-0.0760-0.0839 0.0000 ( 17948 PWs)   bands (ev):

   -56.0905 -56.0884 -56.0878 -56.0838 -55.9852 -55.9632 -55.9507 -55.9288
   -55.8885 -55.8841 -55.8540 -55.8472 -55.6439 -55.5881 -55.0591 -55.0589
   -32.4666 -32.4621 -32.4037 -32.4025 -32.3853 -32.3838 -32.3654 -32.3531
   -32.3340 -32.3145 -32.2914 -32.2749 -32.2488 -32.2391 -32.2386 -32.2200
   -32.2197 -32.2102 -32.2078 -32.2020 -32.2009 -32.1926 -32.1867 -32.1729
   -32.1680 -32.1501 -32.1338 -32.1310 -32.0879 -32.0858 -32.0841 -32.0800
   -32.0716 -32.0689 -32.0656 -32.0637 -32.0600 -31.9702 -31.8865 -31.8394
   -31.8039 -31.7930 -31.3858 -31.3856 -31.2956 -31.2954 -31.2565 -31.2564
   -17.9362 -16.3079 -16.2920 -16.0755 -16.0309 -16.0268 -16.0060 -15.9174
   -15.8273 -15.8082 -15.7941 -15.7765 -15.7615 -15.6813 -15.6557 -15.6335
   -15.6296 -15.6168 -15.5619 -15.5563 -15.5531 -15.5481 -15.5280 -15.4948
   -15.4124 -15.4074 -15.3963 -15.1579 -15.0917 -15.0208 -13.5640 -13.5635
   -13.3212  -7.9914  -6.2632  -4.3750  -3.6008  -3.5821  -3.3553  -3.3057
    -3.2822  -3.2736  -3.1586  -3.0559  -3.0265  -3.0138  -2.9750  -2.9571
    -2.9443  -2.9319  -2.9193  -2.9002  -2.8745  -2.8411  -2.8352  -2.7891
    -2.7725  -2.7516  -2.7342  -2.7125  -2.7116  -2.6709  -2.6646  -2.6266
    -2.5887  -2.5421  -2.4318  -2.3798  -2.3404  -2.2892  -2.2349  -2.2233
    -2.2145  -2.1616  -2.1563  -2.1220  -2.0373  -1.9614  -1.8261  -1.8043
    -1.7712  -1.7293  -1.6977  -1.6041  -1.5566  -1.5063  -1.4552  -1.3990
    -1.3866  -1.3446  -1.3075  -1.2412  -1.2243  -1.1851  -1.1645  -1.1012
    -1.0598  -1.0556  -0.9916  -0.9246  -0.8668  -0.8634  -0.8428  -0.8276
    -0.7703  -0.7224  -0.6557  -0.6066  -0.5649  -0.4682  -0.4111  -0.2937
    -0.1863  -0.0672   0.0036   0.0071   0.0634   0.1406   0.1858   0.2206
     0.2304   0.2487   0.3413   0.4117   0.4319   0.4442   0.5036   0.6986
     1.3111   1.3123   1.3812   1.3820   2.4055   3.3197   3.3579   3.3722
     3.4032   3.5484   3.5510   3.5632   3.5668   3.6861   3.7287

     the Fermi energy is     3.0286 ev

!    total energy              =   -2939.00594826 Ry
     estimated scf accuracy    <       0.00000005 Ry
     smearing contrib. (-TS)   =      -0.02201150 Ry
     internal energy E=F+TS    =   -2938.98393676 Ry

     The total energy is F=E-TS. E is the sum of the following terms:
     one-electron contribution =  -24452.70768171 Ry
     hartree contribution      =   12311.43200937 Ry
     xc contribution           =    -485.12523872 Ry
     ewald contribution        =    9687.41679836 Ry
     electric field correction =       0.00017595 Ry

     convergence has been achieved in  83 iterations

     Forces acting on atoms (cartesian axes, Ry/au):

     atom    1 type  1   force =     0.00018104   -0.00028111    0.09690313
     atom    2 type  1   force =     0.00006760   -0.00077544   -0.17497186
     atom    3 type  2   force =     0.00014729   -0.00008443   -0.02554372
     atom    4 type  2   force =    -0.00003213   -0.00142522    0.05150849
     atom    5 type  2   force =    -0.01203888   -0.00173008    0.00279066
     atom    6 type  2   force =     0.01346077   -0.00133780    0.00223249
     atom    7 type  1   force =     0.00040574    0.00016227   -0.01208419
     atom    8 type  1   force =     0.00018752    0.02418209    0.02898858
     atom    9 type  2   force =    -0.00004298    0.00051843   -0.00006418
     atom   10 type  2   force =    -0.00266105    0.00014842   -0.01164305
     atom   11 type  2   force =    -0.00002429    0.00026390    0.00003542
     atom   12 type  2   force =    -0.00024423   -0.00002014    0.00013359
     atom   13 type  1   force =    -0.00012524    0.00114552   -0.00014314
     atom   14 type  1   force =    -0.00000616    0.00048756    0.00002875
     atom   15 type  2   force =     0.00006848   -0.00003765   -0.00012982
     atom   16 type  2   force =    -0.00021071    0.00023202   -0.00030093
     atom   17 type  2   force =     0.00033613    0.00021106   -0.00033526
     atom   18 type  2   force =    -0.00025128    0.00012165   -0.00010735
     atom   19 type  1   force =    -0.00012615   -0.00020749   -0.00056541
     atom   20 type  1   force =     0.00013597   -0.00019162   -0.00008156
     atom   21 type  2   force =     0.00006774   -0.00007265    0.10300425
     atom   22 type  2   force =     0.00027299    0.00025986   -0.00069113
     atom   23 type  2   force =    -0.07170938   -0.00017091   -0.02790936
     atom   24 type  2   force =     0.07161366    0.00028720   -0.02794743
     atom   25 type  1   force =     0.00004001   -0.00025650    0.09679434
     atom   26 type  1   force =    -0.00000603   -0.00017716   -0.17514260
     atom   27 type  2   force =     0.00015895   -0.00026811   -0.02421013
     atom   28 type  2   force =     0.00001427   -0.00118056    0.05206079
     atom   29 type  2   force =    -0.01219491    0.00078481    0.00247067
     atom   30 type  2   force =     0.01350444    0.00126884    0.00188152
     atom   31 type  1   force =     0.00045644    0.00286722   -0.01397058
     atom   32 type  1   force =     0.00037822   -0.02519761    0.03049148
     atom   33 type  2   force =     0.00004230   -0.00008239   -0.00016910
     atom   34 type  2   force =    -0.00183934   -0.00050176   -0.02072192
     atom   35 type  2   force =    -0.00000159    0.00022534   -0.00006093
     atom   36 type  2   force =     0.00017780    0.00033474    0.00015698
     atom   37 type  1   force =    -0.00021600   -0.00085293   -0.00001450
     atom   38 type  1   force =     0.00008567    0.00012995   -0.00020748
     atom   39 type  2   force =     0.00008918    0.00037863   -0.00024850
     atom   40 type  2   force =    -0.00006524    0.00009280    0.00043650
     atom   41 type  2   force =     0.00051189   -0.00002336   -0.00027036
     atom   42 type  2   force =    -0.00031490   -0.00008548   -0.00019789
     atom   43 type  1   force =    -0.00034499    0.00032860    0.00010039
     atom   44 type  1   force =     0.00018559    0.00072179    0.00002042
     atom   45 type  2   force =     0.00005219   -0.00006683    0.10302287
     atom   46 type  2   force =    -0.07173772   -0.00011734   -0.02790708
     atom   47 type  2   force =     0.07162680    0.00025574   -0.02793216
     atom   48 type  3   force =    -0.00027656    0.00310081    0.00082457
     atom   49 type  4   force =    -0.00078377    0.00055765   -0.00051781
     atom   50 type  5   force =     0.00018899   -0.00009736   -0.00003381
     atom   51 type  3   force =    -0.00686594   -0.01616010   -0.00618431
     atom   52 type  5   force =     0.00135406    0.00352585    0.00602250
     atom   53 type  5   force =     0.00630773    0.00880927    0.00039915

     Total force =     0.369704     Total SCF correction =     0.000396
  @ DRIVER MODE: Message from server: STATUS
  @ DRIVER MODE: Message from server: GETFORCE
  @ DRIVER MODE: Returning v,forces,stress,ensemble

     Writing output data file ./calc.save/
  @ DRIVER MODE: Message from server: EXIT
  @ DRIVE MODE: Exiting

     General routines

     Parallel routines

   This run was terminated on:   6:33:49   9Sep2021

   JOB DONE.