     Program PWSCF v.6.7GPU starts on  9Sep2021 at 12:45:31

     R & G space division:  proc/nbgrp/npool/nimage =      10
     Reading input from /storage/home/hcoda1/3/ntian30/research/carbon/CxH_vib/CH3_calc/ads_slab/CH3NHNH2_a/out_0046/pw.inp
Warning: card &CELL ignored
Warning: card   CELL_DYNAMICS='IPI', ignored
Warning: card / ignored

     Current dimensions of program PWSCF are:
     Max number of different atomic species (ntypx) = 10
     Max number of k-points (npk) =  40000
     Max angular momentum in pseudopotentials (lmaxx) =  3
     Presently no symmetry can be used with electric field

     Message from routine cell_base_init:
     DEPRECATED: use true lattice parameter, not A to a.u. conversion factor

     IMPORTANT: XC functional enforced from input :
     Exchange-correlation= BEEF-VDW
                           (   1   4  43  14   2   0   0)
     Any further DFT definition will be discarded
     Please, verify this is what you really want

  @ DRIVER MODE: Connecting to
 qe_1139763_2767398.sched-torque.pace.gatech.edunk7gc12d_scratch
  using UNIX socket
  @ DRIVER MODE: Message from server: STATUS
  @ DRIVER MODE: Message from server: INIT
  @ DRIVER MODE: Receiving replica           0          -1
  @ DRIVER MODE: Receiving encoded integer          25
  @ DRIVER MODE:  SCF:  T  FORCE:  T  STRESS:  F  VC:  F  ENSEMBLE:  F
  @ DRIVER MODE:  SCF:  T  FORCE:  T  STRESS:  F  VC:  F  ENSEMBLE:  F

     Using Slab Decomposition

     bravais-lattice index     =            0
     lattice parameter (alat)  =       1.8897  a.u.
     unit-cell volume          =    6658.9804 (a.u.)^3
     number of atoms/cell      =           56
     number of atomic types    =            5
     number of electrons       =       398.00
     number of Kohn-Sham states=          209
     kinetic-energy cutoff     =      29.3995  Ry
     charge density cutoff     =     293.9946  Ry
     scf convergence threshold =      7.3E-08
     mixing beta               =       0.0500
     number of iterations used =            8  plain     mixing
     Exchange-correlation= BEEF-VDW
                           (   1   4  43  14   2   0   0)

     celldm(1)=   1.889726  celldm(2)=   0.000000  celldm(3)=   0.000000
     celldm(4)=   0.000000  celldm(5)=   0.000000  celldm(6)=   0.000000

     crystal axes: (cart. coord. in units of alat)
               a(1) = (   6.579727   0.000000   0.000000 )
               a(2) = (  -0.000775   5.961596   0.000000 )
               a(3) = (   0.000000   0.000000  25.155947 )

     reciprocal axes: (cart. coord. in units 2 pi/alat)
               b(1) = (  0.151982  0.000020  0.000000 )
               b(2) = (  0.000000  0.167740  0.000000 )
               b(3) = (  0.000000  0.000000  0.039752 )

     PseudoPot. # 1 for Ti read from file:
     /storage/coda1/p-amedford6/0/shared/rich_project_chbe-medford/medford-share/data/pseudos_module/espresso/nninc/pbe/van/Ti.UPF
     MD5 check sum: 8e4df49b7f0d34bbd5052bf3f5ea0213
     Pseudo is Ultrasoft, Zval = 12.0
     Generated by new atomic code, or converted to UPF format
     Using radial grid of  851 points,  6 beta functions with:
                l(1) =   0
                l(2) =   0
                l(3) =   1
                l(4) =   1
                l(5) =   2
                l(6) =   2
     Q(r) pseudized with  8 coefficients,  rinner =    1.000   1.000   1.000
                                                       1.000   1.000

     PseudoPot. # 2 for O  read from file:
     /storage/coda1/p-amedford6/0/shared/rich_project_chbe-medford/medford-share/data/pseudos_module/espresso/nninc/pbe/van/O.UPF
     MD5 check sum: 78c19812648e8988a0fe644b0f25305e
     Pseudo is Ultrasoft, Zval =  6.0
     Generated by new atomic code, or converted to UPF format
     Using radial grid of  737 points,  4 beta functions with:
                l(1) =   0
                l(2) =   0
                l(3) =   1
                l(4) =   1
     Q(r) pseudized with  8 coefficients,  rinner =    0.800   0.800   0.800

     PseudoPot. # 3 for N  read from file:
     /storage/coda1/p-amedford6/0/shared/rich_project_chbe-medford/medford-share/data/pseudos_module/espresso/nninc/pbe/van/N.UPF
     MD5 check sum: 90d10febe142ad51ac9d5be1deb811c4
     Pseudo is Ultrasoft, Zval =  5.0
     Generated by new atomic code, or converted to UPF format
     Using radial grid of  729 points,  4 beta functions with:
                l(1) =   0
                l(2) =   0
                l(3) =   1
                l(4) =   1
     Q(r) pseudized with  8 coefficients,  rinner =    0.800   0.800   0.800

     PseudoPot. # 4 for C  read from file:
     /storage/coda1/p-amedford6/0/shared/rich_project_chbe-medford/medford-share/data/pseudos_module/espresso/nninc/pbe/van/C.UPF
     MD5 check sum: 1a69bf6b8db32088f5b2163dbdb77a27
     Pseudo is Ultrasoft, Zval =  4.0
     Generated by new atomic code, or converted to UPF format
     Using radial grid of  721 points,  4 beta functions with:
                l(1) =   0
                l(2) =   0
                l(3) =   1
                l(4) =   1
     Q(r) pseudized with  8 coefficients,  rinner =    0.800   0.800   0.800

     PseudoPot. # 5 for H  read from file:
     /storage/coda1/p-amedford6/0/shared/rich_project_chbe-medford/medford-share/data/pseudos_module/espresso/nninc/pbe/van/H.UPF
     MD5 check sum: b5ee9d7bfd3a09ee7748110bda690ff7
     Pseudo is Ultrasoft, Zval =  1.0
     Generated by new atomic code, or converted to UPF format
     Using radial grid of  615 points,  1 beta functions with:
                l(1) =   0
     Q(r) pseudized with  8 coefficients,  rinner =    0.800

     atomic species   valence    mass     pseudopotential
        Ti1           12.00    47.86700     Ti( 1.00)
        O1             6.00    15.99900     O ( 1.00)
        N1             5.00    14.00700     N ( 1.00)
        C1             4.00    12.01100     C ( 1.00)
        H1             1.00     1.00800     H ( 1.00)

     No symmetry found

   Cartesian axes

     site n.     atom                  positions (alat units)
         1           Ti1 tau(   1) = (   0.0004258   2.9801865   6.0000000  )
         2           Ti1 tau(   2) = (   3.2906075   1.4906267   6.0002472  )
         3           O1  tau(   3) = (   0.0006271   0.0005054   7.9858123  )
         4           O1  tau(   4) = (   3.2906025   0.0005020   7.3038282  )
         5           O1  tau(   5) = (   4.5942328   1.4918067   9.2879030  )
         6           O1  tau(   6) = (   1.9868534   1.4903216   9.2879459  )
         7           Ti1 tau(   7) = (   3.2907910   2.8959150   9.1758416  )
         8           Ti1 tau(   8) = (   0.0015273   1.4827037   9.2680791  )
         9           O1  tau(   9) = (   3.2714441   0.0289406  11.3813764  )
        10           O1  tau(  10) = (   0.0116148   5.9584955  10.6183126  )
        11           O1  tau(  11) = (   1.2692032   1.5162281  12.7122965  )
        12           O1  tau(  12) = (   5.2779133   1.5159715  12.6811497  )
        13           Ti1 tau(  13) = (   6.5579218   3.0031650  12.5037829  )
        14           Ti1 tau(  14) = (   3.2791490   1.5128154  12.5375672  )
        15           O1  tau(  15) = (   6.5208524   5.8954130  14.6845636  )
        16           O1  tau(  16) = (   3.2849572   0.0099931  14.0031570  )
        17           O1  tau(  17) = (   4.4884262   1.5607690  16.1641467  )
        18           O1  tau(  18) = (   1.9729656   1.5430890  16.0903287  )
        19           Ti1 tau(  19) = (   3.2372663   3.0309179  15.7728032  )
        20           Ti1 tau(  20) = (   6.5553692   1.3539605  15.8053163  )
        21           O1  tau(  21) = (   3.2904802   0.0005063   4.7018136  )
        22           O1  tau(  22) = (   6.5123495   0.2165906  17.2215032  )
        23           O1  tau(  23) = (   1.3043587   1.4918075   6.0039043  )
        24           O1  tau(  24) = (   5.2767064   1.4903225   6.0039473  )
        25           Ti1 tau(  25) = (   0.0000382   5.9609847   6.0000000  )
        26           Ti1 tau(  26) = (   3.2902200   4.4714249   6.0002472  )
        27           O1  tau(  27) = (   0.0002396   2.9813036   7.9858123  )
        28           O1  tau(  28) = (   3.2902150   2.9813002   7.3038282  )
        29           O1  tau(  29) = (   4.5938453   4.4726049   9.2879030  )
        30           O1  tau(  30) = (   1.9864658   4.4711199   9.2879459  )
        31           Ti1 tau(  31) = (   3.2891106   5.8743827   9.1763621  )
        32           Ti1 tau(  32) = (   0.0006254   4.4649316   9.2693709  )
        33           O1  tau(  33) = (   3.2699379   2.9911670  11.3762017  )
        34           O1  tau(  34) = (   0.0092240   2.9805883  10.6323155  )
        35           O1  tau(  35) = (   1.2730946   4.4825978  12.6662957  )
        36           O1  tau(  36) = (   5.2742290   4.4829497  12.6320226  )
        37           Ti1 tau(  37) = (   6.5783117   0.0079037  12.5026730  )
        38           Ti1 tau(  38) = (   3.2784283   4.4905194  12.5286134  )
        39           O1  tau(  39) = (   6.5033290   3.0824797  14.9867588  )
        40           O1  tau(  40) = (   3.2824109   3.0350539  13.9807796  )
        41           O1  tau(  41) = (   4.4804250   4.5097483  16.2808085  )
        42           O1  tau(  42) = (   1.9642025   4.5165872  16.2225063  )
        43           Ti1 tau(  43) = (   3.2609991   0.0502580  15.7998297  )
        44           Ti1 tau(  44) = (   6.5501253   4.5826093  16.0954727  )
        45           O1  tau(  45) = (   3.2900926   2.9813045   4.7018136  )
        46           O1  tau(  46) = (   1.3039711   4.4726057   6.0039043  )
        47           O1  tau(  47) = (   5.2763189   4.4711207   6.0039473  )
        48           N1  tau(  48) = (   0.8845045   3.2634721  19.1145209  )
        49           N1  tau(  49) = (   6.3504243   3.3997271  18.1887592  )
        50           C1  tau(  50) = (   1.2927081   4.5631590  19.6429350  )
        51           H1  tau(  51) = (   0.4658632   5.1229972  20.1056819  )
        52           H1  tau(  52) = (   2.0600825   4.3818216  20.3958833  )
        53           H1  tau(  53) = (   1.7018904   5.1738364  18.8453250  )
        54           H1  tau(  54) = (   0.5628611   2.6866381  19.8888112  )
        55           H1  tau(  55) = (   5.6051421   3.9927062  18.5884547  )
        56           H1  tau(  56) = (   5.9567982   2.4624696  18.0937858  )

     number of k points=    10  Fermi-Dirac smearing, width (Ry)=  0.0073
                       cart. coord. in units 2pi/alat
        k(    1) = (   0.0000000   0.0000000   0.0000000), wk =   0.1250000
        k(    2) = (   0.0000000   0.0419351   0.0000000), wk =   0.2500000
        k(    3) = (   0.0000000  -0.0838702   0.0000000), wk =   0.1250000
        k(    4) = (   0.0379955   0.0000049   0.0000000), wk =   0.2500000
        k(    5) = (   0.0379955   0.0419400   0.0000000), wk =   0.2500000
        k(    6) = (   0.0379955  -0.0838652   0.0000000), wk =   0.2500000
        k(    7) = (   0.0379955  -0.0419301   0.0000000), wk =   0.2500000
        k(    8) = (  -0.0759910  -0.0000099   0.0000000), wk =   0.1250000
        k(    9) = (  -0.0759910   0.0419252   0.0000000), wk =   0.2500000
        k(   10) = (  -0.0759910  -0.0838800   0.0000000), wk =   0.1250000

     Initial potential from superposition of free atoms

     starting charge  381.99914, renormalised to  398.00000

     negative rho (up, down):  1.416E-02 0.000E+00

     %%%%%%%%%%%%%%%%%%%%%%%%%%%%%%%%%%%%%%%%%%%%%%%%%%%%%%%%%%%%%%%%%%%%%%%%
     %                                                                      %
     % You are using vdW-DF, which was implemented by the Thonhauser group. %
     % Please cite the following two papers that made this development      %
     % possible and the two reviews that describe the various versions:     %
     %                                                                      %
     %   T. Thonhauser et al., PRL 115, 136402 (2015).                      %
     %   T. Thonhauser et al., PRB 76, 125112 (2007).                       %
     %   K. Berland et al., Rep. Prog. Phys. 78, 066501 (2015).             %
     %   D.C. Langreth et al., J. Phys.: Condens. Matter 21, 084203 (2009). %
     %                                                                      %
     %                                                                      %
     % If you are calculating the stress with vdW-DF, please also cite:     %
     %                                                                      %
     %   R. Sabatini et al., J. Phys.: Condens. Matter 24, 424209 (2012).   %
     %                                                                      %
     %%%%%%%%%%%%%%%%%%%%%%%%%%%%%%%%%%%%%%%%%%%%%%%%%%%%%%%%%%%%%%%%%%%%%%%%

     Adding external electric field

     Computed dipole along edir(3) :
        Dipole              -11.7171 Ry au,        -29.7818 Debye
        Dipole field         -0.0221 Ry au,

        Potential amp.        2.0497 Ry
        Total length         46.3494 bohr

     Starting wfcs are  302 atomic wfcs
  @ DRIVER MODE: Message from server: STATUS
  @ DRIVER MODE: Message from server: POSDATA
  @ DRIVER MODE: Reading and sharing cell
  @ DRIVER MODE: Reading and sharing positions
  @ DRIVER MODE: Received positions

     Self-consistent Calculation

     iteration #  1     ecut=    29.40 Ry     beta= 0.05
     Davidson diagonalization with overlap
     c_bands:  3 eigenvalues not converged
     c_bands:  1 eigenvalues not converged
     c_bands:  1 eigenvalues not converged
     c_bands:  4 eigenvalues not converged
     c_bands:  1 eigenvalues not converged
     c_bands:  4 eigenvalues not converged
     c_bands:  5 eigenvalues not converged
     c_bands:  2 eigenvalues not converged
     ethr =  1.00E-05,  avg # of iterations = 21.9

[...]

     total energy              =   -2424.43931706 Ry
     estimated scf accuracy    <    5831.67915826 Ry

     iteration #  2     ecut=    29.40 Ry     beta= 0.05
     Davidson diagonalization with overlap
     ethr =  1.00E-02,  avg # of iterations = 22.3

[...]

     iteration # 81     ecut=    29.40 Ry     beta= 0.05
     Davidson diagonalization with overlap
     c_bands:  2 eigenvalues not converged
     ethr =  8.79E-11,  avg # of iterations = 12.7

[...]

     total energy              =   -2942.84386134 Ry
     estimated scf accuracy    <       0.00000010 Ry

     iteration # 84     ecut=    29.40 Ry     beta= 0.05
     Davidson diagonalization with overlap
     ethr =  2.53E-11,  avg # of iterations = 12.7

     negative rho (up, down):  1.512E-02 0.000E+00

     Adding external electric field

     Computed dipole along edir(3) :
        Dipole                1.4956 Ry au,          3.8014 Debye
        Dipole field          0.0028 Ry au,

        Potential amp.       -0.2616 Ry
        Total length         46.3494 bohr

     End of self-consistent calculation

          k = 0.0000 0.0000 0.0000 ( 18029 PWs)   bands (ev):

   -55.2021 -55.1650 -55.1546 -55.1256 -55.1204 -55.0836 -55.0803 -55.0455
   -55.0262 -55.0134 -54.9918 -54.9870 -54.9533 -54.8568 -54.1867 -54.1527
   -31.7684 -31.6524 -31.6475 -31.5684 -31.5155 -31.5145 -31.5118 -31.4931
   -31.4434 -31.4398 -31.4118 -31.4096 -31.3994 -31.3826 -31.3694 -31.3639
   -31.3566 -31.3469 -31.3395 -31.3226 -31.3072 -31.3042 -31.2725 -31.2689
   -31.2579 -31.2570 -31.2386 -31.2289 -31.2118 -31.2108 -31.2065 -31.1859
   -31.1858 -31.1823 -31.1755 -31.1730 -31.1396 -31.1301 -31.1153 -31.0984
   -31.0700 -31.0507 -30.5963 -30.5017 -30.4796 -30.4125 -30.3258 -30.2150
   -17.9493 -16.0357 -15.7734 -15.6280 -15.5158 -15.4047 -15.2850 -15.2541
   -15.1345 -15.0584 -14.9245 -14.8982 -14.8756 -14.8521 -14.8401 -14.8276
   -14.7519 -14.7455 -14.7293 -14.7011 -14.6994 -14.6540 -14.6443 -14.6048
   -14.5800 -14.5585 -14.4539 -14.3659 -14.2920 -14.0757 -13.4240 -12.6894
   -12.5718  -9.7038  -6.5973  -6.0719  -4.5896  -3.3740  -3.2549  -3.2260
    -3.1390  -3.1057  -3.0968  -3.0007  -2.9503  -2.7925  -2.6502  -2.6243
    -2.4934  -2.4184  -2.4020  -2.3775  -2.2477  -2.2125  -2.1616  -2.1222
    -2.0634  -2.0328  -2.0091  -1.9934  -1.9623  -1.9532  -1.9280  -1.8393
    -1.7794  -1.6857  -1.6681  -1.6017  -1.5932  -1.5611  -1.5400  -1.4949
    -1.4846  -1.4343  -1.4274  -1.4149  -1.3950  -1.2659  -1.2235  -1.1136
    -1.0524  -0.9649  -0.8441  -0.8041  -0.7898  -0.6992  -0.6904  -0.6584
    -0.5821  -0.5791  -0.5481  -0.4399  -0.3749  -0.3114  -0.2525  -0.2263
    -0.1930  -0.1155  -0.0248   0.0115   0.0281   0.0511   0.1516   0.1865
     0.2422   0.3090   0.3206   0.3338   0.4133   0.4546   0.5299   0.5663
     0.5839   0.6727   0.6992   0.7270   0.7276   0.7653   0.7795   0.8191
     0.8680   0.8947   0.9813   1.0485   1.1026   1.3470   1.3994   1.4056
     1.7316   1.7396   1.8360   2.0194   2.4125   2.4608   3.8942   3.9631
     4.0387   4.0437   4.0663   4.1299   4.3680   4.3911   4.3999   4.4021
     4.4288

[...]

          k = 0.0380-0.0419 0.0000 ( 17876 PWs)   bands (ev):

[...]

          k =-0.0760-0.0000 0.0000 ( 17886 PWs)   bands (ev):

[...]

          k =-0.0760-0.0839 0.0000 ( 17948 PWs)   bands (ev):

   -55.1883 -55.1786 -55.1377 -55.1372 -55.1243 -55.0792 -55.0659 -55.0599
   -55.0176 -55.0103 -55.0073 -54.9705 -54.9700 -54.8580 -54.1698 -54.1695
   -31.5765 -31.5758 -31.5689 -31.4842 -31.4628 -31.4624 -31.4592 -31.4287
   -31.4285 -31.4130 -31.4021 -31.4006 -31.3919 -31.3664 -31.3570 -31.3439
   -31.3429 -31.3391 -31.3359 -31.3304 -31.3283 -31.3223 -31.2834 -31.2801
   -31.2799 -31.2786 -31.2608 -31.2593 -31.2574 -31.2569 -31.2519 -31.2434
   -31.2405 -31.2235 -31.2202 -31.2044 -31.2035 -31.2006 -31.1512 -31.1509
   -31.1266 -31.0745 -30.4924 -30.4921 -30.4089 -30.4086 -30.3693 -30.3691
   -17.9460 -15.5608 -15.4307 -15.4016 -15.2452 -15.2091 -15.1756 -15.1623
   -15.0414 -15.0042 -14.9794 -14.9701 -14.9525 -14.9121 -14.9065 -14.8996
   -14.8290 -14.8097 -14.8055 -14.7831 -14.7251 -14.7162 -14.7123 -14.7047
   -14.6542 -14.6505 -14.5700 -14.5598 -14.5565 -14.3773 -13.4273 -12.6733
   -12.6733  -9.7199  -6.5810  -6.0723  -4.5686  -3.2266  -2.9567  -2.6931
    -2.6884  -2.6602  -2.4592  -2.3964  -2.3657  -2.3602  -2.2629  -2.2263
    -2.2018  -2.1983  -2.1328  -2.1182  -2.0873  -2.0575  -2.0413  -2.0272
    -2.0113  -1.9971  -1.9720  -1.9347  -1.9266  -1.9180  -1.8866  -1.8648
    -1.8418  -1.8193  -1.8061  -1.7875  -1.7617  -1.7390  -1.6021  -1.5706
    -1.5001  -1.4563  -1.4140  -1.4097  -1.3379  -1.3015  -1.2514  -1.2393
    -1.2220  -1.0820  -1.0239  -0.9732  -0.9531  -0.9421  -0.8132  -0.7990
    -0.7261  -0.7084  -0.6921  -0.6171  -0.5662  -0.5281  -0.5145  -0.4212
    -0.4058  -0.3394  -0.2374  -0.2145  -0.2006  -0.1602  -0.1571  -0.1098
    -0.1027  -0.0186   0.0255   0.0606   0.0714   0.1072   0.3000   0.3161
     0.3261   0.4791   0.4948   0.6367   0.6802   0.7467   0.8057   0.8445
     0.9062   0.9434   1.0574   1.0872   1.1012   1.1096   1.1709   1.1828
     1.2455   1.2562   2.1921   2.1927   2.2807   2.2810   4.0403   4.1476
     4.1553   4.1970   4.3169   4.3467   4.4093   4.4366   4.4780   4.4812
     4.5431

     the Fermi energy is     3.9576 ev

!    total energy              =   -2942.84386839 Ry
     estimated scf accuracy    <       0.00000005 Ry
     smearing contrib. (-TS)   =      -0.03707413 Ry
     internal energy E=F+TS    =   -2942.80679427 Ry

     The total energy is F=E-TS. E is the sum of the following terms:
     one-electron contribution =  -23366.63413739 Ry
     hartree contribution      =   11777.49101843 Ry
     xc contribution           =    -487.73594109 Ry
     ewald contribution        =    9134.06804474 Ry
     electric field correction =       0.00422104 Ry

     convergence has been achieved in  84 iterations

     Forces acting on atoms (cartesian axes, Ry/au):

     atom    1 type  1   force =     0.00017447   -0.00033226    0.09330253
     atom    2 type  1   force =    -0.00006244   -0.00042490   -0.17823861
     atom    3 type  2   force =     0.00002723   -0.00031695   -0.02004637
     atom    4 type  2   force =     0.00002176   -0.00183056    0.05923912
     atom    5 type  2   force =    -0.01046091   -0.00026776    0.00864313
     atom    6 type  2   force =     0.01147650    0.00040328    0.00645674
     atom    7 type  1   force =    -0.00099957    0.00212644   -0.01398545
     atom    8 type  1   force =     0.00081879   -0.00094867   -0.00573727
     atom    9 type  2   force =    -0.00010022    0.00012361   -0.00001207
     atom   10 type  2   force =    -0.00185249    0.00412086    0.00027961
     atom   11 type  2   force =    -0.00005762   -0.00064404    0.00029299
     atom   12 type  2   force =    -0.00001979   -0.00041469    0.00054846
     atom   13 type  1   force =     0.00004270    0.00009717    0.00031697
     atom   14 type  1   force =    -0.00037333    0.00000224    0.00006935
     atom   15 type  2   force =     0.00052144    0.00025763   -0.00032908
     atom   16 type  2   force =     0.00032228   -0.00035361   -0.00007042
     atom   17 type  2   force =    -0.00057594   -0.00003411   -0.00003511
     atom   18 type  2   force =     0.00053843   -0.00020152    0.00000585
     atom   19 type  1   force =    -0.00001087   -0.00054638    0.00026194
     atom   20 type  1   force =     0.00070306    0.00016268    0.00088285
     atom   21 type  2   force =     0.00012391   -0.00012351    0.10400541
     atom   22 type  2   force =    -0.00041666    0.00021035   -0.00022949
     atom   23 type  2   force =    -0.07027565   -0.00022004   -0.02686887
     atom   24 type  2   force =     0.07026604    0.00021679   -0.02689302
     atom   25 type  1   force =     0.00008469   -0.00032307    0.09261917
     atom   26 type  1   force =    -0.00003017   -0.00058992   -0.17835752
     atom   27 type  2   force =     0.00012834   -0.00017360   -0.01909740
     atom   28 type  2   force =     0.00005042   -0.00163681    0.05860114
     atom   29 type  2   force =    -0.01106181   -0.00056493    0.00932739
     atom   30 type  2   force =     0.01198023   -0.00002571    0.00721563
     atom   31 type  1   force =    -0.00092781    0.00646882   -0.01505049
     atom   32 type  1   force =     0.00086377    0.00101882   -0.00588796
     atom   33 type  2   force =     0.00017429   -0.00057119   -0.00004126
     atom   34 type  2   force =    -0.00185806   -0.00052851   -0.00048192
     atom   35 type  2   force =    -0.00043463    0.00006425   -0.00042290
     atom   36 type  2   force =     0.00033469   -0.00011605    0.00019191
     atom   37 type  1   force =    -0.00051446   -0.00025119    0.00018527
     atom   38 type  1   force =    -0.00004714   -0.00014702   -0.00009999
     atom   39 type  2   force =     0.00029537   -0.00060757   -0.00001459
     atom   40 type  2   force =    -0.00060214   -0.00051000    0.00024971
     atom   41 type  2   force =    -0.00022518   -0.00070484   -0.00071030
     atom   42 type  2   force =     0.00048591   -0.00007965   -0.00012088
     atom   43 type  1   force =     0.00022136   -0.00020081   -0.00020158
     atom   44 type  1   force =     0.00061233   -0.00005590    0.00072322
     atom   45 type  2   force =     0.00013449   -0.00014534    0.10395593
     atom   46 type  2   force =    -0.07027009   -0.00016364   -0.02684117
     atom   47 type  2   force =     0.07024120    0.00025777   -0.02689963
     atom   48 type  3   force =     0.00090248    0.00145590   -0.00064203
     atom   49 type  3   force =    -0.00431192    0.00460767    0.00297802
     atom   50 type  4   force =     0.00055313   -0.00180947    0.00002606
     atom   51 type  5   force =    -0.00083800    0.00145366    0.00066313
     atom   52 type  5   force =     0.00036746   -0.00022523   -0.00018877
     atom   53 type  5   force =     0.00080348    0.00043253   -0.00122548
     atom   54 type  5   force =    -0.00005628   -0.00171095    0.00071477
     atom   55 type  5   force =     0.00518792   -0.00666541   -0.00342026
     atom   56 type  5   force =    -0.00207501    0.00098537    0.00039357

     Total force =     0.366515     Total SCF correction =     0.000558
  @ DRIVER MODE: Message from server: STATUS
  @ DRIVER MODE: Message from server: GETFORCE
  @ DRIVER MODE: Returning v,forces,stress,ensemble

     Writing output data file ./calc.save/
  @ DRIVER MODE: Message from server: EXIT
  @ DRIVE MODE: Exiting

     General routines

     Parallel routines

   This run was terminated on:  13: 6:39   9Sep2021

   JOB DONE.