     Program PWSCF v.6.7GPU starts on 15Sep2021 at 21:21:55

     R & G space division:  proc/nbgrp/npool/nimage =      10
     Reading input from /storage/home/hcoda1/3/ntian30/research/carbon/CxH_vib/H2O_calc/ads_slab/CH3NHH2O_a/out_0018/pw.inp
Warning: card &CELL ignored
Warning: card   CELL_DYNAMICS='IPI', ignored
Warning: card / ignored

     Current dimensions of program PWSCF are:
     Max number of different atomic species (ntypx) = 10
     Max number of k-points (npk) =  40000
     Max angular momentum in pseudopotentials (lmaxx) =  3
     Presently no symmetry can be used with electric field

     Message from routine cell_base_init:
     DEPRECATED: use true lattice parameter, not A to a.u. conversion factor

     IMPORTANT: XC functional enforced from input :
     Exchange-correlation= BEEF-VDW
                           (   1   4  43  14   2   0   0)
     Any further DFT definition will be discarded
     Please, verify this is what you really want

  @ DRIVER MODE: Connecting to
 qe_1139763_2852633.sched-torque.pace.gatech.edufc5fqpu6_scratch
  using UNIX socket
  @ DRIVER MODE: Message from server: STATUS
  @ DRIVER MODE: Message from server: INIT
  @ DRIVER MODE: Receiving replica           0          -1
  @ DRIVER MODE: Receiving encoded integer          25
  @ DRIVER MODE:  SCF:  T  FORCE:  T  STRESS:  F  VC:  F  ENSEMBLE:  F
  @ DRIVER MODE:  SCF:  T  FORCE:  T  STRESS:  F  VC:  F  ENSEMBLE:  F

     Using Slab Decomposition

     bravais-lattice index     =            0
     lattice parameter (alat)  =       1.8897  a.u.
     unit-cell volume          =    6658.9804 (a.u.)^3
     number of atoms/cell      =           56
     number of atomic types    =            5
     number of electrons       =       399.00
     number of Kohn-Sham states=          209
     kinetic-energy cutoff     =      29.3995  Ry
     charge density cutoff     =     293.9946  Ry
     scf convergence threshold =      7.3E-08
     mixing beta               =       0.0500
     number of iterations used =            8  plain     mixing
     Exchange-correlation= BEEF-VDW
                           (   1   4  43  14   2   0   0)

     celldm(1)=   1.889726  celldm(2)=   0.000000  celldm(3)=   0.000000
     celldm(4)=   0.000000  celldm(5)=   0.000000  celldm(6)=   0.000000

     crystal axes: (cart. coord. in units of alat)
               a(1) = (   6.579727   0.000000   0.000000 )
               a(2) = (  -0.000775   5.961596   0.000000 )
               a(3) = (   0.000000   0.000000  25.155947 )

     reciprocal axes: (cart. coord. in units 2 pi/alat)
               b(1) = (  0.151982  0.000020  0.000000 )
               b(2) = (  0.000000  0.167740  0.000000 )
               b(3) = (  0.000000  0.000000  0.039752 )

     PseudoPot. # 1 for Ti read from file:
     /storage/coda1/p-amedford6/0/shared/rich_project_chbe-medford/medford-share/data/pseudos_module/espresso/nninc/pbe/van/Ti.UPF
     MD5 check sum: 8e4df49b7f0d34bbd5052bf3f5ea0213
     Pseudo is Ultrasoft, Zval = 12.0
     Generated by new atomic code, or converted to UPF format
     Using radial grid of  851 points,  6 beta functions with:
                l(1) =   0
                l(2) =   0
                l(3) =   1
                l(4) =   1
                l(5) =   2
                l(6) =   2
     Q(r) pseudized with  8 coefficients,  rinner =    1.000   1.000   1.000
                                                       1.000   1.000

     PseudoPot. # 2 for O  read from file:
     /storage/coda1/p-amedford6/0/shared/rich_project_chbe-medford/medford-share/data/pseudos_module/espresso/nninc/pbe/van/O.UPF
     MD5 check sum: 78c19812648e8988a0fe644b0f25305e
     Pseudo is Ultrasoft, Zval =  6.0
     Generated by new atomic code, or converted to UPF format
     Using radial grid of  737 points,  4 beta functions with:
                l(1) =   0
                l(2) =   0
                l(3) =   1
                l(4) =   1
     Q(r) pseudized with  8 coefficients,  rinner =    0.800   0.800   0.800

     PseudoPot. # 3 for H  read from file:
     /storage/coda1/p-amedford6/0/shared/rich_project_chbe-medford/medford-share/data/pseudos_module/espresso/nninc/pbe/van/H.UPF
     MD5 check sum: b5ee9d7bfd3a09ee7748110bda690ff7
     Pseudo is Ultrasoft, Zval =  1.0
     Generated by new atomic code, or converted to UPF format
     Using radial grid of  615 points,  1 beta functions with:
                l(1) =   0
     Q(r) pseudized with  8 coefficients,  rinner =    0.800

     PseudoPot. # 4 for N  read from file:
     /storage/coda1/p-amedford6/0/shared/rich_project_chbe-medford/medford-share/data/pseudos_module/espresso/nninc/pbe/van/N.UPF
     MD5 check sum: 90d10febe142ad51ac9d5be1deb811c4
     Pseudo is Ultrasoft, Zval =  5.0
     Generated by new atomic code, or converted to UPF format
     Using radial grid of  729 points,  4 beta functions with:
                l(1) =   0
                l(2) =   0
                l(3) =   1
                l(4) =   1
     Q(r) pseudized with  8 coefficients,  rinner =    0.800   0.800   0.800

     PseudoPot. # 5 for C  read from file:
     /storage/coda1/p-amedford6/0/shared/rich_project_chbe-medford/medford-share/data/pseudos_module/espresso/nninc/pbe/van/C.UPF
     MD5 check sum: 1a69bf6b8db32088f5b2163dbdb77a27
     Pseudo is Ultrasoft, Zval =  4.0
     Generated by new atomic code, or converted to UPF format
     Using radial grid of  721 points,  4 beta functions with:
                l(1) =   0
                l(2) =   0
                l(3) =   1
                l(4) =   1
     Q(r) pseudized with  8 coefficients,  rinner =    0.800   0.800   0.800

     atomic species   valence    mass     pseudopotential
        Ti1           12.00    47.86700     Ti( 1.00)
        O1             6.00    15.99900     O ( 1.00)
        H1             1.00     1.00800     H ( 1.00)
        N1             5.00    14.00700     N ( 1.00)
        C1             4.00    12.01100     C ( 1.00)

     No symmetry found

   Cartesian axes

     site n.     atom                  positions (alat units)
         1           Ti1 tau(   1) = (   0.0004258   2.9801865   6.0000000  )
         2           Ti1 tau(   2) = (   3.2906075   1.4906267   6.0002472  )
         3           O1  tau(   3) = (   0.0006271   0.0005054   7.9858123  )
         4           O1  tau(   4) = (   3.2906025   0.0005020   7.3038282  )
         5           O1  tau(   5) = (   4.5942328   1.4918067   9.2879030  )
         6           O1  tau(   6) = (   1.9868534   1.4903216   9.2879459  )
         7           Ti1 tau(   7) = (   3.2907910   2.8959150   9.1758416  )
         8           Ti1 tau(   8) = (   0.0015273   1.4827037   9.2680791  )
         9           O1  tau(   9) = (   3.2896571   0.0076959  11.3233140  )
        10           O1  tau(  10) = (   0.0116148   5.9584955  10.6183126  )
        11           O1  tau(  11) = (   1.3168077   1.5009220  12.6157425  )
        12           O1  tau(  12) = (   5.2956243   1.4929856  12.6075824  )
        13           Ti1 tau(  13) = (   6.5239244   2.9540340  12.6210794  )
        14           Ti1 tau(  14) = (   3.2085880   1.4976218  12.4699624  )
        15           O1  tau(  15) = (   6.5712616   0.0419518  14.6436513  )
        16           O1  tau(  16) = (   3.3111435   0.0202601  13.9161875  )
        17           O1  tau(  17) = (   4.5291760   1.5523016  16.0784362  )
        18           O1  tau(  18) = (   2.0445308   1.5488630  16.0432715  )
        19           Ti1 tau(  19) = (   3.3059752   3.0257308  15.6838679  )
        20           Ti1 tau(  20) = (   0.0592185   1.5662548  15.8694889  )
        21           O1  tau(  21) = (   3.2904802   0.0005063   4.7018136  )
        22           O1  tau(  22) = (   0.0264932   0.0561689  17.2024660  )
        23           O1  tau(  23) = (   1.3043587   1.4918075   6.0039043  )
        24           O1  tau(  24) = (   5.2767064   1.4903225   6.0039473  )
        25           Ti1 tau(  25) = (   0.0000382   5.9609847   6.0000000  )
        26           Ti1 tau(  26) = (   3.2902200   4.4714249   6.0002472  )
        27           O1  tau(  27) = (   0.0002396   2.9813036   7.9858123  )
        28           O1  tau(  28) = (   3.2902150   2.9813002   7.3038282  )
        29           O1  tau(  29) = (   4.5938453   4.4726049   9.2879030  )
        30           O1  tau(  30) = (   1.9864658   4.4711199   9.2879459  )
        31           Ti1 tau(  31) = (   3.2891106   5.8743827   9.1763621  )
        32           Ti1 tau(  32) = (   0.0006254   4.4649316   9.2693709  )
        33           O1  tau(  33) = (   3.2898653   2.9926188  11.3210358  )
        34           O1  tau(  34) = (   0.0092240   2.9805883  10.6323155  )
        35           O1  tau(  35) = (   1.3106253   4.4883450  12.6271249  )
        36           O1  tau(  36) = (   5.2968722   4.4793810  12.6200386  )
        37           Ti1 tau(  37) = (   6.5212985   5.9329073  12.5685303  )
        38           Ti1 tau(  38) = (   3.2059443   4.4781599  12.4721232  )
        39           O1  tau(  39) = (   6.5764971   2.9600267  14.6431433  )
        40           O1  tau(  40) = (   3.3056941   3.0038382  13.8936370  )
        41           O1  tau(  41) = (   4.5394310   4.5052612  16.0827012  )
        42           O1  tau(  42) = (   2.0570581   4.5113261  16.0718816  )
        43           Ti1 tau(  43) = (   3.3383738   0.0382055  15.7109988  )
        44           Ti1 tau(  44) = (   0.0469139   4.6840235  16.0886640  )
        45           O1  tau(  45) = (   3.2900926   2.9813045   4.7018136  )
        46           O1  tau(  46) = (   1.3039711   4.4726057   6.0039043  )
        47           O1  tau(  47) = (   5.2763189   4.4711207   6.0039473  )
        48           H1  tau(  48) = (   5.6101632   2.9904038  17.7880820  )
        49           N1  tau(  49) = (   6.5649722   3.0046358  17.4438072  )
        50           C1  tau(  50) = (   0.8874553   2.9889031  18.6220612  )
        51           H1  tau(  51) = (   1.3591778   3.9628686  18.7739097  )
        52           H1  tau(  52) = (   0.3310755   2.7322232  19.5165709  )
        53           H1  tau(  53) = (   1.6717793   2.2402645  18.4914768  )
        54           O1  tau(  54) = (   3.2567199   5.9268012  21.6217354  )
        55           H1  tau(  55) = (   4.0245811   5.9269051  22.2091127  )
        56           H1  tau(  56) = (   2.4887544   5.9269923  22.2092946  )

     number of k points=    10  Fermi-Dirac smearing, width (Ry)=  0.0073
                       cart. coord. in units 2pi/alat
        k(    1) = (   0.0000000   0.0000000   0.0000000), wk =   0.1250000
        k(    2) = (   0.0000000   0.0419351   0.0000000), wk =   0.2500000
        k(    3) = (   0.0000000  -0.0838702   0.0000000), wk =   0.1250000
        k(    4) = (   0.0379955   0.0000049   0.0000000), wk =   0.2500000
        k(    5) = (   0.0379955   0.0419400   0.0000000), wk =   0.2500000
        k(    6) = (   0.0379955  -0.0838652   0.0000000), wk =   0.2500000
        k(    7) = (   0.0379955  -0.0419301   0.0000000), wk =   0.2500000
        k(    8) = (  -0.0759910  -0.0000099   0.0000000), wk =   0.1250000
        k(    9) = (  -0.0759910   0.0419252   0.0000000), wk =   0.2500000
        k(   10) = (  -0.0759910  -0.0838800   0.0000000), wk =   0.1250000

     Initial potential from superposition of free atoms

     starting charge  382.99914, renormalised to  399.00000

     negative rho (up, down):  9.624E-03 0.000E+00

     %%%%%%%%%%%%%%%%%%%%%%%%%%%%%%%%%%%%%%%%%%%%%%%%%%%%%%%%%%%%%%%%%%%%%%%%
     %                                                                      %
     % You are using vdW-DF, which was implemented by the Thonhauser group. %
     % Please cite the following two papers that made this development      %
     % possible and the two reviews that describe the various versions:     %
     %                                                                      %
     %   T. Thonhauser et al., PRL 115, 136402 (2015).                      %
     %   T. Thonhauser et al., PRB 76, 125112 (2007).                       %
     %   K. Berland et al., Rep. Prog. Phys. 78, 066501 (2015).             %
     %   D.C. Langreth et al., J. Phys.: Condens. Matter 21, 084203 (2009). %
     %                                                                      %
     %                                                                      %
     % If you are calculating the stress with vdW-DF, please also cite:     %
     %                                                                      %
     %   R. Sabatini et al., J. Phys.: Condens. Matter 24, 424209 (2012).   %
     %                                                                      %
     %%%%%%%%%%%%%%%%%%%%%%%%%%%%%%%%%%%%%%%%%%%%%%%%%%%%%%%%%%%%%%%%%%%%%%%%

     Adding external electric field

     Computed dipole along edir(3) :
        Dipole              -12.5525 Ry au,        -31.9053 Debye
        Dipole field         -0.0237 Ry au,

        Potential amp.        2.1959 Ry
        Total length         46.3494 bohr

     Starting wfcs are  302 atomic wfcs
  @ DRIVER MODE: Message from server: STATUS
  @ DRIVER MODE: Message from server: POSDATA
  @ DRIVER MODE: Reading and sharing cell
  @ DRIVER MODE: Reading and sharing positions
  @ DRIVER MODE: Received positions

     Self-consistent Calculation

     iteration #  1     ecut=    29.40 Ry     beta= 0.05
     Davidson diagonalization with overlap
     c_bands:  2 eigenvalues not converged
     c_bands:  2 eigenvalues not converged
     c_bands:  4 eigenvalues not converged
     c_bands:  3 eigenvalues not converged
     c_bands:  3 eigenvalues not converged
     c_bands:  3 eigenvalues not converged
     c_bands:  5 eigenvalues not converged
     c_bands:  4 eigenvalues not converged
     c_bands:  5 eigenvalues not converged
     ethr =  1.00E-05,  avg # of iterations = 22.0

[...]

     total energy              =   -2445.24189449 Ry
     estimated scf accuracy    <    5722.14105786 Ry

     iteration #  2     ecut=    29.40 Ry     beta= 0.05
     Davidson diagonalization with overlap
     ethr =  1.00E-02,  avg # of iterations = 22.0

[...]

     iteration # 57     ecut=    29.40 Ry     beta= 0.05
     Davidson diagonalization with overlap
     c_bands:  1 eigenvalues not converged
     ethr =  9.14E-09,  avg # of iterations =  7.8

[...]

     total energy              =   -2955.21549839 Ry
     estimated scf accuracy    <       0.00000011 Ry

     iteration # 70     ecut=    29.40 Ry     beta= 0.05
     Davidson diagonalization with overlap
     ethr =  2.80E-11,  avg # of iterations =  9.7

     negative rho (up, down):  1.111E-02 0.000E+00

     Adding external electric field

     Computed dipole along edir(3) :
        Dipole                1.3318 Ry au,          3.3850 Debye
        Dipole field          0.0025 Ry au,

        Potential amp.       -0.2330 Ry
        Total length         46.3494 bohr

     End of self-consistent calculation

          k = 0.0000 0.0000 0.0000 ( 18029 PWs)   bands (ev):

   -55.4919 -55.4835 -55.4578 -55.4475 -55.4025 -55.3337 -55.3304 -55.2966
   -55.2958 -55.2627 -55.2549 -55.2212 -55.0672 -54.7846 -54.4637 -54.4297
   -32.0417 -31.9730 -31.8472 -31.8322 -31.8115 -31.7960 -31.7851 -31.7460
   -31.7334 -31.7333 -31.7067 -31.6991 -31.6658 -31.6441 -31.6359 -31.6326
   -31.6256 -31.5950 -31.5741 -31.5491 -31.5417 -31.5373 -31.5214 -31.5002
   -31.4909 -31.4863 -31.4828 -31.4743 -31.4579 -31.4551 -31.4499 -31.4457
   -31.4323 -31.4269 -31.4083 -31.4036 -31.3676 -31.3312 -31.2362 -31.0587
   -31.0526 -30.9830 -30.8706 -30.7829 -30.7605 -30.6874 -30.6009 -30.4898
   -18.5885 -16.2504 -15.9685 -15.7885 -15.6460 -15.6137 -15.5258 -15.3278
   -15.2023 -15.1869 -15.0827 -15.0506 -15.0259 -15.0195 -14.9908 -14.9872
   -14.9315 -14.9249 -14.9156 -14.9027 -14.8439 -14.8201 -14.7794 -14.6886
   -14.6642 -14.6489 -14.6213 -14.5392 -14.5335 -14.0902 -13.5853 -12.9662
   -12.8499  -8.4947  -6.3918  -3.9052  -3.6209  -3.4467  -3.4055  -3.3936
    -3.3437  -3.0930  -3.0755  -2.8380  -2.7001  -2.6853  -2.6761  -2.6601
    -2.6460  -2.6258  -2.4223  -2.3905  -2.3226  -2.3067  -2.2854  -2.2767
    -2.2704  -2.2608  -2.2568  -2.2122  -2.1577  -2.0512  -2.0260  -1.9192
    -1.8752  -1.8475  -1.8010  -1.7575  -1.7508  -1.7406  -1.7212  -1.7074
    -1.6869  -1.6692  -1.5338  -1.4719  -1.3384  -1.2931  -1.2858  -1.0914
    -1.0541  -0.9614  -0.9352  -0.9179  -0.9099  -0.8777  -0.7959  -0.7041
    -0.6506  -0.6405  -0.5844  -0.5060  -0.4919  -0.4068  -0.3855  -0.3775
    -0.3352  -0.2607  -0.2509  -0.2418  -0.1972  -0.1372  -0.0550   0.0226
     0.0748   0.0959   0.1223   0.2017   0.2309   0.3257   0.3460   0.3905
     0.3987   0.4448   0.4870   0.4957   0.5013   0.5170   0.5363   0.6843
     0.7922   0.8474   0.8797   0.8911   1.0489   1.0848   1.1728   1.2596
     1.4855   1.5583   1.6525   1.7514   1.8069   2.1290   2.1743   3.6513
     3.7303   3.7840   3.7930   3.8886   3.8959   4.1010   4.1098   4.1209
     4.1928

[...]

          k = 0.0380-0.0419 0.0000 ( 17876 PWs)   bands (ev):

[...]

          k =-0.0760-0.0000 0.0000 ( 17886 PWs)   bands (ev):

[...]

          k =-0.0760-0.0839 0.0000 ( 17948 PWs)   bands (ev):

   -55.4753 -55.4742 -55.4655 -55.4653 -55.3978 -55.3382 -55.3152 -55.3111
   -55.2804 -55.2786 -55.2384 -55.2378 -55.0662 -54.7855 -54.4467 -54.4466
   -31.8459 -31.8443 -31.7887 -31.7879 -31.7792 -31.7710 -31.7699 -31.7548
   -31.6955 -31.6933 -31.6866 -31.6830 -31.6618 -31.6293 -31.6124 -31.6092
   -31.6008 -31.5971 -31.5948 -31.5938 -31.5916 -31.5788 -31.5765 -31.5438
   -31.5336 -31.5324 -31.5075 -31.4934 -31.4768 -31.4763 -31.4709 -31.4705
   -31.4538 -31.4533 -31.4531 -31.4492 -31.3996 -31.3339 -31.2314 -31.1217
   -31.0548 -31.0078 -30.7732 -30.7731 -30.6834 -30.6833 -30.6442 -30.6441
   -18.5884 -15.7016 -15.6693 -15.4310 -15.4250 -15.4151 -15.4005 -15.2587
   -15.2042 -15.1954 -15.1886 -15.1629 -15.1414 -15.0890 -15.0618 -15.0243
   -15.0185 -15.0130 -15.0103 -14.9483 -14.9424 -14.9212 -14.9138 -14.7999
   -14.7969 -14.7958 -14.7240 -14.6549 -14.5193 -14.2593 -13.6060 -12.9519
   -12.9516  -8.4984  -6.3933  -3.9167  -2.9951  -2.9576  -2.8057  -2.6997
    -2.6717  -2.6578  -2.6397  -2.5611  -2.4192  -2.4022  -2.3860  -2.3689
    -2.3546  -2.3172  -2.3107  -2.2982  -2.2855  -2.2780  -2.2602  -2.2242
    -2.1855  -2.1579  -2.1503  -2.1408  -2.1155  -2.1037  -2.0787  -2.0730
    -2.0385  -2.0299  -2.0128  -1.9897  -1.7273  -1.7080  -1.6909  -1.6207
    -1.6135  -1.5813  -1.5721  -1.5530  -1.5397  -1.4885  -1.3902  -1.2226
    -1.1933  -1.1883  -1.1638  -1.1000  -1.0765  -0.9271  -0.8996  -0.8797
    -0.8438  -0.7944  -0.7602  -0.7215  -0.6863  -0.6495  -0.5879  -0.5800
    -0.4999  -0.4515  -0.4501  -0.4266  -0.4256  -0.3542  -0.2753  -0.2562
    -0.2451  -0.2039  -0.1913  -0.1094  -0.0868   0.0112   0.0253   0.0846
     0.1224   0.1937   0.3820   0.4931   0.5521   0.5779   0.6312   0.7265
     0.7798   0.7939   0.8285   0.8337   0.8946   0.9358   1.0503   1.0572
     1.1249   1.2271   1.7536   1.9226   1.9234   1.9940   1.9943   3.9121
     3.9186   3.9695   3.9983   4.1510   4.1556   4.1785   4.1794   4.2991
     4.3180

     the Fermi energy is     3.6440 ev

!    total energy              =   -2955.21553288 Ry
     estimated scf accuracy    <       0.00000005 Ry
     smearing contrib. (-TS)   =      -0.02205060 Ry
     internal energy E=F+TS    =   -2955.19348227 Ry

     The total energy is F=E-TS. E is the sum of the following terms:
     one-electron contribution =  -23378.06378141 Ry
     hartree contribution      =   11780.97047727 Ry
     xc contribution           =    -489.67876411 Ry
     ewald contribution        =    9131.57523894 Ry
     electric field correction =       0.00334704 Ry

     convergence has been achieved in  70 iterations

     Forces acting on atoms (cartesian axes, Ry/au):

     atom    1 type  1   force =     0.00011803   -0.00019925    0.09686607
     atom    2 type  1   force =     0.00004432   -0.00046054   -0.17498640
     atom    3 type  2   force =     0.00013028    0.00001450   -0.02540237
     atom    4 type  2   force =    -0.00003034   -0.00126622    0.05227121
     atom    5 type  2   force =    -0.01217570    0.00000242    0.00287558
     atom    6 type  2   force =     0.01362543    0.00054488    0.00224760
     atom    7 type  1   force =     0.00059320    0.00031621   -0.01253923
     atom    8 type  1   force =     0.00044926    0.00707264    0.03083520
     atom    9 type  2   force =     0.00032289    0.00016927    0.00043243
     atom   10 type  2   force =    -0.00271224    0.00207528   -0.01689685
     atom   11 type  2   force =     0.00018138   -0.00035634    0.00013710
     atom   12 type  2   force =     0.00005765   -0.00035184    0.00023623
     atom   13 type  1   force =    -0.00019591    0.00036398   -0.00002354
     atom   14 type  1   force =    -0.00012049    0.00033370   -0.00036807
     atom   15 type  2   force =    -0.00003682   -0.00029106   -0.00005729
     atom   16 type  2   force =     0.00014079    0.00038062    0.00131462
     atom   17 type  2   force =    -0.00032025   -0.00039152    0.00027956
     atom   18 type  2   force =     0.00040210   -0.00033113    0.00014770
     atom   19 type  1   force =     0.00024430   -0.00039240    0.00034238
     atom   20 type  1   force =    -0.00038152    0.00038549    0.00060041
     atom   21 type  2   force =     0.00006109   -0.00002136    0.10302490
     atom   22 type  2   force =     0.00019067   -0.00084990    0.00037041
     atom   23 type  2   force =    -0.07166714   -0.00015739   -0.02784276
     atom   24 type  2   force =     0.07156497    0.00034010   -0.02790167
     atom   25 type  1   force =     0.00008254   -0.00017046    0.09665708
     atom   26 type  1   force =     0.00009722   -0.00025033   -0.17509775
     atom   27 type  2   force =     0.00012047   -0.00010918   -0.02446271
     atom   28 type  2   force =     0.00003933   -0.00101590    0.05210080
     atom   29 type  2   force =    -0.01236985    0.00066755    0.00263928
     atom   30 type  2   force =     0.01369230    0.00105784    0.00202050
     atom   31 type  1   force =     0.00048452    0.00306853   -0.01335587
     atom   32 type  1   force =     0.00031024   -0.00926215    0.03127531
     atom   33 type  2   force =    -0.00012789    0.00015871    0.00076835
     atom   34 type  2   force =    -0.00202508    0.00179335   -0.02551439
     atom   35 type  2   force =     0.00026700    0.00018731    0.00036608
     atom   36 type  2   force =     0.00021049    0.00009550    0.00035283
     atom   37 type  1   force =    -0.00026255   -0.00063986    0.00017727
     atom   38 type  1   force =    -0.00007937    0.00003005   -0.00021526
     atom   39 type  2   force =     0.00005821   -0.00078783    0.00036218
     atom   40 type  2   force =     0.00024346    0.00003057   -0.00006839
     atom   41 type  2   force =    -0.00045013    0.00012810   -0.00006539
     atom   42 type  2   force =     0.00041858   -0.00011184   -0.00022486
     atom   43 type  1   force =    -0.00027978    0.00050837   -0.00079668
     atom   44 type  1   force =    -0.00038202   -0.00076495    0.00152207
     atom   45 type  2   force =     0.00004224   -0.00004757    0.10307344
     atom   46 type  2   force =    -0.07165904   -0.00005341   -0.02784246
     atom   47 type  2   force =     0.07158235    0.00036013   -0.02791039
     atom   48 type  3   force =    -0.00002189   -0.00047127    0.00010981
     atom   49 type  4   force =     0.00253925   -0.00040027    0.00499796
     atom   50 type  5   force =     0.00237041   -0.00008955   -0.01671649
     atom   51 type  3   force =    -0.00019993    0.00054893    0.00220871
     atom   52 type  3   force =    -0.00394643   -0.00254172    0.00723220
     atom   53 type  3   force =    -0.00074222    0.00121577    0.00188823
     atom   54 type  2   force =    -0.00066545   -0.00006709   -0.00026891
     atom   55 type  3   force =    -0.00057883   -0.00001897   -0.00043386
     atom   56 type  3   force =     0.00074589    0.00002148   -0.00074192

     Total force =     0.368843     Total SCF correction =     0.000873
  @ DRIVER MODE: Message from server: STATUS
  @ DRIVER MODE: Message from server: GETFORCE
  @ DRIVER MODE: Returning v,forces,stress,ensemble

     Writing output data file ./calc.save/
  @ DRIVER MODE: Message from server: EXIT
  @ DRIVE MODE: Exiting

     General routines

     Parallel routines

   This run was terminated on:  21:40:31  15Sep2021

   JOB DONE.