     Program PWSCF v.6.7GPU starts on 23Sep2021 at  3:54:11

     R & G space division:  proc/nbgrp/npool/nimage =      10
     Reading input from /storage/home/hcoda1/3/ntian30/research/carbon/CxH_vib/H2O_calc/ads_slab/CH2NHHHO_a/out_0033/pw.inp
Warning: card &CELL ignored
Warning: card   CELL_DYNAMICS='IPI', ignored
Warning: card / ignored

     Current dimensions of program PWSCF are:
     Max number of different atomic species (ntypx) = 10
     Max number of k-points (npk) =  40000
     Max angular momentum in pseudopotentials (lmaxx) =  3
     Presently no symmetry can be used with electric field

     Message from routine cell_base_init:
     DEPRECATED: use true lattice parameter, not A to a.u. conversion factor

     IMPORTANT: XC functional enforced from input :
     Exchange-correlation= BEEF-VDW
                           (   1   4  43  14   2   0   0)
     Any further DFT definition will be discarded
     Please, verify this is what you really want

  @ DRIVER MODE: Connecting to
 qe_1139763_2937325.sched-torque.pace.gatech.edu909c6sa1_scratch
  using UNIX socket
  @ DRIVER MODE: Message from server: STATUS
  @ DRIVER MODE: Message from server: INIT
  @ DRIVER MODE: Receiving replica           0          -1
  @ DRIVER MODE: Receiving encoded integer          25
  @ DRIVER MODE:  SCF:  T  FORCE:  T  STRESS:  F  VC:  F  ENSEMBLE:  F
  @ DRIVER MODE:  SCF:  T  FORCE:  T  STRESS:  F  VC:  F  ENSEMBLE:  F

     Using Slab Decomposition

     bravais-lattice index     =            0
     lattice parameter (alat)  =       1.8897  a.u.
     unit-cell volume          =    6658.9804 (a.u.)^3
     number of atoms/cell      =           55
     number of atomic types    =            5
     number of electrons       =       398.00
     number of Kohn-Sham states=          209
     kinetic-energy cutoff     =      29.3995  Ry
     charge density cutoff     =     293.9946  Ry
     scf convergence threshold =      7.3E-08
     mixing beta               =       0.0500
     number of iterations used =            8  plain     mixing
     Exchange-correlation= BEEF-VDW
                           (   1   4  43  14   2   0   0)

     celldm(1)=   1.889726  celldm(2)=   0.000000  celldm(3)=   0.000000
     celldm(4)=   0.000000  celldm(5)=   0.000000  celldm(6)=   0.000000

     crystal axes: (cart. coord. in units of alat)
               a(1) = (   6.579727   0.000000   0.000000 )
               a(2) = (  -0.000775   5.961596   0.000000 )
               a(3) = (   0.000000   0.000000  25.155947 )

     reciprocal axes: (cart. coord. in units 2 pi/alat)
               b(1) = (  0.151982  0.000020  0.000000 )
               b(2) = (  0.000000  0.167740  0.000000 )
               b(3) = (  0.000000  0.000000  0.039752 )

     PseudoPot. # 1 for Ti read from file:
     /storage/coda1/p-amedford6/0/shared/rich_project_chbe-medford/medford-share/data/pseudos_module/espresso/nninc/pbe/van/Ti.UPF
     MD5 check sum: 8e4df49b7f0d34bbd5052bf3f5ea0213
     Pseudo is Ultrasoft, Zval = 12.0
     Generated by new atomic code, or converted to UPF format
     Using radial grid of  851 points,  6 beta functions with:
                l(1) =   0
                l(2) =   0
                l(3) =   1
                l(4) =   1
                l(5) =   2
                l(6) =   2
     Q(r) pseudized with  8 coefficients,  rinner =    1.000   1.000   1.000
                                                       1.000   1.000

     PseudoPot. # 2 for O  read from file:
     /storage/coda1/p-amedford6/0/shared/rich_project_chbe-medford/medford-share/data/pseudos_module/espresso/nninc/pbe/van/O.UPF
     MD5 check sum: 78c19812648e8988a0fe644b0f25305e
     Pseudo is Ultrasoft, Zval =  6.0
     Generated by new atomic code, or converted to UPF format
     Using radial grid of  737 points,  4 beta functions with:
                l(1) =   0
                l(2) =   0
                l(3) =   1
                l(4) =   1
     Q(r) pseudized with  8 coefficients,  rinner =    0.800   0.800   0.800

     PseudoPot. # 3 for N  read from file:
     /storage/coda1/p-amedford6/0/shared/rich_project_chbe-medford/medford-share/data/pseudos_module/espresso/nninc/pbe/van/N.UPF
     MD5 check sum: 90d10febe142ad51ac9d5be1deb811c4
     Pseudo is Ultrasoft, Zval =  5.0
     Generated by new atomic code, or converted to UPF format
     Using radial grid of  729 points,  4 beta functions with:
                l(1) =   0
                l(2) =   0
                l(3) =   1
                l(4) =   1
     Q(r) pseudized with  8 coefficients,  rinner =    0.800   0.800   0.800

     PseudoPot. # 4 for C  read from file:
     /storage/coda1/p-amedford6/0/shared/rich_project_chbe-medford/medford-share/data/pseudos_module/espresso/nninc/pbe/van/C.UPF
     MD5 check sum: 1a69bf6b8db32088f5b2163dbdb77a27
     Pseudo is Ultrasoft, Zval =  4.0
     Generated by new atomic code, or converted to UPF format
     Using radial grid of  721 points,  4 beta functions with:
                l(1) =   0
                l(2) =   0
                l(3) =   1
                l(4) =   1
     Q(r) pseudized with  8 coefficients,  rinner =    0.800   0.800   0.800

     PseudoPot. # 5 for H  read from file:
     /storage/coda1/p-amedford6/0/shared/rich_project_chbe-medford/medford-share/data/pseudos_module/espresso/nninc/pbe/van/H.UPF
     MD5 check sum: b5ee9d7bfd3a09ee7748110bda690ff7
     Pseudo is Ultrasoft, Zval =  1.0
     Generated by new atomic code, or converted to UPF format
     Using radial grid of  615 points,  1 beta functions with:
                l(1) =   0
     Q(r) pseudized with  8 coefficients,  rinner =    0.800

     atomic species   valence    mass     pseudopotential
        Ti1           12.00    47.86700     Ti( 1.00)
        O1             6.00    15.99900     O ( 1.00)
        N1             5.00    14.00700     N ( 1.00)
        C1             4.00    12.01100     C ( 1.00)
        H1             1.00     1.00800     H ( 1.00)

     No symmetry found

   Cartesian axes

     site n.     atom                  positions (alat units)
         1           Ti1 tau(   1) = (   0.0004258   2.9801865   6.0000000  )
         2           Ti1 tau(   2) = (   3.2906075   1.4906267   6.0002472  )
         3           O1  tau(   3) = (   0.0006271   0.0005054   7.9858123  )
         4           O1  tau(   4) = (   3.2906025   0.0005020   7.3038282  )
         5           O1  tau(   5) = (   4.5942328   1.4918067   9.2879030  )
         6           O1  tau(   6) = (   1.9868534   1.4903216   9.2879459  )
         7           Ti1 tau(   7) = (   3.2907910   2.8959150   9.1758416  )
         8           Ti1 tau(   8) = (   0.0015273   1.4827037   9.2680791  )
         9           O1  tau(   9) = (   3.3134935   5.9450930  11.3716456  )
        10           O1  tau(  10) = (   0.0116148   5.9584955  10.6183126  )
        11           O1  tau(  11) = (   1.3009377   1.4930576  12.6823270  )
        12           O1  tau(  12) = (   5.3410967   1.4903504  12.6863499  )
        13           Ti1 tau(  13) = (   0.0342001   2.9430440  12.5112676  )
        14           Ti1 tau(  14) = (   3.3297267   1.2953541  12.7310232  )
        15           O1  tau(  15) = (   0.0493764   5.9086628  14.6689690  )
        16           O1  tau(  16) = (   3.3288597   0.0714287  14.0177558  )
        17           O1  tau(  17) = (   4.6153468   1.5975901  16.1787110  )
        18           O1  tau(  18) = (   2.0592605   1.5839887  16.0909148  )
        19           Ti1 tau(  19) = (   3.3163104   3.0362344  15.7082748  )
        20           Ti1 tau(  20) = (   0.1120434   1.3330501  15.8434463  )
        21           O1  tau(  21) = (   3.2904802   0.0005063   4.7018136  )
        22           O1  tau(  22) = (   0.0690725   0.1374024  17.2087871  )
        23           O1  tau(  23) = (   1.3043587   1.4918075   6.0039043  )
        24           O1  tau(  24) = (   5.2767064   1.4903225   6.0039473  )
        25           Ti1 tau(  25) = (   0.0000382   5.9609847   6.0000000  )
        26           Ti1 tau(  26) = (   3.2902200   4.4714249   6.0002472  )
        27           O1  tau(  27) = (   0.0002396   2.9813036   7.9858123  )
        28           O1  tau(  28) = (   3.2902150   2.9813002   7.3038282  )
        29           O1  tau(  29) = (   4.5938453   4.4726049   9.2879030  )
        30           O1  tau(  30) = (   1.9864658   4.4711199   9.2879459  )
        31           Ti1 tau(  31) = (   3.2891106   5.8743827   9.1763621  )
        32           Ti1 tau(  32) = (   0.0006254   4.4649316   9.2693709  )
        33           O1  tau(  33) = (   3.3165203   3.0043058  11.3207354  )
        34           O1  tau(  34) = (   0.0092240   2.9805883  10.6323155  )
        35           O1  tau(  35) = (   1.3050136   4.4578615  12.6552238  )
        36           O1  tau(  36) = (   5.3353050   4.4620295  12.6594116  )
        37           Ti1 tau(  37) = (   0.0330755   5.9154870  12.5003292  )
        38           Ti1 tau(  38) = (   3.3291962   4.3779952  12.4454333  )
        39           O1  tau(  39) = (   0.0233967   3.0352723  14.9286183  )
        40           O1  tau(  40) = (   3.3272303   3.0068708  13.9347379  )
        41           O1  tau(  41) = (   4.5962338   4.4808180  16.1645836  )
        42           O1  tau(  42) = (   2.0526765   4.4464907  16.1857218  )
        43           Ti1 tau(  43) = (   3.4309460   0.0633718  16.3216252  )
        44           Ti1 tau(  44) = (   0.1034465   4.5521166  15.9739525  )
        45           O1  tau(  45) = (   3.2900926   2.9813045   4.7018136  )
        46           O1  tau(  46) = (   1.3039711   4.4726057   6.0039043  )
        47           O1  tau(  47) = (   5.2763189   4.4711207   6.0039473  )
        48           N1  tau(  48) = (   6.1597698   3.4535781  18.2989460  )
        49           C1  tau(  49) = (   0.6557129   3.1470513  19.0816575  )
        50           H1  tau(  50) = (   1.2037892   3.9510289  19.5415217  )
        51           H1  tau(  51) = (   1.0557295   2.1499681  19.0337936  )
        52           H1  tau(  52) = (   5.6880836   4.3337965  18.4846543  )
        53           H1  tau(  53) = (   5.5056413   2.6903945  18.1017309  )
        54           O1  tau(  54) = (   3.2744276   0.0793712  18.1757868  )
        55           H1  tau(  55) = (   2.3604784   5.9194474  18.4805682  )

     number of k points=    10  Fermi-Dirac smearing, width (Ry)=  0.0073
                       cart. coord. in units 2pi/alat
        k(    1) = (   0.0000000   0.0000000   0.0000000), wk =   0.1250000
        k(    2) = (   0.0000000   0.0419351   0.0000000), wk =   0.2500000
        k(    3) = (   0.0000000  -0.0838702   0.0000000), wk =   0.1250000
        k(    4) = (   0.0379955   0.0000049   0.0000000), wk =   0.2500000
        k(    5) = (   0.0379955   0.0419400   0.0000000), wk =   0.2500000
        k(    6) = (   0.0379955  -0.0838652   0.0000000), wk =   0.2500000
        k(    7) = (   0.0379955  -0.0419301   0.0000000), wk =   0.2500000
        k(    8) = (  -0.0759910  -0.0000099   0.0000000), wk =   0.1250000
        k(    9) = (  -0.0759910   0.0419252   0.0000000), wk =   0.2500000
        k(   10) = (  -0.0759910  -0.0838800   0.0000000), wk =   0.1250000

     Initial potential from superposition of free atoms

     starting charge  381.99915, renormalised to  398.00000

     negative rho (up, down):  1.645E-02 0.000E+00

     %%%%%%%%%%%%%%%%%%%%%%%%%%%%%%%%%%%%%%%%%%%%%%%%%%%%%%%%%%%%%%%%%%%%%%%%
     %                                                                      %
     % You are using vdW-DF, which was implemented by the Thonhauser group. %
     % Please cite the following two papers that made this development      %
     % possible and the two reviews that describe the various versions:     %
     %                                                                      %
     %   T. Thonhauser et al., PRL 115, 136402 (2015).                      %
     %   T. Thonhauser et al., PRB 76, 125112 (2007).                       %
     %   K. Berland et al., Rep. Prog. Phys. 78, 066501 (2015).             %
     %   D.C. Langreth et al., J. Phys.: Condens. Matter 21, 084203 (2009). %
     %                                                                      %
     %                                                                      %
     % If you are calculating the stress with vdW-DF, please also cite:     %
     %                                                                      %
     %   R. Sabatini et al., J. Phys.: Condens. Matter 24, 424209 (2012).   %
     %                                                                      %
     %%%%%%%%%%%%%%%%%%%%%%%%%%%%%%%%%%%%%%%%%%%%%%%%%%%%%%%%%%%%%%%%%%%%%%%%

     Adding external electric field

     Computed dipole along edir(3) :
        Dipole              -10.2322 Ry au,        -26.0075 Debye
        Dipole field         -0.0193 Ry au,

        Potential amp.        1.7900 Ry
        Total length         46.3494 bohr

     Starting wfcs are  301 atomic wfcs
  @ DRIVER MODE: Message from server: STATUS
  @ DRIVER MODE: Message from server: POSDATA
  @ DRIVER MODE: Reading and sharing cell
  @ DRIVER MODE: Reading and sharing positions
  @ DRIVER MODE: Received positions

     Self-consistent Calculation

     iteration #  1     ecut=    29.40 Ry     beta= 0.05
     Davidson diagonalization with overlap
     c_bands:  1 eigenvalues not converged
     c_bands:  3 eigenvalues not converged
     c_bands:  2 eigenvalues not converged
     c_bands:  1 eigenvalues not converged
     c_bands:  4 eigenvalues not converged
     c_bands:  4 eigenvalues not converged
     c_bands:  4 eigenvalues not converged
     c_bands:  2 eigenvalues not converged
     c_bands:  3 eigenvalues not converged
     c_bands:  4 eigenvalues not converged
     ethr =  1.00E-05,  avg # of iterations = 20.0

[...]

     total energy              =   -2477.35305958 Ry
     estimated scf accuracy    <    5313.85274019 Ry

     iteration #  2     ecut=    29.40 Ry     beta= 0.05
     Davidson diagonalization with overlap
     ethr =  1.00E-02,  avg # of iterations = 24.0

[...]

     iteration # 55     ecut=    29.40 Ry     beta= 0.05
     Davidson diagonalization with overlap
     c_bands:  2 eigenvalues not converged
     ethr =  8.87E-07,  avg # of iterations = 13.6

[...]

     total energy              =   -2953.88661462 Ry
     estimated scf accuracy    <       0.00000018 Ry

     iteration # 76     ecut=    29.40 Ry     beta= 0.05
     Davidson diagonalization with overlap
     ethr =  4.62E-11,  avg # of iterations = 11.8

     negative rho (up, down):  1.574E-02 0.000E+00

     Adding external electric field

     Computed dipole along edir(3) :
        Dipole                0.8561 Ry au,          2.1760 Debye
        Dipole field          0.0016 Ry au,

        Potential amp.       -0.1498 Ry
        Total length         46.3494 bohr

     End of self-consistent calculation

          k = 0.0000 0.0000 0.0000 ( 18029 PWs)   bands (ev):

   -55.7654 -55.7121 -55.6780 -55.5811 -55.5422 -55.5411 -55.5271 -55.5073
   -55.4985 -55.4489 -55.4475 -55.3361 -55.3081 -55.2633 -54.6904 -54.6564
   -32.1979 -32.0840 -32.0661 -32.0605 -32.0447 -32.0317 -32.0026 -31.9814
   -31.9808 -31.9579 -31.9435 -31.8649 -31.8500 -31.8496 -31.8274 -31.8208
   -31.8198 -31.7903 -31.7698 -31.7443 -31.7426 -31.7351 -31.7256 -31.7220
   -31.7206 -31.7138 -31.6851 -31.6765 -31.6681 -31.6667 -31.6606 -31.6546
   -31.6436 -31.6362 -31.6138 -31.6035 -31.5305 -31.5285 -31.5089 -31.4758
   -31.4680 -31.4606 -31.0966 -31.0098 -30.9874 -30.9141 -30.8277 -30.7159
   -16.8635 -16.6115 -16.3771 -16.2117 -15.9890 -15.9372 -15.8761 -15.7036
   -15.5886 -15.5331 -15.3497 -15.2815 -15.2520 -15.2396 -15.2359 -15.2177
   -15.2047 -15.1614 -15.1439 -15.1417 -15.1360 -15.1018 -15.0743 -15.0331
   -14.9870 -14.9505 -14.8538 -14.7989 -14.7592 -14.5150 -14.4832 -13.1886
   -13.0721  -9.7786  -7.0540  -5.3246  -4.1419  -3.7402  -3.6267  -3.6157
    -3.5554  -3.4997  -3.3335  -3.2218  -3.1408  -3.1243  -2.9721  -2.8585
    -2.8130  -2.7472  -2.7122  -2.6728  -2.6357  -2.6247  -2.5925  -2.5007
    -2.4792  -2.4648  -2.4031  -2.3780  -2.3111  -2.2883  -2.2556  -2.2430
    -2.1362  -2.0847  -2.0502  -2.0417  -2.0254  -1.9977  -1.9706  -1.9635
    -1.9361  -1.8524  -1.7986  -1.7434  -1.7167  -1.7010  -1.3979  -1.3252
    -1.2904  -1.2543  -1.1635  -1.1458  -1.1105  -1.0923  -1.0771  -1.0702
    -0.9553  -0.8869  -0.8276  -0.7978  -0.7543  -0.7225  -0.6090  -0.5573
    -0.5064  -0.4661  -0.4529  -0.4282  -0.3420  -0.3148  -0.2989  -0.1977
    -0.1546  -0.0900  -0.0200  -0.0060   0.0427   0.0726   0.1106   0.1480
     0.2063   0.2389   0.2566   0.3004   0.3393   0.3502   0.4083   0.4247
     0.5204   0.6045   0.6235   0.6928   0.7826   0.8284   0.9487   1.0110
     1.2825   1.3366   1.3492   1.5280   1.9040   1.9495   3.3652   3.4025
     3.5185   3.5317   3.6067   3.6183   3.7029   3.8586   3.9068   4.0178
     4.0553

[...]

          k = 0.0380-0.0419 0.0000 ( 17876 PWs)   bands (ev):

[...]

          k =-0.0760-0.0000 0.0000 ( 17886 PWs)   bands (ev):

[...]

          k =-0.0760-0.0839 0.0000 ( 17948 PWs)   bands (ev):

   -55.7646 -55.6952 -55.6948 -55.5705 -55.5525 -55.5277 -55.5247 -55.5235
   -55.4923 -55.4539 -55.4464 -55.3323 -55.3105 -55.2671 -54.6738 -54.6729
   -32.0293 -32.0133 -32.0131 -32.0130 -31.9883 -31.9878 -31.9848 -31.9732
   -31.9141 -31.8882 -31.8705 -31.8574 -31.8527 -31.8324 -31.8183 -31.8153
   -31.8147 -31.8118 -31.8078 -31.8028 -31.7778 -31.7514 -31.7427 -31.7358
   -31.7285 -31.7260 -31.7118 -31.7094 -31.7080 -31.6998 -31.6990 -31.6801
   -31.6769 -31.6724 -31.6429 -31.6118 -31.5931 -31.5572 -31.5344 -31.5307
   -31.5166 -31.4716 -31.0004 -30.9998 -30.9100 -30.9088 -30.8713 -30.8706
   -16.8446 -16.6012 -16.0507 -15.8009 -15.7083 -15.6979 -15.5658 -15.4990
   -15.4875 -15.4459 -15.4275 -15.4048 -15.3987 -15.3739 -15.3338 -15.2792
   -15.2497 -15.2229 -15.2167 -15.1770 -15.1697 -15.1511 -15.1486 -15.1270
   -15.0772 -15.0362 -15.0226 -15.0080 -14.8227 -14.7717 -14.6385 -13.1741
   -13.1737  -9.7792  -7.0458  -5.3091  -4.1267  -3.3605  -3.1746  -3.0111
    -2.9397  -2.8830  -2.7909  -2.7483  -2.7333  -2.6885  -2.6654  -2.6426
    -2.5625  -2.5482  -2.5189  -2.5073  -2.4781  -2.4634  -2.4567  -2.4471
    -2.4029  -2.3942  -2.3847  -2.3524  -2.3445  -2.3343  -2.2949  -2.2737
    -2.2637  -2.2532  -2.2049  -2.1810  -2.1025  -2.0635  -1.9659  -1.8827
    -1.8720  -1.8487  -1.8012  -1.7894  -1.7471  -1.7313  -1.6880  -1.6138
    -1.5297  -1.4618  -1.3498  -1.3070  -1.2958  -1.2368  -1.2188  -1.1626
    -1.1295  -1.0994  -1.0694  -0.9689  -0.9358  -0.8793  -0.7627  -0.6986
    -0.6861  -0.6632  -0.6528  -0.6171  -0.5968  -0.5816  -0.5506  -0.4688
    -0.4309  -0.4161  -0.4064  -0.3701  -0.2446  -0.1229  -0.0788  -0.0188
     0.0477   0.0636   0.1171   0.1569   0.3121   0.3457   0.4435   0.4584
     0.4791   0.5928   0.6000   0.6800   0.7211   0.7672   0.7958   0.8280
     0.8329   0.8727   1.6978   1.7063   1.7698   1.7700   3.3749   3.7455
     3.8484   3.8653   3.8829   3.9237   3.9376   3.9668   3.9724   4.0365
     4.0551

     the Fermi energy is     3.4073 ev

!    total energy              =   -2953.88663746 Ry
     estimated scf accuracy    <       0.00000007 Ry
     smearing contrib. (-TS)   =      -0.02910133 Ry
     internal energy E=F+TS    =   -2953.85753613 Ry

     The total energy is F=E-TS. E is the sum of the following terms:
     one-electron contribution =  -23669.74116816 Ry
     hartree contribution      =   11925.84073380 Ry
     xc contribution           =    -488.84671050 Ry
     ewald contribution        =    9278.88822562 Ry
     electric field correction =       0.00138311 Ry

     convergence has been achieved in  76 iterations

     Forces acting on atoms (cartesian axes, Ry/au):

     atom    1 type  1   force =    -0.00002015   -0.00028538    0.09376649
     atom    2 type  1   force =    -0.00009324    0.00048827   -0.17557355
     atom    3 type  2   force =     0.00010914   -0.00024446   -0.02087525
     atom    4 type  2   force =     0.00001327   -0.00197675    0.05498293
     atom    5 type  2   force =    -0.00644000   -0.00244224    0.00278179
     atom    6 type  2   force =     0.00859985   -0.00177468    0.00362081
     atom    7 type  1   force =     0.00058765   -0.00335635    0.00969881
     atom    8 type  1   force =    -0.00066706    0.00048055    0.00110530
     atom    9 type  2   force =    -0.00001315    0.00059282   -0.00096307
     atom   10 type  2   force =    -0.00025013    0.00115478   -0.00780801
     atom   11 type  2   force =    -0.00011595   -0.00001647    0.00017851
     atom   12 type  2   force =    -0.00042309   -0.00017920    0.00004203
     atom   13 type  1   force =    -0.00028178    0.00002063   -0.00044153
     atom   14 type  1   force =    -0.00061764    0.00041923    0.00040241
     atom   15 type  2   force =    -0.00004356    0.00107509   -0.00000510
     atom   16 type  2   force =    -0.00007280    0.00008510   -0.00020461
     atom   17 type  2   force =    -0.00032815    0.00054548   -0.00026961
     atom   18 type  2   force =     0.00014543    0.00068617   -0.00022806
     atom   19 type  1   force =     0.00003385   -0.00005927    0.00059994
     atom   20 type  1   force =    -0.00005633   -0.00043248   -0.00009923
     atom   21 type  2   force =     0.00001724    0.00008562    0.10332848
     atom   22 type  2   force =    -0.00012679    0.00023530    0.00004020
     atom   23 type  2   force =    -0.07187215   -0.00017521   -0.02715064
     atom   24 type  2   force =     0.07173755    0.00029670   -0.02722939
     atom   25 type  1   force =     0.00008955   -0.00019998    0.09356358
     atom   26 type  1   force =    -0.00025452   -0.00138007   -0.17569607
     atom   27 type  2   force =     0.00015012   -0.00016148   -0.01963279
     atom   28 type  2   force =     0.00011216   -0.00028402    0.05022690
     atom   29 type  2   force =    -0.00550871    0.00259480    0.00167385
     atom   30 type  2   force =     0.00765701    0.00268848    0.00256829
     atom   31 type  1   force =     0.00070970    0.00798529   -0.00205184
     atom   32 type  1   force =    -0.00070943   -0.00206928    0.00019862
     atom   33 type  2   force =    -0.00016963   -0.00073178   -0.00010811
     atom   34 type  2   force =     0.00011404   -0.00173313   -0.00872473
     atom   35 type  2   force =    -0.00003637   -0.00011830   -0.00057559
     atom   36 type  2   force =    -0.00019941   -0.00019182   -0.00038187
     atom   37 type  1   force =     0.00044369    0.00066230   -0.00072047
     atom   38 type  1   force =    -0.00062456   -0.00052643    0.00020522
     atom   39 type  2   force =    -0.00002815    0.00009898    0.00023909
     atom   40 type  2   force =     0.00011645    0.00002458    0.00066302
     atom   41 type  2   force =    -0.00061071   -0.00016888    0.00000436
     atom   42 type  2   force =     0.00063160    0.00010573   -0.00071268
     atom   43 type  1   force =    -0.00028499    0.00032210   -0.00030009
     atom   44 type  1   force =    -0.00007699   -0.00128303    0.00016331
     atom   45 type  2   force =     0.00001735   -0.00005533    0.10310879
     atom   46 type  2   force =    -0.07188604   -0.00002107   -0.02716693
     atom   47 type  2   force =     0.07179144    0.00039837   -0.02725238
     atom   48 type  3   force =    -0.00523430   -0.00984143   -0.00233677
     atom   49 type  4   force =     0.00108908    0.00076335    0.00071707
     atom   50 type  5   force =    -0.00035254    0.00017663    0.00024586
     atom   51 type  5   force =    -0.00001495   -0.00057459    0.00065758
     atom   52 type  5   force =    -0.00083516    0.00008234   -0.00069254
     atom   53 type  5   force =     0.00554521    0.00858608    0.00199521
     atom   54 type  2   force =    -0.00129849   -0.00059028   -0.00047330
     atom   55 type  5   force =    -0.00016448    0.00021859    0.00089578

     Total force =     0.362428     Total SCF correction =     0.000557
  @ DRIVER MODE: Message from server: STATUS
  @ DRIVER MODE: Message from server: GETFORCE
  @ DRIVER MODE: Returning v,forces,stress,ensemble

     Writing output data file ./calc.save/
  @ DRIVER MODE: Message from server: EXIT
  @ DRIVE MODE: Exiting

     General routines

     Parallel routines

   This run was terminated on:   4:13:50  23Sep2021

   JOB DONE.