     Program PWSCF v.6.7GPU starts on 16Sep2021 at  9:49:52

     R & G space division:  proc/nbgrp/npool/nimage =      10
     Reading input from /storage/home/hcoda1/3/ntian30/research/carbon/CxH_vib/H2O_calc/ads_slab/CH2NNHHH2O_a/out_0054/pw.inp
Warning: card &CELL ignored
Warning: card   CELL_DYNAMICS='IPI', ignored
Warning: card / ignored

     Current dimensions of program PWSCF are:
     Max number of different atomic species (ntypx) = 10
     Max number of k-points (npk) =  40000
     Max angular momentum in pseudopotentials (lmaxx) =  3
     Presently no symmetry can be used with electric field

     Message from routine cell_base_init:
     DEPRECATED: use true lattice parameter, not A to a.u. conversion factor

     IMPORTANT: XC functional enforced from input :
     Exchange-correlation= BEEF-VDW
                           (   1   4  43  14   2   0   0)
     Any further DFT definition will be discarded
     Please, verify this is what you really want

  @ DRIVER MODE: Connecting to
 qe_1139763_2852611.sched-torque.pace.gatech.edugfmpbc4h_scratch
  using UNIX socket
  @ DRIVER MODE: Message from server: STATUS
  @ DRIVER MODE: Message from server: INIT
  @ DRIVER MODE: Receiving replica           0          -1
  @ DRIVER MODE: Receiving encoded integer          25
  @ DRIVER MODE:  SCF:  T  FORCE:  T  STRESS:  F  VC:  F  ENSEMBLE:  F
  @ DRIVER MODE:  SCF:  T  FORCE:  T  STRESS:  F  VC:  F  ENSEMBLE:  F

     Using Slab Decomposition

     bravais-lattice index     =            0
     lattice parameter (alat)  =       1.8897  a.u.
     unit-cell volume          =    6658.9804 (a.u.)^3
     number of atoms/cell      =           57
     number of atomic types    =            5
     number of electrons       =       404.00
     number of Kohn-Sham states=          212
     kinetic-energy cutoff     =      29.3995  Ry
     charge density cutoff     =     293.9946  Ry
     scf convergence threshold =      7.3E-08
     mixing beta               =       0.0500
     number of iterations used =            8  plain     mixing
     Exchange-correlation= BEEF-VDW
                           (   1   4  43  14   2   0   0)

     celldm(1)=   1.889726  celldm(2)=   0.000000  celldm(3)=   0.000000
     celldm(4)=   0.000000  celldm(5)=   0.000000  celldm(6)=   0.000000

     crystal axes: (cart. coord. in units of alat)
               a(1) = (   6.579727   0.000000   0.000000 )
               a(2) = (  -0.000775   5.961596   0.000000 )
               a(3) = (   0.000000   0.000000  25.155947 )

     reciprocal axes: (cart. coord. in units 2 pi/alat)
               b(1) = (  0.151982  0.000020  0.000000 )
               b(2) = (  0.000000  0.167740  0.000000 )
               b(3) = (  0.000000  0.000000  0.039752 )

     PseudoPot. # 1 for Ti read from file:
     /storage/coda1/p-amedford6/0/shared/rich_project_chbe-medford/medford-share/data/pseudos_module/espresso/nninc/pbe/van/Ti.UPF
     MD5 check sum: 8e4df49b7f0d34bbd5052bf3f5ea0213
     Pseudo is Ultrasoft, Zval = 12.0
     Generated by new atomic code, or converted to UPF format
     Using radial grid of  851 points,  6 beta functions with:
                l(1) =   0
                l(2) =   0
                l(3) =   1
                l(4) =   1
                l(5) =   2
                l(6) =   2
     Q(r) pseudized with  8 coefficients,  rinner =    1.000   1.000   1.000
                                                       1.000   1.000

     PseudoPot. # 2 for O  read from file:
     /storage/coda1/p-amedford6/0/shared/rich_project_chbe-medford/medford-share/data/pseudos_module/espresso/nninc/pbe/van/O.UPF
     MD5 check sum: 78c19812648e8988a0fe644b0f25305e
     Pseudo is Ultrasoft, Zval =  6.0
     Generated by new atomic code, or converted to UPF format
     Using radial grid of  737 points,  4 beta functions with:
                l(1) =   0
                l(2) =   0
                l(3) =   1
                l(4) =   1
     Q(r) pseudized with  8 coefficients,  rinner =    0.800   0.800   0.800

     PseudoPot. # 3 for N  read from file:
     /storage/coda1/p-amedford6/0/shared/rich_project_chbe-medford/medford-share/data/pseudos_module/espresso/nninc/pbe/van/N.UPF
     MD5 check sum: 90d10febe142ad51ac9d5be1deb811c4
     Pseudo is Ultrasoft, Zval =  5.0
     Generated by new atomic code, or converted to UPF format
     Using radial grid of  729 points,  4 beta functions with:
                l(1) =   0
                l(2) =   0
                l(3) =   1
                l(4) =   1
     Q(r) pseudized with  8 coefficients,  rinner =    0.800   0.800   0.800

     PseudoPot. # 4 for C  read from file:
     /storage/coda1/p-amedford6/0/shared/rich_project_chbe-medford/medford-share/data/pseudos_module/espresso/nninc/pbe/van/C.UPF
     MD5 check sum: 1a69bf6b8db32088f5b2163dbdb77a27
     Pseudo is Ultrasoft, Zval =  4.0
     Generated by new atomic code, or converted to UPF format
     Using radial grid of  721 points,  4 beta functions with:
                l(1) =   0
                l(2) =   0
                l(3) =   1
                l(4) =   1
     Q(r) pseudized with  8 coefficients,  rinner =    0.800   0.800   0.800

     PseudoPot. # 5 for H  read from file:
     /storage/coda1/p-amedford6/0/shared/rich_project_chbe-medford/medford-share/data/pseudos_module/espresso/nninc/pbe/van/H.UPF
     MD5 check sum: b5ee9d7bfd3a09ee7748110bda690ff7
     Pseudo is Ultrasoft, Zval =  1.0
     Generated by new atomic code, or converted to UPF format
     Using radial grid of  615 points,  1 beta functions with:
                l(1) =   0
     Q(r) pseudized with  8 coefficients,  rinner =    0.800

     atomic species   valence    mass     pseudopotential
        Ti1           12.00    47.86700     Ti( 1.00)
        O1             6.00    15.99900     O ( 1.00)
        N1             5.00    14.00700     N ( 1.00)
        C1             4.00    12.01100     C ( 1.00)
        H1             1.00     1.00800     H ( 1.00)

     No symmetry found

   Cartesian axes

     site n.     atom                  positions (alat units)
         1           Ti1 tau(   1) = (   0.0004258   2.9801865   6.0000000  )
         2           Ti1 tau(   2) = (   3.2906075   1.4906267   6.0002472  )
         3           O1  tau(   3) = (   0.0006271   0.0005054   7.9858123  )
         4           O1  tau(   4) = (   3.2906025   0.0005020   7.3038282  )
         5           O1  tau(   5) = (   4.5942328   1.4918067   9.2879030  )
         6           O1  tau(   6) = (   1.9868534   1.4903216   9.2879459  )
         7           Ti1 tau(   7) = (   3.2907910   2.8959150   9.1758416  )
         8           Ti1 tau(   8) = (   0.0015273   1.4827037   9.2680791  )
         9           O1  tau(   9) = (   3.3121314   5.9338840  11.3691909  )
        10           O1  tau(  10) = (   0.0116148   5.9584955  10.6183126  )
        11           O1  tau(  11) = (   1.3134021   1.4784130  12.6451072  )
        12           O1  tau(  12) = (   5.3172625   1.4801399  12.6491864  )
        13           Ti1 tau(  13) = (   0.0380378   2.9573341  12.5222382  )
        14           Ti1 tau(  14) = (   3.3404755   1.4532591  12.5245293  )
        15           O1  tau(  15) = (   0.0239237   0.0366503  14.6894071  )
        16           O1  tau(  16) = (   3.3255740   5.9570089  14.0129324  )
        17           O1  tau(  17) = (   4.5846449   1.4795273  16.1858442  )
        18           O1  tau(  18) = (   2.0539891   1.4908220  16.1938258  )
        19           Ti1 tau(  19) = (   3.3028508   2.9322526  15.7076921  )
        20           Ti1 tau(  20) = (   0.0088316   1.3655950  16.0522487  )
        21           O1  tau(  21) = (   3.2904802   0.0005063   4.7018136  )
        22           O1  tau(  22) = (   0.0586005   5.8320325  17.2288864  )
        23           O1  tau(  23) = (   1.3043587   1.4918075   6.0039043  )
        24           O1  tau(  24) = (   5.2767064   1.4903225   6.0039473  )
        25           Ti1 tau(  25) = (   0.0000382   5.9609847   6.0000000  )
        26           Ti1 tau(  26) = (   3.2902200   4.4714249   6.0002472  )
        27           O1  tau(  27) = (   0.0002396   2.9813036   7.9858123  )
        28           O1  tau(  28) = (   3.2902150   2.9813002   7.3038282  )
        29           O1  tau(  29) = (   4.5938453   4.4726049   9.2879030  )
        30           O1  tau(  30) = (   1.9864658   4.4711199   9.2879459  )
        31           Ti1 tau(  31) = (   3.2891106   5.8743827   9.1763621  )
        32           Ti1 tau(  32) = (   0.0006254   4.4649316   9.2693709  )
        33           O1  tau(  33) = (   3.3142679   2.9660735  11.3641874  )
        34           O1  tau(  34) = (   0.0092240   2.9805883  10.6323155  )
        35           O1  tau(  35) = (   1.3108675   4.4558178  12.6782323  )
        36           O1  tau(  36) = (   5.3175068   4.4537340  12.6790822  )
        37           Ti1 tau(  37) = (   0.0418451   5.9490355  12.4996082  )
        38           Ti1 tau(  38) = (   3.3402151   4.4429940  12.5219265  )
        39           O1  tau(  39) = (   0.0332256   2.9148708  14.9327709  )
        40           O1  tau(  40) = (   3.3156017   2.9437717  13.9283311  )
        41           O1  tau(  41) = (   4.5915719   4.3868214  16.1197993  )
        42           O1  tau(  42) = (   2.0539401   4.4017640  16.0846163  )
        43           Ti1 tau(  43) = (   3.3369130   5.9116756  15.8392261  )
        44           Ti1 tau(  44) = (   0.0533093   4.5818758  15.8415549  )
        45           O1  tau(  45) = (   3.2900926   2.9813045   4.7018136  )
        46           O1  tau(  46) = (   1.3039711   4.4726057   6.0039043  )
        47           O1  tau(  47) = (   5.2763189   4.4711207   6.0039473  )
        48           N1  tau(  48) = (   6.5287229   2.7802708  18.1865785  )
        49           C1  tau(  49) = (   0.9724842   2.7744648  18.9576868  )
        50           H1  tau(  50) = (   0.9153086   3.0669255  20.0057840  )
        51           H1  tau(  51) = (   1.9225290   2.4867234  18.5393133  )
        52           N1  tau(  52) = (   5.2958906   3.1014149  18.7352402  )
        53           H1  tau(  53) = (   5.3913054   3.6367428  19.5974321  )
        54           H1  tau(  54) = (   4.7863746   3.6605970  18.0522289  )
        55           O1  tau(  55) = (   3.2511457   5.8152340  18.3397965  )
        56           H1  tau(  56) = (   3.7467739   0.6636339  18.5618981  )
        57           H1  tau(  57) = (   2.3053106   0.0674530  18.4201010  )

     number of k points=    10  Fermi-Dirac smearing, width (Ry)=  0.0073
                       cart. coord. in units 2pi/alat
        k(    1) = (   0.0000000   0.0000000   0.0000000), wk =   0.1250000
        k(    2) = (   0.0000000   0.0419351   0.0000000), wk =   0.2500000
        k(    3) = (   0.0000000  -0.0838702   0.0000000), wk =   0.1250000
        k(    4) = (   0.0379955   0.0000049   0.0000000), wk =   0.2500000
        k(    5) = (   0.0379955   0.0419400   0.0000000), wk =   0.2500000
        k(    6) = (   0.0379955  -0.0838652   0.0000000), wk =   0.2500000
        k(    7) = (   0.0379955  -0.0419301   0.0000000), wk =   0.2500000
        k(    8) = (  -0.0759910  -0.0000099   0.0000000), wk =   0.1250000
        k(    9) = (  -0.0759910   0.0419252   0.0000000), wk =   0.2500000
        k(   10) = (  -0.0759910  -0.0838800   0.0000000), wk =   0.1250000

     Initial potential from superposition of free atoms

     starting charge  387.99913, renormalised to  404.00000

     negative rho (up, down):  1.527E-02 0.000E+00

     %%%%%%%%%%%%%%%%%%%%%%%%%%%%%%%%%%%%%%%%%%%%%%%%%%%%%%%%%%%%%%%%%%%%%%%%
     %                                                                      %
     % You are using vdW-DF, which was implemented by the Thonhauser group. %
     % Please cite the following two papers that made this development      %
     % possible and the two reviews that describe the various versions:     %
     %                                                                      %
     %   T. Thonhauser et al., PRL 115, 136402 (2015).                      %
     %   T. Thonhauser et al., PRB 76, 125112 (2007).                       %
     %   K. Berland et al., Rep. Prog. Phys. 78, 066501 (2015).             %
     %   D.C. Langreth et al., J. Phys.: Condens. Matter 21, 084203 (2009). %
     %                                                                      %
     %                                                                      %
     % If you are calculating the stress with vdW-DF, please also cite:     %
     %                                                                      %
     %   R. Sabatini et al., J. Phys.: Condens. Matter 24, 424209 (2012).   %
     %                                                                      %
     %%%%%%%%%%%%%%%%%%%%%%%%%%%%%%%%%%%%%%%%%%%%%%%%%%%%%%%%%%%%%%%%%%%%%%%%

     Adding external electric field

     Computed dipole along edir(3) :
        Dipole              -14.3252 Ry au,        -36.4110 Debye
        Dipole field         -0.0270 Ry au,

        Potential amp.        2.5060 Ry
        Total length         46.3494 bohr

     Starting wfcs are  306 atomic wfcs
  @ DRIVER MODE: Message from server: STATUS
  @ DRIVER MODE: Message from server: POSDATA
  @ DRIVER MODE: Reading and sharing cell
  @ DRIVER MODE: Reading and sharing positions
  @ DRIVER MODE: Received positions

     Self-consistent Calculation

     iteration #  1     ecut=    29.40 Ry     beta= 0.05
     Davidson diagonalization with overlap
     c_bands:  4 eigenvalues not converged
     c_bands:  3 eigenvalues not converged
     c_bands:  5 eigenvalues not converged
     c_bands:  1 eigenvalues not converged
     c_bands:  2 eigenvalues not converged
     c_bands:  1 eigenvalues not converged
     c_bands:  2 eigenvalues not converged
     c_bands:  3 eigenvalues not converged
     c_bands:  5 eigenvalues not converged
     ethr =  1.00E-05,  avg # of iterations = 24.6

[...]

     total energy              =   -2233.93963909 Ry
     estimated scf accuracy    <    8445.42561654 Ry

     iteration #  2     ecut=    29.40 Ry     beta= 0.05
     Davidson diagonalization with overlap
     ethr =  1.00E-02,  avg # of iterations = 25.8

[...]

     iteration # 84     ecut=    29.40 Ry     beta= 0.05
     Davidson diagonalization with overlap
     c_bands:  1 eigenvalues not converged
     ethr =  7.20E-10,  avg # of iterations = 15.1

[...]

     total energy              =   -2975.20599077 Ry
     estimated scf accuracy    <       0.00000009 Ry

     iteration # 92     ecut=    29.40 Ry     beta= 0.05
     Davidson diagonalization with overlap
     ethr =  2.12E-11,  avg # of iterations = 10.1

     negative rho (up, down):  1.519E-02 0.000E+00

     Adding external electric field

     Computed dipole along edir(3) :
        Dipole                1.4038 Ry au,          3.5681 Debye
        Dipole field          0.0026 Ry au,

        Potential amp.       -0.2456 Ry
        Total length         46.3494 bohr

     End of self-consistent calculation

          k = 0.0000 0.0000 0.0000 ( 18029 PWs)   bands (ev):

   -55.1872 -55.1513 -55.1475 -55.1133 -55.0998 -55.0680 -55.0336 -55.0299
   -55.0061 -54.9766 -54.9711 -54.9679 -54.9431 -54.8725 -54.1706 -54.1365
   -31.7526 -31.6390 -31.5975 -31.5566 -31.5059 -31.4955 -31.4886 -31.4812
   -31.4365 -31.4023 -31.3987 -31.3920 -31.3901 -31.3638 -31.3411 -31.3322
   -31.3312 -31.3249 -31.3054 -31.2994 -31.2799 -31.2755 -31.2605 -31.2470
   -31.2359 -31.2334 -31.2127 -31.2066 -31.2046 -31.1982 -31.1922 -31.1743
   -31.1698 -31.1593 -31.1544 -31.1415 -31.1203 -31.1164 -31.1047 -31.0880
   -31.0871 -31.0021 -30.5795 -30.4863 -30.4642 -30.3961 -30.3093 -30.1983
   -18.9055 -18.5441 -16.0130 -15.7477 -15.6117 -15.5017 -15.3860 -15.2563
   -15.2087 -15.0775 -15.0179 -14.9045 -14.8758 -14.8342 -14.8151 -14.8101
   -14.7519 -14.7245 -14.7177 -14.6925 -14.6821 -14.6608 -14.6214 -14.6151
   -14.5792 -14.5676 -14.5643 -14.4195 -14.3418 -14.2774 -13.9660 -13.6687
   -12.6729 -12.5555  -8.8005  -6.6899  -6.4628  -6.0616  -4.1446  -3.3563
    -3.2006  -3.1871  -3.1255  -3.0841  -3.0696  -3.0104  -2.9380  -2.7360
    -2.6000  -2.5729  -2.4539  -2.3878  -2.3836  -2.3301  -2.1874  -2.1828
    -2.1273  -2.0879  -2.0376  -2.0175  -1.9944  -1.9706  -1.9365  -1.9173
    -1.8906  -1.7557  -1.7355  -1.6614  -1.5995  -1.5892  -1.5309  -1.5070
    -1.4881  -1.4820  -1.4741  -1.4610  -1.4227  -1.4090  -1.3660  -1.3086
    -1.2061  -1.1184  -1.0256  -0.9466  -0.8837  -0.8218  -0.7601  -0.7512
    -0.6740  -0.6615  -0.5705  -0.5471  -0.5168  -0.4037  -0.3425  -0.3370
    -0.2737  -0.1720  -0.1434  -0.1264  -0.0561   0.0222   0.0412   0.0490
     0.0570   0.1806   0.2338   0.2664   0.2996   0.3702   0.3918   0.4412
     0.4879   0.4947   0.5737   0.6336   0.6876   0.7368   0.7544   0.7789
     0.7968   0.8063   0.8235   0.9045   0.9273   0.9604   1.0135   1.1693
     1.3287   1.4280   1.4442   1.7621   1.7753   1.8525   2.0369   2.4276
     2.4755   3.9088   3.9857   4.0448   4.0510   4.0601   4.1461   4.3905
     4.4062   4.4188   4.4311   4.4749

[...]

          k = 0.0380-0.0419 0.0000 ( 17876 PWs)   bands (ev):

[...]

          k =-0.0760-0.0000 0.0000 ( 17886 PWs)   bands (ev):

[...]

          k =-0.0760-0.0839 0.0000 ( 17948 PWs)   bands (ev):

   -55.1701 -55.1682 -55.1304 -55.1303 -55.0975 -55.0570 -55.0409 -55.0316
   -54.9917 -54.9850 -54.9700 -54.9602 -54.9597 -54.8744 -54.1535 -54.1535
   -31.5619 -31.5518 -31.5224 -31.4542 -31.4541 -31.4479 -31.4390 -31.4218
   -31.4218 -31.4008 -31.3901 -31.3874 -31.3749 -31.3490 -31.3247 -31.3192
   -31.3190 -31.3187 -31.3163 -31.3070 -31.3014 -31.2827 -31.2695 -31.2667
   -31.2531 -31.2500 -31.2499 -31.2490 -31.2392 -31.2352 -31.2251 -31.2235
   -31.2157 -31.2049 -31.1990 -31.1890 -31.1877 -31.1512 -31.1402 -31.1399
   -31.0962 -31.0885 -30.4769 -30.4769 -30.3921 -30.3919 -30.3527 -30.3527
   -18.9031 -18.5435 -15.5299 -15.4835 -15.3282 -15.1937 -15.1905 -15.1503
   -15.0945 -15.0227 -15.0020 -14.9587 -14.9481 -14.9295 -14.8924 -14.8855
   -14.8592 -14.7885 -14.7791 -14.7707 -14.7368 -14.6977 -14.6870 -14.6856
   -14.6688 -14.6389 -14.6358 -14.5384 -14.5362 -14.4437 -14.3057 -13.6839
   -12.6571 -12.6570  -8.7646  -6.6896  -6.4125  -6.0897  -4.1873  -3.2100
    -2.9370  -2.7477  -2.6422  -2.5398  -2.4132  -2.4075  -2.3222  -2.3137
    -2.2327  -2.1985  -2.1862  -2.1703  -2.0794  -2.0661  -2.0560  -2.0339
    -2.0174  -1.9996  -1.9676  -1.9612  -1.9380  -1.9112  -1.9009  -1.8992
    -1.8801  -1.8468  -1.8159  -1.7964  -1.7762  -1.7456  -1.7347  -1.6651
    -1.6261  -1.5386  -1.5035  -1.3887  -1.3868  -1.3651  -1.3082  -1.2898
    -1.2686  -1.2196  -1.2104  -1.1644  -1.0221  -0.9356  -0.9248  -0.8867
    -0.8377  -0.7889  -0.7421  -0.7264  -0.6603  -0.6397  -0.5466  -0.5313
    -0.4291  -0.3881  -0.3760  -0.3599  -0.2781  -0.2135  -0.1666  -0.1466
    -0.1422  -0.0911  -0.0773  -0.0639   0.0077   0.0550   0.0788   0.0933
     0.1348   0.3033   0.3635   0.3771   0.4962   0.5455   0.6489   0.7096
     0.7852   0.8056   0.8416   0.9321   0.9386   1.0153   1.1100   1.1239
     1.1604   1.2045   1.2533   1.2762   1.2811   2.2098   2.2112   2.2955
     2.2956   4.0528   4.1288   4.1870   4.2348   4.2431   4.3643   4.4261
     4.4688   4.4909   4.4932   4.5676

     the Fermi energy is     3.9669 ev

!    total energy              =   -2975.20599624 Ry
     estimated scf accuracy    <       0.00000005 Ry
     smearing contrib. (-TS)   =      -0.03732532 Ry
     internal energy E=F+TS    =   -2975.16867092 Ry

     The total energy is F=E-TS. E is the sum of the following terms:
     one-electron contribution =  -23537.70293287 Ry
     hartree contribution      =   11866.88633245 Ry
     xc contribution           =    -494.96945918 Ry
     ewald contribution        =    9190.61366980 Ry
     electric field correction =       0.00371888 Ry

     convergence has been achieved in  92 iterations

     Forces acting on atoms (cartesian axes, Ry/au):

     atom    1 type  1   force =     0.00006396   -0.00019798    0.09355193
     atom    2 type  1   force =    -0.00021295   -0.00020721   -0.17804681
     atom    3 type  2   force =     0.00011039   -0.00021013   -0.02066902
     atom    4 type  2   force =     0.00004837   -0.00197492    0.05808430
     atom    5 type  2   force =    -0.01001487   -0.00167160    0.00693499
     atom    6 type  2   force =     0.01216169   -0.00103875    0.00744644
     atom    7 type  1   force =     0.00022432    0.00248116   -0.01210726
     atom    8 type  1   force =    -0.00049749    0.00201710   -0.00192718
     atom    9 type  2   force =     0.00006932    0.00005958   -0.00004482
     atom   10 type  2   force =    -0.00044160   -0.00135299   -0.00314079
     atom   11 type  2   force =     0.00016747   -0.00008041   -0.00006893
     atom   12 type  2   force =    -0.00067213   -0.00012093    0.00009007
     atom   13 type  1   force =     0.00051910    0.00097364    0.00026436
     atom   14 type  1   force =    -0.00140435    0.00026816    0.00018243
     atom   15 type  2   force =    -0.00017905    0.00094067    0.00021681
     atom   16 type  2   force =    -0.00001416   -0.00044122    0.00014717
     atom   17 type  2   force =     0.00074310    0.00009764   -0.00041498
     atom   18 type  2   force =     0.00051388    0.00016081   -0.00041138
     atom   19 type  1   force =    -0.00112541    0.00079199    0.00053453
     atom   20 type  1   force =     0.00052401   -0.00006499   -0.00086387
     atom   21 type  2   force =     0.00001339   -0.00001909    0.10384912
     atom   22 type  2   force =     0.00009426    0.00085928   -0.00008435
     atom   23 type  2   force =    -0.07052529   -0.00011479   -0.02695538
     atom   24 type  2   force =     0.07046440    0.00031801   -0.02701697
     atom   25 type  1   force =     0.00001917   -0.00019440    0.09300277
     atom   26 type  1   force =    -0.00009729   -0.00048645   -0.17796994
     atom   27 type  2   force =     0.00017144   -0.00036260   -0.01955108
     atom   28 type  2   force =     0.00011003   -0.00160417    0.05716207
     atom   29 type  2   force =    -0.01006338   -0.00086337    0.00631590
     atom   30 type  2   force =     0.01212433   -0.00061762    0.00687476
     atom   31 type  1   force =     0.00032202    0.00503002   -0.01528252
     atom   32 type  1   force =    -0.00038929   -0.00265613   -0.00235113
     atom   33 type  2   force =    -0.00002995   -0.00025935   -0.00004101
     atom   34 type  2   force =     0.00046205    0.00031453   -0.00053787
     atom   35 type  2   force =    -0.00010901   -0.00037171   -0.00006080
     atom   36 type  2   force =    -0.00045113   -0.00036438    0.00025792
     atom   37 type  1   force =     0.00027065   -0.00103977    0.00053300
     atom   38 type  1   force =    -0.00122066    0.00025138    0.00129915
     atom   39 type  2   force =    -0.00011262   -0.00044896    0.00024803
     atom   40 type  2   force =     0.00002841   -0.00041604    0.00043603
     atom   41 type  2   force =    -0.00018948   -0.00002965    0.00010235
     atom   42 type  2   force =     0.00131080   -0.00021506    0.00011002
     atom   43 type  1   force =    -0.00108725   -0.00044881    0.00011514
     atom   44 type  1   force =     0.00092752    0.00062539   -0.00003339
     atom   45 type  2   force =     0.00004184   -0.00002380    0.10379486
     atom   46 type  2   force =    -0.07055551   -0.00008254   -0.02696196
     atom   47 type  2   force =     0.07046025    0.00038484   -0.02699377
     atom   48 type  3   force =    -0.00061772    0.00007032    0.00083408
     atom   49 type  4   force =     0.00062016    0.00052911   -0.00021626
     atom   50 type  5   force =    -0.00045199    0.00006876   -0.00054109
     atom   51 type  5   force =    -0.00039896   -0.00008371   -0.00004579
     atom   52 type  3   force =    -0.00029089    0.00056784    0.00003302
     atom   53 type  5   force =     0.00021886    0.00054232   -0.00030187
     atom   54 type  5   force =    -0.00059226    0.00074332    0.00016253
     atom   55 type  2   force =     0.00148685    0.00424266    0.00111939
     atom   56 type  5   force =    -0.00236591   -0.00390482   -0.00060378
     atom   57 type  5   force =    -0.00018147   -0.00037017   -0.00045918

     Total force =     0.365774     Total SCF correction =     0.000435
  @ DRIVER MODE: Message from server: STATUS
  @ DRIVER MODE: Message from server: GETFORCE
  @ DRIVER MODE: Returning v,forces,stress,ensemble

     Writing output data file ./calc.save/
  @ DRIVER MODE: Message from server: EXIT
  @ DRIVE MODE: Exiting

     General routines

     Parallel routines

   This run was terminated on:  10:14:24  16Sep2021

   JOB DONE.