     Program PWSCF v.6.7GPU starts on  8Sep2021 at 22: 4:28

     R & G space division:  proc/nbgrp/npool/nimage =      10
     Reading input from /storage/home/hcoda1/3/ntian30/research/carbon/CxH_vib/CH3_calc/ads_slab/CH3N_a/out_0001/pw.inp
Warning: card &CELL ignored
Warning: card   CELL_DYNAMICS='IPI', ignored
Warning: card / ignored

     Current dimensions of program PWSCF are:
     Max number of different atomic species (ntypx) = 10
     Max number of k-points (npk) =  40000
     Max angular momentum in pseudopotentials (lmaxx) =  3
     Presently no symmetry can be used with electric field

     Message from routine cell_base_init:
     DEPRECATED: use true lattice parameter, not A to a.u. conversion factor

     IMPORTANT: XC functional enforced from input :
     Exchange-correlation= BEEF-VDW
                           (   1   4  43  14   2   0   0)
     Any further DFT definition will be discarded
     Please, verify this is what you really want

  @ DRIVER MODE: Connecting to
 qe_1139763_2767403.sched-torque.pace.gatech.eduzxjeb_ec_scratch
  using UNIX socket
  @ DRIVER MODE: Message from server: STATUS
  @ DRIVER MODE: Message from server: INIT
  @ DRIVER MODE: Receiving replica           0          -1
  @ DRIVER MODE: Receiving encoded integer          25
  @ DRIVER MODE:  SCF:  T  FORCE:  T  STRESS:  F  VC:  F  ENSEMBLE:  F
  @ DRIVER MODE:  SCF:  T  FORCE:  T  STRESS:  F  VC:  F  ENSEMBLE:  F

     Using Slab Decomposition

     bravais-lattice index     =            0
     lattice parameter (alat)  =       1.8897  a.u.
     unit-cell volume          =    6658.9804 (a.u.)^3
     number of atoms/cell      =           52
     number of atomic types    =            5
     number of electrons       =       390.00
     number of Kohn-Sham states=          205
     kinetic-energy cutoff     =      29.3995  Ry
     charge density cutoff     =     293.9946  Ry
     scf convergence threshold =      7.3E-08
     mixing beta               =       0.0500
     number of iterations used =            8  plain     mixing
     Exchange-correlation= BEEF-VDW
                           (   1   4  43  14   2   0   0)

     celldm(1)=   1.889726  celldm(2)=   0.000000  celldm(3)=   0.000000
     celldm(4)=   0.000000  celldm(5)=   0.000000  celldm(6)=   0.000000

     crystal axes: (cart. coord. in units of alat)
               a(1) = (   6.579727   0.000000   0.000000 )
               a(2) = (  -0.000775   5.961596   0.000000 )
               a(3) = (   0.000000   0.000000  25.155947 )

     reciprocal axes: (cart. coord. in units 2 pi/alat)
               b(1) = (  0.151982  0.000020  0.000000 )
               b(2) = (  0.000000  0.167740  0.000000 )
               b(3) = (  0.000000  0.000000  0.039752 )

     PseudoPot. # 1 for Ti read from file:
     /storage/coda1/p-amedford6/0/shared/rich_project_chbe-medford/medford-share/data/pseudos_module/espresso/nninc/pbe/van/Ti.UPF
     MD5 check sum: 8e4df49b7f0d34bbd5052bf3f5ea0213
     Pseudo is Ultrasoft, Zval = 12.0
     Generated by new atomic code, or converted to UPF format
     Using radial grid of  851 points,  6 beta functions with:
                l(1) =   0
                l(2) =   0
                l(3) =   1
                l(4) =   1
                l(5) =   2
                l(6) =   2
     Q(r) pseudized with  8 coefficients,  rinner =    1.000   1.000   1.000
                                                       1.000   1.000

     PseudoPot. # 2 for O  read from file:
     /storage/coda1/p-amedford6/0/shared/rich_project_chbe-medford/medford-share/data/pseudos_module/espresso/nninc/pbe/van/O.UPF
     MD5 check sum: 78c19812648e8988a0fe644b0f25305e
     Pseudo is Ultrasoft, Zval =  6.0
     Generated by new atomic code, or converted to UPF format
     Using radial grid of  737 points,  4 beta functions with:
                l(1) =   0
                l(2) =   0
                l(3) =   1
                l(4) =   1
     Q(r) pseudized with  8 coefficients,  rinner =    0.800   0.800   0.800

     PseudoPot. # 3 for N  read from file:
     /storage/coda1/p-amedford6/0/shared/rich_project_chbe-medford/medford-share/data/pseudos_module/espresso/nninc/pbe/van/N.UPF
     MD5 check sum: 90d10febe142ad51ac9d5be1deb811c4
     Pseudo is Ultrasoft, Zval =  5.0
     Generated by new atomic code, or converted to UPF format
     Using radial grid of  729 points,  4 beta functions with:
                l(1) =   0
                l(2) =   0
                l(3) =   1
                l(4) =   1
     Q(r) pseudized with  8 coefficients,  rinner =    0.800   0.800   0.800

     PseudoPot. # 4 for C  read from file:
     /storage/coda1/p-amedford6/0/shared/rich_project_chbe-medford/medford-share/data/pseudos_module/espresso/nninc/pbe/van/C.UPF
     MD5 check sum: 1a69bf6b8db32088f5b2163dbdb77a27
     Pseudo is Ultrasoft, Zval =  4.0
     Generated by new atomic code, or converted to UPF format
     Using radial grid of  721 points,  4 beta functions with:
                l(1) =   0
                l(2) =   0
                l(3) =   1
                l(4) =   1
     Q(r) pseudized with  8 coefficients,  rinner =    0.800   0.800   0.800

     PseudoPot. # 5 for H  read from file:
     /storage/coda1/p-amedford6/0/shared/rich_project_chbe-medford/medford-share/data/pseudos_module/espresso/nninc/pbe/van/H.UPF
     MD5 check sum: b5ee9d7bfd3a09ee7748110bda690ff7
     Pseudo is Ultrasoft, Zval =  1.0
     Generated by new atomic code, or converted to UPF format
     Using radial grid of  615 points,  1 beta functions with:
                l(1) =   0
     Q(r) pseudized with  8 coefficients,  rinner =    0.800

     atomic species   valence    mass     pseudopotential
        Ti1           12.00    47.86700     Ti( 1.00)
        O1             6.00    15.99900     O ( 1.00)
        N1             5.00    14.00700     N ( 1.00)
        C1             4.00    12.01100     C ( 1.00)
        H1             1.00     1.00800     H ( 1.00)

     No symmetry found

   Cartesian axes

     site n.     atom                  positions (alat units)
         1           Ti1 tau(   1) = (   0.0004258   2.9801865   6.0000000  )
         2           Ti1 tau(   2) = (   3.2906075   1.4906267   6.0002472  )
         3           O1  tau(   3) = (   0.0006271   0.0005054   7.9858123  )
         4           O1  tau(   4) = (   3.2906025   0.0005020   7.3038282  )
         5           O1  tau(   5) = (   4.5942328   1.4918067   9.2879030  )
         6           O1  tau(   6) = (   1.9868534   1.4903216   9.2879459  )
         7           Ti1 tau(   7) = (   3.2907910   2.8959150   9.1758416  )
         8           Ti1 tau(   8) = (   0.0015273   1.4827037   9.2680791  )
         9           O1  tau(   9) = (   3.3018735   5.9614316  11.2970789  )
        10           O1  tau(  10) = (   0.0116148   5.9584955  10.6183126  )
        11           O1  tau(  11) = (   1.3353665   1.4968727  12.6140821  )
        12           O1  tau(  12) = (   5.3123320   1.5002621  12.6324210  )
        13           Ti1 tau(  13) = (   6.4913169   2.9877414  12.7576577  )
        14           Ti1 tau(  14) = (   3.1819880   1.4874128  12.4666476  )
        15           O1  tau(  15) = (   0.0325390   5.9514364  14.5942808  )
        16           O1  tau(  16) = (   3.3157460   0.0104736  13.8786857  )
        17           O1  tau(  17) = (   4.5538541   1.5308062  16.0536203  )
        18           O1  tau(  18) = (   2.1012647   1.5271178  16.0466835  )
        19           Ti1 tau(  19) = (   3.3239613   3.0121693  15.6870930  )
        20           Ti1 tau(  20) = (   0.0188375   1.6096557  16.0875739  )
        21           O1  tau(  21) = (   3.2904802   0.0005063   4.7018136  )
        22           O1  tau(  22) = (   0.0443345   0.0604659  17.2041813  )
        23           O1  tau(  23) = (   1.3043587   1.4918075   6.0039043  )
        24           O1  tau(  24) = (   5.2767064   1.4903225   6.0039473  )
        25           Ti1 tau(  25) = (   0.0000382   5.9609847   6.0000000  )
        26           Ti1 tau(  26) = (   3.2902200   4.4714249   6.0002472  )
        27           O1  tau(  27) = (   0.0002396   2.9813036   7.9858123  )
        28           O1  tau(  28) = (   3.2902150   2.9813002   7.3038282  )
        29           O1  tau(  29) = (   4.5938453   4.4726049   9.2879030  )
        30           O1  tau(  30) = (   1.9864658   4.4711199   9.2879459  )
        31           Ti1 tau(  31) = (   3.2891106   5.8743827   9.1763621  )
        32           Ti1 tau(  32) = (   0.0006254   4.4649316   9.2693709  )
        33           O1  tau(  33) = (   3.3028429   2.9834257  11.2952420  )
        34           O1  tau(  34) = (   0.0092240   2.9805883  10.6323155  )
        35           O1  tau(  35) = (   1.3370139   4.4664586  12.6123119  )
        36           O1  tau(  36) = (   5.3107101   4.4655690  12.6333123  )
        37           Ti1 tau(  37) = (   6.5188704   0.0058144  12.7695920  )
        38           Ti1 tau(  38) = (   3.1805296   4.4670443  12.4671176  )
        39           O1  tau(  39) = (   0.0099197   2.9765079  14.6559069  )
        40           O1  tau(  40) = (   3.3143426   2.9928857  13.8797190  )
        41           O1  tau(  41) = (   4.5573730   4.5089470  16.0521860  )
        42           O1  tau(  42) = (   2.1018054   4.5121927  16.0508938  )
        43           Ti1 tau(  43) = (   3.3145791   0.0316975  15.6896801  )
        44           Ti1 tau(  44) = (   0.0207397   4.5876961  16.1385408  )
        45           O1  tau(  45) = (   3.2900926   2.9813045   4.7018136  )
        46           O1  tau(  46) = (   1.3039711   4.4726057   6.0039043  )
        47           O1  tau(  47) = (   5.2763189   4.4711207   6.0039473  )
        48           N1  tau(  48) = (   0.0836308   3.0233000  17.3257847  )
        49           C1  tau(  49) = (   0.4281149   3.0137428  18.7308649  )
        50           H1  tau(  50) = (   0.7292188   4.0033843  19.0862330  )
        51           H1  tau(  51) = (   6.1445545   2.6862439  19.3232575  )
        52           H1  tau(  52) = (   1.2401080   2.3040860  18.9332505  )

     number of k points=    10  Fermi-Dirac smearing, width (Ry)=  0.0073
                       cart. coord. in units 2pi/alat
        k(    1) = (   0.0000000   0.0000000   0.0000000), wk =   0.1250000
        k(    2) = (   0.0000000   0.0419351   0.0000000), wk =   0.2500000
        k(    3) = (   0.0000000  -0.0838702   0.0000000), wk =   0.1250000
        k(    4) = (   0.0379955   0.0000049   0.0000000), wk =   0.2500000
        k(    5) = (   0.0379955   0.0419400   0.0000000), wk =   0.2500000
        k(    6) = (   0.0379955  -0.0838652   0.0000000), wk =   0.2500000
        k(    7) = (   0.0379955  -0.0419301   0.0000000), wk =   0.2500000
        k(    8) = (  -0.0759910  -0.0000099   0.0000000), wk =   0.1250000
        k(    9) = (  -0.0759910   0.0419252   0.0000000), wk =   0.2500000
        k(   10) = (  -0.0759910  -0.0838800   0.0000000), wk =   0.1250000

     Initial potential from superposition of free atoms

     starting charge  373.99917, renormalised to  390.00000

     negative rho (up, down):  1.730E-02 0.000E+00

     %%%%%%%%%%%%%%%%%%%%%%%%%%%%%%%%%%%%%%%%%%%%%%%%%%%%%%%%%%%%%%%%%%%%%%%%
     %                                                                      %
     % You are using vdW-DF, which was implemented by the Thonhauser group. %
     % Please cite the following two papers that made this development      %
     % possible and the two reviews that describe the various versions:     %
     %                                                                      %
     %   T. Thonhauser et al., PRL 115, 136402 (2015).                      %
     %   T. Thonhauser et al., PRB 76, 125112 (2007).                       %
     %   K. Berland et al., Rep. Prog. Phys. 78, 066501 (2015).             %
     %   D.C. Langreth et al., J. Phys.: Condens. Matter 21, 084203 (2009). %
     %                                                                      %
     %                                                                      %
     % If you are calculating the stress with vdW-DF, please also cite:     %
     %                                                                      %
     %   R. Sabatini et al., J. Phys.: Condens. Matter 24, 424209 (2012).   %
     %                                                                      %
     %%%%%%%%%%%%%%%%%%%%%%%%%%%%%%%%%%%%%%%%%%%%%%%%%%%%%%%%%%%%%%%%%%%%%%%%

     Adding external electric field

     Computed dipole along edir(3) :
        Dipole               -4.6272 Ry au,        -11.7612 Debye
        Dipole field         -0.0087 Ry au,

        Potential amp.        0.8095 Ry
        Total length         46.3494 bohr

     Starting wfcs are  295 atomic wfcs
  @ DRIVER MODE: Message from server: STATUS
  @ DRIVER MODE: Message from server: POSDATA
  @ DRIVER MODE: Reading and sharing cell
  @ DRIVER MODE: Reading and sharing positions
  @ DRIVER MODE: Received positions

     Self-consistent Calculation

     iteration #  1     ecut=    29.40 Ry     beta= 0.05
     Davidson diagonalization with overlap
     c_bands:  4 eigenvalues not converged
     c_bands:  2 eigenvalues not converged
     c_bands:  2 eigenvalues not converged
     c_bands:  4 eigenvalues not converged
     c_bands:  4 eigenvalues not converged
     c_bands:  2 eigenvalues not converged
     c_bands:  2 eigenvalues not converged
     c_bands:  2 eigenvalues not converged
     ethr =  1.00E-05,  avg # of iterations = 19.7

[...]

     total energy              =   -2877.40893155 Ry
     estimated scf accuracy    <     481.34162280 Ry

     iteration #  2     ecut=    29.40 Ry     beta= 0.05
     Davidson diagonalization with overlap
     ethr =  1.00E-02,  avg # of iterations = 13.6

[...]

     iteration # 40     ecut=    29.40 Ry     beta= 0.05
     Davidson diagonalization with overlap
     c_bands:  1 eigenvalues not converged
     c_bands:  1 eigenvalues not converged
     c_bands:  2 eigenvalues not converged
     c_bands:  2 eigenvalues not converged
     ethr =  6.58E-07,  avg # of iterations = 13.4

[...]

     total energy              =   -2919.13185489 Ry
     estimated scf accuracy    <       0.00000050 Ry

     iteration # 80     ecut=    29.40 Ry     beta= 0.05
     Davidson diagonalization with overlap
     ethr =  3.21E-11,  avg # of iterations =  5.0

     negative rho (up, down):  1.787E-02 0.000E+00

     Adding external electric field

     Computed dipole along edir(3) :
        Dipole                0.2591 Ry au,          0.6586 Debye
        Dipole field          0.0005 Ry au,

        Potential amp.       -0.0453 Ry
        Total length         46.3494 bohr

     End of self-consistent calculation

          k = 0.0000 0.0000 0.0000 ( 18029 PWs)   bands (ev):

   -56.8891 -56.8555 -56.0103 -55.9986 -55.9754 -55.9658 -55.8623 -55.8236
   -55.6454 -55.6101 -55.5529 -55.5478 -55.5190 -55.4385 -54.9662 -54.9196
   -33.3170 -33.1639 -33.1358 -33.0653 -32.9742 -32.9430 -32.4813 -32.4749
   -32.4030 -32.2946 -32.2480 -32.2240 -32.2058 -32.1843 -32.1508 -32.1465
   -32.1414 -32.1394 -32.1139 -32.1098 -32.0999 -32.0693 -32.0430 -32.0290
   -32.0160 -31.9965 -31.9891 -31.9655 -31.9451 -31.8915 -31.8767 -31.8674
   -31.7893 -31.7841 -31.7639 -31.7228 -31.7120 -31.6804 -31.6679 -31.6428
   -31.6242 -31.5694 -31.4959 -31.2172 -31.1915 -31.1716 -31.1399 -31.0252
   -17.0532 -16.6168 -16.3860 -16.2517 -16.1835 -16.1298 -16.0854 -15.9592
   -15.8874 -15.8833 -15.8436 -15.8093 -15.7391 -15.6015 -15.5029 -15.4446
   -15.4008 -15.2816 -15.2242 -15.1888 -15.1835 -15.1435 -15.1290 -14.9324
   -14.9060 -14.8187 -14.7978 -14.6715 -14.4376 -14.0516 -13.9415 -13.0627
    -7.8159  -4.6188  -4.1134  -3.8715  -3.7892  -3.6803  -3.6688  -3.5861
    -3.4699  -3.4222  -3.3760  -3.2600  -3.2555  -3.1099  -3.0979  -3.0649
    -3.0615  -3.0239  -2.9655  -2.9427  -2.8948  -2.8917  -2.8853  -2.7322
    -2.6332  -2.5649  -2.5388  -2.5254  -2.4957  -2.4229  -2.3932  -2.3850
    -2.3811  -2.2740  -2.1315  -2.1278  -2.0957  -2.0539  -2.0530  -2.0118
    -2.0000  -1.8743  -1.7854  -1.6755  -1.6668  -1.6292  -1.5684  -1.5621
    -1.4642  -1.3892  -1.3180  -1.3015  -1.1927  -1.1468  -1.1240  -1.0335
    -0.9736  -0.9356  -0.9117  -0.8964  -0.7920  -0.7785  -0.7700  -0.6758
    -0.6628  -0.6209  -0.5282  -0.5048  -0.4981  -0.4167  -0.4092  -0.3037
    -0.2765  -0.2307  -0.1983  -0.0927  -0.0725   0.0246   0.0620   0.0804
     0.2024   0.2198   0.2800   0.3533   0.4178   0.4340   0.4686   0.5003
     0.5160   0.5955   0.7071   0.7130   0.8192   0.8511   1.0211   1.0600
     1.3444   1.3536   2.0433   2.3856   2.5454   2.8437   3.0334   3.1467
     3.3607   3.5548   3.6055   3.7066   3.7455

[...]

          k = 0.0380-0.0419 0.0000 ( 17876 PWs)   bands (ev):

[...]

          k =-0.0760-0.0000 0.0000 ( 17886 PWs)   bands (ev):

[...]

          k =-0.0760-0.0839 0.0000 ( 17948 PWs)   bands (ev):

   -56.8724 -56.8721 -55.9951 -55.9893 -55.9830 -55.9823 -55.8508 -55.8349
   -55.6306 -55.6248 -55.5449 -55.5359 -55.5358 -55.4412 -54.9581 -54.9275
   -33.1497 -33.1495 -33.1339 -33.1337 -33.0183 -33.0180 -32.3112 -32.3088
   -32.2995 -32.2929 -32.2395 -32.2362 -32.1972 -32.1939 -32.1928 -32.1879
   -32.1847 -32.1818 -32.1796 -32.1780 -32.1011 -32.0886 -32.0499 -32.0376
   -31.9811 -31.9727 -31.9128 -31.9071 -31.8804 -31.8804 -31.8730 -31.8292
   -31.8276 -31.7980 -31.7614 -31.7613 -31.7612 -31.7224 -31.7224 -31.7185
   -31.6841 -31.6445 -31.3606 -31.2836 -31.1881 -31.1610 -31.1493 -31.1080
   -16.4018 -16.3997 -16.3671 -16.3668 -16.0976 -16.0941 -16.0469 -16.0436
   -15.8717 -15.8646 -15.6604 -15.6515 -15.6441 -15.6413 -15.5135 -15.5079
   -15.4437 -15.4295 -15.3413 -15.3388 -15.2760 -15.2699 -15.2311 -15.2113
   -14.9014 -14.8841 -14.7723 -14.7467 -14.5811 -14.0451 -14.0449 -13.0791
    -7.8067  -3.5003  -3.4995  -3.4357  -3.4347  -3.3093  -3.3035  -3.2316
    -3.2308  -3.1282  -3.1245  -3.0731  -2.9970  -2.9854  -2.9824  -2.9717
    -2.9562  -2.8292  -2.8272  -2.8169  -2.8014  -2.7460  -2.7438  -2.7264
    -2.6520  -2.6378  -2.6039  -2.5656  -2.4569  -2.4435  -2.4293  -2.3985
    -2.3411  -2.3302  -2.3165  -2.2747  -2.2493  -2.1610  -2.1063  -2.0545
    -1.9396  -1.9367  -1.9274  -1.9116  -1.7611  -1.7195  -1.6917  -1.6855
    -1.6763  -1.6317  -1.5352  -1.5284  -1.3932  -1.3928  -1.3119  -1.2335
    -1.2164  -1.1854  -1.0560  -1.0153  -0.9791  -0.9708  -0.9429  -0.9229
    -0.8994  -0.8619  -0.7209  -0.7080  -0.6709  -0.6357  -0.6309  -0.5741
    -0.5170  -0.4380  -0.3621  -0.3610  -0.3057  -0.2331  -0.1729  -0.0920
    -0.0787  -0.0740   0.2064   0.2858   0.3786   0.4555   0.5245   0.5772
     0.6119   0.6774   0.7160   0.8474   0.8520   0.8692   0.8695   0.9328
     0.9345   1.3346   1.9325   2.9587   2.9590   3.0259   3.0263   3.3498
     3.3557   3.4640   3.4736   3.5859   3.5882

     the Fermi energy is     2.2239 ev

!    total energy              =   -2919.13186024 Ry
     estimated scf accuracy    <       0.00000006 Ry
     smearing contrib. (-TS)   =      -0.00479167 Ry
     internal energy E=F+TS    =   -2919.12706857 Ry

     The total energy is F=E-TS. E is the sum of the following terms:
     one-electron contribution =  -24569.34194281 Ry
     hartree contribution      =   12368.89474188 Ry
     xc contribution           =    -479.89836323 Ry
     ewald contribution        =    9761.21836889 Ry
     electric field correction =       0.00012671 Ry

     convergence has been achieved in  80 iterations

     Forces acting on atoms (cartesian axes, Ry/au):

     atom    1 type  1   force =     0.00004974   -0.00050419    0.12429869
     atom    2 type  1   force =    -0.00009496   -0.00055675   -0.16063773
     atom    3 type  2   force =     0.00022188   -0.00024192   -0.06816379
     atom    4 type  2   force =    -0.00000205   -0.00032040    0.02754308
     atom    5 type  2   force =    -0.01620577    0.00174670   -0.00937611
     atom    6 type  2   force =     0.01826102    0.00228350   -0.00892834
     atom    7 type  1   force =     0.00113354   -0.00382950    0.02210373
     atom    8 type  1   force =    -0.00061995   -0.00325145    0.11130847
     atom    9 type  2   force =    -0.00010813    0.00138595   -0.00039819
     atom   10 type  2   force =    -0.00190454    0.00178640   -0.07352281
     atom   11 type  2   force =     0.00082465    0.00005884    0.00004298
     atom   12 type  2   force =    -0.00066350    0.00020653    0.00013807
     atom   13 type  1   force =     0.00005058    0.00023140   -0.00028090
     atom   14 type  1   force =    -0.00101053   -0.00024335   -0.00044634
     atom   15 type  2   force =    -0.00012005   -0.00030587   -0.00005006
     atom   16 type  2   force =    -0.00008251    0.00107158    0.00073568
     atom   17 type  2   force =    -0.00029779   -0.00010597   -0.00080078
     atom   18 type  2   force =    -0.00039084    0.00046242    0.00020686
     atom   19 type  1   force =     0.00045136    0.00003880   -0.00068308
     atom   20 type  1   force =    -0.00014877   -0.00115889    0.00015968
     atom   21 type  2   force =     0.00004082   -0.00006484    0.09974986
     atom   22 type  2   force =     0.00032209   -0.00050456   -0.00013622
     atom   23 type  2   force =    -0.07920350   -0.00005537   -0.03243992
     atom   24 type  2   force =     0.07907065    0.00037799   -0.03246686
     atom   25 type  1   force =     0.00003460   -0.00048936    0.12375476
     atom   26 type  1   force =    -0.00009924   -0.00050223   -0.16065384
     atom   27 type  2   force =     0.00032636   -0.00048211   -0.06721751
     atom   28 type  2   force =     0.00002685   -0.00014241    0.02723968
     atom   29 type  2   force =    -0.01660602    0.00134817   -0.00957919
     atom   30 type  2   force =     0.01854853    0.00165414   -0.00914764
     atom   31 type  1   force =     0.00110718   -0.00130537    0.02166036
     atom   32 type  1   force =    -0.00052249    0.00069035    0.11195638
     atom   33 type  2   force =    -0.00034235   -0.00115409    0.00010491
     atom   34 type  2   force =    -0.00156185    0.00135591   -0.07246160
     atom   35 type  2   force =    -0.00177678   -0.00019523    0.00025932
     atom   36 type  2   force =     0.00067752   -0.00042222   -0.00006565
     atom   37 type  1   force =     0.00070647   -0.00033408    0.00082239
     atom   38 type  1   force =    -0.00016646    0.00052489    0.00025494
     atom   39 type  2   force =     0.00023598   -0.00029445   -0.00054533
     atom   40 type  2   force =     0.00009963   -0.00017153    0.00031218
     atom   41 type  2   force =    -0.00039036    0.00068377   -0.00046015
     atom   42 type  2   force =    -0.00020501    0.00027010    0.00024986
     atom   43 type  1   force =     0.00068956    0.00016663   -0.00036423
     atom   44 type  1   force =    -0.00054217    0.00018138    0.00009189
     atom   45 type  2   force =     0.00002382   -0.00007021    0.09975831
     atom   46 type  2   force =    -0.07921182   -0.00000610   -0.03244182
     atom   47 type  2   force =     0.07908380    0.00042619   -0.03246625
     atom   48 type  3   force =     0.00373992   -0.00083458    0.00165226
     atom   49 type  4   force =    -0.00277236   -0.00021570   -0.00041740
     atom   50 type  5   force =    -0.00074142    0.00006735   -0.00030579
     atom   51 type  5   force =     0.00059021    0.00026143    0.00084830
     atom   52 type  5   force =    -0.00052551    0.00048231   -0.00079511

     Total force =     0.424753     Total SCF correction =     0.000557
  @ DRIVER MODE: Message from server: STATUS
  @ DRIVER MODE: Message from server: GETFORCE
  @ DRIVER MODE: Returning v,forces,stress,ensemble

     Writing output data file ./calc.save/
  @ DRIVER MODE: Message from server: EXIT
  @ DRIVE MODE: Exiting

     General routines

     Parallel routines

   This run was terminated on:  22:22:57   8Sep2021

   JOB DONE.