     Program PWSCF v.6.7GPU starts on 14Sep2021 at 20:30: 6

     R & G space division:  proc/nbgrp/npool/nimage =      10
     Reading input from /storage/home/hcoda1/3/ntian30/research/carbon/CxH_vib/CH2_calc/ads_slab/CH2OHN2_a/out_0020/pw.inp
Warning: card &CELL ignored
Warning: card   CELL_DYNAMICS='IPI', ignored
Warning: card / ignored

     Current dimensions of program PWSCF are:
     Max number of different atomic species (ntypx) = 10
     Max number of k-points (npk) =  40000
     Max angular momentum in pseudopotentials (lmaxx) =  3
     Presently no symmetry can be used with electric field

     Message from routine cell_base_init:
     DEPRECATED: use true lattice parameter, not A to a.u. conversion factor

     IMPORTANT: XC functional enforced from input :
     Exchange-correlation= BEEF-VDW
                           (   1   4  43  14   2   0   0)
     Any further DFT definition will be discarded
     Please, verify this is what you really want

  @ DRIVER MODE: Connecting to
 qe_1139763_2840440.sched-torque.pace.gatech.edub138imbw_scratch
  using UNIX socket
  @ DRIVER MODE: Message from server: STATUS
  @ DRIVER MODE: Message from server: INIT
  @ DRIVER MODE: Receiving replica           0          -1
  @ DRIVER MODE: Receiving encoded integer          25
  @ DRIVER MODE:  SCF:  T  FORCE:  T  STRESS:  F  VC:  F  ENSEMBLE:  F
  @ DRIVER MODE:  SCF:  T  FORCE:  T  STRESS:  F  VC:  F  ENSEMBLE:  F

     Using Slab Decomposition

     bravais-lattice index     =            0
     lattice parameter (alat)  =       1.8897  a.u.
     unit-cell volume          =    6658.9804 (a.u.)^3
     number of atoms/cell      =           54
     number of atomic types    =            5
     number of electrons       =       401.00
     number of Kohn-Sham states=          210
     kinetic-energy cutoff     =      29.3995  Ry
     charge density cutoff     =     293.9946  Ry
     scf convergence threshold =      7.3E-08
     mixing beta               =       0.0500
     number of iterations used =            8  plain     mixing
     Exchange-correlation= BEEF-VDW
                           (   1   4  43  14   2   0   0)

     celldm(1)=   1.889726  celldm(2)=   0.000000  celldm(3)=   0.000000
     celldm(4)=   0.000000  celldm(5)=   0.000000  celldm(6)=   0.000000

     crystal axes: (cart. coord. in units of alat)
               a(1) = (   6.579727   0.000000   0.000000 )
               a(2) = (  -0.000775   5.961596   0.000000 )
               a(3) = (   0.000000   0.000000  25.155947 )

     reciprocal axes: (cart. coord. in units 2 pi/alat)
               b(1) = (  0.151982  0.000020  0.000000 )
               b(2) = (  0.000000  0.167740  0.000000 )
               b(3) = (  0.000000  0.000000  0.039752 )

     PseudoPot. # 1 for C  read from file:
     /storage/coda1/p-amedford6/0/shared/rich_project_chbe-medford/medford-share/data/pseudos_module/espresso/nninc/pbe/van/C.UPF
     MD5 check sum: 1a69bf6b8db32088f5b2163dbdb77a27
     Pseudo is Ultrasoft, Zval =  4.0
     Generated by new atomic code, or converted to UPF format
     Using radial grid of  721 points,  4 beta functions with:
                l(1) =   0
                l(2) =   0
                l(3) =   1
                l(4) =   1
     Q(r) pseudized with  8 coefficients,  rinner =    0.800   0.800   0.800

     PseudoPot. # 2 for H  read from file:
     /storage/coda1/p-amedford6/0/shared/rich_project_chbe-medford/medford-share/data/pseudos_module/espresso/nninc/pbe/van/H.UPF
     MD5 check sum: b5ee9d7bfd3a09ee7748110bda690ff7
     Pseudo is Ultrasoft, Zval =  1.0
     Generated by new atomic code, or converted to UPF format
     Using radial grid of  615 points,  1 beta functions with:
                l(1) =   0
     Q(r) pseudized with  8 coefficients,  rinner =    0.800

     PseudoPot. # 3 for O  read from file:
     /storage/coda1/p-amedford6/0/shared/rich_project_chbe-medford/medford-share/data/pseudos_module/espresso/nninc/pbe/van/O.UPF
     MD5 check sum: 78c19812648e8988a0fe644b0f25305e
     Pseudo is Ultrasoft, Zval =  6.0
     Generated by new atomic code, or converted to UPF format
     Using radial grid of  737 points,  4 beta functions with:
                l(1) =   0
                l(2) =   0
                l(3) =   1
                l(4) =   1
     Q(r) pseudized with  8 coefficients,  rinner =    0.800   0.800   0.800

     PseudoPot. # 4 for Ti read from file:
     /storage/coda1/p-amedford6/0/shared/rich_project_chbe-medford/medford-share/data/pseudos_module/espresso/nninc/pbe/van/Ti.UPF
     MD5 check sum: 8e4df49b7f0d34bbd5052bf3f5ea0213
     Pseudo is Ultrasoft, Zval = 12.0
     Generated by new atomic code, or converted to UPF format
     Using radial grid of  851 points,  6 beta functions with:
                l(1) =   0
                l(2) =   0
                l(3) =   1
                l(4) =   1
                l(5) =   2
                l(6) =   2
     Q(r) pseudized with  8 coefficients,  rinner =    1.000   1.000   1.000
                                                       1.000   1.000

     PseudoPot. # 5 for N  read from file:
     /storage/coda1/p-amedford6/0/shared/rich_project_chbe-medford/medford-share/data/pseudos_module/espresso/nninc/pbe/van/N.UPF
     MD5 check sum: 90d10febe142ad51ac9d5be1deb811c4
     Pseudo is Ultrasoft, Zval =  5.0
     Generated by new atomic code, or converted to UPF format
     Using radial grid of  729 points,  4 beta functions with:
                l(1) =   0
                l(2) =   0
                l(3) =   1
                l(4) =   1
     Q(r) pseudized with  8 coefficients,  rinner =    0.800   0.800   0.800

     atomic species   valence    mass     pseudopotential
        C1             4.00    12.01100     C ( 1.00)
        H1             1.00     1.00800     H ( 1.00)
        O1             6.00    15.99900     O ( 1.00)
        Ti1           12.00    47.86700     Ti( 1.00)
        N1             5.00    14.00700     N ( 1.00)

     No symmetry found

   Cartesian axes

     site n.     atom                  positions (alat units)
         1           C1  tau(   1) = (   5.1764158   1.5385028  19.8564928  )
         2           H1  tau(   2) = (   4.2418317   1.4168958  19.3325039  )
         3           H1  tau(   3) = (   6.1328006   2.9100337  18.2018079  )
         4           H1  tau(   4) = (   6.0297582   0.9181690  19.6386741  )
         5           O1  tau(   5) = (   0.0006271   0.0005054   7.9858123  )
         6           O1  tau(   6) = (   3.2906025   0.0005020   7.3038282  )
         7           O1  tau(   7) = (   4.5942328   1.4918067   9.2879030  )
         8           O1  tau(   8) = (   1.9868534   1.4903216   9.2879459  )
         9           O1  tau(   9) = (   3.2696825   0.0177092  11.3460806  )
        10           O1  tau(  10) = (   6.5743896   0.0111799  10.6115589  )
        11           O1  tau(  11) = (   1.2770957   1.5070501  12.6511825  )
        12           O1  tau(  12) = (   5.2749141   1.5057152  12.6378801  )
        13           O1  tau(  13) = (   6.5263050   0.0247340  14.7317399  )
        14           O1  tau(  14) = (   3.2747511   0.0213673  13.9312909  )
        15           O1  tau(  15) = (   4.4933390   1.5239927  16.1070736  )
        16           O1  tau(  16) = (   2.0026543   1.5217075  16.0711130  )
        17           O1  tau(  17) = (   3.2904802   0.0005063   4.7018136  )
        18           O1  tau(  18) = (   6.5469758   0.0421337  17.2556835  )
        19           O1  tau(  19) = (   1.3043587   1.4918075   6.0039043  )
        20           O1  tau(  20) = (   5.2767064   1.4903225   6.0039473  )
        21           O1  tau(  21) = (   0.0002396   2.9813036   7.9858123  )
        22           O1  tau(  22) = (   3.2902150   2.9813002   7.3038282  )
        23           O1  tau(  23) = (   4.5938453   4.4726049   9.2879030  )
        24           O1  tau(  24) = (   1.9864658   4.4711199   9.2879459  )
        25           O1  tau(  25) = (   3.2722311   3.0011533  11.3472759  )
        26           O1  tau(  26) = (   6.5787409   2.9955660  10.5677177  )
        27           O1  tau(  27) = (   1.2755865   4.4883074  12.6550720  )
        28           O1  tau(  28) = (   5.2773609   4.4903743  12.6413705  )
        29           O1  tau(  29) = (   6.5451067   2.9841024  14.7029789  )
        30           O1  tau(  30) = (   3.2773495   3.0062142  13.9304278  )
        31           O1  tau(  31) = (   4.4941242   4.5002890  16.1165364  )
        32           O1  tau(  32) = (   2.0016379   4.5015838  16.0818063  )
        33           O1  tau(  33) = (   3.2900926   2.9813045   4.7018136  )
        34           O1  tau(  34) = (   1.3039711   4.4726057   6.0039043  )
        35           O1  tau(  35) = (   5.2763189   4.4711207   6.0039473  )
        36           O1  tau(  36) = (   6.5536212   3.0044252  17.3297899  )
        37           Ti1 tau(  37) = (   0.0004258   2.9801865   6.0000000  )
        38           Ti1 tau(  38) = (   3.2906075   1.4906267   6.0002472  )
        39           Ti1 tau(  39) = (   3.3348906   3.0327224   9.1579215  )
        40           Ti1 tau(  40) = (   0.0203972   1.6099837   9.3624797  )
        41           Ti1 tau(  41) = (   6.5380572   3.0081639  12.8251979  )
        42           Ti1 tau(  42) = (   3.2225065   1.5141752  12.4854623  )
        43           Ti1 tau(  43) = (   3.2525775   3.0161725  15.7233172  )
        44           Ti1 tau(  44) = (   6.5465844   1.4469101  15.9770741  )
        45           Ti1 tau(  45) = (   0.0000382   5.9609847   6.0000000  )
        46           Ti1 tau(  46) = (   3.2902200   4.4714249   6.0002472  )
        47           Ti1 tau(  47) = (   3.2831171   0.0558662   9.1532617  )
        48           Ti1 tau(  48) = (   0.0294011   4.5318189   9.2743274  )
        49           Ti1 tau(  49) = (   6.5160019   0.0223579  12.5245727  )
        50           Ti1 tau(  50) = (   3.2207252   4.4944464  12.4919313  )
        51           Ti1 tau(  51) = (   3.2645639   0.0336594  15.7221480  )
        52           Ti1 tau(  52) = (   6.5427997   4.6104004  16.1309301  )
        53           N1  tau(  53) = (   5.0796009   2.6163306  22.0446247  )
        54           N1  tau(  54) = (   5.1188049   2.0915644  21.0330699  )

     number of k points=    10  Fermi-Dirac smearing, width (Ry)=  0.0073
                       cart. coord. in units 2pi/alat
        k(    1) = (   0.0000000   0.0000000   0.0000000), wk =   0.1250000
        k(    2) = (   0.0000000   0.0419351   0.0000000), wk =   0.2500000
        k(    3) = (   0.0000000  -0.0838702   0.0000000), wk =   0.1250000
        k(    4) = (   0.0379955   0.0000049   0.0000000), wk =   0.2500000
        k(    5) = (   0.0379955   0.0419400   0.0000000), wk =   0.2500000
        k(    6) = (   0.0379955  -0.0838652   0.0000000), wk =   0.2500000
        k(    7) = (   0.0379955  -0.0419301   0.0000000), wk =   0.2500000
        k(    8) = (  -0.0759910  -0.0000099   0.0000000), wk =   0.1250000
        k(    9) = (  -0.0759910   0.0419252   0.0000000), wk =   0.2500000
        k(   10) = (  -0.0759910  -0.0838800   0.0000000), wk =   0.1250000

     Initial potential from superposition of free atoms

     starting charge  384.99916, renormalised to  401.00000

     negative rho (up, down):  1.196E-02 0.000E+00

     %%%%%%%%%%%%%%%%%%%%%%%%%%%%%%%%%%%%%%%%%%%%%%%%%%%%%%%%%%%%%%%%%%%%%%%%
     %                                                                      %
     % You are using vdW-DF, which was implemented by the Thonhauser group. %
     % Please cite the following two papers that made this development      %
     % possible and the two reviews that describe the various versions:     %
     %                                                                      %
     %   T. Thonhauser et al., PRL 115, 136402 (2015).                      %
     %   T. Thonhauser et al., PRB 76, 125112 (2007).                       %
     %   K. Berland et al., Rep. Prog. Phys. 78, 066501 (2015).             %
     %   D.C. Langreth et al., J. Phys.: Condens. Matter 21, 084203 (2009). %
     %                                                                      %
     %                                                                      %
     % If you are calculating the stress with vdW-DF, please also cite:     %
     %                                                                      %
     %   R. Sabatini et al., J. Phys.: Condens. Matter 24, 424209 (2012).   %
     %                                                                      %
     %%%%%%%%%%%%%%%%%%%%%%%%%%%%%%%%%%%%%%%%%%%%%%%%%%%%%%%%%%%%%%%%%%%%%%%%

     Adding external electric field

     Computed dipole along edir(3) :
        Dipole              -14.0962 Ry au,        -35.8290 Debye
        Dipole field         -0.0266 Ry au,

        Potential amp.        2.4659 Ry
        Total length         46.3494 bohr

     Starting wfcs are  303 atomic wfcs
  @ DRIVER MODE: Message from server: STATUS
  @ DRIVER MODE: Message from server: POSDATA
  @ DRIVER MODE: Reading and sharing cell
  @ DRIVER MODE: Reading and sharing positions
  @ DRIVER MODE: Received positions

     Self-consistent Calculation

     iteration #  1     ecut=    29.40 Ry     beta= 0.05
     Davidson diagonalization with overlap
     c_bands:  5 eigenvalues not converged
     c_bands:  4 eigenvalues not converged
     c_bands:  5 eigenvalues not converged
     c_bands:  2 eigenvalues not converged
     c_bands:  4 eigenvalues not converged
     c_bands:  1 eigenvalues not converged
     c_bands:  4 eigenvalues not converged
     c_bands:  4 eigenvalues not converged
     c_bands:  4 eigenvalues not converged
     c_bands:  5 eigenvalues not converged
     ethr =  1.00E-05,  avg # of iterations = 22.0

[...]

     total energy              =   -2410.44084130 Ry
     estimated scf accuracy    <    6378.85342903 Ry

     iteration #  2     ecut=    29.40 Ry     beta= 0.05
     Davidson diagonalization with overlap
     ethr =  1.00E-02,  avg # of iterations = 23.5

[...]

     iteration # 78     ecut=    29.40 Ry     beta= 0.05
     Davidson diagonalization with overlap
     c_bands:  1 eigenvalues not converged
     ethr =  1.25E-09,  avg # of iterations = 12.3

[...]

     total energy              =   -2971.53805545 Ry
     estimated scf accuracy    <       0.00000008 Ry

     iteration # 91     ecut=    29.40 Ry     beta= 0.05
     Davidson diagonalization with overlap
     ethr =  2.11E-11,  avg # of iterations =  7.5

     negative rho (up, down):  1.326E-02 0.000E+00

     Adding external electric field

     Computed dipole along edir(3) :
        Dipole                0.4408 Ry au,          1.1205 Debye
        Dipole field          0.0008 Ry au,

        Potential amp.       -0.0771 Ry
        Total length         46.3494 bohr

     End of self-consistent calculation

          k = 0.0000 0.0000 0.0000 ( 18029 PWs)   bands (ev):

   -55.7645 -55.7515 -55.7274 -55.7153 -55.6725 -55.6512 -55.6258 -55.5923
   -55.5894 -55.5796 -55.5376 -55.5144 -55.4808 -55.4145 -54.7750 -54.7409
   -32.3158 -32.2315 -32.1988 -32.1131 -32.0841 -32.0661 -32.0563 -32.0329
   -31.9942 -31.9898 -31.9753 -31.9672 -31.9619 -31.9326 -31.9249 -31.9217
   -31.9177 -31.8958 -31.8879 -31.8606 -31.8537 -31.8306 -31.8296 -31.8240
   -31.8070 -31.8004 -31.7825 -31.7782 -31.7711 -31.7685 -31.7615 -31.7536
   -31.7421 -31.7386 -31.7340 -31.6953 -31.6939 -31.6594 -31.6365 -31.6206
   -31.6033 -31.6004 -31.1847 -31.0878 -31.0655 -31.0014 -30.9153 -30.8041
   -20.7437 -17.0001 -16.5002 -16.2059 -16.0396 -15.9119 -15.8833 -15.7826
   -15.5915 -15.4572 -15.4403 -15.3658 -15.3315 -15.3263 -15.3003 -15.2836
   -15.2699 -15.2667 -15.2206 -15.1954 -15.1802 -15.1651 -15.1391 -15.0875
   -15.0401 -14.9685 -14.9209 -14.8804 -14.8609 -14.7618 -14.7431 -13.9466
   -13.2755 -13.1573  -6.5501  -5.5908  -4.9821  -4.5209  -3.8637  -3.6875
    -3.6706  -3.6516  -3.5686  -3.5145  -3.3259  -3.3098  -3.0096  -2.9345
    -2.9041  -2.9006  -2.8866  -2.7087  -2.6438  -2.6050  -2.5903  -2.5735
    -2.5714  -2.5485  -2.5297  -2.5180  -2.4906  -2.4683  -2.4649  -2.3200
    -2.2922  -2.1769  -2.1565  -2.1459  -2.0887  -2.0637  -2.0316  -2.0082
    -2.0036  -1.9871  -1.9648  -1.9301  -1.8447  -1.8209  -1.6958  -1.5909
    -1.5543  -1.4603  -1.3146  -1.2413  -1.2215  -1.1906  -1.1634  -1.1472
    -1.1015  -1.0767  -1.0263  -0.9628  -0.9556  -0.8521  -0.7791  -0.7414
    -0.6637  -0.6446  -0.6263  -0.5065  -0.4854  -0.4750  -0.3018  -0.2375
    -0.2334  -0.2263  -0.0981  -0.0560  -0.0219  -0.0084   0.0213   0.0522
     0.0971   0.1392   0.1988   0.2231   0.2341   0.2421   0.2650   0.2913
     0.4073   0.4232   0.4355   0.5523   0.5716   0.7607   0.7679   0.8857
     0.9857   1.1535   1.2495   1.3204   1.4206   1.7193   1.8384   1.8988
     3.4252   3.4559   3.4878   3.5056   3.5761   3.6991   3.8068   3.8625
     3.8837   3.9055

[...]

          k = 0.0380-0.0419 0.0000 ( 17876 PWs)   bands (ev):

[...]

          k =-0.0760-0.0000 0.0000 ( 17886 PWs)   bands (ev):

[...]

          k =-0.0760-0.0839 0.0000 ( 17948 PWs)   bands (ev):

   -55.7534 -55.7384 -55.7344 -55.7321 -55.6690 -55.6464 -55.6137 -55.6015
   -55.5971 -55.5828 -55.5349 -55.4985 -55.4968 -55.4169 -54.7585 -54.7573
   -32.1194 -32.1154 -32.0987 -32.0556 -32.0455 -32.0399 -32.0229 -32.0217
   -32.0152 -31.9785 -31.9541 -31.9465 -31.9440 -31.9099 -31.9050 -31.8967
   -31.8849 -31.8812 -31.8797 -31.8700 -31.8692 -31.8596 -31.8545 -31.8475
   -31.8443 -31.8221 -31.8173 -31.8134 -31.8061 -31.8055 -31.8019 -31.7830
   -31.7764 -31.7580 -31.7550 -31.7490 -31.7333 -31.7167 -31.7036 -31.6966
   -31.6449 -31.6097 -31.0788 -31.0775 -30.9981 -30.9972 -30.9589 -30.9579
   -20.7435 -16.9346 -15.9425 -15.9335 -15.6919 -15.6844 -15.6804 -15.6099
   -15.5262 -15.5047 -15.4830 -15.4790 -15.4301 -15.4191 -15.4002 -15.3390
   -15.3049 -15.2876 -15.2698 -15.2654 -15.2113 -15.2065 -15.1627 -15.1388
   -15.1204 -15.1150 -15.0903 -15.0860 -15.0470 -14.9856 -14.9172 -13.9465
   -13.2597 -13.2574  -6.5443  -5.5931  -4.9205  -4.5196  -3.5140  -3.2342
    -3.2235  -2.9576  -2.9089  -2.8957  -2.8138  -2.7519  -2.6860  -2.6453
    -2.6213  -2.6115  -2.5966  -2.5877  -2.5836  -2.5697  -2.5668  -2.5459
    -2.5262  -2.5148  -2.4577  -2.4358  -2.4137  -2.3936  -2.3862  -2.3745
    -2.3373  -2.3190  -2.3076  -2.2916  -2.2878  -2.2073  -2.0611  -2.0153
    -1.9210  -1.8995  -1.8889  -1.8479  -1.8260  -1.8093  -1.7944  -1.7454
    -1.7286  -1.5608  -1.4914  -1.4744  -1.4569  -1.4250  -1.3658  -1.2810
    -1.2485  -1.1736  -1.1672  -1.1275  -1.0652  -0.9873  -0.9687  -0.9273
    -0.8700  -0.8322  -0.7752  -0.7434  -0.7218  -0.7129  -0.6622  -0.6057
    -0.5669  -0.5068  -0.4805  -0.4174  -0.3775  -0.3418  -0.2848  -0.2585
    -0.2231  -0.1129  -0.0064   0.1303   0.1930   0.2697   0.2810   0.3059
     0.3305   0.4446   0.4735   0.5097   0.5483   0.6353   0.6894   0.7588
     0.7785   0.8069   0.8635   1.6100   1.6112   1.7005   1.7113   1.7226
     3.6220   3.6598   3.6751   3.7262   3.8837   3.8884   3.9070   3.9150
     3.9671   4.0467

     the Fermi energy is     3.3911 ev

!    total energy              =   -2971.53805762 Ry
     estimated scf accuracy    <       0.00000003 Ry
     smearing contrib. (-TS)   =      -0.02329618 Ry
     internal energy E=F+TS    =   -2971.51476144 Ry

     The total energy is F=E-TS. E is the sum of the following terms:
     one-electron contribution =  -22751.47090626 Ry
     hartree contribution      =   11466.81620847 Ry
     xc contribution           =    -492.33127259 Ry
     ewald contribution        =    8805.47084219 Ry
     electric field correction =       0.00036674 Ry

     convergence has been achieved in  91 iterations

     Forces acting on atoms (cartesian axes, Ry/au):

     atom    1 type  1   force =    -0.00063068    0.00096109    0.00072384
     atom    2 type  2   force =    -0.00047571    0.00082652   -0.00059475
     atom    3 type  2   force =    -0.00141330   -0.00071455   -0.00048969
     atom    4 type  2   force =     0.00082877   -0.00050373   -0.00026278
     atom    5 type  3   force =     0.00034460   -0.00680428   -0.03338924
     atom    6 type  3   force =    -0.00001936    0.00054853    0.04533419
     atom    7 type  3   force =    -0.02046311    0.00053080    0.00450541
     atom    8 type  3   force =     0.01815222   -0.00160046    0.00413942
     atom    9 type  3   force =     0.00014298    0.00000604   -0.00009469
     atom   10 type  3   force =    -0.00004512   -0.00004805    0.00019279
     atom   11 type  3   force =     0.00023278   -0.00009630   -0.00033140
     atom   12 type  3   force =     0.00046304    0.00012070   -0.00013978
     atom   13 type  3   force =    -0.00016626   -0.00021347   -0.00018617
     atom   14 type  3   force =     0.00091210    0.00021050   -0.00011161
     atom   15 type  3   force =     0.00072809    0.00003387    0.00067744
     atom   16 type  3   force =     0.00120294   -0.00022594   -0.00018619
     atom   17 type  3   force =     0.00004108    0.00005603    0.10416200
     atom   18 type  3   force =    -0.00051190    0.00011556    0.00063377
     atom   19 type  3   force =    -0.06902195    0.00070125   -0.02968395
     atom   20 type  3   force =     0.06880262    0.00126500   -0.02967910
     atom   21 type  3   force =     0.00038436    0.00378358   -0.02831976
     atom   22 type  3   force =     0.00086126    0.00084429    0.04702679
     atom   23 type  3   force =    -0.01798109    0.00141080    0.00375025
     atom   24 type  3   force =     0.01768822    0.00226996    0.00328023
     atom   25 type  3   force =    -0.00014783   -0.00019663    0.00004358
     atom   26 type  3   force =     0.00017005   -0.00003058    0.00041466
     atom   27 type  3   force =    -0.00024966   -0.00014984    0.00023463
     atom   28 type  3   force =    -0.00003695   -0.00020875    0.00060305
     atom   29 type  3   force =    -0.00023284   -0.00055579    0.00009317
     atom   30 type  3   force =    -0.00003027   -0.00034373    0.00038327
     atom   31 type  3   force =     0.00057139   -0.00023008    0.00032201
     atom   32 type  3   force =     0.00083513   -0.00012726   -0.00060758
     atom   33 type  3   force =     0.00004446    0.00003341    0.10424225
     atom   34 type  3   force =    -0.06860242   -0.00136154   -0.02972708
     atom   35 type  3   force =     0.06848986   -0.00098625   -0.02970423
     atom   36 type  3   force =     0.00081013    0.00050147    0.00014353
     atom   37 type  4   force =    -0.00000647   -0.00157364    0.10638464
     atom   38 type  4   force =    -0.00015816    0.00074210   -0.17962059
     atom   39 type  4   force =    -0.00038565    0.00007664   -0.00012985
     atom   40 type  4   force =     0.00000445    0.00006568   -0.00009771
     atom   41 type  4   force =     0.00000680    0.00055931   -0.00057665
     atom   42 type  4   force =    -0.00021857    0.00002296    0.00021681
     atom   43 type  4   force =    -0.00342434   -0.00021969   -0.00049638
     atom   44 type  4   force =     0.00295030    0.00048393   -0.00041372
     atom   45 type  4   force =    -0.00002114    0.00121566    0.11834885
     atom   46 type  4   force =     0.00000999   -0.00035303   -0.17988194
     atom   47 type  4   force =     0.00039286    0.00005705   -0.00026934
     atom   48 type  4   force =    -0.00002938    0.00024981   -0.00035029
     atom   49 type  4   force =     0.00064209    0.00058004   -0.00006263
     atom   50 type  4   force =     0.00005556    0.00011802   -0.00081309
     atom   51 type  4   force =    -0.00413289   -0.00083116   -0.00009409
     atom   52 type  4   force =     0.00323312   -0.00099886    0.00049751
     atom   53 type  5   force =     0.00067963    0.00128673    0.00001950
     atom   54 type  5   force =    -0.00127582   -0.00130369   -0.00005933

     Total force =     0.376658     Total SCF correction =     0.000424
  @ DRIVER MODE: Message from server: STATUS
  @ DRIVER MODE: Message from server: GETFORCE
  @ DRIVER MODE: Returning v,forces,stress,ensemble

     Writing output data file ./calc.save/
  @ DRIVER MODE: Message from server: EXIT
  @ DRIVE MODE: Exiting

     General routines

     Parallel routines

   This run was terminated on:  20:53:32  14Sep2021

   JOB DONE.