     Program PWSCF v.6.7GPU starts on 24Aug2021 at  2:11:25

     R & G space division:  proc/nbgrp/npool/nimage =       6
     Reading input from /storage/home/hcoda1/3/ntian30/research/carbon/CH_vib/ads_slab/CHNHH_a/out_0027/pw.inp
Warning: card &CELL ignored
Warning: card   CELL_DYNAMICS='IPI', ignored
Warning: card / ignored

     Current dimensions of program PWSCF are:
     Max number of different atomic species (ntypx) = 10
     Max number of k-points (npk) =  40000
     Max angular momentum in pseudopotentials (lmaxx) =  3
     Presently no symmetry can be used with electric field

     Message from routine cell_base_init:
     DEPRECATED: use true lattice parameter, not A to a.u. conversion factor

     IMPORTANT: XC functional enforced from input :
     Exchange-correlation= BEEF-VDW
                           (   1   4  43  14   2   0   0)
     Any further DFT definition will be discarded
     Please, verify this is what you really want

  @ DRIVER MODE: Connecting to
 qe_1139763_2632797.sched-torque.pace.gatech.edua7l06rdb_scratch
  using UNIX socket
  @ DRIVER MODE: Message from server: STATUS
  @ DRIVER MODE: Message from server: INIT
  @ DRIVER MODE: Receiving replica           0          -1
  @ DRIVER MODE: Receiving encoded integer          25
  @ DRIVER MODE:  SCF:  T  FORCE:  T  STRESS:  F  VC:  F  ENSEMBLE:  F
  @ DRIVER MODE:  SCF:  T  FORCE:  T  STRESS:  F  VC:  F  ENSEMBLE:  F

     Using Slab Decomposition

     bravais-lattice index     =            0
     lattice parameter (alat)  =       1.8897  a.u.
     unit-cell volume          =    6658.9804 (a.u.)^3
     number of atoms/cell      =           52
     number of atomic types    =            5
     number of electrons       =       390.00
     number of Kohn-Sham states=          205
     kinetic-energy cutoff     =      29.3995  Ry
     charge density cutoff     =     293.9946  Ry
     scf convergence threshold =      7.3E-08
     mixing beta               =       0.0500
     number of iterations used =            8  plain     mixing
     Exchange-correlation= BEEF-VDW
                           (   1   4  43  14   2   0   0)

     celldm(1)=   1.889726  celldm(2)=   0.000000  celldm(3)=   0.000000
     celldm(4)=   0.000000  celldm(5)=   0.000000  celldm(6)=   0.000000

     crystal axes: (cart. coord. in units of alat)
               a(1) = (   6.579727   0.000000   0.000000 )
               a(2) = (  -0.000775   5.961596   0.000000 )
               a(3) = (   0.000000   0.000000  25.155947 )

     reciprocal axes: (cart. coord. in units 2 pi/alat)
               b(1) = (  0.151982  0.000020  0.000000 )
               b(2) = (  0.000000  0.167740  0.000000 )
               b(3) = (  0.000000  0.000000  0.039752 )

     PseudoPot. # 1 for Ti read from file:
     /storage/coda1/p-amedford6/0/shared/rich_project_chbe-medford/medford-share/data/pseudos_module/espresso/nninc/pbe/van/Ti.UPF
     MD5 check sum: 8e4df49b7f0d34bbd5052bf3f5ea0213
     Pseudo is Ultrasoft, Zval = 12.0
     Generated by new atomic code, or converted to UPF format
     Using radial grid of  851 points,  6 beta functions with:
                l(1) =   0
                l(2) =   0
                l(3) =   1
                l(4) =   1
                l(5) =   2
                l(6) =   2
     Q(r) pseudized with  8 coefficients,  rinner =    1.000   1.000   1.000
                                                       1.000   1.000

     PseudoPot. # 2 for O  read from file:
     /storage/coda1/p-amedford6/0/shared/rich_project_chbe-medford/medford-share/data/pseudos_module/espresso/nninc/pbe/van/O.UPF
     MD5 check sum: 78c19812648e8988a0fe644b0f25305e
     Pseudo is Ultrasoft, Zval =  6.0
     Generated by new atomic code, or converted to UPF format
     Using radial grid of  737 points,  4 beta functions with:
                l(1) =   0
                l(2) =   0
                l(3) =   1
                l(4) =   1
     Q(r) pseudized with  8 coefficients,  rinner =    0.800   0.800   0.800

     PseudoPot. # 3 for N  read from file:
     /storage/coda1/p-amedford6/0/shared/rich_project_chbe-medford/medford-share/data/pseudos_module/espresso/nninc/pbe/van/N.UPF
     MD5 check sum: 90d10febe142ad51ac9d5be1deb811c4
     Pseudo is Ultrasoft, Zval =  5.0
     Generated by new atomic code, or converted to UPF format
     Using radial grid of  729 points,  4 beta functions with:
                l(1) =   0
                l(2) =   0
                l(3) =   1
                l(4) =   1
     Q(r) pseudized with  8 coefficients,  rinner =    0.800   0.800   0.800

     PseudoPot. # 4 for C  read from file:
     /storage/coda1/p-amedford6/0/shared/rich_project_chbe-medford/medford-share/data/pseudos_module/espresso/nninc/pbe/van/C.UPF
     MD5 check sum: 1a69bf6b8db32088f5b2163dbdb77a27
     Pseudo is Ultrasoft, Zval =  4.0
     Generated by new atomic code, or converted to UPF format
     Using radial grid of  721 points,  4 beta functions with:
                l(1) =   0
                l(2) =   0
                l(3) =   1
                l(4) =   1
     Q(r) pseudized with  8 coefficients,  rinner =    0.800   0.800   0.800

     PseudoPot. # 5 for H  read from file:
     /storage/coda1/p-amedford6/0/shared/rich_project_chbe-medford/medford-share/data/pseudos_module/espresso/nninc/pbe/van/H.UPF
     MD5 check sum: b5ee9d7bfd3a09ee7748110bda690ff7
     Pseudo is Ultrasoft, Zval =  1.0
     Generated by new atomic code, or converted to UPF format
     Using radial grid of  615 points,  1 beta functions with:
                l(1) =   0
     Q(r) pseudized with  8 coefficients,  rinner =    0.800

     atomic species   valence    mass     pseudopotential
        Ti1           12.00    47.86700     Ti( 1.00)
        O1             6.00    15.99900     O ( 1.00)
        N1             5.00    14.00700     N ( 1.00)
        C1             4.00    12.01100     C ( 1.00)
        H1             1.00     1.00800     H ( 1.00)

     No symmetry found

   Cartesian axes

     site n.     atom                  positions (alat units)
         1           Ti1 tau(   1) = (   0.0004258   2.9801865   6.0000000  )
         2           Ti1 tau(   2) = (   3.2906075   1.4906267   6.0002472  )
         3           O1  tau(   3) = (   0.0006271   0.0005054   7.9858123  )
         4           O1  tau(   4) = (   3.2906025   0.0005020   7.3038282  )
         5           O1  tau(   5) = (   4.5942328   1.4918067   9.2879030  )
         6           O1  tau(   6) = (   1.9868534   1.4903216   9.2879459  )
         7           Ti1 tau(   7) = (   3.2907910   2.8959150   9.1758416  )
         8           Ti1 tau(   8) = (   0.0015273   1.4827037   9.2680791  )
         9           O1  tau(   9) = (   3.2768318   5.9518058  11.3501096  )
        10           O1  tau(  10) = (   0.0116148   5.9584955  10.6183126  )
        11           O1  tau(  11) = (   1.2820894   1.4890407  12.6429483  )
        12           O1  tau(  12) = (   5.2701592   1.4861355  12.6244956  )
        13           Ti1 tau(  13) = (   0.0263608   2.9732685  12.5725065  )
        14           Ti1 tau(  14) = (   3.3311081   1.4825583  12.4934812  )
        15           O1  tau(  15) = (   6.5448050   0.0382128  14.6485099  )
        16           O1  tau(  16) = (   3.2835306   5.9556129  13.9684075  )
        17           O1  tau(  17) = (   4.5065730   1.5084740  16.1486978  )
        18           O1  tau(  18) = (   2.0110176   1.4968469  16.1316129  )
        19           Ti1 tau(  19) = (   3.2365874   2.9692752  15.7101938  )
        20           Ti1 tau(  20) = (   6.5183500   1.5288441  15.9766389  )
        21           O1  tau(  21) = (   3.2904802   0.0005063   4.7018136  )
        22           O1  tau(  22) = (   6.5552815   5.8936090  17.2115513  )
        23           O1  tau(  23) = (   1.3043587   1.4918075   6.0039043  )
        24           O1  tau(  24) = (   5.2767064   1.4903225   6.0039473  )
        25           Ti1 tau(  25) = (   0.0000382   5.9609847   6.0000000  )
        26           Ti1 tau(  26) = (   3.2902200   4.4714249   6.0002472  )
        27           O1  tau(  27) = (   0.0002396   2.9813036   7.9858123  )
        28           O1  tau(  28) = (   3.2902150   2.9813002   7.3038282  )
        29           O1  tau(  29) = (   4.5938453   4.4726049   9.2879030  )
        30           O1  tau(  30) = (   1.9864658   4.4711199   9.2879459  )
        31           Ti1 tau(  31) = (   3.2891106   5.8743827   9.1763621  )
        32           Ti1 tau(  32) = (   0.0006254   4.4649316   9.2693709  )
        33           O1  tau(  33) = (   3.2825058   2.9767457  11.3441782  )
        34           O1  tau(  34) = (   0.0092240   2.9805883  10.6323155  )
        35           O1  tau(  35) = (   1.2778777   4.4660374  12.6604661  )
        36           O1  tau(  36) = (   5.2710664   4.4675109  12.6369154  )
        37           Ti1 tau(  37) = (   0.0243246   5.9574881  12.5203091  )
        38           Ti1 tau(  38) = (   3.3318591   4.4611298  12.5006215  )
        39           O1  tau(  39) = (   6.5359656   2.9584677  14.7835642  )
        40           O1  tau(  40) = (   3.2771955   2.9708399  13.9242642  )
        41           O1  tau(  41) = (   4.4981441   4.4410618  16.1740548  )
        42           O1  tau(  42) = (   2.0042129   4.4512231  16.1075086  )
        43           Ti1 tau(  43) = (   3.2538698   5.9555144  15.7617387  )
        44           Ti1 tau(  44) = (   6.5531130   4.6830099  15.9084494  )
        45           O1  tau(  45) = (   3.2900926   2.9813045   4.7018136  )
        46           O1  tau(  46) = (   1.3039711   4.4726057   6.0039043  )
        47           O1  tau(  47) = (   5.2763189   4.4711207   6.0039473  )
        48           N1  tau(  48) = (   5.6690603   3.2568973  18.6585782  )
        49           C1  tau(  49) = (   0.0091554   2.6844975  17.9068455  )
        50           H1  tau(  50) = (   0.8805123   2.3964943  18.5001670  )
        51           H1  tau(  51) = (   4.8619660   3.6873350  18.2178346  )
        52           H1  tau(  52) = (   5.8095507   3.4668026  19.6356901  )

     number of k points=    10  Fermi-Dirac smearing, width (Ry)=  0.0073
                       cart. coord. in units 2pi/alat
        k(    1) = (   0.0000000   0.0000000   0.0000000), wk =   0.1250000
        k(    2) = (   0.0000000   0.0419351   0.0000000), wk =   0.2500000
        k(    3) = (   0.0000000  -0.0838702   0.0000000), wk =   0.1250000
        k(    4) = (   0.0379955   0.0000049   0.0000000), wk =   0.2500000
        k(    5) = (   0.0379955   0.0419400   0.0000000), wk =   0.2500000
        k(    6) = (   0.0379955  -0.0838652   0.0000000), wk =   0.2500000
        k(    7) = (   0.0379955  -0.0419301   0.0000000), wk =   0.2500000
        k(    8) = (  -0.0759910  -0.0000099   0.0000000), wk =   0.1250000
        k(    9) = (  -0.0759910   0.0419252   0.0000000), wk =   0.2500000
        k(   10) = (  -0.0759910  -0.0838800   0.0000000), wk =   0.1250000

     Initial potential from superposition of free atoms

     starting charge  373.99917, renormalised to  390.00000

     negative rho (up, down):  1.782E-02 0.000E+00

     %%%%%%%%%%%%%%%%%%%%%%%%%%%%%%%%%%%%%%%%%%%%%%%%%%%%%%%%%%%%%%%%%%%%%%%%
     %                                                                      %
     % You are using vdW-DF, which was implemented by the Thonhauser group. %
     % Please cite the following two papers that made this development      %
     % possible and the two reviews that describe the various versions:     %
     %                                                                      %
     %   T. Thonhauser et al., PRL 115, 136402 (2015).                      %
     %   T. Thonhauser et al., PRB 76, 125112 (2007).                       %
     %   K. Berland et al., Rep. Prog. Phys. 78, 066501 (2015).             %
     %   D.C. Langreth et al., J. Phys.: Condens. Matter 21, 084203 (2009). %
     %                                                                      %
     %                                                                      %
     % If you are calculating the stress with vdW-DF, please also cite:     %
     %                                                                      %
     %   R. Sabatini et al., J. Phys.: Condens. Matter 24, 424209 (2012).   %
     %                                                                      %
     %%%%%%%%%%%%%%%%%%%%%%%%%%%%%%%%%%%%%%%%%%%%%%%%%%%%%%%%%%%%%%%%%%%%%%%%

     Adding external electric field

     Computed dipole along edir(3) :
        Dipole               -5.8555 Ry au,        -14.8831 Debye
        Dipole field         -0.0111 Ry au,

        Potential amp.        1.0243 Ry
        Total length         46.3494 bohr

     Starting wfcs are  295 atomic wfcs
  @ DRIVER MODE: Message from server: STATUS
  @ DRIVER MODE: Message from server: POSDATA
  @ DRIVER MODE: Reading and sharing cell
  @ DRIVER MODE: Reading and sharing positions
  @ DRIVER MODE: Received positions

     Self-consistent Calculation

     iteration #  1     ecut=    29.40 Ry     beta= 0.05
     Davidson diagonalization with overlap
     c_bands:  4 eigenvalues not converged
     c_bands:  1 eigenvalues not converged
     c_bands:  2 eigenvalues not converged
     c_bands:  3 eigenvalues not converged
     c_bands:  3 eigenvalues not converged
     c_bands:  3 eigenvalues not converged
     c_bands:  3 eigenvalues not converged
     c_bands:  3 eigenvalues not converged
     c_bands:  4 eigenvalues not converged
     c_bands:  5 eigenvalues not converged
     ethr =  1.00E-05,  avg # of iterations = 20.0

[...]

     total energy              =   -2777.35419572 Ry
     estimated scf accuracy    <    1560.25027374 Ry

[...]

     iteration #  3     ecut=    29.40 Ry     beta= 0.05
     Davidson diagonalization with overlap
     ethr =  1.00E-02,  avg # of iterations = 15.3

[...]

     iteration # 64     ecut=    29.40 Ry     beta= 0.05
     Davidson diagonalization with overlap
     c_bands:  1 eigenvalues not converged
     ethr =  2.43E-11,  avg # of iterations = 12.9

[...]

     total energy              =   -2919.04286253 Ry
     estimated scf accuracy    <       0.00000008 Ry

     iteration # 66     ecut=    29.40 Ry     beta= 0.05
     Davidson diagonalization with overlap
     ethr =  2.00E-11,  avg # of iterations =  5.3

     negative rho (up, down):  1.802E-02 0.000E+00

     Adding external electric field

     Computed dipole along edir(3) :
        Dipole                1.3825 Ry au,          3.5140 Debye
        Dipole field          0.0026 Ry au,

        Potential amp.       -0.2419 Ry
        Total length         46.3494 bohr

     End of self-consistent calculation

          k = 0.0000 0.0000 0.0000 ( 18029 PWs)   bands (ev):

   -55.5085 -55.4833 -55.4722 -55.4492 -55.4225 -55.3776 -55.3357 -55.3273
   -55.3084 -55.3014 -55.2720 -55.2700 -55.0523 -54.9448 -54.4867 -54.4527
   -32.0755 -31.9709 -31.8691 -31.8470 -31.8368 -31.8039 -31.7962 -31.7738
   -31.7635 -31.7272 -31.7231 -31.7182 -31.6850 -31.6599 -31.6501 -31.6477
   -31.6362 -31.6115 -31.6010 -31.5925 -31.5790 -31.5663 -31.5407 -31.5368
   -31.5356 -31.5158 -31.5131 -31.5086 -31.5073 -31.4982 -31.4841 -31.4687
   -31.4576 -31.4574 -31.4342 -31.4232 -31.4076 -31.3555 -31.2886 -31.1897
   -31.1794 -31.0910 -30.8950 -30.8038 -30.7816 -30.7117 -30.6250 -30.5139
   -17.0322 -16.3079 -16.0239 -15.8594 -15.7165 -15.6856 -15.5751 -15.4000
   -15.3214 -15.2469 -15.2277 -15.1480 -15.1314 -15.1164 -15.0966 -15.0379
   -15.0301 -14.9850 -14.9800 -14.9445 -14.9259 -14.8941 -14.8766 -14.8692
   -14.8139 -14.7745 -14.7109 -14.6447 -14.5896 -14.1176 -12.9895 -12.8725
    -9.4515  -7.2428  -4.6092  -3.6652  -3.4957  -3.4149  -3.4055  -3.3843
    -3.1954  -3.1188  -2.8432  -2.7498  -2.7148  -2.7086  -2.6819  -2.6216
    -2.5494  -2.4504  -2.3792  -2.3496  -2.3294  -2.3223  -2.3109  -2.2954
    -2.2857  -2.2547  -2.1815  -2.1236  -2.0511  -1.9695  -1.8944  -1.8787
    -1.8183  -1.7904  -1.7754  -1.7691  -1.7620  -1.7366  -1.7313  -1.6402
    -1.5497  -1.5109  -1.4110  -1.3885  -1.2926  -1.1584  -1.1305  -1.0264
    -1.0193  -0.9635  -0.9387  -0.8950  -0.8454  -0.8371  -0.8188  -0.6760
    -0.6088  -0.5478  -0.4891  -0.4625  -0.4438  -0.3565  -0.2902  -0.2832
    -0.2658  -0.2436  -0.0693  -0.0376  -0.0176   0.0054   0.0201   0.1095
     0.1413   0.2164   0.2962   0.3108   0.3157   0.3932   0.4163   0.4596
     0.4620   0.4893   0.4947   0.6658   0.6763   0.7027   0.7338   0.8145
     0.8978   1.1028   1.1253   1.1674   1.4510   1.5176   1.5356   1.7232
     2.1091   2.1560   3.5818   3.6866   3.7190   3.7346   3.7626   3.8329
     3.8986   4.0775   4.0847   4.1155   4.1213

[...]

          k = 0.0380-0.0419 0.0000 ( 17876 PWs)   bands (ev):

[...]

          k =-0.0760-0.0000 0.0000 ( 17886 PWs)   bands (ev):

[...]

          k =-0.0760-0.0839 0.0000 ( 17948 PWs)   bands (ev):

   -55.4928 -55.4878 -55.4665 -55.4658 -55.4193 -55.3687 -55.3445 -55.3304
   -55.2897 -55.2881 -55.2877 -55.2860 -55.0495 -54.9475 -54.4697 -54.4696
   -31.8809 -31.8769 -31.8116 -31.7864 -31.7857 -31.7745 -31.7595 -31.7588
   -31.7192 -31.7139 -31.7121 -31.7049 -31.6756 -31.6387 -31.6298 -31.6258
   -31.6253 -31.6228 -31.6185 -31.6171 -31.6070 -31.5863 -31.5856 -31.5730
   -31.5696 -31.5590 -31.5466 -31.5304 -31.5229 -31.5205 -31.5044 -31.5036
   -31.5031 -31.5019 -31.4765 -31.4664 -31.4627 -31.3600 -31.2839 -31.2084
   -31.1824 -31.1749 -30.7943 -30.7942 -30.7077 -30.7075 -30.6684 -30.6684
   -17.0272 -15.7656 -15.7039 -15.5678 -15.4870 -15.4650 -15.4533 -15.4292
   -15.2907 -15.2752 -15.2567 -15.2071 -15.2035 -15.2009 -15.1612 -15.1049
   -15.0715 -15.0690 -15.0604 -15.0341 -14.9995 -14.9942 -14.9599 -14.9514
   -14.9379 -14.8483 -14.8430 -14.8407 -14.6678 -14.3417 -12.9742 -12.9741
    -9.4563  -7.2441  -4.5909  -3.0485  -2.9750  -2.8144  -2.7124  -2.6825
    -2.6505  -2.5068  -2.4721  -2.4619  -2.4490  -2.4119  -2.3974  -2.3822
    -2.3528  -2.3387  -2.3343  -2.3161  -2.3052  -2.2930  -2.2490  -2.2074
    -2.2029  -2.1957  -2.1649  -2.1451  -2.1327  -2.1038  -2.0845  -2.0687
    -2.0547  -2.0079  -1.8328  -1.8016  -1.7015  -1.6810  -1.6719  -1.6506
    -1.5835  -1.5564  -1.5242  -1.4848  -1.4338  -1.3103  -1.2444  -1.2233
    -1.1937  -1.1840  -1.1315  -1.0102  -0.9743  -0.9516  -0.9051  -0.8684
    -0.8241  -0.8136  -0.6938  -0.6884  -0.6430  -0.6004  -0.4871  -0.4700
    -0.4607  -0.4482  -0.4341  -0.3049  -0.2954  -0.2887  -0.2712  -0.2273
    -0.2103  -0.1046  -0.0043   0.0096   0.1119   0.1649   0.2893   0.3527
     0.4487   0.4947   0.5188   0.6091   0.6447   0.7268   0.7495   0.8033
     0.8149   0.9108   0.9654   0.9837   0.9917   1.0595   1.8956   1.8964
     1.9759   1.9761   3.7423   3.8379   3.8762   3.8983   3.9441   4.1027
     4.1185   4.1660   4.1688   4.1843   4.2657

     the Fermi energy is     3.6395 ev

!    total energy              =   -2919.04288507 Ry
     estimated scf accuracy    <       0.00000003 Ry
     smearing contrib. (-TS)   =      -0.03611425 Ry
     internal energy E=F+TS    =   -2919.00677082 Ry

     The total energy is F=E-TS. E is the sum of the following terms:
     one-electron contribution =  -24479.29801081 Ry
     hartree contribution      =   12327.82559698 Ry
     xc contribution           =    -480.00092012 Ry
     ewald contribution        =    9712.46295616 Ry
     electric field correction =       0.00360697 Ry

     convergence has been achieved in  66 iterations

     Forces acting on atoms (cartesian axes, Ry/au):

     atom    1 type  1   force =     0.00009701   -0.00020664    0.09493801
     atom    2 type  1   force =    -0.00023001   -0.00036288   -0.17676196
     atom    3 type  2   force =    -0.00004460   -0.00006595   -0.02291640
     atom    4 type  2   force =    -0.00004409   -0.00167836    0.05578310
     atom    5 type  2   force =    -0.01135833   -0.00122928    0.00625110
     atom    6 type  2   force =     0.01253703   -0.00034716    0.00441465
     atom    7 type  1   force =    -0.00113807    0.00152686   -0.01377492
     atom    8 type  1   force =     0.00062719    0.00694541    0.01264150
     atom    9 type  2   force =     0.00020277   -0.00005254    0.00013418
     atom   10 type  2   force =    -0.00163943    0.00010213   -0.00996368
     atom   11 type  2   force =    -0.00020918    0.00002684    0.00014461
     atom   12 type  2   force =     0.00023565    0.00011244   -0.00007989
     atom   13 type  1   force =     0.00006706   -0.00001052    0.00033979
     atom   14 type  1   force =     0.00001374   -0.00015159    0.00021485
     atom   15 type  2   force =     0.00002079   -0.00000132   -0.00002306
     atom   16 type  2   force =     0.00025756    0.00028365   -0.00001431
     atom   17 type  2   force =    -0.00006571   -0.00020171    0.00026426
     atom   18 type  2   force =     0.00037229    0.00009000    0.00015513
     atom   19 type  1   force =     0.00035108   -0.00000545   -0.00017854
     atom   20 type  1   force =     0.00023975    0.00002440    0.00008779
     atom   21 type  2   force =     0.00004601   -0.00004327    0.10360681
     atom   22 type  2   force =     0.00002691    0.00011937    0.00020265
     atom   23 type  2   force =    -0.07098411   -0.00016662   -0.02732691
     atom   24 type  2   force =     0.07083530    0.00031564   -0.02734075
     atom   25 type  1   force =    -0.00012331   -0.00020444    0.09464043
     atom   26 type  1   force =    -0.00019729   -0.00046929   -0.17691138
     atom   27 type  2   force =     0.00007003   -0.00035365   -0.02193885
     atom   28 type  2   force =     0.00003738   -0.00139054    0.05533380
     atom   29 type  2   force =    -0.01158310   -0.00008987    0.00586246
     atom   30 type  2   force =     0.01265397    0.00013130    0.00407871
     atom   31 type  1   force =    -0.00125150    0.00417012   -0.01464695
     atom   32 type  1   force =     0.00055492   -0.00777120    0.01249667
     atom   33 type  2   force =    -0.00001327    0.00009487    0.00004602
     atom   34 type  2   force =    -0.00127339    0.00083060   -0.00837302
     atom   35 type  2   force =     0.00011898    0.00020202   -0.00002201
     atom   36 type  2   force =     0.00011432    0.00004353    0.00017194
     atom   37 type  1   force =     0.00003030    0.00000364    0.00002161
     atom   38 type  1   force =    -0.00003455   -0.00016287   -0.00015332
     atom   39 type  2   force =    -0.00017221   -0.00017540   -0.00011255
     atom   40 type  2   force =     0.00023316   -0.00002462   -0.00016526
     atom   41 type  2   force =     0.00028666   -0.00011201    0.00021359
     atom   42 type  2   force =    -0.00007705    0.00012404   -0.00037817
     atom   43 type  1   force =    -0.00025988    0.00001601    0.00017465
     atom   44 type  1   force =     0.00049140   -0.00015856    0.00015459
     atom   45 type  2   force =     0.00003400   -0.00004911    0.10357638
     atom   46 type  2   force =    -0.07098771   -0.00007019   -0.02731731
     atom   47 type  2   force =     0.07084614    0.00032788   -0.02734780
     atom   48 type  3   force =     0.00000512   -0.00078037   -0.00422710
     atom   49 type  4   force =    -0.00017608    0.00004320   -0.00040694
     atom   50 type  5   force =     0.00021204   -0.00033180   -0.00031005
     atom   51 type  5   force =     0.00066297   -0.00021833    0.00040670
     atom   52 type  5   force =    -0.00041867    0.00135157    0.00433514

     Total force =     0.366094     Total SCF correction =     0.000445
  @ DRIVER MODE: Message from server: STATUS
  @ DRIVER MODE: Message from server: GETFORCE
  @ DRIVER MODE: Returning v,forces,stress,ensemble

     Writing output data file ./calc.save/
  @ DRIVER MODE: Message from server: EXIT
  @ DRIVE MODE: Exiting

     General routines

     Parallel routines

   This run was terminated on:   2:42:48  24Aug2021

   JOB DONE.