     Program PWSCF v.6.7GPU starts on 23Sep2021 at  8:46:35

     R & G space division:  proc/nbgrp/npool/nimage =      10
     Reading input from /storage/home/hcoda1/3/ntian30/research/carbon/CxH_vib/H2O_calc/ads_slab/CH2N2HHO_a/out_0048/pw.inp
Warning: card &CELL ignored
Warning: card   CELL_DYNAMICS='IPI', ignored
Warning: card / ignored

     Current dimensions of program PWSCF are:
     Max number of different atomic species (ntypx) = 10
     Max number of k-points (npk) =  40000
     Max angular momentum in pseudopotentials (lmaxx) =  3
     Presently no symmetry can be used with electric field

     Message from routine cell_base_init:
     DEPRECATED: use true lattice parameter, not A to a.u. conversion factor

     IMPORTANT: XC functional enforced from input :
     Exchange-correlation= BEEF-VDW
                           (   1   4  43  14   2   0   0)
     Any further DFT definition will be discarded
     Please, verify this is what you really want

  @ DRIVER MODE: Connecting to
 qe_1139763_2937323.sched-torque.pace.gatech.edu1ku0a8oe_scratch
  using UNIX socket
  @ DRIVER MODE: Message from server: STATUS
  @ DRIVER MODE: Message from server: INIT
  @ DRIVER MODE: Receiving replica           0          -1
  @ DRIVER MODE: Receiving encoded integer          25
  @ DRIVER MODE:  SCF:  T  FORCE:  T  STRESS:  F  VC:  F  ENSEMBLE:  F
  @ DRIVER MODE:  SCF:  T  FORCE:  T  STRESS:  F  VC:  F  ENSEMBLE:  F

     Using Slab Decomposition

     bravais-lattice index     =            0
     lattice parameter (alat)  =       1.8897  a.u.
     unit-cell volume          =    6658.9804 (a.u.)^3
     number of atoms/cell      =           55
     number of atomic types    =            5
     number of electrons       =       402.00
     number of Kohn-Sham states=          211
     kinetic-energy cutoff     =      29.3995  Ry
     charge density cutoff     =     293.9946  Ry
     scf convergence threshold =      7.3E-08
     mixing beta               =       0.0500
     number of iterations used =            8  plain     mixing
     Exchange-correlation= BEEF-VDW
                           (   1   4  43  14   2   0   0)

     celldm(1)=   1.889726  celldm(2)=   0.000000  celldm(3)=   0.000000
     celldm(4)=   0.000000  celldm(5)=   0.000000  celldm(6)=   0.000000

     crystal axes: (cart. coord. in units of alat)
               a(1) = (   6.579727   0.000000   0.000000 )
               a(2) = (  -0.000775   5.961596   0.000000 )
               a(3) = (   0.000000   0.000000  25.155947 )

     reciprocal axes: (cart. coord. in units 2 pi/alat)
               b(1) = (  0.151982  0.000020  0.000000 )
               b(2) = (  0.000000  0.167740  0.000000 )
               b(3) = (  0.000000  0.000000  0.039752 )

     PseudoPot. # 1 for Ti read from file:
     /storage/coda1/p-amedford6/0/shared/rich_project_chbe-medford/medford-share/data/pseudos_module/espresso/nninc/pbe/van/Ti.UPF
     MD5 check sum: 8e4df49b7f0d34bbd5052bf3f5ea0213
     Pseudo is Ultrasoft, Zval = 12.0
     Generated by new atomic code, or converted to UPF format
     Using radial grid of  851 points,  6 beta functions with:
                l(1) =   0
                l(2) =   0
                l(3) =   1
                l(4) =   1
                l(5) =   2
                l(6) =   2
     Q(r) pseudized with  8 coefficients,  rinner =    1.000   1.000   1.000
                                                       1.000   1.000

     PseudoPot. # 2 for O  read from file:
     /storage/coda1/p-amedford6/0/shared/rich_project_chbe-medford/medford-share/data/pseudos_module/espresso/nninc/pbe/van/O.UPF
     MD5 check sum: 78c19812648e8988a0fe644b0f25305e
     Pseudo is Ultrasoft, Zval =  6.0
     Generated by new atomic code, or converted to UPF format
     Using radial grid of  737 points,  4 beta functions with:
                l(1) =   0
                l(2) =   0
                l(3) =   1
                l(4) =   1
     Q(r) pseudized with  8 coefficients,  rinner =    0.800   0.800   0.800

     PseudoPot. # 3 for N  read from file:
     /storage/coda1/p-amedford6/0/shared/rich_project_chbe-medford/medford-share/data/pseudos_module/espresso/nninc/pbe/van/N.UPF
     MD5 check sum: 90d10febe142ad51ac9d5be1deb811c4
     Pseudo is Ultrasoft, Zval =  5.0
     Generated by new atomic code, or converted to UPF format
     Using radial grid of  729 points,  4 beta functions with:
                l(1) =   0
                l(2) =   0
                l(3) =   1
                l(4) =   1
     Q(r) pseudized with  8 coefficients,  rinner =    0.800   0.800   0.800

     PseudoPot. # 4 for C  read from file:
     /storage/coda1/p-amedford6/0/shared/rich_project_chbe-medford/medford-share/data/pseudos_module/espresso/nninc/pbe/van/C.UPF
     MD5 check sum: 1a69bf6b8db32088f5b2163dbdb77a27
     Pseudo is Ultrasoft, Zval =  4.0
     Generated by new atomic code, or converted to UPF format
     Using radial grid of  721 points,  4 beta functions with:
                l(1) =   0
                l(2) =   0
                l(3) =   1
                l(4) =   1
     Q(r) pseudized with  8 coefficients,  rinner =    0.800   0.800   0.800

     PseudoPot. # 5 for H  read from file:
     /storage/coda1/p-amedford6/0/shared/rich_project_chbe-medford/medford-share/data/pseudos_module/espresso/nninc/pbe/van/H.UPF
     MD5 check sum: b5ee9d7bfd3a09ee7748110bda690ff7
     Pseudo is Ultrasoft, Zval =  1.0
     Generated by new atomic code, or converted to UPF format
     Using radial grid of  615 points,  1 beta functions with:
                l(1) =   0
     Q(r) pseudized with  8 coefficients,  rinner =    0.800

     atomic species   valence    mass     pseudopotential
        Ti1           12.00    47.86700     Ti( 1.00)
        O1             6.00    15.99900     O ( 1.00)
        N1             5.00    14.00700     N ( 1.00)
        C1             4.00    12.01100     C ( 1.00)
        H1             1.00     1.00800     H ( 1.00)

     No symmetry found

   Cartesian axes

     site n.     atom                  positions (alat units)
         1           Ti1 tau(   1) = (   0.0004258   2.9801865   6.0000000  )
         2           Ti1 tau(   2) = (   3.2906075   1.4906267   6.0002472  )
         3           O1  tau(   3) = (   0.0006271   0.0005054   7.9858123  )
         4           O1  tau(   4) = (   3.2906025   0.0005020   7.3038282  )
         5           O1  tau(   5) = (   4.5942328   1.4918067   9.2879030  )
         6           O1  tau(   6) = (   1.9868534   1.4903216   9.2879459  )
         7           Ti1 tau(   7) = (   3.2907910   2.8959150   9.1758416  )
         8           Ti1 tau(   8) = (   0.0015273   1.4827037   9.2680791  )
         9           O1  tau(   9) = (   3.3002520   5.9418316  11.2747492  )
        10           O1  tau(  10) = (   0.0116148   5.9584955  10.6183126  )
        11           O1  tau(  11) = (   1.2897458   1.4862980  12.6211975  )
        12           O1  tau(  12) = (   5.3051886   1.5023792  12.6347999  )
        13           Ti1 tau(  13) = (   0.0146078   2.8478158  12.7200684  )
        14           Ti1 tau(  14) = (   3.3063360   1.3081926  12.6482236  )
        15           O1  tau(  15) = (   0.0235978   5.9609164  14.6274833  )
        16           O1  tau(  16) = (   3.2983906   0.0399142  13.8749830  )
        17           O1  tau(  17) = (   4.5813539   1.5856785  16.0626423  )
        18           O1  tau(  18) = (   2.0324892   1.5097802  16.0098020  )
        19           Ti1 tau(  19) = (   3.2774956   2.9544257  15.6266065  )
        20           Ti1 tau(  20) = (   6.5530467   1.3151789  15.9772938  )
        21           O1  tau(  21) = (   3.2904802   0.0005063   4.7018136  )
        22           O1  tau(  22) = (   6.5059356   5.9265713  17.1294848  )
        23           O1  tau(  23) = (   1.3043587   1.4918075   6.0039043  )
        24           O1  tau(  24) = (   5.2767064   1.4903225   6.0039473  )
        25           Ti1 tau(  25) = (   0.0000382   5.9609847   6.0000000  )
        26           Ti1 tau(  26) = (   3.2902200   4.4714249   6.0002472  )
        27           O1  tau(  27) = (   0.0002396   2.9813036   7.9858123  )
        28           O1  tau(  28) = (   3.2902150   2.9813002   7.3038282  )
        29           O1  tau(  29) = (   4.5938453   4.4726049   9.2879030  )
        30           O1  tau(  30) = (   1.9864658   4.4711199   9.2879459  )
        31           Ti1 tau(  31) = (   3.2891106   5.8743827   9.1763621  )
        32           Ti1 tau(  32) = (   0.0006254   4.4649316   9.2693709  )
        33           O1  tau(  33) = (   3.2992753   3.0242338  11.2405823  )
        34           O1  tau(  34) = (   0.0092240   2.9805883  10.6323155  )
        35           O1  tau(  35) = (   1.2972400   4.4705050  12.6241655  )
        36           O1  tau(  36) = (   5.3008088   4.4694758  12.6340222  )
        37           Ti1 tau(  37) = (   0.0289225   5.8314391  12.5906285  )
        38           Ti1 tau(  38) = (   3.3189507   4.3956991  12.4097224  )
        39           O1  tau(  39) = (   0.0312427   2.9750824  14.7260556  )
        40           O1  tau(  40) = (   3.2762925   2.9668711  13.8358254  )
        41           O1  tau(  41) = (   4.5358187   4.4455929  15.9064879  )
        42           O1  tau(  42) = (   2.0572077   4.4429961  16.0439637  )
        43           Ti1 tau(  43) = (   3.2186928   5.9141907  16.2420754  )
        44           Ti1 tau(  44) = (   6.4642982   4.4840528  15.9061301  )
        45           O1  tau(  45) = (   3.2900926   2.9813045   4.7018136  )
        46           O1  tau(  46) = (   1.3039711   4.4726057   6.0039043  )
        47           O1  tau(  47) = (   5.2763189   4.4711207   6.0039473  )
        48           N1  tau(  48) = (   0.2499663   2.3419386  17.9913213  )
        49           C1  tau(  49) = (   0.6208863   1.8700663  19.1394302  )
        50           H1  tau(  50) = (   0.7431952   2.5333404  19.9929579  )
        51           H1  tau(  51) = (   0.8399735   0.8189210  19.2161768  )
        52           N1  tau(  52) = (   6.5658643   3.6116587  17.7752569  )
        53           H1  tau(  53) = (   0.1300021   4.2235620  18.5825096  )
        54           O1  tau(  54) = (   3.3713844   5.9089882  18.0735649  )
        55           H1  tau(  55) = (   4.1655974   0.3538959  18.4650359  )

     number of k points=    10  Fermi-Dirac smearing, width (Ry)=  0.0073
                       cart. coord. in units 2pi/alat
        k(    1) = (   0.0000000   0.0000000   0.0000000), wk =   0.1250000
        k(    2) = (   0.0000000   0.0419351   0.0000000), wk =   0.2500000
        k(    3) = (   0.0000000  -0.0838702   0.0000000), wk =   0.1250000
        k(    4) = (   0.0379955   0.0000049   0.0000000), wk =   0.2500000
        k(    5) = (   0.0379955   0.0419400   0.0000000), wk =   0.2500000
        k(    6) = (   0.0379955  -0.0838652   0.0000000), wk =   0.2500000
        k(    7) = (   0.0379955  -0.0419301   0.0000000), wk =   0.2500000
        k(    8) = (  -0.0759910  -0.0000099   0.0000000), wk =   0.1250000
        k(    9) = (  -0.0759910   0.0419252   0.0000000), wk =   0.2500000
        k(   10) = (  -0.0759910  -0.0838800   0.0000000), wk =   0.1250000

     Initial potential from superposition of free atoms

     starting charge  385.99915, renormalised to  402.00000

     negative rho (up, down):  1.590E-02 0.000E+00

     %%%%%%%%%%%%%%%%%%%%%%%%%%%%%%%%%%%%%%%%%%%%%%%%%%%%%%%%%%%%%%%%%%%%%%%%
     %                                                                      %
     % You are using vdW-DF, which was implemented by the Thonhauser group. %
     % Please cite the following two papers that made this development      %
     % possible and the two reviews that describe the various versions:     %
     %                                                                      %
     %   T. Thonhauser et al., PRL 115, 136402 (2015).                      %
     %   T. Thonhauser et al., PRB 76, 125112 (2007).                       %
     %   K. Berland et al., Rep. Prog. Phys. 78, 066501 (2015).             %
     %   D.C. Langreth et al., J. Phys.: Condens. Matter 21, 084203 (2009). %
     %                                                                      %
     %                                                                      %
     % If you are calculating the stress with vdW-DF, please also cite:     %
     %                                                                      %
     %   R. Sabatini et al., J. Phys.: Condens. Matter 24, 424209 (2012).   %
     %                                                                      %
     %%%%%%%%%%%%%%%%%%%%%%%%%%%%%%%%%%%%%%%%%%%%%%%%%%%%%%%%%%%%%%%%%%%%%%%%

     Adding external electric field

     Computed dipole along edir(3) :
        Dipole              -11.3535 Ry au,        -28.8577 Debye
        Dipole field         -0.0214 Ry au,

        Potential amp.        1.9861 Ry
        Total length         46.3494 bohr

     Starting wfcs are  304 atomic wfcs
  @ DRIVER MODE: Message from server: STATUS
  @ DRIVER MODE: Message from server: POSDATA
  @ DRIVER MODE: Reading and sharing cell
  @ DRIVER MODE: Reading and sharing positions
  @ DRIVER MODE: Received positions

     Self-consistent Calculation

     iteration #  1     ecut=    29.40 Ry     beta= 0.05
     Davidson diagonalization with overlap
     c_bands:  4 eigenvalues not converged
     c_bands:  3 eigenvalues not converged
     c_bands:  3 eigenvalues not converged
     c_bands:  5 eigenvalues not converged
     c_bands:  5 eigenvalues not converged
     c_bands:  1 eigenvalues not converged
     c_bands:  5 eigenvalues not converged
     c_bands:  4 eigenvalues not converged
     c_bands:  5 eigenvalues not converged
     c_bands:  1 eigenvalues not converged
     ethr =  1.00E-05,  avg # of iterations = 24.0

[...]

     total energy              =   -2410.17308749 Ry
     estimated scf accuracy    <    6308.41546980 Ry

     iteration #  2     ecut=    29.40 Ry     beta= 0.05
     Davidson diagonalization with overlap
     ethr =  1.00E-02,  avg # of iterations = 22.9

[...]

     iteration # 35     ecut=    29.40 Ry     beta= 0.05
     Davidson diagonalization with overlap
     c_bands:  2 eigenvalues not converged
     ethr =  1.94E-06,  avg # of iterations =  9.5

[...]

     total energy              =   -2972.72747145 Ry
     estimated scf accuracy    <       0.00000007 Ry

     iteration # 61     ecut=    29.40 Ry     beta= 0.05
     Davidson diagonalization with overlap
     ethr =  1.84E-11,  avg # of iterations =  3.5

     negative rho (up, down):  1.620E-02 0.000E+00

     Adding external electric field

     Computed dipole along edir(3) :
        Dipole                0.4627 Ry au,          1.1761 Debye
        Dipole field          0.0009 Ry au,

        Potential amp.       -0.0809 Ry
        Total length         46.3494 bohr

     End of self-consistent calculation

          k = 0.0000 0.0000 0.0000 ( 18029 PWs)   bands (ev):

   -56.5372 -56.5035 -55.8848 -55.8493 -55.6219 -55.5624 -55.3780 -55.3239
   -55.2991 -55.2281 -55.1972 -55.1882 -55.1543 -55.0307 -55.0297 -54.9826
   -32.9694 -32.8218 -32.7938 -32.7045 -32.6133 -32.5951 -32.3678 -32.1043
   -32.1024 -32.0752 -32.0280 -32.0243 -31.9913 -31.8675 -31.8506 -31.8428
   -31.7898 -31.7661 -31.7252 -31.7072 -31.6893 -31.6454 -31.6422 -31.5850
   -31.5828 -31.5786 -31.5764 -31.5324 -31.5291 -31.5240 -31.5049 -31.5039
   -31.4823 -31.4776 -31.4218 -31.4026 -31.3980 -31.3518 -31.3152 -31.2924
   -31.2854 -31.2774 -31.2413 -31.2403 -31.2146 -31.2033 -31.1737 -31.1532
   -17.8174 -16.7224 -16.2880 -16.1443 -15.9777 -15.9067 -15.8813 -15.8507
   -15.7849 -15.6106 -15.5329 -15.5071 -15.4982 -15.4388 -15.2712 -15.1747
   -15.1563 -15.0903 -15.0127 -14.9885 -14.9493 -14.8966 -14.8677 -14.8541
   -14.8387 -14.8025 -14.6812 -14.6004 -14.5005 -14.3217 -14.3039 -13.6857
   -13.5762 -11.9693  -7.7244  -5.1542  -4.3588  -4.2728  -3.7945  -3.7687
    -3.6044  -3.4244  -3.3689  -3.2230  -3.1646  -3.1158  -3.0595  -3.0450
    -2.9414  -2.7989  -2.7920  -2.7382  -2.7160  -2.7121  -2.6932  -2.5917
    -2.5263  -2.5173  -2.4221  -2.3304  -2.3089  -2.2704  -2.2304  -2.2228
    -2.1793  -2.1399  -2.0856  -2.0489  -2.0316  -1.9348  -1.9157  -1.8088
    -1.7835  -1.7587  -1.7487  -1.7166  -1.6775  -1.6188  -1.5473  -1.4300
    -1.3406  -1.3213  -1.2488  -1.2434  -1.2182  -1.0558  -1.0149  -1.0128
    -0.9523  -0.8762  -0.8474  -0.7904  -0.7533  -0.7093  -0.6565  -0.6149
    -0.5789  -0.4514  -0.4473  -0.3954  -0.3119  -0.2908  -0.2595  -0.2367
    -0.1560  -0.1002  -0.0637   0.0120   0.0679   0.0744   0.1206   0.1769
     0.2855   0.3292   0.3528   0.3840   0.4265   0.4509   0.5189   0.5661
     0.5971   0.6063   0.6823   0.7840   0.8015   0.8350   0.9256   0.9492
     1.0370   1.0734   1.0892   1.1749   1.1954   1.3730   1.4114   1.5826
     2.3848   2.7272   2.8773   3.1599   3.1752   3.4677   3.6896   3.7171
     3.7202   3.8008   3.9384

[...]

          k = 0.0380-0.0419 0.0000 ( 17876 PWs)   bands (ev):

[...]

          k =-0.0760-0.0000 0.0000 ( 17886 PWs)   bands (ev):

[...]

          k =-0.0760-0.0839 0.0000 ( 17948 PWs)   bands (ev):

   -56.5207 -56.5199 -55.8729 -55.8611 -55.6166 -55.5676 -55.3719 -55.3299
   -55.2971 -55.2267 -55.1990 -55.1718 -55.1706 -55.0321 -55.0224 -54.9898
   -32.8078 -32.8070 -32.7865 -32.7855 -32.6575 -32.6572 -32.1939 -32.1844
   -32.0665 -32.0536 -32.0533 -32.0454 -31.9247 -31.8859 -31.8444 -31.8378
   -31.7947 -31.7885 -31.7011 -31.6687 -31.6259 -31.6087 -31.5904 -31.5854
   -31.5723 -31.5625 -31.5474 -31.5360 -31.5206 -31.5184 -31.5175 -31.5077
   -31.4708 -31.4664 -31.4280 -31.4074 -31.3958 -31.3943 -31.3852 -31.3574
   -31.3563 -31.2970 -31.2785 -31.2568 -31.2443 -31.2420 -31.2171 -31.1760
   -17.8036 -16.1221 -16.1058 -16.1014 -16.0182 -16.0158 -15.8121 -15.8050
   -15.6242 -15.6003 -15.5259 -15.4576 -15.3489 -15.3153 -15.2916 -15.2405
   -15.1947 -15.1669 -15.1100 -15.0779 -14.9956 -14.9640 -14.9483 -14.9372
   -14.9039 -14.8502 -14.7190 -14.6850 -14.6671 -14.5847 -14.4522 -13.6803
   -13.6795 -11.9267  -7.6546  -5.2154  -4.4323  -3.7431  -3.2178  -3.1895
    -3.1407  -3.1316  -2.9334  -2.8932  -2.8713  -2.8204  -2.7839  -2.7692
    -2.7239  -2.7180  -2.6360  -2.5836  -2.5520  -2.5395  -2.5156  -2.4554
    -2.4336  -2.4042  -2.3922  -2.3601  -2.3489  -2.3394  -2.3156  -2.2489
    -2.1991  -2.1469  -2.1133  -2.0722  -2.0160  -2.0105  -1.9761  -1.9673
    -1.8887  -1.7995  -1.7600  -1.6843  -1.6021  -1.5681  -1.5406  -1.5225
    -1.4789  -1.4229  -1.3958  -1.3470  -1.3209  -1.2675  -1.2324  -1.2218
    -1.1555  -1.1179  -1.0505  -1.0286  -0.9493  -0.8372  -0.7813  -0.7578
    -0.7302  -0.7179  -0.6483  -0.5843  -0.5372  -0.5187  -0.4461  -0.4377
    -0.4107  -0.3612  -0.3458  -0.3120  -0.1996  -0.1356  -0.0762   0.0078
     0.0478   0.0849   0.1648   0.2198   0.2424   0.3196   0.3991   0.4797
     0.4961   0.5355   0.5408   0.7074   0.7381   0.8472   0.8799   0.9547
     0.9890   1.0294   1.1502   1.1926   1.2230   1.2243   1.2451   1.2632
     2.3303   3.2971   3.2998   3.3495   3.3576   3.6254   3.6338   3.7712
     3.7732   3.8928   3.9319

     the Fermi energy is     2.6063 ev

!    total energy              =   -2972.72753992 Ry
     estimated scf accuracy    <       0.00000006 Ry
     smearing contrib. (-TS)   =      -0.00743516 Ry
     internal energy E=F+TS    =   -2972.72010476 Ry

     The total energy is F=E-TS. E is the sum of the following terms:
     one-electron contribution =  -24031.16878625 Ry
     hartree contribution      =   12109.24505751 Ry
     xc contribution           =    -493.27921333 Ry
     ewald contribution        =    9442.48243330 Ry
     electric field correction =       0.00040401 Ry

     convergence has been achieved in  61 iterations

     Forces acting on atoms (cartesian axes, Ry/au):

     atom    1 type  1   force =    -0.00000432   -0.00044030    0.11624227
     atom    2 type  1   force =    -0.00007334    0.00012947   -0.15935551
     atom    3 type  2   force =     0.00002419    0.00000594   -0.05255692
     atom    4 type  2   force =     0.00005083   -0.00014110    0.02465941
     atom    5 type  2   force =    -0.00350401   -0.00224597   -0.01043210
     atom    6 type  2   force =     0.00529998   -0.00174624   -0.01063264
     atom    7 type  1   force =     0.00000218   -0.00612985    0.04629501
     atom    8 type  1   force =     0.00041513    0.01612716    0.08040776
     atom    9 type  2   force =    -0.00001283   -0.00062278    0.00013262
     atom   10 type  2   force =    -0.00257415    0.00058410   -0.04980533
     atom   11 type  2   force =    -0.00056147   -0.00013343   -0.00016813
     atom   12 type  2   force =     0.00060061   -0.00028037   -0.00001270
     atom   13 type  1   force =    -0.00019087    0.00043850    0.00001564
     atom   14 type  1   force =     0.00018199    0.00012518   -0.00109291
     atom   15 type  2   force =    -0.00022345   -0.00042812   -0.00055183
     atom   16 type  2   force =     0.00012781   -0.00065732    0.00078106
     atom   17 type  2   force =     0.00005338    0.00062263   -0.00002229
     atom   18 type  2   force =     0.00009852    0.00055064   -0.00027694
     atom   19 type  1   force =    -0.00053654   -0.00035671   -0.00042011
     atom   20 type  1   force =     0.00046350    0.00027742   -0.00013942
     atom   21 type  2   force =     0.00005082    0.00021507    0.09896595
     atom   22 type  2   force =     0.00004624   -0.00052135   -0.00035286
     atom   23 type  2   force =    -0.07986267    0.00004129   -0.03164343
     atom   24 type  2   force =     0.07976313    0.00047273   -0.03170330
     atom   25 type  1   force =     0.00007126   -0.00057186    0.11653111
     atom   26 type  1   force =    -0.00010815   -0.00142687   -0.15987372
     atom   27 type  2   force =     0.00007058   -0.00069912   -0.05057261
     atom   28 type  2   force =     0.00005414    0.00166636    0.02019854
     atom   29 type  2   force =    -0.00170824    0.00505633   -0.01372146
     atom   30 type  2   force =     0.00361935    0.00547799   -0.01385328
     atom   31 type  1   force =    -0.00017144    0.00220613    0.03178475
     atom   32 type  1   force =     0.00032229   -0.01973480    0.08007204
     atom   33 type  2   force =     0.00014151   -0.00035514    0.00013533
     atom   34 type  2   force =    -0.00158715    0.00085301   -0.06334825
     atom   35 type  2   force =     0.00039170    0.00003758   -0.00019044
     atom   36 type  2   force =     0.00016790   -0.00004649   -0.00026185
     atom   37 type  1   force =    -0.00013377   -0.00024274   -0.00055252
     atom   38 type  1   force =     0.00013138    0.00042597    0.00010406
     atom   39 type  2   force =    -0.00028325    0.00057198    0.00011431
     atom   40 type  2   force =     0.00023817    0.00010878    0.00058253
     atom   41 type  2   force =     0.00129308   -0.00000101   -0.00012429
     atom   42 type  2   force =    -0.00127348   -0.00057796    0.00002062
     atom   43 type  1   force =    -0.00012447    0.00073146    0.00017547
     atom   44 type  1   force =    -0.00005153    0.00043256    0.00018412
     atom   45 type  2   force =     0.00004956    0.00003169    0.09877026
     atom   46 type  2   force =    -0.07991686    0.00000724   -0.03164584
     atom   47 type  2   force =     0.07980817    0.00043675   -0.03171705
     atom   48 type  3   force =    -0.00015131    0.00047910   -0.00019025
     atom   49 type  4   force =    -0.00029497    0.00006579   -0.00023431
     atom   50 type  5   force =    -0.00015917   -0.00028652   -0.00018719
     atom   51 type  5   force =     0.00011456    0.00032477   -0.00031695
     atom   52 type  3   force =    -0.00025735   -0.00083639    0.00049508
     atom   53 type  5   force =    -0.00028489    0.00028645   -0.00004985
     atom   54 type  2   force =     0.00562405    0.00285401    0.00250279
     atom   55 type  5   force =    -0.00522632   -0.00316165   -0.00316448

     Total force =     0.396868     Total SCF correction =     0.000594
  @ DRIVER MODE: Message from server: STATUS
  @ DRIVER MODE: Message from server: GETFORCE
  @ DRIVER MODE: Returning v,forces,stress,ensemble

     Writing output data file ./calc.save/
  @ DRIVER MODE: Message from server: EXIT
  @ DRIVE MODE: Exiting

     General routines

     Parallel routines

   This run was terminated on:   9: 3:58  23Sep2021

   JOB DONE.