     Program PWSCF v.6.7GPU starts on 16Sep2021 at  1:24:19

     R & G space division:  proc/nbgrp/npool/nimage =      10
     Reading input from /storage/home/hcoda1/3/ntian30/research/carbon/CxH_vib/H2O_calc/ads_slab/CH2N2H2O_b/out_0030/pw.inp
Warning: card &CELL ignored
Warning: card   CELL_DYNAMICS='IPI', ignored
Warning: card / ignored

     Current dimensions of program PWSCF are:
     Max number of different atomic species (ntypx) = 10
     Max number of k-points (npk) =  40000
     Max angular momentum in pseudopotentials (lmaxx) =  3
     Presently no symmetry can be used with electric field

     Message from routine cell_base_init:
     DEPRECATED: use true lattice parameter, not A to a.u. conversion factor

     IMPORTANT: XC functional enforced from input :
     Exchange-correlation= BEEF-VDW
                           (   1   4  43  14   2   0   0)
     Any further DFT definition will be discarded
     Please, verify this is what you really want

  @ DRIVER MODE: Connecting to
 qe_1139763_2852605.sched-torque.pace.gatech.eduunk88z8s_scratch
  using UNIX socket
  @ DRIVER MODE: Message from server: STATUS
  @ DRIVER MODE: Message from server: INIT
  @ DRIVER MODE: Receiving replica           0          -1
  @ DRIVER MODE: Receiving encoded integer          25
  @ DRIVER MODE:  SCF:  T  FORCE:  T  STRESS:  F  VC:  F  ENSEMBLE:  F
  @ DRIVER MODE:  SCF:  T  FORCE:  T  STRESS:  F  VC:  F  ENSEMBLE:  F

     Using Slab Decomposition

     bravais-lattice index     =            0
     lattice parameter (alat)  =       1.8897  a.u.
     unit-cell volume          =    6658.9804 (a.u.)^3
     number of atoms/cell      =           55
     number of atomic types    =            5
     number of electrons       =       402.00
     number of Kohn-Sham states=          211
     kinetic-energy cutoff     =      29.3995  Ry
     charge density cutoff     =     293.9946  Ry
     scf convergence threshold =      7.3E-08
     mixing beta               =       0.0500
     number of iterations used =            8  plain     mixing
     Exchange-correlation= BEEF-VDW
                           (   1   4  43  14   2   0   0)

     celldm(1)=   1.889726  celldm(2)=   0.000000  celldm(3)=   0.000000
     celldm(4)=   0.000000  celldm(5)=   0.000000  celldm(6)=   0.000000

     crystal axes: (cart. coord. in units of alat)
               a(1) = (   6.579727   0.000000   0.000000 )
               a(2) = (  -0.000775   5.961596   0.000000 )
               a(3) = (   0.000000   0.000000  25.155947 )

     reciprocal axes: (cart. coord. in units 2 pi/alat)
               b(1) = (  0.151982  0.000020  0.000000 )
               b(2) = (  0.000000  0.167740  0.000000 )
               b(3) = (  0.000000  0.000000  0.039752 )

     PseudoPot. # 1 for Ti read from file:
     /storage/coda1/p-amedford6/0/shared/rich_project_chbe-medford/medford-share/data/pseudos_module/espresso/nninc/pbe/van/Ti.UPF
     MD5 check sum: 8e4df49b7f0d34bbd5052bf3f5ea0213
     Pseudo is Ultrasoft, Zval = 12.0
     Generated by new atomic code, or converted to UPF format
     Using radial grid of  851 points,  6 beta functions with:
                l(1) =   0
                l(2) =   0
                l(3) =   1
                l(4) =   1
                l(5) =   2
                l(6) =   2
     Q(r) pseudized with  8 coefficients,  rinner =    1.000   1.000   1.000
                                                       1.000   1.000

     PseudoPot. # 2 for O  read from file:
     /storage/coda1/p-amedford6/0/shared/rich_project_chbe-medford/medford-share/data/pseudos_module/espresso/nninc/pbe/van/O.UPF
     MD5 check sum: 78c19812648e8988a0fe644b0f25305e
     Pseudo is Ultrasoft, Zval =  6.0
     Generated by new atomic code, or converted to UPF format
     Using radial grid of  737 points,  4 beta functions with:
                l(1) =   0
                l(2) =   0
                l(3) =   1
                l(4) =   1
     Q(r) pseudized with  8 coefficients,  rinner =    0.800   0.800   0.800

     PseudoPot. # 3 for N  read from file:
     /storage/coda1/p-amedford6/0/shared/rich_project_chbe-medford/medford-share/data/pseudos_module/espresso/nninc/pbe/van/N.UPF
     MD5 check sum: 90d10febe142ad51ac9d5be1deb811c4
     Pseudo is Ultrasoft, Zval =  5.0
     Generated by new atomic code, or converted to UPF format
     Using radial grid of  729 points,  4 beta functions with:
                l(1) =   0
                l(2) =   0
                l(3) =   1
                l(4) =   1
     Q(r) pseudized with  8 coefficients,  rinner =    0.800   0.800   0.800

     PseudoPot. # 4 for C  read from file:
     /storage/coda1/p-amedford6/0/shared/rich_project_chbe-medford/medford-share/data/pseudos_module/espresso/nninc/pbe/van/C.UPF
     MD5 check sum: 1a69bf6b8db32088f5b2163dbdb77a27
     Pseudo is Ultrasoft, Zval =  4.0
     Generated by new atomic code, or converted to UPF format
     Using radial grid of  721 points,  4 beta functions with:
                l(1) =   0
                l(2) =   0
                l(3) =   1
                l(4) =   1
     Q(r) pseudized with  8 coefficients,  rinner =    0.800   0.800   0.800

     PseudoPot. # 5 for H  read from file:
     /storage/coda1/p-amedford6/0/shared/rich_project_chbe-medford/medford-share/data/pseudos_module/espresso/nninc/pbe/van/H.UPF
     MD5 check sum: b5ee9d7bfd3a09ee7748110bda690ff7
     Pseudo is Ultrasoft, Zval =  1.0
     Generated by new atomic code, or converted to UPF format
     Using radial grid of  615 points,  1 beta functions with:
                l(1) =   0
     Q(r) pseudized with  8 coefficients,  rinner =    0.800

     atomic species   valence    mass     pseudopotential
        Ti1           12.00    47.86700     Ti( 1.00)
        O1             6.00    15.99900     O ( 1.00)
        N1             5.00    14.00700     N ( 1.00)
        C1             4.00    12.01100     C ( 1.00)
        H1             1.00     1.00800     H ( 1.00)

     No symmetry found

   Cartesian axes

     site n.     atom                  positions (alat units)
         1           Ti1 tau(   1) = (   0.0004258   2.9801865   6.0000000  )
         2           Ti1 tau(   2) = (   3.2906075   1.4906267   6.0002472  )
         3           O1  tau(   3) = (   0.0006271   0.0005054   7.9858123  )
         4           O1  tau(   4) = (   3.2906025   0.0005020   7.3038282  )
         5           O1  tau(   5) = (   4.5942328   1.4918067   9.2879030  )
         6           O1  tau(   6) = (   1.9868534   1.4903216   9.2879459  )
         7           Ti1 tau(   7) = (   3.2907910   2.8959150   9.1758416  )
         8           Ti1 tau(   8) = (   0.0015273   1.4827037   9.2680791  )
         9           O1  tau(   9) = (   3.2934429   5.9466490  11.3040654  )
        10           O1  tau(  10) = (   0.0116148   5.9584955  10.6183126  )
        11           O1  tau(  11) = (   1.2867109   1.4782735  12.6190062  )
        12           O1  tau(  12) = (   5.2776945   1.4764076  12.5976694  )
        13           Ti1 tau(  13) = (   0.0846880   2.9559742  12.7004455  )
        14           Ti1 tau(  14) = (   3.4192946   1.4610250  12.4797112  )
        15           O1  tau(  15) = (   0.0040618   5.9510889  14.6015872  )
        16           O1  tau(  16) = (   3.2972055   5.9566395  13.8969661  )
        17           O1  tau(  17) = (   4.5327346   1.5242580  16.0225792  )
        18           O1  tau(  18) = (   2.0474321   1.5095568  15.9818283  )
        19           Ti1 tau(  19) = (   3.2830006   2.9631064  15.6531525  )
        20           Ti1 tau(  20) = (   6.5418150   1.5417905  15.9635021  )
        21           O1  tau(  21) = (   3.2904802   0.0005063   4.7018136  )
        22           O1  tau(  22) = (   0.0063621   0.0138944  17.1794403  )
        23           O1  tau(  23) = (   1.3043587   1.4918075   6.0039043  )
        24           O1  tau(  24) = (   5.2767064   1.4903225   6.0039473  )
        25           Ti1 tau(  25) = (   0.0000382   5.9609847   6.0000000  )
        26           Ti1 tau(  26) = (   3.2902200   4.4714249   6.0002472  )
        27           O1  tau(  27) = (   0.0002396   2.9813036   7.9858123  )
        28           O1  tau(  28) = (   3.2902150   2.9813002   7.3038282  )
        29           O1  tau(  29) = (   4.5938453   4.4726049   9.2879030  )
        30           O1  tau(  30) = (   1.9864658   4.4711199   9.2879459  )
        31           Ti1 tau(  31) = (   3.2891106   5.8743827   9.1763621  )
        32           Ti1 tau(  32) = (   0.0006254   4.4649316   9.2693709  )
        33           O1  tau(  33) = (   3.2987291   2.9703105  11.3060640  )
        34           O1  tau(  34) = (   0.0092240   2.9805883  10.6323155  )
        35           O1  tau(  35) = (   1.2872851   4.4534926  12.6272766  )
        36           O1  tau(  36) = (   5.2800973   4.4624318  12.6062822  )
        37           Ti1 tau(  37) = (   0.1009857   5.9355968  12.6779778  )
        38           Ti1 tau(  38) = (   3.4194502   4.4581092  12.4739500  )
        39           O1  tau(  39) = (   6.5579784   2.9468049  14.6267102  )
        40           O1  tau(  40) = (   3.2950467   2.9662764  13.8528306  )
        41           O1  tau(  41) = (   4.5369278   4.4531499  15.9976687  )
        42           O1  tau(  42) = (   2.0426393   4.4597293  15.9709435  )
        43           Ti1 tau(  43) = (   3.2485613   5.9322867  15.7552632  )
        44           Ti1 tau(  44) = (   6.5504849   4.5932964  16.0494500  )
        45           O1  tau(  45) = (   3.2900926   2.9813045   4.7018136  )
        46           O1  tau(  46) = (   1.3039711   4.4726057   6.0039043  )
        47           O1  tau(  47) = (   5.2763189   4.4711207   6.0039473  )
        48           N1  tau(  48) = (   0.6156314   2.9572148  18.5116157  )
        49           N1  tau(  49) = (   0.0870375   2.9660652  17.3203775  )
        50           C1  tau(  50) = (   6.5561155   3.1780822  19.6039678  )
        51           H1  tau(  51) = (   5.4868456   3.3930584  19.6151425  )
        52           H1  tau(  52) = (   0.5344647   3.1546629  20.5388580  )
        53           O1  tau(  53) = (   3.2552377   5.9566958  18.1335742  )
        54           H1  tau(  54) = (   4.0211122   0.5273114  18.4085372  )
        55           H1  tau(  55) = (   2.4596908   0.4732500  18.4230009  )

     number of k points=    10  Fermi-Dirac smearing, width (Ry)=  0.0073
                       cart. coord. in units 2pi/alat
        k(    1) = (   0.0000000   0.0000000   0.0000000), wk =   0.1250000
        k(    2) = (   0.0000000   0.0419351   0.0000000), wk =   0.2500000
        k(    3) = (   0.0000000  -0.0838702   0.0000000), wk =   0.1250000
        k(    4) = (   0.0379955   0.0000049   0.0000000), wk =   0.2500000
        k(    5) = (   0.0379955   0.0419400   0.0000000), wk =   0.2500000
        k(    6) = (   0.0379955  -0.0838652   0.0000000), wk =   0.2500000
        k(    7) = (   0.0379955  -0.0419301   0.0000000), wk =   0.2500000
        k(    8) = (  -0.0759910  -0.0000099   0.0000000), wk =   0.1250000
        k(    9) = (  -0.0759910   0.0419252   0.0000000), wk =   0.2500000
        k(   10) = (  -0.0759910  -0.0838800   0.0000000), wk =   0.1250000

     Initial potential from superposition of free atoms

     starting charge  385.99915, renormalised to  402.00000

     negative rho (up, down):  1.461E-02 0.000E+00

     %%%%%%%%%%%%%%%%%%%%%%%%%%%%%%%%%%%%%%%%%%%%%%%%%%%%%%%%%%%%%%%%%%%%%%%%
     %                                                                      %
     % You are using vdW-DF, which was implemented by the Thonhauser group. %
     % Please cite the following two papers that made this development      %
     % possible and the two reviews that describe the various versions:     %
     %                                                                      %
     %   T. Thonhauser et al., PRL 115, 136402 (2015).                      %
     %   T. Thonhauser et al., PRB 76, 125112 (2007).                       %
     %   K. Berland et al., Rep. Prog. Phys. 78, 066501 (2015).             %
     %   D.C. Langreth et al., J. Phys.: Condens. Matter 21, 084203 (2009). %
     %                                                                      %
     %                                                                      %
     % If you are calculating the stress with vdW-DF, please also cite:     %
     %                                                                      %
     %   R. Sabatini et al., J. Phys.: Condens. Matter 24, 424209 (2012).   %
     %                                                                      %
     %%%%%%%%%%%%%%%%%%%%%%%%%%%%%%%%%%%%%%%%%%%%%%%%%%%%%%%%%%%%%%%%%%%%%%%%

     Adding external electric field

     Computed dipole along edir(3) :
        Dipole              -11.9616 Ry au,        -30.4033 Debye
        Dipole field         -0.0226 Ry au,

        Potential amp.        2.0925 Ry
        Total length         46.3494 bohr

     Starting wfcs are  304 atomic wfcs
  @ DRIVER MODE: Message from server: STATUS
  @ DRIVER MODE: Message from server: POSDATA
  @ DRIVER MODE: Reading and sharing cell
  @ DRIVER MODE: Reading and sharing positions
  @ DRIVER MODE: Received positions

     Self-consistent Calculation

     iteration #  1     ecut=    29.40 Ry     beta= 0.05
     Davidson diagonalization with overlap
     c_bands:  4 eigenvalues not converged
     c_bands:  3 eigenvalues not converged
     c_bands:  5 eigenvalues not converged
     c_bands:  3 eigenvalues not converged
     c_bands:  3 eigenvalues not converged
     c_bands:  2 eigenvalues not converged
     c_bands:  4 eigenvalues not converged
     c_bands:  4 eigenvalues not converged
     c_bands:  3 eigenvalues not converged
     ethr =  1.00E-05,  avg # of iterations = 21.6

[...]

     total energy              =   -2415.39891518 Ry
     estimated scf accuracy    <    6283.59590983 Ry

     iteration #  2     ecut=    29.40 Ry     beta= 0.05
     Davidson diagonalization with overlap
     ethr =  1.00E-02,  avg # of iterations = 23.3

[...]

     iteration # 54     ecut=    29.40 Ry     beta= 0.05
     Davidson diagonalization with overlap
     c_bands:  1 eigenvalues not converged
     ethr =  1.15E-07,  avg # of iterations =  8.8

[...]

     total energy              =   -2972.73813711 Ry
     estimated scf accuracy    <       0.00000014 Ry

     iteration # 76     ecut=    29.40 Ry     beta= 0.05
     Davidson diagonalization with overlap
     ethr =  3.60E-11,  avg # of iterations =  5.6

     negative rho (up, down):  1.527E-02 0.000E+00

     Adding external electric field

     Computed dipole along edir(3) :
        Dipole                0.6727 Ry au,          1.7099 Debye
        Dipole field          0.0013 Ry au,

        Potential amp.       -0.1177 Ry
        Total length         46.3494 bohr

     End of self-consistent calculation

          k = 0.0000 0.0000 0.0000 ( 18029 PWs)   bands (ev):

   -56.1199 -56.0860 -55.6572 -55.6233 -55.5648 -55.5404 -55.5305 -55.5049
   -55.4196 -55.3708 -55.3302 -55.2619 -54.9360 -54.9020 -54.8613 -54.8219
   -32.5715 -32.4111 -32.3835 -32.2800 -32.1954 -32.1871 -32.1245 -32.0732
   -32.0511 -31.9004 -31.8771 -31.8732 -31.8412 -31.8399 -31.8216 -31.7877
   -31.7776 -31.7746 -31.7607 -31.7593 -31.7541 -31.7198 -31.7179 -31.7107
   -31.6765 -31.6741 -31.6608 -31.6495 -31.6301 -31.5987 -31.5409 -31.5387
   -31.5091 -31.4824 -31.4545 -31.4219 -31.3923 -31.3360 -31.2651 -31.2416
   -31.1536 -31.1075 -31.0742 -31.0683 -31.0581 -31.0347 -30.9571 -30.9477
   -18.6822 -17.4868 -16.4404 -16.2213 -15.9861 -15.7474 -15.6962 -15.5802
   -15.5664 -15.5588 -15.4457 -15.4283 -15.3716 -15.2655 -15.1955 -15.1591
   -15.1057 -15.0974 -15.0736 -14.9804 -14.9658 -14.9496 -14.9381 -14.8632
   -14.8201 -14.7998 -14.6931 -14.6255 -14.5602 -14.5312 -14.2358 -13.4363
   -13.3230 -11.6553  -6.5383  -6.4416  -4.4084  -3.9408  -3.9110  -3.7211
    -3.5598  -3.4580  -3.3293  -3.3126  -3.1844  -3.0756  -2.9451  -2.8856
    -2.8780  -2.8065  -2.7824  -2.7750  -2.6398  -2.6008  -2.5584  -2.5352
    -2.5048  -2.4280  -2.4151  -2.3593  -2.3191  -2.2857  -2.1800  -2.1410
    -2.1010  -2.0859  -2.0621  -2.0171  -1.9809  -1.9592  -1.9493  -1.9356
    -1.8968  -1.8050  -1.7551  -1.6562  -1.6004  -1.4998  -1.4560  -1.4402
    -1.3742  -1.2830  -1.1642  -1.1508  -1.0802  -1.0396  -0.9936  -0.9663
    -0.8925  -0.8831  -0.8133  -0.7730  -0.6999  -0.6496  -0.6173  -0.5940
    -0.5710  -0.4750  -0.4258  -0.3468  -0.2887  -0.2330  -0.2115  -0.1186
    -0.0897  -0.0575  -0.0328   0.0247   0.0669   0.0841   0.1045   0.1296
     0.1626   0.1867   0.3067   0.3599   0.3731   0.4065   0.4310   0.5412
     0.6020   0.6773   0.7365   0.7776   0.8803   0.8962   0.9407   1.0663
     1.0791   1.0861   1.1446   1.3039   1.6185   1.6443   1.6852   1.7777
     2.9508   3.1087   3.2252   3.4470   3.5453   3.5801   3.8452   3.9516
     3.9893   4.0008   4.0175

[...]

          k = 0.0380-0.0419 0.0000 ( 17876 PWs)   bands (ev):

[...]

          k =-0.0760-0.0000 0.0000 ( 17886 PWs)   bands (ev):

[...]

          k =-0.0760-0.0839 0.0000 ( 17948 PWs)   bands (ev):

   -56.1029 -56.1028 -55.6424 -55.6379 -55.5507 -55.5446 -55.5241 -55.5211
   -55.4176 -55.3609 -55.3399 -55.2637 -54.9190 -54.9188 -54.8514 -54.8317
   -32.3967 -32.3964 -32.3875 -32.3874 -32.2318 -32.2316 -31.9491 -31.9438
   -31.8943 -31.8930 -31.8902 -31.8697 -31.8328 -31.8279 -31.8092 -31.8079
   -31.7918 -31.7881 -31.7655 -31.7597 -31.7565 -31.7511 -31.7507 -31.7448
   -31.7109 -31.6720 -31.6665 -31.6596 -31.6342 -31.6231 -31.5873 -31.5731
   -31.5659 -31.5299 -31.5150 -31.4628 -31.2733 -31.2546 -31.2544 -31.1592
   -31.1500 -31.1498 -31.1111 -31.1110 -31.0668 -31.0543 -31.0455 -31.0274
   -18.6811 -17.4811 -15.8155 -15.8101 -15.7433 -15.7394 -15.6703 -15.6077
   -15.5076 -15.5038 -15.4607 -15.3730 -15.2952 -15.2764 -15.2063 -15.1997
   -15.1979 -15.1892 -15.1206 -15.1102 -15.0752 -15.0522 -15.0270 -15.0235
   -14.9949 -14.9717 -14.7586 -14.7021 -14.6358 -14.5604 -14.4102 -13.4258
   -13.4256 -11.6604  -6.5231  -6.4465  -4.3603  -3.9049  -3.1323  -3.0178
    -2.9362  -2.9247  -2.8989  -2.8043  -2.7835  -2.7367  -2.7105  -2.6897
    -2.6149  -2.6033  -2.5514  -2.5458  -2.5124  -2.4952  -2.4417  -2.4318
    -2.4215  -2.4164  -2.3676  -2.3323  -2.3283  -2.3178  -2.2957  -2.2271
    -2.1643  -2.1261  -2.0882  -2.0731  -2.0706  -2.0135  -1.9874  -1.9543
    -1.9022  -1.8983  -1.8645  -1.8134  -1.6842  -1.6736  -1.5422  -1.4706
    -1.4519  -1.3728  -1.3231  -1.2900  -1.2167  -1.1661  -1.1366  -1.0293
    -1.0076  -0.9759  -0.9613  -0.9270  -0.9221  -0.8822  -0.7745  -0.7534
    -0.7157  -0.7125  -0.6337  -0.6038  -0.5504  -0.5297  -0.5170  -0.4751
    -0.4566  -0.3740  -0.3503  -0.2943  -0.2400  -0.1973  -0.1466  -0.0950
    -0.0114   0.0542   0.1080   0.1993   0.2023   0.2142   0.4197   0.4254
     0.5247   0.6077   0.7340   0.7598   0.7739   0.8779   0.9180   0.9415
     0.9689   1.1330   1.1748   1.4700   1.4716   1.5015   1.5019   1.7267
     2.8913   3.6424   3.6425   3.6785   3.6798   3.9119   3.9163   3.9641
     3.9703   4.0261   4.0503

     the Fermi energy is     3.0503 ev

!    total energy              =   -2972.73815179 Ry
     estimated scf accuracy    <       0.00000007 Ry
     smearing contrib. (-TS)   =      -0.01267703 Ry
     internal energy E=F+TS    =   -2972.72547475 Ry

     The total energy is F=E-TS. E is the sum of the following terms:
     one-electron contribution =  -24070.92407418 Ry
     hartree contribution      =   12129.06696220 Ry
     xc contribution           =    -493.17134987 Ry
     ewald contribution        =    9462.30213309 Ry
     electric field correction =       0.00085402 Ry

     convergence has been achieved in  76 iterations

     Forces acting on atoms (cartesian axes, Ry/au):

     atom    1 type  1   force =     0.00013177   -0.00030220    0.10880237
     atom    2 type  1   force =    -0.00011178   -0.00042019   -0.16775722
     atom    3 type  2   force =    -0.00015658   -0.00000810   -0.04386806
     atom    4 type  2   force =     0.00004957   -0.00074994    0.03932493
     atom    5 type  2   force =    -0.01328920    0.00016680   -0.00458104
     atom    6 type  2   force =     0.01488624    0.00103907   -0.00540527
     atom    7 type  1   force =    -0.00093331   -0.00251747    0.01166734
     atom    8 type  1   force =     0.00124616    0.00154145    0.07745073
     atom    9 type  2   force =    -0.00005559   -0.00014882   -0.00024691
     atom   10 type  2   force =    -0.00115020    0.00039024   -0.05117382
     atom   11 type  2   force =    -0.00008341    0.00036557    0.00009475
     atom   12 type  2   force =     0.00000285    0.00024913    0.00005529
     atom   13 type  1   force =     0.00045606    0.00000831    0.00004171
     atom   14 type  1   force =    -0.00023925   -0.00008252    0.00014016
     atom   15 type  2   force =    -0.00020221   -0.00011560    0.00041701
     atom   16 type  2   force =     0.00013460    0.00001855   -0.00006862
     atom   17 type  2   force =    -0.00073476    0.00035401   -0.00013681
     atom   18 type  2   force =     0.00035833    0.00029957   -0.00009378
     atom   19 type  1   force =     0.00036951   -0.00015941    0.00012383
     atom   20 type  1   force =    -0.00015527    0.00043844   -0.00010852
     atom   21 type  2   force =     0.00007908    0.00005678    0.10126037
     atom   22 type  2   force =    -0.00010023   -0.00004546    0.00008558
     atom   23 type  2   force =    -0.07508790   -0.00002492   -0.03016402
     atom   24 type  2   force =     0.07506058    0.00043103   -0.03016139
     atom   25 type  1   force =     0.00021078   -0.00028539    0.10845335
     atom   26 type  1   force =    -0.00010011   -0.00043922   -0.16777262
     atom   27 type  2   force =    -0.00002130   -0.00025243   -0.04286961
     atom   28 type  2   force =     0.00011462   -0.00047296    0.03868986
     atom   29 type  2   force =    -0.01360791    0.00094554   -0.00481119
     atom   30 type  2   force =     0.01513920    0.00120848   -0.00568675
     atom   31 type  1   force =    -0.00125350    0.00050959    0.00736694
     atom   32 type  1   force =     0.00132890   -0.00408499    0.07788741
     atom   33 type  2   force =    -0.00005887    0.00012487   -0.00027218
     atom   34 type  2   force =    -0.00137948    0.00034816   -0.05723160
     atom   35 type  2   force =    -0.00001837   -0.00050006   -0.00004599
     atom   36 type  2   force =    -0.00034437   -0.00022324   -0.00014622
     atom   37 type  1   force =    -0.00006763   -0.00001962   -0.00026868
     atom   38 type  1   force =    -0.00020041    0.00021689   -0.00013637
     atom   39 type  2   force =     0.00000787   -0.00002419   -0.00048500
     atom   40 type  2   force =    -0.00001538    0.00028883    0.00022005
     atom   41 type  2   force =    -0.00004515   -0.00011013    0.00005520
     atom   42 type  2   force =    -0.00029411    0.00004920   -0.00004544
     atom   43 type  1   force =     0.00029721    0.00076860    0.00021306
     atom   44 type  1   force =    -0.00006704    0.00007840    0.00016236
     atom   45 type  2   force =     0.00006682    0.00003870    0.10119413
     atom   46 type  2   force =    -0.07507507    0.00004357   -0.03012523
     atom   47 type  2   force =     0.07505062    0.00047679   -0.03013724
     atom   48 type  3   force =     0.00037863    0.00002112    0.00161063
     atom   49 type  3   force =     0.00013395    0.00024906    0.00001364
     atom   50 type  4   force =     0.00444902   -0.00007614    0.00886156
     atom   51 type  5   force =     0.00010951    0.00053126   -0.00034916
     atom   52 type  5   force =    -0.00494603   -0.00009065   -0.01001191
     atom   53 type  2   force =     0.00042149    0.00057389    0.00037182
     atom   54 type  5   force =    -0.00083764   -0.00090015   -0.00017956
     atom   55 type  5   force =     0.00014872    0.00022191   -0.00022388

     Total force =     0.390778     Total SCF correction =     0.000645
  @ DRIVER MODE: Message from server: STATUS
  @ DRIVER MODE: Message from server: GETFORCE
  @ DRIVER MODE: Returning v,forces,stress,ensemble

     Writing output data file ./calc.save/
  @ DRIVER MODE: Message from server: EXIT
  @ DRIVE MODE: Exiting

     General routines

     Parallel routines

   This run was terminated on:   1:47:11  16Sep2021

   JOB DONE.