     Program PWSCF v.6.7GPU starts on 23Sep2021 at 20:56:38

     R & G space division:  proc/nbgrp/npool/nimage =       8
     Reading input from /storage/home/hcoda1/3/ntian30/research/carbon/CxH_vib/H2O_calc/ads_slab/CH3NNHHHHO_a/out_0025/pw.inp
Warning: card &CELL ignored
Warning: card   CELL_DYNAMICS='IPI', ignored
Warning: card / ignored

     Current dimensions of program PWSCF are:
     Max number of different atomic species (ntypx) = 10
     Max number of k-points (npk) =  40000
     Max angular momentum in pseudopotentials (lmaxx) =  3
     Presently no symmetry can be used with electric field

     Message from routine cell_base_init:
     DEPRECATED: use true lattice parameter, not A to a.u. conversion factor

     IMPORTANT: XC functional enforced from input :
     Exchange-correlation= BEEF-VDW
                           (   1   4  43  14   2   0   0)
     Any further DFT definition will be discarded
     Please, verify this is what you really want

  @ DRIVER MODE: Connecting to
 qe_1139763_2947308.sched-torque.pace.gatech.eduyh9mxu5__scratch
  using UNIX socket
  @ DRIVER MODE: Message from server: STATUS
  @ DRIVER MODE: Message from server: INIT
  @ DRIVER MODE: Receiving replica           0          -1
  @ DRIVER MODE: Receiving encoded integer          25
  @ DRIVER MODE:  SCF:  T  FORCE:  T  STRESS:  F  VC:  F  ENSEMBLE:  F
  @ DRIVER MODE:  SCF:  T  FORCE:  T  STRESS:  F  VC:  F  ENSEMBLE:  F

     Using Slab Decomposition

     bravais-lattice index     =            0
     lattice parameter (alat)  =       1.8897  a.u.
     unit-cell volume          =    6658.9804 (a.u.)^3
     number of atoms/cell      =           58
     number of atomic types    =            5
     number of electrons       =       405.00
     number of Kohn-Sham states=          212
     kinetic-energy cutoff     =      29.3995  Ry
     charge density cutoff     =     293.9946  Ry
     scf convergence threshold =      7.3E-08
     mixing beta               =       0.0500
     number of iterations used =            8  plain     mixing
     Exchange-correlation= BEEF-VDW
                           (   1   4  43  14   2   0   0)

     celldm(1)=   1.889726  celldm(2)=   0.000000  celldm(3)=   0.000000
     celldm(4)=   0.000000  celldm(5)=   0.000000  celldm(6)=   0.000000

     crystal axes: (cart. coord. in units of alat)
               a(1) = (   6.579727   0.000000   0.000000 )
               a(2) = (  -0.000775   5.961596   0.000000 )
               a(3) = (   0.000000   0.000000  25.155947 )

     reciprocal axes: (cart. coord. in units 2 pi/alat)
               b(1) = (  0.151982  0.000020  0.000000 )
               b(2) = (  0.000000  0.167740  0.000000 )
               b(3) = (  0.000000  0.000000  0.039752 )

     PseudoPot. # 1 for Ti read from file:
     /storage/coda1/p-amedford6/0/shared/rich_project_chbe-medford/medford-share/data/pseudos_module/espresso/nninc/pbe/van/Ti.UPF
     MD5 check sum: 8e4df49b7f0d34bbd5052bf3f5ea0213
     Pseudo is Ultrasoft, Zval = 12.0
     Generated by new atomic code, or converted to UPF format
     Using radial grid of  851 points,  6 beta functions with:
                l(1) =   0
                l(2) =   0
                l(3) =   1
                l(4) =   1
                l(5) =   2
                l(6) =   2
     Q(r) pseudized with  8 coefficients,  rinner =    1.000   1.000   1.000
                                                       1.000   1.000

     PseudoPot. # 2 for O  read from file:
     /storage/coda1/p-amedford6/0/shared/rich_project_chbe-medford/medford-share/data/pseudos_module/espresso/nninc/pbe/van/O.UPF
     MD5 check sum: 78c19812648e8988a0fe644b0f25305e
     Pseudo is Ultrasoft, Zval =  6.0
     Generated by new atomic code, or converted to UPF format
     Using radial grid of  737 points,  4 beta functions with:
                l(1) =   0
                l(2) =   0
                l(3) =   1
                l(4) =   1
     Q(r) pseudized with  8 coefficients,  rinner =    0.800   0.800   0.800

     PseudoPot. # 3 for N  read from file:
     /storage/coda1/p-amedford6/0/shared/rich_project_chbe-medford/medford-share/data/pseudos_module/espresso/nninc/pbe/van/N.UPF
     MD5 check sum: 90d10febe142ad51ac9d5be1deb811c4
     Pseudo is Ultrasoft, Zval =  5.0
     Generated by new atomic code, or converted to UPF format
     Using radial grid of  729 points,  4 beta functions with:
                l(1) =   0
                l(2) =   0
                l(3) =   1
                l(4) =   1
     Q(r) pseudized with  8 coefficients,  rinner =    0.800   0.800   0.800

     PseudoPot. # 4 for C  read from file:
     /storage/coda1/p-amedford6/0/shared/rich_project_chbe-medford/medford-share/data/pseudos_module/espresso/nninc/pbe/van/C.UPF
     MD5 check sum: 1a69bf6b8db32088f5b2163dbdb77a27
     Pseudo is Ultrasoft, Zval =  4.0
     Generated by new atomic code, or converted to UPF format
     Using radial grid of  721 points,  4 beta functions with:
                l(1) =   0
                l(2) =   0
                l(3) =   1
                l(4) =   1
     Q(r) pseudized with  8 coefficients,  rinner =    0.800   0.800   0.800

     PseudoPot. # 5 for H  read from file:
     /storage/coda1/p-amedford6/0/shared/rich_project_chbe-medford/medford-share/data/pseudos_module/espresso/nninc/pbe/van/H.UPF
     MD5 check sum: b5ee9d7bfd3a09ee7748110bda690ff7
     Pseudo is Ultrasoft, Zval =  1.0
     Generated by new atomic code, or converted to UPF format
     Using radial grid of  615 points,  1 beta functions with:
                l(1) =   0
     Q(r) pseudized with  8 coefficients,  rinner =    0.800

     atomic species   valence    mass     pseudopotential
        Ti1           12.00    47.86700     Ti( 1.00)
        O1             6.00    15.99900     O ( 1.00)
        N1             5.00    14.00700     N ( 1.00)
        C1             4.00    12.01100     C ( 1.00)
        H1             1.00     1.00800     H ( 1.00)

     No symmetry found

   Cartesian axes

     site n.     atom                  positions (alat units)
         1           Ti1 tau(   1) = (   0.0004258   2.9801865   6.0000000  )
         2           Ti1 tau(   2) = (   3.2906075   1.4906267   6.0002472  )
         3           O1  tau(   3) = (   0.0006271   0.0005054   7.9858123  )
         4           O1  tau(   4) = (   3.2906025   0.0005020   7.3038282  )
         5           O1  tau(   5) = (   4.5942328   1.4918067   9.2879030  )
         6           O1  tau(   6) = (   1.9868534   1.4903216   9.2879459  )
         7           Ti1 tau(   7) = (   3.2907910   2.8959150   9.1758416  )
         8           Ti1 tau(   8) = (   0.0015273   1.4827037   9.2680791  )
         9           O1  tau(   9) = (   3.3066316   0.0080679  11.3583267  )
        10           O1  tau(  10) = (   0.0116148   5.9584955  10.6183126  )
        11           O1  tau(  11) = (   1.3000076   1.5005770  12.6434233  )
        12           O1  tau(  12) = (   5.3281586   1.4930334  12.6431679  )
        13           Ti1 tau(  13) = (   0.0126194   3.0144704  12.5166071  )
        14           Ti1 tau(  14) = (   3.3185830   1.5708444  12.4374219  )
        15           O1  tau(  15) = (   0.0449490   0.0685618  14.6579901  )
        16           O1  tau(  16) = (   3.3164028   5.8986079  13.9921319  )
        17           O1  tau(  17) = (   4.5763498   1.4919541  16.1892649  )
        18           O1  tau(  18) = (   2.0390356   1.5007807  16.1677599  )
        19           Ti1 tau(  19) = (   3.3152479   2.9236451  15.6986563  )
        20           Ti1 tau(  20) = (   0.0808212   1.4292116  16.0039943  )
        21           O1  tau(  21) = (   3.2904802   0.0005063   4.7018136  )
        22           O1  tau(  22) = (   0.0303022   5.8046116  17.1736243  )
        23           O1  tau(  23) = (   1.3043587   1.4918075   6.0039043  )
        24           O1  tau(  24) = (   5.2767064   1.4903225   6.0039473  )
        25           Ti1 tau(  25) = (   0.0000382   5.9609847   6.0000000  )
        26           Ti1 tau(  26) = (   3.2902200   4.4714249   6.0002472  )
        27           O1  tau(  27) = (   0.0002396   2.9813036   7.9858123  )
        28           O1  tau(  28) = (   3.2902150   2.9813002   7.3038282  )
        29           O1  tau(  29) = (   4.5938453   4.4726049   9.2879030  )
        30           O1  tau(  30) = (   1.9864658   4.4711199   9.2879459  )
        31           Ti1 tau(  31) = (   3.2891106   5.8743827   9.1763621  )
        32           Ti1 tau(  32) = (   0.0006254   4.4649316   9.2693709  )
        33           O1  tau(  33) = (   3.3101163   2.9547251  11.3177968  )
        34           O1  tau(  34) = (   0.0092240   2.9805883  10.6323155  )
        35           O1  tau(  35) = (   1.2917786   4.4638488  12.6831265  )
        36           O1  tau(  36) = (   5.3332004   4.4701953  12.6833355  )
        37           Ti1 tau(  37) = (   0.0360484   0.0435164  12.5022323  )
        38           Ti1 tau(  38) = (   3.3166134   4.6596848  12.7231989  )
        39           O1  tau(  39) = (   6.5734590   2.9070644  14.8960501  )
        40           O1  tau(  40) = (   3.3256711   2.9499323  13.9293234  )
        41           O1  tau(  41) = (   4.5718193   4.3849529  16.1598725  )
        42           O1  tau(  42) = (   2.0293811   4.3548050  16.0908550  )
        43           Ti1 tau(  43) = (   3.3839698   5.9011270  16.3477160  )
        44           Ti1 tau(  44) = (   0.0762916   4.6312412  15.8077656  )
        45           O1  tau(  45) = (   3.2900926   2.9813045   4.7018136  )
        46           O1  tau(  46) = (   1.3039711   4.4726057   6.0039043  )
        47           O1  tau(  47) = (   5.2763189   4.4711207   6.0039473  )
        48           N1  tau(  48) = (   1.0338470   3.0145746  18.8549854  )
        49           N1  tau(  49) = (   6.4614719   2.5758313  18.0922931  )
        50           C1  tau(  50) = (   0.6385090   3.7489381  20.0602371  )
        51           H1  tau(  51) = (   6.5128770   4.5633600  19.8465500  )
        52           H1  tau(  52) = (   0.1776125   3.0656416  20.7809517  )
        53           H1  tau(  53) = (   1.5398112   4.1767214  20.4987412  )
        54           H1  tau(  54) = (   5.7034478   3.2665398  18.1448723  )
        55           H1  tau(  55) = (   6.1095767   1.7263867  18.5341855  )
        56           H1  tau(  56) = (   1.5400177   3.6533120  18.2466354  )
        57           O1  tau(  57) = (   3.2295176   5.8880611  18.1942677  )
        58           H1  tau(  58) = (   2.6769533   0.6239085  18.5854980  )

     number of k points=    10  Fermi-Dirac smearing, width (Ry)=  0.0073
                       cart. coord. in units 2pi/alat
        k(    1) = (   0.0000000   0.0000000   0.0000000), wk =   0.1250000
        k(    2) = (   0.0000000   0.0419351   0.0000000), wk =   0.2500000
        k(    3) = (   0.0000000  -0.0838702   0.0000000), wk =   0.1250000
        k(    4) = (   0.0379955   0.0000049   0.0000000), wk =   0.2500000
        k(    5) = (   0.0379955   0.0419400   0.0000000), wk =   0.2500000
        k(    6) = (   0.0379955  -0.0838652   0.0000000), wk =   0.2500000
        k(    7) = (   0.0379955  -0.0419301   0.0000000), wk =   0.2500000
        k(    8) = (  -0.0759910  -0.0000099   0.0000000), wk =   0.1250000
        k(    9) = (  -0.0759910   0.0419252   0.0000000), wk =   0.2500000
        k(   10) = (  -0.0759910  -0.0838800   0.0000000), wk =   0.1250000

     Initial potential from superposition of free atoms

     starting charge  388.99913, renormalised to  405.00000

     negative rho (up, down):  1.325E-02 0.000E+00

     %%%%%%%%%%%%%%%%%%%%%%%%%%%%%%%%%%%%%%%%%%%%%%%%%%%%%%%%%%%%%%%%%%%%%%%%
     %                                                                      %
     % You are using vdW-DF, which was implemented by the Thonhauser group. %
     % Please cite the following two papers that made this development      %
     % possible and the two reviews that describe the various versions:     %
     %                                                                      %
     %   T. Thonhauser et al., PRL 115, 136402 (2015).                      %
     %   T. Thonhauser et al., PRB 76, 125112 (2007).                       %
     %   K. Berland et al., Rep. Prog. Phys. 78, 066501 (2015).             %
     %   D.C. Langreth et al., J. Phys.: Condens. Matter 21, 084203 (2009). %
     %                                                                      %
     %                                                                      %
     % If you are calculating the stress with vdW-DF, please also cite:     %
     %                                                                      %
     %   R. Sabatini et al., J. Phys.: Condens. Matter 24, 424209 (2012).   %
     %                                                                      %
     %%%%%%%%%%%%%%%%%%%%%%%%%%%%%%%%%%%%%%%%%%%%%%%%%%%%%%%%%%%%%%%%%%%%%%%%

     Adding external electric field

     Computed dipole along edir(3) :
        Dipole              -14.7651 Ry au,        -37.5293 Debye
        Dipole field         -0.0279 Ry au,

        Potential amp.        2.5829 Ry
        Total length         46.3494 bohr

     Starting wfcs are  307 atomic wfcs
  @ DRIVER MODE: Message from server: STATUS
  @ DRIVER MODE: Message from server: POSDATA
  @ DRIVER MODE: Reading and sharing cell
  @ DRIVER MODE: Reading and sharing positions
  @ DRIVER MODE: Received positions

     Self-consistent Calculation

     iteration #  1     ecut=    29.40 Ry     beta= 0.05
     Davidson diagonalization with overlap
     c_bands:  3 eigenvalues not converged
     c_bands:  4 eigenvalues not converged
     c_bands:  2 eigenvalues not converged
     c_bands:  3 eigenvalues not converged
     c_bands:  3 eigenvalues not converged
     c_bands:  3 eigenvalues not converged
     ethr =  1.00E-05,  avg # of iterations = 23.2

[...]

     total energy              =   -2204.24399658 Ry
     estimated scf accuracy    <    8785.88333757 Ry

[...]

     iteration #  4     ecut=    29.40 Ry     beta= 0.05
     Davidson diagonalization with overlap
     ethr =  1.00E-02,  avg # of iterations = 13.3

[...]

     iteration # 48     ecut=    29.40 Ry     beta= 0.05
     Davidson diagonalization with overlap
     c_bands:  1 eigenvalues not converged
     ethr =  5.16E-07,  avg # of iterations = 14.4

[...]

     total energy              =   -2976.49823947 Ry
     estimated scf accuracy    <       0.00000017 Ry

     iteration # 72     ecut=    29.40 Ry     beta= 0.05
     Davidson diagonalization with overlap
     ethr =  2.82E-11,  avg # of iterations =  8.6

     negative rho (up, down):  1.442E-02 0.000E+00

     Adding external electric field

     Computed dipole along edir(3) :
        Dipole                0.9919 Ry au,          2.5211 Debye
        Dipole field          0.0019 Ry au,

        Potential amp.       -0.1735 Ry
        Total length         46.3494 bohr

     End of self-consistent calculation

          k = 0.0000 0.0000 0.0000 ( 18029 PWs)   bands (ev):

   -55.5828 -55.4992 -55.4651 -55.3643 -55.3430 -55.3271 -55.3132 -55.3066
   -55.2933 -55.2637 -55.2200 -55.0978 -55.0866 -55.0101 -54.4685 -54.4344
   -31.9837 -31.9192 -31.8780 -31.8307 -31.8291 -31.8101 -31.7997 -31.7901
   -31.7502 -31.7452 -31.7271 -31.6517 -31.6280 -31.6076 -31.6057 -31.6038
   -31.5979 -31.5860 -31.5836 -31.5567 -31.5506 -31.5254 -31.5245 -31.5130
   -31.4978 -31.4867 -31.4788 -31.4616 -31.4573 -31.4544 -31.4448 -31.4389
   -31.4350 -31.4157 -31.3738 -31.3719 -31.3012 -31.2944 -31.2800 -31.2597
   -31.2228 -31.2155 -30.8741 -30.7886 -30.7661 -30.6918 -30.6054 -30.4935
   -17.5831 -16.4011 -16.1400 -15.9775 -15.7617 -15.6761 -15.6478 -15.4552
   -15.3498 -15.2969 -15.1105 -15.0645 -15.0340 -15.0227 -15.0076 -14.9849
   -14.9649 -14.9268 -14.9184 -14.9081 -14.9025 -14.8639 -14.8415 -14.7909
   -14.7682 -14.7056 -14.6335 -14.5658 -14.5183 -14.2570 -14.2395 -12.9677
   -12.9668 -12.8505  -9.4550  -6.1529  -5.2061  -4.6379  -3.9627  -3.5044
    -3.4036  -3.3875  -3.3304  -3.2689  -3.1536  -2.9961  -2.8875  -2.8314
    -2.7330  -2.6257  -2.5709  -2.5084  -2.4863  -2.4310  -2.3979  -2.3865
    -2.3794  -2.2832  -2.2747  -2.2475  -2.2120  -2.1561  -2.1404  -2.0623
    -2.0262  -2.0176  -1.8932  -1.8805  -1.8149  -1.8106  -1.8043  -1.7706
    -1.7496  -1.7347  -1.7057  -1.6219  -1.5689  -1.4985  -1.4758  -1.4459
    -1.1867  -1.0948  -1.0571  -1.0292  -0.9315  -0.9153  -0.9019  -0.8983
    -0.8843  -0.8346  -0.7881  -0.7040  -0.5947  -0.5745  -0.5657  -0.5206
    -0.4551  -0.3733  -0.3003  -0.2707  -0.2335  -0.2201  -0.1539  -0.0765
    -0.0604  -0.0481   0.0605   0.0749   0.1572   0.2158   0.2298   0.2746
     0.3156   0.3486   0.4049   0.4413   0.4717   0.4776   0.5110   0.5555
     0.6112   0.6417   0.6695   0.7519   0.8073   0.8527   0.8804   1.0521
     1.0823   1.1399   1.1780   1.2654   1.5079   1.5581   1.5976   1.7525
     2.1245   2.1696   3.5855   3.7366   3.7517   3.8213   3.8463   3.9374
     4.0748   4.1426   4.2761   4.2844

[...]

          k = 0.0380-0.0419 0.0000 ( 17876 PWs)   bands (ev):

[...]

          k =-0.0760-0.0000 0.0000 ( 17886 PWs)   bands (ev):

[...]

          k =-0.0760-0.0839 0.0000 ( 17948 PWs)   bands (ev):

   -55.5820 -55.4823 -55.4819 -55.3631 -55.3298 -55.3197 -55.3138 -55.3102
   -55.3098 -55.2558 -55.2280 -55.0946 -55.0877 -55.0131 -54.4516 -54.4512
   -31.8665 -31.8087 -31.8036 -31.7992 -31.7989 -31.7845 -31.7758 -31.7754
   -31.7066 -31.6504 -31.6425 -31.6351 -31.6303 -31.6170 -31.6022 -31.6021
   -31.5999 -31.5995 -31.5853 -31.5749 -31.5673 -31.5588 -31.5377 -31.5196
   -31.5169 -31.5129 -31.5056 -31.5027 -31.4902 -31.4829 -31.4804 -31.4747
   -31.4696 -31.4509 -31.4452 -31.3680 -31.3558 -31.3420 -31.3031 -31.2984
   -31.2650 -31.2189 -30.7790 -30.7787 -30.6872 -30.6868 -30.6488 -30.6484
   -17.5771 -16.3870 -15.7481 -15.5700 -15.4740 -15.4675 -15.3368 -15.2708
   -15.2621 -15.2275 -15.2089 -15.1939 -15.1610 -15.1435 -15.1039 -15.0512
   -15.0178 -14.9952 -14.9836 -14.9466 -14.9340 -14.9120 -14.9047 -14.8961
   -14.8378 -14.8058 -14.7967 -14.7656 -14.5704 -14.5480 -14.3720 -12.9692
   -12.9524 -12.9523  -9.4525  -6.1381  -5.2078  -4.6479  -3.9588  -3.1487
    -2.9224  -2.7790  -2.7029  -2.5688  -2.5591  -2.5011  -2.4993  -2.4488
    -2.4400  -2.3987  -2.3449  -2.3292  -2.2858  -2.2808  -2.2501  -2.2373
    -2.2267  -2.2177  -2.1924  -2.1730  -2.1641  -2.1232  -2.1188  -2.1029
    -2.0831  -2.0669  -2.0393  -2.0284  -1.9881  -1.9485  -1.8832  -1.8096
    -1.7239  -1.6411  -1.6306  -1.6198  -1.5735  -1.5670  -1.5202  -1.5085
    -1.4613  -1.4097  -1.2957  -1.1730  -1.1332  -1.1068  -1.0747  -1.0426
    -0.9879  -0.9652  -0.9301  -0.8817  -0.8499  -0.7261  -0.7151  -0.6497
    -0.5652  -0.5318  -0.4561  -0.4430  -0.4283  -0.4121  -0.3904  -0.3736
    -0.3441  -0.3281  -0.2237  -0.1998  -0.1966  -0.1739  -0.1230  -0.0202
     0.0538   0.1368   0.2394   0.2891   0.3169   0.3506   0.4506   0.5686
     0.5939   0.6569   0.6888   0.7318   0.7989   0.8196   0.8675   0.9527
     1.0059   1.0384   1.0646   1.0697   1.1243   1.1559   1.9212   1.9297
     1.9899   1.9902   3.7992   4.0754   4.1010   4.1169   4.1542   4.1584
     4.1803   4.1948   4.2604   4.2753

     the Fermi energy is     3.6224 ev

!    total energy              =   -2976.49825497 Ry
     estimated scf accuracy    <       0.00000007 Ry
     smearing contrib. (-TS)   =      -0.01952759 Ry
     internal energy E=F+TS    =   -2976.47872737 Ry

     The total energy is F=E-TS. E is the sum of the following terms:
     one-electron contribution =  -23034.44566839 Ry
     hartree contribution      =   11613.57844016 Ry
     xc contribution           =    -495.70652117 Ry
     ewald contribution        =    8940.09316539 Ry
     electric field correction =       0.00185664 Ry

     convergence has been achieved in  72 iterations

     Forces acting on atoms (cartesian axes, Ry/au):

     atom    1 type  1   force =     0.00000832   -0.00022465    0.09406803
     atom    2 type  1   force =    -0.00016121    0.00025380   -0.17513421
     atom    3 type  2   force =     0.00007342   -0.00016367   -0.02115983
     atom    4 type  2   force =     0.00000316   -0.00103821    0.05354876
     atom    5 type  2   force =    -0.00454242   -0.00322865    0.00113840
     atom    6 type  2   force =     0.00660000   -0.00242822    0.00160196
     atom    7 type  1   force =     0.00037385    0.00457179    0.01038763
     atom    8 type  1   force =    -0.00056058    0.00199011    0.00313194
     atom    9 type  2   force =     0.00010324   -0.00050273   -0.00049792
     atom   10 type  2   force =    -0.00031012   -0.00004139   -0.01131072
     atom   11 type  2   force =    -0.00023485    0.00045098    0.00004307
     atom   12 type  2   force =    -0.00026832    0.00066705    0.00008141
     atom   13 type  1   force =     0.00061462   -0.00064433    0.00025456
     atom   14 type  1   force =    -0.00035586    0.00018110    0.00021187
     atom   15 type  2   force =    -0.00017277    0.00011165    0.00051659
     atom   16 type  2   force =     0.00004768   -0.00004767    0.00038967
     atom   17 type  2   force =    -0.00037598    0.00022766    0.00007355
     atom   18 type  2   force =     0.00002806    0.00008815    0.00023984
     atom   19 type  1   force =    -0.00008840    0.00054270   -0.00030047
     atom   20 type  1   force =    -0.00000760   -0.00013639   -0.00013320
     atom   21 type  2   force =     0.00002808   -0.00001307    0.10311511
     atom   22 type  2   force =    -0.00007122   -0.00015545   -0.00038685
     atom   23 type  2   force =    -0.07214462   -0.00021131   -0.02724891
     atom   24 type  2   force =     0.07205022    0.00023177   -0.02732721
     atom   25 type  1   force =     0.00007010   -0.00034620    0.09405022
     atom   26 type  1   force =    -0.00000243   -0.00128422   -0.17517031
     atom   27 type  2   force =     0.00015245   -0.00021039   -0.01993728
     atom   28 type  2   force =     0.00008669   -0.00111265    0.04907154
     atom   29 type  2   force =    -0.00667691    0.00152302    0.00211223
     atom   30 type  2   force =     0.00854497    0.00170132    0.00248237
     atom   31 type  1   force =     0.00049967   -0.00020110    0.00054336
     atom   32 type  1   force =    -0.00020173   -0.00144989    0.00352084
     atom   33 type  2   force =    -0.00007849    0.00001286   -0.00005366
     atom   34 type  2   force =    -0.00088883    0.00246116   -0.01153630
     atom   35 type  2   force =     0.00003325   -0.00042565    0.00048692
     atom   36 type  2   force =    -0.00053152   -0.00040228    0.00034243
     atom   37 type  1   force =     0.00037146    0.00028733    0.00003877
     atom   38 type  1   force =    -0.00038119    0.00020689    0.00031832
     atom   39 type  2   force =    -0.00050926    0.00041599    0.00048036
     atom   40 type  2   force =    -0.00001986   -0.00007944   -0.00006414
     atom   41 type  2   force =    -0.00039075   -0.00026637    0.00027383
     atom   42 type  2   force =    -0.00021730   -0.00024945   -0.00024745
     atom   43 type  1   force =    -0.00002437   -0.00038012    0.00072891
     atom   44 type  1   force =    -0.00017454    0.00018592    0.00013591
     atom   45 type  2   force =     0.00002252   -0.00001813    0.10296789
     atom   46 type  2   force =    -0.07215455   -0.00008333   -0.02724732
     atom   47 type  2   force =     0.07200653    0.00035392   -0.02728724
     atom   48 type  3   force =     0.00026802   -0.00075366    0.00003772
     atom   49 type  3   force =    -0.00065943    0.00015094    0.00006088
     atom   50 type  4   force =    -0.00303905   -0.00268560    0.00258962
     atom   51 type  5   force =     0.00003504    0.00073589   -0.00046695
     atom   52 type  5   force =     0.00345098    0.00183780   -0.00287041
     atom   53 type  5   force =    -0.00015034   -0.00112919    0.00067596
     atom   54 type  5   force =     0.00018385    0.00023041   -0.00055335
     atom   55 type  5   force =    -0.00015096    0.00030331    0.00043556
     atom   56 type  5   force =     0.00036177    0.00027536   -0.00034224
     atom   57 type  2   force =    -0.00022620    0.00052745   -0.00069056
     atom   58 type  5   force =    -0.00024626   -0.00061293   -0.00018946

     Total force =     0.361771     Total SCF correction =     0.000606
  @ DRIVER MODE: Message from server: STATUS
  @ DRIVER MODE: Message from server: GETFORCE
  @ DRIVER MODE: Returning v,forces,stress,ensemble

     Writing output data file ./calc.save/
  @ DRIVER MODE: Message from server: EXIT
  @ DRIVE MODE: Exiting

     General routines

     Parallel routines

   This run was terminated on:  21:23:49  23Sep2021

   JOB DONE.