     Program PWSCF v.6.7GPU starts on 27Sep2021 at  3: 9:21

     R & G space division:  proc/nbgrp/npool/nimage =       8
     Reading input from /storage/home/hcoda1/3/ntian30/research/carbon/CxH_vib/H2O_calc/ads_slab/CH3OH2O_a/out_0035/pw.inp
Warning: card &CELL ignored
Warning: card   CELL_DYNAMICS='IPI', ignored
Warning: card / ignored

     Current dimensions of program PWSCF are:
     Max number of different atomic species (ntypx) = 10
     Max number of k-points (npk) =  40000
     Max angular momentum in pseudopotentials (lmaxx) =  3
     Presently no symmetry can be used with electric field

     Message from routine cell_base_init:
     DEPRECATED: use true lattice parameter, not A to a.u. conversion factor

     IMPORTANT: XC functional enforced from input :
     Exchange-correlation= BEEF-VDW
                           (   1   4  43  14   2   0   0)
     Any further DFT definition will be discarded
     Please, verify this is what you really want

  @ DRIVER MODE: Connecting to
 qe_1139763_2971673.sched-torque.pace.gatech.eduzv0s00ut_scratch
  using UNIX socket
  @ DRIVER MODE: Message from server: STATUS
  @ DRIVER MODE: Message from server: INIT
  @ DRIVER MODE: Receiving replica           0          -1
  @ DRIVER MODE: Receiving encoded integer          25
  @ DRIVER MODE:  SCF:  T  FORCE:  T  STRESS:  F  VC:  F  ENSEMBLE:  F
  @ DRIVER MODE:  SCF:  T  FORCE:  T  STRESS:  F  VC:  F  ENSEMBLE:  F

     Using Slab Decomposition

     bravais-lattice index     =            0
     lattice parameter (alat)  =       1.8897  a.u.
     unit-cell volume          =    6658.9804 (a.u.)^3
     number of atoms/cell      =           55
     number of atomic types    =            4
     number of electrons       =       399.00
     number of Kohn-Sham states=          209
     kinetic-energy cutoff     =      29.3995  Ry
     charge density cutoff     =     293.9946  Ry
     scf convergence threshold =      7.3E-08
     mixing beta               =       0.0500
     number of iterations used =            8  plain     mixing
     Exchange-correlation= BEEF-VDW
                           (   1   4  43  14   2   0   0)

     celldm(1)=   1.889726  celldm(2)=   0.000000  celldm(3)=   0.000000
     celldm(4)=   0.000000  celldm(5)=   0.000000  celldm(6)=   0.000000

     crystal axes: (cart. coord. in units of alat)
               a(1) = (   6.579727   0.000000   0.000000 )
               a(2) = (  -0.000775   5.961596   0.000000 )
               a(3) = (   0.000000   0.000000  25.155947 )

     reciprocal axes: (cart. coord. in units 2 pi/alat)
               b(1) = (  0.151982  0.000020  0.000000 )
               b(2) = (  0.000000  0.167740  0.000000 )
               b(3) = (  0.000000  0.000000  0.039752 )

     PseudoPot. # 1 for Ti read from file:
     /storage/coda1/p-amedford6/0/shared/rich_project_chbe-medford/medford-share/data/pseudos_module/espresso/nninc/pbe/van/Ti.UPF
     MD5 check sum: 8e4df49b7f0d34bbd5052bf3f5ea0213
     Pseudo is Ultrasoft, Zval = 12.0
     Generated by new atomic code, or converted to UPF format
     Using radial grid of  851 points,  6 beta functions with:
                l(1) =   0
                l(2) =   0
                l(3) =   1
                l(4) =   1
                l(5) =   2
                l(6) =   2
     Q(r) pseudized with  8 coefficients,  rinner =    1.000   1.000   1.000
                                                       1.000   1.000

     PseudoPot. # 2 for O  read from file:
     /storage/coda1/p-amedford6/0/shared/rich_project_chbe-medford/medford-share/data/pseudos_module/espresso/nninc/pbe/van/O.UPF
     MD5 check sum: 78c19812648e8988a0fe644b0f25305e
     Pseudo is Ultrasoft, Zval =  6.0
     Generated by new atomic code, or converted to UPF format
     Using radial grid of  737 points,  4 beta functions with:
                l(1) =   0
                l(2) =   0
                l(3) =   1
                l(4) =   1
     Q(r) pseudized with  8 coefficients,  rinner =    0.800   0.800   0.800

     PseudoPot. # 3 for C  read from file:
     /storage/coda1/p-amedford6/0/shared/rich_project_chbe-medford/medford-share/data/pseudos_module/espresso/nninc/pbe/van/C.UPF
     MD5 check sum: 1a69bf6b8db32088f5b2163dbdb77a27
     Pseudo is Ultrasoft, Zval =  4.0
     Generated by new atomic code, or converted to UPF format
     Using radial grid of  721 points,  4 beta functions with:
                l(1) =   0
                l(2) =   0
                l(3) =   1
                l(4) =   1
     Q(r) pseudized with  8 coefficients,  rinner =    0.800   0.800   0.800

     PseudoPot. # 4 for H  read from file:
     /storage/coda1/p-amedford6/0/shared/rich_project_chbe-medford/medford-share/data/pseudos_module/espresso/nninc/pbe/van/H.UPF
     MD5 check sum: b5ee9d7bfd3a09ee7748110bda690ff7
     Pseudo is Ultrasoft, Zval =  1.0
     Generated by new atomic code, or converted to UPF format
     Using radial grid of  615 points,  1 beta functions with:
                l(1) =   0
     Q(r) pseudized with  8 coefficients,  rinner =    0.800

     atomic species   valence    mass     pseudopotential
        Ti1           12.00    47.86700     Ti( 1.00)
        O1             6.00    15.99900     O ( 1.00)
        C1             4.00    12.01100     C ( 1.00)
        H1             1.00     1.00800     H ( 1.00)

     No symmetry found

   Cartesian axes

     site n.     atom                  positions (alat units)
         1           Ti1 tau(   1) = (   0.0004258   2.9801865   6.0000000  )
         2           Ti1 tau(   2) = (   3.2906075   1.4906267   6.0002472  )
         3           O1  tau(   3) = (   0.0006271   0.0005054   7.9858123  )
         4           O1  tau(   4) = (   3.2906025   0.0005020   7.3038282  )
         5           O1  tau(   5) = (   4.5942328   1.4918067   9.2879030  )
         6           O1  tau(   6) = (   1.9868534   1.4903216   9.2879459  )
         7           Ti1 tau(   7) = (   3.2820359   3.0439161   9.1623595  )
         8           Ti1 tau(   8) = (   6.5599266   1.6132547   9.3553476  )
         9           O1  tau(   9) = (   3.2945286   0.0238644  11.3456088  )
        10           O1  tau(  10) = (   0.0063054   0.0138127  10.6020390  )
        11           O1  tau(  11) = (   1.2951583   1.5100513  12.6443238  )
        12           O1  tau(  12) = (   5.2990995   1.5148170  12.6233090  )
        13           Ti1 tau(  13) = (   0.0263474   3.0106421  12.7494805  )
        14           Ti1 tau(  14) = (   3.3336015   1.5167552  12.4948480  )
        15           O1  tau(  15) = (   6.5448532   0.0190031  14.6983011  )
        16           O1  tau(  16) = (   3.3224233   0.0259125  13.9568087  )
        17           O1  tau(  17) = (   4.5367000   1.5168325  16.1249780  )
        18           O1  tau(  18) = (   2.0218268   1.5507800  16.0022153  )
        19           Ti1 tau(  19) = (   3.2743302   2.9980917  15.6870858  )
        20           Ti1 tau(  20) = (   0.0201860   1.3869735  16.0719154  )
        21           O1  tau(  21) = (   3.2904802   0.0005063   4.7018136  )
        22           O1  tau(  22) = (   0.0925506   0.0150102  17.2361640  )
        23           O1  tau(  23) = (   1.3043587   1.4918075   6.0039043  )
        24           O1  tau(  24) = (   5.2767064   1.4903225   6.0039473  )
        25           Ti1 tau(  25) = (   0.0000382   5.9609847   6.0000000  )
        26           Ti1 tau(  26) = (   3.2902200   4.4714249   6.0002472  )
        27           O1  tau(  27) = (   0.0002396   2.9813036   7.9858123  )
        28           O1  tau(  28) = (   3.2902150   2.9813002   7.3038282  )
        29           O1  tau(  29) = (   4.5938453   4.4726049   9.2879030  )
        30           O1  tau(  30) = (   1.9864658   4.4711199   9.2879459  )
        31           Ti1 tau(  31) = (   3.2669230   0.0652730   9.1555536  )
        32           Ti1 tau(  32) = (   6.5613759   4.5453191   9.2698998  )
        33           O1  tau(  33) = (   3.2918870   3.0052186  11.3478826  )
        34           O1  tau(  34) = (   0.0060846   2.9950393  10.5821163  )
        35           O1  tau(  35) = (   1.2959246   4.5006532  12.6413340  )
        36           O1  tau(  36) = (   5.2961686   4.4944485  12.6189864  )
        37           Ti1 tau(  37) = (   0.0327138   0.0295606  12.5236923  )
        38           Ti1 tau(  38) = (   3.3339673   4.5113903  12.4983483  )
        39           O1  tau(  39) = (   6.5730609   3.0277731  14.6772624  )
        40           O1  tau(  40) = (   3.3208155   3.0007925  13.9016932  )
        41           O1  tau(  41) = (   4.5507661   4.4739758  16.0704957  )
        42           O1  tau(  42) = (   2.0281244   4.4521521  15.9894756  )
        43           Ti1 tau(  43) = (   3.3328935   0.0118079  15.7915215  )
        44           Ti1 tau(  44) = (   0.0096178   4.5175135  15.9069376  )
        45           O1  tau(  45) = (   3.2900926   2.9813045   4.7018136  )
        46           O1  tau(  46) = (   1.3039711   4.4726057   6.0039043  )
        47           O1  tau(  47) = (   5.2763189   4.4711207   6.0039473  )
        48           C1  tau(  48) = (   6.0108469   3.0492512  18.6187439  )
        49           O1  tau(  49) = (   6.5747659   3.0013081  17.3187206  )
        50           H1  tau(  50) = (   4.9221177   3.1735116  18.5649479  )
        51           H1  tau(  51) = (   6.2378858   2.1236533  19.1567593  )
        52           H1  tau(  52) = (   6.4208835   3.9027719  19.1655001  )
        53           O1  tau(  53) = (   2.8960476   5.8777769  18.1561119  )
        54           H1  tau(  54) = (   3.1709146   0.7341104  18.6084320  )
        55           H1  tau(  55) = (   1.9162551   5.9097105  18.1191095  )

     number of k points=    10  Fermi-Dirac smearing, width (Ry)=  0.0073
                       cart. coord. in units 2pi/alat
        k(    1) = (   0.0000000   0.0000000   0.0000000), wk =   0.1250000
        k(    2) = (   0.0000000   0.0419351   0.0000000), wk =   0.2500000
        k(    3) = (   0.0000000  -0.0838702   0.0000000), wk =   0.1250000
        k(    4) = (   0.0379955   0.0000049   0.0000000), wk =   0.2500000
        k(    5) = (   0.0379955   0.0419400   0.0000000), wk =   0.2500000
        k(    6) = (   0.0379955  -0.0838652   0.0000000), wk =   0.2500000
        k(    7) = (   0.0379955  -0.0419301   0.0000000), wk =   0.2500000
        k(    8) = (  -0.0759910  -0.0000099   0.0000000), wk =   0.1250000
        k(    9) = (  -0.0759910   0.0419252   0.0000000), wk =   0.2500000
        k(   10) = (  -0.0759910  -0.0838800   0.0000000), wk =   0.1250000

     Initial potential from superposition of free atoms

     starting charge  382.99916, renormalised to  399.00000

     negative rho (up, down):  1.704E-02 0.000E+00

     %%%%%%%%%%%%%%%%%%%%%%%%%%%%%%%%%%%%%%%%%%%%%%%%%%%%%%%%%%%%%%%%%%%%%%%%
     %                                                                      %
     % You are using vdW-DF, which was implemented by the Thonhauser group. %
     % Please cite the following two papers that made this development      %
     % possible and the two reviews that describe the various versions:     %
     %                                                                      %
     %   T. Thonhauser et al., PRL 115, 136402 (2015).                      %
     %   T. Thonhauser et al., PRB 76, 125112 (2007).                       %
     %   K. Berland et al., Rep. Prog. Phys. 78, 066501 (2015).             %
     %   D.C. Langreth et al., J. Phys.: Condens. Matter 21, 084203 (2009). %
     %                                                                      %
     %                                                                      %
     % If you are calculating the stress with vdW-DF, please also cite:     %
     %                                                                      %
     %   R. Sabatini et al., J. Phys.: Condens. Matter 24, 424209 (2012).   %
     %                                                                      %
     %%%%%%%%%%%%%%%%%%%%%%%%%%%%%%%%%%%%%%%%%%%%%%%%%%%%%%%%%%%%%%%%%%%%%%%%

     Adding external electric field

     Computed dipole along edir(3) :
        Dipole               -9.9824 Ry au,        -25.3726 Debye
        Dipole field         -0.0188 Ry au,

        Potential amp.        1.7463 Ry
        Total length         46.3494 bohr

     Starting wfcs are  301 atomic wfcs
  @ DRIVER MODE: Message from server: STATUS
  @ DRIVER MODE: Message from server: POSDATA
  @ DRIVER MODE: Reading and sharing cell
  @ DRIVER MODE: Reading and sharing positions
  @ DRIVER MODE: Received positions

     Self-consistent Calculation

     iteration #  1     ecut=    29.40 Ry     beta= 0.05
     Davidson diagonalization with overlap
     c_bands:  2 eigenvalues not converged
     c_bands:  2 eigenvalues not converged
     c_bands:  2 eigenvalues not converged
     c_bands:  3 eigenvalues not converged
     c_bands:  2 eigenvalues not converged
     c_bands:  3 eigenvalues not converged
     c_bands:  3 eigenvalues not converged
     c_bands:  1 eigenvalues not converged
     ethr =  1.00E-05,  avg # of iterations = 19.6

[...]

     total energy              =   -2489.86966140 Ry
     estimated scf accuracy    <    5304.28045211 Ry

     iteration #  2     ecut=    29.40 Ry     beta= 0.05
     Davidson diagonalization with overlap
     ethr =  1.00E-02,  avg # of iterations = 24.7

[...]

     iteration # 70     ecut=    29.40 Ry     beta= 0.05
     Davidson diagonalization with overlap
     c_bands:  1 eigenvalues not converged
     ethr =  1.16E-09,  avg # of iterations = 11.5

[...]

     total energy              =   -2966.34218032 Ry
     estimated scf accuracy    <       0.00000012 Ry

     iteration # 78     ecut=    29.40 Ry     beta= 0.05
     Davidson diagonalization with overlap
     ethr =  2.90E-11,  avg # of iterations =  8.2

     negative rho (up, down):  1.686E-02 0.000E+00

     Adding external electric field

     Computed dipole along edir(3) :
        Dipole                0.9558 Ry au,          2.4295 Debye
        Dipole field          0.0018 Ry au,

        Potential amp.       -0.1672 Ry
        Total length         46.3494 bohr

     End of self-consistent calculation

          k = 0.0000 0.0000 0.0000 ( 18029 PWs)   bands (ev):

   -55.6989 -55.6630 -55.6601 -55.6238 -55.6112 -55.5995 -55.5778 -55.5437
   -55.4886 -55.4752 -55.4674 -55.4490 -55.4142 -55.3735 -54.7023 -54.6682
   -32.2177 -32.1684 -32.0909 -32.0574 -32.0406 -31.9913 -31.9750 -31.9642
   -31.9314 -31.9284 -31.8874 -31.8760 -31.8704 -31.8655 -31.8584 -31.8432
   -31.8414 -31.7982 -31.7935 -31.7907 -31.7826 -31.7781 -31.7633 -31.7496
   -31.7435 -31.7383 -31.7205 -31.6976 -31.6909 -31.6902 -31.6838 -31.6799
   -31.6670 -31.6600 -31.6471 -31.6390 -31.6313 -31.5952 -31.5894 -31.5647
   -31.5559 -31.5495 -31.1113 -31.0163 -30.9939 -30.9282 -30.8421 -30.7308
   -18.9025 -17.5507 -16.4135 -16.1442 -15.9831 -15.8553 -15.8169 -15.6209
   -15.5052 -15.3814 -15.3544 -15.2994 -15.2748 -15.2349 -15.2294 -15.2203
   -15.2097 -15.2010 -15.1469 -15.1129 -15.1004 -15.0905 -15.0789 -15.0277
   -14.9756 -14.9114 -14.8390 -14.8161 -14.7925 -14.7209 -14.6989 -13.2028
   -13.0849  -9.4293  -6.6539  -4.2676  -4.0877  -3.8058  -3.7647  -3.6405
    -3.6121  -3.5817  -3.5016  -3.3259  -3.2702  -3.1590  -2.9360  -2.8774
    -2.8220  -2.7979  -2.7557  -2.6049  -2.5861  -2.5152  -2.5048  -2.4854
    -2.4754  -2.4436  -2.4253  -2.3933  -2.3654  -2.3266  -2.2827  -2.2193
    -2.0805  -2.0660  -2.0295  -2.0119  -1.9998  -1.9854  -1.9484  -1.9271
    -1.8937  -1.8759  -1.8672  -1.7662  -1.6579  -1.5670  -1.5279  -1.4578
    -1.3772  -1.2343  -1.2121  -1.1411  -1.1158  -1.1000  -1.0492  -0.9974
    -0.9371  -0.9323  -0.8761  -0.7771  -0.7097  -0.6889  -0.6556  -0.6035
    -0.5450  -0.4679  -0.4395  -0.4214  -0.3987  -0.3866  -0.1985  -0.1740
    -0.1310  -0.1033  -0.0212   0.0372   0.0539   0.0720   0.0993   0.1260
     0.1989   0.2586   0.2678   0.2946   0.3383   0.3529   0.3855   0.4529
     0.5032   0.5219   0.5688   0.6183   0.6694   0.8102   0.9115   0.9563
     1.0678   1.2330   1.3221   1.3960   1.4971   1.9077   1.9636   3.4810
     3.5129   3.5409   3.5623   3.6392   3.7310   3.8409   3.9331   3.9485
     3.9776

[...]

          k = 0.0380-0.0419 0.0000 ( 17876 PWs)   bands (ev):

[...]

          k =-0.0760-0.0000 0.0000 ( 17886 PWs)   bands (ev):

[...]

          k =-0.0760-0.0839 0.0000 ( 17948 PWs)   bands (ev):

   -55.6866 -55.6751 -55.6438 -55.6398 -55.6083 -55.5976 -55.5650 -55.5566
   -55.4910 -55.4720 -55.4695 -55.4361 -55.4271 -55.3764 -54.6857 -54.6847
   -32.0308 -32.0118 -31.9911 -31.9856 -31.9792 -31.9778 -31.9607 -31.9238
   -31.9137 -31.9058 -31.8975 -31.8883 -31.8498 -31.8397 -31.8260 -31.8208
   -31.8200 -31.8140 -31.8123 -31.8047 -31.7972 -31.7945 -31.7879 -31.7785
   -31.7695 -31.7659 -31.7614 -31.7610 -31.7507 -31.7356 -31.7085 -31.6933
   -31.6867 -31.6803 -31.6795 -31.6760 -31.6714 -31.6528 -31.6426 -31.6313
   -31.6013 -31.5670 -31.0072 -31.0060 -30.9247 -30.9239 -30.8856 -30.8847
   -18.9011 -17.5182 -15.8821 -15.7681 -15.6503 -15.5761 -15.5643 -15.5176
   -15.4883 -15.4619 -15.4042 -15.3968 -15.3490 -15.3475 -15.2968 -15.2904
   -15.2398 -15.2076 -15.2035 -15.1618 -15.1392 -15.1313 -15.1208 -15.0843
   -15.0678 -15.0577 -15.0228 -15.0135 -14.9645 -14.9277 -14.8998 -13.1872
   -13.1854  -9.4316  -6.6482  -4.1659  -4.0525  -3.8086  -3.3406  -3.1683
    -2.9670  -2.8965  -2.8300  -2.7679  -2.7641  -2.6483  -2.6287  -2.5895
    -2.5591  -2.5263  -2.5184  -2.5080  -2.4918  -2.4891  -2.4723  -2.4324
    -2.4146  -2.3890  -2.3666  -2.3550  -2.3333  -2.3110  -2.3034  -2.2835
    -2.2505  -2.2441  -2.2366  -2.1731  -2.1111  -1.9777  -1.9337  -1.9207
    -1.8358  -1.8015  -1.7846  -1.7554  -1.7474  -1.7320  -1.6013  -1.5823
    -1.4883  -1.4213  -1.4018  -1.3739  -1.2672  -1.2079  -1.1769  -1.1535
    -1.1166  -1.0709  -1.0030  -0.9613  -0.9101  -0.8514  -0.8070  -0.7929
    -0.7602  -0.6558  -0.6516  -0.6443  -0.6043  -0.5625  -0.5113  -0.4607
    -0.4524  -0.4281  -0.3960  -0.3537  -0.3346  -0.2376  -0.2263  -0.1879
    -0.1417  -0.0486   0.1302   0.2150   0.3220   0.3562   0.3960   0.4578
     0.5024   0.5523   0.6003   0.6478   0.6746   0.7179   0.7520   0.8346
     0.8531   0.8583   0.9266   1.6837   1.6841   1.7703   1.7789   3.7248
     3.7402   3.7924   3.8111   3.9492   3.9551   3.9687   3.9782   4.0766
     4.1323

     the Fermi energy is     3.4520 ev

!    total energy              =   -2966.34219137 Ry
     estimated scf accuracy    <       0.00000005 Ry
     smearing contrib. (-TS)   =      -0.02283007 Ry
     internal energy E=F+TS    =   -2966.31936129 Ry

     The total energy is F=E-TS. E is the sum of the following terms:
     one-electron contribution =  -24408.41511559 Ry
     hartree contribution      =   12296.26545241 Ry
     xc contribution           =    -490.96132937 Ry
     ewald contribution        =    9636.78990715 Ry
     electric field correction =       0.00172409 Ry

     convergence has been achieved in  78 iterations

     Forces acting on atoms (cartesian axes, Ry/au):

     atom    1 type  1   force =     0.00018111   -0.00146730    0.10511720
     atom    2 type  1   force =     0.00007234    0.00125393   -0.17892642
     atom    3 type  2   force =    -0.00001300   -0.00501485   -0.03283758
     atom    4 type  2   force =    -0.00058176    0.00074240    0.04591803
     atom    5 type  2   force =    -0.01790729   -0.00053334    0.00428589
     atom    6 type  2   force =     0.01741138    0.00073851    0.00348006
     atom    7 type  1   force =    -0.00005886   -0.00057750   -0.00006831
     atom    8 type  1   force =    -0.00037871   -0.00056984    0.00045756
     atom    9 type  2   force =     0.00014906   -0.00028881   -0.00005012
     atom   10 type  2   force =     0.00022781   -0.00001999    0.00054319
     atom   11 type  2   force =    -0.00000356   -0.00009535   -0.00005791
     atom   12 type  2   force =    -0.00013613   -0.00028383   -0.00025907
     atom   13 type  1   force =     0.00056206   -0.00057895   -0.00136516
     atom   14 type  1   force =     0.00001183   -0.00052092    0.00037177
     atom   15 type  2   force =    -0.00012929   -0.00035863    0.00011774
     atom   16 type  2   force =     0.00002763   -0.00063881   -0.00030527
     atom   17 type  2   force =    -0.00023462   -0.00006073   -0.00039244
     atom   18 type  2   force =     0.00029731   -0.00014227   -0.00020670
     atom   19 type  1   force =    -0.00006542    0.00046765    0.00010924
     atom   20 type  1   force =     0.00013759   -0.00094939    0.00043915
     atom   21 type  2   force =     0.00007329    0.00010713    0.10393507
     atom   22 type  2   force =    -0.00037654   -0.00028773   -0.00006265
     atom   23 type  2   force =    -0.06946998    0.00050549   -0.02941990
     atom   24 type  2   force =     0.06950155    0.00087255   -0.02945091
     atom   25 type  1   force =     0.00026519    0.00145543    0.11394034
     atom   26 type  1   force =    -0.00005842   -0.00045379   -0.17908767
     atom   27 type  2   force =    -0.00013408    0.00370517   -0.02690432
     atom   28 type  2   force =    -0.00026972    0.00101677    0.04786353
     atom   29 type  2   force =    -0.01571996    0.00042034    0.00352243
     atom   30 type  2   force =     0.01709832    0.00264232    0.00289859
     atom   31 type  1   force =     0.00036478    0.00006657   -0.00017821
     atom   32 type  1   force =    -0.00066803    0.00011902    0.00028227
     atom   33 type  2   force =     0.00024785   -0.00040316    0.00016042
     atom   34 type  2   force =     0.00007016   -0.00005412   -0.00005992
     atom   35 type  2   force =     0.00011823   -0.00019235    0.00022604
     atom   36 type  2   force =     0.00018634    0.00016388    0.00015874
     atom   37 type  1   force =     0.00035042    0.00078196   -0.00027838
     atom   38 type  1   force =    -0.00009362   -0.00047796    0.00004483
     atom   39 type  2   force =    -0.00049016    0.00025479    0.00034168
     atom   40 type  2   force =     0.00026945   -0.00064115   -0.00012151
     atom   41 type  2   force =     0.00019960   -0.00009786   -0.00013631
     atom   42 type  2   force =    -0.00048121   -0.00057471   -0.00056840
     atom   43 type  1   force =    -0.00019146   -0.00011909   -0.00004094
     atom   44 type  1   force =     0.00035017    0.00037114    0.00013379
     atom   45 type  2   force =     0.00007653    0.00008343    0.10394735
     atom   46 type  2   force =    -0.06916669   -0.00106908   -0.02943884
     atom   47 type  2   force =     0.06914434   -0.00060038   -0.02951260
     atom   48 type  3   force =    -0.00001145    0.00040273    0.00047863
     atom   49 type  2   force =    -0.00048467    0.00046376    0.00051088
     atom   50 type  4   force =     0.00057073    0.00021474    0.00054351
     atom   51 type  4   force =    -0.00021411    0.00068543   -0.00049249
     atom   52 type  4   force =    -0.00027828   -0.00055840   -0.00013792
     atom   53 type  2   force =     0.00372613    0.00884591    0.00643555
     atom   54 type  4   force =    -0.00182082   -0.00819241   -0.00494882
     atom   55 type  4   force =    -0.00225338   -0.00055837   -0.00095471

     Total force =     0.374355     Total SCF correction =     0.000642
  @ DRIVER MODE: Message from server: STATUS
  @ DRIVER MODE: Message from server: GETFORCE
  @ DRIVER MODE: Returning v,forces,stress,ensemble

     Writing output data file ./calc.save/
  @ DRIVER MODE: Message from server: EXIT
  @ DRIVE MODE: Exiting

     General routines

     Parallel routines

   This run was terminated on:   4:18:46  27Sep2021

   JOB DONE.