     Program PWSCF v.6.7GPU starts on 15Jul2021 at 16:27:55

     R & G space division:  proc/nbgrp/npool/nimage =      16
     Reading input from /storage/home/hcoda1/3/ntian30/research/carbon/15Jul_vib/ads_slab/CH3NNH3_a/out_0000/pw.inp
Warning: card &CELL ignored
Warning: card   CELL_DYNAMICS='IPI', ignored
Warning: card / ignored

     Current dimensions of program PWSCF are:
     Max number of different atomic species (ntypx) = 10
     Max number of k-points (npk) =  40000
     Max angular momentum in pseudopotentials (lmaxx) =  3
     Presently no symmetry can be used with electric field

     Message from routine cell_base_init:
     DEPRECATED: use true lattice parameter, not A to a.u. conversion factor

     IMPORTANT: XC functional enforced from input :
     Exchange-correlation= BEEF-VDW
                           (   1   4  43  14   2   0   0)
     Any further DFT definition will be discarded
     Please, verify this is what you really want

  @ DRIVER MODE: Connecting to
 qe_1139763_2351650.sched-torque.pace.gatech.eduncwz4yhq_scratch
  using UNIX socket
  @ DRIVER MODE: Message from server: STATUS
  @ DRIVER MODE: Message from server: INIT
  @ DRIVER MODE: Receiving replica           0          -1
  @ DRIVER MODE: Receiving encoded integer          25
  @ DRIVER MODE:  SCF:  T  FORCE:  T  STRESS:  F  VC:  F  ENSEMBLE:  F
  @ DRIVER MODE:  SCF:  T  FORCE:  T  STRESS:  F  VC:  F  ENSEMBLE:  F

     Using Slab Decomposition

     bravais-lattice index     =            0
     lattice parameter (alat)  =       1.8897  a.u.
     unit-cell volume          =    6658.9804 (a.u.)^3
     number of atoms/cell      =           56
     number of atomic types    =            5
     number of electrons       =       398.00
     number of Kohn-Sham states=          209
     kinetic-energy cutoff     =      29.3995  Ry
     charge density cutoff     =     293.9946  Ry
     scf convergence threshold =      7.3E-08
     mixing beta               =       0.0500
     number of iterations used =            8  plain     mixing
     Exchange-correlation= BEEF-VDW
                           (   1   4  43  14   2   0   0)

     celldm(1)=   1.889726  celldm(2)=   0.000000  celldm(3)=   0.000000
     celldm(4)=   0.000000  celldm(5)=   0.000000  celldm(6)=   0.000000

     crystal axes: (cart. coord. in units of alat)
               a(1) = (   6.579727   0.000000   0.000000 )
               a(2) = (  -0.000775   5.961596   0.000000 )
               a(3) = (   0.000000   0.000000  25.155947 )

     reciprocal axes: (cart. coord. in units 2 pi/alat)
               b(1) = (  0.151982  0.000020  0.000000 )
               b(2) = (  0.000000  0.167740  0.000000 )
               b(3) = (  0.000000  0.000000  0.039752 )

     PseudoPot. # 1 for Ti read from file:
     /storage/coda1/p-amedford6/0/shared/rich_project_chbe-medford/medford-share/data/pseudos_module/espresso/nninc/pbe/van/Ti.UPF
     MD5 check sum: 8e4df49b7f0d34bbd5052bf3f5ea0213
     Pseudo is Ultrasoft, Zval = 12.0
     Generated by new atomic code, or converted to UPF format
     Using radial grid of  851 points,  6 beta functions with:
                l(1) =   0
                l(2) =   0
                l(3) =   1
                l(4) =   1
                l(5) =   2
                l(6) =   2
     Q(r) pseudized with  8 coefficients,  rinner =    1.000   1.000   1.000
                                                       1.000   1.000

     PseudoPot. # 2 for O  read from file:
     /storage/coda1/p-amedford6/0/shared/rich_project_chbe-medford/medford-share/data/pseudos_module/espresso/nninc/pbe/van/O.UPF
     MD5 check sum: 78c19812648e8988a0fe644b0f25305e
     Pseudo is Ultrasoft, Zval =  6.0
     Generated by new atomic code, or converted to UPF format
     Using radial grid of  737 points,  4 beta functions with:
                l(1) =   0
                l(2) =   0
                l(3) =   1
                l(4) =   1
     Q(r) pseudized with  8 coefficients,  rinner =    0.800   0.800   0.800

     PseudoPot. # 3 for N  read from file:
     /storage/coda1/p-amedford6/0/shared/rich_project_chbe-medford/medford-share/data/pseudos_module/espresso/nninc/pbe/van/N.UPF
     MD5 check sum: 90d10febe142ad51ac9d5be1deb811c4
     Pseudo is Ultrasoft, Zval =  5.0
     Generated by new atomic code, or converted to UPF format
     Using radial grid of  729 points,  4 beta functions with:
                l(1) =   0
                l(2) =   0
                l(3) =   1
                l(4) =   1
     Q(r) pseudized with  8 coefficients,  rinner =    0.800   0.800   0.800

     PseudoPot. # 4 for C  read from file:
     /storage/coda1/p-amedford6/0/shared/rich_project_chbe-medford/medford-share/data/pseudos_module/espresso/nninc/pbe/van/C.UPF
     MD5 check sum: 1a69bf6b8db32088f5b2163dbdb77a27
     Pseudo is Ultrasoft, Zval =  4.0
     Generated by new atomic code, or converted to UPF format
     Using radial grid of  721 points,  4 beta functions with:
                l(1) =   0
                l(2) =   0
                l(3) =   1
                l(4) =   1
     Q(r) pseudized with  8 coefficients,  rinner =    0.800   0.800   0.800

     PseudoPot. # 5 for H  read from file:
     /storage/coda1/p-amedford6/0/shared/rich_project_chbe-medford/medford-share/data/pseudos_module/espresso/nninc/pbe/van/H.UPF
     MD5 check sum: b5ee9d7bfd3a09ee7748110bda690ff7
     Pseudo is Ultrasoft, Zval =  1.0
     Generated by new atomic code, or converted to UPF format
     Using radial grid of  615 points,  1 beta functions with:
                l(1) =   0
     Q(r) pseudized with  8 coefficients,  rinner =    0.800

     atomic species   valence    mass     pseudopotential
        Ti1           12.00    47.86700     Ti( 1.00)
        O1             6.00    15.99900     O ( 1.00)
        N1             5.00    14.00700     N ( 1.00)
        C1             4.00    12.01100     C ( 1.00)
        H1             1.00     1.00800     H ( 1.00)

     Starting magnetic structure
     atomic species   magnetization
        Ti1          0.000
        O1           0.000
        N1           0.000
        C1           0.025
        H1           0.000

     No symmetry found

   Cartesian axes

     site n.     atom                  positions (alat units)
         1           Ti1 tau(   1) = (   0.0004258   2.9801865   6.0000000  )
         2           Ti1 tau(   2) = (   3.2906075   1.4906267   6.0002472  )
         3           O1  tau(   3) = (   0.0006271   0.0005054   7.9858123  )
         4           O1  tau(   4) = (   3.2906025   0.0005020   7.3038282  )
         5           O1  tau(   5) = (   4.5942328   1.4918067   9.2879030  )
         6           O1  tau(   6) = (   1.9868534   1.4903216   9.2879459  )
         7           Ti1 tau(   7) = (   3.2907910   2.8959150   9.1758416  )
         8           Ti1 tau(   8) = (   0.0015273   1.4827037   9.2680791  )
         9           O1  tau(   9) = (   3.3019049   5.9598586  11.2958584  )
        10           O1  tau(  10) = (   0.0116148   5.9584955  10.6183126  )
        11           O1  tau(  11) = (   1.3346742   1.4914638  12.6145280  )
        12           O1  tau(  12) = (   5.3113054   1.4894223  12.6320738  )
        13           Ti1 tau(  13) = (   6.4919192   2.9607050  12.7581921  )
        14           Ti1 tau(  14) = (   3.1808934   1.4809541  12.4628303  )
        15           O1  tau(  15) = (   0.0259758   5.9327586  14.5948705  )
        16           O1  tau(  16) = (   3.3179433   0.0111293  13.8771559  )
        17           O1  tau(  17) = (   4.5450242   1.5254396  16.0425357  )
        18           O1  tau(  18) = (   2.0945915   1.5254857  16.0466093  )
        19           Ti1 tau(  19) = (   3.3175380   3.0118254  15.6854273  )
        20           Ti1 tau(  20) = (   0.0287691   1.6153805  16.0968480  )
        21           O1  tau(  21) = (   3.2904802   0.0005063   4.7018136  )
        22           O1  tau(  22) = (   0.0272082   0.0527987  17.2096484  )
        23           O1  tau(  23) = (   1.3043587   1.4918075   6.0039043  )
        24           O1  tau(  24) = (   5.2767064   1.4903225   6.0039473  )
        25           Ti1 tau(  25) = (   0.0000382   5.9609847   6.0000000  )
        26           Ti1 tau(  26) = (   3.2902200   4.4714249   6.0002472  )
        27           O1  tau(  27) = (   0.0002396   2.9813036   7.9858123  )
        28           O1  tau(  28) = (   3.2902150   2.9813002   7.3038282  )
        29           O1  tau(  29) = (   4.5938453   4.4726049   9.2879030  )
        30           O1  tau(  30) = (   1.9864658   4.4711199   9.2879459  )
        31           Ti1 tau(  31) = (   3.2891106   5.8743827   9.1763621  )
        32           Ti1 tau(  32) = (   0.0006254   4.4649316   9.2693709  )
        33           O1  tau(  33) = (   3.3007599   2.9794320  11.2948048  )
        34           O1  tau(  34) = (   0.0092240   2.9805883  10.6323155  )
        35           O1  tau(  35) = (   1.3367187   4.4652043  12.6121808  )
        36           O1  tau(  36) = (   5.3110114   4.4536366  12.6300246  )
        37           Ti1 tau(  37) = (   6.5175235   5.9394146  12.7678677  )
        38           Ti1 tau(  38) = (   3.1810223   4.4618757  12.4682998  )
        39           O1  tau(  39) = (   0.0141956   2.9656780  14.6533049  )
        40           O1  tau(  40) = (   3.3125561   2.9946134  13.8784269  )
        41           O1  tau(  41) = (   4.5469694   4.5079638  16.0550352  )
        42           O1  tau(  42) = (   2.0896055   4.5089645  16.0567747  )
        43           Ti1 tau(  43) = (   3.3249511   0.0336637  15.6879192  )
        44           Ti1 tau(  44) = (   0.0309337   4.5948497  16.1324869  )
        45           O1  tau(  45) = (   3.2900926   2.9813045   4.7018136  )
        46           O1  tau(  46) = (   1.3039711   4.4726057   6.0039043  )
        47           O1  tau(  47) = (   5.2763189   4.4711207   6.0039473  )
        48           N1  tau(  48) = (   0.0510883   3.0100077  17.3315927  )
        49           C1  tau(  49) = (   0.2149723   3.0659314  18.7643681  )
        50           H1  tau(  50) = (   6.1109748   3.7957518  19.2115106  )
        51           H1  tau(  51) = (   0.0391147   2.0919789  19.2277120  )
        52           H1  tau(  52) = (   1.2341903   3.3897193  19.0223879  )
        53           N1  tau(  53) = (   4.7717085   1.8344328  21.5424420  )
        54           H1  tau(  54) = (   4.4711387   2.7986659  21.4441960  )
        55           H1  tau(  55) = (   4.1840297   1.2822813  20.9257432  )
        56           H1  tau(  56) = (   4.5427024   1.5537098  22.4892962  )

     number of k points=    10  Fermi-Dirac smearing, width (Ry)=  0.0073
                       cart. coord. in units 2pi/alat
        k(    1) = (   0.0000000   0.0000000   0.0000000), wk =   0.0625000
        k(    2) = (   0.0000000   0.0419351   0.0000000), wk =   0.1250000
        k(    3) = (   0.0000000  -0.0838702   0.0000000), wk =   0.0625000
        k(    4) = (   0.0379955   0.0000049   0.0000000), wk =   0.1250000
        k(    5) = (   0.0379955   0.0419400   0.0000000), wk =   0.1250000
[...]
        k(    7) = (   0.0379955  -0.0419301   0.0000000), wk =   0.1250000
        k(    8) = (  -0.0759910  -0.0000099   0.0000000), wk =   0.0625000
        k(    9) = (  -0.0759910   0.0419252   0.0000000), wk =   0.1250000
        k(   10) = (  -0.0759910  -0.0838800   0.0000000), wk =   0.0625000

     Initial potential from superposition of free atoms

     starting charge  381.99914, renormalised to  398.00000

     negative rho (up, down):  4.933E-03 4.933E-03

     %%%%%%%%%%%%%%%%%%%%%%%%%%%%%%%%%%%%%%%%%%%%%%%%%%%%%%%%%%%%%%%%%%%%%%%%
     %                                                                      %
     % You are using vdW-DF, which was implemented by the Thonhauser group. %
     % Please cite the following two papers that made this development      %
     % possible and the two reviews that describe the various versions:     %
     %                                                                      %
     %   T. Thonhauser et al., PRL 115, 136402 (2015).                      %
     %   T. Thonhauser et al., PRB 76, 125112 (2007).                       %
     %   K. Berland et al., Rep. Prog. Phys. 78, 066501 (2015).             %
     %   D.C. Langreth et al., J. Phys.: Condens. Matter 21, 084203 (2009). %
     %                                                                      %
     %                                                                      %
     % If you are calculating the stress with vdW-DF, please also cite:     %
     %                                                                      %
     %   R. Sabatini et al., J. Phys.: Condens. Matter 24, 424209 (2012).   %
     %                                                                      %
     %%%%%%%%%%%%%%%%%%%%%%%%%%%%%%%%%%%%%%%%%%%%%%%%%%%%%%%%%%%%%%%%%%%%%%%%

     Adding external electric field

     Computed dipole along edir(3) :
        Dipole              -11.2917 Ry au,        -28.7007 Debye
        Dipole field         -0.0213 Ry au,

        Potential amp.        1.9753 Ry
        Total length         46.3494 bohr

[...]

     Starting wfcs are  302 atomic wfcs
  @ DRIVER MODE: Message from server: STATUS
  @ DRIVER MODE: Message from server: POSDATA
  @ DRIVER MODE: Reading and sharing cell
  @ DRIVER MODE: Reading and sharing positions
  @ DRIVER MODE: Received positions

     Self-consistent Calculation

     iteration #  1     ecut=    29.40 Ry     beta= 0.05
     Davidson diagonalization with overlap
     ethr =  1.00E-02,  avg # of iterations =  2.8

[...]

     total energy              =   -2526.50636130 Ry
     estimated scf accuracy    <    4640.74882796 Ry

     total magnetization       =     0.00 Bohr mag/cell
     absolute magnetization    =     0.01 Bohr mag/cell

[...]

     iteration #  4     ecut=    29.40 Ry     beta= 0.05
     Davidson diagonalization with overlap
     c_bands:  1 eigenvalues not converged
     ethr =  1.00E-02,  avg # of iterations = 15.0

[...]

     iteration # 48     ecut=    29.40 Ry     beta= 0.05
     Davidson diagonalization with overlap
     c_bands:  2 eigenvalues not converged
     ethr =  2.19E-06,  avg # of iterations = 10.9

[...]

     total energy              =   -2942.90779428 Ry
     estimated scf accuracy    <       0.00000010 Ry

[...]

     iteration # 73     ecut=    29.40 Ry     beta= 0.05
     Davidson diagonalization with overlap
     ethr =  2.58E-11,  avg # of iterations =  2.2

     negative rho (up, down):  5.679E-03 5.679E-03

[...]

     Adding external electric field

     Computed dipole along edir(3) :
        Dipole                0.4189 Ry au,          1.0648 Debye
        Dipole field          0.0008 Ry au,

        Potential amp.       -0.0733 Ry
        Total length         46.3494 bohr

     Magnetic moment per site  (integrated on atomic sphere of radius R)
     atom   1 (R=0.735)  charge=  8.0053  magn= -0.0002
     atom   2 (R=0.735)  charge=  8.0011  magn=  0.0001
     atom   3 (R=0.735)  charge=  4.9958  magn=  0.0001
     atom   4 (R=0.735)  charge=  5.0345  magn= -0.0000
     atom   5 (R=0.735)  charge=  4.9982  magn= -0.0000
     atom   6 (R=0.735)  charge=  4.9994  magn= -0.0000
     atom   7 (R=0.735)  charge=  7.9947  magn=  0.0000
     atom   8 (R=0.735)  charge=  7.9823  magn= -0.0000
     atom   9 (R=0.735)  charge=  5.0127  magn=  0.0000
     atom  10 (R=0.735)  charge=  4.9434  magn=  0.0000
     atom  11 (R=0.735)  charge=  4.9999  magn=  0.0000
     atom  12 (R=0.735)  charge=  5.0035  magn= -0.0000
     atom  13 (R=0.735)  charge=  7.9933  magn=  0.0000
     atom  14 (R=0.735)  charge=  8.0007  magn= -0.0000
     atom  15 (R=0.735)  charge=  4.9894  magn= -0.0000
     atom  16 (R=0.735)  charge=  5.0146  magn= -0.0000
     atom  17 (R=0.735)  charge=  4.9900  magn= -0.0000
     atom  18 (R=0.735)  charge=  4.9888  magn= -0.0000
     atom  19 (R=0.735)  charge=  8.0209  magn=  0.0000
     atom  20 (R=0.735)  charge=  8.0242  magn=  0.0000
     atom  21 (R=0.735)  charge=  4.8827  magn= -0.0002
     atom  22 (R=0.735)  charge=  4.9719  magn= -0.0000
     atom  23 (R=0.735)  charge=  4.9884  magn=  0.0001
     atom  24 (R=0.735)  charge=  4.9885  magn=  0.0001
     atom  25 (R=0.735)  charge=  8.0053  magn= -0.0002
     atom  26 (R=0.735)  charge=  8.0011  magn=  0.0001
     atom  27 (R=0.735)  charge=  4.9957  magn=  0.0001
     atom  28 (R=0.735)  charge=  5.0347  magn= -0.0000
     atom  29 (R=0.735)  charge=  4.9989  magn= -0.0000
     atom  30 (R=0.735)  charge=  5.0001  magn= -0.0000
     atom  31 (R=0.735)  charge=  7.9947  magn=  0.0000
     atom  32 (R=0.735)  charge=  7.9826  magn= -0.0000
     atom  33 (R=0.735)  charge=  5.0125  magn=  0.0000
     atom  34 (R=0.735)  charge=  4.9424  magn=  0.0000
     atom  35 (R=0.735)  charge=  5.0005  magn=  0.0000
     atom  36 (R=0.735)  charge=  5.0043  magn= -0.0000
     atom  37 (R=0.735)  charge=  7.9991  magn=  0.0000
     atom  38 (R=0.735)  charge=  8.0004  magn= -0.0000
     atom  39 (R=0.735)  charge=  4.9853  magn= -0.0000
     atom  40 (R=0.735)  charge=  5.0160  magn=  0.0000
     atom  41 (R=0.735)  charge=  4.9884  magn= -0.0000
     atom  42 (R=0.735)  charge=  4.9878  magn= -0.0000
     atom  43 (R=0.735)  charge=  8.0214  magn=  0.0000
     atom  44 (R=0.735)  charge=  8.0216  magn=  0.0000
     atom  45 (R=0.735)  charge=  4.8827  magn= -0.0002
     atom  46 (R=0.735)  charge=  4.9884  magn=  0.0001
     atom  47 (R=0.735)  charge=  4.9885  magn=  0.0001
     atom  48 (R=0.418)  charge=  1.3136  magn= -0.0000
     atom  49 (R=0.451)  charge=  0.8534  magn=  0.0000
     atom  50 (R=0.418)  charge=  0.4371  magn= -0.0000
     atom  51 (R=0.418)  charge=  0.4391  magn= -0.0000
     atom  52 (R=0.418)  charge=  0.4339  magn= -0.0000
     atom  53 (R=0.418)  charge=  1.3298  magn=  0.0000
     atom  54 (R=0.418)  charge=  0.4522  magn= -0.0000
     atom  55 (R=0.418)  charge=  0.4511  magn= -0.0000
     atom  56 (R=0.418)  charge=  0.4538  magn= -0.0000

     End of self-consistent calculation

 ------ SPIN UP ------------

          k = 0.0000 0.0000 0.0000 ( 18029 PWs)   bands (ev):

   -56.6304 -56.5968 -55.7554 -55.7435 -55.7205 -55.7106 -55.6101 -55.5747
   -55.3925 -55.3567 -55.2965 -55.2908 -55.2626 -55.1930 -54.7274 -54.6157
   -33.0583 -32.9050 -32.8769 -32.8061 -32.7150 -32.6843 -32.2261 -32.2199
   -32.1527 -32.0394 -31.9934 -31.9690 -31.9507 -31.9294 -31.8957 -31.8913
   -31.8900 -31.8844 -31.8588 -31.8563 -31.8448 -31.8175 -31.7927 -31.7777
   -31.7647 -31.7463 -31.7369 -31.7122 -31.6887 -31.6347 -31.6232 -31.6105
   -31.5336 -31.5307 -31.5073 -31.4666 -31.4585 -31.4238 -31.4210 -31.3968
   -31.3742 -31.3130 -31.2331 -30.9732 -30.9578 -30.8749 -30.8375 -30.7475
   -16.7958 -16.3637 -16.1331 -15.9938 -15.9280 -15.8720 -15.8291 -15.7034
   -15.6354 -15.6273 -15.5858 -15.5577 -15.4863 -15.3465 -15.2479 -15.1954
   -15.1509 -15.0303 -14.9692 -14.9369 -14.9265 -14.8836 -14.8740 -14.6801
   -14.6572 -14.5635 -14.5421 -14.4215 -14.1866 -13.7945 -13.7033 -13.6844
   -12.7998  -7.4977  -4.3610  -3.8595  -3.7700  -3.7453  -3.6210  -3.5346
    -3.4273  -3.4133  -3.3268  -3.2123  -3.1681  -3.1203  -3.0039  -3.0026
    -2.8544  -2.8096  -2.8067  -2.8043  -2.7553  -2.6961  -2.6724  -2.6408
    -2.6317  -2.6022  -2.4757  -2.3794  -2.3077  -2.2846  -2.2787  -2.2430
    -2.1678  -2.1383  -2.1297  -2.1261  -2.0187  -1.8735  -1.8670  -1.8438
    -1.8020  -1.7967  -1.7540  -1.7409  -1.6231  -1.5326  -1.4301  -1.4139
    -1.3700  -1.3134  -1.3058  -1.2159  -1.1377  -1.0469  -1.0458  -0.9362
    -0.8887  -0.8717  -0.7815  -0.7218  -0.6824  -0.6562  -0.6438  -0.5437
    -0.5212  -0.5110  -0.4269  -0.4151  -0.3661  -0.2771  -0.2542  -0.2454
    -0.1631  -0.1605  -0.0652  -0.0234   0.0167   0.0519   0.1679   0.1852
     0.2834   0.3121   0.3398   0.4526   0.4686   0.5339   0.6085   0.6711
     0.6988   0.7254   0.7546   0.7740   0.8486   0.9605   0.9695   1.0719
     1.1040   1.2784   1.3172   1.3905   1.6028   1.6356   2.3057   2.6442
     2.8037   3.1019   3.2893   3.4023   3.6185   3.6347   3.6395   3.8083
     3.8611

[...]

          k =-0.0760-0.0000 0.0000 ( 17886 PWs)   bands (ev):

[...]

 ------ SPIN DOWN ----------

[...]

          k = 0.0380-0.0419 0.0000 ( 17876 PWs)   bands (ev):

[...]

          k =-0.0760-0.0839 0.0000 ( 17948 PWs)   bands (ev):

   -56.6144 -56.6140 -55.7403 -55.7345 -55.7277 -55.7271 -55.5927 -55.5921
   -55.3788 -55.3702 -55.2876 -55.2792 -55.2791 -55.1961 -54.7244 -54.6184
   -32.8915 -32.8913 -32.8757 -32.8755 -32.7599 -32.7596 -32.0559 -32.0536
   -32.0445 -32.0379 -31.9847 -31.9837 -31.9410 -31.9408 -31.9385 -31.9374
   -31.9298 -31.9268 -31.9247 -31.9231 -31.8453 -31.8433 -31.7943 -31.7914
   -31.7295 -31.7191 -31.6603 -31.6523 -31.6233 -31.6232 -31.6168 -31.5771
   -31.5728 -31.5450 -31.5108 -31.5046 -31.5045 -31.4654 -31.4654 -31.4619
   -31.4384 -31.3990 -31.1131 -30.9929 -30.9572 -30.9267 -30.8400 -30.8028
   -16.1443 -16.1422 -16.1093 -16.1091 -15.8407 -15.8371 -15.7946 -15.7921
   -15.6184 -15.6123 -15.4057 -15.3970 -15.3904 -15.3889 -15.2609 -15.2551
   -15.1896 -15.1792 -15.0900 -15.0808 -15.0242 -15.0178 -14.9753 -14.9543
   -14.6441 -14.6348 -14.5141 -14.4967 -14.3303 -13.7885 -13.7885 -13.7024
   -12.8162  -7.4878  -3.7773  -3.7535  -3.2433  -3.2430  -3.1793  -3.1782
    -3.0570  -3.0529  -2.9739  -2.9732  -2.8753  -2.8741  -2.7601  -2.7315
    -2.7284  -2.7274  -2.7106  -2.6626  -2.5748  -2.5717  -2.5613  -2.5468
    -2.4884  -2.4865  -2.4642  -2.3984  -2.3847  -2.3532  -2.3155  -2.2014
    -2.1911  -2.1791  -2.1473  -2.0840  -2.0768  -2.0639  -2.0214  -1.9889
    -1.9121  -1.8396  -1.8013  -1.6880  -1.6834  -1.6715  -1.6596  -1.5060
    -1.4657  -1.4352  -1.4281  -1.4220  -1.3742  -1.2792  -1.2718  -1.1398
    -1.1381  -1.0641  -0.9825  -0.9613  -0.9329  -0.8042  -0.7602  -0.7257
    -0.7180  -0.6899  -0.6697  -0.6481  -0.6044  -0.4687  -0.4571  -0.4182
    -0.3837  -0.3616  -0.3272  -0.2696  -0.1837  -0.1054  -0.1049  -0.0501
     0.0184   0.0791   0.1663   0.1763   0.1818   0.4627   0.5414   0.6310
     0.7068   0.7729   0.8364   0.8674   0.9227   0.9675   1.1035   1.1068
     1.1261   1.1265   1.1858   1.1896   1.3734   1.6417   2.1952   3.2163
     3.2166   3.2834   3.2838   3.6075   3.6133   3.7215   3.7308   3.8378
     3.8428

     the Fermi energy is     2.4842 ev

!    total energy              =   -2942.90781128 Ry
     estimated scf accuracy    <       0.00000004 Ry
     smearing contrib. (-TS)   =      -0.00487713 Ry
     internal energy E=F+TS    =   -2942.90293415 Ry

     The total energy is F=E-TS. E is the sum of the following terms:
     one-electron contribution =  -23242.39624437 Ry
     hartree contribution      =   11711.40538434 Ry
     xc contribution           =    -487.47214322 Ry
     ewald contribution        =    9075.55973792 Ry
     electric field correction =       0.00033117 Ry

     total magnetization       =    -0.00 Bohr mag/cell
     absolute magnetization    =     0.00 Bohr mag/cell

     convergence has been achieved in  73 iterations

     Forces acting on atoms (cartesian axes, Ry/au):

     atom    1 type  1   force =     0.00003788   -0.00040792    0.12407158
     atom    2 type  1   force =    -0.00010452   -0.00057057   -0.16065264
     atom    3 type  2   force =     0.00023518   -0.00026860   -0.06798515
     atom    4 type  2   force =     0.00001334   -0.00029229    0.02758966
     atom    5 type  2   force =    -0.01615500    0.00175390   -0.00936679
     atom    6 type  2   force =     0.01818930    0.00219308   -0.00898960
     atom    7 type  1   force =     0.00115101   -0.00378052    0.02170176
     atom    8 type  1   force =    -0.00057784   -0.00290939    0.11107253
     atom    9 type  2   force =    -0.00018271    0.00030851   -0.00045025
     atom   10 type  2   force =    -0.00195925    0.00129330   -0.07321529
     atom   11 type  2   force =     0.00022326   -0.00010678    0.00017315
     atom   12 type  2   force =    -0.00025812    0.00022062    0.00020774
     atom   13 type  1   force =    -0.00010025    0.00008613   -0.00042104
     atom   14 type  1   force =    -0.00057375    0.00045010    0.00041492
     atom   15 type  2   force =     0.00027521    0.00000477    0.00015159
     atom   16 type  2   force =    -0.00049072   -0.00036791    0.00057076
     atom   17 type  2   force =    -0.00061053    0.00024165    0.00008239
     atom   18 type  2   force =     0.00004161    0.00024720    0.00008699
     atom   19 type  1   force =     0.00038833   -0.00055483    0.00000141
     atom   20 type  1   force =    -0.00010449    0.00008961    0.00016980
     atom   21 type  2   force =     0.00005003   -0.00000700    0.09971279
     atom   22 type  2   force =     0.00027218   -0.00004907   -0.00041245
     atom   23 type  2   force =    -0.07916372    0.00000110   -0.03243213
     atom   24 type  2   force =     0.07904999    0.00043816   -0.03245242
     atom   25 type  1   force =     0.00001739   -0.00041569    0.12359498
     atom   26 type  1   force =    -0.00009913   -0.00046469   -0.16078677
     atom   27 type  2   force =     0.00033033   -0.00048419   -0.06703556
     atom   28 type  2   force =     0.00002795   -0.00012076    0.02731573
     atom   29 type  2   force =    -0.01663089    0.00127801   -0.00947351
     atom   30 type  2   force =     0.01856238    0.00165603   -0.00910878
     atom   31 type  1   force =     0.00116765   -0.00138239    0.02113232
     atom   32 type  1   force =    -0.00053413    0.00034596    0.11171674
     atom   33 type  2   force =    -0.00016236   -0.00024967    0.00007403
     atom   34 type  2   force =    -0.00132586    0.00066856   -0.07266612
     atom   35 type  2   force =    -0.00078904   -0.00043100   -0.00002084
     atom   36 type  2   force =     0.00010951   -0.00001721    0.00010922
     atom   37 type  1   force =     0.00004953    0.00063422    0.00022940
     atom   38 type  1   force =    -0.00021108    0.00003126   -0.00016570
     atom   39 type  2   force =     0.00013126   -0.00018045    0.00089177
     atom   40 type  2   force =    -0.00018226   -0.00046642    0.00033128
     atom   41 type  2   force =     0.00006961   -0.00009037    0.00005540
     atom   42 type  2   force =     0.00041285    0.00001834    0.00001715
     atom   43 type  1   force =    -0.00022494   -0.00011607    0.00006611
     atom   44 type  1   force =    -0.00026246    0.00049852    0.00008422
     atom   45 type  2   force =     0.00002551   -0.00003142    0.09973375
     atom   46 type  2   force =    -0.07916888    0.00005485   -0.03243232
     atom   47 type  2   force =     0.07904996    0.00047746   -0.03244738
     atom   48 type  3   force =     0.00090509    0.00074264   -0.00135271
     atom   49 type  4   force =     0.00009281   -0.00049802    0.00006483
     atom   50 type  5   force =    -0.00008100    0.00075878    0.00081025
     atom   51 type  5   force =     0.00025748    0.00050457   -0.00011994
     atom   52 type  5   force =    -0.00026952   -0.00024303   -0.00000133
     atom   53 type  3   force =     0.00002740   -0.00087354   -0.00010253
     atom   54 type  5   force =    -0.00002549    0.00020831   -0.00054679
     atom   55 type  5   force =     0.00014931    0.00031840   -0.00082932
     atom   56 type  5   force =    -0.00106543   -0.00014423    0.00123308

     Total force =     0.424361     Total SCF correction =     0.000497
  @ DRIVER MODE: Message from server: STATUS
  @ DRIVER MODE: Message from server: GETFORCE
  @ DRIVER MODE: Returning v,forces,stress,ensemble

     Writing output data file ./calc.save/
  @ DRIVER MODE: Message from server: EXIT
  @ DRIVE MODE: Exiting

     General routines

     Parallel routines

   This run was terminated on:  16:57: 8  15Jul2021

   JOB DONE.