     Program PWSCF v.6.7GPU starts on 16Jul2021 at 22: 3:38

     R & G space division:  proc/nbgrp/npool/nimage =      16
     Reading input from /storage/home/hcoda1/3/ntian30/research/carbon/15Jul_vib/ads_slab/CH3NNHH_a/out_0045/pw.inp
Warning: card &CELL ignored
Warning: card   CELL_DYNAMICS='IPI', ignored
Warning: card / ignored

     Current dimensions of program PWSCF are:
     Max number of different atomic species (ntypx) = 10
     Max number of k-points (npk) =  40000
     Max angular momentum in pseudopotentials (lmaxx) =  3
     Presently no symmetry can be used with electric field

     Message from routine cell_base_init:
     DEPRECATED: use true lattice parameter, not A to a.u. conversion factor

     IMPORTANT: XC functional enforced from input :
     Exchange-correlation= BEEF-VDW
                           (   1   4  43  14   2   0   0)
     Any further DFT definition will be discarded
     Please, verify this is what you really want

  @ DRIVER MODE: Connecting to
 qe_1139763_2351651.sched-torque.pace.gatech.edun2w3yw_n_scratch
  using UNIX socket
  @ DRIVER MODE: Message from server: STATUS
  @ DRIVER MODE: Message from server: INIT
  @ DRIVER MODE: Receiving replica           0          -1
  @ DRIVER MODE: Receiving encoded integer          25
  @ DRIVER MODE:  SCF:  T  FORCE:  T  STRESS:  F  VC:  F  ENSEMBLE:  F
  @ DRIVER MODE:  SCF:  T  FORCE:  T  STRESS:  F  VC:  F  ENSEMBLE:  F

     Using Slab Decomposition

     bravais-lattice index     =            0
     lattice parameter (alat)  =       1.8897  a.u.
     unit-cell volume          =    6658.9804 (a.u.)^3
     number of atoms/cell      =           55
     number of atomic types    =            5
     number of electrons       =       397.00
     number of Kohn-Sham states=          208
     kinetic-energy cutoff     =      29.3995  Ry
     charge density cutoff     =     293.9946  Ry
     scf convergence threshold =      7.3E-08
     mixing beta               =       0.0500
     number of iterations used =            8  plain     mixing
     Exchange-correlation= BEEF-VDW
                           (   1   4  43  14   2   0   0)

     celldm(1)=   1.889726  celldm(2)=   0.000000  celldm(3)=   0.000000
     celldm(4)=   0.000000  celldm(5)=   0.000000  celldm(6)=   0.000000

     crystal axes: (cart. coord. in units of alat)
               a(1) = (   6.579727   0.000000   0.000000 )
               a(2) = (  -0.000775   5.961596   0.000000 )
               a(3) = (   0.000000   0.000000  25.155947 )

     reciprocal axes: (cart. coord. in units 2 pi/alat)
               b(1) = (  0.151982  0.000020  0.000000 )
               b(2) = (  0.000000  0.167740  0.000000 )
               b(3) = (  0.000000  0.000000  0.039752 )

     PseudoPot. # 1 for Ti read from file:
     /storage/coda1/p-amedford6/0/shared/rich_project_chbe-medford/medford-share/data/pseudos_module/espresso/nninc/pbe/van/Ti.UPF
     MD5 check sum: 8e4df49b7f0d34bbd5052bf3f5ea0213
     Pseudo is Ultrasoft, Zval = 12.0
     Generated by new atomic code, or converted to UPF format
     Using radial grid of  851 points,  6 beta functions with:
                l(1) =   0
                l(2) =   0
                l(3) =   1
                l(4) =   1
                l(5) =   2
                l(6) =   2
     Q(r) pseudized with  8 coefficients,  rinner =    1.000   1.000   1.000
                                                       1.000   1.000

     PseudoPot. # 2 for O  read from file:
     /storage/coda1/p-amedford6/0/shared/rich_project_chbe-medford/medford-share/data/pseudos_module/espresso/nninc/pbe/van/O.UPF
     MD5 check sum: 78c19812648e8988a0fe644b0f25305e
     Pseudo is Ultrasoft, Zval =  6.0
     Generated by new atomic code, or converted to UPF format
     Using radial grid of  737 points,  4 beta functions with:
                l(1) =   0
                l(2) =   0
                l(3) =   1
                l(4) =   1
     Q(r) pseudized with  8 coefficients,  rinner =    0.800   0.800   0.800

     PseudoPot. # 3 for N  read from file:
     /storage/coda1/p-amedford6/0/shared/rich_project_chbe-medford/medford-share/data/pseudos_module/espresso/nninc/pbe/van/N.UPF
     MD5 check sum: 90d10febe142ad51ac9d5be1deb811c4
     Pseudo is Ultrasoft, Zval =  5.0
     Generated by new atomic code, or converted to UPF format
     Using radial grid of  729 points,  4 beta functions with:
                l(1) =   0
                l(2) =   0
                l(3) =   1
                l(4) =   1
     Q(r) pseudized with  8 coefficients,  rinner =    0.800   0.800   0.800

     PseudoPot. # 4 for C  read from file:
     /storage/coda1/p-amedford6/0/shared/rich_project_chbe-medford/medford-share/data/pseudos_module/espresso/nninc/pbe/van/C.UPF
     MD5 check sum: 1a69bf6b8db32088f5b2163dbdb77a27
     Pseudo is Ultrasoft, Zval =  4.0
     Generated by new atomic code, or converted to UPF format
     Using radial grid of  721 points,  4 beta functions with:
                l(1) =   0
                l(2) =   0
                l(3) =   1
                l(4) =   1
     Q(r) pseudized with  8 coefficients,  rinner =    0.800   0.800   0.800

     PseudoPot. # 5 for H  read from file:
     /storage/coda1/p-amedford6/0/shared/rich_project_chbe-medford/medford-share/data/pseudos_module/espresso/nninc/pbe/van/H.UPF
     MD5 check sum: b5ee9d7bfd3a09ee7748110bda690ff7
     Pseudo is Ultrasoft, Zval =  1.0
     Generated by new atomic code, or converted to UPF format
     Using radial grid of  615 points,  1 beta functions with:
                l(1) =   0
     Q(r) pseudized with  8 coefficients,  rinner =    0.800

     atomic species   valence    mass     pseudopotential
        Ti1           12.00    47.86700     Ti( 1.00)
        O1             6.00    15.99900     O ( 1.00)
        N1             5.00    14.00700     N ( 1.00)
        C1             4.00    12.01100     C ( 1.00)
        H1             1.00     1.00800     H ( 1.00)

     Starting magnetic structure
     atomic species   magnetization
        Ti1          0.000
        O1           0.000
        N1           0.000
        C1           0.025
        H1           0.000

     No symmetry found

   Cartesian axes

     site n.     atom                  positions (alat units)
         1           Ti1 tau(   1) = (   0.0004258   2.9801865   6.0000000  )
         2           Ti1 tau(   2) = (   3.2906075   1.4906267   6.0002472  )
         3           O1  tau(   3) = (   0.0006271   0.0005054   7.9858123  )
         4           O1  tau(   4) = (   3.2906025   0.0005020   7.3038282  )
         5           O1  tau(   5) = (   4.5942328   1.4918067   9.2879030  )
         6           O1  tau(   6) = (   1.9868534   1.4903216   9.2879459  )
         7           Ti1 tau(   7) = (   3.2907910   2.8959150   9.1758416  )
         8           Ti1 tau(   8) = (   0.0015273   1.4827037   9.2680791  )
         9           O1  tau(   9) = (   3.3020592   5.9599881  11.3075072  )
        10           O1  tau(  10) = (   0.0116148   5.9584955  10.6183126  )
        11           O1  tau(  11) = (   1.3218652   1.4872367  12.6142461  )
        12           O1  tau(  12) = (   5.3149618   1.4866655  12.6283206  )
        13           Ti1 tau(  13) = (   6.5343381   3.0098038  12.6530281  )
        14           Ti1 tau(  14) = (   3.2132235   1.4912063  12.4551521  )
        15           O1  tau(  15) = (   0.0515422   5.9562953  14.6829507  )
        16           O1  tau(  16) = (   3.3088797   0.0214154  13.8770011  )
        17           O1  tau(  17) = (   4.5726725   1.5412406  16.1224456  )
        18           O1  tau(  18) = (   2.0900022   1.5114086  15.9969863  )
        19           Ti1 tau(  19) = (   3.3311046   3.0200058  15.6476981  )
        20           Ti1 tau(  20) = (   0.0790784   1.4105808  15.8036947  )
        21           O1  tau(  21) = (   3.2904802   0.0005063   4.7018136  )
        22           O1  tau(  22) = (   0.0613336   0.0214447  17.2555488  )
        23           O1  tau(  23) = (   1.3043587   1.4918075   6.0039043  )
        24           O1  tau(  24) = (   5.2767064   1.4903225   6.0039473  )
        25           Ti1 tau(  25) = (   0.0000382   5.9609847   6.0000000  )
        26           Ti1 tau(  26) = (   3.2902200   4.4714249   6.0002472  )
        27           O1  tau(  27) = (   0.0002396   2.9813036   7.9858123  )
        28           O1  tau(  28) = (   3.2902150   2.9813002   7.3038282  )
        29           O1  tau(  29) = (   4.5938453   4.4726049   9.2879030  )
        30           O1  tau(  30) = (   1.9864658   4.4711199   9.2879459  )
        31           Ti1 tau(  31) = (   3.2891106   5.8743827   9.1763621  )
        32           Ti1 tau(  32) = (   0.0006254   4.4649316   9.2693709  )
        33           O1  tau(  33) = (   3.3026341   2.9893090  11.3092672  )
        34           O1  tau(  34) = (   0.0092240   2.9805883  10.6323155  )
        35           O1  tau(  35) = (   1.3182942   4.4670451  12.6271195  )
        36           O1  tau(  36) = (   5.3124783   4.4780259  12.6376329  )
        37           Ti1 tau(  37) = (   6.5365500   0.0194685  12.5464133  )
        38           Ti1 tau(  38) = (   3.2155898   4.4753301  12.4613306  )
        39           O1  tau(  39) = (   0.0167368   2.9407051  14.7244952  )
        40           O1  tau(  40) = (   3.3149560   2.9822459  13.8616979  )
        41           O1  tau(  41) = (   4.5706274   4.5128733  15.9228735  )
        42           O1  tau(  42) = (   2.1262058   4.4922812  16.0793225  )
        43           Ti1 tau(  43) = (   3.3222298   0.0210159  15.6751784  )
        44           Ti1 tau(  44) = (   6.5499002   4.5104744  16.2959303  )
        45           O1  tau(  45) = (   3.2900926   2.9813045   4.7018136  )
        46           O1  tau(  46) = (   1.3039711   4.4726057   6.0039043  )
        47           O1  tau(  47) = (   5.2763189   4.4711207   6.0039473  )
        48           N1  tau(  48) = (   0.3735289   2.9861087  17.6038306  )
        49           C1  tau(  49) = (   1.3580301   2.7301661  18.6431808  )
        50           H1  tau(  50) = (   1.5128655   3.6233449  19.2641712  )
        51           H1  tau(  51) = (   1.0354786   1.8978442  19.2795547  )
        52           H1  tau(  52) = (   2.3065860   2.4473273  18.1987077  )
        53           N1  tau(  53) = (   5.7326324   3.4596218  18.1373629  )
        54           H1  tau(  54) = (   5.8436824   4.0267099  18.9748678  )
        55           H1  tau(  55) = (   5.0375616   2.7144768  18.2555579  )

     number of k points=    10  Fermi-Dirac smearing, width (Ry)=  0.0073
                       cart. coord. in units 2pi/alat
        k(    1) = (   0.0000000   0.0000000   0.0000000), wk =   0.0625000
        k(    2) = (   0.0000000   0.0419351   0.0000000), wk =   0.1250000
        k(    3) = (   0.0000000  -0.0838702   0.0000000), wk =   0.0625000
        k(    4) = (   0.0379955   0.0000049   0.0000000), wk =   0.1250000
        k(    5) = (   0.0379955   0.0419400   0.0000000), wk =   0.1250000
        k(    6) = (   0.0379955  -0.0838652   0.0000000), wk =   0.1250000
[...]
     %                                                                      %
     % If you are calculating the stress with vdW-DF, please also cite:     %
     %                                                                      %
     %   R. Sabatini et al., J. Phys.: Condens. Matter 24, 424209 (2012).   %
     %                                                                      %
     %%%%%%%%%%%%%%%%%%%%%%%%%%%%%%%%%%%%%%%%%%%%%%%%%%%%%%%%%%%%%%%%%%%%%%%%

     Adding external electric field

     Computed dipole along edir(3) :
        Dipole               -9.2582 Ry au,        -23.5319 Debye
        Dipole field         -0.0175 Ry au,

        Potential amp.        1.6196 Ry
        Total length         46.3494 bohr

[...]

     Starting wfcs are  301 atomic wfcs
  @ DRIVER MODE: Message from server: STATUS
  @ DRIVER MODE: Message from server: POSDATA
  @ DRIVER MODE: Reading and sharing cell
  @ DRIVER MODE: Reading and sharing positions
  @ DRIVER MODE: Received positions

     Self-consistent Calculation

     iteration #  1     ecut=    29.40 Ry     beta= 0.05
     Davidson diagonalization with overlap
     c_bands:  1 eigenvalues not converged
     c_bands:  2 eigenvalues not converged
     c_bands:  1 eigenvalues not converged
     c_bands:  2 eigenvalues not converged
     c_bands:  2 eigenvalues not converged
     c_bands:  2 eigenvalues not converged
     c_bands:  2 eigenvalues not converged
     c_bands:  1 eigenvalues not converged
     c_bands:  4 eigenvalues not converged
     c_bands:  1 eigenvalues not converged
     c_bands:  2 eigenvalues not converged
     c_bands:  1 eigenvalues not converged
     c_bands:  2 eigenvalues not converged
     c_bands:  2 eigenvalues not converged
     c_bands:  2 eigenvalues not converged
     c_bands:  2 eigenvalues not converged
     c_bands:  1 eigenvalues not converged
     c_bands:  4 eigenvalues not converged
     ethr =  1.00E-05,  avg # of iterations = 19.8

[...]

     total energy              =   -2525.31452913 Ry
     estimated scf accuracy    <    4616.16286304 Ry

     total magnetization       =     0.00 Bohr mag/cell
     absolute magnetization    =     0.03 Bohr mag/cell

     iteration #  2     ecut=    29.40 Ry     beta= 0.05
     Davidson diagonalization with overlap
     ethr =  1.00E-02,  avg # of iterations = 24.1

[...]

     iteration #130     ecut=    29.40 Ry     beta= 0.05
     Davidson diagonalization with overlap
     ethr =  3.34E-11,  avg # of iterations =  2.6

[...]

     total energy              =   -2941.63801585 Ry
     estimated scf accuracy    <       0.00000015 Ry

[...]

     iteration #133     ecut=    29.40 Ry     beta= 0.05
     Davidson diagonalization with overlap
     c_bands:  1 eigenvalues not converged
     c_bands:  2 eigenvalues not converged
     c_bands:  2 eigenvalues not converged
     c_bands:  1 eigenvalues not converged
     c_bands:  3 eigenvalues not converged
     c_bands:  3 eigenvalues not converged
     c_bands:  1 eigenvalues not converged
     c_bands:  2 eigenvalues not converged
     c_bands:  2 eigenvalues not converged
     c_bands:  1 eigenvalues not converged
     c_bands:  2 eigenvalues not converged
     c_bands:  1 eigenvalues not converged
     c_bands:  4 eigenvalues not converged
     c_bands:  4 eigenvalues not converged
     c_bands:  2 eigenvalues not converged
     c_bands:  3 eigenvalues not converged
     c_bands:  1 eigenvalues not converged
     c_bands:  3 eigenvalues not converged
     ethr =  2.61E-11,  avg # of iterations = 20.6

     negative rho (up, down):  8.391E-03 8.393E-03

[...]

     Adding external electric field

     Computed dipole along edir(3) :
        Dipole                1.1488 Ry au,          2.9200 Debye
        Dipole field          0.0022 Ry au,

        Potential amp.       -0.2010 Ry
        Total length         46.3494 bohr

     Magnetic moment per site  (integrated on atomic sphere of radius R)
     atom   1 (R=0.726)  charge=  7.9409  magn=  0.0165
     atom   2 (R=0.726)  charge=  7.9243  magn=  0.0008
     atom   3 (R=0.726)  charge=  4.9319  magn= -0.0014
     atom   4 (R=0.726)  charge=  4.9681  magn= -0.0002
     atom   5 (R=0.726)  charge=  4.9368  magn= -0.0002
     atom   6 (R=0.726)  charge=  4.9376  magn= -0.0002
     atom   7 (R=0.726)  charge=  7.9229  magn=  0.0006
     atom   8 (R=0.726)  charge=  7.9151  magn=  0.0050
     atom   9 (R=0.726)  charge=  4.9562  magn= -0.0001
     atom  10 (R=0.726)  charge=  4.9310  magn= -0.0004
     atom  11 (R=0.726)  charge=  4.9388  magn= -0.0001
     atom  12 (R=0.726)  charge=  4.9369  magn= -0.0001
     atom  13 (R=0.726)  charge=  7.9088  magn=  0.0010
     atom  14 (R=0.726)  charge=  7.9273  magn=  0.0003
     atom  15 (R=0.726)  charge=  4.9165  magn= -0.0001
     atom  16 (R=0.726)  charge=  4.9542  magn= -0.0000
     atom  17 (R=0.726)  charge=  4.9068  magn=  0.0000
     atom  18 (R=0.726)  charge=  4.9387  magn=  0.0000
     atom  19 (R=0.726)  charge=  7.9527  magn=  0.0000
     atom  20 (R=0.726)  charge=  7.9411  magn=  0.0001
     atom  21 (R=0.726)  charge=  4.8211  magn= -0.0007
     atom  22 (R=0.726)  charge=  4.9007  magn=  0.0000
     atom  23 (R=0.726)  charge=  4.9281  magn= -0.0019
     atom  24 (R=0.726)  charge=  4.9282  magn= -0.0019
     atom  25 (R=0.726)  charge=  7.9408  magn=  0.0164
     atom  26 (R=0.726)  charge=  7.9244  magn=  0.0008
     atom  27 (R=0.726)  charge=  4.9305  magn= -0.0014
     atom  28 (R=0.726)  charge=  4.9683  magn= -0.0002
     atom  29 (R=0.726)  charge=  4.9375  magn= -0.0002
     atom  30 (R=0.726)  charge=  4.9382  magn= -0.0002
     atom  31 (R=0.726)  charge=  7.9236  magn=  0.0006
     atom  32 (R=0.726)  charge=  7.9153  magn=  0.0049
     atom  33 (R=0.726)  charge=  4.9540  magn= -0.0001
     atom  34 (R=0.726)  charge=  4.9049  magn= -0.0005
     atom  35 (R=0.726)  charge=  4.9378  magn= -0.0001
     atom  36 (R=0.726)  charge=  4.9369  magn= -0.0002
     atom  37 (R=0.726)  charge=  7.9159  magn=  0.0011
     atom  38 (R=0.726)  charge=  7.9271  magn=  0.0003
     atom  39 (R=0.726)  charge=  4.9089  magn= -0.0000
     atom  40 (R=0.726)  charge=  4.9620  magn= -0.0000
     atom  41 (R=0.726)  charge=  4.9463  magn= -0.0000
     atom  42 (R=0.726)  charge=  4.9157  magn=  0.0000
     atom  43 (R=0.726)  charge=  7.9490  magn=  0.0000
     atom  44 (R=0.726)  charge=  7.9599  magn=  0.0000
     atom  45 (R=0.726)  charge=  4.8212  magn= -0.0007
     atom  46 (R=0.726)  charge=  4.9281  magn= -0.0019
     atom  47 (R=0.726)  charge=  4.9282  magn= -0.0019
     atom  48 (R=0.420)  charge=  1.3152  magn= -0.0000
     atom  49 (R=0.448)  charge=  0.8406  magn=  0.0000
     atom  50 (R=0.420)  charge=  0.4416  magn= -0.0000
     atom  51 (R=0.420)  charge=  0.4406  magn= -0.0000
     atom  52 (R=0.420)  charge=  0.4486  magn= -0.0000
     atom  53 (R=0.420)  charge=  1.3364  magn= -0.0000
     atom  54 (R=0.420)  charge=  0.4532  magn=  0.0000
     atom  55 (R=0.420)  charge=  0.4442  magn= -0.0000

     End of self-consistent calculation

 ------ SPIN UP ------------

          k = 0.0000 0.0000 0.0000 ( 18029 PWs)   bands (ev):

   -55.5859 -55.5751 -55.5519 -55.5372 -55.4623 -55.4250 -55.4237 -55.3882
   -55.3758 -55.3417 -55.3280 -55.2941 -55.0321 -54.8758 -54.5384 -54.5044
   -32.1370 -32.0582 -31.9595 -31.8923 -31.8886 -31.8825 -31.8798 -31.8242
   -31.8200 -31.8066 -31.7848 -31.7596 -31.7552 -31.7408 -31.7270 -31.7161
   -31.6803 -31.6609 -31.6592 -31.6514 -31.6504 -31.6463 -31.6149 -31.5980
   -31.5713 -31.5703 -31.5679 -31.5623 -31.5585 -31.5317 -31.5095 -31.5088
   -31.4957 -31.4924 -31.4823 -31.4791 -31.4413 -31.3063 -31.2570 -31.1557
   -31.1284 -31.0368 -30.9443 -30.8582 -30.8356 -30.7617 -30.6752 -30.5636
   -17.5727 -16.3619 -16.0483 -15.8346 -15.7255 -15.7225 -15.6386 -15.4165
   -15.2956 -15.2801 -15.1662 -15.1624 -15.1002 -15.0607 -15.0538 -15.0470
   -15.0141 -15.0024 -14.9824 -14.9488 -14.9158 -14.8975 -14.8743 -14.7729
   -14.7059 -14.6982 -14.6824 -14.6170 -14.5693 -14.2104 -13.0387 -12.9224
   -12.5182  -9.1899  -6.3267  -5.0810  -4.1916  -3.7405  -3.5509  -3.4745
    -3.4390  -3.3709  -3.3462  -3.1813  -3.1742  -2.7948  -2.7754  -2.7573
    -2.7360  -2.7327  -2.4636  -2.4107  -2.3957  -2.3926  -2.3748  -2.3579
    -2.3369  -2.3261  -2.2984  -2.2877  -2.1543  -2.1100  -2.0320  -2.0058
    -1.9902  -1.8800  -1.8537  -1.8335  -1.8217  -1.8086  -1.7793  -1.7725
    -1.7506  -1.6426  -1.5329  -1.4540  -1.4127  -1.3604  -1.3389  -1.1634
    -1.1101  -1.0512  -1.0272  -1.0032  -0.9884  -0.9548  -0.8802  -0.8552
    -0.7137  -0.6750  -0.6210  -0.5947  -0.5660  -0.5095  -0.4765  -0.4462
    -0.3505  -0.3378  -0.3257  -0.3143  -0.2587  -0.0655  -0.0184   0.0010
     0.0159   0.1152   0.1542   0.1796   0.2134   0.2701   0.2981   0.3629
     0.3914   0.4135   0.4227   0.4509   0.4674   0.5995   0.6255   0.6555
     0.7172   0.7704   0.8459   0.9590   1.0412   1.0983   1.1999   1.4178
     1.4853   1.5694   1.6790   1.7093   2.0557   2.1000   3.5562   3.6366
     3.6910   3.7033   3.8112   3.8668   4.0060   4.0219   4.0597   4.0940

[...]

          k =-0.0760-0.0000 0.0000 ( 17886 PWs)   bands (ev):

[...]

 ------ SPIN DOWN ----------

[...]

          k = 0.0380-0.0419 0.0000 ( 17876 PWs)   bands (ev):

[...]

          k =-0.0760-0.0839 0.0000 ( 17948 PWs)   bands (ev):

   -55.5609 -55.5501 -55.5384 -55.5370 -55.4490 -55.4342 -55.4096 -55.4021
   -55.3507 -55.3475 -55.3117 -55.3081 -55.0305 -54.8769 -54.5199 -54.5198
   -31.9424 -31.9319 -31.8605 -31.8595 -31.8441 -31.8313 -31.8301 -31.8276
   -31.8024 -31.7885 -31.7683 -31.7488 -31.7230 -31.7123 -31.7074 -31.6816
   -31.6758 -31.6653 -31.6627 -31.6549 -31.6533 -31.6520 -31.6486 -31.6461
   -31.6243 -31.6136 -31.6031 -31.6008 -31.5499 -31.5478 -31.5443 -31.5419
   -31.5306 -31.5281 -31.5259 -31.5245 -31.4118 -31.3173 -31.2586 -31.2168
   -31.1338 -31.0479 -30.8465 -30.8464 -30.7564 -30.7562 -30.7169 -30.7168
   -17.5607 -15.8220 -15.7820 -15.5270 -15.5186 -15.5155 -15.4762 -15.3520
   -15.3030 -15.2772 -15.2666 -15.2479 -15.2393 -15.1380 -15.1242 -15.1077
   -15.0978 -15.0707 -15.0276 -15.0224 -15.0136 -15.0046 -14.9928 -14.9257
   -14.8734 -14.8696 -14.7556 -14.6641 -14.5236 -14.4355 -13.0260 -13.0258
   -12.5372  -9.1512  -6.2848  -5.1105  -4.1242  -3.4164  -3.1225  -3.0750
    -2.7870  -2.7675  -2.7516  -2.6380  -2.5194  -2.5102  -2.4841  -2.4624
    -2.4281  -2.4152  -2.4050  -2.3968  -2.3787  -2.3606  -2.3499  -2.3105
    -2.2417  -2.2337  -2.2250  -2.2172  -2.2003  -2.1766  -2.1658  -2.1387
    -2.1142  -2.0795  -2.0203  -1.9899  -1.8401  -1.7965  -1.7340  -1.6959
    -1.6874  -1.6587  -1.6246  -1.6173  -1.5064  -1.4919  -1.4588  -1.3283
    -1.2677  -1.2596  -1.2274  -1.1400  -1.1011  -0.9721  -0.9591  -0.9219
    -0.8661  -0.8587  -0.8219  -0.7838  -0.7327  -0.6806  -0.6368  -0.6143
    -0.5961  -0.5246  -0.5241  -0.4768  -0.4204  -0.3497  -0.3263  -0.3192
    -0.2875  -0.2436  -0.1963  -0.1332  -0.0576  -0.0373  -0.0234   0.0755
     0.1489   0.3676   0.4146   0.5117   0.5337   0.5614   0.6211   0.6709
     0.7392   0.7540   0.7822   0.8565   0.8793   0.9704   0.9817   0.9989
     1.1763   1.6443   1.8500   1.8510   1.9190   1.9194   3.8580   3.8739
     3.8982   3.9220   4.0925   4.0973   4.1068   4.1096   4.2289   4.2584

     the Fermi energy is     3.5632 ev

!    total energy              =   -2941.63801726 Ry
     estimated scf accuracy    <       0.00000007 Ry
     smearing contrib. (-TS)   =      -0.02168804 Ry
     internal energy E=F+TS    =   -2941.61632922 Ry

     The total energy is F=E-TS. E is the sum of the following terms:
     one-electron contribution =  -24388.00924226 Ry
     hartree contribution      =   12285.95664275 Ry
     xc contribution           =    -486.93519121 Ry
     ewald contribution        =    9647.36897085 Ry
     electric field correction =       0.00249065 Ry

     total magnetization       =     0.06 Bohr mag/cell
     absolute magnetization    =     0.10 Bohr mag/cell

     convergence has been achieved in 133 iterations

     Forces acting on atoms (cartesian axes, Ry/au):

     atom    1 type  1   force =    -0.00000883   -0.00019465    0.09679992
     atom    2 type  1   force =     0.00008903   -0.00069539   -0.17463925
     atom    3 type  2   force =     0.00018200   -0.00005976   -0.02507185
     atom    4 type  2   force =     0.00000897   -0.00124872    0.05120353
     atom    5 type  2   force =    -0.01126251   -0.00080469    0.00229296
     atom    6 type  2   force =     0.01310270   -0.00035552    0.00273911
     atom    7 type  1   force =     0.00100241    0.00021086   -0.01341942
     atom    8 type  1   force =    -0.00010265    0.01533352    0.02824738
     atom    9 type  2   force =    -0.00007239   -0.00001393    0.00010211
     atom   10 type  2   force =    -0.00234035    0.00080851   -0.01056518
     atom   11 type  2   force =     0.00035474    0.00005645   -0.00001131
     atom   12 type  2   force =    -0.00043966   -0.00006535    0.00025965
     atom   13 type  1   force =     0.00015393   -0.00018249   -0.00007923
     atom   14 type  1   force =     0.00010980   -0.00022039    0.00002275
     atom   15 type  2   force =    -0.00004488    0.00020030   -0.00010240
     atom   16 type  2   force =    -0.00019835    0.00004190   -0.00018535
     atom   17 type  2   force =    -0.00006608    0.00002008   -0.00003925
     atom   18 type  2   force =    -0.00017416    0.00001510   -0.00017545
     atom   19 type  1   force =    -0.00028693    0.00030225    0.00017377
     atom   20 type  1   force =     0.00008552   -0.00043754    0.00011536
     atom   21 type  2   force =     0.00003718   -0.00008988    0.10298582
     atom   22 type  2   force =    -0.00012455    0.00037319    0.00055847
     atom   23 type  2   force =    -0.07176858   -0.00021201   -0.02777958
     atom   24 type  2   force =     0.07172715    0.00024342   -0.02784399
     atom   25 type  1   force =     0.00003584   -0.00025759    0.09641026
     atom   26 type  1   force =    -0.00001048   -0.00029852   -0.17489768
     atom   27 type  2   force =     0.00019222   -0.00025660   -0.02393239
     atom   28 type  2   force =     0.00005266   -0.00100508    0.05147579
     atom   29 type  2   force =    -0.01129161    0.00078417    0.00170722
     atom   30 type  2   force =     0.01298106    0.00111141    0.00210793
     atom   31 type  1   force =     0.00103753    0.00256524   -0.01543716
     atom   32 type  1   force =     0.00005629   -0.01663537    0.02912487
     atom   33 type  2   force =     0.00011716    0.00002927   -0.00011014
     atom   34 type  2   force =    -0.00271088    0.00093409   -0.01866709
     atom   35 type  2   force =     0.00017633   -0.00007472   -0.00008618
     atom   36 type  2   force =    -0.00038460   -0.00007349    0.00013597
     atom   37 type  1   force =    -0.00011762   -0.00019219    0.00012626
     atom   38 type  1   force =     0.00008330    0.00008555   -0.00006958
     atom   39 type  2   force =    -0.00003309    0.00043591    0.00000090
     atom   40 type  2   force =    -0.00037902    0.00014593   -0.00013150
     atom   41 type  2   force =     0.00012639    0.00003324   -0.00018205
     atom   42 type  2   force =    -0.00001058    0.00022067   -0.00002659
     atom   43 type  1   force =     0.00016136   -0.00006723   -0.00014027
     atom   44 type  1   force =    -0.00031043   -0.00054111   -0.00050397
     atom   45 type  2   force =     0.00005368   -0.00010988    0.10298641
     atom   46 type  2   force =    -0.07179367   -0.00015982   -0.02780196
     atom   47 type  2   force =     0.07173406    0.00022663   -0.02784479
     atom   48 type  3   force =    -0.00038907    0.00046355    0.00070679
     atom   49 type  4   force =     0.00031013   -0.00020084   -0.00004636
     atom   50 type  5   force =    -0.00031680    0.00008446    0.00011058
     atom   51 type  5   force =    -0.00048232   -0.00007693   -0.00024109
     atom   52 type  5   force =     0.00078446   -0.00023681    0.00017420
     atom   53 type  3   force =    -0.00608958   -0.00853650   -0.00009214
     atom   54 type  5   force =     0.00005431   -0.00057534    0.00144754
     atom   55 type  5   force =     0.00639945    0.00915263   -0.00189233

     Total force =     0.367499     Total SCF correction =     0.000653
  @ DRIVER MODE: Message from server: STATUS
  @ DRIVER MODE: Message from server: GETFORCE
  @ DRIVER MODE: Returning v,forces,stress,ensemble

     Writing output data file ./calc.save/
  @ DRIVER MODE: Message from server: EXIT
  @ DRIVE MODE: Exiting

     General routines

     Parallel routines

   This run was terminated on:  23: 3:39  16Jul2021

   JOB DONE.