     Program PWSCF v.6.7GPU starts on 18Aug2021 at 14: 3:22

     R & G space division:  proc/nbgrp/npool/nimage =       6
     Reading input from /storage/home/hcoda1/3/ntian30/research/carbon/CH3_vib_side_on/ads_slab/CH3_a/out_0008/pw.inp
Warning: card &CELL ignored
Warning: card   CELL_DYNAMICS='IPI', ignored
Warning: card / ignored

     Current dimensions of program PWSCF are:
     Max number of different atomic species (ntypx) = 10
     Max number of k-points (npk) =  40000
     Max angular momentum in pseudopotentials (lmaxx) =  3
     Presently no symmetry can be used with electric field

     Message from routine cell_base_init:
     DEPRECATED: use true lattice parameter, not A to a.u. conversion factor

     IMPORTANT: XC functional enforced from input :
     Exchange-correlation= BEEF-VDW
                           (   1   4  43  14   2   0   0)
     Any further DFT definition will be discarded
     Please, verify this is what you really want

  @ DRIVER MODE: Connecting to
 qe_1139763_2594175.sched-torque.pace.gatech.edudlofs7o7_scratch
  using UNIX socket
  @ DRIVER MODE: Message from server: STATUS
  @ DRIVER MODE: Message from server: INIT
  @ DRIVER MODE: Receiving replica           0          -1
  @ DRIVER MODE: Receiving encoded integer          25
  @ DRIVER MODE:  SCF:  T  FORCE:  T  STRESS:  F  VC:  F  ENSEMBLE:  F
  @ DRIVER MODE:  SCF:  T  FORCE:  T  STRESS:  F  VC:  F  ENSEMBLE:  F

     Using Slab Decomposition

     bravais-lattice index     =            0
     lattice parameter (alat)  =       1.8897  a.u.
     unit-cell volume          =    6658.9804 (a.u.)^3
     number of atoms/cell      =           51
     number of atomic types    =            4
     number of electrons       =       385.00
     number of Kohn-Sham states=          202
     kinetic-energy cutoff     =      29.3995  Ry
     charge density cutoff     =     293.9946  Ry
     scf convergence threshold =      7.3E-08
     mixing beta               =       0.0500
     number of iterations used =            8  plain     mixing
     Exchange-correlation= BEEF-VDW
                           (   1   4  43  14   2   0   0)

     celldm(1)=   1.889726  celldm(2)=   0.000000  celldm(3)=   0.000000
     celldm(4)=   0.000000  celldm(5)=   0.000000  celldm(6)=   0.000000

     crystal axes: (cart. coord. in units of alat)
               a(1) = (   6.579727   0.000000   0.000000 )
               a(2) = (  -0.000775   5.961596   0.000000 )
               a(3) = (   0.000000   0.000000  25.155947 )

     reciprocal axes: (cart. coord. in units 2 pi/alat)
               b(1) = (  0.151982  0.000020  0.000000 )
               b(2) = (  0.000000  0.167740  0.000000 )
               b(3) = (  0.000000  0.000000  0.039752 )

     PseudoPot. # 1 for Ti read from file:
     /storage/coda1/p-amedford6/0/shared/rich_project_chbe-medford/medford-share/data/pseudos_module/espresso/nninc/pbe/van/Ti.UPF
     MD5 check sum: 8e4df49b7f0d34bbd5052bf3f5ea0213
     Pseudo is Ultrasoft, Zval = 12.0
     Generated by new atomic code, or converted to UPF format
     Using radial grid of  851 points,  6 beta functions with:
                l(1) =   0
                l(2) =   0
                l(3) =   1
                l(4) =   1
                l(5) =   2
                l(6) =   2
     Q(r) pseudized with  8 coefficients,  rinner =    1.000   1.000   1.000
                                                       1.000   1.000

     PseudoPot. # 2 for O  read from file:
     /storage/coda1/p-amedford6/0/shared/rich_project_chbe-medford/medford-share/data/pseudos_module/espresso/nninc/pbe/van/O.UPF
     MD5 check sum: 78c19812648e8988a0fe644b0f25305e
     Pseudo is Ultrasoft, Zval =  6.0
     Generated by new atomic code, or converted to UPF format
     Using radial grid of  737 points,  4 beta functions with:
                l(1) =   0
                l(2) =   0
                l(3) =   1
                l(4) =   1
     Q(r) pseudized with  8 coefficients,  rinner =    0.800   0.800   0.800

     PseudoPot. # 3 for C  read from file:
     /storage/coda1/p-amedford6/0/shared/rich_project_chbe-medford/medford-share/data/pseudos_module/espresso/nninc/pbe/van/C.UPF
     MD5 check sum: 1a69bf6b8db32088f5b2163dbdb77a27
     Pseudo is Ultrasoft, Zval =  4.0
     Generated by new atomic code, or converted to UPF format
     Using radial grid of  721 points,  4 beta functions with:
                l(1) =   0
                l(2) =   0
                l(3) =   1
                l(4) =   1
     Q(r) pseudized with  8 coefficients,  rinner =    0.800   0.800   0.800

     PseudoPot. # 4 for H  read from file:
     /storage/coda1/p-amedford6/0/shared/rich_project_chbe-medford/medford-share/data/pseudos_module/espresso/nninc/pbe/van/H.UPF
     MD5 check sum: b5ee9d7bfd3a09ee7748110bda690ff7
     Pseudo is Ultrasoft, Zval =  1.0
     Generated by new atomic code, or converted to UPF format
     Using radial grid of  615 points,  1 beta functions with:
                l(1) =   0
     Q(r) pseudized with  8 coefficients,  rinner =    0.800

     atomic species   valence    mass     pseudopotential
        Ti1           12.00    47.86700     Ti( 1.00)
        O1             6.00    15.99900     O ( 1.00)
        C1             4.00    12.01100     C ( 1.00)
        H1             1.00     1.00800     H ( 1.00)

     No symmetry found

   Cartesian axes

     site n.     atom                  positions (alat units)
         1           Ti1 tau(   1) = (   0.0004258   2.9801865   6.0000000  )
         2           Ti1 tau(   2) = (   3.2906075   1.4906267   6.0002472  )
         3           O1  tau(   3) = (   0.0006271   0.0005054   7.9858123  )
         4           O1  tau(   4) = (   3.2906025   0.0005020   7.3038282  )
         5           O1  tau(   5) = (   4.5942328   1.4918067   9.2879030  )
         6           O1  tau(   6) = (   1.9868534   1.4903216   9.2879459  )
         7           Ti1 tau(   7) = (   3.3226903   2.9514341   9.1576891  )
         8           Ti1 tau(   8) = (   0.0343464   1.5915341   9.3698150  )
         9           O1  tau(   9) = (   3.2914246   5.9565917  11.3520874  )
        10           O1  tau(  10) = (   0.0056322   0.0001635  10.6062760  )
        11           O1  tau(  11) = (   1.2817320   1.4815673  12.6483243  )
        12           O1  tau(  12) = (   5.2831613   1.4908443  12.6423163  )
        13           Ti1 tau(  13) = (   0.0382653   2.9371430  12.8126397  )
        14           Ti1 tau(  14) = (   3.3532929   1.4821923  12.4951370  )
        15           O1  tau(  15) = (   6.5662424   5.9331786  14.6600200  )
        16           O1  tau(  16) = (   3.2816364   5.9551084  13.9465949  )
        17           O1  tau(  17) = (   4.5315606   1.5040344  16.0986503  )
        18           O1  tau(  18) = (   2.0287349   1.4998145  16.0995964  )
        19           Ti1 tau(  19) = (   3.2668404   2.9769305  15.7222481  )
        20           Ti1 tau(  20) = (   6.5415330   1.4777109  16.1743724  )
        21           O1  tau(  21) = (   3.2904802   0.0005063   4.7018136  )
        22           O1  tau(  22) = (   6.5659521   0.0029676  17.1944956  )
        23           O1  tau(  23) = (   1.3043587   1.4918075   6.0039043  )
        24           O1  tau(  24) = (   5.2767064   1.4903225   6.0039473  )
        25           Ti1 tau(  25) = (   0.0000382   5.9609847   6.0000000  )
        26           Ti1 tau(  26) = (   3.2902200   4.4714249   6.0002472  )
        27           O1  tau(  27) = (   0.0002396   2.9813036   7.9858123  )
        28           O1  tau(  28) = (   3.2902150   2.9813002   7.3038282  )
        29           O1  tau(  29) = (   4.5938453   4.4726049   9.2879030  )
        30           O1  tau(  30) = (   1.9864658   4.4711199   9.2879459  )
        31           Ti1 tau(  31) = (   3.3086233   5.9367107   9.1526142  )
        32           Ti1 tau(  32) = (   0.0357814   4.5182409   9.2638332  )
        33           O1  tau(  33) = (   3.2921447   2.9709340  11.3500156  )
        34           O1  tau(  34) = (   0.0064783   2.9842416  10.5732297  )
        35           O1  tau(  35) = (   1.2836142   4.4569143  12.6423601  )
        36           O1  tau(  36) = (   5.2821634   4.4598214  12.6376843  )
        37           Ti1 tau(  37) = (   0.0453433   5.9192801  12.5257453  )
        38           Ti1 tau(  38) = (   3.3504828   4.4607682  12.4868234  )
        39           O1  tau(  39) = (   0.0004961   2.9772524  14.7247240  )
        40           O1  tau(  40) = (   3.2810368   2.9729593  13.9290527  )
        41           O1  tau(  41) = (   4.5304642   4.4591278  16.0913236  )
        42           O1  tau(  42) = (   2.0231910   4.4609068  16.0933517  )
        43           Ti1 tau(  43) = (   3.2586866   5.9546939  15.7393459  )
        44           Ti1 tau(  44) = (   6.5465221   4.6060206  15.8931146  )
        45           O1  tau(  45) = (   3.2900926   2.9813045   4.7018136  )
        46           O1  tau(  46) = (   1.3039711   4.4726057   6.0039043  )
        47           O1  tau(  47) = (   5.2763189   4.4711207   6.0039473  )
        48           C1  tau(  48) = (   6.5676456   2.8990966  17.8516705  )
        49           H1  tau(  49) = (   6.5759762   3.9554521  18.1205428  )
        50           H1  tau(  50) = (   0.8773746   2.4756544  18.3284787  )
        51           H1  tau(  51) = (   5.6845275   2.4719798  18.3396978  )

     number of k points=    10  Fermi-Dirac smearing, width (Ry)=  0.0073
                       cart. coord. in units 2pi/alat
        k(    1) = (   0.0000000   0.0000000   0.0000000), wk =   0.1250000
        k(    2) = (   0.0000000   0.0419351   0.0000000), wk =   0.2500000
        k(    3) = (   0.0000000  -0.0838702   0.0000000), wk =   0.1250000
        k(    4) = (   0.0379955   0.0000049   0.0000000), wk =   0.2500000
        k(    5) = (   0.0379955   0.0419400   0.0000000), wk =   0.2500000
        k(    6) = (   0.0379955  -0.0838652   0.0000000), wk =   0.2500000
        k(    7) = (   0.0379955  -0.0419301   0.0000000), wk =   0.2500000
        k(    8) = (  -0.0759910  -0.0000099   0.0000000), wk =   0.1250000
        k(    9) = (  -0.0759910   0.0419252   0.0000000), wk =   0.2500000
        k(   10) = (  -0.0759910  -0.0838800   0.0000000), wk =   0.1250000

     Initial potential from superposition of free atoms

     starting charge  368.99918, renormalised to  385.00000

     negative rho (up, down):  2.032E-02 0.000E+00

     %%%%%%%%%%%%%%%%%%%%%%%%%%%%%%%%%%%%%%%%%%%%%%%%%%%%%%%%%%%%%%%%%%%%%%%%
     %                                                                      %
     % You are using vdW-DF, which was implemented by the Thonhauser group. %
     % Please cite the following two papers that made this development      %
     % possible and the two reviews that describe the various versions:     %
     %                                                                      %
     %   T. Thonhauser et al., PRL 115, 136402 (2015).                      %
     %   T. Thonhauser et al., PRB 76, 125112 (2007).                       %
     %   K. Berland et al., Rep. Prog. Phys. 78, 066501 (2015).             %
     %   D.C. Langreth et al., J. Phys.: Condens. Matter 21, 084203 (2009). %
     %                                                                      %
     %                                                                      %
     % If you are calculating the stress with vdW-DF, please also cite:     %
     %                                                                      %
     %   R. Sabatini et al., J. Phys.: Condens. Matter 24, 424209 (2012).   %
     %                                                                      %
     %%%%%%%%%%%%%%%%%%%%%%%%%%%%%%%%%%%%%%%%%%%%%%%%%%%%%%%%%%%%%%%%%%%%%%%%

     Adding external electric field

     Computed dipole along edir(3) :
        Dipole               -1.9974 Ry au,         -5.0769 Debye
        Dipole field         -0.0038 Ry au,

        Potential amp.        0.3494 Ry
        Total length         46.3494 bohr

     Starting wfcs are  291 atomic wfcs
  @ DRIVER MODE: Message from server: STATUS
  @ DRIVER MODE: Message from server: POSDATA
  @ DRIVER MODE: Reading and sharing cell
  @ DRIVER MODE: Reading and sharing positions
  @ DRIVER MODE: Received positions

     Self-consistent Calculation

     iteration #  1     ecut=    29.40 Ry     beta= 0.05
     Davidson diagonalization with overlap
     c_bands:  2 eigenvalues not converged
     c_bands:  1 eigenvalues not converged
     c_bands:  3 eigenvalues not converged
     c_bands:  1 eigenvalues not converged
     ethr =  1.00E-05,  avg # of iterations = 18.5

[...]

     total energy              =   -2900.52535900 Ry
     estimated scf accuracy    <      12.60262245 Ry

     iteration #  2     ecut=    29.40 Ry     beta= 0.05
     Davidson diagonalization with overlap
     ethr =  3.27E-03,  avg # of iterations =  1.0

[...]

     iteration # 45     ecut=    29.40 Ry     beta= 0.05
     Davidson diagonalization with overlap
     c_bands:  1 eigenvalues not converged
     ethr =  2.09E-08,  avg # of iterations = 12.0

[...]

     total energy              =   -2899.02576487 Ry
     estimated scf accuracy    <       0.00000008 Ry

     iteration # 59     ecut=    29.40 Ry     beta= 0.05
     Davidson diagonalization with overlap
     ethr =  2.00E-11,  avg # of iterations =  9.7

     negative rho (up, down):  1.950E-02 0.000E+00

     Adding external electric field

     Computed dipole along edir(3) :
        Dipole                0.4677 Ry au,          1.1887 Debye
        Dipole field          0.0009 Ry au,

        Potential amp.       -0.0818 Ry
        Total length         46.3494 bohr

     End of self-consistent calculation

          k = 0.0000 0.0000 0.0000 ( 18029 PWs)   bands (ev):

   -56.2366 -56.2157 -56.2001 -56.1795 -56.1263 -56.1252 -56.0888 -56.0732
   -56.0035 -55.9973 -55.9649 -55.9615 -55.8918 -55.8702 -55.2533 -55.2193
   -32.7803 -32.7042 -32.6038 -32.5744 -32.5416 -32.5275 -32.5040 -32.4736
   -32.4637 -32.4594 -32.4449 -32.4423 -32.4380 -32.3981 -32.3972 -32.3630
   -32.3600 -32.3574 -32.3424 -32.3264 -32.3061 -32.3021 -32.2913 -32.2757
   -32.2740 -32.2541 -32.2495 -32.2404 -32.2322 -32.2251 -32.2172 -32.1891
   -32.1651 -32.1567 -32.1386 -32.1313 -32.1096 -32.0981 -32.0908 -32.0798
   -32.0755 -31.9723 -31.6636 -31.5655 -31.5431 -31.4800 -31.3940 -31.2830
   -16.9847 -16.6857 -16.5416 -16.3929 -16.3651 -16.2462 -16.0643 -15.9287
   -15.9144 -15.8397 -15.8119 -15.8064 -15.7761 -15.7581 -15.7498 -15.7430
   -15.6897 -15.6856 -15.6502 -15.6397 -15.6100 -15.5360 -15.5126 -15.4527
   -15.4114 -15.3548 -15.2598 -15.2313 -15.1978 -13.7541 -13.6358  -9.4874
    -4.3413  -4.1725  -4.1470  -4.1279  -4.0437  -3.8050  -3.7871  -3.5402
    -3.4181  -3.3972  -3.3727  -3.3680  -3.3195  -3.1811  -3.0906  -3.0650
    -3.0630  -3.0509  -3.0227  -3.0149  -2.9837  -2.9801  -2.9474  -2.9256
    -2.8983  -2.7307  -2.6535  -2.6474  -2.5868  -2.5376  -2.5221  -2.5049
    -2.4675  -2.4575  -2.4436  -2.4273  -2.3748  -2.2878  -2.2423  -2.1461
    -2.0667  -2.0362  -1.9450  -1.8545  -1.7795  -1.6887  -1.6618  -1.6360
    -1.5593  -1.5536  -1.4863  -1.4405  -1.4246  -1.3309  -1.2665  -1.2344
    -1.1349  -1.0949  -1.0047  -0.9896  -0.9746  -0.9585  -0.9463  -0.7699
    -0.7215  -0.6988  -0.6904  -0.5705  -0.5578  -0.5325  -0.5013  -0.4430
    -0.4033  -0.3492  -0.3188  -0.2724  -0.2544  -0.2484  -0.2320  -0.2083
    -0.1280  -0.0490  -0.0307   0.0631   0.1148   0.2362   0.3025   0.4078
     0.4948   0.6733   0.7710   0.8128   0.8485   0.9392   1.3609   1.4233
     2.9525   2.9942   3.0191   3.0537   3.0658   3.2229   3.3285   3.4054
     3.4073   3.4472

[...]

          k = 0.0380-0.0419 0.0000 ( 17876 PWs)   bands (ev):

[...]

          k =-0.0760-0.0000 0.0000 ( 17886 PWs)   bands (ev):

[...]

          k =-0.0760-0.0839 0.0000 ( 17948 PWs)   bands (ev):

   -56.2249 -56.2116 -56.1983 -56.1966 -56.1200 -56.1152 -56.0988 -56.0794
   -55.9992 -55.9821 -55.9814 -55.9587 -55.8944 -55.8728 -55.2368 -55.2357
   -32.5838 -32.5811 -32.5275 -32.5168 -32.5132 -32.5094 -32.4955 -32.4882
   -32.4528 -32.4366 -32.4252 -32.4213 -32.3913 -32.3721 -32.3655 -32.3566
   -32.3542 -32.3514 -32.3431 -32.3400 -32.3259 -32.3199 -32.3144 -32.3102
   -32.2994 -32.2990 -32.2971 -32.2765 -32.2433 -32.2409 -32.2355 -32.2274
   -32.2009 -32.1846 -32.1836 -32.1752 -32.1636 -32.1349 -32.1271 -32.1191
   -32.0893 -32.0210 -31.5564 -31.5551 -31.4770 -31.4761 -31.4375 -31.4366
   -16.4198 -16.3949 -16.1657 -16.1563 -16.1486 -16.0840 -15.9988 -15.9770
   -15.9601 -15.9559 -15.9013 -15.8827 -15.8739 -15.8375 -15.7797 -15.7716
   -15.7641 -15.7406 -15.6893 -15.6831 -15.6280 -15.6026 -15.5875 -15.5835
   -15.5653 -15.5609 -15.4631 -15.4203 -15.3862 -13.7380 -13.7359  -9.5031
    -3.7124  -3.6809  -3.4169  -3.3709  -3.3656  -3.2871  -3.2044  -3.1731
    -3.1481  -3.1381  -3.0863  -3.0751  -3.0738  -3.0690  -3.0383  -3.0281
    -3.0050  -2.9925  -2.9881  -2.9739  -2.9298  -2.8661  -2.8575  -2.8570
    -2.8453  -2.7999  -2.7898  -2.7828  -2.7635  -2.7628  -2.7081  -2.5105
    -2.4918  -2.4361  -2.3776  -2.3587  -2.3310  -2.3212  -2.2954  -2.2710
    -2.2054  -2.1362  -2.0180  -1.9795  -1.9561  -1.9412  -1.8878  -1.8380
    -1.7226  -1.6819  -1.6556  -1.6369  -1.5711  -1.4978  -1.4729  -1.4578
    -1.3741  -1.3474  -1.3049  -1.2407  -1.2038  -1.1906  -1.1397  -1.1266
    -1.0406  -0.9803  -0.9448  -0.9021  -0.8904  -0.8570  -0.8086  -0.7577
    -0.7448  -0.6840  -0.6220  -0.5250  -0.3156  -0.2301  -0.2207  -0.1785
    -0.1209  -0.0955   0.0122   0.0465   0.0612   0.1553   0.2214   0.2874
     0.3047   0.3299   0.3975   0.8885   1.1312   1.1321   1.2238   1.2342
     3.1567   3.1667   3.1965   3.2636   3.4099   3.4160   3.4351   3.4409
     3.5335   3.5836

     the Fermi energy is     2.9196 ev

!    total energy              =   -2899.02580296 Ry
     estimated scf accuracy    <       0.00000003 Ry
     smearing contrib. (-TS)   =      -0.02330306 Ry
     internal energy E=F+TS    =   -2899.00249990 Ry

     The total energy is F=E-TS. E is the sum of the following terms:
     one-electron contribution =  -24814.63826783 Ry
     hartree contribution      =   12486.26488799 Ry
     xc contribution           =    -474.70116454 Ry
     ewald contribution        =    9904.07163172 Ry
     electric field correction =       0.00041276 Ry

     convergence has been achieved in  59 iterations

     Forces acting on atoms (cartesian axes, Ry/au):

     atom    1 type  1   force =    -0.00012596   -0.00193879    0.10690164
     atom    2 type  1   force =    -0.00037467    0.00069838   -0.18022487
     atom    3 type  2   force =     0.00034988   -0.00663270   -0.03348833
     atom    4 type  2   force =     0.00056851   -0.00063071    0.04570275
     atom    5 type  2   force =    -0.01960579   -0.00121370    0.00435966
     atom    6 type  2   force =     0.02144192   -0.00006786    0.00424468
     atom    7 type  1   force =    -0.00028888    0.00034092   -0.00014102
     atom    8 type  1   force =    -0.00048723    0.00047359    0.00014507
     atom    9 type  2   force =    -0.00004840   -0.00039467   -0.00057088
     atom   10 type  2   force =     0.00010089    0.00046069   -0.00037283
     atom   11 type  2   force =     0.00015851   -0.00002249   -0.00004088
     atom   12 type  2   force =     0.00025511   -0.00014772   -0.00004386
     atom   13 type  1   force =    -0.00055152    0.00008338    0.00067210
     atom   14 type  1   force =    -0.00058253    0.00016163    0.00001846
     atom   15 type  2   force =    -0.00002578    0.00030019   -0.00022131
     atom   16 type  2   force =    -0.00003258   -0.00003914    0.00049050
     atom   17 type  2   force =    -0.00085814   -0.00088502   -0.00016904
     atom   18 type  2   force =     0.00077939   -0.00079689   -0.00043552
     atom   19 type  1   force =    -0.00022482    0.00042474   -0.00033002
     atom   20 type  1   force =     0.00058594    0.00073701    0.00046879
     atom   21 type  2   force =     0.00000171    0.00003615    0.10431843
     atom   22 type  2   force =    -0.00011228   -0.00021093   -0.00066291
     atom   23 type  2   force =    -0.06875603    0.00084959   -0.02964929
     atom   24 type  2   force =     0.06851256    0.00130253   -0.02971983
     atom   25 type  1   force =    -0.00009688    0.00130881    0.11804476
     atom   26 type  1   force =    -0.00020427   -0.00066169   -0.18054140
     atom   27 type  2   force =     0.00055433    0.00240298   -0.02740244
     atom   28 type  2   force =     0.00072900   -0.00048763    0.04721604
     atom   29 type  2   force =    -0.01933812    0.00075272    0.00376233
     atom   30 type  2   force =     0.01929016    0.00249076    0.00344544
     atom   31 type  1   force =    -0.00007957   -0.00075365    0.00035022
     atom   32 type  1   force =    -0.00042351    0.00002878    0.00035922
     atom   33 type  2   force =    -0.00013484    0.00036592   -0.00075233
     atom   34 type  2   force =    -0.00007778    0.00005435   -0.00012881
     atom   35 type  2   force =     0.00044064    0.00022445   -0.00042561
     atom   36 type  2   force =    -0.00080097    0.00001973   -0.00041407
     atom   37 type  1   force =    -0.00054870    0.00050346    0.00060631
     atom   38 type  1   force =     0.00014589   -0.00042970    0.00033972
     atom   39 type  2   force =    -0.00030741   -0.00014596   -0.00020958
     atom   40 type  2   force =    -0.00004439    0.00078250    0.00059127
     atom   41 type  2   force =    -0.00018432    0.00122498   -0.00020295
     atom   42 type  2   force =     0.00038114    0.00128213   -0.00043516
     atom   43 type  1   force =    -0.00017838    0.00063639   -0.00023880
     atom   44 type  1   force =     0.00032350   -0.00000436    0.00010198
     atom   45 type  2   force =    -0.00000585    0.00006241    0.10433204
     atom   46 type  2   force =    -0.06829309   -0.00103810   -0.02971117
     atom   47 type  2   force =     0.06814268   -0.00065884   -0.02975115
     atom   48 type  3   force =     0.00065253   -0.00121720    0.00063094
     atom   49 type  4   force =    -0.00138671   -0.00075629   -0.00006394
     atom   50 type  4   force =    -0.00029452   -0.00051199   -0.00044065
     atom   51 type  4   force =     0.00105964    0.00163685   -0.00031369

     Total force =     0.377368     Total SCF correction =     0.000442
  @ DRIVER MODE: Message from server: STATUS
  @ DRIVER MODE: Message from server: GETFORCE
  @ DRIVER MODE: Returning v,forces,stress,ensemble

     Writing output data file ./calc.save/
  @ DRIVER MODE: Message from server: EXIT
  @ DRIVE MODE: Exiting

     General routines

     Parallel routines

   This run was terminated on:  14:28: 2  18Aug2021

   JOB DONE.