     Program PWSCF v.6.7GPU starts on 16Sep2021 at  4:30:30

     R & G space division:  proc/nbgrp/npool/nimage =      10
     Reading input from /storage/home/hcoda1/3/ntian30/research/carbon/CxH_vib/H2O_calc/ads_slab/CH3NNH3H2O_a/out_0036/pw.inp
Warning: card &CELL ignored
Warning: card   CELL_DYNAMICS='IPI', ignored
Warning: card / ignored

     Current dimensions of program PWSCF are:
     Max number of different atomic species (ntypx) = 10
     Max number of k-points (npk) =  40000
     Max angular momentum in pseudopotentials (lmaxx) =  3
     Presently no symmetry can be used with electric field

     Message from routine cell_base_init:
     DEPRECATED: use true lattice parameter, not A to a.u. conversion factor

     IMPORTANT: XC functional enforced from input :
     Exchange-correlation= BEEF-VDW
                           (   1   4  43  14   2   0   0)
     Any further DFT definition will be discarded
     Please, verify this is what you really want

  @ DRIVER MODE: Connecting to
 qe_1139763_2852621.sched-torque.pace.gatech.edueflyvc1e_scratch
  using UNIX socket
  @ DRIVER MODE: Message from server: STATUS
  @ DRIVER MODE: Message from server: INIT
  @ DRIVER MODE: Receiving replica           0          -1
  @ DRIVER MODE: Receiving encoded integer          25
  @ DRIVER MODE:  SCF:  T  FORCE:  T  STRESS:  F  VC:  F  ENSEMBLE:  F
  @ DRIVER MODE:  SCF:  T  FORCE:  T  STRESS:  F  VC:  F  ENSEMBLE:  F

     Using Slab Decomposition

     bravais-lattice index     =            0
     lattice parameter (alat)  =       1.8897  a.u.
     unit-cell volume          =    6658.9804 (a.u.)^3
     number of atoms/cell      =           59
     number of atomic types    =            5
     number of electrons       =       406.00
     number of Kohn-Sham states=          213
     kinetic-energy cutoff     =      29.3995  Ry
     charge density cutoff     =     293.9946  Ry
     scf convergence threshold =      7.3E-08
     mixing beta               =       0.0500
     number of iterations used =            8  plain     mixing
     Exchange-correlation= BEEF-VDW
                           (   1   4  43  14   2   0   0)

     celldm(1)=   1.889726  celldm(2)=   0.000000  celldm(3)=   0.000000
     celldm(4)=   0.000000  celldm(5)=   0.000000  celldm(6)=   0.000000

     crystal axes: (cart. coord. in units of alat)
               a(1) = (   6.579727   0.000000   0.000000 )
               a(2) = (  -0.000775   5.961596   0.000000 )
               a(3) = (   0.000000   0.000000  25.155947 )

     reciprocal axes: (cart. coord. in units 2 pi/alat)
               b(1) = (  0.151982  0.000020  0.000000 )
               b(2) = (  0.000000  0.167740  0.000000 )
               b(3) = (  0.000000  0.000000  0.039752 )

     PseudoPot. # 1 for Ti read from file:
     /storage/coda1/p-amedford6/0/shared/rich_project_chbe-medford/medford-share/data/pseudos_module/espresso/nninc/pbe/van/Ti.UPF
     MD5 check sum: 8e4df49b7f0d34bbd5052bf3f5ea0213
     Pseudo is Ultrasoft, Zval = 12.0
     Generated by new atomic code, or converted to UPF format
     Using radial grid of  851 points,  6 beta functions with:
                l(1) =   0
                l(2) =   0
                l(3) =   1
                l(4) =   1
                l(5) =   2
                l(6) =   2
     Q(r) pseudized with  8 coefficients,  rinner =    1.000   1.000   1.000
                                                       1.000   1.000

     PseudoPot. # 2 for O  read from file:
     /storage/coda1/p-amedford6/0/shared/rich_project_chbe-medford/medford-share/data/pseudos_module/espresso/nninc/pbe/van/O.UPF
     MD5 check sum: 78c19812648e8988a0fe644b0f25305e
     Pseudo is Ultrasoft, Zval =  6.0
     Generated by new atomic code, or converted to UPF format
     Using radial grid of  737 points,  4 beta functions with:
                l(1) =   0
                l(2) =   0
                l(3) =   1
                l(4) =   1
     Q(r) pseudized with  8 coefficients,  rinner =    0.800   0.800   0.800

     PseudoPot. # 3 for N  read from file:
     /storage/coda1/p-amedford6/0/shared/rich_project_chbe-medford/medford-share/data/pseudos_module/espresso/nninc/pbe/van/N.UPF
     MD5 check sum: 90d10febe142ad51ac9d5be1deb811c4
     Pseudo is Ultrasoft, Zval =  5.0
     Generated by new atomic code, or converted to UPF format
     Using radial grid of  729 points,  4 beta functions with:
                l(1) =   0
                l(2) =   0
                l(3) =   1
                l(4) =   1
     Q(r) pseudized with  8 coefficients,  rinner =    0.800   0.800   0.800

     PseudoPot. # 4 for C  read from file:
     /storage/coda1/p-amedford6/0/shared/rich_project_chbe-medford/medford-share/data/pseudos_module/espresso/nninc/pbe/van/C.UPF
     MD5 check sum: 1a69bf6b8db32088f5b2163dbdb77a27
     Pseudo is Ultrasoft, Zval =  4.0
     Generated by new atomic code, or converted to UPF format
     Using radial grid of  721 points,  4 beta functions with:
                l(1) =   0
                l(2) =   0
                l(3) =   1
                l(4) =   1
     Q(r) pseudized with  8 coefficients,  rinner =    0.800   0.800   0.800

     PseudoPot. # 5 for H  read from file:
     /storage/coda1/p-amedford6/0/shared/rich_project_chbe-medford/medford-share/data/pseudos_module/espresso/nninc/pbe/van/H.UPF
     MD5 check sum: b5ee9d7bfd3a09ee7748110bda690ff7
     Pseudo is Ultrasoft, Zval =  1.0
     Generated by new atomic code, or converted to UPF format
     Using radial grid of  615 points,  1 beta functions with:
                l(1) =   0
     Q(r) pseudized with  8 coefficients,  rinner =    0.800

     atomic species   valence    mass     pseudopotential
        Ti1           12.00    47.86700     Ti( 1.00)
        O1             6.00    15.99900     O ( 1.00)
        N1             5.00    14.00700     N ( 1.00)
        C1             4.00    12.01100     C ( 1.00)
        H1             1.00     1.00800     H ( 1.00)

     No symmetry found

   Cartesian axes

     site n.     atom                  positions (alat units)
         1           Ti1 tau(   1) = (   0.0004258   2.9801865   6.0000000  )
         2           Ti1 tau(   2) = (   3.2906075   1.4906267   6.0002472  )
         3           O1  tau(   3) = (   0.0006271   0.0005054   7.9858123  )
         4           O1  tau(   4) = (   3.2906025   0.0005020   7.3038282  )
         5           O1  tau(   5) = (   4.5942328   1.4918067   9.2879030  )
         6           O1  tau(   6) = (   1.9868534   1.4903216   9.2879459  )
         7           Ti1 tau(   7) = (   3.2907910   2.8959150   9.1758416  )
         8           Ti1 tau(   8) = (   0.0015273   1.4827037   9.2680791  )
         9           O1  tau(   9) = (   3.2954490   0.0159868  11.2922163  )
        10           O1  tau(  10) = (   0.0116148   5.9584955  10.6183126  )
        11           O1  tau(  11) = (   1.3242731   1.5050266  12.6143764  )
        12           O1  tau(  12) = (   5.3073597   1.5103589  12.6267567  )
        13           Ti1 tau(  13) = (   6.4831477   3.0011104  12.7364612  )
        14           Ti1 tau(  14) = (   3.1751638   1.4975352  12.4748964  )
        15           O1  tau(  15) = (   0.0212859   5.9607631  14.5987152  )
        16           O1  tau(  16) = (   3.3058086   0.0238703  13.8910224  )
        17           O1  tau(  17) = (   4.5539421   1.5574750  15.9960573  )
        18           O1  tau(  18) = (   2.0731809   1.5597727  15.9888445  )
        19           Ti1 tau(  19) = (   3.3176354   3.0289328  15.6523405  )
        20           Ti1 tau(  20) = (   0.0198791   1.6227889  16.0606591  )
        21           O1  tau(  21) = (   3.2904802   0.0005063   4.7018136  )
        22           O1  tau(  22) = (   0.0290054   0.0533443  17.2129705  )
        23           O1  tau(  23) = (   1.3043587   1.4918075   6.0039043  )
        24           O1  tau(  24) = (   5.2767064   1.4903225   6.0039473  )
        25           Ti1 tau(  25) = (   0.0000382   5.9609847   6.0000000  )
        26           Ti1 tau(  26) = (   3.2902200   4.4714249   6.0002472  )
        27           O1  tau(  27) = (   0.0002396   2.9813036   7.9858123  )
        28           O1  tau(  28) = (   3.2902150   2.9813002   7.3038282  )
        29           O1  tau(  29) = (   4.5938453   4.4726049   9.2879030  )
        30           O1  tau(  30) = (   1.9864658   4.4711199   9.2879459  )
        31           Ti1 tau(  31) = (   3.2891106   5.8743827   9.1763621  )
        32           Ti1 tau(  32) = (   0.0006254   4.4649316   9.2693709  )
        33           O1  tau(  33) = (   3.2918316   2.9938763  11.2915017  )
        34           O1  tau(  34) = (   0.0092240   2.9805883  10.6323155  )
        35           O1  tau(  35) = (   1.3226278   4.4784642  12.6110361  )
        36           O1  tau(  36) = (   5.3078083   4.4770455  12.6250823  )
        37           Ti1 tau(  37) = (   6.5141033   0.0190828  12.7620745  )
        38           Ti1 tau(  38) = (   3.1722404   4.4939287  12.4712879  )
        39           O1  tau(  39) = (   0.0035410   2.9850241  14.6487316  )
        40           O1  tau(  40) = (   3.3118331   3.0109266  13.8519036  )
        41           O1  tau(  41) = (   4.5522870   4.5059159  16.0259181  )
        42           O1  tau(  42) = (   2.0778134   4.5048723  16.0185459  )
        43           Ti1 tau(  43) = (   3.3116469   0.0596163  15.7453941  )
        44           Ti1 tau(  44) = (   0.0183239   4.5967015  16.1059876  )
        45           O1  tau(  45) = (   3.2900926   2.9813045   4.7018136  )
        46           O1  tau(  46) = (   1.3039711   4.4726057   6.0039043  )
        47           O1  tau(  47) = (   5.2763189   4.4711207   6.0039473  )
        48           N1  tau(  48) = (   0.0600715   3.0265251  17.3188267  )
        49           N1  tau(  49) = (   6.2826239   2.5295367  22.6224490  )
        50           C1  tau(  50) = (   0.2859397   3.0149959  18.7399364  )
        51           H1  tau(  51) = (   0.1411154   4.0060466  19.1894648  )
        52           H1  tau(  52) = (   6.1913215   2.3105648  19.2421896  )
        53           H1  tau(  53) = (   1.3125146   2.6868920  18.9791123  )
        54           H1  tau(  54) = (   6.1000088   3.2491606  23.3142794  )
        55           H1  tau(  55) = (   0.1456284   1.7586669  23.1118534  )
        56           H1  tau(  56) = (   0.3974265   2.9048463  21.9856970  )
        57           O1  tau(  57) = (   3.2908421   0.1144680  18.1630233  )
        58           H1  tau(  58) = (   4.0679411   5.5688996  18.4486002  )
        59           H1  tau(  59) = (   2.5060966   5.5711546  18.4327789  )

     number of k points=    10  Fermi-Dirac smearing, width (Ry)=  0.0073
                       cart. coord. in units 2pi/alat
        k(    1) = (   0.0000000   0.0000000   0.0000000), wk =   0.1250000
        k(    2) = (   0.0000000   0.0419351   0.0000000), wk =   0.2500000
        k(    3) = (   0.0000000  -0.0838702   0.0000000), wk =   0.1250000
        k(    4) = (   0.0379955   0.0000049   0.0000000), wk =   0.2500000
        k(    5) = (   0.0379955   0.0419400   0.0000000), wk =   0.2500000
        k(    6) = (   0.0379955  -0.0838652   0.0000000), wk =   0.2500000
        k(    7) = (   0.0379955  -0.0419301   0.0000000), wk =   0.2500000
        k(    8) = (  -0.0759910  -0.0000099   0.0000000), wk =   0.1250000
        k(    9) = (  -0.0759910   0.0419252   0.0000000), wk =   0.2500000
        k(   10) = (  -0.0759910  -0.0838800   0.0000000), wk =   0.1250000

     Initial potential from superposition of free atoms

     starting charge  389.99912, renormalised to  406.00000

     negative rho (up, down):  6.916E-03 0.000E+00

     %%%%%%%%%%%%%%%%%%%%%%%%%%%%%%%%%%%%%%%%%%%%%%%%%%%%%%%%%%%%%%%%%%%%%%%%
     %                                                                      %
     % You are using vdW-DF, which was implemented by the Thonhauser group. %
     % Please cite the following two papers that made this development      %
     % possible and the two reviews that describe the various versions:     %
     %                                                                      %
     %   T. Thonhauser et al., PRL 115, 136402 (2015).                      %
     %   T. Thonhauser et al., PRB 76, 125112 (2007).                       %
     %   K. Berland et al., Rep. Prog. Phys. 78, 066501 (2015).             %
     %   D.C. Langreth et al., J. Phys.: Condens. Matter 21, 084203 (2009). %
     %                                                                      %
     %                                                                      %
     % If you are calculating the stress with vdW-DF, please also cite:     %
     %                                                                      %
     %   R. Sabatini et al., J. Phys.: Condens. Matter 24, 424209 (2012).   %
     %                                                                      %
     %%%%%%%%%%%%%%%%%%%%%%%%%%%%%%%%%%%%%%%%%%%%%%%%%%%%%%%%%%%%%%%%%%%%%%%%

     Adding external electric field

     Computed dipole along edir(3) :
        Dipole              -16.2344 Ry au,        -41.2636 Debye
        Dipole field         -0.0306 Ry au,

        Potential amp.        2.8400 Ry
        Total length         46.3494 bohr

     Starting wfcs are  308 atomic wfcs
  @ DRIVER MODE: Message from server: STATUS
  @ DRIVER MODE: Message from server: POSDATA
  @ DRIVER MODE: Reading and sharing cell
  @ DRIVER MODE: Reading and sharing positions
  @ DRIVER MODE: Received positions

     Self-consistent Calculation

     iteration #  1     ecut=    29.40 Ry     beta= 0.05
     Davidson diagonalization with overlap
     c_bands:  2 eigenvalues not converged
     c_bands:  3 eigenvalues not converged
     c_bands:  5 eigenvalues not converged
     c_bands:  3 eigenvalues not converged
     c_bands:  3 eigenvalues not converged
     c_bands:  3 eigenvalues not converged
     c_bands:  1 eigenvalues not converged
     c_bands:  5 eigenvalues not converged
     c_bands:  3 eigenvalues not converged
     ethr =  1.00E-05,  avg # of iterations = 20.6

[...]

     total energy              =   -2253.46361422 Ry
     estimated scf accuracy    <    8263.12792938 Ry

     iteration #  2     ecut=    29.40 Ry     beta= 0.05
     Davidson diagonalization with overlap
     ethr =  1.00E-02,  avg # of iterations = 26.3

[...]

     iteration # 48     ecut=    29.40 Ry     beta= 0.05
     Davidson diagonalization with overlap
     c_bands:  1 eigenvalues not converged
     ethr =  2.16E-06,  avg # of iterations =  2.9

[...]

     total energy              =   -2977.74436149 Ry
     estimated scf accuracy    <       0.00000012 Ry

     iteration # 70     ecut=    29.40 Ry     beta= 0.05
     Davidson diagonalization with overlap
     ethr =  2.87E-11,  avg # of iterations =  5.0

     negative rho (up, down):  8.780E-03 0.000E+00

     Adding external electric field

     Computed dipole along edir(3) :
        Dipole                0.7636 Ry au,          1.9408 Debye
        Dipole field          0.0014 Ry au,

        Potential amp.       -0.1336 Ry
        Total length         46.3494 bohr

     End of self-consistent calculation

          k = 0.0000 0.0000 0.0000 ( 18029 PWs)   bands (ev):

   -56.2634 -56.2298 -55.3803 -55.3463 -55.3382 -55.3033 -55.1549 -55.1197
   -55.0328 -54.9133 -54.8942 -54.8926 -54.8794 -54.8078 -54.3923 -54.3428
   -32.6901 -32.5376 -32.5095 -32.4396 -32.3487 -32.3162 -31.8481 -31.8205
   -31.6903 -31.6461 -31.5973 -31.5795 -31.5492 -31.5403 -31.5110 -31.5061
   -31.4877 -31.4811 -31.4584 -31.4447 -31.4309 -31.3816 -31.3714 -31.3327
   -31.3202 -31.3042 -31.2945 -31.2812 -31.2570 -31.2561 -31.2528 -31.2286
   -31.1331 -31.1232 -31.0824 -31.0721 -31.0445 -31.0401 -31.0306 -31.0121
   -30.9813 -30.9292 -30.9069 -30.6358 -30.6136 -30.5827 -30.5617 -30.4530
   -18.4447 -16.4191 -15.9527 -15.7092 -15.6199 -15.5366 -15.4980 -15.4539
   -15.3010 -15.2343 -15.2118 -15.2112 -15.1403 -14.9921 -14.9451 -14.8472
   -14.7533 -14.6183 -14.6013 -14.5683 -14.5499 -14.5173 -14.5101 -14.4580
   -14.2954 -14.2596 -14.2118 -14.1479 -14.0633 -14.0389 -13.8376 -13.4114
   -13.3017 -12.6389  -7.4526  -6.2351  -4.1050  -4.0844  -3.9864  -3.4524
    -3.1829  -3.1555  -3.0270  -3.0220  -2.9766  -2.8362  -2.8261  -2.7548
    -2.7318  -2.6916  -2.6183  -2.5679  -2.5356  -2.4467  -2.4342  -2.4142
    -2.4005  -2.3849  -2.2632  -2.2217  -2.1695  -2.0654  -1.9578  -1.9145
    -1.8876  -1.8438  -1.8057  -1.7587  -1.7462  -1.7315  -1.7251  -1.6133
    -1.4998  -1.4662  -1.4515  -1.4059  -1.3869  -1.3780  -1.3565  -1.2717
    -1.1617  -1.0687  -1.0012  -0.9885  -0.9216  -0.9136  -0.8545  -0.7380
    -0.6777  -0.6731  -0.6573  -0.5539  -0.5271  -0.4555  -0.3923  -0.3347
    -0.2801  -0.2172  -0.1670  -0.1448  -0.1316  -0.0324   0.0389   0.0623
     0.1134   0.1230   0.1326   0.1524   0.2494   0.2849   0.3589   0.4032
     0.4395   0.4841   0.5671   0.6171   0.6847   0.7346   0.7574   0.8194
     0.8724   0.9279   1.0233   1.0738   1.0777   1.0861   1.1086   1.1691
     1.1829   1.2593   1.3424   1.3572   1.4303   1.4984   1.6587   1.6978
     1.9486   2.0196   2.6452   3.0137   3.1750   3.4701   3.6602   3.7976
     3.9929   4.0033   4.0104   4.2372   4.2603

[...]

          k = 0.0380-0.0419 0.0000 ( 17876 PWs)   bands (ev):

[...]

          k =-0.0760-0.0000 0.0000 ( 17886 PWs)   bands (ev):

[...]

          k =-0.0760-0.0839 0.0000 ( 17948 PWs)   bands (ev):

   -56.2468 -56.2462 -55.3653 -55.3609 -55.3257 -55.3160 -55.1384 -55.1361
   -55.0306 -54.8964 -54.8962 -54.8947 -54.8905 -54.8114 -54.3852 -54.3498
   -32.5236 -32.5231 -32.5071 -32.5068 -32.3929 -32.3923 -31.6717 -31.6659
   -31.6562 -31.6488 -31.5724 -31.5574 -31.5553 -31.5510 -31.5447 -31.5432
   -31.5376 -31.5290 -31.4965 -31.4800 -31.3839 -31.3818 -31.3482 -31.3424
   -31.3230 -31.2868 -31.2485 -31.2417 -31.2415 -31.2400 -31.2157 -31.1935
   -31.1508 -31.1211 -31.1209 -31.1167 -31.0937 -31.0819 -31.0818 -31.0664
   -31.0495 -31.0142 -30.7675 -30.7050 -30.6115 -30.5872 -30.5697 -30.5236
   -18.4439 -15.7697 -15.7677 -15.7325 -15.7318 -15.4648 -15.4615 -15.3679
   -15.3626 -15.2280 -15.1111 -15.0096 -14.9968 -14.9613 -14.9340 -14.8220
   -14.8013 -14.7920 -14.7819 -14.6699 -14.6499 -14.6045 -14.5937 -14.5771
   -14.5670 -14.2735 -14.2603 -14.1574 -14.1336 -14.0381 -13.9907 -13.4053
   -13.4053 -12.6575  -7.4463  -6.2275  -4.1149  -4.0862  -2.8654  -2.8590
    -2.8182  -2.8045  -2.8036  -2.7393  -2.6387  -2.5986  -2.5975  -2.5887
    -2.5088  -2.4478  -2.4399  -2.3686  -2.3357  -2.3162  -2.2579  -2.2483
    -2.1821  -2.1559  -2.1476  -2.1314  -2.1077  -2.1064  -2.0101  -1.9473
    -1.8954  -1.8920  -1.8245  -1.8062  -1.7422  -1.7220  -1.7106  -1.6782
    -1.6370  -1.6129  -1.5821  -1.5482  -1.5081  -1.4477  -1.2813  -1.2723
    -1.2628  -1.2412  -1.1159  -1.1089  -1.0783  -1.0482  -1.0424  -0.9680
    -0.9184  -0.8836  -0.8256  -0.7427  -0.7201  -0.6182  -0.5673  -0.5207
    -0.4647  -0.3585  -0.3412  -0.3301  -0.3210  -0.2907  -0.2245  -0.1951
    -0.1798  -0.0590  -0.0395   0.0138   0.0345   0.0911   0.1171   0.1821
     0.2084   0.2802   0.2918   0.3310   0.4052   0.4863   0.5207   0.5685
     0.5731   0.8495   0.9232   1.0539   1.0648   1.1215   1.1801   1.2513
     1.3112   1.3437   1.3702   1.4930   1.4973   1.5064   1.5069   1.5787
     1.5838   1.9263   2.5224   3.5895   3.5899   3.6564   3.6572   3.9778
     3.9841   4.0910   4.1014   4.2625   4.2776

     the Fermi energy is     2.8415 ev

!    total energy              =   -2977.74439962 Ry
     estimated scf accuracy    <       0.00000004 Ry
     smearing contrib. (-TS)   =      -0.00445106 Ry
     internal energy E=F+TS    =   -2977.73994856 Ry

     The total energy is F=E-TS. E is the sum of the following terms:
     one-electron contribution =  -22875.47407512 Ry
     hartree contribution      =   11535.44274860 Ry
     xc contribution           =    -496.32497706 Ry
     ewald contribution        =    8858.61525473 Ry
     electric field correction =       0.00110031 Ry

     convergence has been achieved in  70 iterations

     Forces acting on atoms (cartesian axes, Ry/au):

     atom    1 type  1   force =    -0.00004092   -0.00046776    0.12456141
     atom    2 type  1   force =    -0.00008120   -0.00048332   -0.15978399
     atom    3 type  2   force =     0.00019045   -0.00024367   -0.06792438
     atom    4 type  2   force =    -0.00000758   -0.00011702    0.02619878
     atom    5 type  2   force =    -0.01448122    0.00181729   -0.00991092
     atom    6 type  2   force =     0.01625932    0.00224194   -0.01025468
     atom    7 type  1   force =     0.00072048   -0.00387166    0.02890209
     atom    8 type  1   force =    -0.00034796   -0.00439758    0.10953951
     atom    9 type  2   force =     0.00023680   -0.00029328   -0.00052660
     atom   10 type  2   force =    -0.00231437    0.00256611   -0.07336795
     atom   11 type  2   force =    -0.00003472   -0.00033567   -0.00000530
     atom   12 type  2   force =    -0.00014387   -0.00082632    0.00001792
     atom   13 type  1   force =     0.00108138   -0.00041024    0.00014007
     atom   14 type  1   force =    -0.00065826    0.00064116   -0.00008297
     atom   15 type  2   force =    -0.00027978   -0.00039392   -0.00075152
     atom   16 type  2   force =    -0.00001616   -0.00011359    0.00063976
     atom   17 type  2   force =     0.00020201   -0.00090313   -0.00021954
     atom   18 type  2   force =     0.00049431   -0.00054735    0.00007313
     atom   19 type  1   force =    -0.00117301   -0.00010460   -0.00086424
     atom   20 type  1   force =     0.00085868   -0.00027480   -0.00042795
     atom   21 type  2   force =     0.00004630   -0.00004002    0.09943053
     atom   22 type  2   force =     0.00002679   -0.00024437   -0.00046884
     atom   23 type  2   force =    -0.07967898   -0.00006037   -0.03250083
     atom   24 type  2   force =     0.07952276    0.00037534   -0.03255318
     atom   25 type  1   force =    -0.00001958   -0.00056646    0.12419595
     atom   26 type  1   force =    -0.00007966   -0.00062046   -0.15992832
     atom   27 type  2   force =     0.00030010   -0.00036411   -0.06697299
     atom   28 type  2   force =    -0.00002263    0.00015246    0.02511695
     atom   29 type  2   force =    -0.01510422    0.00192724   -0.00985040
     atom   30 type  2   force =     0.01677899    0.00242775   -0.01016292
     atom   31 type  1   force =     0.00074050   -0.00074906    0.02408047
     atom   32 type  1   force =    -0.00027383    0.00204411    0.11016833
     atom   33 type  2   force =     0.00007503    0.00029351    0.00057155
     atom   34 type  2   force =    -0.00193772    0.00199894   -0.07168050
     atom   35 type  2   force =    -0.00002789    0.00034093   -0.00001761
     atom   36 type  2   force =    -0.00052305    0.00060659   -0.00006007
     atom   37 type  1   force =     0.00121133    0.00042775    0.00032097
     atom   38 type  1   force =    -0.00055287   -0.00088655   -0.00020453
     atom   39 type  2   force =    -0.00029192   -0.00014958    0.00088975
     atom   40 type  2   force =     0.00017741   -0.00012813    0.00020638
     atom   41 type  2   force =     0.00107459    0.00014536    0.00015231
     atom   42 type  2   force =    -0.00050778   -0.00022032    0.00050907
     atom   43 type  1   force =    -0.00163158    0.00002383   -0.00023316
     atom   44 type  1   force =     0.00092232   -0.00001110   -0.00034600
     atom   45 type  2   force =     0.00002023   -0.00004524    0.09938841
     atom   46 type  2   force =    -0.07969256    0.00000801   -0.03251544
     atom   47 type  2   force =     0.07954513    0.00043980   -0.03254545
     atom   48 type  3   force =     0.00024376   -0.00105984    0.00046099
     atom   49 type  3   force =    -0.00032618   -0.00048524    0.00131540
     atom   50 type  4   force =     0.00109187   -0.00049288    0.00175306
     atom   51 type  5   force =    -0.00060774    0.00047288    0.00016457
     atom   52 type  5   force =    -0.00050309   -0.00038687    0.00060030
     atom   53 type  5   force =    -0.00115870    0.00035266   -0.00211416
     atom   54 type  5   force =     0.00006931   -0.00024269   -0.00060777
     atom   55 type  5   force =     0.00002914    0.00032549   -0.00030205
     atom   56 type  5   force =     0.00028236    0.00036294   -0.00182023
     atom   57 type  2   force =     0.00159594   -0.00048541   -0.00039960
     atom   58 type  5   force =    -0.00048083    0.00089947    0.00003464
     atom   59 type  5   force =    -0.00079744    0.00013107   -0.00002822

     Total force =     0.423552     Total SCF correction =     0.000397
  @ DRIVER MODE: Message from server: STATUS
  @ DRIVER MODE: Message from server: GETFORCE
  @ DRIVER MODE: Returning v,forces,stress,ensemble

     Writing output data file ./calc.save/
  @ DRIVER MODE: Message from server: EXIT
  @ DRIVE MODE: Exiting

     General routines

     Parallel routines

   This run was terminated on:   4:49:46  16Sep2021

   JOB DONE.