     Program PWSCF v.6.7GPU starts on 10Sep2021 at  3:59:19

     R & G space division:  proc/nbgrp/npool/nimage =      10
     Reading input from /storage/home/hcoda1/3/ntian30/research/carbon/CxH_vib/CH3_calc/ads_slab/CH3N2OH_l/out_0022/pw.inp
Warning: card &CELL ignored
Warning: card   CELL_DYNAMICS='IPI', ignored
Warning: card / ignored

     Current dimensions of program PWSCF are:
     Max number of different atomic species (ntypx) = 10
     Max number of k-points (npk) =  40000
     Max angular momentum in pseudopotentials (lmaxx) =  3
     Presently no symmetry can be used with electric field

     Message from routine cell_base_init:
     DEPRECATED: use true lattice parameter, not A to a.u. conversion factor

     IMPORTANT: XC functional enforced from input :
     Exchange-correlation= BEEF-VDW
                           (   1   4  43  14   2   0   0)
     Any further DFT definition will be discarded
     Please, verify this is what you really want

  @ DRIVER MODE: Connecting to
 qe_1139763_2779712.sched-torque.pace.gatech.edu5j11zork_scratch
  using UNIX socket
  @ DRIVER MODE: Message from server: STATUS
  @ DRIVER MODE: Message from server: INIT
  @ DRIVER MODE: Receiving replica           0          -1
  @ DRIVER MODE: Receiving encoded integer          25
  @ DRIVER MODE:  SCF:  T  FORCE:  T  STRESS:  F  VC:  F  ENSEMBLE:  F
  @ DRIVER MODE:  SCF:  T  FORCE:  T  STRESS:  F  VC:  F  ENSEMBLE:  F

     Using Slab Decomposition

     bravais-lattice index     =            0
     lattice parameter (alat)  =       1.8897  a.u.
     unit-cell volume          =    6658.9804 (a.u.)^3
     number of atoms/cell      =           55
     number of atomic types    =            5
     number of electrons       =       402.00
     number of Kohn-Sham states=          211
     kinetic-energy cutoff     =      29.3995  Ry
     charge density cutoff     =     293.9946  Ry
     scf convergence threshold =      7.3E-08
     mixing beta               =       0.0500
     number of iterations used =            8  plain     mixing
     Exchange-correlation= BEEF-VDW
                           (   1   4  43  14   2   0   0)

     celldm(1)=   1.889726  celldm(2)=   0.000000  celldm(3)=   0.000000
     celldm(4)=   0.000000  celldm(5)=   0.000000  celldm(6)=   0.000000

     crystal axes: (cart. coord. in units of alat)
               a(1) = (   6.579727   0.000000   0.000000 )
               a(2) = (  -0.000775   5.961596   0.000000 )
               a(3) = (   0.000000   0.000000  25.155947 )

     reciprocal axes: (cart. coord. in units 2 pi/alat)
               b(1) = (  0.151982  0.000020  0.000000 )
               b(2) = (  0.000000  0.167740  0.000000 )
               b(3) = (  0.000000  0.000000  0.039752 )

     PseudoPot. # 1 for Ti read from file:
     /storage/coda1/p-amedford6/0/shared/rich_project_chbe-medford/medford-share/data/pseudos_module/espresso/nninc/pbe/van/Ti.UPF
     MD5 check sum: 8e4df49b7f0d34bbd5052bf3f5ea0213
     Pseudo is Ultrasoft, Zval = 12.0
     Generated by new atomic code, or converted to UPF format
     Using radial grid of  851 points,  6 beta functions with:
                l(1) =   0
                l(2) =   0
                l(3) =   1
                l(4) =   1
                l(5) =   2
                l(6) =   2
     Q(r) pseudized with  8 coefficients,  rinner =    1.000   1.000   1.000
                                                       1.000   1.000

     PseudoPot. # 2 for O  read from file:
     /storage/coda1/p-amedford6/0/shared/rich_project_chbe-medford/medford-share/data/pseudos_module/espresso/nninc/pbe/van/O.UPF
     MD5 check sum: 78c19812648e8988a0fe644b0f25305e
     Pseudo is Ultrasoft, Zval =  6.0
     Generated by new atomic code, or converted to UPF format
     Using radial grid of  737 points,  4 beta functions with:
                l(1) =   0
                l(2) =   0
                l(3) =   1
                l(4) =   1
     Q(r) pseudized with  8 coefficients,  rinner =    0.800   0.800   0.800

     PseudoPot. # 3 for N  read from file:
     /storage/coda1/p-amedford6/0/shared/rich_project_chbe-medford/medford-share/data/pseudos_module/espresso/nninc/pbe/van/N.UPF
     MD5 check sum: 90d10febe142ad51ac9d5be1deb811c4
     Pseudo is Ultrasoft, Zval =  5.0
     Generated by new atomic code, or converted to UPF format
     Using radial grid of  729 points,  4 beta functions with:
                l(1) =   0
                l(2) =   0
                l(3) =   1
                l(4) =   1
     Q(r) pseudized with  8 coefficients,  rinner =    0.800   0.800   0.800

     PseudoPot. # 4 for C  read from file:
     /storage/coda1/p-amedford6/0/shared/rich_project_chbe-medford/medford-share/data/pseudos_module/espresso/nninc/pbe/van/C.UPF
     MD5 check sum: 1a69bf6b8db32088f5b2163dbdb77a27
     Pseudo is Ultrasoft, Zval =  4.0
     Generated by new atomic code, or converted to UPF format
     Using radial grid of  721 points,  4 beta functions with:
                l(1) =   0
                l(2) =   0
                l(3) =   1
                l(4) =   1
     Q(r) pseudized with  8 coefficients,  rinner =    0.800   0.800   0.800

     PseudoPot. # 5 for H  read from file:
     /storage/coda1/p-amedford6/0/shared/rich_project_chbe-medford/medford-share/data/pseudos_module/espresso/nninc/pbe/van/H.UPF
     MD5 check sum: b5ee9d7bfd3a09ee7748110bda690ff7
     Pseudo is Ultrasoft, Zval =  1.0
     Generated by new atomic code, or converted to UPF format
     Using radial grid of  615 points,  1 beta functions with:
                l(1) =   0
     Q(r) pseudized with  8 coefficients,  rinner =    0.800

     atomic species   valence    mass     pseudopotential
        Ti1           12.00    47.86700     Ti( 1.00)
        O1             6.00    15.99900     O ( 1.00)
        N1             5.00    14.00700     N ( 1.00)
        C1             4.00    12.01100     C ( 1.00)
        H1             1.00     1.00800     H ( 1.00)

     No symmetry found

   Cartesian axes

     site n.     atom                  positions (alat units)
         1           Ti1 tau(   1) = (   0.0004258   2.9801865   6.0000000  )
         2           Ti1 tau(   2) = (   3.2906075   1.4906267   6.0002472  )
         3           O1  tau(   3) = (   0.0006271   0.0005054   7.9858123  )
         4           O1  tau(   4) = (   3.2906025   0.0005020   7.3038282  )
         5           O1  tau(   5) = (   4.5942328   1.4918067   9.2879030  )
         6           O1  tau(   6) = (   1.9868534   1.4903216   9.2879459  )
         7           Ti1 tau(   7) = (   3.2907910   2.8959150   9.1758416  )
         8           Ti1 tau(   8) = (   0.0015273   1.4827037   9.2680791  )
         9           O1  tau(   9) = (   3.3074573   5.9346435  11.2963613  )
        10           O1  tau(  10) = (   0.0116148   5.9584955  10.6183126  )
        11           O1  tau(  11) = (   1.3055178   1.4819292  12.6272398  )
        12           O1  tau(  12) = (   5.3158762   1.4804127  12.6185516  )
        13           Ti1 tau(  13) = (   0.0186029   2.8424156  12.6464711  )
        14           Ti1 tau(  14) = (   3.3167612   1.2924093  12.6669032  )
        15           O1  tau(  15) = (   0.0012442   5.9356390  14.6370070  )
        16           O1  tau(  16) = (   3.3127944   0.0275565  13.9018093  )
        17           O1  tau(  17) = (   4.5765900   1.5157235  16.0894388  )
        18           O1  tau(  18) = (   2.0422450   1.5317946  16.0210879  )
        19           Ti1 tau(  19) = (   3.3088329   2.9810726  15.6636066  )
        20           Ti1 tau(  20) = (   0.0236821   1.4688588  15.8133175  )
        21           O1  tau(  21) = (   3.2904802   0.0005063   4.7018136  )
        22           O1  tau(  22) = (   0.0676014   5.9495730  17.1734943  )
        23           O1  tau(  23) = (   1.3043587   1.4918075   6.0039043  )
        24           O1  tau(  24) = (   5.2767064   1.4903225   6.0039473  )
        25           Ti1 tau(  25) = (   0.0000382   5.9609847   6.0000000  )
        26           Ti1 tau(  26) = (   3.2902200   4.4714249   6.0002472  )
        27           O1  tau(  27) = (   0.0002396   2.9813036   7.9858123  )
        28           O1  tau(  28) = (   3.2902150   2.9813002   7.3038282  )
        29           O1  tau(  29) = (   4.5938453   4.4726049   9.2879030  )
        30           O1  tau(  30) = (   1.9864658   4.4711199   9.2879459  )
        31           Ti1 tau(  31) = (   3.2891106   5.8743827   9.1763621  )
        32           Ti1 tau(  32) = (   0.0006254   4.4649316   9.2693709  )
        33           O1  tau(  33) = (   3.3041982   3.0170362  11.2630756  )
        34           O1  tau(  34) = (   0.0092240   2.9805883  10.6323155  )
        35           O1  tau(  35) = (   1.3098214   4.4601496  12.6289764  )
        36           O1  tau(  36) = (   5.3139316   4.4642116  12.6209765  )
        37           Ti1 tau(  37) = (   0.0286784   5.8202107  12.5681754  )
        38           Ti1 tau(  38) = (   3.3194384   4.3879401  12.4232525  )
        39           O1  tau(  39) = (   6.5763552   2.9401740  14.6754030  )
        40           O1  tau(  40) = (   3.3328261   2.9762691  13.8808942  )
        41           O1  tau(  41) = (   4.5658580   4.4380642  16.1332302  )
        42           O1  tau(  42) = (   2.0359873   4.4031365  16.0422930  )
        43           Ti1 tau(  43) = (   3.3255947   5.9578944  16.3175027  )
        44           Ti1 tau(  44) = (   0.0374668   4.6230282  16.0307208  )
        45           O1  tau(  45) = (   3.2900926   2.9813045   4.7018136  )
        46           O1  tau(  46) = (   1.3039711   4.4726057   6.0039043  )
        47           O1  tau(  47) = (   5.2763189   4.4711207   6.0039473  )
        48           N1  tau(  48) = (   0.1245995   2.6662279  18.6673576  )
        49           N1  tau(  49) = (   0.0476076   2.8693738  17.4835824  )
        50           C1  tau(  50) = (   0.1295945   3.7926219  19.6405614  )
        51           H1  tau(  51) = (   6.3015398   4.7165717  19.2118634  )
        52           H1  tau(  52) = (   6.1525190   3.4626129  20.5140504  )
        53           H1  tau(  53) = (   1.1733748   3.9370966  19.9287387  )
        54           O1  tau(  54) = (   3.0981659   0.0197753  18.1302257  )
        55           H1  tau(  55) = (   2.1972620   0.2293568  18.4309947  )

     number of k points=    10  Fermi-Dirac smearing, width (Ry)=  0.0073
                       cart. coord. in units 2pi/alat
        k(    1) = (   0.0000000   0.0000000   0.0000000), wk =   0.1250000
        k(    2) = (   0.0000000   0.0419351   0.0000000), wk =   0.2500000
        k(    3) = (   0.0000000  -0.0838702   0.0000000), wk =   0.1250000
        k(    4) = (   0.0379955   0.0000049   0.0000000), wk =   0.2500000
        k(    5) = (   0.0379955   0.0419400   0.0000000), wk =   0.2500000
        k(    6) = (   0.0379955  -0.0838652   0.0000000), wk =   0.2500000
        k(    7) = (   0.0379955  -0.0419301   0.0000000), wk =   0.2500000
        k(    8) = (  -0.0759910  -0.0000099   0.0000000), wk =   0.1250000
        k(    9) = (  -0.0759910   0.0419252   0.0000000), wk =   0.2500000
        k(   10) = (  -0.0759910  -0.0838800   0.0000000), wk =   0.1250000

     Initial potential from superposition of free atoms

     starting charge  385.99915, renormalised to  402.00000

     negative rho (up, down):  1.432E-02 0.000E+00

     %%%%%%%%%%%%%%%%%%%%%%%%%%%%%%%%%%%%%%%%%%%%%%%%%%%%%%%%%%%%%%%%%%%%%%%%
     %                                                                      %
     % You are using vdW-DF, which was implemented by the Thonhauser group. %
     % Please cite the following two papers that made this development      %
     % possible and the two reviews that describe the various versions:     %
     %                                                                      %
     %   T. Thonhauser et al., PRL 115, 136402 (2015).                      %
     %   T. Thonhauser et al., PRB 76, 125112 (2007).                       %
     %   K. Berland et al., Rep. Prog. Phys. 78, 066501 (2015).             %
     %   D.C. Langreth et al., J. Phys.: Condens. Matter 21, 084203 (2009). %
     %                                                                      %
     %                                                                      %
     % If you are calculating the stress with vdW-DF, please also cite:     %
     %                                                                      %
     %   R. Sabatini et al., J. Phys.: Condens. Matter 24, 424209 (2012).   %
     %                                                                      %
     %%%%%%%%%%%%%%%%%%%%%%%%%%%%%%%%%%%%%%%%%%%%%%%%%%%%%%%%%%%%%%%%%%%%%%%%

     Adding external electric field

     Computed dipole along edir(3) :
        Dipole              -11.9923 Ry au,        -30.4815 Debye
        Dipole field         -0.0226 Ry au,

        Potential amp.        2.0979 Ry
        Total length         46.3494 bohr

     Starting wfcs are  304 atomic wfcs
  @ DRIVER MODE: Message from server: STATUS
  @ DRIVER MODE: Message from server: POSDATA
  @ DRIVER MODE: Reading and sharing cell
  @ DRIVER MODE: Reading and sharing positions
  @ DRIVER MODE: Received positions

     Self-consistent Calculation

     iteration #  1     ecut=    29.40 Ry     beta= 0.05
     Davidson diagonalization with overlap
     c_bands:  3 eigenvalues not converged
     c_bands:  5 eigenvalues not converged
     c_bands:  5 eigenvalues not converged
     c_bands:  4 eigenvalues not converged
     c_bands:  1 eigenvalues not converged
     c_bands:  4 eigenvalues not converged
     c_bands:  2 eigenvalues not converged
     c_bands:  5 eigenvalues not converged
     c_bands:  4 eigenvalues not converged
     ethr =  1.00E-05,  avg # of iterations = 23.8

[...]

     total energy              =   -2400.51327803 Ry
     estimated scf accuracy    <    6448.55891914 Ry

     iteration #  2     ecut=    29.40 Ry     beta= 0.05
     Davidson diagonalization with overlap
     ethr =  1.00E-02,  avg # of iterations = 22.5

[...]

     iteration # 37     ecut=    29.40 Ry     beta= 0.05
     Davidson diagonalization with overlap
     c_bands:  1 eigenvalues not converged
     ethr =  4.31E-07,  avg # of iterations =  8.3

[...]

     total energy              =   -2972.75605221 Ry
     estimated scf accuracy    <       0.00000007 Ry

     iteration # 67     ecut=    29.40 Ry     beta= 0.05
     Davidson diagonalization with overlap
     ethr =  1.83E-11,  avg # of iterations =  4.7

     negative rho (up, down):  1.507E-02 0.000E+00

     Adding external electric field

     Computed dipole along edir(3) :
        Dipole                0.5622 Ry au,          1.4289 Debye
        Dipole field          0.0011 Ry au,

        Potential amp.       -0.0983 Ry
        Total length         46.3494 bohr

     End of self-consistent calculation

          k = 0.0000 0.0000 0.0000 ( 18029 PWs)   bands (ev):

   -56.2738 -56.2400 -55.8672 -55.8322 -55.6112 -55.5958 -55.5534 -55.4035
   -55.3559 -55.3461 -55.2323 -55.1823 -55.0714 -55.0438 -55.0403 -55.0063
   -32.7240 -32.5663 -32.5396 -32.4320 -32.3482 -32.3467 -32.3395 -32.0930
   -32.0864 -32.0624 -32.0117 -32.0062 -31.9769 -31.9037 -31.8966 -31.8586
   -31.8340 -31.8320 -31.8200 -31.7758 -31.7568 -31.7493 -31.7165 -31.7160
   -31.6863 -31.6742 -31.6159 -31.5632 -31.5576 -31.5450 -31.5417 -31.5131
   -31.4916 -31.4365 -31.4312 -31.4165 -31.3918 -31.3739 -31.3503 -31.3295
   -31.3045 -31.2818 -31.2814 -31.2742 -31.2593 -31.2553 -31.1708 -31.0588
   -18.9007 -16.5660 -16.3777 -16.2265 -15.9922 -15.8446 -15.7601 -15.7036
   -15.7021 -15.5825 -15.5465 -15.4534 -15.3646 -15.2956 -15.2638 -15.2599
   -15.1668 -15.1049 -15.0556 -15.0330 -15.0019 -14.9818 -14.9680 -14.8891
   -14.8802 -14.8561 -14.8117 -14.6913 -14.6282 -14.3293 -14.3106 -13.5377
   -13.4256 -11.5141  -6.9509  -4.4235  -4.1027  -4.0750  -4.0168  -3.8830
    -3.7778  -3.5702  -3.4531  -3.2679  -3.2501  -3.1510  -2.9853  -2.9771
    -2.9239  -2.8533  -2.7746  -2.7053  -2.6617  -2.6504  -2.5563  -2.4997
    -2.4977  -2.4853  -2.4436  -2.4086  -2.3193  -2.2777  -2.2641  -2.2263
    -2.1828  -2.1335  -2.1299  -2.0834  -2.0587  -1.9981  -1.9340  -1.8971
    -1.8691  -1.8054  -1.7443  -1.7027  -1.6406  -1.5933  -1.5807  -1.5769
    -1.5234  -1.3288  -1.2887  -1.2620  -1.2422  -1.0998  -1.0560  -1.0211
    -0.9572  -0.9398  -0.8504  -0.8247  -0.8076  -0.7823  -0.7116  -0.6985
    -0.6630  -0.6344  -0.4475  -0.4127  -0.3410  -0.3321  -0.2642  -0.2317
    -0.1987  -0.1585  -0.1266  -0.0735  -0.0611  -0.0077   0.0391   0.0670
     0.2084   0.2394   0.3225   0.3304   0.3334   0.3558   0.4331   0.4673
     0.5398   0.5919   0.5980   0.6502   0.7376   0.7771   0.8919   0.9614
     0.9845   1.0065   1.0417   1.0950   1.2149   1.5065   1.5314   1.5702
     2.7036   2.9520   3.0825   3.2292   3.3837   3.4874   3.7960   3.8136
     3.8504   3.8960   3.9408

[...]

          k = 0.0380-0.0419 0.0000 ( 17876 PWs)   bands (ev):

[...]

          k =-0.0760-0.0000 0.0000 ( 17886 PWs)   bands (ev):

[...]

          k =-0.0760-0.0839 0.0000 ( 17948 PWs)   bands (ev):

   -56.2569 -56.2567 -55.8546 -55.8446 -55.6057 -55.5951 -55.5588 -55.3961
   -55.3631 -55.3467 -55.2306 -55.1802 -55.0730 -55.0458 -55.0238 -55.0227
   -32.5519 -32.5518 -32.5401 -32.5399 -32.3841 -32.3838 -32.1737 -32.1647
   -32.0482 -32.0400 -32.0380 -32.0337 -31.9143 -31.8772 -31.8616 -31.8307
   -31.8279 -31.8265 -31.8184 -31.7860 -31.7729 -31.7264 -31.7137 -31.6989
   -31.6365 -31.6338 -31.6285 -31.6021 -31.5979 -31.5949 -31.5552 -31.5495
   -31.4834 -31.4371 -31.4205 -31.4183 -31.3917 -31.3636 -31.3628 -31.3440
   -31.3331 -31.2910 -31.2852 -31.2780 -31.2519 -31.2506 -31.2137 -31.2128
   -18.8978 -16.3623 -15.9767 -15.9685 -15.8376 -15.8321 -15.6593 -15.6474
   -15.6017 -15.5540 -15.5227 -15.4888 -15.3612 -15.3357 -15.2656 -15.2403
   -15.2060 -15.1810 -15.1570 -15.1516 -15.1152 -15.0730 -15.0232 -15.0184
   -14.9693 -14.9678 -14.8429 -14.7666 -14.6890 -14.5113 -14.4643 -13.5290
   -13.5284 -11.5121  -6.9654  -4.3703  -4.0731  -4.0539  -3.8493  -3.1406
    -3.0989  -2.9733  -2.9478  -2.8723  -2.8349  -2.7649  -2.7066  -2.6844
    -2.6714  -2.6605  -2.5956  -2.5666  -2.5609  -2.5194  -2.5041  -2.4972
    -2.4602  -2.4091  -2.3853  -2.3632  -2.3576  -2.3518  -2.2730  -2.2027
    -2.2005  -2.1811  -2.1477  -2.1157  -2.0355  -2.0273  -1.9874  -1.9533
    -1.9222  -1.8309  -1.7901  -1.7368  -1.6938  -1.6557  -1.5853  -1.5815
    -1.5138  -1.4680  -1.3555  -1.3324  -1.3131  -1.2710  -1.2337  -1.1945
    -1.1275  -1.1053  -1.0512  -1.0470  -1.0333  -1.0102  -0.8987  -0.8585
    -0.7651  -0.7242  -0.7020  -0.6784  -0.6354  -0.6286  -0.5576  -0.5347
    -0.4960  -0.4712  -0.4052  -0.3998  -0.3653  -0.3004  -0.1939  -0.0357
     0.0598   0.1018   0.1242   0.1426   0.1881   0.2975   0.3033   0.3780
     0.4500   0.4630   0.4806   0.5095   0.6555   0.7330   0.8402   0.8624
     0.9111   0.9593   1.0190   1.0872   1.3756   1.3831   1.3865   1.3872
     2.7172   3.5029   3.5053   3.5337   3.5448   3.7304   3.7332   3.7508
     3.8962   3.9250   3.9968

     the Fermi energy is     2.8880 ev

!    total energy              =   -2972.75608496 Ry
     estimated scf accuracy    <       0.00000005 Ry
     smearing contrib. (-TS)   =      -0.01286844 Ry
     internal energy E=F+TS    =   -2972.74321652 Ry

     The total energy is F=E-TS. E is the sum of the following terms:
     one-electron contribution =  -23636.52027331 Ry
     hartree contribution      =   11911.28356890 Ry
     xc contribution           =    -493.07593509 Ry
     ewald contribution        =    9245.56882655 Ry
     electric field correction =       0.00059644 Ry

     convergence has been achieved in  67 iterations

     Forces acting on atoms (cartesian axes, Ry/au):

     atom    1 type  1   force =    -0.00001085   -0.00036705    0.10686183
     atom    2 type  1   force =    -0.00004709    0.00020638   -0.16491629
     atom    3 type  2   force =     0.00005582    0.00001898   -0.03813938
     atom    4 type  2   force =     0.00006599   -0.00063903    0.03453960
     atom    5 type  2   force =    -0.00366851   -0.00218351   -0.00717753
     atom    6 type  2   force =     0.00569523   -0.00176871   -0.00685107
     atom    7 type  1   force =     0.00025231   -0.00516685    0.03714933
     atom    8 type  1   force =    -0.00001883    0.01089386    0.05885291
     atom    9 type  2   force =    -0.00043732    0.00029639   -0.00084571
     atom   10 type  2   force =    -0.00076459   -0.00040204   -0.04431334
     atom   11 type  2   force =     0.00029279   -0.00021252    0.00031345
     atom   12 type  2   force =    -0.00063649   -0.00054847   -0.00004205
     atom   13 type  1   force =     0.00004932    0.00032965    0.00054354
     atom   14 type  1   force =    -0.00024649   -0.00007429    0.00054583
     atom   15 type  2   force =    -0.00018606   -0.00036223   -0.00115398
     atom   16 type  2   force =     0.00032657    0.00007735    0.00048924
     atom   17 type  2   force =     0.00004801    0.00038960    0.00015114
     atom   18 type  2   force =     0.00030573    0.00049602   -0.00049172
     atom   19 type  1   force =    -0.00046555   -0.00051992   -0.00035441
     atom   20 type  1   force =     0.00012243   -0.00017300    0.00067520
     atom   21 type  2   force =     0.00004360    0.00021491    0.10035433
     atom   22 type  2   force =     0.00001647   -0.00074355   -0.00004959
     atom   23 type  2   force =    -0.07695596   -0.00000507   -0.03001310
     atom   24 type  2   force =     0.07682469    0.00042064   -0.03007153
     atom   25 type  1   force =     0.00005269   -0.00041715    0.10688823
     atom   26 type  1   force =    -0.00017103   -0.00138804   -0.16527527
     atom   27 type  2   force =     0.00012607   -0.00063762   -0.03658570
     atom   28 type  2   force =     0.00003864    0.00111480    0.03011412
     atom   29 type  2   force =    -0.00205136    0.00418006   -0.01015139
     atom   30 type  2   force =     0.00411838    0.00462798   -0.00972832
     atom   31 type  1   force =     0.00023356    0.00322929    0.02268233
     atom   32 type  1   force =    -0.00015315   -0.01396942    0.05889531
     atom   33 type  2   force =    -0.00013972   -0.00119192   -0.00031775
     atom   34 type  2   force =    -0.00070515   -0.00007607   -0.05477884
     atom   35 type  2   force =    -0.00106063    0.00021139    0.00020252
     atom   36 type  2   force =     0.00051560   -0.00000851   -0.00022343
     atom   37 type  1   force =    -0.00013478   -0.00078306    0.00003879
     atom   38 type  1   force =    -0.00057090    0.00001229    0.00007141
     atom   39 type  2   force =    -0.00031166    0.00053255   -0.00007689
     atom   40 type  2   force =    -0.00024701   -0.00046703    0.00015654
     atom   41 type  2   force =    -0.00091324    0.00005598   -0.00011895
     atom   42 type  2   force =    -0.00019355    0.00010934    0.00059909
     atom   43 type  1   force =     0.00076668    0.00101495   -0.00003324
     atom   44 type  1   force =    -0.00017781    0.00159914    0.00078091
     atom   45 type  2   force =     0.00003670   -0.00000080    0.10016629
     atom   46 type  2   force =    -0.07699718    0.00003075   -0.03004330
     atom   47 type  2   force =     0.07688829    0.00045636   -0.03010932
     atom   48 type  3   force =    -0.00014460    0.00024733    0.00130675
     atom   49 type  3   force =     0.00005863    0.00064023   -0.00090266
     atom   50 type  4   force =    -0.00274316    0.00974488   -0.00360443
     atom   51 type  5   force =     0.00291684   -0.00946147    0.00381287
     atom   52 type  5   force =    -0.00048208   -0.00001752   -0.00034546
     atom   53 type  5   force =     0.00007579   -0.00005709    0.00056162
     atom   54 type  2   force =     0.00106909   -0.00040635   -0.00122079
     atom   55 type  5   force =    -0.00036115    0.00089716    0.00118223

     Total force =     0.380062     Total SCF correction =     0.000380
  @ DRIVER MODE: Message from server: STATUS
  @ DRIVER MODE: Message from server: GETFORCE
  @ DRIVER MODE: Returning v,forces,stress,ensemble

     Writing output data file ./calc.save/
  @ DRIVER MODE: Message from server: EXIT
  @ DRIVE MODE: Exiting

     General routines

     Parallel routines

   This run was terminated on:   4:17:36  10Sep2021

   JOB DONE.