     Program PWSCF v.6.7GPU starts on 23Sep2021 at 21:50:11

     R & G space division:  proc/nbgrp/npool/nimage =       8
     Reading input from /storage/home/hcoda1/3/ntian30/research/carbon/CxH_vib/H2O_calc/ads_slab/CH3NHNH2HO_a/out_0024/pw.inp
Warning: card &CELL ignored
Warning: card   CELL_DYNAMICS='IPI', ignored
Warning: card / ignored

     Current dimensions of program PWSCF are:
     Max number of different atomic species (ntypx) = 10
     Max number of k-points (npk) =  40000
     Max angular momentum in pseudopotentials (lmaxx) =  3
     Presently no symmetry can be used with electric field

     Message from routine cell_base_init:
     DEPRECATED: use true lattice parameter, not A to a.u. conversion factor

     IMPORTANT: XC functional enforced from input :
     Exchange-correlation= BEEF-VDW
                           (   1   4  43  14   2   0   0)
     Any further DFT definition will be discarded
     Please, verify this is what you really want

  @ DRIVER MODE: Connecting to
 qe_1139763_2947307.sched-torque.pace.gatech.edulcubm3ef_scratch
  using UNIX socket
  @ DRIVER MODE: Message from server: STATUS
  @ DRIVER MODE: Message from server: INIT
  @ DRIVER MODE: Receiving replica           0          -1
  @ DRIVER MODE: Receiving encoded integer          25
  @ DRIVER MODE:  SCF:  T  FORCE:  T  STRESS:  F  VC:  F  ENSEMBLE:  F
  @ DRIVER MODE:  SCF:  T  FORCE:  T  STRESS:  F  VC:  F  ENSEMBLE:  F

     Using Slab Decomposition

     bravais-lattice index     =            0
     lattice parameter (alat)  =       1.8897  a.u.
     unit-cell volume          =    6658.9804 (a.u.)^3
     number of atoms/cell      =           58
     number of atomic types    =            5
     number of electrons       =       405.00
     number of Kohn-Sham states=          212
     kinetic-energy cutoff     =      29.3995  Ry
     charge density cutoff     =     293.9946  Ry
     scf convergence threshold =      7.3E-08
     mixing beta               =       0.0500
     number of iterations used =            8  plain     mixing
     Exchange-correlation= BEEF-VDW
                           (   1   4  43  14   2   0   0)

     celldm(1)=   1.889726  celldm(2)=   0.000000  celldm(3)=   0.000000
     celldm(4)=   0.000000  celldm(5)=   0.000000  celldm(6)=   0.000000

     crystal axes: (cart. coord. in units of alat)
               a(1) = (   6.579727   0.000000   0.000000 )
               a(2) = (  -0.000775   5.961596   0.000000 )
               a(3) = (   0.000000   0.000000  25.155947 )

     reciprocal axes: (cart. coord. in units 2 pi/alat)
               b(1) = (  0.151982  0.000020  0.000000 )
               b(2) = (  0.000000  0.167740  0.000000 )
               b(3) = (  0.000000  0.000000  0.039752 )

     PseudoPot. # 1 for Ti read from file:
     /storage/coda1/p-amedford6/0/shared/rich_project_chbe-medford/medford-share/data/pseudos_module/espresso/nninc/pbe/van/Ti.UPF
     MD5 check sum: 8e4df49b7f0d34bbd5052bf3f5ea0213
     Pseudo is Ultrasoft, Zval = 12.0
     Generated by new atomic code, or converted to UPF format
     Using radial grid of  851 points,  6 beta functions with:
                l(1) =   0
                l(2) =   0
                l(3) =   1
                l(4) =   1
                l(5) =   2
                l(6) =   2
     Q(r) pseudized with  8 coefficients,  rinner =    1.000   1.000   1.000
                                                       1.000   1.000

     PseudoPot. # 2 for O  read from file:
     /storage/coda1/p-amedford6/0/shared/rich_project_chbe-medford/medford-share/data/pseudos_module/espresso/nninc/pbe/van/O.UPF
     MD5 check sum: 78c19812648e8988a0fe644b0f25305e
     Pseudo is Ultrasoft, Zval =  6.0
     Generated by new atomic code, or converted to UPF format
     Using radial grid of  737 points,  4 beta functions with:
                l(1) =   0
                l(2) =   0
                l(3) =   1
                l(4) =   1
     Q(r) pseudized with  8 coefficients,  rinner =    0.800   0.800   0.800

     PseudoPot. # 3 for N  read from file:
     /storage/coda1/p-amedford6/0/shared/rich_project_chbe-medford/medford-share/data/pseudos_module/espresso/nninc/pbe/van/N.UPF
     MD5 check sum: 90d10febe142ad51ac9d5be1deb811c4
     Pseudo is Ultrasoft, Zval =  5.0
     Generated by new atomic code, or converted to UPF format
     Using radial grid of  729 points,  4 beta functions with:
                l(1) =   0
                l(2) =   0
                l(3) =   1
                l(4) =   1
     Q(r) pseudized with  8 coefficients,  rinner =    0.800   0.800   0.800

     PseudoPot. # 4 for C  read from file:
     /storage/coda1/p-amedford6/0/shared/rich_project_chbe-medford/medford-share/data/pseudos_module/espresso/nninc/pbe/van/C.UPF
     MD5 check sum: 1a69bf6b8db32088f5b2163dbdb77a27
     Pseudo is Ultrasoft, Zval =  4.0
     Generated by new atomic code, or converted to UPF format
     Using radial grid of  721 points,  4 beta functions with:
                l(1) =   0
                l(2) =   0
                l(3) =   1
                l(4) =   1
     Q(r) pseudized with  8 coefficients,  rinner =    0.800   0.800   0.800

     PseudoPot. # 5 for H  read from file:
     /storage/coda1/p-amedford6/0/shared/rich_project_chbe-medford/medford-share/data/pseudos_module/espresso/nninc/pbe/van/H.UPF
     MD5 check sum: b5ee9d7bfd3a09ee7748110bda690ff7
     Pseudo is Ultrasoft, Zval =  1.0
     Generated by new atomic code, or converted to UPF format
     Using radial grid of  615 points,  1 beta functions with:
                l(1) =   0
     Q(r) pseudized with  8 coefficients,  rinner =    0.800

     atomic species   valence    mass     pseudopotential
        Ti1           12.00    47.86700     Ti( 1.00)
        O1             6.00    15.99900     O ( 1.00)
        N1             5.00    14.00700     N ( 1.00)
        C1             4.00    12.01100     C ( 1.00)
        H1             1.00     1.00800     H ( 1.00)

     No symmetry found

   Cartesian axes

     site n.     atom                  positions (alat units)
         1           Ti1 tau(   1) = (   0.0004258   2.9801865   6.0000000  )
         2           Ti1 tau(   2) = (   3.2906075   1.4906267   6.0002472  )
         3           O1  tau(   3) = (   0.0006271   0.0005054   7.9858123  )
         4           O1  tau(   4) = (   3.2906025   0.0005020   7.3038282  )
         5           O1  tau(   5) = (   4.5942328   1.4918067   9.2879030  )
         6           O1  tau(   6) = (   1.9868534   1.4903216   9.2879459  )
         7           Ti1 tau(   7) = (   3.2907910   2.8959150   9.1758416  )
         8           Ti1 tau(   8) = (   0.0015273   1.4827037   9.2680791  )
         9           O1  tau(   9) = (   3.3003128   0.0493987  11.3625472  )
        10           O1  tau(  10) = (   0.0116148   5.9584955  10.6183126  )
        11           O1  tau(  11) = (   1.2863924   1.5188706  12.6959087  )
        12           O1  tau(  12) = (   5.3173592   1.5183023  12.6957539  )
        13           Ti1 tau(  13) = (   0.0130489   2.9571150  12.5182267  )
        14           Ti1 tau(  14) = (   3.3124343   1.5987737  12.4587140  )
        15           O1  tau(  15) = (   0.0455642   5.8537743  14.6515032  )
        16           O1  tau(  16) = (   3.3135256   5.8999501  14.0036581  )
        17           O1  tau(  17) = (   4.5824137   1.5787328  16.0473457  )
        18           O1  tau(  18) = (   2.0456054   1.5356268  16.0652349  )
        19           Ti1 tau(  19) = (   3.2855744   2.9948502  15.7047272  )
        20           Ti1 tau(  20) = (   0.0729980   1.3194477  15.7501807  )
        21           O1  tau(  21) = (   3.2904802   0.0005063   4.7018136  )
        22           O1  tau(  22) = (   6.5643345   0.1786488  17.1561759  )
        23           O1  tau(  23) = (   1.3043587   1.4918075   6.0039043  )
        24           O1  tau(  24) = (   5.2767064   1.4903225   6.0039473  )
        25           Ti1 tau(  25) = (   0.0000382   5.9609847   6.0000000  )
        26           Ti1 tau(  26) = (   3.2902200   4.4714249   6.0002472  )
        27           O1  tau(  27) = (   0.0002396   2.9813036   7.9858123  )
        28           O1  tau(  28) = (   3.2902150   2.9813002   7.3038282  )
        29           O1  tau(  29) = (   4.5938453   4.4726049   9.2879030  )
        30           O1  tau(  30) = (   1.9864658   4.4711199   9.2879459  )
        31           Ti1 tau(  31) = (   3.2891106   5.8743827   9.1763621  )
        32           Ti1 tau(  32) = (   0.0006254   4.4649316   9.2693709  )
        33           O1  tau(  33) = (   3.3044115   2.9646987  11.3227374  )
        34           O1  tau(  34) = (   0.0092240   2.9805883  10.6323155  )
        35           O1  tau(  35) = (   1.2889249   4.4812606  12.6373974  )
        36           O1  tau(  36) = (   5.3198440   4.4849614  12.6453916  )
        37           Ti1 tau(  37) = (   0.0274371   5.9167426  12.5032498  )
        38           Ti1 tau(  38) = (   3.3124303   4.6827448  12.7121475  )
        39           O1  tau(  39) = (   0.0064664   3.0605765  14.9143048  )
        40           O1  tau(  40) = (   3.2921723   3.0190953  13.9337278  )
        41           O1  tau(  41) = (   4.5343043   4.4484976  16.2223827  )
        42           O1  tau(  42) = (   2.0055671   4.4324605  16.2273083  )
        43           Ti1 tau(  43) = (   3.3963104   0.0511244  16.3072024  )
        44           Ti1 tau(  44) = (   0.1011521   4.5293608  16.0606835  )
        45           O1  tau(  45) = (   3.2900926   2.9813045   4.7018136  )
        46           O1  tau(  46) = (   1.3039711   4.4726057   6.0039043  )
        47           O1  tau(  47) = (   5.2763189   4.4711207   6.0039473  )
        48           N1  tau(  48) = (   0.7799224   3.1460235  19.0808133  )
        49           N1  tau(  49) = (   6.3029119   3.3142126  18.0946246  )
        50           C1  tau(  50) = (   0.9829876   4.3811599  19.8296872  )
        51           H1  tau(  51) = (   0.0599524   4.7630682  20.3095108  )
        52           H1  tau(  52) = (   1.7087173   4.1728717  20.6153690  )
        53           H1  tau(  53) = (   1.3778604   5.1510331  19.1745456  )
        54           H1  tau(  54) = (   0.4845774   2.4057476  19.7140978  )
        55           H1  tau(  55) = (   5.5451363   3.8924421  18.4761980  )
        56           H1  tau(  56) = (   5.8791802   2.3931312  17.9634808  )
        57           O1  tau(  57) = (   3.3895457   0.1916509  18.1699706  )
        58           H1  tau(  58) = (   3.8128180   5.4341384  18.6581559  )

     number of k points=    10  Fermi-Dirac smearing, width (Ry)=  0.0073
                       cart. coord. in units 2pi/alat
        k(    1) = (   0.0000000   0.0000000   0.0000000), wk =   0.1250000
        k(    2) = (   0.0000000   0.0419351   0.0000000), wk =   0.2500000
        k(    3) = (   0.0000000  -0.0838702   0.0000000), wk =   0.1250000
        k(    4) = (   0.0379955   0.0000049   0.0000000), wk =   0.2500000
        k(    5) = (   0.0379955   0.0419400   0.0000000), wk =   0.2500000
        k(    6) = (   0.0379955  -0.0838652   0.0000000), wk =   0.2500000
        k(    7) = (   0.0379955  -0.0419301   0.0000000), wk =   0.2500000
        k(    8) = (  -0.0759910  -0.0000099   0.0000000), wk =   0.1250000
        k(    9) = (  -0.0759910   0.0419252   0.0000000), wk =   0.2500000
        k(   10) = (  -0.0759910  -0.0838800   0.0000000), wk =   0.1250000

     Initial potential from superposition of free atoms

     starting charge  388.99913, renormalised to  405.00000

     negative rho (up, down):  1.367E-02 0.000E+00

     %%%%%%%%%%%%%%%%%%%%%%%%%%%%%%%%%%%%%%%%%%%%%%%%%%%%%%%%%%%%%%%%%%%%%%%%
     %                                                                      %
     % You are using vdW-DF, which was implemented by the Thonhauser group. %
     % Please cite the following two papers that made this development      %
     % possible and the two reviews that describe the various versions:     %
     %                                                                      %
     %   T. Thonhauser et al., PRL 115, 136402 (2015).                      %
     %   T. Thonhauser et al., PRB 76, 125112 (2007).                       %
     %   K. Berland et al., Rep. Prog. Phys. 78, 066501 (2015).             %
     %   D.C. Langreth et al., J. Phys.: Condens. Matter 21, 084203 (2009). %
     %                                                                      %
     %                                                                      %
     % If you are calculating the stress with vdW-DF, please also cite:     %
     %                                                                      %
     %   R. Sabatini et al., J. Phys.: Condens. Matter 24, 424209 (2012).   %
     %                                                                      %
     %%%%%%%%%%%%%%%%%%%%%%%%%%%%%%%%%%%%%%%%%%%%%%%%%%%%%%%%%%%%%%%%%%%%%%%%

     Adding external electric field

     Computed dipole along edir(3) :
        Dipole              -14.8132 Ry au,        -37.6513 Debye
        Dipole field         -0.0280 Ry au,

        Potential amp.        2.5913 Ry
        Total length         46.3494 bohr

     Starting wfcs are  307 atomic wfcs
  @ DRIVER MODE: Message from server: STATUS
  @ DRIVER MODE: Message from server: POSDATA
  @ DRIVER MODE: Reading and sharing cell
  @ DRIVER MODE: Reading and sharing positions
  @ DRIVER MODE: Received positions

     Self-consistent Calculation

     iteration #  1     ecut=    29.40 Ry     beta= 0.05
     Davidson diagonalization with overlap
     c_bands:  4 eigenvalues not converged
     c_bands:  4 eigenvalues not converged
     c_bands:  5 eigenvalues not converged
     c_bands:  2 eigenvalues not converged
     c_bands:  3 eigenvalues not converged
     c_bands:  4 eigenvalues not converged
     c_bands:  2 eigenvalues not converged
     ethr =  1.00E-05,  avg # of iterations = 22.9

[...]

     total energy              =   -2202.99282513 Ry
     estimated scf accuracy    <    8803.89600201 Ry

     iteration #  2     ecut=    29.40 Ry     beta= 0.05
     Davidson diagonalization with overlap
     ethr =  1.00E-02,  avg # of iterations = 32.0

[...]

     iteration # 47     ecut=    29.40 Ry     beta= 0.05
     Davidson diagonalization with overlap
     c_bands:  1 eigenvalues not converged
     ethr =  1.43E-07,  avg # of iterations = 14.4

[...]

     total energy              =   -2976.46402351 Ry
     estimated scf accuracy    <       0.00000014 Ry

     iteration # 65     ecut=    29.40 Ry     beta= 0.05
     Davidson diagonalization with overlap
     ethr =  3.34E-11,  avg # of iterations = 10.3

     negative rho (up, down):  1.440E-02 0.000E+00

     Adding external electric field

     Computed dipole along edir(3) :
        Dipole                1.2252 Ry au,          3.1141 Debye
        Dipole field          0.0023 Ry au,

        Potential amp.       -0.2143 Ry
        Total length         46.3494 bohr

     End of self-consistent calculation

          k = 0.0000 0.0000 0.0000 ( 18029 PWs)   bands (ev):

   -55.4452 -55.3571 -55.3231 -55.2185 -55.2155 -55.1877 -55.1859 -55.1780
   -55.1537 -55.1308 -55.0877 -54.9860 -54.9373 -54.8944 -54.3321 -54.2981
   -31.8423 -31.7916 -31.7222 -31.7048 -31.6906 -31.6758 -31.6551 -31.6480
   -31.6169 -31.6033 -31.5975 -31.5097 -31.4949 -31.4875 -31.4676 -31.4642
   -31.4603 -31.4511 -31.4506 -31.4209 -31.4146 -31.3931 -31.3858 -31.3759
   -31.3713 -31.3551 -31.3542 -31.3222 -31.3217 -31.3153 -31.3145 -31.3088
   -31.3004 -31.2824 -31.2587 -31.2401 -31.1750 -31.1530 -31.1417 -31.1330
   -31.1126 -31.1035 -30.7381 -30.6517 -30.6293 -30.5556 -30.4692 -30.3575
   -17.7442 -16.3674 -16.0114 -15.8475 -15.6327 -15.5401 -15.5130 -15.3142
   -15.2192 -15.1610 -14.9596 -14.9325 -14.8948 -14.8821 -14.8733 -14.8522
   -14.8486 -14.7970 -14.7814 -14.7716 -14.7681 -14.7378 -14.7107 -14.6715
   -14.6119 -14.5981 -14.4954 -14.4401 -14.4002 -14.1589 -14.1387 -13.1765
   -12.8306 -12.7142  -9.4352  -6.4484  -5.7423  -4.2632  -3.9341  -3.3694
    -3.2679  -3.2563  -3.1992  -3.1324  -2.9701  -2.8846  -2.7840  -2.7439
    -2.6132  -2.5973  -2.4927  -2.4439  -2.3709  -2.3248  -2.2835  -2.2488
    -2.2210  -2.1650  -2.1427  -2.1169  -2.1057  -2.0328  -2.0144  -1.9247
    -1.8919  -1.8785  -1.7608  -1.7261  -1.6914  -1.6781  -1.6691  -1.6622
    -1.6191  -1.6088  -1.5982  -1.5558  -1.4556  -1.4478  -1.4301  -1.3395
    -1.2420  -0.9920  -0.9608  -0.9102  -0.8987  -0.8206  -0.7819  -0.7503
    -0.7176  -0.6478  -0.6367  -0.6106  -0.5493  -0.4738  -0.4196  -0.3718
    -0.3377  -0.2259  -0.1758  -0.1319  -0.0991  -0.0623   0.0006   0.0401
     0.0643   0.1074   0.1950   0.2584   0.2858   0.3026   0.3528   0.3946
     0.4326   0.4731   0.5448   0.5673   0.5775   0.6169   0.6254   0.6463
     0.7417   0.7602   0.8197   0.8469   0.9348   0.9658   1.0100   1.1794
     1.2490   1.3075   1.3853   1.4737   1.6398   1.6943   1.7192   1.8883
     2.2617   2.3071   3.7267   3.8741   3.8904   3.9681   3.9850   4.0492
     4.2157   4.2748   4.4154   4.4229

[...]

          k = 0.0380-0.0419 0.0000 ( 17876 PWs)   bands (ev):

[...]

          k =-0.0760-0.0000 0.0000 ( 17886 PWs)   bands (ev):

[...]

          k =-0.0760-0.0839 0.0000 ( 17948 PWs)   bands (ev):

   -55.4444 -55.3401 -55.3399 -55.2172 -55.2039 -55.1896 -55.1866 -55.1719
   -55.1691 -55.1227 -55.0958 -54.9829 -54.9383 -54.8973 -54.3151 -54.3150
   -31.7302 -31.6699 -31.6576 -31.6575 -31.6564 -31.6424 -31.6336 -31.6333
   -31.5763 -31.5313 -31.5098 -31.4990 -31.4936 -31.4886 -31.4657 -31.4600
   -31.4595 -31.4565 -31.4499 -31.4375 -31.4308 -31.4280 -31.4164 -31.3904
   -31.3859 -31.3840 -31.3763 -31.3684 -31.3500 -31.3446 -31.3413 -31.3409
   -31.3380 -31.3179 -31.3164 -31.2520 -31.2350 -31.2070 -31.1792 -31.1553
   -31.1496 -31.1083 -30.6420 -30.6420 -30.5512 -30.5508 -30.5126 -30.5124
   -17.7402 -16.3574 -15.5922 -15.4472 -15.3386 -15.3283 -15.2044 -15.1372
   -15.1274 -15.0938 -15.0710 -15.0491 -15.0307 -15.0154 -14.9607 -14.9209
   -14.8895 -14.8621 -14.8575 -14.8146 -14.8049 -14.7936 -14.7757 -14.7641
   -14.7089 -14.6727 -14.6631 -14.6046 -14.4654 -14.4449 -14.2890 -13.1779
   -12.8162 -12.8160  -9.4542  -6.4329  -5.7483  -4.2489  -3.9230  -2.9543
    -2.8018  -2.6587  -2.6103  -2.5631  -2.4497  -2.4254  -2.3674  -2.3169
    -2.2927  -2.2713  -2.2189  -2.2091  -2.1633  -2.1472  -2.1229  -2.1082
    -2.0917  -2.0852  -2.0573  -2.0415  -2.0311  -2.0180  -1.9911  -1.9800
    -1.9618  -1.9330  -1.9129  -1.9037  -1.8704  -1.8280  -1.7668  -1.6559
    -1.5820  -1.5711  -1.5275  -1.5026  -1.4864  -1.4453  -1.4327  -1.3917
    -1.3743  -1.3082  -1.1503  -1.1252  -1.1107  -0.9682  -0.9609  -0.9321
    -0.8579  -0.8162  -0.7944  -0.7364  -0.7065  -0.6658  -0.5895  -0.5462
    -0.4919  -0.4258  -0.3259  -0.3183  -0.3022  -0.2822  -0.2660  -0.2582
    -0.2250  -0.1878  -0.1148  -0.0682  -0.0595  -0.0535  -0.0023   0.0775
     0.1284   0.2427   0.3889   0.3934   0.4604   0.4612   0.6609   0.6697
     0.7464   0.7819   0.8163   0.8434   0.9372   0.9553   0.9929   1.0756
     1.1392   1.1687   1.1897   1.1944   1.2475   1.4556   2.0567   2.0645
     2.1274   2.1275   3.9678   4.2008   4.2417   4.2543   4.2727   4.2991
     4.3127   4.3268   4.3938   4.4170

     the Fermi energy is     3.7640 ev

!    total energy              =   -2976.46405156 Ry
     estimated scf accuracy    <       0.00000007 Ry
     smearing contrib. (-TS)   =      -0.01955622 Ry
     internal energy E=F+TS    =   -2976.44449533 Ry

     The total energy is F=E-TS. E is the sum of the following terms:
     one-electron contribution =  -23036.86111451 Ry
     hartree contribution      =   11616.15148191 Ry
     xc contribution           =    -495.72263530 Ry
     ewald contribution        =    8939.98493988 Ry
     electric field correction =       0.00283269 Ry

     convergence has been achieved in  65 iterations

     Forces acting on atoms (cartesian axes, Ry/au):

     atom    1 type  1   force =     0.00016137   -0.00022872    0.09415271
     atom    2 type  1   force =    -0.00010312    0.00018026   -0.17537843
     atom    3 type  2   force =     0.00005441   -0.00049347   -0.02103311
     atom    4 type  2   force =    -0.00002431   -0.00093722    0.05424485
     atom    5 type  2   force =    -0.00487877   -0.00215670    0.00107476
     atom    6 type  2   force =     0.00670213   -0.00138220    0.00109125
     atom    7 type  1   force =     0.00005998    0.00331219    0.00866229
     atom    8 type  1   force =    -0.00010021    0.00119770    0.00270029
     atom    9 type  2   force =    -0.00022031   -0.00030317   -0.00059105
     atom   10 type  2   force =    -0.00112034    0.00429265   -0.01024932
     atom   11 type  2   force =    -0.00008782   -0.00055115   -0.00011040
     atom   12 type  2   force =     0.00063024   -0.00031493   -0.00027261
     atom   13 type  1   force =    -0.00143418    0.00019269   -0.00057975
     atom   14 type  1   force =     0.00070931    0.00017303   -0.00047486
     atom   15 type  2   force =     0.00013322   -0.00001618    0.00004428
     atom   16 type  2   force =    -0.00009509   -0.00069222   -0.00029578
     atom   17 type  2   force =    -0.00042911    0.00068766    0.00008183
     atom   18 type  2   force =    -0.00076785    0.00031437   -0.00020627
     atom   19 type  1   force =     0.00042085   -0.00093233    0.00061888
     atom   20 type  1   force =    -0.00069496   -0.00006543    0.00054660
     atom   21 type  2   force =     0.00003761   -0.00000963    0.10320081
     atom   22 type  2   force =    -0.00010391    0.00003828    0.00043365
     atom   23 type  2   force =    -0.07198821   -0.00020087   -0.02727526
     atom   24 type  2   force =     0.07186593    0.00025567   -0.02734578
     atom   25 type  1   force =     0.00007490   -0.00017053    0.09388306
     atom   26 type  1   force =    -0.00011979   -0.00136718   -0.17552349
     atom   27 type  2   force =     0.00011090   -0.00005357   -0.01984417
     atom   28 type  2   force =     0.00006419   -0.00105089    0.04979330
     atom   29 type  2   force =    -0.00746246    0.00209630    0.00339883
     atom   30 type  2   force =     0.00906604    0.00223758    0.00331715
     atom   31 type  1   force =     0.00019684    0.00151311    0.00006446
     atom   32 type  1   force =    -0.00008754   -0.00227223    0.00301432
     atom   33 type  2   force =    -0.00017677   -0.00031615   -0.00002085
     atom   34 type  2   force =    -0.00117189   -0.00218377   -0.00964014
     atom   35 type  2   force =     0.00062649    0.00005577   -0.00022742
     atom   36 type  2   force =     0.00038818    0.00011574   -0.00035603
     atom   37 type  1   force =    -0.00096467    0.00025481    0.00034244
     atom   38 type  1   force =     0.00096584   -0.00023496    0.00019364
     atom   39 type  2   force =    -0.00016999   -0.00052544    0.00010154
     atom   40 type  2   force =    -0.00020046   -0.00019501   -0.00016276
     atom   41 type  2   force =     0.00025448   -0.00031703   -0.00008715
     atom   42 type  2   force =    -0.00066354    0.00005737   -0.00009345
     atom   43 type  1   force =     0.00023707    0.00092902    0.00047868
     atom   44 type  1   force =    -0.00041163    0.00086255    0.00008473
     atom   45 type  2   force =     0.00002584    0.00003363    0.10303646
     atom   46 type  2   force =    -0.07193987   -0.00007817   -0.02722886
     atom   47 type  2   force =     0.07182916    0.00035368   -0.02731193
     atom   48 type  3   force =    -0.00036524   -0.00034644   -0.00028306
     atom   49 type  3   force =    -0.00050323   -0.00020717   -0.00055220
     atom   50 type  4   force =    -0.00274681    0.00069494    0.00337992
     atom   51 type  5   force =     0.00218471   -0.00159615   -0.00294448
     atom   52 type  5   force =     0.00128034   -0.00035301   -0.00000454
     atom   53 type  5   force =    -0.00088409    0.00090009   -0.00023078
     atom   54 type  5   force =     0.00069576   -0.00029478   -0.00000078
     atom   55 type  5   force =     0.00059109   -0.00061168    0.00006990
     atom   56 type  5   force =     0.00063976   -0.00003770   -0.00006144
     atom   57 type  2   force =     0.00069282   -0.00120019    0.00012851
     atom   58 type  5   force =    -0.00078326    0.00094716    0.00024702

     Total force =     0.362047     Total SCF correction =     0.000692
  @ DRIVER MODE: Message from server: STATUS
  @ DRIVER MODE: Message from server: GETFORCE
  @ DRIVER MODE: Returning v,forces,stress,ensemble

     Writing output data file ./calc.save/
  @ DRIVER MODE: Message from server: EXIT
  @ DRIVE MODE: Exiting

     General routines

     Parallel routines

   This run was terminated on:  22:18:31  23Sep2021

   JOB DONE.