     Program PWSCF v.6.7GPU starts on 23Aug2021 at 14:48:50

     R & G space division:  proc/nbgrp/npool/nimage =       6
     Reading input from /storage/home/hcoda1/3/ntian30/research/carbon/CH_vib/ads_slab/CHNNHH_a/out_0004/pw.inp
Warning: card &CELL ignored
Warning: card   CELL_DYNAMICS='IPI', ignored
Warning: card / ignored

     Current dimensions of program PWSCF are:
     Max number of different atomic species (ntypx) = 10
     Max number of k-points (npk) =  40000
     Max angular momentum in pseudopotentials (lmaxx) =  3
     Presently no symmetry can be used with electric field

     Message from routine cell_base_init:
     DEPRECATED: use true lattice parameter, not A to a.u. conversion factor

     IMPORTANT: XC functional enforced from input :
     Exchange-correlation= BEEF-VDW
                           (   1   4  43  14   2   0   0)
     Any further DFT definition will be discarded
     Please, verify this is what you really want

  @ DRIVER MODE: Connecting to
 qe_1139763_2632796.sched-torque.pace.gatech.eduz36cd4mw_scratch
  using UNIX socket
  @ DRIVER MODE: Message from server: STATUS
  @ DRIVER MODE: Message from server: INIT
  @ DRIVER MODE: Receiving replica           0          -1
  @ DRIVER MODE: Receiving encoded integer          25
  @ DRIVER MODE:  SCF:  T  FORCE:  T  STRESS:  F  VC:  F  ENSEMBLE:  F
  @ DRIVER MODE:  SCF:  T  FORCE:  T  STRESS:  F  VC:  F  ENSEMBLE:  F

     Using Slab Decomposition

     bravais-lattice index     =            0
     lattice parameter (alat)  =       1.8897  a.u.
     unit-cell volume          =    6658.9804 (a.u.)^3
     number of atoms/cell      =           53
     number of atomic types    =            5
     number of electrons       =       395.00
     number of Kohn-Sham states=          207
     kinetic-energy cutoff     =      29.3995  Ry
     charge density cutoff     =     293.9946  Ry
     scf convergence threshold =      7.3E-08
     mixing beta               =       0.0500
     number of iterations used =            8  plain     mixing
     Exchange-correlation= BEEF-VDW
                           (   1   4  43  14   2   0   0)

     celldm(1)=   1.889726  celldm(2)=   0.000000  celldm(3)=   0.000000
     celldm(4)=   0.000000  celldm(5)=   0.000000  celldm(6)=   0.000000

     crystal axes: (cart. coord. in units of alat)
               a(1) = (   6.579727   0.000000   0.000000 )
               a(2) = (  -0.000775   5.961596   0.000000 )
               a(3) = (   0.000000   0.000000  25.155947 )

     reciprocal axes: (cart. coord. in units 2 pi/alat)
               b(1) = (  0.151982  0.000020  0.000000 )
               b(2) = (  0.000000  0.167740  0.000000 )
               b(3) = (  0.000000  0.000000  0.039752 )

     PseudoPot. # 1 for Ti read from file:
     /storage/coda1/p-amedford6/0/shared/rich_project_chbe-medford/medford-share/data/pseudos_module/espresso/nninc/pbe/van/Ti.UPF
     MD5 check sum: 8e4df49b7f0d34bbd5052bf3f5ea0213
     Pseudo is Ultrasoft, Zval = 12.0
     Generated by new atomic code, or converted to UPF format
     Using radial grid of  851 points,  6 beta functions with:
                l(1) =   0
                l(2) =   0
                l(3) =   1
                l(4) =   1
                l(5) =   2
                l(6) =   2
     Q(r) pseudized with  8 coefficients,  rinner =    1.000   1.000   1.000
                                                       1.000   1.000

     PseudoPot. # 2 for O  read from file:
     /storage/coda1/p-amedford6/0/shared/rich_project_chbe-medford/medford-share/data/pseudos_module/espresso/nninc/pbe/van/O.UPF
     MD5 check sum: 78c19812648e8988a0fe644b0f25305e
     Pseudo is Ultrasoft, Zval =  6.0
     Generated by new atomic code, or converted to UPF format
     Using radial grid of  737 points,  4 beta functions with:
                l(1) =   0
                l(2) =   0
                l(3) =   1
                l(4) =   1
     Q(r) pseudized with  8 coefficients,  rinner =    0.800   0.800   0.800

     PseudoPot. # 3 for N  read from file:
     /storage/coda1/p-amedford6/0/shared/rich_project_chbe-medford/medford-share/data/pseudos_module/espresso/nninc/pbe/van/N.UPF
     MD5 check sum: 90d10febe142ad51ac9d5be1deb811c4
     Pseudo is Ultrasoft, Zval =  5.0
     Generated by new atomic code, or converted to UPF format
     Using radial grid of  729 points,  4 beta functions with:
                l(1) =   0
                l(2) =   0
                l(3) =   1
                l(4) =   1
     Q(r) pseudized with  8 coefficients,  rinner =    0.800   0.800   0.800

     PseudoPot. # 4 for C  read from file:
     /storage/coda1/p-amedford6/0/shared/rich_project_chbe-medford/medford-share/data/pseudos_module/espresso/nninc/pbe/van/C.UPF
     MD5 check sum: 1a69bf6b8db32088f5b2163dbdb77a27
     Pseudo is Ultrasoft, Zval =  4.0
     Generated by new atomic code, or converted to UPF format
     Using radial grid of  721 points,  4 beta functions with:
                l(1) =   0
                l(2) =   0
                l(3) =   1
                l(4) =   1
     Q(r) pseudized with  8 coefficients,  rinner =    0.800   0.800   0.800

     PseudoPot. # 5 for H  read from file:
     /storage/coda1/p-amedford6/0/shared/rich_project_chbe-medford/medford-share/data/pseudos_module/espresso/nninc/pbe/van/H.UPF
     MD5 check sum: b5ee9d7bfd3a09ee7748110bda690ff7
     Pseudo is Ultrasoft, Zval =  1.0
     Generated by new atomic code, or converted to UPF format
     Using radial grid of  615 points,  1 beta functions with:
                l(1) =   0
     Q(r) pseudized with  8 coefficients,  rinner =    0.800

     atomic species   valence    mass     pseudopotential
        Ti1           12.00    47.86700     Ti( 1.00)
        O1             6.00    15.99900     O ( 1.00)
        N1             5.00    14.00700     N ( 1.00)
        C1             4.00    12.01100     C ( 1.00)
        H1             1.00     1.00800     H ( 1.00)

     No symmetry found

   Cartesian axes

     site n.     atom                  positions (alat units)
         1           Ti1 tau(   1) = (   0.0004258   2.9801865   6.0000000  )
         2           Ti1 tau(   2) = (   3.2906075   1.4906267   6.0002472  )
         3           O1  tau(   3) = (   0.0006271   0.0005054   7.9858123  )
         4           O1  tau(   4) = (   3.2906025   0.0005020   7.3038282  )
         5           O1  tau(   5) = (   4.5942328   1.4918067   9.2879030  )
         6           O1  tau(   6) = (   1.9868534   1.4903216   9.2879459  )
         7           Ti1 tau(   7) = (   3.2907910   2.8959150   9.1758416  )
         8           Ti1 tau(   8) = (   0.0015273   1.4827037   9.2680791  )
         9           O1  tau(   9) = (   3.2912281   5.9459940  11.3193265  )
        10           O1  tau(  10) = (   0.0116148   5.9584955  10.6183126  )
        11           O1  tau(  11) = (   1.3103257   1.4650607  12.6442557  )
        12           O1  tau(  12) = (   5.3047449   1.4806448  12.6312737  )
        13           Ti1 tau(  13) = (   6.5337005   3.0128982  12.6900614  )
        14           Ti1 tau(  14) = (   3.2207025   1.4698770  12.4715817  )
        15           O1  tau(  15) = (   6.5518216   5.9146589  14.6704082  )
        16           O1  tau(  16) = (   3.3240203   5.9583723  13.8895330  )
        17           O1  tau(  17) = (   4.5456974   1.5225049  16.1264218  )
        18           O1  tau(  18) = (   2.0489736   1.4727210  15.9535721  )
        19           Ti1 tau(  19) = (   3.2591190   2.9927146  15.6788090  )
        20           Ti1 tau(  20) = (   0.0289511   1.3544711  15.7732889  )
        21           O1  tau(  21) = (   3.2904802   0.0005063   4.7018136  )
        22           O1  tau(  22) = (   0.0559926   0.0451390  17.2112278  )
        23           O1  tau(  23) = (   1.3043587   1.4918075   6.0039043  )
        24           O1  tau(  24) = (   5.2767064   1.4903225   6.0039473  )
        25           Ti1 tau(  25) = (   0.0000382   5.9609847   6.0000000  )
        26           Ti1 tau(  26) = (   3.2902200   4.4714249   6.0002472  )
        27           O1  tau(  27) = (   0.0002396   2.9813036   7.9858123  )
        28           O1  tau(  28) = (   3.2902150   2.9813002   7.3038282  )
        29           O1  tau(  29) = (   4.5938453   4.4726049   9.2879030  )
        30           O1  tau(  30) = (   1.9864658   4.4711199   9.2879459  )
        31           Ti1 tau(  31) = (   3.2891106   5.8743827   9.1763621  )
        32           Ti1 tau(  32) = (   0.0006254   4.4649316   9.2693709  )
        33           O1  tau(  33) = (   3.2889932   2.9698301  11.3211337  )
        34           O1  tau(  34) = (   0.0092240   2.9805883  10.6323155  )
        35           O1  tau(  35) = (   1.3069247   4.4567274  12.6410950  )
        36           O1  tau(  36) = (   5.3013738   4.4587240  12.6283471  )
        37           Ti1 tau(  37) = (   6.5339814   0.0202798  12.5235249  )
        38           Ti1 tau(  38) = (   3.2191325   4.4512509  12.4750946  )
        39           O1  tau(  39) = (   6.5688456   2.9522374  14.7547250  )
        40           O1  tau(  40) = (   3.3031296   2.9710333  13.8824388  )
        41           O1  tau(  41) = (   4.5425837   4.4734130  15.9989242  )
        42           O1  tau(  42) = (   2.0771424   4.4889556  16.0364895  )
        43           Ti1 tau(  43) = (   3.3121389   0.0026565  15.6888161  )
        44           Ti1 tau(  44) = (   6.5128106   4.4989306  16.3061806  )
        45           O1  tau(  45) = (   3.2900926   2.9813045   4.7018136  )
        46           O1  tau(  46) = (   1.3039711   4.4726057   6.0039043  )
        47           O1  tau(  47) = (   5.2763189   4.4711207   6.0039473  )
        48           N1  tau(  48) = (   0.4628824   2.9949886  17.7976856  )
        49           C1  tau(  49) = (   1.4182946   2.9518240  18.6700831  )
        50           H1  tau(  50) = (   2.3503500   2.6458988  18.1556329  )
        51           N1  tau(  51) = (   5.7893717   3.5482605  18.2279111  )
        52           H1  tau(  52) = (   5.8942619   4.0012392  19.1365464  )
        53           H1  tau(  53) = (   5.0734348   2.8266848  18.2415795  )

     number of k points=    10  Fermi-Dirac smearing, width (Ry)=  0.0073
                       cart. coord. in units 2pi/alat
        k(    1) = (   0.0000000   0.0000000   0.0000000), wk =   0.1250000
        k(    2) = (   0.0000000   0.0419351   0.0000000), wk =   0.2500000
        k(    3) = (   0.0000000  -0.0838702   0.0000000), wk =   0.1250000
        k(    4) = (   0.0379955   0.0000049   0.0000000), wk =   0.2500000
        k(    5) = (   0.0379955   0.0419400   0.0000000), wk =   0.2500000
        k(    6) = (   0.0379955  -0.0838652   0.0000000), wk =   0.2500000
        k(    7) = (   0.0379955  -0.0419301   0.0000000), wk =   0.2500000
        k(    8) = (  -0.0759910  -0.0000099   0.0000000), wk =   0.1250000
        k(    9) = (  -0.0759910   0.0419252   0.0000000), wk =   0.2500000
        k(   10) = (  -0.0759910  -0.0838800   0.0000000), wk =   0.1250000

     Initial potential from superposition of free atoms

     starting charge  378.99916, renormalised to  395.00000

     negative rho (up, down):  1.775E-02 0.000E+00

     %%%%%%%%%%%%%%%%%%%%%%%%%%%%%%%%%%%%%%%%%%%%%%%%%%%%%%%%%%%%%%%%%%%%%%%%
     %                                                                      %
     % You are using vdW-DF, which was implemented by the Thonhauser group. %
     % Please cite the following two papers that made this development      %
     % possible and the two reviews that describe the various versions:     %
     %                                                                      %
     %   T. Thonhauser et al., PRL 115, 136402 (2015).                      %
     %   T. Thonhauser et al., PRB 76, 125112 (2007).                       %
     %   K. Berland et al., Rep. Prog. Phys. 78, 066501 (2015).             %
     %   D.C. Langreth et al., J. Phys.: Condens. Matter 21, 084203 (2009). %
     %                                                                      %
     %                                                                      %
     % If you are calculating the stress with vdW-DF, please also cite:     %
     %                                                                      %
     %   R. Sabatini et al., J. Phys.: Condens. Matter 24, 424209 (2012).   %
     %                                                                      %
     %%%%%%%%%%%%%%%%%%%%%%%%%%%%%%%%%%%%%%%%%%%%%%%%%%%%%%%%%%%%%%%%%%%%%%%%

     Adding external electric field

     Computed dipole along edir(3) :
        Dipole               -8.0620 Ry au,        -20.4914 Debye
        Dipole field         -0.0152 Ry au,

        Potential amp.        1.4103 Ry
        Total length         46.3494 bohr

     Starting wfcs are  299 atomic wfcs
  @ DRIVER MODE: Message from server: STATUS
  @ DRIVER MODE: Message from server: POSDATA
  @ DRIVER MODE: Reading and sharing cell
  @ DRIVER MODE: Reading and sharing positions
  @ DRIVER MODE: Received positions

     Self-consistent Calculation

     iteration #  1     ecut=    29.40 Ry     beta= 0.05
     Davidson diagonalization with overlap
     c_bands:  1 eigenvalues not converged
     c_bands:  1 eigenvalues not converged
     c_bands:  2 eigenvalues not converged
     c_bands:  3 eigenvalues not converged
     c_bands:  3 eigenvalues not converged
     c_bands:  2 eigenvalues not converged
     c_bands:  1 eigenvalues not converged
     ethr =  1.00E-05,  avg # of iterations = 19.3

[...]

     total energy              =   -2614.85997708 Ry
     estimated scf accuracy    <    3583.90519430 Ry

[...]

     iteration #  3     ecut=    29.40 Ry     beta= 0.05
     Davidson diagonalization with overlap
     ethr =  1.00E-02,  avg # of iterations = 13.9

[...]

     iteration # 46     ecut=    29.40 Ry     beta= 0.05
     Davidson diagonalization with overlap
     c_bands:  2 eigenvalues not converged
     ethr =  4.60E-08,  avg # of iterations = 11.2

[...]

     total energy              =   -2939.00605278 Ry
     estimated scf accuracy    <       0.00000013 Ry

     iteration # 68     ecut=    29.40 Ry     beta= 0.05
     Davidson diagonalization with overlap
     ethr =  2.29E-11,  avg # of iterations =  7.0

     negative rho (up, down):  1.647E-02 0.000E+00

     Adding external electric field

     Computed dipole along edir(3) :
        Dipole                0.3065 Ry au,          0.7791 Debye
        Dipole field          0.0006 Ry au,

        Potential amp.       -0.0536 Ry
        Total length         46.3494 bohr

     End of self-consistent calculation

          k = 0.0000 0.0000 0.0000 ( 18029 PWs)   bands (ev):

   -56.1052 -56.1029 -56.0711 -56.0666 -55.9933 -55.9591 -55.9530 -55.9182
   -55.9024 -55.8682 -55.8668 -55.8326 -55.6398 -55.5851 -55.0748 -55.0408
   -32.6620 -32.5862 -32.4850 -32.4249 -32.4105 -32.4062 -32.3977 -32.3580
   -32.3452 -32.3306 -32.3049 -32.2834 -32.2773 -32.2575 -32.2505 -32.2438
   -32.2082 -32.1952 -32.1925 -32.1880 -32.1837 -32.1625 -32.1551 -32.1404
   -32.1147 -32.1010 -32.1000 -32.0993 -32.0939 -32.0904 -32.0690 -32.0423
   -32.0418 -32.0276 -32.0200 -32.0004 -31.9788 -31.9502 -31.8698 -31.8395
   -31.8012 -31.7338 -31.4815 -31.3942 -31.3717 -31.2985 -31.2120 -31.1007
   -18.0128 -16.8713 -16.5814 -16.3665 -16.2605 -16.2452 -16.1388 -15.9534
   -15.8201 -15.7919 -15.6853 -15.6787 -15.6374 -15.6254 -15.5961 -15.5727
   -15.5643 -15.5378 -15.5352 -15.5188 -15.4744 -15.4512 -15.4320 -15.3358
   -15.2962 -15.2354 -15.2137 -15.1522 -15.0300 -14.7948 -13.5770 -13.4607
   -13.3119  -8.0768  -6.3800  -4.3756  -4.2454  -4.0688  -4.0078  -3.9684
    -3.9608  -3.7177  -3.6850  -3.3260  -3.2936  -3.2747  -3.2635  -3.2521
    -3.1451  -3.0171  -2.9615  -2.9194  -2.9092  -2.8986  -2.8914  -2.8786
    -2.8526  -2.8304  -2.7265  -2.6849  -2.6518  -2.5424  -2.5233  -2.4382
    -2.4152  -2.4041  -2.3697  -2.3495  -2.3405  -2.3141  -2.3032  -2.2786
    -2.1910  -2.1426  -2.0276  -1.9596  -1.8839  -1.8487  -1.7016  -1.6582
    -1.5704  -1.5639  -1.5452  -1.5229  -1.4898  -1.4038  -1.3296  -1.2401
    -1.1984  -1.1606  -1.1246  -1.0813  -0.9996  -0.9808  -0.9635  -0.8672
    -0.8632  -0.8539  -0.8113  -0.6096  -0.5848  -0.5508  -0.5381  -0.4614
    -0.4024  -0.3861  -0.3647  -0.3169  -0.2567  -0.1934  -0.1476  -0.1326
    -0.1212  -0.1178  -0.0834  -0.0575   0.0853   0.0961   0.1901   0.2020
     0.2254   0.3526   0.5263   0.5641   0.5858   0.7063   0.8783   0.9475
     1.0492   1.1405   1.5178   1.5631   2.4059   3.0327   3.1190   3.1526
     3.1722   3.2776   3.3108   3.4802   3.4955   3.5305   3.5498

[...]

          k = 0.0380-0.0419 0.0000 ( 17876 PWs)   bands (ev):

[...]

          k =-0.0760-0.0000 0.0000 ( 17886 PWs)   bands (ev):

[...]

          k =-0.0760-0.0839 0.0000 ( 17948 PWs)   bands (ev):

   -56.0892 -56.0869 -56.0867 -56.0826 -55.9842 -55.9622 -55.9495 -55.9276
   -55.8872 -55.8829 -55.8532 -55.8464 -55.6360 -55.5887 -55.0578 -55.0577
   -32.4655 -32.4609 -32.4022 -32.4009 -32.3841 -32.3824 -32.3642 -32.3519
   -32.3329 -32.3135 -32.2902 -32.2738 -32.2477 -32.2380 -32.2374 -32.2189
   -32.2186 -32.2090 -32.2065 -32.2010 -32.1997 -32.1917 -32.1859 -32.1719
   -32.1670 -32.1490 -32.1326 -32.1299 -32.0868 -32.0848 -32.0831 -32.0791
   -32.0693 -32.0680 -32.0638 -32.0628 -32.0584 -31.9686 -31.8807 -31.8329
   -31.8045 -31.7905 -31.3845 -31.3844 -31.2944 -31.2942 -31.2553 -31.2552
   -18.0032 -16.3070 -16.2911 -16.0746 -16.0299 -16.0259 -16.0049 -15.9166
   -15.8265 -15.8071 -15.7931 -15.7753 -15.7609 -15.6804 -15.6549 -15.6325
   -15.6286 -15.6159 -15.5610 -15.5554 -15.5524 -15.5471 -15.5270 -15.4939
   -15.4114 -15.4064 -15.3960 -15.1575 -15.0913 -15.0201 -13.5628 -13.5623
   -13.3249  -8.0340  -6.3198  -4.3935  -3.6001  -3.5812  -3.3565  -3.3165
    -3.2827  -3.2733  -3.1581  -3.0559  -3.0254  -3.0129  -2.9746  -2.9562
    -2.9438  -2.9313  -2.9184  -2.8989  -2.8735  -2.8398  -2.8349  -2.7892
    -2.7717  -2.7507  -2.7333  -2.7118  -2.7105  -2.6703  -2.6650  -2.6255
    -2.5873  -2.5429  -2.4354  -2.3785  -2.3402  -2.2913  -2.2340  -2.2232
    -2.2137  -2.1601  -2.1549  -2.1204  -2.0364  -1.9606  -1.8247  -1.8033
    -1.7702  -1.7302  -1.6965  -1.5995  -1.5553  -1.5053  -1.4539  -1.3975
    -1.3860  -1.3437  -1.3065  -1.2403  -1.2234  -1.1838  -1.1628  -1.1002
    -1.0585  -1.0544  -0.9911  -0.9239  -0.8657  -0.8625  -0.8422  -0.8264
    -0.7694  -0.7216  -0.6548  -0.6058  -0.5640  -0.4664  -0.4100  -0.2936
    -0.1855  -0.0669   0.0046   0.0084   0.0643   0.1410   0.1871   0.2217
     0.2323   0.2506   0.3419   0.4138   0.4329   0.4468   0.5154   0.6994
     1.3123   1.3135   1.3824   1.3832   2.4036   3.3208   3.3588   3.3733
     3.4045   3.5495   3.5523   3.5644   3.5681   3.6864   3.7202

     the Fermi energy is     3.0298 ev

!    total energy              =   -2939.00607051 Ry
     estimated scf accuracy    <       0.00000004 Ry
     smearing contrib. (-TS)   =      -0.02200222 Ry
     internal energy E=F+TS    =   -2938.98406829 Ry

     The total energy is F=E-TS. E is the sum of the following terms:
     one-electron contribution =  -24452.90735430 Ry
     hartree contribution      =   12311.53570427 Ry
     xc contribution           =    -485.13400576 Ry
     ewald contribution        =    9687.52141022 Ry
     electric field correction =       0.00017729 Ry

     convergence has been achieved in  68 iterations

     Forces acting on atoms (cartesian axes, Ry/au):

     atom    1 type  1   force =     0.00018389   -0.00028553    0.09688282
     atom    2 type  1   force =     0.00006462   -0.00078335   -0.17501567
     atom    3 type  2   force =     0.00014628   -0.00008847   -0.02553294
     atom    4 type  2   force =    -0.00003135   -0.00142447    0.05154397
     atom    5 type  2   force =    -0.01206258   -0.00173169    0.00279552
     atom    6 type  2   force =     0.01348276   -0.00134156    0.00223716
     atom    7 type  1   force =     0.00040469    0.00016129   -0.01210029
     atom    8 type  1   force =     0.00018949    0.02418599    0.02897379
     atom    9 type  2   force =    -0.00004271    0.00051677   -0.00004868
     atom   10 type  2   force =    -0.00266371    0.00014549   -0.01162164
     atom   11 type  2   force =    -0.00002089    0.00026888    0.00004282
     atom   12 type  2   force =    -0.00024760   -0.00002017    0.00014320
     atom   13 type  1   force =    -0.00012799    0.00113990   -0.00015137
     atom   14 type  1   force =    -0.00000318    0.00050920    0.00005612
     atom   15 type  2   force =     0.00015736    0.00029245   -0.00006544
     atom   16 type  2   force =    -0.00021335    0.00024489   -0.00030444
     atom   17 type  2   force =     0.00042472    0.00025284   -0.00025427
     atom   18 type  2   force =    -0.00039642    0.00019484    0.00004398
     atom   19 type  1   force =    -0.00020575    0.00005812   -0.00059216
     atom   20 type  1   force =     0.00019624   -0.00066777   -0.00062618
     atom   21 type  2   force =     0.00006661   -0.00007185    0.10297910
     atom   22 type  2   force =     0.00003213    0.00058845   -0.00028862
     atom   23 type  2   force =    -0.07168956   -0.00017209   -0.02791768
     atom   24 type  2   force =     0.07159472    0.00028724   -0.02795377
     atom   25 type  1   force =     0.00003518   -0.00025741    0.09678137
     atom   26 type  1   force =    -0.00000705   -0.00017283   -0.17516322
     atom   27 type  2   force =     0.00015621   -0.00026807   -0.02419595
     atom   28 type  2   force =     0.00001571   -0.00118181    0.05209308
     atom   29 type  2   force =    -0.01221766    0.00078364    0.00247495
     atom   30 type  2   force =     0.01352083    0.00126489    0.00188531
     atom   31 type  1   force =     0.00045953    0.00287130   -0.01396965
     atom   32 type  1   force =     0.00039131   -0.02517117    0.03046817
     atom   33 type  2   force =     0.00004281   -0.00007706   -0.00015458
     atom   34 type  2   force =    -0.00184189   -0.00049882   -0.02070210
     atom   35 type  2   force =    -0.00000664    0.00022118   -0.00004555
     atom   36 type  2   force =     0.00017423    0.00033282    0.00017154
     atom   37 type  1   force =    -0.00021175   -0.00084572   -0.00004715
     atom   38 type  1   force =     0.00009002    0.00012499   -0.00020287
     atom   39 type  2   force =     0.00007032    0.00027871   -0.00019771
     atom   40 type  2   force =    -0.00006616    0.00007465    0.00041931
     atom   41 type  2   force =     0.00024656    0.00001002   -0.00019227
     atom   42 type  2   force =     0.00000104    0.00001178   -0.00040986
     atom   43 type  1   force =    -0.00036418    0.00007938    0.00005314
     atom   44 type  1   force =    -0.00004881    0.00040202   -0.00025002
     atom   45 type  2   force =     0.00005427   -0.00006744    0.10299825
     atom   46 type  2   force =    -0.07171880   -0.00011901   -0.02791615
     atom   47 type  2   force =     0.07160855    0.00025604   -0.02794072
     atom   48 type  3   force =     0.00280507   -0.00366878   -0.00143098
     atom   49 type  4   force =    -0.00107427    0.00000588    0.00053008
     atom   50 type  5   force =     0.00005022    0.00120729   -0.00058543
     atom   51 type  3   force =    -0.00126800    0.00270754    0.00223764
     atom   52 type  5   force =    -0.00074876    0.00006984    0.00000615
     atom   53 type  5   force =     0.00061369   -0.00063327    0.00005989

     Total force =     0.369049     Total SCF correction =     0.000507
  @ DRIVER MODE: Message from server: STATUS
  @ DRIVER MODE: Message from server: GETFORCE
  @ DRIVER MODE: Returning v,forces,stress,ensemble

     Writing output data file ./calc.save/
  @ DRIVER MODE: Message from server: EXIT
  @ DRIVE MODE: Exiting

     General routines

     Parallel routines

   This run was terminated on:  15:19:40  23Aug2021

   JOB DONE.