     Program PWSCF v.6.7GPU starts on 19Oct2021 at  3:19:38

     R & G space division:  proc/nbgrp/npool/nimage =       8
     Reading input from /storage/home/hcoda1/3/ntian30/research/carbon/CxH_vib/Thiel_calc/ads_slab/NH2NH2_perslab/out_0036/pw.inp
Warning: card &CELL ignored
Warning: card   CELL_DYNAMICS='IPI', ignored
Warning: card / ignored

     Current dimensions of program PWSCF are:
     Max number of different atomic species (ntypx) = 10
     Max number of k-points (npk) =  40000
     Max angular momentum in pseudopotentials (lmaxx) =  3
     Presently no symmetry can be used with electric field

     Message from routine cell_base_init:
     DEPRECATED: use true lattice parameter, not A to a.u. conversion factor

     IMPORTANT: XC functional enforced from input :
     Exchange-correlation= BEEF-VDW
                           (   1   4  43  14   2   0   0)
     Any further DFT definition will be discarded
     Please, verify this is what you really want

  @ DRIVER MODE: Connecting to
 qe_1139763_3255136.sched-torque.pace.gatech.eduqfgne53m_scratch
  using UNIX socket
  @ DRIVER MODE: Message from server: STATUS
  @ DRIVER MODE: Message from server: INIT
  @ DRIVER MODE: Receiving replica           0          -1
  @ DRIVER MODE: Receiving encoded integer          25
  @ DRIVER MODE:  SCF:  T  FORCE:  T  STRESS:  F  VC:  F  ENSEMBLE:  F
  @ DRIVER MODE:  SCF:  T  FORCE:  T  STRESS:  F  VC:  F  ENSEMBLE:  F

     Using Slab Decomposition

     bravais-lattice index     =            0
     lattice parameter (alat)  =       1.8897  a.u.
     unit-cell volume          =    9988.4706 (a.u.)^3
     number of atoms/cell      =           59
     number of atomic types    =            4
     number of electrons       =       440.00
     number of Kohn-Sham states=          230
     kinetic-energy cutoff     =      29.3995  Ry
     charge density cutoff     =     293.9946  Ry
     scf convergence threshold =      7.3E-08
     mixing beta               =       0.0500
     number of iterations used =            8  plain     mixing
     Exchange-correlation= BEEF-VDW
                           (   1   4  43  14   2   0   0)

     celldm(1)=   1.889726  celldm(2)=   0.000000  celldm(3)=   0.000000
     celldm(4)=   0.000000  celldm(5)=   0.000000  celldm(6)=   0.000000

     crystal axes: (cart. coord. in units of alat)
               a(1) = (   6.579727   0.000000   0.000000 )
               a(2) = (  -0.001163   8.942395   0.000000 )
               a(3) = (   0.000000   0.000000  25.155947 )

     reciprocal axes: (cart. coord. in units 2 pi/alat)
               b(1) = (  0.151982  0.000020  0.000000 )
               b(2) = (  0.000000  0.111827  0.000000 )
               b(3) = (  0.000000  0.000000  0.039752 )

     PseudoPot. # 1 for O  read from file:
     /storage/coda1/p-amedford6/0/shared/rich_project_chbe-medford/medford-share/data/pseudos_module/espresso/nninc/pbe/van/O.UPF
     MD5 check sum: 78c19812648e8988a0fe644b0f25305e
     Pseudo is Ultrasoft, Zval =  6.0
     Generated by new atomic code, or converted to UPF format
     Using radial grid of  737 points,  4 beta functions with:
                l(1) =   0
                l(2) =   0
                l(3) =   1
                l(4) =   1
     Q(r) pseudized with  8 coefficients,  rinner =    0.800   0.800   0.800

     PseudoPot. # 2 for Ti read from file:
     /storage/coda1/p-amedford6/0/shared/rich_project_chbe-medford/medford-share/data/pseudos_module/espresso/nninc/pbe/van/Ti.UPF
     MD5 check sum: 8e4df49b7f0d34bbd5052bf3f5ea0213
     Pseudo is Ultrasoft, Zval = 12.0
     Generated by new atomic code, or converted to UPF format
     Using radial grid of  851 points,  6 beta functions with:
                l(1) =   0
                l(2) =   0
                l(3) =   1
                l(4) =   1
                l(5) =   2
                l(6) =   2
     Q(r) pseudized with  8 coefficients,  rinner =    1.000   1.000   1.000
                                                       1.000   1.000

     PseudoPot. # 3 for N  read from file:
     /storage/coda1/p-amedford6/0/shared/rich_project_chbe-medford/medford-share/data/pseudos_module/espresso/nninc/pbe/van/N.UPF
     MD5 check sum: 90d10febe142ad51ac9d5be1deb811c4
     Pseudo is Ultrasoft, Zval =  5.0
     Generated by new atomic code, or converted to UPF format
     Using radial grid of  729 points,  4 beta functions with:
                l(1) =   0
                l(2) =   0
                l(3) =   1
                l(4) =   1
     Q(r) pseudized with  8 coefficients,  rinner =    0.800   0.800   0.800

     PseudoPot. # 4 for H  read from file:
     /storage/coda1/p-amedford6/0/shared/rich_project_chbe-medford/medford-share/data/pseudos_module/espresso/nninc/pbe/van/H.UPF
     MD5 check sum: b5ee9d7bfd3a09ee7748110bda690ff7
     Pseudo is Ultrasoft, Zval =  1.0
     Generated by new atomic code, or converted to UPF format
     Using radial grid of  615 points,  1 beta functions with:
                l(1) =   0
     Q(r) pseudized with  8 coefficients,  rinner =    0.800

     atomic species   valence    mass     pseudopotential
        O1             6.00    15.99900     O ( 1.00)
        Ti1           12.00    47.86700     Ti( 1.00)
        N1             5.00    14.00700     N ( 1.00)
        H1             1.00     1.00800     H ( 1.00)

     No symmetry found

   Cartesian axes

     site n.     atom                  positions (alat units)
         1           O1  tau(   1) = (   0.0007354   0.0005023  10.5931620  )
         2           O1  tau(   2) = (   3.2892726   8.9022636  13.7900476  )
         3           O1  tau(   3) = (  -0.0000012   0.0159539  17.0845323  )
         4           O1  tau(   4) = (   0.0006271   0.0005054   7.9858123  )
         5           O1  tau(   5) = (   3.2903981   0.0001071  11.1466942  )
         6           O1  tau(   6) = (   6.5796972   0.0370899  14.4522764  )
         7           O1  tau(   7) = (   1.9868534   1.4903216   9.2879459  )
         8           O1  tau(   8) = (   5.2071659   1.5879261  12.5336177  )
         9           O1  tau(   9) = (   2.0150580   1.5800225  15.9505780  )
        10           Ti1 tau(  10) = (   0.0007404   1.4906270   9.2895810  )
        11           Ti1 tau(  11) = (   3.2907621   1.2831726  12.4565622  )
        12           Ti1 tau(  12) = (   6.5792216   1.1939559  15.8009323  )
        13           O1  tau(  13) = (   4.5942328   1.4918067   9.2879030  )
        14           O1  tau(  14) = (   1.3733293   1.5875306  12.5337771  )
        15           O1  tau(  15) = (   4.5635363   1.5794237  15.9511286  )
        16           Ti1 tau(  16) = (   3.2902859   2.9801868   9.2893338  )
        17           Ti1 tau(  17) = (   0.0006963   2.7899128  12.4910476  )
        18           Ti1 tau(  18) = (   3.2889055   2.8853182  15.6510148  )
        19           O1  tau(  19) = (   0.0003479   2.9813005  10.5931620  )
        20           O1  tau(  20) = (   3.2901137   2.9323735  13.8075185  )
        21           O1  tau(  21) = (   0.0002396   2.9813036   7.9858123  )
        22           O1  tau(  22) = (   3.2901566   2.9796509  11.1657827  )
        23           O1  tau(  23) = (  -0.0001005   3.0518452  14.6148139  )
        24           O1  tau(  24) = (   1.9864658   4.4711199   9.2879459  )
        25           O1  tau(  25) = (   5.2244327   4.5330399  12.5550231  )
        26           O1  tau(  26) = (   2.0317078   4.4891842  16.0144209  )
        27           Ti1 tau(  27) = (   0.0003529   4.4714252   9.2895810  )
        28           Ti1 tau(  28) = (   3.2908221   4.3047718  12.5439168  )
        29           Ti1 tau(  29) = (   0.0007318   4.2809743  15.9563396  )
        30           O1  tau(  30) = (   4.5938453   4.4726049   9.2879030  )
        31           O1  tau(  31) = (   1.3553747   4.5324408  12.5551093  )
        32           O1  tau(  32) = (   4.5484712   4.4888783  16.0159471  )
        33           Ti1 tau(  33) = (   3.2898983   5.9609850   9.2893338  )
        34           Ti1 tau(  34) = (   0.0004637   5.7541984  12.5654138  )
        35           Ti1 tau(  35) = (   3.2913524   5.8154114  16.2798070  )
        36           O1  tau(  36) = (  -0.0000397   5.9620987  10.5931620  )
        37           O1  tau(  37) = (   3.2897947   5.8994426  13.7907643  )
        38           O1  tau(  38) = (   0.0001798   5.9238570  17.1594641  )
        39           O1  tau(  39) = (  -0.0001480   5.9621018   7.9858123  )
        40           O1  tau(  40) = (   3.2896433   5.9245955  11.1661191  )
        41           O1  tau(  41) = (   0.0000838   5.9808129  14.5563373  )
        42           O1  tau(  42) = (   1.9860782   7.4519181   9.2879459  )
        43           O1  tau(  43) = (   5.2244350   7.5051086  12.5363475  )
        44           O1  tau(  44) = (   2.0177701   7.5673364  15.9764862  )
        45           Ti1 tau(  45) = (  -0.0000347   7.4522234   9.2895810  )
        46           Ti1 tau(  46) = (   3.2896674   7.1828241  12.5854878  )
        47           Ti1 tau(  47) = (   0.0003403   7.2137487  16.0183084  )
        48           O1  tau(  48) = (   4.5934577   7.4534031   9.2879030  )
        49           O1  tau(  49) = (   1.3543201   7.5047529  12.5365769  )
        50           O1  tau(  50) = (   4.5609347   7.5656990  15.9757490  )
        51           Ti1 tau(  51) = (   3.2895107   8.9417832   9.2893338  )
        52           Ti1 tau(  52) = (  -0.0005834   8.7067995  12.4790564  )
        53           Ti1 tau(  53) = (   3.2900135   8.8028796  15.6464995  )
        54           N1  tau(  54) = (   3.2900669   5.9334594  18.1702238  )
        55           H1  tau(  55) = (   3.2900466   5.1481598  18.8081281  )
        56           H1  tau(  56) = (   3.2872703   6.8047138  18.6863891  )
        57           N1  tau(  57) = (   0.0002662   3.1405291  17.5522950  )
        58           H1  tau(  58) = (   0.0007553   2.2326612  18.0099153  )
        59           H1  tau(  59) = (   6.5771877   3.8386968  18.3041669  )

     number of k points=    10  Fermi-Dirac smearing, width (Ry)=  0.0073
                       cart. coord. in units 2pi/alat
        k(    1) = (   0.0000000   0.0000000   0.0000000), wk =   0.1250000
        k(    2) = (   0.0000000   0.0279567   0.0000000), wk =   0.2500000
        k(    3) = (   0.0000000  -0.0559134   0.0000000), wk =   0.1250000
        k(    4) = (   0.0379955   0.0000049   0.0000000), wk =   0.2500000
        k(    5) = (   0.0379955   0.0279617   0.0000000), wk =   0.2500000
        k(    6) = (   0.0379955  -0.0559085   0.0000000), wk =   0.2500000
        k(    7) = (   0.0379955  -0.0279518   0.0000000), wk =   0.2500000
        k(    8) = (  -0.0759910  -0.0000099   0.0000000), wk =   0.1250000
        k(    9) = (  -0.0759910   0.0279468   0.0000000), wk =   0.2500000
        k(   10) = (  -0.0759910  -0.0559233   0.0000000), wk =   0.1250000

     Initial potential from superposition of free atoms

     starting charge  421.99910, renormalised to  440.00000

     negative rho (up, down):  3.741E-02 0.000E+00

     %%%%%%%%%%%%%%%%%%%%%%%%%%%%%%%%%%%%%%%%%%%%%%%%%%%%%%%%%%%%%%%%%%%%%%%%
     %                                                                      %
     % You are using vdW-DF, which was implemented by the Thonhauser group. %
     % Please cite the following two papers that made this development      %
     % possible and the two reviews that describe the various versions:     %
     %                                                                      %
     %   T. Thonhauser et al., PRL 115, 136402 (2015).                      %
     %   T. Thonhauser et al., PRB 76, 125112 (2007).                       %
     %   K. Berland et al., Rep. Prog. Phys. 78, 066501 (2015).             %
     %   D.C. Langreth et al., J. Phys.: Condens. Matter 21, 084203 (2009). %
     %                                                                      %
     %                                                                      %
     % If you are calculating the stress with vdW-DF, please also cite:     %
     %                                                                      %
     %   R. Sabatini et al., J. Phys.: Condens. Matter 24, 424209 (2012).   %
     %                                                                      %
     %%%%%%%%%%%%%%%%%%%%%%%%%%%%%%%%%%%%%%%%%%%%%%%%%%%%%%%%%%%%%%%%%%%%%%%%

     Adding external electric field

     Computed dipole along edir(3) :
        Dipole               -3.9775 Ry au,        -10.1099 Debye
        Dipole field         -0.0050 Ry au,

        Potential amp.        0.4639 Ry
        Total length         46.3494 bohr

     Starting wfcs are  332 atomic wfcs
  @ DRIVER MODE: Message from server: STATUS
  @ DRIVER MODE: Message from server: POSDATA
  @ DRIVER MODE: Reading and sharing cell
  @ DRIVER MODE: Reading and sharing positions
  @ DRIVER MODE: Received positions

     Self-consistent Calculation

     iteration #  1     ecut=    29.40 Ry     beta= 0.05
     Davidson diagonalization with overlap
     c_bands:  1 eigenvalues not converged
     c_bands:  2 eigenvalues not converged
     c_bands:  3 eigenvalues not converged
     c_bands:  4 eigenvalues not converged
     c_bands:  1 eigenvalues not converged
     c_bands:  3 eigenvalues not converged
     c_bands:  4 eigenvalues not converged
     c_bands:  3 eigenvalues not converged
     c_bands:  3 eigenvalues not converged
     ethr =  1.00E-05,  avg # of iterations = 19.2

[...]

     total energy              =   -3293.76509327 Ry
     estimated scf accuracy    <      28.50778058 Ry

     iteration #  2     ecut=    29.40 Ry     beta= 0.05
     Davidson diagonalization with overlap
     ethr =  6.48E-03,  avg # of iterations =  1.0

[...]

     iteration # 21     ecut=    29.40 Ry     beta= 0.05
     Davidson diagonalization with overlap
     c_bands:  1 eigenvalues not converged
     ethr =  3.84E-07,  avg # of iterations =  7.4

[...]

     total energy              =   -3293.29555583 Ry
     estimated scf accuracy    <       0.00000033 Ry

     iteration # 61     ecut=    29.40 Ry     beta= 0.05
     Davidson diagonalization with overlap
     ethr =  1.77E-11,  avg # of iterations =  4.9

     negative rho (up, down):  3.609E-02 0.000E+00

     Adding external electric field

     Computed dipole along edir(3) :
        Dipole                0.9512 Ry au,          2.4176 Debye
        Dipole field          0.0012 Ry au,

        Potential amp.       -0.1109 Ry
        Total length         46.3494 bohr

     End of self-consistent calculation

          k = 0.0000 0.0000 0.0000 ( 26871 PWs)   bands (ev):

   -58.4688 -58.4453 -58.4394 -58.4017 -58.3567 -58.0040 -57.9649 -57.9619
   -57.8780 -57.7581 -57.6849 -57.5711 -57.4739 -57.2226 -57.1404 -57.0714
   -57.0313 -57.0184 -34.8695 -34.8340 -34.8068 -34.7904 -34.7870 -34.7806
   -34.7319 -34.6714 -34.6443 -34.5936 -34.5811 -34.5784 -34.5727 -34.5509
   -34.5057 -34.4056 -34.3699 -34.3445 -34.3213 -34.3167 -34.2724 -34.2394
   -34.2272 -34.2230 -34.1882 -34.1854 -34.1528 -34.0557 -34.0443 -33.9857
   -33.9820 -33.9527 -33.8974 -33.8819 -33.8624 -33.8031 -33.7394 -33.7254
   -33.6830 -33.6707 -33.5809 -33.4594 -33.4469 -33.4158 -33.4133 -33.3792
   -33.3734 -33.3689 -33.3532 -33.3437 -33.2754 -33.2108 -33.1897 -33.0698
   -19.0209 -18.5577 -18.4990 -18.3495 -18.3004 -18.2800 -18.2740 -18.1232
   -17.9066 -17.8612 -17.8469 -17.8257 -17.7424 -17.7227 -17.7068 -17.6849
   -17.6698 -17.6490 -17.5602 -17.5546 -17.5338 -17.5090 -17.4894 -17.4347
   -17.3752 -17.3534 -17.2654 -17.1907 -17.1504 -16.9274 -16.6686 -16.5907
   -15.5374 -15.4962 -15.4878 -15.2472 -15.1451  -6.7128  -6.5896  -6.3557
    -6.1615  -5.9493  -5.8129  -5.6955  -5.6422  -5.5610  -5.4951  -5.4574
    -5.4553  -5.3946  -5.3478  -5.2538  -5.2477  -5.1556  -5.1060  -5.0895
    -5.0604  -5.0120  -4.9655  -4.9197  -4.9045  -4.8433  -4.7995  -4.7895
    -4.7400  -4.6780  -4.6744  -4.6542  -4.6519  -4.6177  -4.5852  -4.4626
    -4.4590  -4.4141  -4.3510  -4.2995  -4.2623  -4.2217  -4.1888  -4.1881
    -4.1714  -4.1277  -4.0923  -3.9218  -3.8679  -3.8289  -3.7967  -3.7192
    -3.6509  -3.5937  -3.5580  -3.5161  -3.4270  -3.3580  -3.3503  -3.3417
    -3.2750  -3.2319  -3.1943  -3.1634  -3.1444  -3.0813  -3.0287  -3.0284
    -2.9874  -2.9706  -2.9564  -2.9107  -2.8560  -2.8323  -2.8293  -2.7907
    -2.7840  -2.7418  -2.6440  -2.6149  -2.5544  -2.5160  -2.4614  -2.4135
    -2.4063  -2.3724  -2.3352  -2.2669  -2.1747  -2.1245  -1.9935  -1.9889
    -1.9112  -1.9010  -1.8343  -1.8061  -1.7896  -1.7424  -1.7154  -1.6009
    -1.5251  -1.4067  -1.1931  -0.9892  -0.8418  -0.7641  -0.7495  -0.7056
    -0.5665  -0.5474  -0.4607  -0.4505   0.8072   0.9427   1.1025   1.1204
     1.3203   1.4491   1.4672   1.5097   1.5665   1.6966

[...]

          k = 0.0380-0.0280 0.0000 ( 26873 PWs)   bands (ev):

[...]

          k =-0.0760-0.0000 0.0000 ( 26902 PWs)   bands (ev):

[...]

          k =-0.0760-0.0559 0.0000 ( 26868 PWs)   bands (ev):

   -58.4630 -58.4568 -58.4336 -58.4015 -58.3568 -58.0038 -57.9650 -57.9619
   -57.8779 -57.7584 -57.6848 -57.5710 -57.4739 -57.2227 -57.1403 -57.0702
   -57.0352 -57.0156 -34.8975 -34.8818 -34.8377 -34.8092 -34.7779 -34.6873
   -34.6707 -34.6224 -34.6159 -34.6038 -34.6014 -34.5901 -34.5757 -34.5542
   -34.5528 -34.4338 -34.3778 -34.3580 -34.3433 -34.3230 -34.2549 -34.2214
   -34.2177 -34.1874 -34.1791 -34.1630 -34.1166 -34.0634 -34.0557 -34.0293
   -33.9895 -33.9730 -33.9021 -33.8963 -33.8749 -33.7881 -33.7392 -33.7029
   -33.6815 -33.6568 -33.5688 -33.4793 -33.4507 -33.4496 -33.4174 -33.4143
   -33.3844 -33.3657 -33.3636 -33.2672 -33.2324 -33.1815 -33.1796 -33.1507
   -18.8077 -18.6592 -18.4137 -18.3151 -18.1519 -18.1046 -18.0516 -18.0413
   -18.0354 -17.9397 -17.9224 -17.8777 -17.8713 -17.8215 -17.7967 -17.7850
   -17.7782 -17.7464 -17.6791 -17.6228 -17.5376 -17.4454 -17.4330 -17.4171
   -17.4105 -17.3311 -17.2329 -17.1876 -17.1501 -16.9502 -16.6786 -16.5523
   -15.5492 -15.5360 -15.4265 -15.2423 -15.1460  -6.7052  -6.6041  -6.1197
    -5.9246  -5.8929  -5.8519  -5.5344  -5.4915  -5.3870  -5.3579  -5.3542
    -5.3271  -5.2829  -5.2445  -5.1893  -5.1541  -5.1363  -5.1277  -5.1100
    -5.0832  -5.0352  -5.0099  -4.9678  -4.9625  -4.9475  -4.9175  -4.8943
    -4.8453  -4.8361  -4.7647  -4.7551  -4.7211  -4.5274  -4.4723  -4.4105
    -4.3613  -4.2949  -4.2502  -4.1883  -4.1877  -4.1063  -4.1010  -4.0370
    -3.9768  -3.8902  -3.8099  -3.8021  -3.7793  -3.7514  -3.7185  -3.6859
    -3.6624  -3.6423  -3.6028  -3.5549  -3.5171  -3.4437  -3.4110  -3.4049
    -3.3637  -3.3448  -3.3336  -3.3294  -3.3129  -3.2096  -3.2020  -3.1419
    -3.1081  -3.1019  -3.0317  -3.0263  -2.9753  -2.9492  -2.8800  -2.8438
    -2.8330  -2.7443  -2.7372  -2.7335  -2.6513  -2.6422  -2.5420  -2.5086
    -2.4237  -2.2991  -2.1791  -2.1774  -2.1679  -2.0464  -2.0446  -2.0322
    -1.9887  -1.9259  -1.9011  -1.7184  -1.7155  -1.6697  -1.5994  -1.5782
    -1.5541  -1.5393  -1.4230  -1.4014  -0.9967  -0.7128  -0.6814  -0.6765
    -0.6428  -0.6139  -0.5808  -0.5719   0.8588   1.0194   1.0972   1.1627
     1.1884   1.2322   1.2640   1.4384   1.5008   1.6056

     the Fermi energy is     0.2198 ev

!    total energy              =   -3293.29559021 Ry
     estimated scf accuracy    <       0.00000005 Ry
     smearing contrib. (-TS)   =      -0.00052683 Ry
     internal energy E=F+TS    =   -3293.29506339 Ry

     The total energy is F=E-TS. E is the sum of the following terms:
     one-electron contribution =  -34585.69937308 Ry
     hartree contribution      =   17354.69372633 Ry
     xc contribution           =    -542.07028828 Ry
     ewald contribution        =   14479.77973345 Ry
     electric field correction =       0.00113819 Ry

     convergence has been achieved in  61 iterations

     Forces acting on atoms (cartesian axes, Ry/au):

     atom    1 type  1   force =    -0.00000733    0.00891412    0.04220226
     atom    2 type  1   force =     0.00002265   -0.00248715   -0.00299033
     atom    3 type  1   force =    -0.00003349   -0.00630256   -0.00117626
     atom    4 type  1   force =     0.00004789    0.00395074    0.10168852
     atom    5 type  1   force =     0.00002021   -0.00059648    0.00718149
     atom    6 type  1   force =    -0.00002494    0.00087734    0.00284284
     atom    7 type  1   force =     0.07634701    0.00119790   -0.03508846
     atom    8 type  1   force =     0.00754051   -0.02413194    0.00123508
     atom    9 type  1   force =     0.00786389   -0.02072158    0.00176231
     atom   10 type  2   force =    -0.00003620   -0.00384405   -0.16974128
     atom   11 type  2   force =    -0.00011418    0.02225088   -0.00323081
     atom   12 type  2   force =     0.00000062    0.02003563   -0.00571515
     atom   13 type  1   force =    -0.07644119    0.00074497   -0.03504031
     atom   14 type  1   force =    -0.00762004   -0.02400774    0.00122936
     atom   15 type  1   force =    -0.00781136   -0.02080407    0.00176850
     atom   16 type  2   force =     0.00010287    0.00207603    0.07521847
     atom   17 type  2   force =     0.00020758    0.02911794    0.00184962
     atom   18 type  2   force =    -0.00009845    0.02420190    0.00016292
     atom   19 type  1   force =     0.00000428    0.00222640    0.05609654
     atom   20 type  1   force =     0.00000330   -0.00075246   -0.00270934
     atom   21 type  1   force =     0.00004800   -0.00273849    0.10232912
     atom   22 type  1   force =     0.00000956   -0.00165839    0.00633696
     atom   23 type  1   force =    -0.00001806   -0.00394856    0.00182383
     atom   24 type  1   force =     0.07834460   -0.00055717   -0.03676649
     atom   25 type  1   force =     0.00978368   -0.02949715   -0.00097031
     atom   26 type  1   force =     0.01106296   -0.02684511   -0.00660855
     atom   27 type  2   force =    -0.00005712    0.01458648   -0.15612615
     atom   28 type  2   force =    -0.00013269    0.02624254   -0.00047662
     atom   29 type  2   force =     0.00004060    0.02351026    0.00359031
     atom   30 type  1   force =    -0.07844057   -0.00098658   -0.03671568
     atom   31 type  1   force =    -0.00984487   -0.02935263   -0.00097194
     atom   32 type  1   force =    -0.01093652   -0.02690727   -0.00666274
     atom   33 type  2   force =     0.00010201   -0.00383146    0.07801957
     atom   34 type  2   force =     0.00019496    0.03435140    0.00329273
     atom   35 type  2   force =    -0.00012253    0.03152763    0.00673459
     atom   36 type  1   force =     0.00001853    0.00148698    0.05145749
     atom   37 type  1   force =     0.00002342   -0.00165725   -0.00238948
     atom   38 type  1   force =    -0.00002047   -0.00329875   -0.00006820
     atom   39 type  1   force =     0.00004897    0.00037385    0.09993982
     atom   40 type  1   force =     0.00001765   -0.00069360    0.00653400
     atom   41 type  1   force =    -0.00002537   -0.00096489    0.00423479
     atom   42 type  1   force =     0.07942348    0.00172160   -0.03465560
     atom   43 type  1   force =     0.00606972   -0.02326193    0.00044457
     atom   44 type  1   force =     0.00714154   -0.02148938    0.00386823
     atom   45 type  2   force =    -0.00005606   -0.01583266   -0.15540627
     atom   46 type  2   force =    -0.00010706    0.01694469    0.00086670
     atom   47 type  2   force =     0.00002005    0.02042657   -0.00082796
     atom   48 type  1   force =    -0.07951484    0.00128298   -0.03460320
     atom   49 type  1   force =    -0.00618370   -0.02314783    0.00043630
     atom   50 type  1   force =    -0.00700317   -0.02151624    0.00386512
     atom   51 type  2   force =     0.00008385   -0.00447098    0.06173767
     atom   52 type  2   force =     0.00020121    0.02907694    0.00061893
     atom   53 type  2   force =    -0.00014312    0.02934524    0.00015210
     atom   54 type  3   force =     0.00001273    0.00162833   -0.00119457
     atom   55 type  4   force =     0.00002848   -0.00046098    0.00024949
     atom   56 type  4   force =    -0.00005372   -0.00007192   -0.00007883
     atom   57 type  3   force =    -0.00003492    0.00621767    0.01019300
     atom   58 type  4   force =     0.00006085    0.00123610   -0.00097504
     atom   59 type  4   force =    -0.00001570   -0.00871586   -0.00877366

     Total force =     0.439406     Total SCF correction =     0.000517
  @ DRIVER MODE: Message from server: STATUS
  @ DRIVER MODE: Message from server: GETFORCE
  @ DRIVER MODE: Returning v,forces,stress,ensemble

     Writing output data file ./calc.save/
  @ DRIVER MODE: Message from server: EXIT
  @ DRIVE MODE: Exiting

     General routines

     Parallel routines

   This run was terminated on:   3:48:42  19Oct2021

   JOB DONE.