     Program PWSCF v.6.7GPU starts on 23Sep2021 at  7:45:54

     R & G space division:  proc/nbgrp/npool/nimage =       8
     Reading input from /storage/home/hcoda1/3/ntian30/research/carbon/CxH_vib/H2O_calc/ads_slab/CH3NHNHHO_a/out_0024/pw.inp
Warning: card &CELL ignored
Warning: card   CELL_DYNAMICS='IPI', ignored
Warning: card / ignored

     Current dimensions of program PWSCF are:
     Max number of different atomic species (ntypx) = 10
     Max number of k-points (npk) =  40000
     Max angular momentum in pseudopotentials (lmaxx) =  3
     Presently no symmetry can be used with electric field

     Message from routine cell_base_init:
     DEPRECATED: use true lattice parameter, not A to a.u. conversion factor

     IMPORTANT: XC functional enforced from input :
     Exchange-correlation= BEEF-VDW
                           (   1   4  43  14   2   0   0)
     Any further DFT definition will be discarded
     Please, verify this is what you really want

  @ DRIVER MODE: Connecting to
 qe_1139763_2941006.sched-torque.pace.gatech.eduad1vrzwr_scratch
  using UNIX socket
  @ DRIVER MODE: Message from server: STATUS
  @ DRIVER MODE: Message from server: INIT
  @ DRIVER MODE: Receiving replica           0          -1
  @ DRIVER MODE: Receiving encoded integer          25
  @ DRIVER MODE:  SCF:  T  FORCE:  T  STRESS:  F  VC:  F  ENSEMBLE:  F
  @ DRIVER MODE:  SCF:  T  FORCE:  T  STRESS:  F  VC:  F  ENSEMBLE:  F

     Using Slab Decomposition

     bravais-lattice index     =            0
     lattice parameter (alat)  =       1.8897  a.u.
     unit-cell volume          =    6658.9804 (a.u.)^3
     number of atoms/cell      =           57
     number of atomic types    =            5
     number of electrons       =       404.00
     number of Kohn-Sham states=          212
     kinetic-energy cutoff     =      29.3995  Ry
     charge density cutoff     =     293.9946  Ry
     scf convergence threshold =      7.3E-08
     mixing beta               =       0.0500
     number of iterations used =            8  plain     mixing
     Exchange-correlation= BEEF-VDW
                           (   1   4  43  14   2   0   0)

     celldm(1)=   1.889726  celldm(2)=   0.000000  celldm(3)=   0.000000
     celldm(4)=   0.000000  celldm(5)=   0.000000  celldm(6)=   0.000000

     crystal axes: (cart. coord. in units of alat)
               a(1) = (   6.579727   0.000000   0.000000 )
               a(2) = (  -0.000775   5.961596   0.000000 )
               a(3) = (   0.000000   0.000000  25.155947 )

     reciprocal axes: (cart. coord. in units 2 pi/alat)
               b(1) = (  0.151982  0.000020  0.000000 )
               b(2) = (  0.000000  0.167740  0.000000 )
               b(3) = (  0.000000  0.000000  0.039752 )

     PseudoPot. # 1 for Ti read from file:
     /storage/coda1/p-amedford6/0/shared/rich_project_chbe-medford/medford-share/data/pseudos_module/espresso/nninc/pbe/van/Ti.UPF
     MD5 check sum: 8e4df49b7f0d34bbd5052bf3f5ea0213
     Pseudo is Ultrasoft, Zval = 12.0
     Generated by new atomic code, or converted to UPF format
     Using radial grid of  851 points,  6 beta functions with:
                l(1) =   0
                l(2) =   0
                l(3) =   1
                l(4) =   1
                l(5) =   2
                l(6) =   2
     Q(r) pseudized with  8 coefficients,  rinner =    1.000   1.000   1.000
                                                       1.000   1.000

     PseudoPot. # 2 for O  read from file:
     /storage/coda1/p-amedford6/0/shared/rich_project_chbe-medford/medford-share/data/pseudos_module/espresso/nninc/pbe/van/O.UPF
     MD5 check sum: 78c19812648e8988a0fe644b0f25305e
     Pseudo is Ultrasoft, Zval =  6.0
     Generated by new atomic code, or converted to UPF format
     Using radial grid of  737 points,  4 beta functions with:
                l(1) =   0
                l(2) =   0
                l(3) =   1
                l(4) =   1
     Q(r) pseudized with  8 coefficients,  rinner =    0.800   0.800   0.800

     PseudoPot. # 3 for N  read from file:
     /storage/coda1/p-amedford6/0/shared/rich_project_chbe-medford/medford-share/data/pseudos_module/espresso/nninc/pbe/van/N.UPF
     MD5 check sum: 90d10febe142ad51ac9d5be1deb811c4
     Pseudo is Ultrasoft, Zval =  5.0
     Generated by new atomic code, or converted to UPF format
     Using radial grid of  729 points,  4 beta functions with:
                l(1) =   0
                l(2) =   0
                l(3) =   1
                l(4) =   1
     Q(r) pseudized with  8 coefficients,  rinner =    0.800   0.800   0.800

     PseudoPot. # 4 for C  read from file:
     /storage/coda1/p-amedford6/0/shared/rich_project_chbe-medford/medford-share/data/pseudos_module/espresso/nninc/pbe/van/C.UPF
     MD5 check sum: 1a69bf6b8db32088f5b2163dbdb77a27
     Pseudo is Ultrasoft, Zval =  4.0
     Generated by new atomic code, or converted to UPF format
     Using radial grid of  721 points,  4 beta functions with:
                l(1) =   0
                l(2) =   0
                l(3) =   1
                l(4) =   1
     Q(r) pseudized with  8 coefficients,  rinner =    0.800   0.800   0.800

     PseudoPot. # 5 for H  read from file:
     /storage/coda1/p-amedford6/0/shared/rich_project_chbe-medford/medford-share/data/pseudos_module/espresso/nninc/pbe/van/H.UPF
     MD5 check sum: b5ee9d7bfd3a09ee7748110bda690ff7
     Pseudo is Ultrasoft, Zval =  1.0
     Generated by new atomic code, or converted to UPF format
     Using radial grid of  615 points,  1 beta functions with:
                l(1) =   0
     Q(r) pseudized with  8 coefficients,  rinner =    0.800

     atomic species   valence    mass     pseudopotential
        Ti1           12.00    47.86700     Ti( 1.00)
        O1             6.00    15.99900     O ( 1.00)
        N1             5.00    14.00700     N ( 1.00)
        C1             4.00    12.01100     C ( 1.00)
        H1             1.00     1.00800     H ( 1.00)

     No symmetry found

   Cartesian axes

     site n.     atom                  positions (alat units)
         1           Ti1 tau(   1) = (   0.0004258   2.9801865   6.0000000  )
         2           Ti1 tau(   2) = (   3.2906075   1.4906267   6.0002472  )
         3           O1  tau(   3) = (   0.0006271   0.0005054   7.9858123  )
         4           O1  tau(   4) = (   3.2906025   0.0005020   7.3038282  )
         5           O1  tau(   5) = (   4.5942328   1.4918067   9.2879030  )
         6           O1  tau(   6) = (   1.9868534   1.4903216   9.2879459  )
         7           Ti1 tau(   7) = (   3.2907910   2.8959150   9.1758416  )
         8           Ti1 tau(   8) = (   0.0015273   1.4827037   9.2680791  )
         9           O1  tau(   9) = (   3.2953096   5.9421394  11.2884464  )
        10           O1  tau(  10) = (   0.0116148   5.9584955  10.6183126  )
        11           O1  tau(  11) = (   1.3041449   1.4755329  12.6321863  )
        12           O1  tau(  12) = (   5.3089623   1.4871430  12.6059879  )
        13           Ti1 tau(  13) = (   6.5683417   3.1096339  12.6902584  )
        14           Ti1 tau(  14) = (   3.3171551   1.3050273  12.6602886  )
        15           O1  tau(  15) = (   6.5441980   0.0188234  14.6400653  )
        16           O1  tau(  16) = (   3.3305379   0.0354930  13.9003223  )
        17           O1  tau(  17) = (   4.5569828   1.5958521  16.0354584  )
        18           O1  tau(  18) = (   2.0254723   1.5302355  15.9749146  )
        19           Ti1 tau(  19) = (   3.2479256   3.0467527  15.6517507  )
        20           Ti1 tau(  20) = (   6.4631478   1.5268535  15.8454044  )
        21           O1  tau(  21) = (   3.2904802   0.0005063   4.7018136  )
        22           O1  tau(  22) = (   6.5640117   0.0389496  17.1838934  )
        23           O1  tau(  23) = (   1.3043587   1.4918075   6.0039043  )
        24           O1  tau(  24) = (   5.2767064   1.4903225   6.0039473  )
        25           Ti1 tau(  25) = (   0.0000382   5.9609847   6.0000000  )
        26           Ti1 tau(  26) = (   3.2902200   4.4714249   6.0002472  )
        27           O1  tau(  27) = (   0.0002396   2.9813036   7.9858123  )
        28           O1  tau(  28) = (   3.2902150   2.9813002   7.3038282  )
        29           O1  tau(  29) = (   4.5938453   4.4726049   9.2879030  )
        30           O1  tau(  30) = (   1.9864658   4.4711199   9.2879459  )
        31           Ti1 tau(  31) = (   3.2891106   5.8743827   9.1763621  )
        32           Ti1 tau(  32) = (   0.0006254   4.4649316   9.2693709  )
        33           O1  tau(  33) = (   3.2909858   3.0116154  11.2527998  )
        34           O1  tau(  34) = (   0.0092240   2.9805883  10.6323155  )
        35           O1  tau(  35) = (   1.2990260   4.4726261  12.6330189  )
        36           O1  tau(  36) = (   5.2946483   4.4606482  12.6134978  )
        37           Ti1 tau(  37) = (   0.0333947   0.1262769  12.6104238  )
        38           Ti1 tau(  38) = (   3.2900473   4.3917186  12.4086616  )
        39           O1  tau(  39) = (   6.5591047   2.9728048  14.6463482  )
        40           O1  tau(  40) = (   3.3071982   2.9909887  13.8663713  )
        41           O1  tau(  41) = (   4.5374868   4.4330245  16.1128471  )
        42           O1  tau(  42) = (   2.0037144   4.4952966  15.9584979  )
        43           Ti1 tau(  43) = (   3.1911318   0.0573200  16.2061952  )
        44           Ti1 tau(  44) = (   6.5299348   4.6473693  16.0672121  )
        45           O1  tau(  45) = (   3.2900926   2.9813045   4.7018136  )
        46           O1  tau(  46) = (   1.3039711   4.4726057   6.0039043  )
        47           O1  tau(  47) = (   5.2763189   4.4711207   6.0039473  )
        48           N1  tau(  48) = (   1.2509970   2.8552009  18.3001485  )
        49           N1  tau(  49) = (   0.1090600   2.9410495  17.4585617  )
        50           C1  tau(  50) = (   1.1117997   3.5424446  19.5707766  )
        51           H1  tau(  51) = (   0.2696121   3.1616043  20.1816506  )
        52           H1  tau(  52) = (   2.0314425   3.4001925  20.1392599  )
        53           H1  tau(  53) = (   0.9679189   4.6079482  19.3970517  )
        54           H1  tau(  54) = (   1.5306055   1.8840965  18.4148701  )
        55           H1  tau(  55) = (   5.8389999   2.9001924  18.0325661  )
        56           O1  tau(  56) = (   3.2424369   0.1001929  18.0579484  )
        57           H1  tau(  57) = (   3.9792659   5.6040190  18.4897823  )

     number of k points=    10  Fermi-Dirac smearing, width (Ry)=  0.0073
                       cart. coord. in units 2pi/alat
        k(    1) = (   0.0000000   0.0000000   0.0000000), wk =   0.1250000
        k(    2) = (   0.0000000   0.0419351   0.0000000), wk =   0.2500000
        k(    3) = (   0.0000000  -0.0838702   0.0000000), wk =   0.1250000
        k(    4) = (   0.0379955   0.0000049   0.0000000), wk =   0.2500000
        k(    5) = (   0.0379955   0.0419400   0.0000000), wk =   0.2500000
        k(    6) = (   0.0379955  -0.0838652   0.0000000), wk =   0.2500000
        k(    7) = (   0.0379955  -0.0419301   0.0000000), wk =   0.2500000
        k(    8) = (  -0.0759910  -0.0000099   0.0000000), wk =   0.1250000
        k(    9) = (  -0.0759910   0.0419252   0.0000000), wk =   0.2500000
        k(   10) = (  -0.0759910  -0.0838800   0.0000000), wk =   0.1250000

     Initial potential from superposition of free atoms

     starting charge  387.99913, renormalised to  404.00000

     negative rho (up, down):  1.466E-02 0.000E+00

     %%%%%%%%%%%%%%%%%%%%%%%%%%%%%%%%%%%%%%%%%%%%%%%%%%%%%%%%%%%%%%%%%%%%%%%%
     %                                                                      %
     % You are using vdW-DF, which was implemented by the Thonhauser group. %
     % Please cite the following two papers that made this development      %
     % possible and the two reviews that describe the various versions:     %
     %                                                                      %
     %   T. Thonhauser et al., PRL 115, 136402 (2015).                      %
     %   T. Thonhauser et al., PRB 76, 125112 (2007).                       %
     %   K. Berland et al., Rep. Prog. Phys. 78, 066501 (2015).             %
     %   D.C. Langreth et al., J. Phys.: Condens. Matter 21, 084203 (2009). %
     %                                                                      %
     %                                                                      %
     % If you are calculating the stress with vdW-DF, please also cite:     %
     %                                                                      %
     %   R. Sabatini et al., J. Phys.: Condens. Matter 24, 424209 (2012).   %
     %                                                                      %
     %%%%%%%%%%%%%%%%%%%%%%%%%%%%%%%%%%%%%%%%%%%%%%%%%%%%%%%%%%%%%%%%%%%%%%%%

     Adding external electric field

     Computed dipole along edir(3) :
        Dipole              -12.7323 Ry au,        -32.3622 Debye
        Dipole field         -0.0240 Ry au,

        Potential amp.        2.2273 Ry
        Total length         46.3494 bohr

     Starting wfcs are  306 atomic wfcs
  @ DRIVER MODE: Message from server: STATUS
  @ DRIVER MODE: Message from server: POSDATA
  @ DRIVER MODE: Reading and sharing cell
  @ DRIVER MODE: Reading and sharing positions
  @ DRIVER MODE: Received positions

     Self-consistent Calculation

     iteration #  1     ecut=    29.40 Ry     beta= 0.05
     Davidson diagonalization with overlap
     c_bands:  4 eigenvalues not converged
     c_bands:  5 eigenvalues not converged
     c_bands:  5 eigenvalues not converged
     c_bands:  5 eigenvalues not converged
     c_bands:  1 eigenvalues not converged
     c_bands:  3 eigenvalues not converged
     c_bands:  4 eigenvalues not converged
     c_bands:  4 eigenvalues not converged
     ethr =  1.00E-05,  avg # of iterations = 24.4

[...]

     total energy              =   -2345.51973684 Ry
     estimated scf accuracy    <    7120.87931296 Ry

     iteration #  2     ecut=    29.40 Ry     beta= 0.05
     Davidson diagonalization with overlap
     ethr =  1.00E-02,  avg # of iterations = 24.7

[...]

     iteration # 43     ecut=    29.40 Ry     beta= 0.05
     Davidson diagonalization with overlap
     c_bands:  1 eigenvalues not converged
     ethr =  4.18E-07,  avg # of iterations =  3.2

[...]

     total energy              =   -2975.25034408 Ry
     estimated scf accuracy    <       0.00000007 Ry

     iteration # 75     ecut=    29.40 Ry     beta= 0.05
     Davidson diagonalization with overlap
     ethr =  1.83E-11,  avg # of iterations =  1.1

     negative rho (up, down):  1.541E-02 0.000E+00

     Adding external electric field

     Computed dipole along edir(3) :
        Dipole                0.5356 Ry au,          1.3614 Debye
        Dipole field          0.0010 Ry au,

        Potential amp.       -0.0937 Ry
        Total length         46.3494 bohr

     End of self-consistent calculation

          k = 0.0000 0.0000 0.0000 ( 18029 PWs)   bands (ev):

   -56.4290 -56.3953 -55.7728 -55.7380 -55.5410 -55.4800 -55.3666 -55.2115
   -55.2082 -55.1399 -55.1048 -55.0919 -55.0579 -55.0504 -54.9857 -54.8653
   -32.8620 -32.7134 -32.6854 -32.5966 -32.5053 -32.4876 -32.2529 -32.0192
   -31.9922 -31.9694 -31.9165 -31.9110 -31.8814 -31.7691 -31.7571 -31.7464
   -31.7060 -31.6969 -31.6822 -31.6419 -31.6346 -31.6252 -31.5757 -31.5553
   -31.5142 -31.4836 -31.4822 -31.4317 -31.4177 -31.4114 -31.4076 -31.3865
   -31.3677 -31.3673 -31.3304 -31.3121 -31.3057 -31.3021 -31.2832 -31.2376
   -31.2355 -31.2192 -31.2060 -31.1855 -31.1136 -31.1093 -31.1075 -31.0585
   -16.6186 -16.5687 -16.1898 -16.1732 -15.8665 -15.8027 -15.7772 -15.7425
   -15.6809 -15.5565 -15.4396 -15.3943 -15.3857 -15.3377 -15.1784 -15.0811
   -14.9853 -14.9136 -14.9063 -14.8594 -14.8513 -14.8211 -14.8103 -14.8027
   -14.7366 -14.7017 -14.5936 -14.5479 -14.4525 -14.2578 -14.1782 -13.5894
   -13.4795 -11.5317  -8.6530  -5.0355  -4.2590  -4.1694  -3.7809  -3.6942
    -3.5186  -3.4371  -3.2937  -3.2636  -3.1710  -3.0741  -3.0129  -2.9556
    -2.9446  -2.8396  -2.6908  -2.6391  -2.6341  -2.6115  -2.6049  -2.5067
    -2.4451  -2.4120  -2.3434  -2.2744  -2.2414  -2.1569  -2.1512  -2.1260
    -2.1050  -2.0757  -2.0270  -1.9787  -1.9558  -1.9356  -1.8241  -1.7819
    -1.7557  -1.7106  -1.6797  -1.6052  -1.5692  -1.5227  -1.4433  -1.3838
    -1.2614  -1.2343  -1.1688  -1.1551  -1.1257  -0.9967  -0.9627  -0.9281
    -0.8670  -0.8331  -0.7683  -0.7452  -0.7125  -0.6742  -0.6655  -0.6257
    -0.5194  -0.4895  -0.3635  -0.3464  -0.2931  -0.2229  -0.2136  -0.1589
    -0.1373  -0.1004  -0.0560  -0.0195   0.0231   0.0924   0.1298   0.2176
     0.2606   0.3240   0.4197   0.4488   0.4702   0.5331   0.5507   0.5842
     0.6297   0.7233   0.7322   0.7933   0.8690   0.9141   0.9312   0.9930
     1.0525   1.0720   1.1700   1.1979   1.2092   1.2644   1.4714   1.5117
     1.6897   2.4453   2.8355   2.9821   3.2680   3.2997   3.5601   3.7947
     3.8247   3.8267   3.9096   4.0129

[...]

          k = 0.0380-0.0419 0.0000 ( 17876 PWs)   bands (ev):

[...]

          k =-0.0760-0.0000 0.0000 ( 17886 PWs)   bands (ev):

[...]

          k =-0.0760-0.0839 0.0000 ( 17948 PWs)   bands (ev):

   -56.4123 -56.4119 -55.7601 -55.7505 -55.5359 -55.4850 -55.3652 -55.2127
   -55.2035 -55.1442 -55.1026 -55.0754 -55.0743 -55.0490 -54.9880 -54.8666
   -32.6992 -32.6988 -32.6790 -32.6783 -32.5495 -32.5493 -32.0780 -32.0696
   -31.9541 -31.9467 -31.9430 -31.9406 -31.8391 -31.8002 -31.7632 -31.7549
   -31.7106 -31.7053 -31.6648 -31.6156 -31.5832 -31.5645 -31.5407 -31.5001
   -31.4883 -31.4855 -31.4348 -31.4327 -31.4210 -31.4202 -31.4171 -31.3968
   -31.3836 -31.3577 -31.3359 -31.3239 -31.3098 -31.2999 -31.2986 -31.2979
   -31.2615 -31.2605 -31.2425 -31.2348 -31.1925 -31.1757 -31.1147 -31.0899
   -16.5437 -16.1753 -15.9993 -15.9954 -15.9159 -15.9133 -15.7051 -15.6995
   -15.5286 -15.4994 -15.4244 -15.3064 -15.2549 -15.1985 -15.1901 -15.1482
   -15.0932 -15.0742 -15.0308 -15.0142 -14.9512 -14.9075 -14.8594 -14.8137
   -14.7944 -14.7556 -14.6348 -14.5861 -14.5788 -14.3922 -14.3590 -13.5835
   -13.5828 -11.5383  -8.6596  -5.0437  -4.2566  -3.7526  -3.3817  -3.1013
    -3.0832  -3.0378  -3.0287  -2.8130  -2.7924  -2.7666  -2.6936  -2.6809
    -2.6306  -2.6236  -2.5316  -2.4909  -2.4489  -2.4344  -2.4196  -2.3647
    -2.3370  -2.2935  -2.2900  -2.2538  -2.2181  -2.1838  -2.1581  -2.1167
    -2.0939  -2.0802  -2.0410  -2.0090  -1.9832  -1.9332  -1.9131  -1.8810
    -1.8718  -1.8495  -1.6915  -1.6380  -1.5828  -1.5385  -1.5085  -1.4431
    -1.4334  -1.3778  -1.3194  -1.2855  -1.2578  -1.2393  -1.1519  -1.1215
    -1.1051  -1.0689  -1.0270  -0.9666  -0.9078  -0.8594  -0.7826  -0.6881
    -0.6598  -0.6422  -0.6151  -0.6075  -0.5662  -0.5142  -0.4258  -0.3737
    -0.3217  -0.3050  -0.2615  -0.2554  -0.2251  -0.1874  -0.1185   0.0038
     0.0694   0.1051   0.1606   0.2169   0.2732   0.3372   0.3803   0.4616
     0.5407   0.5621   0.6484   0.6818   0.8057   0.8481   0.9642   1.0051
     1.0428   1.0870   1.1565   1.2538   1.2788   1.3224   1.3242   1.3410
     1.3556   2.4706   3.4023   3.4052   3.4557   3.4632   3.7377   3.7459
     3.8794   3.8812   4.0059   4.0188

     the Fermi energy is     2.7166 ev

!    total energy              =   -2975.25035701 Ry
     estimated scf accuracy    <       0.00000005 Ry
     smearing contrib. (-TS)   =      -0.00754195 Ry
     internal energy E=F+TS    =   -2975.24281506 Ry

     The total energy is F=E-TS. E is the sum of the following terms:
     one-electron contribution =  -23773.13980541 Ry
     hartree contribution      =   11982.19422914 Ry
     xc contribution           =    -494.80547462 Ry
     ewald contribution        =    9310.50769443 Ry
     electric field correction =       0.00054140 Ry

     convergence has been achieved in  75 iterations

     Forces acting on atoms (cartesian axes, Ry/au):

     atom    1 type  1   force =     0.00002153   -0.00034903    0.11621693
     atom    2 type  1   force =    -0.00014432    0.00031527   -0.16021757
     atom    3 type  2   force =     0.00004554    0.00032597   -0.05319132
     atom    4 type  2   force =     0.00007105   -0.00041579    0.02649855
     atom    5 type  2   force =    -0.00501769   -0.00225987   -0.01002983
     atom    6 type  2   force =     0.00670058   -0.00183298   -0.01076151
     atom    7 type  1   force =    -0.00038701   -0.00640260    0.04570329
     atom    8 type  1   force =     0.00057006    0.01079564    0.08184940
     atom    9 type  2   force =    -0.00001705    0.00036074   -0.00017255
     atom   10 type  2   force =    -0.00140085    0.00154748   -0.05457780
     atom   11 type  2   force =     0.00074138    0.00028493   -0.00024082
     atom   12 type  2   force =    -0.00115979    0.00021055    0.00017734
     atom   13 type  1   force =    -0.00022771   -0.00092239    0.00043718
     atom   14 type  1   force =     0.00046963    0.00124848   -0.00024237
     atom   15 type  2   force =     0.00000674   -0.00052404    0.00038565
     atom   16 type  2   force =    -0.00030338    0.00061275    0.00092574
     atom   17 type  2   force =    -0.00072548   -0.00043895    0.00019683
     atom   18 type  2   force =     0.00073557   -0.00017116    0.00023461
     atom   19 type  1   force =    -0.00057455   -0.00054918   -0.00042894
     atom   20 type  1   force =     0.00038671   -0.00038939   -0.00024329
     atom   21 type  2   force =     0.00007519    0.00015082    0.09915383
     atom   22 type  2   force =     0.00029115   -0.00043430    0.00075314
     atom   23 type  2   force =    -0.07950579   -0.00002328   -0.03163389
     atom   24 type  2   force =     0.07942480    0.00040623   -0.03166790
     atom   25 type  1   force =     0.00017798   -0.00036618    0.11648203
     atom   26 type  1   force =    -0.00009056   -0.00141976   -0.16035529
     atom   27 type  2   force =     0.00013436   -0.00011848   -0.05157507
     atom   28 type  2   force =     0.00003063    0.00129688    0.02169033
     atom   29 type  2   force =    -0.00383346    0.00422798   -0.01242909
     atom   30 type  2   force =     0.00541779    0.00484024   -0.01302185
     atom   31 type  1   force =    -0.00015209    0.00313750    0.03068020
     atom   32 type  1   force =     0.00051519   -0.01302036    0.08271539
     atom   33 type  2   force =     0.00017860   -0.00051657    0.00022133
     atom   34 type  2   force =    -0.00049750    0.00168178   -0.06794072
     atom   35 type  2   force =    -0.00044196   -0.00064439   -0.00010312
     atom   36 type  2   force =     0.00006823   -0.00002892   -0.00002342
     atom   37 type  1   force =    -0.00012584   -0.00121974   -0.00012365
     atom   38 type  1   force =     0.00047767   -0.00033288    0.00016843
     atom   39 type  2   force =     0.00015834    0.00034340   -0.00006047
     atom   40 type  2   force =    -0.00012927   -0.00023505    0.00020268
     atom   41 type  2   force =     0.00112605   -0.00004121    0.00019755
     atom   42 type  2   force =    -0.00103950   -0.00040430    0.00024683
     atom   43 type  1   force =     0.00011883   -0.00079784    0.00013345
     atom   44 type  1   force =     0.00041691    0.00063597   -0.00038945
     atom   45 type  2   force =     0.00007499   -0.00002778    0.09897634
     atom   46 type  2   force =    -0.07951899   -0.00001493   -0.03164790
     atom   47 type  2   force =     0.07945620    0.00043052   -0.03167039
     atom   48 type  3   force =    -0.00161505    0.00037842    0.00057913
     atom   49 type  3   force =    -0.00122686    0.00023341   -0.00026918
     atom   50 type  4   force =    -0.00360321   -0.00089138    0.00370815
     atom   51 type  5   force =     0.00264939    0.00181236   -0.00478166
     atom   52 type  5   force =     0.00041363   -0.00022189   -0.00016322
     atom   53 type  5   force =     0.00031406    0.00008624   -0.00049872
     atom   54 type  5   force =    -0.00008689   -0.00165800    0.00008714
     atom   55 type  5   force =    -0.00041358    0.00010855    0.00032054
     atom   56 type  2   force =     0.00112387   -0.00022421   -0.00005536
     atom   57 type  5   force =    -0.00015430    0.00142470   -0.00042569

     Total force =     0.399164     Total SCF correction =     0.000710
  @ DRIVER MODE: Message from server: STATUS
  @ DRIVER MODE: Message from server: GETFORCE
  @ DRIVER MODE: Returning v,forces,stress,ensemble

     Writing output data file ./calc.save/
  @ DRIVER MODE: Message from server: EXIT
  @ DRIVE MODE: Exiting

     General routines

     Parallel routines

   This run was terminated on:   8:11:17  23Sep2021

   JOB DONE.