     Program PWSCF v.6.7GPU starts on 27Sep2021 at  1:56:54

     R & G space division:  proc/nbgrp/npool/nimage =       8
     Reading input from /storage/home/hcoda1/3/ntian30/research/carbon/CxH_vib/CH_calc/ads_slab/CHONHNH2_b/out_0034/pw.inp
Warning: card &CELL ignored
Warning: card   CELL_DYNAMICS='IPI', ignored
Warning: card / ignored

     Current dimensions of program PWSCF are:
     Max number of different atomic species (ntypx) = 10
     Max number of k-points (npk) =  40000
     Max angular momentum in pseudopotentials (lmaxx) =  3
     Presently no symmetry can be used with electric field

     Message from routine cell_base_init:
     DEPRECATED: use true lattice parameter, not A to a.u. conversion factor

     IMPORTANT: XC functional enforced from input :
     Exchange-correlation= BEEF-VDW
                           (   1   4  43  14   2   0   0)
     Any further DFT definition will be discarded
     Please, verify this is what you really want

  @ DRIVER MODE: Connecting to
 qe_1139763_2982672.sched-torque.pace.gatech.eduzh6kohst_scratch
  using UNIX socket
  @ DRIVER MODE: Message from server: STATUS
  @ DRIVER MODE: Message from server: INIT
  @ DRIVER MODE: Receiving replica           0          -1
  @ DRIVER MODE: Receiving encoded integer          25
  @ DRIVER MODE:  SCF:  T  FORCE:  T  STRESS:  F  VC:  F  ENSEMBLE:  F
  @ DRIVER MODE:  SCF:  T  FORCE:  T  STRESS:  F  VC:  F  ENSEMBLE:  F

     Using Slab Decomposition

     bravais-lattice index     =            0
     lattice parameter (alat)  =       1.8897  a.u.
     unit-cell volume          =    6658.9804 (a.u.)^3
     number of atoms/cell      =           55
     number of atomic types    =            5
     number of electrons       =       402.00
     number of Kohn-Sham states=          211
     kinetic-energy cutoff     =      29.3995  Ry
     charge density cutoff     =     293.9946  Ry
     scf convergence threshold =      7.3E-08
     mixing beta               =       0.0500
     number of iterations used =            8  plain     mixing
     Exchange-correlation= BEEF-VDW
                           (   1   4  43  14   2   0   0)

     celldm(1)=   1.889726  celldm(2)=   0.000000  celldm(3)=   0.000000
     celldm(4)=   0.000000  celldm(5)=   0.000000  celldm(6)=   0.000000

     crystal axes: (cart. coord. in units of alat)
               a(1) = (   6.579727   0.000000   0.000000 )
               a(2) = (  -0.000775   5.961596   0.000000 )
               a(3) = (   0.000000   0.000000  25.155947 )

     reciprocal axes: (cart. coord. in units 2 pi/alat)
               b(1) = (  0.151982  0.000020  0.000000 )
               b(2) = (  0.000000  0.167740  0.000000 )
               b(3) = (  0.000000  0.000000  0.039752 )

     PseudoPot. # 1 for O  read from file:
     /storage/coda1/p-amedford6/0/shared/rich_project_chbe-medford/medford-share/data/pseudos_module/espresso/nninc/pbe/van/O.UPF
     MD5 check sum: 78c19812648e8988a0fe644b0f25305e
     Pseudo is Ultrasoft, Zval =  6.0
     Generated by new atomic code, or converted to UPF format
     Using radial grid of  737 points,  4 beta functions with:
                l(1) =   0
                l(2) =   0
                l(3) =   1
                l(4) =   1
     Q(r) pseudized with  8 coefficients,  rinner =    0.800   0.800   0.800

     PseudoPot. # 2 for Ti read from file:
     /storage/coda1/p-amedford6/0/shared/rich_project_chbe-medford/medford-share/data/pseudos_module/espresso/nninc/pbe/van/Ti.UPF
     MD5 check sum: 8e4df49b7f0d34bbd5052bf3f5ea0213
     Pseudo is Ultrasoft, Zval = 12.0
     Generated by new atomic code, or converted to UPF format
     Using radial grid of  851 points,  6 beta functions with:
                l(1) =   0
                l(2) =   0
                l(3) =   1
                l(4) =   1
                l(5) =   2
                l(6) =   2
     Q(r) pseudized with  8 coefficients,  rinner =    1.000   1.000   1.000
                                                       1.000   1.000

     PseudoPot. # 3 for N  read from file:
     /storage/coda1/p-amedford6/0/shared/rich_project_chbe-medford/medford-share/data/pseudos_module/espresso/nninc/pbe/van/N.UPF
     MD5 check sum: 90d10febe142ad51ac9d5be1deb811c4
     Pseudo is Ultrasoft, Zval =  5.0
     Generated by new atomic code, or converted to UPF format
     Using radial grid of  729 points,  4 beta functions with:
                l(1) =   0
                l(2) =   0
                l(3) =   1
                l(4) =   1
     Q(r) pseudized with  8 coefficients,  rinner =    0.800   0.800   0.800

     PseudoPot. # 4 for H  read from file:
     /storage/coda1/p-amedford6/0/shared/rich_project_chbe-medford/medford-share/data/pseudos_module/espresso/nninc/pbe/van/H.UPF
     MD5 check sum: b5ee9d7bfd3a09ee7748110bda690ff7
     Pseudo is Ultrasoft, Zval =  1.0
     Generated by new atomic code, or converted to UPF format
     Using radial grid of  615 points,  1 beta functions with:
                l(1) =   0
     Q(r) pseudized with  8 coefficients,  rinner =    0.800

     PseudoPot. # 5 for C  read from file:
     /storage/coda1/p-amedford6/0/shared/rich_project_chbe-medford/medford-share/data/pseudos_module/espresso/nninc/pbe/van/C.UPF
     MD5 check sum: 1a69bf6b8db32088f5b2163dbdb77a27
     Pseudo is Ultrasoft, Zval =  4.0
     Generated by new atomic code, or converted to UPF format
     Using radial grid of  721 points,  4 beta functions with:
                l(1) =   0
                l(2) =   0
                l(3) =   1
                l(4) =   1
     Q(r) pseudized with  8 coefficients,  rinner =    0.800   0.800   0.800

     atomic species   valence    mass     pseudopotential
        O1             6.00    15.99900     O ( 1.00)
        Ti1           12.00    47.86700     Ti( 1.00)
        N1             5.00    14.00700     N ( 1.00)
        H1             1.00     1.00800     H ( 1.00)
        C1             4.00    12.01100     C ( 1.00)

     No symmetry found

   Cartesian axes

     site n.     atom                  positions (alat units)
         1           O1  tau(   1) = (   3.2904802   0.0005063   4.7018136  )
         2           O1  tau(   2) = (   3.2900926   2.9813045   4.7018136  )
         3           Ti1 tau(   3) = (   0.0004258   2.9801865   6.0000000  )
         4           Ti1 tau(   4) = (   0.0000382   5.9609847   6.0000000  )
         5           Ti1 tau(   5) = (   3.2906075   1.4906267   6.0002472  )
         6           Ti1 tau(   6) = (   3.2902200   4.4714249   6.0002472  )
         7           O1  tau(   7) = (   1.3043587   1.4918075   6.0039043  )
         8           O1  tau(   8) = (   1.3039711   4.4726057   6.0039043  )
         9           O1  tau(   9) = (   5.2767064   1.4903225   6.0039473  )
        10           O1  tau(  10) = (   5.2763189   4.4711207   6.0039473  )
        11           O1  tau(  11) = (   3.2906025   0.0005020   7.3038282  )
        12           O1  tau(  12) = (   3.2902150   2.9813002   7.3038282  )
        13           O1  tau(  13) = (   0.0006271   0.0005054   7.9858123  )
        14           O1  tau(  14) = (   0.0002396   2.9813036   7.9858123  )
        15           Ti1 tau(  15) = (   3.2907910   2.8959150   9.1758416  )
        16           Ti1 tau(  16) = (   3.2891106   5.8743827   9.1763621  )
        17           Ti1 tau(  17) = (   0.0015273   1.4827037   9.2680791  )
        18           Ti1 tau(  18) = (   0.0006254   4.4649316   9.2693709  )
        19           O1  tau(  19) = (   4.5942328   1.4918067   9.2879030  )
        20           O1  tau(  20) = (   4.5938453   4.4726049   9.2879030  )
        21           O1  tau(  21) = (   1.9868534   1.4903216   9.2879459  )
        22           O1  tau(  22) = (   1.9864658   4.4711199   9.2879459  )
        23           O1  tau(  23) = (   0.0116148   5.9584955  10.6183126  )
        24           O1  tau(  24) = (   0.0092240   2.9805883  10.6323155  )
        25           O1  tau(  25) = (   3.2729272   2.9749101  11.3358637  )
        26           O1  tau(  26) = (   3.2774458   5.9577983  11.3358029  )
        27           Ti1 tau(  27) = (   6.5123228   0.0223980  12.5466522  )
        28           Ti1 tau(  28) = (   6.5139447   2.9993280  12.6164542  )
        29           Ti1 tau(  29) = (   3.1950650   4.4673527  12.4897579  )
        30           Ti1 tau(  30) = (   3.1950454   1.4921031  12.4944583  )
        31           O1  tau(  31) = (   5.2839716   4.4726476  12.6140382  )
        32           O1  tau(  32) = (   1.2968206   4.4781603  12.6268461  )
        33           O1  tau(  33) = (   5.2856119   1.4917077  12.6233973  )
        34           O1  tau(  34) = (   1.2888650   1.4770595  12.6372879  )
        35           O1  tau(  35) = (   3.2788258   2.9629383  13.9230881  )
        36           O1  tau(  36) = (   3.2980453   5.9500611  13.9147740  )
        37           O1  tau(  37) = (   6.5334376   5.9389224  14.6738689  )
        38           O1  tau(  38) = (   6.5776160   3.0156023  14.6540868  )
        39           Ti1 tau(  39) = (   3.2542760   2.9504115  15.7371360  )
        40           Ti1 tau(  40) = (   3.3062714   5.9309079  15.7116640  )
        41           Ti1 tau(  41) = (   6.5650095   1.2976281  16.1142359  )
        42           Ti1 tau(  42) = (   0.0079766   4.4268374  15.8391656  )
        43           O1  tau(  43) = (   2.0280489   1.4492115  16.0660627  )
        44           O1  tau(  44) = (   4.5116609   1.4624326  16.0993158  )
        45           O1  tau(  45) = (   2.0244938   4.4513709  16.0356871  )
        46           O1  tau(  46) = (   4.5113612   4.4342832  16.0730653  )
        47           O1  tau(  47) = (   6.5716746   5.9215154  17.2308814  )
        48           N1  tau(  48) = (   5.9800345   2.9984367  18.5879729  )
        49           H1  tau(  49) = (   4.9797160   2.8240766  18.4383897  )
        50           H1  tau(  50) = (   1.6245422   1.3425840  19.0439533  )
        51           H1  tau(  51) = (   6.0578502   3.9810051  18.8619266  )
        52           N1  tau(  52) = (   2.1403542   1.9713023  19.6616680  )
        53           C1  tau(  53) = (   2.8938676   2.8637551  19.2737185  )
        54           H1  tau(  54) = (   3.3792091   3.5764479  19.9483559  )
        55           O1  tau(  55) = (   6.5521836   2.9666373  17.2729174  )

     number of k points=    10  Fermi-Dirac smearing, width (Ry)=  0.0073
                       cart. coord. in units 2pi/alat
        k(    1) = (   0.0000000   0.0000000   0.0000000), wk =   0.1250000
        k(    2) = (   0.0000000   0.0419351   0.0000000), wk =   0.2500000
        k(    3) = (   0.0000000  -0.0838702   0.0000000), wk =   0.1250000
        k(    4) = (   0.0379955   0.0000049   0.0000000), wk =   0.2500000
        k(    5) = (   0.0379955   0.0419400   0.0000000), wk =   0.2500000
        k(    6) = (   0.0379955  -0.0838652   0.0000000), wk =   0.2500000
        k(    7) = (   0.0379955  -0.0419301   0.0000000), wk =   0.2500000
        k(    8) = (  -0.0759910  -0.0000099   0.0000000), wk =   0.1250000
        k(    9) = (  -0.0759910   0.0419252   0.0000000), wk =   0.2500000
        k(   10) = (  -0.0759910  -0.0838800   0.0000000), wk =   0.1250000

     Initial potential from superposition of free atoms

     starting charge  385.99915, renormalised to  402.00000

     negative rho (up, down):  1.542E-02 0.000E+00

     %%%%%%%%%%%%%%%%%%%%%%%%%%%%%%%%%%%%%%%%%%%%%%%%%%%%%%%%%%%%%%%%%%%%%%%%
     %                                                                      %
     % You are using vdW-DF, which was implemented by the Thonhauser group. %
     % Please cite the following two papers that made this development      %
     % possible and the two reviews that describe the various versions:     %
     %                                                                      %
     %   T. Thonhauser et al., PRL 115, 136402 (2015).                      %
     %   T. Thonhauser et al., PRB 76, 125112 (2007).                       %
     %   K. Berland et al., Rep. Prog. Phys. 78, 066501 (2015).             %
     %   D.C. Langreth et al., J. Phys.: Condens. Matter 21, 084203 (2009). %
     %                                                                      %
     %                                                                      %
     % If you are calculating the stress with vdW-DF, please also cite:     %
     %                                                                      %
     %   R. Sabatini et al., J. Phys.: Condens. Matter 24, 424209 (2012).   %
     %                                                                      %
     %%%%%%%%%%%%%%%%%%%%%%%%%%%%%%%%%%%%%%%%%%%%%%%%%%%%%%%%%%%%%%%%%%%%%%%%

     Adding external electric field

     Computed dipole along edir(3) :
        Dipole              -12.8629 Ry au,        -32.6941 Debye
        Dipole field         -0.0243 Ry au,

        Potential amp.        2.2502 Ry
        Total length         46.3494 bohr

     Starting wfcs are  304 atomic wfcs
  @ DRIVER MODE: Message from server: STATUS
  @ DRIVER MODE: Message from server: POSDATA
  @ DRIVER MODE: Reading and sharing cell
  @ DRIVER MODE: Reading and sharing positions
  @ DRIVER MODE: Received positions

     Self-consistent Calculation

     iteration #  1     ecut=    29.40 Ry     beta= 0.05
     Davidson diagonalization with overlap
     c_bands:  5 eigenvalues not converged
     c_bands:  2 eigenvalues not converged
     c_bands:  2 eigenvalues not converged
     c_bands:  5 eigenvalues not converged
     c_bands:  3 eigenvalues not converged
     c_bands:  3 eigenvalues not converged
     c_bands:  2 eigenvalues not converged
     c_bands:  3 eigenvalues not converged
     c_bands:  1 eigenvalues not converged
     ethr =  1.00E-05,  avg # of iterations = 21.5

[...]

     total energy              =   -2369.78030276 Ry
     estimated scf accuracy    <    6837.07143140 Ry

     iteration #  2     ecut=    29.40 Ry     beta= 0.05
     Davidson diagonalization with overlap
     ethr =  1.00E-02,  avg # of iterations = 23.4

[...]

     iteration # 55     ecut=    29.40 Ry     beta= 0.05
     Davidson diagonalization with overlap
     c_bands:  1 eigenvalues not converged
     ethr =  7.07E-08,  avg # of iterations = 16.3

[...]

     total energy              =   -2972.58407947 Ry
     estimated scf accuracy    <       0.00000016 Ry

     iteration # 73     ecut=    29.40 Ry     beta= 0.05
     Davidson diagonalization with overlap
     ethr =  4.04E-11,  avg # of iterations =  4.0

     negative rho (up, down):  1.521E-02 0.000E+00

     Adding external electric field

     Computed dipole along edir(3) :
        Dipole                0.4710 Ry au,          1.1970 Debye
        Dipole field          0.0009 Ry au,

        Potential amp.       -0.0824 Ry
        Total length         46.3494 bohr

     End of self-consistent calculation

          k = 0.0000 0.0000 0.0000 ( 18029 PWs)   bands (ev):

   -55.8981 -55.8781 -55.8640 -55.8400 -55.7586 -55.7371 -55.7234 -55.7096
   -55.6953 -55.6755 -55.6738 -55.6398 -55.5235 -55.3095 -54.8769 -54.8429
   -32.4232 -32.3808 -32.2569 -32.2085 -32.1967 -32.1908 -32.1741 -32.1640
   -32.1414 -32.1085 -32.0619 -32.0524 -32.0504 -32.0461 -32.0320 -32.0112
   -32.0026 -31.9995 -31.9914 -31.9768 -31.9678 -31.9565 -31.9553 -31.9128
   -31.9057 -31.9004 -31.8988 -31.8886 -31.8766 -31.8740 -31.8697 -31.8498
   -31.8405 -31.8269 -31.8163 -31.8044 -31.7859 -31.7606 -31.7293 -31.5795
   -31.5414 -31.5238 -31.2840 -31.1956 -31.1732 -31.1008 -31.0143 -30.9032
   -18.6558 -16.6184 -16.3682 -16.1239 -16.0443 -16.0099 -15.8578 -15.7950
   -15.7360 -15.6256 -15.5302 -15.4549 -15.4353 -15.4347 -15.3948 -15.3807
   -15.3540 -15.3423 -15.3325 -15.3161 -15.2891 -15.2559 -15.2396 -15.2326
   -15.1412 -15.0653 -15.0323 -14.9822 -14.9779 -14.9552 -14.5628 -13.3791
   -13.2627 -12.2287  -8.1539  -5.3090  -4.9554  -4.5158  -3.9927  -3.8541
    -3.8040  -3.7357  -3.6892  -3.5169  -3.4058  -3.1509  -3.0772  -3.0573
    -3.0344  -2.9871  -2.8804  -2.8057  -2.7091  -2.7029  -2.6990  -2.6673
    -2.6579  -2.6413  -2.5969  -2.5788  -2.5090  -2.4395  -2.3998  -2.2960
    -2.2883  -2.2509  -2.2107  -2.2001  -2.1553  -2.1359  -2.1199  -2.1120
    -2.1005  -2.0624  -1.9963  -1.9162  -1.8843  -1.7974  -1.6899  -1.6121
    -1.5067  -1.4811  -1.3648  -1.3624  -1.3256  -1.2945  -1.2899  -1.2317
    -1.1858  -1.0802  -1.0530  -1.0190  -1.0121  -0.9169  -0.8568  -0.8321
    -0.7683  -0.6952  -0.6688  -0.6570  -0.6463  -0.6117  -0.3954  -0.3539
    -0.3339  -0.3031  -0.2552  -0.2010  -0.1650  -0.1169  -0.0766  -0.0118
    -0.0020   0.0491   0.0727   0.0871   0.1029   0.1137   0.1308   0.2297
     0.3176   0.3563   0.3772   0.4531   0.4586   0.6298   0.6989   0.7582
     0.8716   1.0716   1.1454   1.2307   1.3375   1.7165   1.7620   1.7627
     3.2307   3.2326   3.3238   3.3661   3.3750   3.4754   3.5298   3.6875
     3.7211   3.7540   3.7905

[...]

          k = 0.0380-0.0419 0.0000 ( 17876 PWs)   bands (ev):

[...]

          k =-0.0760-0.0000 0.0000 ( 17886 PWs)   bands (ev):

[...]

          k =-0.0760-0.0839 0.0000 ( 17948 PWs)   bands (ev):

   -55.8815 -55.8804 -55.8655 -55.8525 -55.7448 -55.7372 -55.7280 -55.7043
   -55.6935 -55.6912 -55.6594 -55.6544 -55.5222 -55.3107 -54.8599 -54.8598
   -32.2337 -32.2204 -32.1965 -32.1956 -32.1767 -32.1756 -32.1264 -32.1179
   -32.1010 -32.0918 -32.0524 -32.0435 -32.0247 -32.0169 -32.0131 -32.0105
   -32.0059 -32.0012 -32.0000 -31.9974 -31.9936 -31.9891 -31.9560 -31.9538
   -31.9475 -31.9299 -31.9233 -31.9141 -31.8936 -31.8925 -31.8899 -31.8870
   -31.8840 -31.8738 -31.8704 -31.8685 -31.8625 -31.7582 -31.7324 -31.6503
   -31.5707 -31.5310 -31.1859 -31.1858 -31.0969 -31.0967 -31.0576 -31.0575
   -18.6406 -16.0369 -16.0158 -15.8533 -15.8169 -15.7976 -15.7764 -15.7637
   -15.6881 -15.6080 -15.5879 -15.5832 -15.4990 -15.4807 -15.4678 -15.4345
   -15.4208 -15.4100 -15.4046 -15.3632 -15.3550 -15.3458 -15.3376 -15.3299
   -15.2523 -15.2171 -15.2123 -15.1947 -15.0860 -14.9591 -14.7385 -13.3646
   -13.3644 -12.2413  -8.1542  -5.3034  -4.9616  -4.4415  -3.3235  -3.2909
    -3.1098  -3.0269  -3.0114  -2.9940  -2.8797  -2.8067  -2.8010  -2.7638
    -2.7338  -2.7261  -2.7164  -2.7131  -2.6895  -2.6795  -2.6275  -2.6074
    -2.5930  -2.5693  -2.5558  -2.5535  -2.5234  -2.5099  -2.4715  -2.4509
    -2.4297  -2.4188  -2.3967  -2.3266  -2.2062  -2.1289  -2.0987  -2.0400
    -2.0295  -1.9981  -1.9648  -1.9510  -1.9247  -1.8852  -1.8318  -1.7494
    -1.6424  -1.5879  -1.5863  -1.4991  -1.4630  -1.4044  -1.3813  -1.3256
    -1.2922  -1.2827  -1.2337  -1.1700  -1.1548  -1.0815  -1.0378  -1.0068
    -0.9619  -0.9410  -0.8688  -0.8581  -0.8555  -0.8194  -0.7316  -0.7116
    -0.6597  -0.6529  -0.6262  -0.5702  -0.5512  -0.5200  -0.3966  -0.3736
    -0.2470  -0.1806  -0.0882   0.0588   0.0805   0.1732   0.2140   0.2405
     0.2976   0.3996   0.4164   0.4302   0.4498   0.4808   0.5121   0.6320
     0.6462   0.6812   0.8011   1.5092   1.5096   1.5817   1.5823   1.6084
     3.2166   3.5639   3.5708   3.5910   3.6181   3.7501   3.7521   3.7697
     3.7712   3.9127   3.9285

     the Fermi energy is     3.2344 ev

!    total energy              =   -2972.58409723 Ry
     estimated scf accuracy    <       0.00000005 Ry
     smearing contrib. (-TS)   =      -0.03075322 Ry
     internal energy E=F+TS    =   -2972.55334401 Ry

     The total energy is F=E-TS. E is the sum of the following terms:
     one-electron contribution =  -23744.74116255 Ry
     hartree contribution      =   11963.62680075 Ry
     xc contribution           =    -493.06442689 Ry
     ewald contribution        =    9301.62502612 Ry
     electric field correction =       0.00041856 Ry

     convergence has been achieved in  73 iterations

     Forces acting on atoms (cartesian axes, Ry/au):

     atom    1 type  1   force =     0.00004409   -0.00002785    0.10322496
     atom    2 type  1   force =     0.00004867   -0.00004587    0.10327241
     atom    3 type  2   force =     0.00007928   -0.00022592    0.09623868
     atom    4 type  2   force =    -0.00001774   -0.00030120    0.09603556
     atom    5 type  2   force =     0.00003049   -0.00063583   -0.17555551
     atom    6 type  2   force =    -0.00001477   -0.00024422   -0.17551822
     atom    7 type  1   force =    -0.07153616   -0.00013543   -0.02767887
     atom    8 type  1   force =    -0.07151988   -0.00013300   -0.02765345
     atom    9 type  1   force =     0.07138077    0.00029062   -0.02774943
     atom   10 type  1   force =     0.07136566    0.00030815   -0.02771174
     atom   11 type  1   force =    -0.00005655   -0.00144886    0.05286629
     atom   12 type  1   force =    -0.00002790   -0.00125931    0.05320847
     atom   13 type  1   force =     0.00000569   -0.00000542   -0.02440644
     atom   14 type  1   force =     0.00009804   -0.00022745   -0.02344183
     atom   15 type  2   force =     0.00002723    0.00048001   -0.01061426
     atom   16 type  2   force =     0.00014383    0.00349211   -0.00994964
     atom   17 type  2   force =     0.00069836    0.01061695    0.02596830
     atom   18 type  2   force =     0.00083521   -0.01140734    0.02627765
     atom   19 type  1   force =    -0.01196266   -0.00051863    0.00382954
     atom   20 type  1   force =    -0.01230655   -0.00009059    0.00374235
     atom   21 type  1   force =     0.01292323   -0.00008928    0.00217001
     atom   22 type  1   force =     0.01316856    0.00047872    0.00212492
     atom   23 type  1   force =    -0.00431634    0.00132940   -0.01325551
     atom   24 type  1   force =    -0.00236520    0.00055337   -0.02184743
     atom   25 type  1   force =     0.00024141   -0.00090681    0.00015207
     atom   26 type  1   force =     0.00001683    0.00044079    0.00079379
     atom   27 type  2   force =    -0.00043505    0.00039671    0.00007764
     atom   28 type  2   force =    -0.00069184   -0.00051451    0.00012166
     atom   29 type  2   force =     0.00097530    0.00003663   -0.00012394
     atom   30 type  2   force =     0.00035978   -0.00075046   -0.00011935
     atom   31 type  1   force =     0.00084304    0.00012625    0.00022099
     atom   32 type  1   force =    -0.00042468   -0.00001407    0.00010615
     atom   33 type  1   force =     0.00041274   -0.00037751   -0.00003699
     atom   34 type  1   force =     0.00128840   -0.00022241   -0.00002224
     atom   35 type  1   force =     0.00030835   -0.00029963    0.00003545
     atom   36 type  1   force =     0.00026827    0.00025897   -0.00055309
     atom   37 type  1   force =     0.00018815   -0.00009908   -0.00078286
     atom   38 type  1   force =     0.00019295    0.00012167   -0.00032790
     atom   39 type  2   force =    -0.00088027    0.00027267   -0.00009289
     atom   40 type  2   force =    -0.00075178    0.00002248    0.00075935
     atom   41 type  2   force =     0.00027033   -0.00024580   -0.00011856
     atom   42 type  2   force =     0.00082022   -0.00009401    0.00051242
     atom   43 type  1   force =     0.00041880    0.00027057   -0.00047321
     atom   44 type  1   force =     0.00015941   -0.00000540   -0.00017966
     atom   45 type  1   force =     0.00041223    0.00023269   -0.00013491
     atom   46 type  1   force =     0.00005608    0.00048673    0.00004531
     atom   47 type  1   force =     0.00006301   -0.00002391   -0.00035106
     atom   48 type  3   force =    -0.00075682   -0.00000449   -0.00110571
     atom   49 type  4   force =     0.00082999    0.00049722    0.00020722
     atom   50 type  4   force =     0.00050471    0.00059269   -0.00131756
     atom   51 type  4   force =    -0.00022695    0.00069105   -0.00014393
     atom   52 type  3   force =     0.01203467    0.01402874   -0.00480251
     atom   53 type  5   force =    -0.01500620   -0.01919039    0.00136598
     atom   54 type  4   force =     0.00201102    0.00368819    0.00343461
     atom   55 type  1   force =    -0.00022750   -0.00016870   -0.00072307

     Total force =     0.368635     Total SCF correction =     0.000492
  @ DRIVER MODE: Message from server: STATUS
  @ DRIVER MODE: Message from server: GETFORCE
  @ DRIVER MODE: Returning v,forces,stress,ensemble

     Writing output data file ./calc.save/
  @ DRIVER MODE: Message from server: EXIT
  @ DRIVE MODE: Exiting

     General routines

     Parallel routines

   This run was terminated on:   2:20:54  27Sep2021

   JOB DONE.