     Program PWSCF v.6.7GPU starts on 15Jul2021 at 16:27:55

     R & G space division:  proc/nbgrp/npool/nimage =      16
     Reading input from /storage/home/hcoda1/3/ntian30/research/carbon/15Jul_vib/ads_slab/CH3NNHH_a/out_0000/pw.inp
Warning: card &CELL ignored
Warning: card   CELL_DYNAMICS='IPI', ignored
Warning: card / ignored

     Current dimensions of program PWSCF are:
     Max number of different atomic species (ntypx) = 10
     Max number of k-points (npk) =  40000
     Max angular momentum in pseudopotentials (lmaxx) =  3
     Presently no symmetry can be used with electric field

     Message from routine cell_base_init:
     DEPRECATED: use true lattice parameter, not A to a.u. conversion factor

     IMPORTANT: XC functional enforced from input :
     Exchange-correlation= BEEF-VDW
                           (   1   4  43  14   2   0   0)
     Any further DFT definition will be discarded
     Please, verify this is what you really want

  @ DRIVER MODE: Connecting to
 qe_1139763_2351651.sched-torque.pace.gatech.eduz5lcmefh_scratch
  using UNIX socket
  @ DRIVER MODE: Message from server: STATUS
  @ DRIVER MODE: Message from server: INIT
  @ DRIVER MODE: Receiving replica           0          -1
  @ DRIVER MODE: Receiving encoded integer          25
  @ DRIVER MODE:  SCF:  T  FORCE:  T  STRESS:  F  VC:  F  ENSEMBLE:  F
  @ DRIVER MODE:  SCF:  T  FORCE:  T  STRESS:  F  VC:  F  ENSEMBLE:  F

     Using Slab Decomposition

     bravais-lattice index     =            0
     lattice parameter (alat)  =       1.8897  a.u.
     unit-cell volume          =    6658.9804 (a.u.)^3
     number of atoms/cell      =           55
     number of atomic types    =            5
     number of electrons       =       397.00
     number of Kohn-Sham states=          208
     kinetic-energy cutoff     =      29.3995  Ry
     charge density cutoff     =     293.9946  Ry
     scf convergence threshold =      7.3E-08
     mixing beta               =       0.0500
     number of iterations used =            8  plain     mixing
     Exchange-correlation= BEEF-VDW
                           (   1   4  43  14   2   0   0)

     celldm(1)=   1.889726  celldm(2)=   0.000000  celldm(3)=   0.000000
     celldm(4)=   0.000000  celldm(5)=   0.000000  celldm(6)=   0.000000

     crystal axes: (cart. coord. in units of alat)
               a(1) = (   6.579727   0.000000   0.000000 )
               a(2) = (  -0.000775   5.961596   0.000000 )
               a(3) = (   0.000000   0.000000  25.155947 )

     reciprocal axes: (cart. coord. in units 2 pi/alat)
               b(1) = (  0.151982  0.000020  0.000000 )
               b(2) = (  0.000000  0.167740  0.000000 )
               b(3) = (  0.000000  0.000000  0.039752 )

     PseudoPot. # 1 for Ti read from file:
     /storage/coda1/p-amedford6/0/shared/rich_project_chbe-medford/medford-share/data/pseudos_module/espresso/nninc/pbe/van/Ti.UPF
     MD5 check sum: 8e4df49b7f0d34bbd5052bf3f5ea0213
     Pseudo is Ultrasoft, Zval = 12.0
     Generated by new atomic code, or converted to UPF format
     Using radial grid of  851 points,  6 beta functions with:
                l(1) =   0
                l(2) =   0
                l(3) =   1
                l(4) =   1
                l(5) =   2
                l(6) =   2
     Q(r) pseudized with  8 coefficients,  rinner =    1.000   1.000   1.000
                                                       1.000   1.000

     PseudoPot. # 2 for O  read from file:
     /storage/coda1/p-amedford6/0/shared/rich_project_chbe-medford/medford-share/data/pseudos_module/espresso/nninc/pbe/van/O.UPF
     MD5 check sum: 78c19812648e8988a0fe644b0f25305e
     Pseudo is Ultrasoft, Zval =  6.0
     Generated by new atomic code, or converted to UPF format
     Using radial grid of  737 points,  4 beta functions with:
                l(1) =   0
                l(2) =   0
                l(3) =   1
                l(4) =   1
     Q(r) pseudized with  8 coefficients,  rinner =    0.800   0.800   0.800

     PseudoPot. # 3 for N  read from file:
     /storage/coda1/p-amedford6/0/shared/rich_project_chbe-medford/medford-share/data/pseudos_module/espresso/nninc/pbe/van/N.UPF
     MD5 check sum: 90d10febe142ad51ac9d5be1deb811c4
     Pseudo is Ultrasoft, Zval =  5.0
     Generated by new atomic code, or converted to UPF format
     Using radial grid of  729 points,  4 beta functions with:
                l(1) =   0
                l(2) =   0
                l(3) =   1
                l(4) =   1
     Q(r) pseudized with  8 coefficients,  rinner =    0.800   0.800   0.800

     PseudoPot. # 4 for C  read from file:
     /storage/coda1/p-amedford6/0/shared/rich_project_chbe-medford/medford-share/data/pseudos_module/espresso/nninc/pbe/van/C.UPF
     MD5 check sum: 1a69bf6b8db32088f5b2163dbdb77a27
     Pseudo is Ultrasoft, Zval =  4.0
     Generated by new atomic code, or converted to UPF format
     Using radial grid of  721 points,  4 beta functions with:
                l(1) =   0
                l(2) =   0
                l(3) =   1
                l(4) =   1
     Q(r) pseudized with  8 coefficients,  rinner =    0.800   0.800   0.800

     PseudoPot. # 5 for H  read from file:
     /storage/coda1/p-amedford6/0/shared/rich_project_chbe-medford/medford-share/data/pseudos_module/espresso/nninc/pbe/van/H.UPF
     MD5 check sum: b5ee9d7bfd3a09ee7748110bda690ff7
     Pseudo is Ultrasoft, Zval =  1.0
     Generated by new atomic code, or converted to UPF format
     Using radial grid of  615 points,  1 beta functions with:
                l(1) =   0
     Q(r) pseudized with  8 coefficients,  rinner =    0.800

     atomic species   valence    mass     pseudopotential
        Ti1           12.00    47.86700     Ti( 1.00)
        O1             6.00    15.99900     O ( 1.00)
        N1             5.00    14.00700     N ( 1.00)
        C1             4.00    12.01100     C ( 1.00)
        H1             1.00     1.00800     H ( 1.00)

     Starting magnetic structure
     atomic species   magnetization
        Ti1          0.000
        O1           0.000
        N1           0.000
        C1           0.025
        H1           0.000

     No symmetry found

   Cartesian axes

     site n.     atom                  positions (alat units)
         1           Ti1 tau(   1) = (   0.0004258   2.9801865   6.0000000  )
         2           Ti1 tau(   2) = (   3.2906075   1.4906267   6.0002472  )
         3           O1  tau(   3) = (   0.0006271   0.0005054   7.9858123  )
         4           O1  tau(   4) = (   3.2906025   0.0005020   7.3038282  )
         5           O1  tau(   5) = (   4.5942328   1.4918067   9.2879030  )
         6           O1  tau(   6) = (   1.9868534   1.4903216   9.2879459  )
         7           Ti1 tau(   7) = (   3.2907910   2.8959150   9.1758416  )
         8           Ti1 tau(   8) = (   0.0015273   1.4827037   9.2680791  )
         9           O1  tau(   9) = (   3.3020592   5.9599881  11.3075072  )
        10           O1  tau(  10) = (   0.0116148   5.9584955  10.6183126  )
        11           O1  tau(  11) = (   1.3218652   1.4872367  12.6142461  )
        12           O1  tau(  12) = (   5.3149618   1.4866655  12.6283206  )
        13           Ti1 tau(  13) = (   6.5343381   3.0098038  12.6530281  )
        14           Ti1 tau(  14) = (   3.2132235   1.4912063  12.4551521  )
        15           O1  tau(  15) = (   0.0515422   5.9562953  14.6829507  )
        16           O1  tau(  16) = (   3.3088797   0.0214154  13.8770011  )
        17           O1  tau(  17) = (   4.5726725   1.5412406  16.1224456  )
        18           O1  tau(  18) = (   2.0900022   1.5114086  15.9969863  )
        19           Ti1 tau(  19) = (   3.3311046   3.0200058  15.6476981  )
        20           Ti1 tau(  20) = (   0.0790784   1.4105808  15.8036947  )
        21           O1  tau(  21) = (   3.2904802   0.0005063   4.7018136  )
        22           O1  tau(  22) = (   0.0613336   0.0214447  17.2555488  )
        23           O1  tau(  23) = (   1.3043587   1.4918075   6.0039043  )
        24           O1  tau(  24) = (   5.2767064   1.4903225   6.0039473  )
        25           Ti1 tau(  25) = (   0.0000382   5.9609847   6.0000000  )
        26           Ti1 tau(  26) = (   3.2902200   4.4714249   6.0002472  )
        27           O1  tau(  27) = (   0.0002396   2.9813036   7.9858123  )
        28           O1  tau(  28) = (   3.2902150   2.9813002   7.3038282  )
        29           O1  tau(  29) = (   4.5938453   4.4726049   9.2879030  )
        30           O1  tau(  30) = (   1.9864658   4.4711199   9.2879459  )
        31           Ti1 tau(  31) = (   3.2891106   5.8743827   9.1763621  )
        32           Ti1 tau(  32) = (   0.0006254   4.4649316   9.2693709  )
        33           O1  tau(  33) = (   3.3026341   2.9893090  11.3092672  )
        34           O1  tau(  34) = (   0.0092240   2.9805883  10.6323155  )
        35           O1  tau(  35) = (   1.3182942   4.4670451  12.6271195  )
        36           O1  tau(  36) = (   5.3124783   4.4780259  12.6376329  )
        37           Ti1 tau(  37) = (   6.5365500   0.0194685  12.5464133  )
        38           Ti1 tau(  38) = (   3.2155898   4.4753301  12.4613306  )
        39           O1  tau(  39) = (   0.0167368   2.9407051  14.7244952  )
        40           O1  tau(  40) = (   3.3149560   2.9822459  13.8616979  )
        41           O1  tau(  41) = (   4.5706274   4.5128733  15.9228735  )
        42           O1  tau(  42) = (   2.1262058   4.4922812  16.0793225  )
        43           Ti1 tau(  43) = (   3.3222298   0.0210159  15.6751784  )
        44           Ti1 tau(  44) = (   6.5499002   4.5104744  16.2959303  )
        45           O1  tau(  45) = (   3.2900926   2.9813045   4.7018136  )
        46           O1  tau(  46) = (   1.3039711   4.4726057   6.0039043  )
        47           O1  tau(  47) = (   5.2763189   4.4711207   6.0039473  )
        48           N1  tau(  48) = (   0.3735289   2.9861087  17.6038306  )
        49           C1  tau(  49) = (   1.3580301   2.7301661  18.6431808  )
        50           H1  tau(  50) = (   1.5128655   3.6233449  19.2641712  )
        51           H1  tau(  51) = (   1.0354786   1.8978442  19.2795547  )
        52           H1  tau(  52) = (   2.3065860   2.4473273  18.1987077  )
        53           N1  tau(  53) = (   5.7326324   3.4596218  18.1373629  )
        54           H1  tau(  54) = (   5.8436824   4.0267099  18.9748678  )
        55           H1  tau(  55) = (   5.0375616   2.7244768  18.2555579  )

     number of k points=    10  Fermi-Dirac smearing, width (Ry)=  0.0073
                       cart. coord. in units 2pi/alat
        k(    1) = (   0.0000000   0.0000000   0.0000000), wk =   0.0625000
        k(    2) = (   0.0000000   0.0419351   0.0000000), wk =   0.1250000
        k(    3) = (   0.0000000  -0.0838702   0.0000000), wk =   0.0625000
        k(    4) = (   0.0379955   0.0000049   0.0000000), wk =   0.1250000
        k(    5) = (   0.0379955   0.0419400   0.0000000), wk =   0.1250000
        k(    6) = (   0.0379955  -0.0838652   0.0000000), wk =   0.1250000
        k(    7) = (   0.0379955  -0.0419301   0.0000000), wk =   0.1250000
        k(    8) = (  -0.0759910  -0.0000099   0.0000000), wk =   0.0625000
        k(    9) = (  -0.0759910   0.0419252   0.0000000), wk =   0.1250000
        k(   10) = (  -0.0759910  -0.0838800   0.0000000), wk =   0.0625000

     Initial potential from superposition of free atoms

     starting charge  380.99914, renormalised to  397.00000

     negative rho (up, down):  8.319E-03 8.323E-03

     %%%%%%%%%%%%%%%%%%%%%%%%%%%%%%%%%%%%%%%%%%%%%%%%%%%%%%%%%%%%%%%%%%%%%%%%
     %                                                                      %
     % You are using vdW-DF, which was implemented by the Thonhauser group. %
     % Please cite the following two papers that made this development      %
     % possible and the two reviews that describe the various versions:     %
     %                                                                      %
     %   T. Thonhauser et al., PRL 115, 136402 (2015).                      %
     %   T. Thonhauser et al., PRB 76, 125112 (2007).                       %
     %   K. Berland et al., Rep. Prog. Phys. 78, 066501 (2015).             %
     %   D.C. Langreth et al., J. Phys.: Condens. Matter 21, 084203 (2009). %
     %                                                                      %
     %                                                                      %
     % If you are calculating the stress with vdW-DF, please also cite:     %
     %                                                                      %
     %   R. Sabatini et al., J. Phys.: Condens. Matter 24, 424209 (2012).   %
     %                                                                      %
     %%%%%%%%%%%%%%%%%%%%%%%%%%%%%%%%%%%%%%%%%%%%%%%%%%%%%%%%%%%%%%%%%%%%%%%%

     Adding external electric field

     Computed dipole along edir(3) :
        Dipole               -9.2582 Ry au,        -23.5319 Debye
        Dipole field         -0.0175 Ry au,

        Potential amp.        1.6196 Ry
        Total length         46.3494 bohr

[...]

     Starting wfcs are  301 atomic wfcs
  @ DRIVER MODE: Message from server: STATUS
  @ DRIVER MODE: Message from server: POSDATA
  @ DRIVER MODE: Reading and sharing cell
  @ DRIVER MODE: Reading and sharing positions
  @ DRIVER MODE: Received positions

     Self-consistent Calculation

     iteration #  1     ecut=    29.40 Ry     beta= 0.05
     Davidson diagonalization with overlap
     ethr =  1.00E-02,  avg # of iterations =  2.4

[...]

     total energy              =   -2532.37465900 Ry
     estimated scf accuracy    <    4538.16473559 Ry

     total magnetization       =     0.00 Bohr mag/cell
     absolute magnetization    =     0.02 Bohr mag/cell

[...]

     iteration #  4     ecut=    29.40 Ry     beta= 0.05
     Davidson diagonalization with overlap
     c_bands:  4 eigenvalues not converged
     c_bands:  5 eigenvalues not converged
     ethr =  1.00E-02,  avg # of iterations = 15.2

[...]

     iteration #100     ecut=    29.40 Ry     beta= 0.05
     Davidson diagonalization with overlap
     c_bands:  1 eigenvalues not converged
     c_bands:  1 eigenvalues not converged
     ethr =  3.47E-11,  avg # of iterations = 13.2

[...]

     total energy              =   -2941.63810726 Ry
     estimated scf accuracy    <       0.00000008 Ry

[...]

     iteration #101     ecut=    29.40 Ry     beta= 0.05
     Davidson diagonalization with overlap
     ethr =  2.11E-11,  avg # of iterations =  6.8

     negative rho (up, down):  8.393E-03 8.395E-03

[...]

     Adding external electric field

     Computed dipole along edir(3) :
        Dipole                1.1484 Ry au,          2.9189 Debye
        Dipole field          0.0022 Ry au,

        Potential amp.       -0.2009 Ry
        Total length         46.3494 bohr

     Magnetic moment per site  (integrated on atomic sphere of radius R)
     atom   1 (R=0.726)  charge=  7.9409  magn=  0.0152
     atom   2 (R=0.726)  charge=  7.9244  magn=  0.0009
     atom   3 (R=0.726)  charge=  4.9319  magn= -0.0013
     atom   4 (R=0.726)  charge=  4.9681  magn= -0.0002
     atom   5 (R=0.726)  charge=  4.9368  magn= -0.0002
     atom   6 (R=0.726)  charge=  4.9376  magn= -0.0002
     atom   7 (R=0.726)  charge=  7.9229  magn=  0.0006
     atom   8 (R=0.726)  charge=  7.9151  magn=  0.0046
     atom   9 (R=0.726)  charge=  4.9562  magn= -0.0001
     atom  10 (R=0.726)  charge=  4.9310  magn= -0.0004
     atom  11 (R=0.726)  charge=  4.9388  magn= -0.0001
     atom  12 (R=0.726)  charge=  4.9369  magn= -0.0001
     atom  13 (R=0.726)  charge=  7.9088  magn=  0.0010
     atom  14 (R=0.726)  charge=  7.9273  magn=  0.0003
     atom  15 (R=0.726)  charge=  4.9165  magn= -0.0000
     atom  16 (R=0.726)  charge=  4.9542  magn= -0.0000
     atom  17 (R=0.726)  charge=  4.9068  magn= -0.0000
     atom  18 (R=0.726)  charge=  4.9387  magn=  0.0000
     atom  19 (R=0.726)  charge=  7.9527  magn=  0.0000
     atom  20 (R=0.726)  charge=  7.9410  magn=  0.0001
     atom  21 (R=0.726)  charge=  4.8212  magn= -0.0008
     atom  22 (R=0.726)  charge=  4.9007  magn=  0.0000
     atom  23 (R=0.726)  charge=  4.9281  magn= -0.0019
     atom  24 (R=0.726)  charge=  4.9282  magn= -0.0019
     atom  25 (R=0.726)  charge=  7.9408  magn=  0.0152
     atom  26 (R=0.726)  charge=  7.9244  magn=  0.0009
     atom  27 (R=0.726)  charge=  4.9305  magn= -0.0013
     atom  28 (R=0.726)  charge=  4.9683  magn= -0.0002
     atom  29 (R=0.726)  charge=  4.9375  magn= -0.0002
     atom  30 (R=0.726)  charge=  4.9383  magn= -0.0002
     atom  31 (R=0.726)  charge=  7.9236  magn=  0.0006
     atom  32 (R=0.726)  charge=  7.9153  magn=  0.0045
     atom  33 (R=0.726)  charge=  4.9540  magn= -0.0001
     atom  34 (R=0.726)  charge=  4.9049  magn= -0.0004
     atom  35 (R=0.726)  charge=  4.9379  magn= -0.0001
     atom  36 (R=0.726)  charge=  4.9369  magn= -0.0001
     atom  37 (R=0.726)  charge=  7.9159  magn=  0.0011
     atom  38 (R=0.726)  charge=  7.9271  magn=  0.0004
     atom  39 (R=0.726)  charge=  4.9089  magn= -0.0000
     atom  40 (R=0.726)  charge=  4.9620  magn= -0.0000
     atom  41 (R=0.726)  charge=  4.9464  magn=  0.0000
     atom  42 (R=0.726)  charge=  4.9157  magn=  0.0000
     atom  43 (R=0.726)  charge=  7.9490  magn=  0.0000
     atom  44 (R=0.726)  charge=  7.9600  magn= -0.0000
     atom  45 (R=0.726)  charge=  4.8212  magn= -0.0009
     atom  46 (R=0.726)  charge=  4.9281  magn= -0.0019
     atom  47 (R=0.726)  charge=  4.9282  magn= -0.0019
     atom  48 (R=0.420)  charge=  1.3151  magn=  0.0000
     atom  49 (R=0.448)  charge=  0.8406  magn=  0.0000
     atom  50 (R=0.420)  charge=  0.4416  magn= -0.0000
     atom  51 (R=0.420)  charge=  0.4406  magn=  0.0000
     atom  52 (R=0.420)  charge=  0.4486  magn= -0.0000
     atom  53 (R=0.420)  charge=  1.3379  magn=  0.0000
     atom  54 (R=0.420)  charge=  0.4533  magn= -0.0000
     atom  55 (R=0.420)  charge=  0.4498  magn=  0.0000

     End of self-consistent calculation

 ------ SPIN UP ------------

          k = 0.0000 0.0000 0.0000 ( 18029 PWs)   bands (ev):

   -55.5843 -55.5746 -55.5503 -55.5368 -55.4617 -55.4245 -55.4232 -55.3877
   -55.3748 -55.3407 -55.3273 -55.2934 -55.0313 -54.8749 -54.5382 -54.5042
   -32.1365 -32.0572 -31.9590 -31.8918 -31.8881 -31.8810 -31.8781 -31.8227
   -31.8193 -31.8061 -31.7843 -31.7591 -31.7547 -31.7391 -31.7265 -31.7157
   -31.6794 -31.6604 -31.6587 -31.6506 -31.6497 -31.6445 -31.6143 -31.5974
   -31.5708 -31.5695 -31.5674 -31.5614 -31.5577 -31.5310 -31.5085 -31.5080
   -31.4949 -31.4919 -31.4815 -31.4782 -31.4406 -31.3055 -31.2562 -31.1548
   -31.1276 -31.0359 -30.9441 -30.8579 -30.8353 -30.7614 -30.6750 -30.5634
   -17.5822 -16.3615 -16.0478 -15.8343 -15.7251 -15.7221 -15.6381 -15.4161
   -15.2951 -15.2797 -15.1657 -15.1619 -15.0997 -15.0602 -15.0533 -15.0466
   -15.0137 -15.0019 -14.9819 -14.9483 -14.9153 -14.8970 -14.8738 -14.7725
   -14.7054 -14.6976 -14.6818 -14.6165 -14.5688 -14.2094 -13.0381 -12.9218
   -12.5370  -9.2022  -6.3471  -5.0892  -4.1923  -3.7400  -3.5504  -3.4739
    -3.4385  -3.3706  -3.3505  -3.1809  -3.1736  -2.7942  -2.7749  -2.7568
    -2.7355  -2.7322  -2.4631  -2.4102  -2.3952  -2.3921  -2.3743  -2.3574
    -2.3364  -2.3256  -2.2979  -2.2874  -2.1539  -2.1095  -2.0315  -2.0053
    -1.9898  -1.8793  -1.8532  -1.8330  -1.8212  -1.8080  -1.7787  -1.7719
    -1.7501  -1.6422  -1.5327  -1.4532  -1.4131  -1.3603  -1.3399  -1.1630
    -1.1103  -1.0510  -1.0271  -1.0027  -0.9879  -0.9542  -0.8798  -0.8555
    -0.7132  -0.6746  -0.6205  -0.5942  -0.5655  -0.5096  -0.4761  -0.4457
    -0.3506  -0.3373  -0.3251  -0.3136  -0.2582  -0.0651  -0.0179   0.0014
     0.0164   0.1156   0.1547   0.1796   0.2140   0.2707   0.2986   0.3635
     0.3918   0.4140   0.4233   0.4514   0.4679   0.6000   0.6253   0.6559
     0.7177   0.7709   0.8465   0.9592   1.0417   1.0988   1.2003   1.4184
     1.4860   1.5698   1.6796   1.7096   2.0562   2.1006   3.5575   3.6383
     3.6918   3.7042   3.8120   3.8673   4.0072   4.0225   4.0605   4.0946

[...]

          k =-0.0760-0.0000 0.0000 ( 17886 PWs)   bands (ev):

[...]

 ------ SPIN DOWN ----------

[...]

          k = 0.0380-0.0419 0.0000 ( 17876 PWs)   bands (ev):

[...]

          k =-0.0760-0.0839 0.0000 ( 17948 PWs)   bands (ev):

   -55.5603 -55.5495 -55.5390 -55.5380 -55.4486 -55.4337 -55.4090 -55.4016
   -55.3507 -55.3474 -55.3110 -55.3074 -55.0297 -54.8762 -54.5194 -54.5192
   -31.9418 -31.9314 -31.8607 -31.8600 -31.8436 -31.8319 -31.8311 -31.8271
   -31.8019 -31.7879 -31.7678 -31.7483 -31.7224 -31.7118 -31.7069 -31.6811
   -31.6757 -31.6649 -31.6627 -31.6557 -31.6544 -31.6515 -31.6480 -31.6456
   -31.6239 -31.6131 -31.6026 -31.6004 -31.5495 -31.5475 -31.5436 -31.5412
   -31.5305 -31.5278 -31.5254 -31.5238 -31.4111 -31.3166 -31.2578 -31.2161
   -31.1331 -31.0472 -30.8461 -30.8459 -30.7558 -30.7556 -30.7164 -30.7163
   -17.5702 -15.8215 -15.7816 -15.5265 -15.5180 -15.5150 -15.4756 -15.3515
   -15.3027 -15.2769 -15.2661 -15.2476 -15.2388 -15.1375 -15.1237 -15.1072
   -15.0973 -15.0700 -15.0270 -15.0218 -15.0130 -15.0040 -14.9922 -14.9252
   -14.8730 -14.8691 -14.7550 -14.6635 -14.5229 -14.4343 -13.0259 -13.0256
   -12.5562  -9.1632  -6.3059  -5.1186  -4.1253  -3.4206  -3.1220  -3.0745
    -2.7865  -2.7669  -2.7511  -2.6374  -2.5190  -2.5097  -2.4836  -2.4619
    -2.4276  -2.4148  -2.4046  -2.3965  -2.3784  -2.3601  -2.3495  -2.3101
    -2.2412  -2.2332  -2.2247  -2.2166  -2.1998  -2.1761  -2.1654  -2.1383
    -2.1138  -2.0791  -2.0199  -1.9894  -1.8397  -1.7960  -1.7340  -1.6954
    -1.6868  -1.6581  -1.6242  -1.6169  -1.5060  -1.4919  -1.4585  -1.3283
    -1.2676  -1.2595  -1.2270  -1.1395  -1.1009  -0.9717  -0.9585  -0.9214
    -0.8658  -0.8582  -0.8212  -0.7832  -0.7324  -0.6801  -0.6366  -0.6138
    -0.5957  -0.5242  -0.5236  -0.4764  -0.4199  -0.3494  -0.3259  -0.3187
    -0.2870  -0.2433  -0.1958  -0.1327  -0.0572  -0.0383  -0.0230   0.0760
     0.1493   0.3680   0.4151   0.5119   0.5341   0.5616   0.6217   0.6713
     0.7398   0.7545   0.7828   0.8570   0.8792   0.9709   0.9823   0.9994
     1.1769   1.6452   1.8502   1.8511   1.9191   1.9197   3.8585   3.8744
     3.8988   3.9225   4.0924   4.0970   4.1067   4.1094   4.2289   4.2587

     the Fermi energy is     3.5637 ev

!    total energy              =   -2941.63810852 Ry
     estimated scf accuracy    <       0.00000006 Ry
     smearing contrib. (-TS)   =      -0.02169244 Ry
     internal energy E=F+TS    =   -2941.61641608 Ry

     The total energy is F=E-TS. E is the sum of the following terms:
     one-electron contribution =  -24388.09325533 Ry
     hartree contribution      =   12286.00764202 Ry
     xc contribution           =    -486.94138439 Ry
     ewald contribution        =    9647.40809292 Ry
     electric field correction =       0.00248871 Ry

     total magnetization       =     0.06 Bohr mag/cell
     absolute magnetization    =     0.09 Bohr mag/cell

     convergence has been achieved in 101 iterations

     Forces acting on atoms (cartesian axes, Ry/au):

     atom    1 type  1   force =    -0.00000843   -0.00019504    0.09681875
     atom    2 type  1   force =     0.00009060   -0.00069459   -0.17462832
     atom    3 type  2   force =     0.00018265   -0.00005983   -0.02509344
     atom    4 type  2   force =     0.00000882   -0.00125079    0.05118208
     atom    5 type  2   force =    -0.01125540   -0.00080508    0.00227933
     atom    6 type  2   force =     0.01309905   -0.00035449    0.00272478
     atom    7 type  1   force =     0.00100136    0.00021315   -0.01341315
     atom    8 type  1   force =    -0.00010287    0.01532962    0.02824511
     atom    9 type  2   force =    -0.00007189   -0.00001318    0.00008729
     atom   10 type  2   force =    -0.00233927    0.00080892   -0.01057452
     atom   11 type  2   force =     0.00035192    0.00005722   -0.00001012
     atom   12 type  2   force =    -0.00044458   -0.00006485    0.00025973
     atom   13 type  1   force =     0.00015297   -0.00018839   -0.00006424
     atom   14 type  1   force =     0.00010646   -0.00022011    0.00002602
     atom   15 type  2   force =    -0.00004880    0.00019098   -0.00011892
     atom   16 type  2   force =    -0.00019734    0.00004005   -0.00018540
     atom   17 type  2   force =    -0.00010810    0.00007187   -0.00005489
     atom   18 type  2   force =    -0.00017940    0.00002467   -0.00015985
     atom   19 type  1   force =    -0.00031506    0.00021899    0.00008273
     atom   20 type  1   force =     0.00003645   -0.00048965    0.00018006
     atom   21 type  2   force =     0.00003763   -0.00009166    0.10299896
     atom   22 type  2   force =    -0.00006554    0.00038005    0.00050437
     atom   23 type  2   force =    -0.07179091   -0.00021371   -0.02778317
     atom   24 type  2   force =     0.07175044    0.00024129   -0.02784728
     atom   25 type  1   force =     0.00003671   -0.00025772    0.09642396
     atom   26 type  1   force =    -0.00000957   -0.00029782   -0.17488668
     atom   27 type  2   force =     0.00019372   -0.00025519   -0.02395331
     atom   28 type  2   force =     0.00005350   -0.00100356    0.05145428
     atom   29 type  2   force =    -0.01128528    0.00078485    0.00169247
     atom   30 type  2   force =     0.01297792    0.00111301    0.00209343
     atom   31 type  1   force =     0.00103749    0.00256476   -0.01543209
     atom   32 type  1   force =     0.00005625   -0.01663757    0.02912490
     atom   33 type  2   force =     0.00011807    0.00002701   -0.00012552
     atom   34 type  2   force =    -0.00271009    0.00093378   -0.01867538
     atom   35 type  2   force =     0.00017522   -0.00007144   -0.00008979
     atom   36 type  2   force =    -0.00039463   -0.00007041    0.00013187
     atom   37 type  1   force =    -0.00011646   -0.00019086    0.00013837
     atom   38 type  1   force =     0.00008045    0.00008591   -0.00006606
     atom   39 type  2   force =    -0.00003084    0.00044689   -0.00000818
     atom   40 type  2   force =    -0.00037841    0.00014504   -0.00013389
     atom   41 type  2   force =     0.00012611   -0.00001363   -0.00011865
     atom   42 type  2   force =    -0.00000997    0.00020892    0.00001497
     atom   43 type  1   force =     0.00016845    0.00000586   -0.00012937
     atom   44 type  1   force =    -0.00027484   -0.00046280   -0.00034094
     atom   45 type  2   force =     0.00005354   -0.00010946    0.10300689
     atom   46 type  2   force =    -0.07181472   -0.00015722   -0.02780440
     atom   47 type  2   force =     0.07175641    0.00022788   -0.02784747
     atom   48 type  3   force =    -0.00089049   -0.00014734    0.00054946
     atom   49 type  4   force =     0.00019881   -0.00024198    0.00004472
     atom   50 type  5   force =    -0.00032403    0.00011145    0.00012684
     atom   51 type  5   force =    -0.00045196   -0.00006422   -0.00024388
     atom   52 type  5   force =     0.00077209   -0.00023828    0.00014161
     atom   53 type  3   force =     0.00085829    0.00044628   -0.00009622
     atom   54 type  5   force =     0.00035602   -0.00012062    0.00109412
     atom   55 type  5   force =    -0.00021851    0.00030301   -0.00154200

     Total force =     0.367200     Total SCF correction =     0.000472
  @ DRIVER MODE: Message from server: STATUS
  @ DRIVER MODE: Message from server: GETFORCE
  @ DRIVER MODE: Returning v,forces,stress,ensemble

     Writing output data file ./calc.save/
  @ DRIVER MODE: Message from server: EXIT
  @ DRIVE MODE: Exiting

     General routines

     Parallel routines

   This run was terminated on:  17: 3:25  15Jul2021

   JOB DONE.