     Program PWSCF v.6.7GPU starts on 23Sep2021 at  1:55:41

     R & G space division:  proc/nbgrp/npool/nimage =       8
     Reading input from /storage/home/hcoda1/3/ntian30/research/carbon/CxH_vib/H2O_calc/ads_slab/CH3NHNHHO_a/out_0010/pw.inp
Warning: card &CELL ignored
Warning: card   CELL_DYNAMICS='IPI', ignored
Warning: card / ignored

     Current dimensions of program PWSCF are:
     Max number of different atomic species (ntypx) = 10
     Max number of k-points (npk) =  40000
     Max angular momentum in pseudopotentials (lmaxx) =  3
     Presently no symmetry can be used with electric field

     Message from routine cell_base_init:
     DEPRECATED: use true lattice parameter, not A to a.u. conversion factor

     IMPORTANT: XC functional enforced from input :
     Exchange-correlation= BEEF-VDW
                           (   1   4  43  14   2   0   0)
     Any further DFT definition will be discarded
     Please, verify this is what you really want

  @ DRIVER MODE: Connecting to
 qe_1139763_2941006.sched-torque.pace.gatech.eduhmcdjzv0_scratch
  using UNIX socket
  @ DRIVER MODE: Message from server: STATUS
  @ DRIVER MODE: Message from server: INIT
  @ DRIVER MODE: Receiving replica           0          -1
  @ DRIVER MODE: Receiving encoded integer          25
  @ DRIVER MODE:  SCF:  T  FORCE:  T  STRESS:  F  VC:  F  ENSEMBLE:  F
  @ DRIVER MODE:  SCF:  T  FORCE:  T  STRESS:  F  VC:  F  ENSEMBLE:  F

     Using Slab Decomposition

     bravais-lattice index     =            0
     lattice parameter (alat)  =       1.8897  a.u.
     unit-cell volume          =    6658.9804 (a.u.)^3
     number of atoms/cell      =           57
     number of atomic types    =            5
     number of electrons       =       404.00
     number of Kohn-Sham states=          212
     kinetic-energy cutoff     =      29.3995  Ry
     charge density cutoff     =     293.9946  Ry
     scf convergence threshold =      7.3E-08
     mixing beta               =       0.0500
     number of iterations used =            8  plain     mixing
     Exchange-correlation= BEEF-VDW
                           (   1   4  43  14   2   0   0)

     celldm(1)=   1.889726  celldm(2)=   0.000000  celldm(3)=   0.000000
     celldm(4)=   0.000000  celldm(5)=   0.000000  celldm(6)=   0.000000

     crystal axes: (cart. coord. in units of alat)
               a(1) = (   6.579727   0.000000   0.000000 )
               a(2) = (  -0.000775   5.961596   0.000000 )
               a(3) = (   0.000000   0.000000  25.155947 )

     reciprocal axes: (cart. coord. in units 2 pi/alat)
               b(1) = (  0.151982  0.000020  0.000000 )
               b(2) = (  0.000000  0.167740  0.000000 )
               b(3) = (  0.000000  0.000000  0.039752 )

     PseudoPot. # 1 for Ti read from file:
     /storage/coda1/p-amedford6/0/shared/rich_project_chbe-medford/medford-share/data/pseudos_module/espresso/nninc/pbe/van/Ti.UPF
     MD5 check sum: 8e4df49b7f0d34bbd5052bf3f5ea0213
     Pseudo is Ultrasoft, Zval = 12.0
     Generated by new atomic code, or converted to UPF format
     Using radial grid of  851 points,  6 beta functions with:
                l(1) =   0
                l(2) =   0
                l(3) =   1
                l(4) =   1
                l(5) =   2
                l(6) =   2
     Q(r) pseudized with  8 coefficients,  rinner =    1.000   1.000   1.000
                                                       1.000   1.000

     PseudoPot. # 2 for O  read from file:
     /storage/coda1/p-amedford6/0/shared/rich_project_chbe-medford/medford-share/data/pseudos_module/espresso/nninc/pbe/van/O.UPF
     MD5 check sum: 78c19812648e8988a0fe644b0f25305e
     Pseudo is Ultrasoft, Zval =  6.0
     Generated by new atomic code, or converted to UPF format
     Using radial grid of  737 points,  4 beta functions with:
                l(1) =   0
                l(2) =   0
                l(3) =   1
                l(4) =   1
     Q(r) pseudized with  8 coefficients,  rinner =    0.800   0.800   0.800

     PseudoPot. # 3 for N  read from file:
     /storage/coda1/p-amedford6/0/shared/rich_project_chbe-medford/medford-share/data/pseudos_module/espresso/nninc/pbe/van/N.UPF
     MD5 check sum: 90d10febe142ad51ac9d5be1deb811c4
     Pseudo is Ultrasoft, Zval =  5.0
     Generated by new atomic code, or converted to UPF format
     Using radial grid of  729 points,  4 beta functions with:
                l(1) =   0
                l(2) =   0
                l(3) =   1
                l(4) =   1
     Q(r) pseudized with  8 coefficients,  rinner =    0.800   0.800   0.800

     PseudoPot. # 4 for C  read from file:
     /storage/coda1/p-amedford6/0/shared/rich_project_chbe-medford/medford-share/data/pseudos_module/espresso/nninc/pbe/van/C.UPF
     MD5 check sum: 1a69bf6b8db32088f5b2163dbdb77a27
     Pseudo is Ultrasoft, Zval =  4.0
     Generated by new atomic code, or converted to UPF format
     Using radial grid of  721 points,  4 beta functions with:
                l(1) =   0
                l(2) =   0
                l(3) =   1
                l(4) =   1
     Q(r) pseudized with  8 coefficients,  rinner =    0.800   0.800   0.800

     PseudoPot. # 5 for H  read from file:
     /storage/coda1/p-amedford6/0/shared/rich_project_chbe-medford/medford-share/data/pseudos_module/espresso/nninc/pbe/van/H.UPF
     MD5 check sum: b5ee9d7bfd3a09ee7748110bda690ff7
     Pseudo is Ultrasoft, Zval =  1.0
     Generated by new atomic code, or converted to UPF format
     Using radial grid of  615 points,  1 beta functions with:
                l(1) =   0
     Q(r) pseudized with  8 coefficients,  rinner =    0.800

     atomic species   valence    mass     pseudopotential
        Ti1           12.00    47.86700     Ti( 1.00)
        O1             6.00    15.99900     O ( 1.00)
        N1             5.00    14.00700     N ( 1.00)
        C1             4.00    12.01100     C ( 1.00)
        H1             1.00     1.00800     H ( 1.00)

     No symmetry found

   Cartesian axes

     site n.     atom                  positions (alat units)
         1           Ti1 tau(   1) = (   0.0004258   2.9801865   6.0000000  )
         2           Ti1 tau(   2) = (   3.2906075   1.4906267   6.0002472  )
         3           O1  tau(   3) = (   0.0006271   0.0005054   7.9858123  )
         4           O1  tau(   4) = (   3.2906025   0.0005020   7.3038282  )
         5           O1  tau(   5) = (   4.5942328   1.4918067   9.2879030  )
         6           O1  tau(   6) = (   1.9868534   1.4903216   9.2879459  )
         7           Ti1 tau(   7) = (   3.2907910   2.8959150   9.1758416  )
         8           Ti1 tau(   8) = (   0.0015273   1.4827037   9.2680791  )
         9           O1  tau(   9) = (   3.2953096   5.9421394  11.2884464  )
        10           O1  tau(  10) = (   0.0116148   5.9584955  10.6183126  )
        11           O1  tau(  11) = (   1.3041449   1.4755329  12.6321863  )
        12           O1  tau(  12) = (   5.3089623   1.4871430  12.6059879  )
        13           Ti1 tau(  13) = (   6.5683417   3.1096339  12.6902584  )
        14           Ti1 tau(  14) = (   3.3171551   1.3050273  12.6602886  )
        15           O1  tau(  15) = (   6.5441980   0.0188234  14.6400653  )
        16           O1  tau(  16) = (   3.3305379   0.0354930  13.9003223  )
        17           O1  tau(  17) = (   4.5569828   1.5958521  16.0354584  )
        18           O1  tau(  18) = (   2.0254723   1.5302355  15.9749146  )
        19           Ti1 tau(  19) = (   3.2479256   3.0467527  15.6517507  )
        20           Ti1 tau(  20) = (   6.4631478   1.5268535  15.8454044  )
        21           O1  tau(  21) = (   3.2904802   0.0005063   4.7018136  )
        22           O1  tau(  22) = (   6.5640117   0.0389496  17.1838934  )
        23           O1  tau(  23) = (   1.3043587   1.4918075   6.0039043  )
        24           O1  tau(  24) = (   5.2767064   1.4903225   6.0039473  )
        25           Ti1 tau(  25) = (   0.0000382   5.9609847   6.0000000  )
        26           Ti1 tau(  26) = (   3.2902200   4.4714249   6.0002472  )
        27           O1  tau(  27) = (   0.0002396   2.9813036   7.9858123  )
        28           O1  tau(  28) = (   3.2902150   2.9813002   7.3038282  )
        29           O1  tau(  29) = (   4.5938453   4.4726049   9.2879030  )
        30           O1  tau(  30) = (   1.9864658   4.4711199   9.2879459  )
        31           Ti1 tau(  31) = (   3.2891106   5.8743827   9.1763621  )
        32           Ti1 tau(  32) = (   0.0006254   4.4649316   9.2693709  )
        33           O1  tau(  33) = (   3.2909858   3.0116154  11.2527998  )
        34           O1  tau(  34) = (   0.0092240   2.9805883  10.6323155  )
        35           O1  tau(  35) = (   1.2990260   4.4726261  12.6330189  )
        36           O1  tau(  36) = (   5.2946483   4.4606482  12.6134978  )
        37           Ti1 tau(  37) = (   0.0333947   0.1262769  12.6104238  )
        38           Ti1 tau(  38) = (   3.2900473   4.3917186  12.4086616  )
        39           O1  tau(  39) = (   6.5591047   2.9728048  14.6463482  )
        40           O1  tau(  40) = (   3.3071982   2.9909887  13.8663713  )
        41           O1  tau(  41) = (   4.5374868   4.4330245  16.1128471  )
        42           O1  tau(  42) = (   2.0037144   4.4952966  15.9584979  )
        43           Ti1 tau(  43) = (   3.1911318   0.0573200  16.2061952  )
        44           Ti1 tau(  44) = (   6.5299348   4.6473693  16.0672121  )
        45           O1  tau(  45) = (   3.2900926   2.9813045   4.7018136  )
        46           O1  tau(  46) = (   1.3039711   4.4726057   6.0039043  )
        47           O1  tau(  47) = (   5.2763189   4.4711207   6.0039473  )
        48           N1  tau(  48) = (   1.2509970   2.8552009  18.3001485  )
        49           N1  tau(  49) = (   0.1090600   2.9510495  17.4585617  )
        50           C1  tau(  50) = (   1.1117997   3.5424446  19.5707766  )
        51           H1  tau(  51) = (   0.2696121   3.1616043  20.1716506  )
        52           H1  tau(  52) = (   2.0314425   3.4001925  20.1392599  )
        53           H1  tau(  53) = (   0.9679189   4.6079482  19.3970517  )
        54           H1  tau(  54) = (   1.5306055   1.8840965  18.4148701  )
        55           H1  tau(  55) = (   5.8389999   2.9001924  18.0325661  )
        56           O1  tau(  56) = (   3.2424369   0.1001929  18.0579484  )
        57           H1  tau(  57) = (   3.9792659   5.6040190  18.4897823  )

     number of k points=    10  Fermi-Dirac smearing, width (Ry)=  0.0073
                       cart. coord. in units 2pi/alat
        k(    1) = (   0.0000000   0.0000000   0.0000000), wk =   0.1250000
        k(    2) = (   0.0000000   0.0419351   0.0000000), wk =   0.2500000
        k(    3) = (   0.0000000  -0.0838702   0.0000000), wk =   0.1250000
        k(    4) = (   0.0379955   0.0000049   0.0000000), wk =   0.2500000
        k(    5) = (   0.0379955   0.0419400   0.0000000), wk =   0.2500000
        k(    6) = (   0.0379955  -0.0838652   0.0000000), wk =   0.2500000
        k(    7) = (   0.0379955  -0.0419301   0.0000000), wk =   0.2500000
        k(    8) = (  -0.0759910  -0.0000099   0.0000000), wk =   0.1250000
        k(    9) = (  -0.0759910   0.0419252   0.0000000), wk =   0.2500000
        k(   10) = (  -0.0759910  -0.0838800   0.0000000), wk =   0.1250000

     Initial potential from superposition of free atoms

     starting charge  387.99913, renormalised to  404.00000

     negative rho (up, down):  1.468E-02 0.000E+00

     %%%%%%%%%%%%%%%%%%%%%%%%%%%%%%%%%%%%%%%%%%%%%%%%%%%%%%%%%%%%%%%%%%%%%%%%
     %                                                                      %
     % You are using vdW-DF, which was implemented by the Thonhauser group. %
     % Please cite the following two papers that made this development      %
     % possible and the two reviews that describe the various versions:     %
     %                                                                      %
     %   T. Thonhauser et al., PRL 115, 136402 (2015).                      %
     %   T. Thonhauser et al., PRB 76, 125112 (2007).                       %
     %   K. Berland et al., Rep. Prog. Phys. 78, 066501 (2015).             %
     %   D.C. Langreth et al., J. Phys.: Condens. Matter 21, 084203 (2009). %
     %                                                                      %
     %                                                                      %
     % If you are calculating the stress with vdW-DF, please also cite:     %
     %                                                                      %
     %   R. Sabatini et al., J. Phys.: Condens. Matter 24, 424209 (2012).   %
     %                                                                      %
     %%%%%%%%%%%%%%%%%%%%%%%%%%%%%%%%%%%%%%%%%%%%%%%%%%%%%%%%%%%%%%%%%%%%%%%%

     Adding external electric field

     Computed dipole along edir(3) :
        Dipole              -12.7315 Ry au,        -32.3602 Debye
        Dipole field         -0.0240 Ry au,

        Potential amp.        2.2272 Ry
        Total length         46.3494 bohr

     Starting wfcs are  306 atomic wfcs
  @ DRIVER MODE: Message from server: STATUS
  @ DRIVER MODE: Message from server: POSDATA
  @ DRIVER MODE: Reading and sharing cell
  @ DRIVER MODE: Reading and sharing positions
  @ DRIVER MODE: Received positions

     Self-consistent Calculation

     iteration #  1     ecut=    29.40 Ry     beta= 0.05
     Davidson diagonalization with overlap
     c_bands:  4 eigenvalues not converged
     c_bands:  5 eigenvalues not converged
     c_bands:  5 eigenvalues not converged
     c_bands:  5 eigenvalues not converged
     c_bands:  1 eigenvalues not converged
     c_bands:  3 eigenvalues not converged
     c_bands:  4 eigenvalues not converged
     c_bands:  4 eigenvalues not converged
     ethr =  1.00E-05,  avg # of iterations = 24.4

[...]

     total energy              =   -2345.46723679 Ry
     estimated scf accuracy    <    7121.32442489 Ry

     iteration #  2     ecut=    29.40 Ry     beta= 0.05
     Davidson diagonalization with overlap
     ethr =  1.00E-02,  avg # of iterations = 25.7

[...]

     iteration # 57     ecut=    29.40 Ry     beta= 0.05
     Davidson diagonalization with overlap
     c_bands:  1 eigenvalues not converged
     ethr =  1.64E-07,  avg # of iterations =  4.7

[...]

     total energy              =   -2975.25035596 Ry
     estimated scf accuracy    <       0.00000012 Ry

     iteration # 80     ecut=    29.40 Ry     beta= 0.05
     Davidson diagonalization with overlap
     ethr =  2.97E-11,  avg # of iterations =  3.8

     negative rho (up, down):  1.541E-02 0.000E+00

     Adding external electric field

     Computed dipole along edir(3) :
        Dipole                0.5342 Ry au,          1.3578 Debye
        Dipole field          0.0010 Ry au,

        Potential amp.       -0.0934 Ry
        Total length         46.3494 bohr

     End of self-consistent calculation

          k = 0.0000 0.0000 0.0000 ( 18029 PWs)   bands (ev):

   -56.4313 -56.3976 -55.7750 -55.7402 -55.5432 -55.4821 -55.3663 -55.2118
   -55.2093 -55.1415 -55.1061 -55.0938 -55.0598 -55.0569 -54.9865 -54.8636
   -32.8643 -32.7156 -32.6876 -32.5989 -32.5075 -32.4899 -32.2551 -32.0213
   -31.9944 -31.9715 -31.9186 -31.9132 -31.8837 -31.7712 -31.7592 -31.7463
   -31.7081 -31.6983 -31.6843 -31.6440 -31.6344 -31.6260 -31.5755 -31.5557
   -31.5177 -31.4848 -31.4841 -31.4336 -31.4183 -31.4127 -31.4095 -31.3867
   -31.3690 -31.3686 -31.3324 -31.3136 -31.3106 -31.3040 -31.2846 -31.2433
   -31.2364 -31.2211 -31.2070 -31.1864 -31.1128 -31.1094 -31.1088 -31.0582
   -16.6207 -16.5574 -16.1899 -16.1738 -15.8678 -15.8049 -15.7788 -15.7445
   -15.6831 -15.5570 -15.4415 -15.3964 -15.3872 -15.3393 -15.1802 -15.0830
   -14.9865 -14.9145 -14.9075 -14.8607 -14.8528 -14.8217 -14.8119 -14.8045
   -14.7381 -14.7031 -14.5955 -14.5480 -14.4539 -14.2589 -14.1790 -13.5914
   -13.4816 -11.5273  -8.6523  -5.0395  -4.2390  -4.1716  -3.7792  -3.6960
    -3.5225  -3.4440  -3.2953  -3.2656  -3.1752  -3.0757  -3.0150  -2.9576
    -2.9465  -2.8416  -2.6928  -2.6409  -2.6358  -2.6137  -2.6065  -2.5125
    -2.4469  -2.4137  -2.3456  -2.2758  -2.2429  -2.1581  -2.1521  -2.1276
    -2.1067  -2.0768  -2.0275  -1.9791  -1.9575  -1.9358  -1.8248  -1.7825
    -1.7560  -1.7128  -1.6818  -1.6070  -1.5707  -1.5240  -1.4446  -1.3848
    -1.2630  -1.2361  -1.1676  -1.1570  -1.1275  -1.0047  -0.9641  -0.9300
    -0.8684  -0.8349  -0.7696  -0.7473  -0.7141  -0.6751  -0.6657  -0.6282
    -0.5208  -0.4869  -0.3651  -0.3485  -0.2943  -0.2234  -0.2153  -0.1605
    -0.1386  -0.1009  -0.0579  -0.0179   0.0217   0.0912   0.1287   0.2166
     0.2610   0.3230   0.4190   0.4480   0.4687   0.5320   0.5492   0.5828
     0.6285   0.7225   0.7308   0.7921   0.8687   0.9129   0.9292   0.9920
     1.0512   1.0708   1.1715   1.2000   1.2098   1.2673   1.4693   1.5096
     1.6882   2.4436   2.8332   2.9798   3.2658   3.2975   3.5580   3.7925
     3.8224   3.8245   3.9075   4.0115

[...]

          k = 0.0380-0.0419 0.0000 ( 17876 PWs)   bands (ev):

[...]

          k =-0.0760-0.0000 0.0000 ( 17886 PWs)   bands (ev):

[...]

          k =-0.0760-0.0839 0.0000 ( 17948 PWs)   bands (ev):

   -56.4146 -56.4141 -55.7622 -55.7527 -55.5380 -55.4871 -55.3649 -55.2130
   -55.2046 -55.1459 -55.1039 -55.0773 -55.0762 -55.0555 -54.9888 -54.8648
   -32.7015 -32.7010 -32.6813 -32.6806 -32.5517 -32.5515 -32.0802 -32.0718
   -31.9563 -31.9488 -31.9452 -31.9427 -31.8412 -31.8023 -31.7653 -31.7570
   -31.7127 -31.7073 -31.6646 -31.6155 -31.5829 -31.5646 -31.5419 -31.5006
   -31.4899 -31.4865 -31.4370 -31.4350 -31.4229 -31.4221 -31.4175 -31.3989
   -31.3852 -31.3590 -31.3380 -31.3249 -31.3148 -31.3018 -31.3005 -31.2992
   -31.2634 -31.2623 -31.2434 -31.2403 -31.1934 -31.1771 -31.1132 -31.0878
   -16.5318 -16.1743 -16.0014 -15.9975 -15.9180 -15.9154 -15.7072 -15.7016
   -15.5304 -15.5011 -15.4256 -15.3081 -15.2568 -15.2003 -15.1914 -15.1500
   -15.0948 -15.0756 -15.0318 -15.0151 -14.9519 -14.9079 -14.8607 -14.8151
   -14.7955 -14.7568 -14.6368 -14.5876 -14.5811 -14.3931 -14.3589 -13.5855
   -13.5849 -11.5339  -8.6590  -5.0477  -4.2364  -3.7506  -3.3960  -3.1033
    -3.0853  -3.0399  -3.0308  -2.8151  -2.7945  -2.7681  -2.6955  -2.6827
    -2.6328  -2.6255  -2.5334  -2.4926  -2.4506  -2.4363  -2.4217  -2.3663
    -2.3383  -2.2956  -2.2920  -2.2551  -2.2198  -2.1858  -2.1606  -2.1180
    -2.0948  -2.0816  -2.0415  -2.0104  -1.9842  -1.9344  -1.9148  -1.8813
    -1.8736  -1.8499  -1.6932  -1.6390  -1.5840  -1.5406  -1.5104  -1.4446
    -1.4351  -1.3798  -1.3214  -1.2874  -1.2597  -1.2407  -1.1540  -1.1237
    -1.1072  -1.0699  -1.0282  -0.9686  -0.9089  -0.8607  -0.7838  -0.6892
    -0.6619  -0.6428  -0.6165  -0.6089  -0.5674  -0.5152  -0.4267  -0.3747
    -0.3233  -0.3065  -0.2630  -0.2571  -0.2233  -0.1875  -0.1199   0.0023
     0.0696   0.1035   0.1589   0.2170   0.2710   0.3355   0.3799   0.4604
     0.5393   0.5625   0.6471   0.6809   0.8078   0.8471   0.9648   1.0065
     1.0417   1.0884   1.1552   1.2540   1.2805   1.3204   1.3221   1.3391
     1.3537   2.4676   3.4001   3.4030   3.4534   3.4609   3.7355   3.7437
     3.8771   3.8789   4.0040   4.0166

     the Fermi energy is     2.7143 ev

!    total energy              =   -2975.25036472 Ry
     estimated scf accuracy    <       0.00000007 Ry
     smearing contrib. (-TS)   =      -0.00753890 Ry
     internal energy E=F+TS    =   -2975.24282582 Ry

     The total energy is F=E-TS. E is the sum of the following terms:
     one-electron contribution =  -23773.53955810 Ry
     hartree contribution      =   11982.38164214 Ry
     xc contribution           =    -494.80806328 Ry
     ewald contribution        =    9310.72261492 Ry
     electric field correction =       0.00053851 Ry

     convergence has been achieved in  80 iterations

     Forces acting on atoms (cartesian axes, Ry/au):

     atom    1 type  1   force =     0.00002614   -0.00034933    0.11623271
     atom    2 type  1   force =    -0.00014094    0.00032151   -0.16021203
     atom    3 type  2   force =     0.00004439    0.00032558   -0.05320667
     atom    4 type  2   force =     0.00007075   -0.00041439    0.02648255
     atom    5 type  2   force =    -0.00501382   -0.00226120   -0.01003582
     atom    6 type  2   force =     0.00669556   -0.00183363   -0.01076805
     atom    7 type  1   force =    -0.00038456   -0.00640472    0.04573223
     atom    8 type  1   force =     0.00057339    0.01078085    0.08187045
     atom    9 type  2   force =    -0.00001800    0.00035579   -0.00019305
     atom   10 type  2   force =    -0.00140154    0.00154577   -0.05459542
     atom   11 type  2   force =     0.00073084    0.00030243   -0.00025185
     atom   12 type  2   force =    -0.00114493    0.00022808    0.00017204
     atom   13 type  1   force =    -0.00022776   -0.00092694    0.00035863
     atom   14 type  1   force =     0.00046023    0.00125707   -0.00019578
     atom   15 type  2   force =     0.00000148    0.00022190    0.00014577
     atom   16 type  2   force =    -0.00030110    0.00062796    0.00088223
     atom   17 type  2   force =    -0.00053112   -0.00044880    0.00022663
     atom   18 type  2   force =     0.00057759   -0.00015341    0.00024752
     atom   19 type  1   force =    -0.00062566   -0.00038417   -0.00025793
     atom   20 type  1   force =     0.00045400   -0.00050417   -0.00013005
     atom   21 type  2   force =     0.00007371    0.00015255    0.09913991
     atom   22 type  2   force =     0.00024009    0.00103475    0.00060748
     atom   23 type  2   force =    -0.07949236   -0.00002452   -0.03162515
     atom   24 type  2   force =     0.07941011    0.00040518   -0.03165891
     atom   25 type  1   force =     0.00017107   -0.00036353    0.11650136
     atom   26 type  1   force =    -0.00008289   -0.00141573   -0.16035495
     atom   27 type  2   force =     0.00013349   -0.00011767   -0.05158880
     atom   28 type  2   force =     0.00003027    0.00129725    0.02167416
     atom   29 type  2   force =    -0.00382955    0.00422739   -0.01243619
     atom   30 type  2   force =     0.00541179    0.00484001   -0.01302866
     atom   31 type  1   force =    -0.00015743    0.00313375    0.03070995
     atom   32 type  1   force =     0.00051237   -0.01301345    0.08272806
     atom   33 type  2   force =     0.00017841   -0.00053349    0.00019034
     atom   34 type  2   force =    -0.00049801    0.00168286   -0.06792175
     atom   35 type  2   force =    -0.00045583   -0.00065812   -0.00010664
     atom   36 type  2   force =     0.00007943   -0.00004375   -0.00002603
     atom   37 type  1   force =    -0.00011551   -0.00118433   -0.00004867
     atom   38 type  1   force =     0.00047652   -0.00033517    0.00021971
     atom   39 type  2   force =     0.00014120    0.00019073    0.00012798
     atom   40 type  2   force =    -0.00012504   -0.00024409    0.00011009
     atom   41 type  2   force =     0.00101871   -0.00001132    0.00006924
     atom   42 type  2   force =    -0.00092025   -0.00033596    0.00012495
     atom   43 type  1   force =     0.00010431   -0.00095694    0.00022698
     atom   44 type  1   force =     0.00032871    0.00063996   -0.00010726
     atom   45 type  2   force =     0.00007532   -0.00002942    0.09896109
     atom   46 type  2   force =    -0.07950681   -0.00001438   -0.03163992
     atom   47 type  2   force =     0.07944164    0.00043068   -0.03166234
     atom   48 type  3   force =    -0.00115548    0.00274423   -0.00038715
     atom   49 type  3   force =    -0.00059119   -0.00431320    0.00026820
     atom   50 type  4   force =     0.00012552    0.00065342    0.00010991
     atom   51 type  5   force =    -0.00114979    0.00019498   -0.00021975
     atom   52 type  5   force =     0.00000304   -0.00042341    0.00035906
     atom   53 type  5   force =     0.00053212    0.00014743   -0.00060568
     atom   54 type  5   force =    -0.00114841   -0.00183650   -0.00057742
     atom   55 type  5   force =    -0.00012928    0.00061316   -0.00010154
     atom   56 type  2   force =     0.00116139   -0.00021193   -0.00011667
     atom   57 type  5   force =    -0.00013631    0.00139239   -0.00041911

     Total force =     0.399123     Total SCF correction =     0.000871
  @ DRIVER MODE: Message from server: STATUS
  @ DRIVER MODE: Message from server: GETFORCE
  @ DRIVER MODE: Returning v,forces,stress,ensemble

     Writing output data file ./calc.save/
  @ DRIVER MODE: Message from server: EXIT
  @ DRIVE MODE: Exiting

     General routines

     Parallel routines

   This run was terminated on:   2:20:48  23Sep2021

   JOB DONE.