     Program PWSCF v.6.7GPU starts on 22Sep2021 at 23:25:23

     R & G space division:  proc/nbgrp/npool/nimage =      10
     Reading input from /storage/home/hcoda1/3/ntian30/research/carbon/CxH_vib/H2O_calc/ads_slab/CH3NHO_a/out_0023/pw.inp
Warning: card &CELL ignored
Warning: card   CELL_DYNAMICS='IPI', ignored
Warning: card / ignored

     Current dimensions of program PWSCF are:
     Max number of different atomic species (ntypx) = 10
     Max number of k-points (npk) =  40000
     Max angular momentum in pseudopotentials (lmaxx) =  3
     Presently no symmetry can be used with electric field

     Message from routine cell_base_init:
     DEPRECATED: use true lattice parameter, not A to a.u. conversion factor

     IMPORTANT: XC functional enforced from input :
     Exchange-correlation= BEEF-VDW
                           (   1   4  43  14   2   0   0)
     Any further DFT definition will be discarded
     Please, verify this is what you really want

  @ DRIVER MODE: Connecting to
 qe_1139763_2937319.sched-torque.pace.gatech.eduoymrxcrt_scratch
  using UNIX socket
  @ DRIVER MODE: Message from server: STATUS
  @ DRIVER MODE: Message from server: INIT
  @ DRIVER MODE: Receiving replica           0          -1
  @ DRIVER MODE: Receiving encoded integer          25
  @ DRIVER MODE:  SCF:  T  FORCE:  T  STRESS:  F  VC:  F  ENSEMBLE:  F
  @ DRIVER MODE:  SCF:  T  FORCE:  T  STRESS:  F  VC:  F  ENSEMBLE:  F

     Using Slab Decomposition

     bravais-lattice index     =            0
     lattice parameter (alat)  =       1.8897  a.u.
     unit-cell volume          =    6658.9804 (a.u.)^3
     number of atoms/cell      =           54
     number of atomic types    =            5
     number of electrons       =       397.00
     number of Kohn-Sham states=          208
     kinetic-energy cutoff     =      29.3995  Ry
     charge density cutoff     =     293.9946  Ry
     scf convergence threshold =      7.3E-08
     mixing beta               =       0.0500
     number of iterations used =            8  plain     mixing
     Exchange-correlation= BEEF-VDW
                           (   1   4  43  14   2   0   0)

     celldm(1)=   1.889726  celldm(2)=   0.000000  celldm(3)=   0.000000
     celldm(4)=   0.000000  celldm(5)=   0.000000  celldm(6)=   0.000000

     crystal axes: (cart. coord. in units of alat)
               a(1) = (   6.579727   0.000000   0.000000 )
               a(2) = (  -0.000775   5.961596   0.000000 )
               a(3) = (   0.000000   0.000000  25.155947 )

     reciprocal axes: (cart. coord. in units 2 pi/alat)
               b(1) = (  0.151982  0.000020  0.000000 )
               b(2) = (  0.000000  0.167740  0.000000 )
               b(3) = (  0.000000  0.000000  0.039752 )

     PseudoPot. # 1 for Ti read from file:
     /storage/coda1/p-amedford6/0/shared/rich_project_chbe-medford/medford-share/data/pseudos_module/espresso/nninc/pbe/van/Ti.UPF
     MD5 check sum: 8e4df49b7f0d34bbd5052bf3f5ea0213
     Pseudo is Ultrasoft, Zval = 12.0
     Generated by new atomic code, or converted to UPF format
     Using radial grid of  851 points,  6 beta functions with:
                l(1) =   0
                l(2) =   0
                l(3) =   1
                l(4) =   1
                l(5) =   2
                l(6) =   2
     Q(r) pseudized with  8 coefficients,  rinner =    1.000   1.000   1.000
                                                       1.000   1.000

     PseudoPot. # 2 for O  read from file:
     /storage/coda1/p-amedford6/0/shared/rich_project_chbe-medford/medford-share/data/pseudos_module/espresso/nninc/pbe/van/O.UPF
     MD5 check sum: 78c19812648e8988a0fe644b0f25305e
     Pseudo is Ultrasoft, Zval =  6.0
     Generated by new atomic code, or converted to UPF format
     Using radial grid of  737 points,  4 beta functions with:
                l(1) =   0
                l(2) =   0
                l(3) =   1
                l(4) =   1
     Q(r) pseudized with  8 coefficients,  rinner =    0.800   0.800   0.800

     PseudoPot. # 3 for N  read from file:
     /storage/coda1/p-amedford6/0/shared/rich_project_chbe-medford/medford-share/data/pseudos_module/espresso/nninc/pbe/van/N.UPF
     MD5 check sum: 90d10febe142ad51ac9d5be1deb811c4
     Pseudo is Ultrasoft, Zval =  5.0
     Generated by new atomic code, or converted to UPF format
     Using radial grid of  729 points,  4 beta functions with:
                l(1) =   0
                l(2) =   0
                l(3) =   1
                l(4) =   1
     Q(r) pseudized with  8 coefficients,  rinner =    0.800   0.800   0.800

     PseudoPot. # 4 for C  read from file:
     /storage/coda1/p-amedford6/0/shared/rich_project_chbe-medford/medford-share/data/pseudos_module/espresso/nninc/pbe/van/C.UPF
     MD5 check sum: 1a69bf6b8db32088f5b2163dbdb77a27
     Pseudo is Ultrasoft, Zval =  4.0
     Generated by new atomic code, or converted to UPF format
     Using radial grid of  721 points,  4 beta functions with:
                l(1) =   0
                l(2) =   0
                l(3) =   1
                l(4) =   1
     Q(r) pseudized with  8 coefficients,  rinner =    0.800   0.800   0.800

     PseudoPot. # 5 for H  read from file:
     /storage/coda1/p-amedford6/0/shared/rich_project_chbe-medford/medford-share/data/pseudos_module/espresso/nninc/pbe/van/H.UPF
     MD5 check sum: b5ee9d7bfd3a09ee7748110bda690ff7
     Pseudo is Ultrasoft, Zval =  1.0
     Generated by new atomic code, or converted to UPF format
     Using radial grid of  615 points,  1 beta functions with:
                l(1) =   0
     Q(r) pseudized with  8 coefficients,  rinner =    0.800

     atomic species   valence    mass     pseudopotential
        Ti1           12.00    47.86700     Ti( 1.00)
        O1             6.00    15.99900     O ( 1.00)
        N1             5.00    14.00700     N ( 1.00)
        C1             4.00    12.01100     C ( 1.00)
        H1             1.00     1.00800     H ( 1.00)

     No symmetry found

   Cartesian axes

     site n.     atom                  positions (alat units)
         1           Ti1 tau(   1) = (   0.0004258   2.9801865   6.0000000  )
         2           Ti1 tau(   2) = (   3.2906075   1.4906267   6.0002472  )
         3           O1  tau(   3) = (   0.0006271   0.0005054   7.9858123  )
         4           O1  tau(   4) = (   3.2906025   0.0005020   7.3038282  )
         5           O1  tau(   5) = (   4.5942328   1.4918067   9.2879030  )
         6           O1  tau(   6) = (   1.9868534   1.4903216   9.2879459  )
         7           Ti1 tau(   7) = (   3.2907910   2.8959150   9.1758416  )
         8           Ti1 tau(   8) = (   0.0015273   1.4827037   9.2680791  )
         9           O1  tau(   9) = (   3.2880966   5.9442215  11.2779904  )
        10           O1  tau(  10) = (   0.0116148   5.9584955  10.6183126  )
        11           O1  tau(  11) = (   1.2901275   1.4920942  12.6240107  )
        12           O1  tau(  12) = (   5.2966278   1.4852543  12.6143030  )
        13           Ti1 tau(  13) = (   0.0031916   3.1007002  12.7073671  )
        14           Ti1 tau(  14) = (   3.2978183   1.3116672  12.6600973  )
        15           O1  tau(  15) = (   6.5743189   0.0224225  14.6379036  )
        16           O1  tau(  16) = (   3.2931419   0.0435670  13.8892854  )
        17           O1  tau(  17) = (   4.5409235   1.5821231  16.0748620  )
        18           O1  tau(  18) = (   2.0417342   1.5698890  16.0900686  )
        19           Ti1 tau(  19) = (   3.2746960   3.0378214  15.6558348  )
        20           Ti1 tau(  20) = (   6.4705883   1.5381531  15.9030332  )
        21           O1  tau(  21) = (   3.2904802   0.0005063   4.7018136  )
        22           O1  tau(  22) = (   6.5584422   0.0457650  17.1906971  )
        23           O1  tau(  23) = (   1.3043587   1.4918075   6.0039043  )
        24           O1  tau(  24) = (   5.2767064   1.4903225   6.0039473  )
        25           Ti1 tau(  25) = (   0.0000382   5.9609847   6.0000000  )
        26           Ti1 tau(  26) = (   3.2902200   4.4714249   6.0002472  )
        27           O1  tau(  27) = (   0.0002396   2.9813036   7.9858123  )
        28           O1  tau(  28) = (   3.2902150   2.9813002   7.3038282  )
        29           O1  tau(  29) = (   4.5938453   4.4726049   9.2879030  )
        30           O1  tau(  30) = (   1.9864658   4.4711199   9.2879459  )
        31           Ti1 tau(  31) = (   3.2891106   5.8743827   9.1763621  )
        32           Ti1 tau(  32) = (   0.0006254   4.4649316   9.2693709  )
        33           O1  tau(  33) = (   3.2918970   3.0256722  11.2465752  )
        34           O1  tau(  34) = (   0.0092240   2.9805883  10.6323155  )
        35           O1  tau(  35) = (   1.2932338   4.4650182  12.6342030  )
        36           O1  tau(  36) = (   5.2897350   4.4662865  12.6224893  )
        37           Ti1 tau(  37) = (   0.0112454   0.1207271  12.6557084  )
        38           Ti1 tau(  38) = (   3.2993242   4.4067673  12.4119285  )
        39           O1  tau(  39) = (   6.5542949   2.9732608  14.6543823  )
        40           O1  tau(  40) = (   3.2957262   2.9928748  13.8751945  )
        41           O1  tau(  41) = (   4.5169628   4.4726675  16.1294972  )
        42           O1  tau(  42) = (   2.0179035   4.4711894  16.0655614  )
        43           Ti1 tau(  43) = (   3.1791666   0.0518155  16.3463265  )
        44           Ti1 tau(  44) = (   6.5235282   4.6410908  16.0777984  )
        45           O1  tau(  45) = (   3.2900926   2.9813045   4.7018136  )
        46           O1  tau(  46) = (   1.3039711   4.4726057   6.0039043  )
        47           O1  tau(  47) = (   5.2763189   4.4711207   6.0039473  )
        48           N1  tau(  48) = (   0.0679940   2.9882472  17.3287890  )
        49           C1  tau(  49) = (   0.3445104   2.8919884  18.7043053  )
        50           H1  tau(  50) = (   0.5935414   3.8503421  19.1719745  )
        51           H1  tau(  51) = (   6.0379261   2.4644003  19.2036804  )
        52           H1  tau(  52) = (   1.1315070   2.1426081  18.8955932  )
        53           O1  tau(  53) = (   3.2362511   0.0690349  18.1809703  )
        54           H1  tau(  54) = (   3.8186072   5.4079590  18.6400750  )

     number of k points=    10  Fermi-Dirac smearing, width (Ry)=  0.0073
                       cart. coord. in units 2pi/alat
        k(    1) = (   0.0000000   0.0000000   0.0000000), wk =   0.1250000
        k(    2) = (   0.0000000   0.0419351   0.0000000), wk =   0.2500000
        k(    3) = (   0.0000000  -0.0838702   0.0000000), wk =   0.1250000
        k(    4) = (   0.0379955   0.0000049   0.0000000), wk =   0.2500000
        k(    5) = (   0.0379955   0.0419400   0.0000000), wk =   0.2500000
        k(    6) = (   0.0379955  -0.0838652   0.0000000), wk =   0.2500000
        k(    7) = (   0.0379955  -0.0419301   0.0000000), wk =   0.2500000
        k(    8) = (  -0.0759910  -0.0000099   0.0000000), wk =   0.1250000
        k(    9) = (  -0.0759910   0.0419252   0.0000000), wk =   0.2500000
        k(   10) = (  -0.0759910  -0.0838800   0.0000000), wk =   0.1250000

     Initial potential from superposition of free atoms

     starting charge  380.99916, renormalised to  397.00000

     negative rho (up, down):  1.677E-02 0.000E+00

     %%%%%%%%%%%%%%%%%%%%%%%%%%%%%%%%%%%%%%%%%%%%%%%%%%%%%%%%%%%%%%%%%%%%%%%%
     %                                                                      %
     % You are using vdW-DF, which was implemented by the Thonhauser group. %
     % Please cite the following two papers that made this development      %
     % possible and the two reviews that describe the various versions:     %
     %                                                                      %
     %   T. Thonhauser et al., PRL 115, 136402 (2015).                      %
     %   T. Thonhauser et al., PRB 76, 125112 (2007).                       %
     %   K. Berland et al., Rep. Prog. Phys. 78, 066501 (2015).             %
     %   D.C. Langreth et al., J. Phys.: Condens. Matter 21, 084203 (2009). %
     %                                                                      %
     %                                                                      %
     % If you are calculating the stress with vdW-DF, please also cite:     %
     %                                                                      %
     %   R. Sabatini et al., J. Phys.: Condens. Matter 24, 424209 (2012).   %
     %                                                                      %
     %%%%%%%%%%%%%%%%%%%%%%%%%%%%%%%%%%%%%%%%%%%%%%%%%%%%%%%%%%%%%%%%%%%%%%%%

     Adding external electric field

     Computed dipole along edir(3) :
        Dipole               -8.2913 Ry au,        -21.0744 Debye
        Dipole field         -0.0156 Ry au,

        Potential amp.        1.4504 Ry
        Total length         46.3494 bohr

     Starting wfcs are  300 atomic wfcs
  @ DRIVER MODE: Message from server: STATUS
  @ DRIVER MODE: Message from server: POSDATA
  @ DRIVER MODE: Reading and sharing cell
  @ DRIVER MODE: Reading and sharing positions
  @ DRIVER MODE: Received positions

     Self-consistent Calculation

     iteration #  1     ecut=    29.40 Ry     beta= 0.05
     Davidson diagonalization with overlap
     c_bands:  1 eigenvalues not converged
     c_bands:  1 eigenvalues not converged
     c_bands:  1 eigenvalues not converged
     c_bands:  3 eigenvalues not converged
     c_bands:  2 eigenvalues not converged
     c_bands:  1 eigenvalues not converged
     c_bands:  1 eigenvalues not converged
     ethr =  1.00E-05,  avg # of iterations = 19.2

[...]

     total energy              =   -2606.53973670 Ry
     estimated scf accuracy    <    3819.77765041 Ry

     iteration #  2     ecut=    29.40 Ry     beta= 0.05
     Davidson diagonalization with overlap
     ethr =  1.00E-02,  avg # of iterations = 24.1

[...]

     iteration # 36     ecut=    29.40 Ry     beta= 0.05
     Davidson diagonalization with overlap
     c_bands:  1 eigenvalues not converged
     ethr =  1.87E-05,  avg # of iterations =  7.4

[...]

     total energy              =   -2952.64743451 Ry
     estimated scf accuracy    <       0.00000012 Ry

     iteration # 67     ecut=    29.40 Ry     beta= 0.05
     Davidson diagonalization with overlap
     ethr =  1.98E-11,  avg # of iterations =  4.3

     negative rho (up, down):  1.697E-02 0.000E+00

     Adding external electric field

     Computed dipole along edir(3) :
        Dipole                0.3611 Ry au,          0.9178 Debye
        Dipole field          0.0007 Ry au,

        Potential amp.       -0.0632 Ry
        Total length         46.3494 bohr

     End of self-consistent calculation

          k = 0.0000 0.0000 0.0000 ( 18029 PWs)   bands (ev):

   -56.8755 -56.8419 -55.9462 -55.9106 -55.7356 -55.6708 -55.5502 -55.4272
   -55.3933 -55.3143 -55.3116 -55.2411 -55.2191 -55.1163 -55.0472 -54.9201
   -33.2942 -33.1457 -33.1177 -33.0552 -32.9650 -32.9213 -32.4273 -32.2108
   -32.1664 -32.1461 -32.0907 -32.0822 -32.0567 -31.9694 -31.9480 -31.9057
   -31.8916 -31.8734 -31.8330 -31.8050 -31.7961 -31.7939 -31.7814 -31.7741
   -31.7496 -31.7306 -31.6658 -31.6313 -31.5917 -31.5825 -31.5509 -31.5293
   -31.5168 -31.5084 -31.4748 -31.4661 -31.4395 -31.4308 -31.4087 -31.3942
   -31.3570 -31.3059 -31.2995 -31.2828 -31.2509 -31.1922 -31.1567 -31.1033
   -16.9784 -16.4649 -16.4166 -16.1919 -16.0693 -16.0639 -16.0182 -15.9569
   -15.7829 -15.7298 -15.6894 -15.6257 -15.4751 -15.3643 -15.2673 -15.0723
   -15.0374 -15.0051 -15.0036 -14.9892 -14.9588 -14.9466 -14.8709 -14.8199
   -14.7893 -14.7072 -14.7009 -14.5393 -14.3110 -14.2872 -13.9247 -13.8177
   -13.8041  -8.0373  -4.5542  -4.0921  -3.8851  -3.7099  -3.5604  -3.5043
    -3.4639  -3.3942  -3.3815  -3.2553  -3.2354  -3.2309  -3.2226  -3.1380
    -3.0729  -3.0151  -2.9262  -2.9107  -2.8203  -2.7698  -2.6106  -2.5763
    -2.4885  -2.4101  -2.4046  -2.3379  -2.3192  -2.2773  -2.2427  -2.2114
    -2.1815  -2.1382  -2.0838  -2.0732  -1.9794  -1.9731  -1.8900  -1.8750
    -1.8685  -1.7472  -1.7084  -1.6488  -1.5091  -1.4873  -1.4705  -1.4389
    -1.4010  -1.3402  -1.2358  -1.1780  -1.1489  -1.0949  -1.0257  -0.9691
    -0.9486  -0.8751  -0.8481  -0.7737  -0.7304  -0.7143  -0.6946  -0.6705
    -0.5315  -0.4493  -0.4148  -0.3622  -0.3471  -0.3080  -0.2834  -0.2288
    -0.1706  -0.1487  -0.0501  -0.0473   0.0889   0.1567   0.1594   0.2581
     0.3027   0.3088   0.3654   0.4345   0.4461   0.5099   0.5298   0.5881
     0.5941   0.6365   0.7201   0.7967   0.8403   0.8704   0.9104   0.9307
     1.0425   1.0679   1.1315   1.1877   1.4969   1.5699   2.1789   2.4189
     2.5906   2.8682   3.0635   3.3631   3.4049   3.4230   3.4232   3.8433

[...]

          k = 0.0380-0.0419 0.0000 ( 17876 PWs)   bands (ev):

[...]

          k =-0.0760-0.0000 0.0000 ( 17886 PWs)   bands (ev):

[...]

          k =-0.0760-0.0839 0.0000 ( 17948 PWs)   bands (ev):

   -56.8594 -56.8579 -55.9342 -55.9224 -55.7308 -55.6756 -55.5494 -55.4108
   -55.4095 -55.3149 -55.3070 -55.2453 -55.2176 -55.1148 -55.0487 -54.9215
   -33.1322 -33.1307 -33.1122 -33.1108 -33.0093 -33.0081 -32.2524 -32.2422
   -32.1287 -32.1246 -32.1166 -32.1156 -32.0290 -31.9884 -31.9625 -31.9488
   -31.9012 -31.8996 -31.8352 -31.7928 -31.7726 -31.7631 -31.7623 -31.6871
   -31.6366 -31.6310 -31.6295 -31.6056 -31.5947 -31.5909 -31.5901 -31.5845
   -31.5357 -31.5284 -31.5113 -31.4859 -31.4807 -31.4649 -31.4354 -31.4105
   -31.3938 -31.3598 -31.3080 -31.2937 -31.2607 -31.2567 -31.1591 -31.1411
   -16.4542 -16.3362 -16.3344 -16.2918 -16.2903 -16.0267 -16.0223 -15.7743
   -15.7452 -15.5702 -15.4577 -15.4356 -15.3939 -15.3534 -15.2766 -15.2258
   -15.2126 -15.1844 -15.1579 -15.0857 -15.0519 -14.9504 -14.9148 -14.8528
   -14.8185 -14.7449 -14.7046 -14.6760 -14.4820 -14.4202 -13.9222 -13.9217
   -13.8275  -8.0361  -4.0958  -3.4873  -3.4132  -3.4088  -3.3736  -3.3665
    -3.3068  -3.1620  -3.1586  -3.0391  -2.9581  -2.9311  -2.9015  -2.8475
    -2.8333  -2.7377  -2.6877  -2.6828  -2.6679  -2.6334  -2.6021  -2.5950
    -2.5376  -2.4115  -2.3669  -2.3294  -2.2896  -2.2217  -2.1904  -2.1827
    -2.1500  -2.1104  -2.0921  -2.0632  -2.0504  -2.0438  -2.0332  -1.9476
    -1.7995  -1.7728  -1.6792  -1.6759  -1.6663  -1.6262  -1.5966  -1.5826
    -1.5621  -1.5285  -1.4517  -1.4259  -1.3622  -1.2270  -1.2134  -1.1787
    -1.1252  -1.0224  -1.0077  -0.9119  -0.8939  -0.8836  -0.8201  -0.7974
    -0.7807  -0.7187  -0.6814  -0.5612  -0.4895  -0.4811  -0.4629  -0.4540
    -0.4036  -0.3562  -0.2834  -0.2794  -0.2627  -0.1546  -0.0588   0.0351
     0.0409   0.1102   0.1255   0.1802   0.3376   0.3482   0.3903   0.4514
     0.5678   0.6592   0.7134   0.8131   0.8456   0.9520   0.9710   0.9761
     0.9952   1.0041   1.0473   1.1032   1.1667   1.4787   1.9782   3.0116
     3.0148   3.0730   3.0785   3.3899   3.3922   3.5041   3.5090   3.8409

     the Fermi energy is     2.0761 ev

!    total energy              =   -2952.64746365 Ry
     estimated scf accuracy    <       0.00000004 Ry
     smearing contrib. (-TS)   =      -0.01068208 Ry
     internal energy E=F+TS    =   -2952.63678157 Ry

     The total energy is F=E-TS. E is the sum of the following terms:
     one-electron contribution =  -24061.69021509 Ry
     hartree contribution      =   12121.29889713 Ry
     xc contribution           =    -487.78044087 Ry
     ewald contribution        =    9475.53473121 Ry
     electric field correction =       0.00024604 Ry

     convergence has been achieved in  67 iterations

     Forces acting on atoms (cartesian axes, Ry/au):

     atom    1 type  1   force =     0.00005242   -0.00036389    0.12633595
     atom    2 type  1   force =    -0.00006440    0.00039034   -0.15474494
     atom    3 type  2   force =     0.00003789    0.00022973   -0.06866107
     atom    4 type  2   force =     0.00004338    0.00001156    0.01723114
     atom    5 type  2   force =    -0.00542125   -0.00183328   -0.01283570
     atom    6 type  2   force =     0.00700314   -0.00107318   -0.01373541
     atom    7 type  1   force =    -0.00029460   -0.00640125    0.05891240
     atom    8 type  1   force =     0.00058273    0.00674835    0.10094954
     atom    9 type  2   force =     0.00031865    0.00036494    0.00014242
     atom   10 type  2   force =    -0.00198534    0.00132325   -0.06335948
     atom   11 type  2   force =    -0.00016109   -0.00065848    0.00024782
     atom   12 type  2   force =    -0.00037396   -0.00040337    0.00006804
     atom   13 type  1   force =     0.00057713   -0.00073947    0.00023398
     atom   14 type  1   force =    -0.00003176   -0.00054463    0.00118021
     atom   15 type  2   force =     0.00000040    0.00000431    0.00028585
     atom   16 type  2   force =     0.00005792   -0.00020737   -0.00083609
     atom   17 type  2   force =    -0.00041766   -0.00054745   -0.00039536
     atom   18 type  2   force =    -0.00040798   -0.00060201   -0.00058818
     atom   19 type  1   force =     0.00126230    0.00038435   -0.00087393
     atom   20 type  1   force =    -0.00076874    0.00092906   -0.00073344
     atom   21 type  2   force =     0.00009503    0.00015063    0.09786917
     atom   22 type  2   force =    -0.00011671   -0.00002648   -0.00028089
     atom   23 type  2   force =    -0.08273070    0.00003303   -0.03315420
     atom   24 type  2   force =     0.08269941    0.00046318   -0.03321768
     atom   25 type  1   force =     0.00005502   -0.00040178    0.12671574
     atom   26 type  1   force =    -0.00004838   -0.00139316   -0.15489727
     atom   27 type  2   force =     0.00012016   -0.00036906   -0.06706328
     atom   28 type  2   force =     0.00007125    0.00177059    0.01244771
     atom   29 type  2   force =    -0.00384468    0.00476720   -0.01597787
     atom   30 type  2   force =     0.00537427    0.00500709   -0.01690587
     atom   31 type  1   force =    -0.00028933    0.00188022    0.04200273
     atom   32 type  1   force =     0.00074405   -0.00886666    0.10187687
     atom   33 type  2   force =    -0.00004883   -0.00034687   -0.00057552
     atom   34 type  2   force =    -0.00187864    0.00206019   -0.07568255
     atom   35 type  2   force =     0.00014113   -0.00012643   -0.00046526
     atom   36 type  2   force =    -0.00031269    0.00007081   -0.00018474
     atom   37 type  1   force =     0.00047087    0.00055117    0.00033703
     atom   38 type  1   force =    -0.00035189   -0.00074401   -0.00039446
     atom   39 type  2   force =     0.00001359   -0.00049787    0.00063672
     atom   40 type  2   force =    -0.00008722   -0.00056861   -0.00042844
     atom   41 type  2   force =     0.00044209   -0.00034962   -0.00062780
     atom   42 type  2   force =    -0.00135518    0.00019548   -0.00002641
     atom   43 type  1   force =     0.00081867   -0.00067524   -0.00076080
     atom   44 type  1   force =    -0.00117058   -0.00069576   -0.00018136
     atom   45 type  2   force =     0.00008396   -0.00002783    0.09771716
     atom   46 type  2   force =    -0.08276554    0.00001594   -0.03316705
     atom   47 type  2   force =     0.08272924    0.00043015   -0.03321321
     atom   48 type  3   force =     0.00100219   -0.00034568   -0.00189559
     atom   49 type  4   force =     0.00263041    0.00087480   -0.00328272
     atom   50 type  5   force =    -0.00045649   -0.00021625    0.00093607
     atom   51 type  5   force =    -0.00293808   -0.00152373    0.00345633
     atom   52 type  5   force =    -0.00068176    0.00068896    0.00030303
     atom   53 type  2   force =     0.00036145    0.00026716   -0.00082187
     atom   54 type  5   force =     0.00121472    0.00093692    0.00008252

     Total force =     0.421198     Total SCF correction =     0.000642
  @ DRIVER MODE: Message from server: STATUS
  @ DRIVER MODE: Message from server: GETFORCE
  @ DRIVER MODE: Returning v,forces,stress,ensemble

     Writing output data file ./calc.save/
  @ DRIVER MODE: Message from server: EXIT
  @ DRIVE MODE: Exiting

     General routines

     Parallel routines

   This run was terminated on:  23:42:24  22Sep2021

   JOB DONE.