     Program PWSCF v.6.7GPU starts on 22Sep2021 at 23: 6:21

     R & G space division:  proc/nbgrp/npool/nimage =      10
     Reading input from /storage/home/hcoda1/3/ntian30/research/carbon/CxH_vib/H2O_calc/ads_slab/CH2HO_a/out_0027/pw.inp
Warning: card &CELL ignored
Warning: card   CELL_DYNAMICS='IPI', ignored
Warning: card / ignored

     Current dimensions of program PWSCF are:
     Max number of different atomic species (ntypx) = 10
     Max number of k-points (npk) =  40000
     Max angular momentum in pseudopotentials (lmaxx) =  3
     Presently no symmetry can be used with electric field

     Message from routine cell_base_init:
     DEPRECATED: use true lattice parameter, not A to a.u. conversion factor

     IMPORTANT: XC functional enforced from input :
     Exchange-correlation= BEEF-VDW
                           (   1   4  43  14   2   0   0)
     Any further DFT definition will be discarded
     Please, verify this is what you really want

  @ DRIVER MODE: Connecting to
 qe_1139763_2937324.sched-torque.pace.gatech.edulkf1zj28_scratch
  using UNIX socket
  @ DRIVER MODE: Message from server: STATUS
  @ DRIVER MODE: Message from server: INIT
  @ DRIVER MODE: Receiving replica           0          -1
  @ DRIVER MODE: Receiving encoded integer          25
  @ DRIVER MODE:  SCF:  T  FORCE:  T  STRESS:  F  VC:  F  ENSEMBLE:  F
  @ DRIVER MODE:  SCF:  T  FORCE:  T  STRESS:  F  VC:  F  ENSEMBLE:  F

     Using Slab Decomposition

     bravais-lattice index     =            0
     lattice parameter (alat)  =       1.8897  a.u.
     unit-cell volume          =    6658.9804 (a.u.)^3
     number of atoms/cell      =           52
     number of atomic types    =            4
     number of electrons       =       391.00
     number of Kohn-Sham states=          205
     kinetic-energy cutoff     =      29.3995  Ry
     charge density cutoff     =     293.9946  Ry
     scf convergence threshold =      7.3E-08
     mixing beta               =       0.0500
     number of iterations used =            8  plain     mixing
     Exchange-correlation= BEEF-VDW
                           (   1   4  43  14   2   0   0)

     celldm(1)=   1.889726  celldm(2)=   0.000000  celldm(3)=   0.000000
     celldm(4)=   0.000000  celldm(5)=   0.000000  celldm(6)=   0.000000

     crystal axes: (cart. coord. in units of alat)
               a(1) = (   6.579727   0.000000   0.000000 )
               a(2) = (  -0.000775   5.961596   0.000000 )
               a(3) = (   0.000000   0.000000  25.155947 )

     reciprocal axes: (cart. coord. in units 2 pi/alat)
               b(1) = (  0.151982  0.000020  0.000000 )
               b(2) = (  0.000000  0.167740  0.000000 )
               b(3) = (  0.000000  0.000000  0.039752 )

     PseudoPot. # 1 for Ti read from file:
     /storage/coda1/p-amedford6/0/shared/rich_project_chbe-medford/medford-share/data/pseudos_module/espresso/nninc/pbe/van/Ti.UPF
     MD5 check sum: 8e4df49b7f0d34bbd5052bf3f5ea0213
     Pseudo is Ultrasoft, Zval = 12.0
     Generated by new atomic code, or converted to UPF format
     Using radial grid of  851 points,  6 beta functions with:
                l(1) =   0
                l(2) =   0
                l(3) =   1
                l(4) =   1
                l(5) =   2
                l(6) =   2
     Q(r) pseudized with  8 coefficients,  rinner =    1.000   1.000   1.000
                                                       1.000   1.000

     PseudoPot. # 2 for O  read from file:
     /storage/coda1/p-amedford6/0/shared/rich_project_chbe-medford/medford-share/data/pseudos_module/espresso/nninc/pbe/van/O.UPF
     MD5 check sum: 78c19812648e8988a0fe644b0f25305e
     Pseudo is Ultrasoft, Zval =  6.0
     Generated by new atomic code, or converted to UPF format
     Using radial grid of  737 points,  4 beta functions with:
                l(1) =   0
                l(2) =   0
                l(3) =   1
                l(4) =   1
     Q(r) pseudized with  8 coefficients,  rinner =    0.800   0.800   0.800

     PseudoPot. # 3 for C  read from file:
     /storage/coda1/p-amedford6/0/shared/rich_project_chbe-medford/medford-share/data/pseudos_module/espresso/nninc/pbe/van/C.UPF
     MD5 check sum: 1a69bf6b8db32088f5b2163dbdb77a27
     Pseudo is Ultrasoft, Zval =  4.0
     Generated by new atomic code, or converted to UPF format
     Using radial grid of  721 points,  4 beta functions with:
                l(1) =   0
                l(2) =   0
                l(3) =   1
                l(4) =   1
     Q(r) pseudized with  8 coefficients,  rinner =    0.800   0.800   0.800

     PseudoPot. # 4 for H  read from file:
     /storage/coda1/p-amedford6/0/shared/rich_project_chbe-medford/medford-share/data/pseudos_module/espresso/nninc/pbe/van/H.UPF
     MD5 check sum: b5ee9d7bfd3a09ee7748110bda690ff7
     Pseudo is Ultrasoft, Zval =  1.0
     Generated by new atomic code, or converted to UPF format
     Using radial grid of  615 points,  1 beta functions with:
                l(1) =   0
     Q(r) pseudized with  8 coefficients,  rinner =    0.800

     atomic species   valence    mass     pseudopotential
        Ti1           12.00    47.86700     Ti( 1.00)
        O1             6.00    15.99900     O ( 1.00)
        C1             4.00    12.01100     C ( 1.00)
        H1             1.00     1.00800     H ( 1.00)

     No symmetry found

   Cartesian axes

     site n.     atom                  positions (alat units)
         1           Ti1 tau(   1) = (   0.0004258   2.9801865   6.0000000  )
         2           Ti1 tau(   2) = (   3.2906075   1.4906267   6.0002472  )
         3           O1  tau(   3) = (   0.0006271   0.0005054   7.9858123  )
         4           O1  tau(   4) = (   3.2906025   0.0005020   7.3038282  )
         5           O1  tau(   5) = (   4.5942328   1.4918067   9.2879030  )
         6           O1  tau(   6) = (   1.9868534   1.4903216   9.2879459  )
         7           Ti1 tau(   7) = (   3.2576197   2.8654215   9.2214558  )
         8           Ti1 tau(   8) = (   6.5344909   1.4429808   9.3601258  )
         9           O1  tau(   9) = (   3.2692782   5.9266415  11.3199434  )
        10           O1  tau(  10) = (   6.5685443   5.9434748  10.5851361  )
        11           O1  tau(  11) = (   1.2543606   1.4786140  12.6270584  )
        12           O1  tau(  12) = (   5.2804994   1.4734118  12.6291387  )
        13           Ti1 tau(  13) = (   6.5561640   2.8465321  12.8092297  )
        14           Ti1 tau(  14) = (   3.2590950   1.2910582  12.6820668  )
        15           O1  tau(  15) = (   6.5637791   5.9505241  14.6246090  )
        16           O1  tau(  16) = (   3.2632455   0.0300109  13.9168947  )
        17           O1  tau(  17) = (   4.5093043   1.5331652  16.1230905  )
        18           O1  tau(  18) = (   1.9844652   1.5452522  16.1286669  )
        19           Ti1 tau(  19) = (   3.2766647   3.0056044  15.6806532  )
        20           Ti1 tau(  20) = (   0.0376264   1.5104518  16.1289793  )
        21           O1  tau(  21) = (   3.2904802   0.0005063   4.7018136  )
        22           O1  tau(  22) = (   6.5370995   5.9187843  17.1758003  )
        23           O1  tau(  23) = (   1.3043587   1.4918075   6.0039043  )
        24           O1  tau(  24) = (   5.2767064   1.4903225   6.0039473  )
        25           Ti1 tau(  25) = (   0.0000382   5.9609847   6.0000000  )
        26           Ti1 tau(  26) = (   3.2902200   4.4714249   6.0002472  )
        27           O1  tau(  27) = (   0.0002396   2.9813036   7.9858123  )
        28           O1  tau(  28) = (   3.2902150   2.9813002   7.3038282  )
        29           O1  tau(  29) = (   4.5938453   4.4726049   9.2879030  )
        30           O1  tau(  30) = (   1.9864658   4.4711199   9.2879459  )
        31           Ti1 tau(  31) = (   3.2565375   5.8496818   9.1814359  )
        32           Ti1 tau(  32) = (   6.5349656   4.3900073   9.3400910  )
        33           O1  tau(  33) = (   3.2728704   3.0037829  11.2907943  )
        34           O1  tau(  34) = (   6.5689136   2.9626257  10.5472476  )
        35           O1  tau(  35) = (   1.2549189   4.4436098  12.6280720  )
        36           O1  tau(  36) = (   5.2752285   4.4450423  12.6314263  )
        37           Ti1 tau(  37) = (   6.5445616   5.8332433  12.5976854  )
        38           Ti1 tau(  38) = (   3.2543598   4.3897341  12.4334224  )
        39           O1  tau(  39) = (   6.5579435   2.9355163  14.7117218  )
        40           O1  tau(  40) = (   3.2602875   2.9656724  13.9017019  )
        41           O1  tau(  41) = (   4.5395605   4.4315404  16.0360363  )
        42           O1  tau(  42) = (   2.0063696   4.4444213  16.0824092  )
        43           Ti1 tau(  43) = (   3.2990179   0.0081159  16.3450624  )
        44           Ti1 tau(  44) = (   6.5722952   4.6241161  15.8901152  )
        45           O1  tau(  45) = (   3.2900926   2.9813045   4.7018136  )
        46           O1  tau(  46) = (   1.3039711   4.4726057   6.0039043  )
        47           O1  tau(  47) = (   5.2763189   4.4711207   6.0039473  )
        48           C1  tau(  48) = (   6.5366691   2.9215611  17.7332970  )
        49           H1  tau(  49) = (   0.8393079   3.1163452  18.3454380  )
        50           H1  tau(  50) = (   5.6239513   3.1093896  18.3013171  )
        51           O1  tau(  51) = (   3.3457726   5.9061862  18.1608053  )
        52           H1  tau(  52) = (   4.0847859   0.2969366  18.6733355  )

     number of k points=    10  Fermi-Dirac smearing, width (Ry)=  0.0073
                       cart. coord. in units 2pi/alat
        k(    1) = (   0.0000000   0.0000000   0.0000000), wk =   0.1250000
        k(    2) = (   0.0000000   0.0419351   0.0000000), wk =   0.2500000
        k(    3) = (   0.0000000  -0.0838702   0.0000000), wk =   0.1250000
        k(    4) = (   0.0379955   0.0000049   0.0000000), wk =   0.2500000
        k(    5) = (   0.0379955   0.0419400   0.0000000), wk =   0.2500000
        k(    6) = (   0.0379955  -0.0838652   0.0000000), wk =   0.2500000
        k(    7) = (   0.0379955  -0.0419301   0.0000000), wk =   0.2500000
        k(    8) = (  -0.0759910  -0.0000099   0.0000000), wk =   0.1250000
        k(    9) = (  -0.0759910   0.0419252   0.0000000), wk =   0.2500000
        k(   10) = (  -0.0759910  -0.0838800   0.0000000), wk =   0.1250000

     Initial potential from superposition of free atoms

     starting charge  374.99918, renormalised to  391.00000

     negative rho (up, down):  1.929E-02 0.000E+00

     %%%%%%%%%%%%%%%%%%%%%%%%%%%%%%%%%%%%%%%%%%%%%%%%%%%%%%%%%%%%%%%%%%%%%%%%
     %                                                                      %
     % You are using vdW-DF, which was implemented by the Thonhauser group. %
     % Please cite the following two papers that made this development      %
     % possible and the two reviews that describe the various versions:     %
     %                                                                      %
     %   T. Thonhauser et al., PRL 115, 136402 (2015).                      %
     %   T. Thonhauser et al., PRB 76, 125112 (2007).                       %
     %   K. Berland et al., Rep. Prog. Phys. 78, 066501 (2015).             %
     %   D.C. Langreth et al., J. Phys.: Condens. Matter 21, 084203 (2009). %
     %                                                                      %
     %                                                                      %
     % If you are calculating the stress with vdW-DF, please also cite:     %
     %                                                                      %
     %   R. Sabatini et al., J. Phys.: Condens. Matter 24, 424209 (2012).   %
     %                                                                      %
     %%%%%%%%%%%%%%%%%%%%%%%%%%%%%%%%%%%%%%%%%%%%%%%%%%%%%%%%%%%%%%%%%%%%%%%%

     Adding external electric field

     Computed dipole along edir(3) :
        Dipole               -4.4316 Ry au,        -11.2641 Debye
        Dipole field         -0.0084 Ry au,

        Potential amp.        0.7752 Ry
        Total length         46.3494 bohr

     Starting wfcs are  295 atomic wfcs
  @ DRIVER MODE: Message from server: STATUS
  @ DRIVER MODE: Message from server: POSDATA
  @ DRIVER MODE: Reading and sharing cell
  @ DRIVER MODE: Reading and sharing positions
  @ DRIVER MODE: Received positions

     Self-consistent Calculation

     iteration #  1     ecut=    29.40 Ry     beta= 0.05
     Davidson diagonalization with overlap
     c_bands:  4 eigenvalues not converged
     c_bands:  2 eigenvalues not converged
     c_bands:  2 eigenvalues not converged
     c_bands:  2 eigenvalues not converged
     c_bands:  3 eigenvalues not converged
     c_bands:  1 eigenvalues not converged
     c_bands:  3 eigenvalues not converged
     c_bands:  1 eigenvalues not converged
     c_bands:  3 eigenvalues not converged
     ethr =  1.00E-05,  avg # of iterations = 19.9

[...]

     total energy              =   -2883.49595486 Ry
     estimated scf accuracy    <     546.50642384 Ry

     iteration #  2     ecut=    29.40 Ry     beta= 0.05
     Davidson diagonalization with overlap
     ethr =  1.00E-02,  avg # of iterations = 14.4

[...]

     iteration # 33     ecut=    29.40 Ry     beta= 0.05
     Davidson diagonalization with overlap
     c_bands:  1 eigenvalues not converged
     c_bands:  1 eigenvalues not converged
     c_bands:  1 eigenvalues not converged
     ethr =  5.31E-07,  avg # of iterations = 10.5

[...]

     total energy              =   -2931.27749283 Ry
     estimated scf accuracy    <       0.00000017 Ry

     iteration # 63     ecut=    29.40 Ry     beta= 0.05
     Davidson diagonalization with overlap
     ethr =  3.64E-11,  avg # of iterations =  5.0

     negative rho (up, down):  1.858E-02 0.000E+00

     Adding external electric field

     Computed dipole along edir(3) :
        Dipole                0.4323 Ry au,          1.0988 Debye
        Dipole field          0.0008 Ry au,

        Potential amp.       -0.0756 Ry
        Total length         46.3494 bohr

     End of self-consistent calculation

          k = 0.0000 0.0000 0.0000 ( 18029 PWs)   bands (ev):

   -56.6094 -56.5593 -56.1490 -56.0380 -55.9956 -55.9387 -55.9125 -55.8970
   -55.8542 -55.8127 -55.7836 -55.7265 -55.6793 -55.6101 -55.2190 -55.1851
   -33.0212 -32.8743 -32.8200 -32.7881 -32.6924 -32.6473 -32.4987 -32.4862
   -32.4666 -32.4048 -32.3736 -32.3506 -32.3077 -32.2853 -32.2666 -32.2429
   -32.2390 -32.2237 -32.2099 -32.1440 -32.1413 -32.1283 -32.1256 -32.1121
   -32.0994 -32.0944 -32.0897 -32.0865 -32.0608 -32.0407 -32.0169 -31.9996
   -31.9943 -31.9846 -31.9835 -31.9736 -31.9270 -31.8708 -31.8444 -31.8388
   -31.8219 -31.7893 -31.6135 -31.5594 -31.5350 -31.4302 -31.3452 -31.2345
   -16.9759 -16.7672 -16.6239 -16.4004 -16.2560 -16.1516 -15.9355 -15.9251
   -15.8033 -15.7861 -15.7614 -15.6300 -15.6168 -15.6004 -15.5604 -15.5393
   -15.5312 -15.5292 -15.5179 -15.4915 -15.4593 -15.4384 -15.3984 -15.3168
   -15.2415 -15.2342 -15.1989 -15.1433 -15.0800 -14.8606 -13.7216 -13.6133
    -8.9118  -4.6643  -4.2917  -4.0789  -3.9705  -3.8928  -3.7865  -3.6331
    -3.4341  -3.2953  -3.2460  -3.2092  -3.1609  -3.1451  -3.1240  -3.0795
    -3.0328  -2.9809  -2.9516  -2.8899  -2.8653  -2.8259  -2.7890  -2.7640
    -2.7487  -2.7304  -2.7240  -2.5894  -2.5245  -2.5143  -2.4675  -2.4654
    -2.4071  -2.3904  -2.3666  -2.3172  -2.2832  -2.1880  -2.1296  -2.0965
    -2.0508  -1.8294  -1.8111  -1.7454  -1.6710  -1.6182  -1.5599  -1.5171
    -1.4637  -1.4349  -1.3747  -1.3346  -1.2867  -1.2625  -1.2229  -1.1556
    -1.1355  -1.1005  -1.0392  -0.9633  -0.9176  -0.8487  -0.7833  -0.7460
    -0.6906  -0.6820  -0.6525  -0.5613  -0.4776  -0.4575  -0.4243  -0.3830
    -0.3660  -0.2946  -0.2816  -0.2389  -0.2224  -0.1457  -0.1309  -0.1015
    -0.0689  -0.0465  -0.0248   0.0414   0.1637   0.2316   0.2757   0.3120
     0.3285   0.4144   0.4340   0.5221   0.6770   0.7975   0.8367   1.0071
     1.0596   1.3484   1.3943   1.9251   2.6922   2.8566   3.1423   3.2445
     3.2810   3.3574   3.4020   3.4333   3.6318

[...]

          k = 0.0380-0.0419 0.0000 ( 17876 PWs)   bands (ev):

[...]

          k =-0.0760-0.0000 0.0000 ( 17886 PWs)   bands (ev):

[...]

          k =-0.0760-0.0839 0.0000 ( 17948 PWs)   bands (ev):

   -56.6029 -56.5656 -56.1483 -56.0356 -55.9896 -55.9446 -55.9147 -55.8976
   -55.8454 -55.8214 -55.7819 -55.7203 -55.6854 -55.6116 -55.2023 -55.2017
   -32.8701 -32.8537 -32.8239 -32.8218 -32.7547 -32.7229 -32.4247 -32.3813
   -32.3691 -32.3515 -32.3343 -32.2912 -32.2685 -32.2614 -32.2507 -32.2308
   -32.2151 -32.2027 -32.1919 -32.1832 -32.1640 -32.1628 -32.1406 -32.1370
   -32.1354 -32.1245 -32.1095 -32.1057 -32.0727 -32.0680 -32.0549 -32.0424
   -32.0033 -31.9958 -31.9880 -31.9876 -31.9544 -31.9307 -31.9110 -31.8724
   -31.8251 -31.8126 -31.5483 -31.5479 -31.4291 -31.4273 -31.3874 -31.3865
   -16.9647 -16.1455 -16.0839 -16.0744 -16.0612 -16.0313 -15.9898 -15.9183
   -15.9163 -15.8189 -15.7919 -15.7479 -15.7103 -15.6980 -15.6519 -15.6389
   -15.6262 -15.5635 -15.5214 -15.5025 -15.4870 -15.4745 -15.4536 -15.4287
   -15.4173 -15.3970 -15.3295 -15.2479 -15.2173 -15.0028 -13.7177 -13.7164
    -8.9196  -4.6555  -3.3825  -3.3280  -3.2492  -3.2307  -3.2191  -3.1504
    -3.0942  -3.0891  -3.0313  -3.0179  -2.9746  -2.9451  -2.9154  -2.9093
    -2.9022  -2.8926  -2.8790  -2.8553  -2.8011  -2.7983  -2.7805  -2.7713
    -2.7550  -2.7391  -2.7068  -2.6659  -2.6351  -2.6109  -2.5308  -2.4258
    -2.4201  -2.3869  -2.3552  -2.3226  -2.2806  -2.2591  -2.1830  -2.1757
    -2.1596  -2.1101  -2.0116  -1.7790  -1.7710  -1.7172  -1.6832  -1.6747
    -1.6120  -1.5428  -1.5360  -1.4514  -1.4482  -1.4347  -1.3347  -1.3167
    -1.2838  -1.2650  -1.2391  -1.2106  -1.1072  -1.0857  -1.0779  -1.0466
    -1.0010  -0.9800  -0.8882  -0.8698  -0.8517  -0.8238  -0.7418  -0.6895
    -0.6504  -0.6320  -0.4942  -0.4455  -0.4356  -0.2838  -0.2312  -0.1971
    -0.1757  -0.0882   0.0148   0.0557   0.1129   0.1601   0.2193   0.3258
     0.3382   0.3612   0.4255   0.4650   0.4723   0.4877   0.5646   1.1917
     1.1924   1.2006   1.2075   2.0839   3.2334   3.2589   3.2710   3.3044
     3.5175   3.5406   3.5514   3.6095   3.6505

     the Fermi energy is     2.0048 ev

!    total energy              =   -2931.27752110 Ry
     estimated scf accuracy    <       0.00000006 Ry
     smearing contrib. (-TS)   =      -0.01004620 Ry
     internal energy E=F+TS    =   -2931.26747490 Ry

     The total energy is F=E-TS. E is the sum of the following terms:
     one-electron contribution =  -24332.09194690 Ry
     hartree contribution      =   12249.82883258 Ry
     xc contribution           =    -481.70345219 Ry
     ewald contribution        =    9632.69873892 Ry
     electric field correction =       0.00035270 Ry

     convergence has been achieved in  63 iterations

     Forces acting on atoms (cartesian axes, Ry/au):

     atom    1 type  1   force =     0.00036273   -0.00077547    0.13235456
     atom    2 type  1   force =     0.00014016    0.00690794   -0.15729247
     atom    3 type  2   force =    -0.00018493    0.00281946   -0.05348845
     atom    4 type  2   force =    -0.00072868   -0.00116683    0.04120261
     atom    5 type  2   force =    -0.01140566   -0.00238350    0.00285098
     atom    6 type  2   force =     0.00918878   -0.00643685    0.00178099
     atom    7 type  1   force =     0.00043654    0.00029289   -0.00039431
     atom    8 type  1   force =     0.00019617   -0.00002083    0.00094236
     atom    9 type  2   force =    -0.00002347    0.00044475    0.00040297
     atom   10 type  2   force =     0.00025356    0.00023268   -0.00010423
     atom   11 type  2   force =     0.00051455    0.00033588    0.00026155
     atom   12 type  2   force =    -0.00015295    0.00027303   -0.00025806
     atom   13 type  1   force =    -0.00026308   -0.00048132   -0.00091252
     atom   14 type  1   force =     0.00020850    0.00049943   -0.00023630
     atom   15 type  2   force =     0.00006995   -0.00015564    0.00148425
     atom   16 type  2   force =     0.00048643   -0.00020640    0.00013522
     atom   17 type  2   force =     0.00030557   -0.00026639   -0.00045046
     atom   18 type  2   force =    -0.00103754   -0.00035698   -0.00024076
     atom   19 type  1   force =     0.00110973   -0.00008120   -0.00017510
     atom   20 type  1   force =    -0.00034700    0.00031997   -0.00015121
     atom   21 type  2   force =     0.00021115    0.00008749    0.09901199
     atom   22 type  2   force =     0.00004978    0.00086205   -0.00105451
     atom   23 type  2   force =    -0.08051728    0.00137377   -0.03418011
     atom   24 type  2   force =     0.08059438    0.00190309   -0.03418817
     atom   25 type  1   force =     0.00030536   -0.00010532    0.14243852
     atom   26 type  1   force =     0.00016562   -0.00836983   -0.15756938
     atom   27 type  2   force =    -0.00039100   -0.00117179   -0.05198642
     atom   28 type  2   force =    -0.00064049   -0.00038187    0.04300053
     atom   29 type  2   force =    -0.01011224    0.00503512    0.00017685
     atom   30 type  2   force =     0.00778848    0.00127845   -0.00110567
     atom   31 type  1   force =     0.00009855    0.00000758   -0.00027281
     atom   32 type  1   force =     0.00009124   -0.00043542    0.00097052
     atom   33 type  2   force =     0.00003594   -0.00033704   -0.00006059
     atom   34 type  2   force =     0.00024537    0.00012440   -0.00024671
     atom   35 type  2   force =    -0.00050058    0.00034496    0.00018468
     atom   36 type  2   force =     0.00130649    0.00030597   -0.00025105
     atom   37 type  1   force =     0.00001398   -0.00019563   -0.00043037
     atom   38 type  1   force =     0.00029153   -0.00009054   -0.00018042
     atom   39 type  2   force =     0.00002559    0.00008908    0.00012612
     atom   40 type  2   force =     0.00040031    0.00009881   -0.00037049
     atom   41 type  2   force =    -0.00104285    0.00019091   -0.00004641
     atom   42 type  2   force =     0.00026720    0.00026903   -0.00030094
     atom   43 type  1   force =     0.00109485    0.00049987    0.00038419
     atom   44 type  1   force =    -0.00030161    0.00038793   -0.00025647
     atom   45 type  2   force =     0.00020162   -0.00000109    0.09858404
     atom   46 type  2   force =    -0.08050400   -0.00109696   -0.03416204
     atom   47 type  2   force =     0.08059617   -0.00055928   -0.03424453
     atom   48 type  3   force =     0.00004138    0.00027323   -0.00016586
     atom   49 type  4   force =    -0.00022965   -0.00018762    0.00003915
     atom   50 type  4   force =     0.00018023    0.00016046   -0.00014212
     atom   51 type  2   force =    -0.00558459   -0.00217586   -0.00533737
     atom   52 type  4   force =     0.00668973    0.00202142    0.00392423

     Total force =     0.383914     Total SCF correction =     0.000876
  @ DRIVER MODE: Message from server: STATUS
  @ DRIVER MODE: Message from server: GETFORCE
  @ DRIVER MODE: Returning v,forces,stress,ensemble

     Writing output data file ./calc.save/
  @ DRIVER MODE: Message from server: EXIT
  @ DRIVE MODE: Exiting

     General routines

     Parallel routines

   This run was terminated on:  23:21:20  22Sep2021

   JOB DONE.