     Program PWSCF v.6.7GPU starts on 16Jul2021 at 19:32: 5

     R & G space division:  proc/nbgrp/npool/nimage =      16
     Reading input from /storage/home/hcoda1/3/ntian30/research/carbon/15Jul_vib/ads_slab/CH3NNHH_a/out_0041/pw.inp
Warning: card &CELL ignored
Warning: card   CELL_DYNAMICS='IPI', ignored
Warning: card / ignored

     Current dimensions of program PWSCF are:
     Max number of different atomic species (ntypx) = 10
     Max number of k-points (npk) =  40000
     Max angular momentum in pseudopotentials (lmaxx) =  3
     Presently no symmetry can be used with electric field

     Message from routine cell_base_init:
     DEPRECATED: use true lattice parameter, not A to a.u. conversion factor

     IMPORTANT: XC functional enforced from input :
     Exchange-correlation= BEEF-VDW
                           (   1   4  43  14   2   0   0)
     Any further DFT definition will be discarded
     Please, verify this is what you really want

  @ DRIVER MODE: Connecting to
 qe_1139763_2351651.sched-torque.pace.gatech.edud7edis2x_scratch
  using UNIX socket
  @ DRIVER MODE: Message from server: STATUS
  @ DRIVER MODE: Message from server: INIT
  @ DRIVER MODE: Receiving replica           0          -1
  @ DRIVER MODE: Receiving encoded integer          25
  @ DRIVER MODE:  SCF:  T  FORCE:  T  STRESS:  F  VC:  F  ENSEMBLE:  F
  @ DRIVER MODE:  SCF:  T  FORCE:  T  STRESS:  F  VC:  F  ENSEMBLE:  F

     Using Slab Decomposition

     bravais-lattice index     =            0
     lattice parameter (alat)  =       1.8897  a.u.
     unit-cell volume          =    6658.9804 (a.u.)^3
     number of atoms/cell      =           55
     number of atomic types    =            5
     number of electrons       =       397.00
     number of Kohn-Sham states=          208
     kinetic-energy cutoff     =      29.3995  Ry
     charge density cutoff     =     293.9946  Ry
     scf convergence threshold =      7.3E-08
     mixing beta               =       0.0500
     number of iterations used =            8  plain     mixing
     Exchange-correlation= BEEF-VDW
                           (   1   4  43  14   2   0   0)

     celldm(1)=   1.889726  celldm(2)=   0.000000  celldm(3)=   0.000000
     celldm(4)=   0.000000  celldm(5)=   0.000000  celldm(6)=   0.000000

     crystal axes: (cart. coord. in units of alat)
               a(1) = (   6.579727   0.000000   0.000000 )
               a(2) = (  -0.000775   5.961596   0.000000 )
               a(3) = (   0.000000   0.000000  25.155947 )

     reciprocal axes: (cart. coord. in units 2 pi/alat)
               b(1) = (  0.151982  0.000020  0.000000 )
               b(2) = (  0.000000  0.167740  0.000000 )
               b(3) = (  0.000000  0.000000  0.039752 )

     PseudoPot. # 1 for Ti read from file:
     /storage/coda1/p-amedford6/0/shared/rich_project_chbe-medford/medford-share/data/pseudos_module/espresso/nninc/pbe/van/Ti.UPF
     MD5 check sum: 8e4df49b7f0d34bbd5052bf3f5ea0213
     Pseudo is Ultrasoft, Zval = 12.0
     Generated by new atomic code, or converted to UPF format
     Using radial grid of  851 points,  6 beta functions with:
                l(1) =   0
                l(2) =   0
                l(3) =   1
                l(4) =   1
                l(5) =   2
                l(6) =   2
     Q(r) pseudized with  8 coefficients,  rinner =    1.000   1.000   1.000
                                                       1.000   1.000

     PseudoPot. # 2 for O  read from file:
     /storage/coda1/p-amedford6/0/shared/rich_project_chbe-medford/medford-share/data/pseudos_module/espresso/nninc/pbe/van/O.UPF
     MD5 check sum: 78c19812648e8988a0fe644b0f25305e
     Pseudo is Ultrasoft, Zval =  6.0
     Generated by new atomic code, or converted to UPF format
     Using radial grid of  737 points,  4 beta functions with:
                l(1) =   0
                l(2) =   0
                l(3) =   1
                l(4) =   1
     Q(r) pseudized with  8 coefficients,  rinner =    0.800   0.800   0.800

     PseudoPot. # 3 for N  read from file:
     /storage/coda1/p-amedford6/0/shared/rich_project_chbe-medford/medford-share/data/pseudos_module/espresso/nninc/pbe/van/N.UPF
     MD5 check sum: 90d10febe142ad51ac9d5be1deb811c4
     Pseudo is Ultrasoft, Zval =  5.0
     Generated by new atomic code, or converted to UPF format
     Using radial grid of  729 points,  4 beta functions with:
                l(1) =   0
                l(2) =   0
                l(3) =   1
                l(4) =   1
     Q(r) pseudized with  8 coefficients,  rinner =    0.800   0.800   0.800

     PseudoPot. # 4 for C  read from file:
     /storage/coda1/p-amedford6/0/shared/rich_project_chbe-medford/medford-share/data/pseudos_module/espresso/nninc/pbe/van/C.UPF
     MD5 check sum: 1a69bf6b8db32088f5b2163dbdb77a27
     Pseudo is Ultrasoft, Zval =  4.0
     Generated by new atomic code, or converted to UPF format
     Using radial grid of  721 points,  4 beta functions with:
                l(1) =   0
                l(2) =   0
                l(3) =   1
                l(4) =   1
     Q(r) pseudized with  8 coefficients,  rinner =    0.800   0.800   0.800

     PseudoPot. # 5 for H  read from file:
     /storage/coda1/p-amedford6/0/shared/rich_project_chbe-medford/medford-share/data/pseudos_module/espresso/nninc/pbe/van/H.UPF
     MD5 check sum: b5ee9d7bfd3a09ee7748110bda690ff7
     Pseudo is Ultrasoft, Zval =  1.0
     Generated by new atomic code, or converted to UPF format
     Using radial grid of  615 points,  1 beta functions with:
                l(1) =   0
     Q(r) pseudized with  8 coefficients,  rinner =    0.800

     atomic species   valence    mass     pseudopotential
        Ti1           12.00    47.86700     Ti( 1.00)
        O1             6.00    15.99900     O ( 1.00)
        N1             5.00    14.00700     N ( 1.00)
        C1             4.00    12.01100     C ( 1.00)
        H1             1.00     1.00800     H ( 1.00)

     Starting magnetic structure
     atomic species   magnetization
        Ti1          0.000
        O1           0.000
        N1           0.000
        C1           0.025
        H1           0.000

     No symmetry found

   Cartesian axes

     site n.     atom                  positions (alat units)
         1           Ti1 tau(   1) = (   0.0004258   2.9801865   6.0000000  )
         2           Ti1 tau(   2) = (   3.2906075   1.4906267   6.0002472  )
         3           O1  tau(   3) = (   0.0006271   0.0005054   7.9858123  )
         4           O1  tau(   4) = (   3.2906025   0.0005020   7.3038282  )
         5           O1  tau(   5) = (   4.5942328   1.4918067   9.2879030  )
         6           O1  tau(   6) = (   1.9868534   1.4903216   9.2879459  )
         7           Ti1 tau(   7) = (   3.2907910   2.8959150   9.1758416  )
         8           Ti1 tau(   8) = (   0.0015273   1.4827037   9.2680791  )
         9           O1  tau(   9) = (   3.3020592   5.9599881  11.3075072  )
        10           O1  tau(  10) = (   0.0116148   5.9584955  10.6183126  )
        11           O1  tau(  11) = (   1.3218652   1.4872367  12.6142461  )
        12           O1  tau(  12) = (   5.3149618   1.4866655  12.6283206  )
        13           Ti1 tau(  13) = (   6.5343381   3.0098038  12.6530281  )
        14           Ti1 tau(  14) = (   3.2132235   1.4912063  12.4551521  )
        15           O1  tau(  15) = (   0.0515422   5.9562953  14.6829507  )
        16           O1  tau(  16) = (   3.3088797   0.0214154  13.8770011  )
        17           O1  tau(  17) = (   4.5726725   1.5412406  16.1224456  )
        18           O1  tau(  18) = (   2.0900022   1.5114086  15.9969863  )
        19           Ti1 tau(  19) = (   3.3311046   3.0200058  15.6476981  )
        20           Ti1 tau(  20) = (   0.0790784   1.4105808  15.8036947  )
        21           O1  tau(  21) = (   3.2904802   0.0005063   4.7018136  )
        22           O1  tau(  22) = (   0.0613336   0.0214447  17.2555488  )
        23           O1  tau(  23) = (   1.3043587   1.4918075   6.0039043  )
        24           O1  tau(  24) = (   5.2767064   1.4903225   6.0039473  )
        25           Ti1 tau(  25) = (   0.0000382   5.9609847   6.0000000  )
        26           Ti1 tau(  26) = (   3.2902200   4.4714249   6.0002472  )
        27           O1  tau(  27) = (   0.0002396   2.9813036   7.9858123  )
        28           O1  tau(  28) = (   3.2902150   2.9813002   7.3038282  )
        29           O1  tau(  29) = (   4.5938453   4.4726049   9.2879030  )
        30           O1  tau(  30) = (   1.9864658   4.4711199   9.2879459  )
        31           Ti1 tau(  31) = (   3.2891106   5.8743827   9.1763621  )
        32           Ti1 tau(  32) = (   0.0006254   4.4649316   9.2693709  )
        33           O1  tau(  33) = (   3.3026341   2.9893090  11.3092672  )
        34           O1  tau(  34) = (   0.0092240   2.9805883  10.6323155  )
        35           O1  tau(  35) = (   1.3182942   4.4670451  12.6271195  )
        36           O1  tau(  36) = (   5.3124783   4.4780259  12.6376329  )
        37           Ti1 tau(  37) = (   6.5365500   0.0194685  12.5464133  )
        38           Ti1 tau(  38) = (   3.2155898   4.4753301  12.4613306  )
        39           O1  tau(  39) = (   0.0167368   2.9407051  14.7244952  )
        40           O1  tau(  40) = (   3.3149560   2.9822459  13.8616979  )
        41           O1  tau(  41) = (   4.5706274   4.5128733  15.9228735  )
        42           O1  tau(  42) = (   2.1262058   4.4922812  16.0793225  )
        43           Ti1 tau(  43) = (   3.3222298   0.0210159  15.6751784  )
        44           Ti1 tau(  44) = (   6.5499002   4.5104744  16.2959303  )
        45           O1  tau(  45) = (   3.2900926   2.9813045   4.7018136  )
        46           O1  tau(  46) = (   1.3039711   4.4726057   6.0039043  )
        47           O1  tau(  47) = (   5.2763189   4.4711207   6.0039473  )
        48           N1  tau(  48) = (   0.3735289   2.9861087  17.6038306  )
        49           C1  tau(  49) = (   1.3580301   2.7301661  18.6431808  )
        50           H1  tau(  50) = (   1.5128655   3.6233449  19.2641712  )
        51           H1  tau(  51) = (   1.0354786   1.8978442  19.2795547  )
        52           H1  tau(  52) = (   2.3065860   2.4473273  18.1987077  )
        53           N1  tau(  53) = (   5.7326324   3.4596218  18.1373629  )
        54           H1  tau(  54) = (   5.8436824   4.0267099  18.9648678  )
        55           H1  tau(  55) = (   5.0375616   2.7244768  18.2555579  )

     number of k points=    10  Fermi-Dirac smearing, width (Ry)=  0.0073
                       cart. coord. in units 2pi/alat
        k(    1) = (   0.0000000   0.0000000   0.0000000), wk =   0.0625000
        k(    2) = (   0.0000000   0.0419351   0.0000000), wk =   0.1250000
        k(    3) = (   0.0000000  -0.0838702   0.0000000), wk =   0.0625000
        k(    4) = (   0.0379955   0.0000049   0.0000000), wk =   0.1250000
        k(    5) = (   0.0379955   0.0419400   0.0000000), wk =   0.1250000
        k(    6) = (   0.0379955  -0.0838652   0.0000000), wk =   0.1250000
[...]
     % You are using vdW-DF, which was implemented by the Thonhauser group. %
     % Please cite the following two papers that made this development      %
     % possible and the two reviews that describe the various versions:     %
     %                                                                      %
     %   T. Thonhauser et al., PRL 115, 136402 (2015).                      %
     %   T. Thonhauser et al., PRB 76, 125112 (2007).                       %
     %   K. Berland et al., Rep. Prog. Phys. 78, 066501 (2015).             %
     %   D.C. Langreth et al., J. Phys.: Condens. Matter 21, 084203 (2009). %
     %                                                                      %
     %                                                                      %
     % If you are calculating the stress with vdW-DF, please also cite:     %
     %                                                                      %
     %   R. Sabatini et al., J. Phys.: Condens. Matter 24, 424209 (2012).   %
     %                                                                      %
     %%%%%%%%%%%%%%%%%%%%%%%%%%%%%%%%%%%%%%%%%%%%%%%%%%%%%%%%%%%%%%%%%%%%%%%%

     Adding external electric field

     Computed dipole along edir(3) :
        Dipole               -9.2574 Ry au,        -23.5299 Debye
        Dipole field         -0.0175 Ry au,

        Potential amp.        1.6194 Ry
        Total length         46.3494 bohr

[...]

     Starting wfcs are  301 atomic wfcs
  @ DRIVER MODE: Message from server: STATUS
  @ DRIVER MODE: Message from server: POSDATA
  @ DRIVER MODE: Reading and sharing cell
  @ DRIVER MODE: Reading and sharing positions
  @ DRIVER MODE: Received positions

     Self-consistent Calculation

     iteration #  1     ecut=    29.40 Ry     beta= 0.05
     Davidson diagonalization with overlap
     c_bands:  1 eigenvalues not converged
     c_bands:  2 eigenvalues not converged
     c_bands:  1 eigenvalues not converged
     c_bands:  2 eigenvalues not converged
     c_bands:  2 eigenvalues not converged
     c_bands:  2 eigenvalues not converged
     c_bands:  2 eigenvalues not converged
     c_bands:  1 eigenvalues not converged
     c_bands:  4 eigenvalues not converged
     c_bands:  1 eigenvalues not converged
     c_bands:  2 eigenvalues not converged
     c_bands:  1 eigenvalues not converged
     c_bands:  2 eigenvalues not converged
     c_bands:  2 eigenvalues not converged
     c_bands:  2 eigenvalues not converged
     c_bands:  2 eigenvalues not converged
     c_bands:  1 eigenvalues not converged
     c_bands:  4 eigenvalues not converged
     ethr =  1.00E-05,  avg # of iterations = 19.8

[...]

     total energy              =   -2525.28757089 Ry
     estimated scf accuracy    <    4616.09909409 Ry

     total magnetization       =     0.00 Bohr mag/cell
     absolute magnetization    =     0.03 Bohr mag/cell

     iteration #  2     ecut=    29.40 Ry     beta= 0.05
     Davidson diagonalization with overlap
     ethr =  1.00E-02,  avg # of iterations = 23.4

[...]

     iteration # 59     ecut=    29.40 Ry     beta= 0.05
     Davidson diagonalization with overlap
     c_bands:  2 eigenvalues not converged
     c_bands:  1 eigenvalues not converged
     ethr =  3.62E-11,  avg # of iterations = 10.2

[...]

     total energy              =   -2941.63792726 Ry
     estimated scf accuracy    <       0.00000009 Ry

[...]

     iteration # 61     ecut=    29.40 Ry     beta= 0.05
     Davidson diagonalization with overlap
     ethr =  2.22E-11,  avg # of iterations =  2.1

     negative rho (up, down):  8.400E-03 8.399E-03

[...]

     Adding external electric field

     Computed dipole along edir(3) :
        Dipole                1.1469 Ry au,          2.9152 Debye
        Dipole field          0.0022 Ry au,

        Potential amp.       -0.2006 Ry
        Total length         46.3494 bohr

     Magnetic moment per site  (integrated on atomic sphere of radius R)
     atom   1 (R=0.726)  charge=  7.9408  magn= -0.0080
     atom   2 (R=0.726)  charge=  7.9243  magn= -0.0006
     atom   3 (R=0.726)  charge=  4.9319  magn=  0.0006
     atom   4 (R=0.726)  charge=  4.9681  magn=  0.0001
     atom   5 (R=0.726)  charge=  4.9368  magn=  0.0000
     atom   6 (R=0.726)  charge=  4.9376  magn=  0.0000
     atom   7 (R=0.726)  charge=  7.9229  magn= -0.0003
     atom   8 (R=0.726)  charge=  7.9151  magn= -0.0023
     atom   9 (R=0.726)  charge=  4.9562  magn=  0.0000
     atom  10 (R=0.726)  charge=  4.9310  magn=  0.0002
     atom  11 (R=0.726)  charge=  4.9388  magn=  0.0001
     atom  12 (R=0.726)  charge=  4.9369  magn=  0.0001
     atom  13 (R=0.726)  charge=  7.9088  magn= -0.0005
     atom  14 (R=0.726)  charge=  7.9273  magn= -0.0002
     atom  15 (R=0.726)  charge=  4.9165  magn=  0.0000
     atom  16 (R=0.726)  charge=  4.9542  magn=  0.0000
     atom  17 (R=0.726)  charge=  4.9068  magn=  0.0000
     atom  18 (R=0.726)  charge=  4.9387  magn=  0.0000
     atom  19 (R=0.726)  charge=  7.9528  magn= -0.0000
     atom  20 (R=0.726)  charge=  7.9410  magn= -0.0001
     atom  21 (R=0.726)  charge=  4.8211  magn=  0.0007
     atom  22 (R=0.726)  charge=  4.9008  magn=  0.0000
     atom  23 (R=0.726)  charge=  4.9281  magn=  0.0010
     atom  24 (R=0.726)  charge=  4.9282  magn=  0.0010
     atom  25 (R=0.726)  charge=  7.9408  magn= -0.0080
     atom  26 (R=0.726)  charge=  7.9243  magn= -0.0006
     atom  27 (R=0.726)  charge=  4.9305  magn=  0.0006
     atom  28 (R=0.726)  charge=  4.9683  magn=  0.0001
     atom  29 (R=0.726)  charge=  4.9375  magn=  0.0001
     atom  30 (R=0.726)  charge=  4.9383  magn=  0.0001
     atom  31 (R=0.726)  charge=  7.9236  magn= -0.0003
     atom  32 (R=0.726)  charge=  7.9153  magn= -0.0023
     atom  33 (R=0.726)  charge=  4.9540  magn=  0.0000
     atom  34 (R=0.726)  charge=  4.9048  magn=  0.0002
     atom  35 (R=0.726)  charge=  4.9378  magn=  0.0001
     atom  36 (R=0.726)  charge=  4.9369  magn=  0.0001
     atom  37 (R=0.726)  charge=  7.9159  magn= -0.0006
     atom  38 (R=0.726)  charge=  7.9271  magn= -0.0002
     atom  39 (R=0.726)  charge=  4.9089  magn=  0.0000
     atom  40 (R=0.726)  charge=  4.9620  magn=  0.0000
     atom  41 (R=0.726)  charge=  4.9464  magn=  0.0000
     atom  42 (R=0.726)  charge=  4.9157  magn= -0.0000
     atom  43 (R=0.726)  charge=  7.9490  magn= -0.0000
     atom  44 (R=0.726)  charge=  7.9598  magn= -0.0000
     atom  45 (R=0.726)  charge=  4.8212  magn=  0.0007
     atom  46 (R=0.726)  charge=  4.9281  magn=  0.0010
     atom  47 (R=0.726)  charge=  4.9282  magn=  0.0010
     atom  48 (R=0.416)  charge=  1.2895  magn= -0.0000
     atom  49 (R=0.448)  charge=  0.8406  magn=  0.0000
     atom  50 (R=0.416)  charge=  0.4343  magn= -0.0000
     atom  51 (R=0.416)  charge=  0.4332  magn= -0.0000
     atom  52 (R=0.416)  charge=  0.4412  magn= -0.0000
     atom  53 (R=0.416)  charge=  1.3134  magn= -0.0000
     atom  54 (R=0.416)  charge=  0.4519  magn=  0.0000
     atom  55 (R=0.416)  charge=  0.4420  magn= -0.0000

     End of self-consistent calculation

 ------ SPIN UP ------------

          k = 0.0000 0.0000 0.0000 ( 18029 PWs)   bands (ev):

   -55.5744 -55.5636 -55.5366 -55.5295 -55.4606 -55.4235 -55.4233 -55.3879
   -55.3688 -55.3347 -55.3272 -55.2933 -55.0312 -54.8749 -54.5371 -54.5031
   -32.1364 -32.0490 -31.9586 -31.8920 -31.8880 -31.8688 -31.8550 -31.8195
   -31.8055 -31.8044 -31.7844 -31.7591 -31.7547 -31.7262 -31.7156 -31.7143
   -31.6708 -31.6601 -31.6582 -31.6481 -31.6473 -31.6192 -31.6129 -31.5958
   -31.5703 -31.5676 -31.5654 -31.5569 -31.5567 -31.5307 -31.5058 -31.5028
   -31.4947 -31.4921 -31.4813 -31.4721 -31.4405 -31.3054 -31.2561 -31.1549
   -31.1275 -31.0358 -30.9435 -30.8566 -30.8341 -30.7604 -30.6739 -30.5628
   -17.5945 -16.3619 -16.0495 -15.8351 -15.7265 -15.7230 -15.6385 -15.4174
   -15.2958 -15.2816 -15.1662 -15.1623 -15.1033 -15.0613 -15.0538 -15.0468
   -15.0141 -15.0029 -14.9853 -14.9489 -14.9163 -14.8981 -14.8748 -14.7728
   -14.7061 -14.7005 -14.6821 -14.6176 -14.5697 -14.2103 -13.0407 -12.9245
   -12.5499  -9.2107  -6.3826  -5.0896  -4.1935  -3.7402  -3.5505  -3.4739
    -3.4386  -3.3708  -3.3543  -3.1812  -3.1733  -2.7944  -2.7750  -2.7570
    -2.7358  -2.7323  -2.4634  -2.4104  -2.3954  -2.3921  -2.3743  -2.3574
    -2.3365  -2.3259  -2.2986  -2.2874  -2.1541  -2.1107  -2.0317  -2.0053
    -1.9900  -1.8787  -1.8534  -1.8334  -1.8218  -1.8082  -1.7789  -1.7723
    -1.7504  -1.6422  -1.5330  -1.4538  -1.4135  -1.3606  -1.3405  -1.1637
    -1.1103  -1.0510  -1.0276  -1.0028  -0.9884  -0.9548  -0.8802  -0.8552
    -0.7135  -0.6747  -0.6207  -0.5947  -0.5660  -0.5095  -0.4763  -0.4463
    -0.3511  -0.3383  -0.3275  -0.3149  -0.2591  -0.0667  -0.0183   0.0005
     0.0154   0.1149   0.1544   0.1797   0.2130   0.2696   0.2982   0.3626
     0.3915   0.4113   0.4220   0.4510   0.4675   0.5998   0.6258   0.6554
     0.7170   0.7704   0.8462   0.9590   1.0411   1.0975   1.1994   1.4169
     1.4842   1.5690   1.6778   1.7082   2.0533   2.0987   3.5691   3.6634
     3.6949   3.7093   3.8151   3.8669   4.0167   4.0259   4.0652   4.0948

[...]

          k =-0.0760-0.0000 0.0000 ( 17886 PWs)   bands (ev):

[...]

 ------ SPIN DOWN ----------

[...]

          k = 0.0380-0.0419 0.0000 ( 17876 PWs)   bands (ev):

[...]

          k =-0.0760-0.0839 0.0000 ( 17948 PWs)   bands (ev):

   -55.5622 -55.5611 -55.5610 -55.5503 -55.4504 -55.4356 -55.4095 -55.4019
   -55.3575 -55.3543 -55.3125 -55.3089 -55.0301 -54.8761 -54.5216 -54.5215
   -31.9424 -31.9319 -31.8713 -31.8705 -31.8577 -31.8567 -31.8442 -31.8277
   -31.8028 -31.7889 -31.7684 -31.7487 -31.7234 -31.7127 -31.7072 -31.6831
   -31.6821 -31.6817 -31.6814 -31.6701 -31.6667 -31.6536 -31.6501 -31.6476
   -31.6273 -31.6134 -31.6032 -31.6025 -31.5542 -31.5521 -31.5453 -31.5429
   -31.5366 -31.5331 -31.5275 -31.5256 -31.4113 -31.3167 -31.2581 -31.2162
   -31.1331 -31.0470 -30.8484 -30.8484 -30.7575 -30.7574 -30.7187 -30.7186
   -17.5827 -15.8217 -15.7818 -15.5267 -15.5179 -15.5152 -15.4752 -15.3514
   -15.3027 -15.2768 -15.2657 -15.2472 -15.2386 -15.1375 -15.1234 -15.1072
   -15.0967 -15.0701 -15.0270 -15.0219 -15.0132 -15.0034 -14.9919 -14.9253
   -14.8732 -14.8693 -14.7550 -14.6635 -14.5231 -14.4355 -13.0245 -13.0243
   -12.5688  -9.1723  -6.3416  -5.1187  -4.1265  -3.4237  -3.1223  -3.0748
    -2.7869  -2.7674  -2.7523  -2.6389  -2.5194  -2.5101  -2.4842  -2.4624
    -2.4281  -2.4153  -2.4050  -2.3970  -2.3791  -2.3611  -2.3502  -2.3105
    -2.2418  -2.2338  -2.2254  -2.2175  -2.2008  -2.1772  -2.1663  -2.1393
    -2.1148  -2.0797  -2.0205  -1.9898  -1.8400  -1.7963  -1.7343  -1.6964
    -1.6878  -1.6589  -1.6253  -1.6179  -1.5067  -1.4922  -1.4586  -1.3289
    -1.2682  -1.2601  -1.2276  -1.1399  -1.1013  -0.9723  -0.9591  -0.9219
    -0.8663  -0.8586  -0.8218  -0.7836  -0.7325  -0.6804  -0.6367  -0.6141
    -0.5960  -0.5243  -0.5237  -0.4764  -0.4205  -0.3502  -0.3274  -0.3198
    -0.2870  -0.2436  -0.1965  -0.1332  -0.0576  -0.0380  -0.0235   0.0756
     0.1488   0.3682   0.4150   0.5121   0.5340   0.5622   0.6212   0.6712
     0.7399   0.7554   0.7831   0.8571   0.8797   0.9706   0.9821   0.9994
     1.1769   1.6435   1.8508   1.8517   1.9197   1.9202   3.8568   3.8729
     3.8971   3.9208   4.0784   4.0821   4.0961   4.0988   4.2197   4.2521

     the Fermi energy is     3.5632 ev

!    total energy              =   -2941.63798406 Ry
     estimated scf accuracy    <       0.00000007 Ry
     smearing contrib. (-TS)   =      -0.02171105 Ry
     internal energy E=F+TS    =   -2941.61627300 Ry

     The total energy is F=E-TS. E is the sum of the following terms:
     one-electron contribution =  -24388.63305778 Ry
     hartree contribution      =   12286.26962071 Ry
     xc contribution           =    -486.94811891 Ry
     ewald contribution        =    9647.69280057 Ry
     electric field correction =       0.00248241 Ry

     total magnetization       =    -0.03 Bohr mag/cell
     absolute magnetization    =     0.05 Bohr mag/cell

     convergence has been achieved in  61 iterations

     Forces acting on atoms (cartesian axes, Ry/au):

     atom    1 type  1   force =    -0.00000914   -0.00019997    0.09685577
     atom    2 type  1   force =     0.00009305   -0.00068982   -0.17460284
     atom    3 type  2   force =     0.00018343   -0.00006112   -0.02511923
     atom    4 type  2   force =     0.00000730   -0.00124835    0.05114977
     atom    5 type  2   force =    -0.01125222   -0.00080105    0.00228117
     atom    6 type  2   force =     0.01309712   -0.00035024    0.00272354
     atom    7 type  1   force =     0.00100494    0.00022415   -0.01337775
     atom    8 type  1   force =    -0.00009873    0.01532502    0.02827464
     atom    9 type  2   force =    -0.00007257   -0.00001217    0.00008705
     atom   10 type  2   force =    -0.00233973    0.00080567   -0.01059809
     atom   11 type  2   force =     0.00035193    0.00005538   -0.00001699
     atom   12 type  2   force =    -0.00043059   -0.00006621    0.00025201
     atom   13 type  1   force =     0.00014643   -0.00019176   -0.00005087
     atom   14 type  1   force =     0.00010127   -0.00022533    0.00004084
     atom   15 type  2   force =    -0.00005032    0.00017543   -0.00012046
     atom   16 type  2   force =    -0.00020067    0.00003104   -0.00019489
     atom   17 type  2   force =    -0.00010041    0.00006555   -0.00004280
     atom   18 type  2   force =    -0.00016289    0.00000601   -0.00017819
     atom   19 type  1   force =    -0.00033251    0.00020274    0.00002843
     atom   20 type  1   force =     0.00006026   -0.00036368    0.00020356
     atom   21 type  2   force =     0.00003935   -0.00009361    0.10300634
     atom   22 type  2   force =    -0.00011357    0.00031484    0.00062127
     atom   23 type  2   force =    -0.07180261   -0.00021171   -0.02780888
     atom   24 type  2   force =     0.07176011    0.00024482   -0.02786640
     atom   25 type  1   force =     0.00002232   -0.00025806    0.09646700
     atom   26 type  1   force =     0.00000040   -0.00028793   -0.17487526
     atom   27 type  2   force =     0.00019339   -0.00025458   -0.02397673
     atom   28 type  2   force =     0.00005340   -0.00100578    0.05142196
     atom   29 type  2   force =    -0.01128024    0.00078792    0.00169357
     atom   30 type  2   force =     0.01297391    0.00111487    0.00208987
     atom   31 type  1   force =     0.00103509    0.00258198   -0.01541104
     atom   32 type  1   force =     0.00005604   -0.01663871    0.02915219
     atom   33 type  2   force =     0.00011630    0.00002864   -0.00012292
     atom   34 type  2   force =    -0.00271223    0.00093469   -0.01870139
     atom   35 type  2   force =     0.00017373   -0.00007097   -0.00008808
     atom   36 type  2   force =    -0.00037608   -0.00007039    0.00013160
     atom   37 type  1   force =    -0.00010010   -0.00020249    0.00016216
     atom   38 type  1   force =     0.00007051    0.00009099   -0.00005269
     atom   39 type  2   force =    -0.00004005    0.00044450   -0.00000956
     atom   40 type  2   force =    -0.00038152    0.00014839   -0.00013990
     atom   41 type  2   force =     0.00012473    0.00001725   -0.00011644
     atom   42 type  2   force =    -0.00000053    0.00022374    0.00000643
     atom   43 type  1   force =     0.00013961   -0.00000192   -0.00012044
     atom   44 type  1   force =    -0.00022099   -0.00071756   -0.00058665
     atom   45 type  2   force =     0.00005576   -0.00010831    0.10300813
     atom   46 type  2   force =    -0.07182473   -0.00015832   -0.02782800
     atom   47 type  2   force =     0.07176796    0.00022680   -0.02787125
     atom   48 type  3   force =    -0.00077639   -0.00026902    0.00000537
     atom   49 type  4   force =     0.00017365   -0.00008347    0.00019822
     atom   50 type  5   force =    -0.00026964    0.00007002    0.00015935
     atom   51 type  5   force =    -0.00045476   -0.00006275   -0.00023973
     atom   52 type  5   force =     0.00076496   -0.00022791    0.00013026
     atom   53 type  3   force =    -0.00042050   -0.00685360   -0.01079591
     atom   54 type  5   force =     0.00144312    0.00700533    0.01219363
     atom   55 type  5   force =    -0.00018635    0.00066101   -0.00143076

     Total force =     0.367711     Total SCF correction =     0.000505
  @ DRIVER MODE: Message from server: STATUS
  @ DRIVER MODE: Message from server: GETFORCE
  @ DRIVER MODE: Returning v,forces,stress,ensemble

     Writing output data file ./calc.save/
  @ DRIVER MODE: Message from server: EXIT
  @ DRIVE MODE: Exiting

     General routines

     Parallel routines

   This run was terminated on:  20: 0:48  16Jul2021

   JOB DONE.