     Program PWSCF v.6.7GPU starts on 23Sep2021 at  1:10:47

     R & G space division:  proc/nbgrp/npool/nimage =       8
     Reading input from /storage/home/hcoda1/3/ntian30/research/carbon/CxH_vib/H2O_calc/ads_slab/CH3NHNHHO_a/out_0008/pw.inp
Warning: card &CELL ignored
Warning: card   CELL_DYNAMICS='IPI', ignored
Warning: card / ignored

     Current dimensions of program PWSCF are:
     Max number of different atomic species (ntypx) = 10
     Max number of k-points (npk) =  40000
     Max angular momentum in pseudopotentials (lmaxx) =  3
     Presently no symmetry can be used with electric field

     Message from routine cell_base_init:
     DEPRECATED: use true lattice parameter, not A to a.u. conversion factor

     IMPORTANT: XC functional enforced from input :
     Exchange-correlation= BEEF-VDW
                           (   1   4  43  14   2   0   0)
     Any further DFT definition will be discarded
     Please, verify this is what you really want

  @ DRIVER MODE: Connecting to
 qe_1139763_2941006.sched-torque.pace.gatech.edubj_dd5t7_scratch
  using UNIX socket
  @ DRIVER MODE: Message from server: STATUS
  @ DRIVER MODE: Message from server: INIT
  @ DRIVER MODE: Receiving replica           0          -1
  @ DRIVER MODE: Receiving encoded integer          25
  @ DRIVER MODE:  SCF:  T  FORCE:  T  STRESS:  F  VC:  F  ENSEMBLE:  F
  @ DRIVER MODE:  SCF:  T  FORCE:  T  STRESS:  F  VC:  F  ENSEMBLE:  F

     Using Slab Decomposition

     bravais-lattice index     =            0
     lattice parameter (alat)  =       1.8897  a.u.
     unit-cell volume          =    6658.9804 (a.u.)^3
     number of atoms/cell      =           57
     number of atomic types    =            5
     number of electrons       =       404.00
     number of Kohn-Sham states=          212
     kinetic-energy cutoff     =      29.3995  Ry
     charge density cutoff     =     293.9946  Ry
     scf convergence threshold =      7.3E-08
     mixing beta               =       0.0500
     number of iterations used =            8  plain     mixing
     Exchange-correlation= BEEF-VDW
                           (   1   4  43  14   2   0   0)

     celldm(1)=   1.889726  celldm(2)=   0.000000  celldm(3)=   0.000000
     celldm(4)=   0.000000  celldm(5)=   0.000000  celldm(6)=   0.000000

     crystal axes: (cart. coord. in units of alat)
               a(1) = (   6.579727   0.000000   0.000000 )
               a(2) = (  -0.000775   5.961596   0.000000 )
               a(3) = (   0.000000   0.000000  25.155947 )

     reciprocal axes: (cart. coord. in units 2 pi/alat)
               b(1) = (  0.151982  0.000020  0.000000 )
               b(2) = (  0.000000  0.167740  0.000000 )
               b(3) = (  0.000000  0.000000  0.039752 )

     PseudoPot. # 1 for Ti read from file:
     /storage/coda1/p-amedford6/0/shared/rich_project_chbe-medford/medford-share/data/pseudos_module/espresso/nninc/pbe/van/Ti.UPF
     MD5 check sum: 8e4df49b7f0d34bbd5052bf3f5ea0213
     Pseudo is Ultrasoft, Zval = 12.0
     Generated by new atomic code, or converted to UPF format
     Using radial grid of  851 points,  6 beta functions with:
                l(1) =   0
                l(2) =   0
                l(3) =   1
                l(4) =   1
                l(5) =   2
                l(6) =   2
     Q(r) pseudized with  8 coefficients,  rinner =    1.000   1.000   1.000
                                                       1.000   1.000

     PseudoPot. # 2 for O  read from file:
     /storage/coda1/p-amedford6/0/shared/rich_project_chbe-medford/medford-share/data/pseudos_module/espresso/nninc/pbe/van/O.UPF
     MD5 check sum: 78c19812648e8988a0fe644b0f25305e
     Pseudo is Ultrasoft, Zval =  6.0
     Generated by new atomic code, or converted to UPF format
     Using radial grid of  737 points,  4 beta functions with:
                l(1) =   0
                l(2) =   0
                l(3) =   1
                l(4) =   1
     Q(r) pseudized with  8 coefficients,  rinner =    0.800   0.800   0.800

     PseudoPot. # 3 for N  read from file:
     /storage/coda1/p-amedford6/0/shared/rich_project_chbe-medford/medford-share/data/pseudos_module/espresso/nninc/pbe/van/N.UPF
     MD5 check sum: 90d10febe142ad51ac9d5be1deb811c4
     Pseudo is Ultrasoft, Zval =  5.0
     Generated by new atomic code, or converted to UPF format
     Using radial grid of  729 points,  4 beta functions with:
                l(1) =   0
                l(2) =   0
                l(3) =   1
                l(4) =   1
     Q(r) pseudized with  8 coefficients,  rinner =    0.800   0.800   0.800

     PseudoPot. # 4 for C  read from file:
     /storage/coda1/p-amedford6/0/shared/rich_project_chbe-medford/medford-share/data/pseudos_module/espresso/nninc/pbe/van/C.UPF
     MD5 check sum: 1a69bf6b8db32088f5b2163dbdb77a27
     Pseudo is Ultrasoft, Zval =  4.0
     Generated by new atomic code, or converted to UPF format
     Using radial grid of  721 points,  4 beta functions with:
                l(1) =   0
                l(2) =   0
                l(3) =   1
                l(4) =   1
     Q(r) pseudized with  8 coefficients,  rinner =    0.800   0.800   0.800

     PseudoPot. # 5 for H  read from file:
     /storage/coda1/p-amedford6/0/shared/rich_project_chbe-medford/medford-share/data/pseudos_module/espresso/nninc/pbe/van/H.UPF
     MD5 check sum: b5ee9d7bfd3a09ee7748110bda690ff7
     Pseudo is Ultrasoft, Zval =  1.0
     Generated by new atomic code, or converted to UPF format
     Using radial grid of  615 points,  1 beta functions with:
                l(1) =   0
     Q(r) pseudized with  8 coefficients,  rinner =    0.800

     atomic species   valence    mass     pseudopotential
        Ti1           12.00    47.86700     Ti( 1.00)
        O1             6.00    15.99900     O ( 1.00)
        N1             5.00    14.00700     N ( 1.00)
        C1             4.00    12.01100     C ( 1.00)
        H1             1.00     1.00800     H ( 1.00)

     No symmetry found

   Cartesian axes

     site n.     atom                  positions (alat units)
         1           Ti1 tau(   1) = (   0.0004258   2.9801865   6.0000000  )
         2           Ti1 tau(   2) = (   3.2906075   1.4906267   6.0002472  )
         3           O1  tau(   3) = (   0.0006271   0.0005054   7.9858123  )
         4           O1  tau(   4) = (   3.2906025   0.0005020   7.3038282  )
         5           O1  tau(   5) = (   4.5942328   1.4918067   9.2879030  )
         6           O1  tau(   6) = (   1.9868534   1.4903216   9.2879459  )
         7           Ti1 tau(   7) = (   3.2907910   2.8959150   9.1758416  )
         8           Ti1 tau(   8) = (   0.0015273   1.4827037   9.2680791  )
         9           O1  tau(   9) = (   3.2953096   5.9421394  11.2884464  )
        10           O1  tau(  10) = (   0.0116148   5.9584955  10.6183126  )
        11           O1  tau(  11) = (   1.3041449   1.4755329  12.6321863  )
        12           O1  tau(  12) = (   5.3089623   1.4871430  12.6059879  )
        13           Ti1 tau(  13) = (   6.5683417   3.1096339  12.6902584  )
        14           Ti1 tau(  14) = (   3.3171551   1.3050273  12.6602886  )
        15           O1  tau(  15) = (   6.5441980   0.0188234  14.6400653  )
        16           O1  tau(  16) = (   3.3305379   0.0354930  13.9003223  )
        17           O1  tau(  17) = (   4.5569828   1.5958521  16.0354584  )
        18           O1  tau(  18) = (   2.0254723   1.5302355  15.9749146  )
        19           Ti1 tau(  19) = (   3.2479256   3.0467527  15.6517507  )
        20           Ti1 tau(  20) = (   6.4631478   1.5268535  15.8454044  )
        21           O1  tau(  21) = (   3.2904802   0.0005063   4.7018136  )
        22           O1  tau(  22) = (   6.5640117   0.0389496  17.1838934  )
        23           O1  tau(  23) = (   1.3043587   1.4918075   6.0039043  )
        24           O1  tau(  24) = (   5.2767064   1.4903225   6.0039473  )
        25           Ti1 tau(  25) = (   0.0000382   5.9609847   6.0000000  )
        26           Ti1 tau(  26) = (   3.2902200   4.4714249   6.0002472  )
        27           O1  tau(  27) = (   0.0002396   2.9813036   7.9858123  )
        28           O1  tau(  28) = (   3.2902150   2.9813002   7.3038282  )
        29           O1  tau(  29) = (   4.5938453   4.4726049   9.2879030  )
        30           O1  tau(  30) = (   1.9864658   4.4711199   9.2879459  )
        31           Ti1 tau(  31) = (   3.2891106   5.8743827   9.1763621  )
        32           Ti1 tau(  32) = (   0.0006254   4.4649316   9.2693709  )
        33           O1  tau(  33) = (   3.2909858   3.0116154  11.2527998  )
        34           O1  tau(  34) = (   0.0092240   2.9805883  10.6323155  )
        35           O1  tau(  35) = (   1.2990260   4.4726261  12.6330189  )
        36           O1  tau(  36) = (   5.2946483   4.4606482  12.6134978  )
        37           Ti1 tau(  37) = (   0.0333947   0.1262769  12.6104238  )
        38           Ti1 tau(  38) = (   3.2900473   4.3917186  12.4086616  )
        39           O1  tau(  39) = (   6.5591047   2.9728048  14.6463482  )
        40           O1  tau(  40) = (   3.3071982   2.9909887  13.8663713  )
        41           O1  tau(  41) = (   4.5374868   4.4330245  16.1128471  )
        42           O1  tau(  42) = (   2.0037144   4.4952966  15.9584979  )
        43           Ti1 tau(  43) = (   3.1911318   0.0573200  16.2061952  )
        44           Ti1 tau(  44) = (   6.5299348   4.6473693  16.0672121  )
        45           O1  tau(  45) = (   3.2900926   2.9813045   4.7018136  )
        46           O1  tau(  46) = (   1.3039711   4.4726057   6.0039043  )
        47           O1  tau(  47) = (   5.2763189   4.4711207   6.0039473  )
        48           N1  tau(  48) = (   1.2509970   2.8552009  18.3001485  )
        49           N1  tau(  49) = (   0.1190600   2.9410495  17.4585617  )
        50           C1  tau(  50) = (   1.1117997   3.5424446  19.5707766  )
        51           H1  tau(  51) = (   0.2696121   3.1616043  20.1716506  )
        52           H1  tau(  52) = (   2.0314425   3.4001925  20.1392599  )
        53           H1  tau(  53) = (   0.9679189   4.6079482  19.3970517  )
        54           H1  tau(  54) = (   1.5306055   1.8840965  18.4148701  )
        55           H1  tau(  55) = (   5.8389999   2.9001924  18.0325661  )
        56           O1  tau(  56) = (   3.2424369   0.1001929  18.0579484  )
        57           H1  tau(  57) = (   3.9792659   5.6040190  18.4897823  )

     number of k points=    10  Fermi-Dirac smearing, width (Ry)=  0.0073
                       cart. coord. in units 2pi/alat
        k(    1) = (   0.0000000   0.0000000   0.0000000), wk =   0.1250000
        k(    2) = (   0.0000000   0.0419351   0.0000000), wk =   0.2500000
        k(    3) = (   0.0000000  -0.0838702   0.0000000), wk =   0.1250000
        k(    4) = (   0.0379955   0.0000049   0.0000000), wk =   0.2500000
        k(    5) = (   0.0379955   0.0419400   0.0000000), wk =   0.2500000
        k(    6) = (   0.0379955  -0.0838652   0.0000000), wk =   0.2500000
        k(    7) = (   0.0379955  -0.0419301   0.0000000), wk =   0.2500000
        k(    8) = (  -0.0759910  -0.0000099   0.0000000), wk =   0.1250000
        k(    9) = (  -0.0759910   0.0419252   0.0000000), wk =   0.2500000
        k(   10) = (  -0.0759910  -0.0838800   0.0000000), wk =   0.1250000

     Initial potential from superposition of free atoms

     starting charge  387.99913, renormalised to  404.00000

     negative rho (up, down):  1.467E-02 0.000E+00

     %%%%%%%%%%%%%%%%%%%%%%%%%%%%%%%%%%%%%%%%%%%%%%%%%%%%%%%%%%%%%%%%%%%%%%%%
     %                                                                      %
     % You are using vdW-DF, which was implemented by the Thonhauser group. %
     % Please cite the following two papers that made this development      %
     % possible and the two reviews that describe the various versions:     %
     %                                                                      %
     %   T. Thonhauser et al., PRL 115, 136402 (2015).                      %
     %   T. Thonhauser et al., PRB 76, 125112 (2007).                       %
     %   K. Berland et al., Rep. Prog. Phys. 78, 066501 (2015).             %
     %   D.C. Langreth et al., J. Phys.: Condens. Matter 21, 084203 (2009). %
     %                                                                      %
     %                                                                      %
     % If you are calculating the stress with vdW-DF, please also cite:     %
     %                                                                      %
     %   R. Sabatini et al., J. Phys.: Condens. Matter 24, 424209 (2012).   %
     %                                                                      %
     %%%%%%%%%%%%%%%%%%%%%%%%%%%%%%%%%%%%%%%%%%%%%%%%%%%%%%%%%%%%%%%%%%%%%%%%

     Adding external electric field

     Computed dipole along edir(3) :
        Dipole              -12.7315 Ry au,        -32.3602 Debye
        Dipole field         -0.0240 Ry au,

        Potential amp.        2.2272 Ry
        Total length         46.3494 bohr

     Starting wfcs are  306 atomic wfcs
  @ DRIVER MODE: Message from server: STATUS
  @ DRIVER MODE: Message from server: POSDATA
  @ DRIVER MODE: Reading and sharing cell
  @ DRIVER MODE: Reading and sharing positions
  @ DRIVER MODE: Received positions

     Self-consistent Calculation

     iteration #  1     ecut=    29.40 Ry     beta= 0.05
     Davidson diagonalization with overlap
     c_bands:  4 eigenvalues not converged
     c_bands:  5 eigenvalues not converged
     c_bands:  5 eigenvalues not converged
     c_bands:  5 eigenvalues not converged
     c_bands:  1 eigenvalues not converged
     c_bands:  3 eigenvalues not converged
     c_bands:  4 eigenvalues not converged
     c_bands:  4 eigenvalues not converged
     ethr =  1.00E-05,  avg # of iterations = 24.4

[...]

     total energy              =   -2345.48701109 Ry
     estimated scf accuracy    <    7121.19570766 Ry

     iteration #  2     ecut=    29.40 Ry     beta= 0.05
     Davidson diagonalization with overlap
     ethr =  1.00E-02,  avg # of iterations = 22.9

[...]

     iteration # 52     ecut=    29.40 Ry     beta= 0.05
     Davidson diagonalization with overlap
     c_bands:  1 eigenvalues not converged
     ethr =  1.00E-07,  avg # of iterations =  7.4

[...]

     total energy              =   -2975.25017817 Ry
     estimated scf accuracy    <       0.00000011 Ry

     iteration # 67     ecut=    29.40 Ry     beta= 0.05
     Davidson diagonalization with overlap
     ethr =  2.66E-11,  avg # of iterations =  5.0

     negative rho (up, down):  1.542E-02 0.000E+00

     Adding external electric field

     Computed dipole along edir(3) :
        Dipole                0.5422 Ry au,          1.3781 Debye
        Dipole field          0.0010 Ry au,

        Potential amp.       -0.0948 Ry
        Total length         46.3494 bohr

     End of self-consistent calculation

          k = 0.0000 0.0000 0.0000 ( 18029 PWs)   bands (ev):

   -56.4211 -56.3875 -55.7675 -55.7326 -55.5358 -55.4748 -55.3685 -55.2123
   -55.2062 -55.1379 -55.1024 -55.0851 -55.0513 -55.0511 -54.9839 -54.8660
   -32.8544 -32.7056 -32.6776 -32.5887 -32.4973 -32.4800 -32.2476 -32.0140
   -31.9868 -31.9641 -31.9112 -31.9056 -31.8761 -31.7640 -31.7519 -31.7479
   -31.7010 -31.6949 -31.6770 -31.6368 -31.6363 -31.6240 -31.5771 -31.5552
   -31.5151 -31.4815 -31.4755 -31.4249 -31.4186 -31.4096 -31.4008 -31.3876
   -31.3655 -31.3651 -31.3287 -31.3102 -31.3064 -31.2954 -31.2809 -31.2382
   -31.2336 -31.2124 -31.2039 -31.1837 -31.1146 -31.1103 -31.1008 -31.0591
   -16.6351 -16.6116 -16.1922 -16.1702 -15.8645 -15.7955 -15.7734 -15.7363
   -15.6737 -15.5582 -15.4338 -15.3871 -15.3830 -15.3333 -15.1733 -15.0761
   -14.9856 -14.9140 -14.9053 -14.8577 -14.8492 -14.8233 -14.8088 -14.7978
   -14.7338 -14.6998 -14.5901 -14.5497 -14.4507 -14.2561 -14.1804 -13.5826
   -13.4727 -11.5208  -8.6596  -5.0595  -4.2778  -4.1622  -3.7848  -3.6896
    -3.5270  -3.4512  -3.2920  -3.2576  -3.1792  -3.0712  -3.0059  -2.9498
    -2.9390  -2.8334  -2.6858  -2.6345  -2.6299  -2.6041  -2.6006  -2.5128
    -2.4423  -2.4083  -2.3421  -2.2718  -2.2415  -2.1564  -2.1496  -2.1223
    -2.1008  -2.0742  -2.0289  -1.9790  -1.9515  -1.9363  -1.8249  -1.7837
    -1.7559  -1.7094  -1.6724  -1.5999  -1.5665  -1.5204  -1.4447  -1.3840
    -1.2574  -1.2313  -1.1662  -1.1501  -1.1200  -1.0072  -0.9590  -0.9239
    -0.8650  -0.8310  -0.7644  -0.7385  -0.7103  -0.6745  -0.6655  -0.6251
    -0.5163  -0.4875  -0.3598  -0.3397  -0.2924  -0.2222  -0.2089  -0.1551
    -0.1334  -0.0997  -0.0501  -0.0161   0.0264   0.0926   0.1327   0.2177
     0.2616   0.3250   0.4209   0.4495   0.4738   0.5347   0.5539   0.5857
     0.6316   0.7256   0.7358   0.7948   0.8710   0.9158   0.9381   0.9944
     1.0556   1.0739   1.1735   1.2006   1.2115   1.2640   1.4782   1.5184
     1.6917   2.4541   2.8430   2.9894   3.2752   3.3057   3.5653   3.8017
     3.8322   3.8341   3.9149   4.0120

[...]

          k = 0.0380-0.0419 0.0000 ( 17876 PWs)   bands (ev):

[...]

          k =-0.0760-0.0000 0.0000 ( 17886 PWs)   bands (ev):

[...]

          k =-0.0760-0.0839 0.0000 ( 17948 PWs)   bands (ev):

   -56.4045 -56.4040 -55.7547 -55.7452 -55.5307 -55.4799 -55.3671 -55.2135
   -55.2015 -55.1423 -55.1002 -55.0686 -55.0675 -55.0499 -54.9862 -54.8674
   -32.6914 -32.6910 -32.6713 -32.6707 -32.5415 -32.5413 -32.0726 -32.0642
   -31.9488 -31.9414 -31.9376 -31.9353 -31.8338 -31.7951 -31.7580 -31.7497
   -31.7054 -31.7002 -31.6664 -31.6173 -31.5848 -31.5655 -31.5388 -31.5006
   -31.4863 -31.4837 -31.4339 -31.4318 -31.4178 -31.4142 -31.4134 -31.3956
   -31.3816 -31.3555 -31.3344 -31.3219 -31.3104 -31.2955 -31.2932 -31.2918
   -31.2547 -31.2537 -31.2407 -31.2357 -31.1907 -31.1768 -31.1157 -31.0904
   -16.6129 -16.1787 -15.9927 -15.9887 -15.9089 -15.9062 -15.6985 -15.6928
   -15.5235 -15.4947 -15.4225 -15.3030 -15.2503 -15.1940 -15.1881 -15.1430
   -15.0924 -15.0723 -15.0315 -15.0133 -14.9515 -14.9082 -14.8577 -14.8115
   -14.7934 -14.7547 -14.6330 -14.5831 -14.5770 -14.3909 -14.3618 -13.5766
   -13.5760 -11.5272  -8.6664  -5.0677  -4.2756  -3.7571  -3.4192  -3.0952
    -3.0770  -3.0309  -3.0216  -2.8066  -2.7855  -2.7632  -2.6882  -2.6757
    -2.6257  -2.6183  -2.5271  -2.4870  -2.4441  -2.4295  -2.4150  -2.3611
    -2.3362  -2.2866  -2.2835  -2.2521  -2.2173  -2.1850  -2.1608  -2.1200
    -2.0950  -2.0786  -2.0420  -2.0109  -1.9819  -1.9320  -1.9098  -1.8824
    -1.8673  -1.8486  -1.6927  -1.6381  -1.5805  -1.5385  -1.5084  -1.4408
    -1.4290  -1.3749  -1.3144  -1.2821  -1.2519  -1.2362  -1.1526  -1.1159
    -1.0991  -1.0677  -1.0252  -0.9633  -0.9073  -0.8582  -0.7804  -0.6879
    -0.6559  -0.6389  -0.6117  -0.6045  -0.5656  -0.5124  -0.4250  -0.3731
    -0.3196  -0.3018  -0.2586  -0.2543  -0.2230  -0.1888  -0.1159   0.0081
     0.0714   0.1101   0.1639   0.2176   0.2743   0.3422   0.3816   0.4646
     0.5434   0.5659   0.6493   0.6823   0.8068   0.8504   0.9644   1.0050
     1.0442   1.0891   1.1587   1.2550   1.2789   1.3293   1.3310   1.3475
     1.3613   2.4808   3.4096   3.4125   3.4628   3.4704   3.7443   3.7525
     3.8869   3.8885   4.0108   4.0236

     the Fermi energy is     2.7250 ev

!    total energy              =   -2975.25022327 Ry
     estimated scf accuracy    <       0.00000005 Ry
     smearing contrib. (-TS)   =      -0.00759944 Ry
     internal energy E=F+TS    =   -2975.24262383 Ry

     The total energy is F=E-TS. E is the sum of the following terms:
     one-electron contribution =  -23773.74982051 Ry
     hartree contribution      =   11982.51817723 Ry
     xc contribution           =    -494.80970798 Ry
     ewald contribution        =    9310.79817266 Ry
     electric field correction =       0.00055477 Ry

     convergence has been achieved in  67 iterations

     Forces acting on atoms (cartesian axes, Ry/au):

     atom    1 type  1   force =     0.00001725   -0.00035328    0.11614962
     atom    2 type  1   force =    -0.00012719    0.00031255   -0.16027661
     atom    3 type  2   force =     0.00004532    0.00032759   -0.05303713
     atom    4 type  2   force =     0.00007145   -0.00042047    0.02661357
     atom    5 type  2   force =    -0.00502403   -0.00226250   -0.00998652
     atom    6 type  2   force =     0.00670751   -0.00183550   -0.01071769
     atom    7 type  1   force =    -0.00038877   -0.00638963    0.04549749
     atom    8 type  1   force =     0.00057053    0.01079468    0.08165330
     atom    9 type  2   force =    -0.00001625    0.00036919   -0.00002881
     atom   10 type  2   force =    -0.00139746    0.00155535   -0.05437979
     atom   11 type  2   force =     0.00074870    0.00029958   -0.00018641
     atom   12 type  2   force =    -0.00116560    0.00021030    0.00023754
     atom   13 type  1   force =    -0.00021338   -0.00091301    0.00017576
     atom   14 type  1   force =     0.00046150    0.00121888   -0.00042145
     atom   15 type  2   force =     0.00018227   -0.00039823    0.00066648
     atom   16 type  2   force =    -0.00029031    0.00057925    0.00107202
     atom   17 type  2   force =    -0.00055530   -0.00033679    0.00035975
     atom   18 type  2   force =     0.00101046   -0.00033798    0.00016078
     atom   19 type  1   force =    -0.00061163   -0.00060077   -0.00071906
     atom   20 type  1   force =     0.00072307   -0.00037219   -0.00036129
     atom   21 type  2   force =     0.00007624    0.00014959    0.09915923
     atom   22 type  2   force =     0.00026836   -0.00031741    0.00094447
     atom   23 type  2   force =    -0.07947307   -0.00002093   -0.03161603
     atom   24 type  2   force =     0.07939287    0.00040833   -0.03165132
     atom   25 type  1   force =     0.00018277   -0.00037058    0.11639022
     atom   26 type  1   force =    -0.00007511   -0.00142809   -0.16040283
     atom   27 type  2   force =     0.00013439   -0.00011575   -0.05142617
     atom   28 type  2   force =     0.00003241    0.00129287    0.02180885
     atom   29 type  2   force =    -0.00384024    0.00422323   -0.01238482
     atom   30 type  2   force =     0.00542367    0.00483500   -0.01297709
     atom   31 type  1   force =    -0.00013923    0.00314268    0.03048896
     atom   32 type  1   force =     0.00051118   -0.01302211    0.08253202
     atom   33 type  2   force =     0.00018133   -0.00049033    0.00037588
     atom   34 type  2   force =    -0.00050016    0.00168641   -0.06775911
     atom   35 type  2   force =    -0.00044973   -0.00064332   -0.00005042
     atom   36 type  2   force =     0.00007613   -0.00002356    0.00004129
     atom   37 type  1   force =    -0.00011854   -0.00122444   -0.00042143
     atom   38 type  1   force =     0.00046774   -0.00031300   -0.00000201
     atom   39 type  2   force =     0.00001769    0.00034655    0.00013815
     atom   40 type  2   force =    -0.00013392   -0.00023571    0.00039433
     atom   41 type  2   force =     0.00137219   -0.00017376    0.00034787
     atom   42 type  2   force =    -0.00088852   -0.00033634    0.00025042
     atom   43 type  1   force =     0.00000082   -0.00073037   -0.00012638
     atom   44 type  1   force =     0.00051822    0.00063552   -0.00072931
     atom   45 type  2   force =     0.00007299   -0.00002722    0.09898419
     atom   46 type  2   force =    -0.07948673   -0.00001509   -0.03163357
     atom   47 type  2   force =     0.07942476    0.00043104   -0.03165467
     atom   48 type  3   force =     0.00464562   -0.00108228    0.00311276
     atom   49 type  3   force =    -0.01791933    0.00077494    0.00200355
     atom   50 type  4   force =     0.00004750    0.00105960    0.00005002
     atom   51 type  5   force =    -0.00128308    0.00008708   -0.00039782
     atom   52 type  5   force =    -0.00007493   -0.00040476    0.00020988
     atom   53 type  5   force =     0.00049444    0.00021397   -0.00061773
     atom   54 type  5   force =     0.00080909   -0.00156435    0.00048376
     atom   55 type  5   force =     0.00851616    0.00061271   -0.00598193
     atom   56 type  2   force =     0.00112217   -0.00023099    0.00009214
     atom   57 type  5   force =    -0.00015430    0.00142386   -0.00044689

     Total force =     0.399439     Total SCF correction =     0.000529
  @ DRIVER MODE: Message from server: STATUS
  @ DRIVER MODE: Message from server: GETFORCE
  @ DRIVER MODE: Returning v,forces,stress,ensemble

     Writing output data file ./calc.save/
  @ DRIVER MODE: Message from server: EXIT
  @ DRIVE MODE: Exiting

     General routines

     Parallel routines

   This run was terminated on:   1:33: 0  23Sep2021

   JOB DONE.