     Program PWSCF v.6.7GPU starts on 24Aug2021 at 15:38:54

     R & G space division:  proc/nbgrp/npool/nimage =      72
     Reading input from /storage/home/hcoda1/3/ntian30/research/carbon/CH2_vib/ads_slab/CH2NNH3_a/out_0016/pw.inp
Warning: card &CELL ignored
Warning: card   CELL_DYNAMICS='IPI', ignored
Warning: card / ignored

     Current dimensions of program PWSCF are:
     Max number of different atomic species (ntypx) = 10
     Max number of k-points (npk) =  40000
     Max angular momentum in pseudopotentials (lmaxx) =  3
     Presently no symmetry can be used with electric field

     Message from routine cell_base_init:
     DEPRECATED: use true lattice parameter, not A to a.u. conversion factor

     IMPORTANT: XC functional enforced from input :
     Exchange-correlation= BEEF-VDW
                           (   1   4  43  14   2   0   0)
     Any further DFT definition will be discarded
     Please, verify this is what you really want

  @ DRIVER MODE: Connecting to
 qe_1139763_2641442.sched-torque.pace.gatech.edu00vi9hbs_scratch
  using UNIX socket
  @ DRIVER MODE: Message from server: STATUS
  @ DRIVER MODE: Message from server: INIT
  @ DRIVER MODE: Receiving replica           0          -1
  @ DRIVER MODE: Receiving encoded integer          25
  @ DRIVER MODE:  SCF:  T  FORCE:  T  STRESS:  F  VC:  F  ENSEMBLE:  F
  @ DRIVER MODE:  SCF:  T  FORCE:  T  STRESS:  F  VC:  F  ENSEMBLE:  F

     Using Slab Decomposition

     bravais-lattice index     =            0
     lattice parameter (alat)  =       1.8897  a.u.
     unit-cell volume          =    6658.9804 (a.u.)^3
     number of atoms/cell      =           55
     number of atomic types    =            5
     number of electrons       =       397.00
     number of Kohn-Sham states=          208
     kinetic-energy cutoff     =      29.3995  Ry
     charge density cutoff     =     293.9946  Ry
     scf convergence threshold =      7.3E-08
     mixing beta               =       0.0500
     number of iterations used =            8  plain     mixing
     Exchange-correlation= BEEF-VDW
                           (   1   4  43  14   2   0   0)

     celldm(1)=   1.889726  celldm(2)=   0.000000  celldm(3)=   0.000000
     celldm(4)=   0.000000  celldm(5)=   0.000000  celldm(6)=   0.000000

     crystal axes: (cart. coord. in units of alat)
               a(1) = (   6.579727   0.000000   0.000000 )
               a(2) = (  -0.000775   5.961596   0.000000 )
               a(3) = (   0.000000   0.000000  25.155947 )

     reciprocal axes: (cart. coord. in units 2 pi/alat)
               b(1) = (  0.151982  0.000020  0.000000 )
               b(2) = (  0.000000  0.167740  0.000000 )
               b(3) = (  0.000000  0.000000  0.039752 )

     PseudoPot. # 1 for Ti read from file:
     /storage/coda1/p-amedford6/0/shared/rich_project_chbe-medford/medford-share/data/pseudos_module/espresso/nninc/pbe/van/Ti.UPF
     MD5 check sum: 8e4df49b7f0d34bbd5052bf3f5ea0213
     Pseudo is Ultrasoft, Zval = 12.0
     Generated by new atomic code, or converted to UPF format
     Using radial grid of  851 points,  6 beta functions with:
                l(1) =   0
                l(2) =   0
                l(3) =   1
                l(4) =   1
                l(5) =   2
                l(6) =   2
     Q(r) pseudized with  8 coefficients,  rinner =    1.000   1.000   1.000
                                                       1.000   1.000

     PseudoPot. # 2 for O  read from file:
     /storage/coda1/p-amedford6/0/shared/rich_project_chbe-medford/medford-share/data/pseudos_module/espresso/nninc/pbe/van/O.UPF
     MD5 check sum: 78c19812648e8988a0fe644b0f25305e
     Pseudo is Ultrasoft, Zval =  6.0
     Generated by new atomic code, or converted to UPF format
     Using radial grid of  737 points,  4 beta functions with:
                l(1) =   0
                l(2) =   0
                l(3) =   1
                l(4) =   1
     Q(r) pseudized with  8 coefficients,  rinner =    0.800   0.800   0.800

     PseudoPot. # 3 for N  read from file:
     /storage/coda1/p-amedford6/0/shared/rich_project_chbe-medford/medford-share/data/pseudos_module/espresso/nninc/pbe/van/N.UPF
     MD5 check sum: 90d10febe142ad51ac9d5be1deb811c4
     Pseudo is Ultrasoft, Zval =  5.0
     Generated by new atomic code, or converted to UPF format
     Using radial grid of  729 points,  4 beta functions with:
                l(1) =   0
                l(2) =   0
                l(3) =   1
                l(4) =   1
     Q(r) pseudized with  8 coefficients,  rinner =    0.800   0.800   0.800

     PseudoPot. # 4 for C  read from file:
     /storage/coda1/p-amedford6/0/shared/rich_project_chbe-medford/medford-share/data/pseudos_module/espresso/nninc/pbe/van/C.UPF
     MD5 check sum: 1a69bf6b8db32088f5b2163dbdb77a27
     Pseudo is Ultrasoft, Zval =  4.0
     Generated by new atomic code, or converted to UPF format
     Using radial grid of  721 points,  4 beta functions with:
                l(1) =   0
                l(2) =   0
                l(3) =   1
                l(4) =   1
     Q(r) pseudized with  8 coefficients,  rinner =    0.800   0.800   0.800

     PseudoPot. # 5 for H  read from file:
     /storage/coda1/p-amedford6/0/shared/rich_project_chbe-medford/medford-share/data/pseudos_module/espresso/nninc/pbe/van/H.UPF
     MD5 check sum: b5ee9d7bfd3a09ee7748110bda690ff7
     Pseudo is Ultrasoft, Zval =  1.0
     Generated by new atomic code, or converted to UPF format
     Using radial grid of  615 points,  1 beta functions with:
                l(1) =   0
     Q(r) pseudized with  8 coefficients,  rinner =    0.800

     atomic species   valence    mass     pseudopotential
        Ti1           12.00    47.86700     Ti( 1.00)
        O1             6.00    15.99900     O ( 1.00)
        N1             5.00    14.00700     N ( 1.00)
        C1             4.00    12.01100     C ( 1.00)
        H1             1.00     1.00800     H ( 1.00)

     No symmetry found

   Cartesian axes

     site n.     atom                  positions (alat units)
         1           Ti1 tau(   1) = (   0.0004258   2.9801865   6.0000000  )
         2           Ti1 tau(   2) = (   3.2906075   1.4906267   6.0002472  )
         3           O1  tau(   3) = (   0.0006271   0.0005054   7.9858123  )
         4           O1  tau(   4) = (   3.2906025   0.0005020   7.3038282  )
         5           O1  tau(   5) = (   4.5942328   1.4918067   9.2879030  )
         6           O1  tau(   6) = (   1.9868534   1.4903216   9.2879459  )
         7           Ti1 tau(   7) = (   3.2907910   2.8959150   9.1758416  )
         8           Ti1 tau(   8) = (   0.0015273   1.4827037   9.2680791  )
         9           O1  tau(   9) = (   3.2870044   0.0008392  11.3329265  )
        10           O1  tau(  10) = (   0.0116148   5.9584955  10.6183126  )
        11           O1  tau(  11) = (   1.3103063   1.4923116  12.6208530  )
        12           O1  tau(  12) = (   5.2933663   1.4849185  12.6124200  )
        13           Ti1 tau(  13) = (   6.5212574   2.9536302  12.6166858  )
        14           Ti1 tau(  14) = (   3.2058376   1.4897313  12.4816367  )
        15           O1  tau(  15) = (   6.5713238   0.0136578  14.6546308  )
        16           O1  tau(  16) = (   3.3039920   0.0133407  13.9274802  )
        17           O1  tau(  17) = (   4.5398155   1.5323753  16.0810081  )
        18           O1  tau(  18) = (   2.0543055   1.5218724  16.0470058  )
        19           Ti1 tau(  19) = (   3.2774803   3.0107093  15.7022328  )
        20           Ti1 tau(  20) = (   6.5342633   1.5374647  15.8423947  )
        21           O1  tau(  21) = (   3.2904802   0.0005063   4.7018136  )
        22           O1  tau(  22) = (   0.0034288   0.0322173  17.2228558  )
        23           O1  tau(  23) = (   1.3043587   1.4918075   6.0039043  )
        24           O1  tau(  24) = (   5.2767064   1.4903225   6.0039473  )
        25           Ti1 tau(  25) = (   0.0000382   5.9609847   6.0000000  )
        26           Ti1 tau(  26) = (   3.2902200   4.4714249   6.0002472  )
        27           O1  tau(  27) = (   0.0002396   2.9813036   7.9858123  )
        28           O1  tau(  28) = (   3.2902150   2.9813002   7.3038282  )
        29           O1  tau(  29) = (   4.5938453   4.4726049   9.2879030  )
        30           O1  tau(  30) = (   1.9864658   4.4711199   9.2879459  )
        31           Ti1 tau(  31) = (   3.2891106   5.8743827   9.1763621  )
        32           Ti1 tau(  32) = (   0.0006254   4.4649316   9.2693709  )
        33           O1  tau(  33) = (   3.2848367   2.9872869  11.3311783  )
        34           O1  tau(  34) = (   0.0092240   2.9805883  10.6323155  )
        35           O1  tau(  35) = (   1.3050274   4.4824158  12.6313026  )
        36           O1  tau(  36) = (   5.2955027   4.4751037  12.6224712  )
        37           Ti1 tau(  37) = (   6.5218534   5.9301143  12.5590122  )
        38           Ti1 tau(  38) = (   3.2037265   4.4702053  12.4865905  )
        39           O1  tau(  39) = (   6.5652647   2.9430126  14.6458727  )
        40           O1  tau(  40) = (   3.3006234   2.9978660  13.9063397  )
        41           O1  tau(  41) = (   4.5289998   4.4870283  16.1192093  )
        42           O1  tau(  42) = (   2.0463452   4.4937679  16.0531255  )
        43           Ti1 tau(  43) = (   3.2679282   0.0255942  15.7259849  )
        44           Ti1 tau(  44) = (   6.5624932   4.6695214  16.1100661  )
        45           O1  tau(  45) = (   3.2900926   2.9813045   4.7018136  )
        46           O1  tau(  46) = (   1.3039711   4.4726057   6.0039043  )
        47           O1  tau(  47) = (   5.2763189   4.4711207   6.0039473  )
        48           N1  tau(  48) = (   0.0665130   2.9625449  17.3937163  )
        49           C1  tau(  49) = (   0.2662726   2.8715582  18.6342609  )
        50           H1  tau(  50) = (   0.3859136   3.7687535  19.2661104  )
        51           H1  tau(  51) = (   0.3502417   1.8926937  19.1273272  )
        52           N1  tau(  52) = (   3.5829462   4.8819607  19.5834040  )
        53           H1  tau(  53) = (   4.1394342   5.6873527  19.8504637  )
        54           H1  tau(  54) = (   4.0752263   4.4438539  18.8113048  )
        55           H1  tau(  55) = (   3.6086599   4.2347498  20.3655469  )

     number of k points=    10  Fermi-Dirac smearing, width (Ry)=  0.0073
                       cart. coord. in units 2pi/alat
        k(    1) = (   0.0000000   0.0000000   0.0000000), wk =   0.1250000
        k(    2) = (   0.0000000   0.0419351   0.0000000), wk =   0.2500000
        k(    3) = (   0.0000000  -0.0838702   0.0000000), wk =   0.1250000
        k(    4) = (   0.0379955   0.0000049   0.0000000), wk =   0.2500000
        k(    5) = (   0.0379955   0.0419400   0.0000000), wk =   0.2500000
        k(    6) = (   0.0379955  -0.0838652   0.0000000), wk =   0.2500000
        k(    7) = (   0.0379955  -0.0419301   0.0000000), wk =   0.2500000
        k(    8) = (  -0.0759910  -0.0000099   0.0000000), wk =   0.1250000
        k(    9) = (  -0.0759910   0.0419252   0.0000000), wk =   0.2500000
        k(   10) = (  -0.0759910  -0.0838800   0.0000000), wk =   0.1250000

     Initial potential from superposition of free atoms

     starting charge  380.99914, renormalised to  397.00000

     negative rho (up, down):  1.455E-02 0.000E+00

     %%%%%%%%%%%%%%%%%%%%%%%%%%%%%%%%%%%%%%%%%%%%%%%%%%%%%%%%%%%%%%%%%%%%%%%%
     %                                                                      %
     % You are using vdW-DF, which was implemented by the Thonhauser group. %
     % Please cite the following two papers that made this development      %
     % possible and the two reviews that describe the various versions:     %
     %                                                                      %
     %   T. Thonhauser et al., PRL 115, 136402 (2015).                      %
     %   T. Thonhauser et al., PRB 76, 125112 (2007).                       %
     %   K. Berland et al., Rep. Prog. Phys. 78, 066501 (2015).             %
     %   D.C. Langreth et al., J. Phys.: Condens. Matter 21, 084203 (2009). %
     %                                                                      %
     %                                                                      %
     % If you are calculating the stress with vdW-DF, please also cite:     %
     %                                                                      %
     %   R. Sabatini et al., J. Phys.: Condens. Matter 24, 424209 (2012).   %
     %                                                                      %
     %%%%%%%%%%%%%%%%%%%%%%%%%%%%%%%%%%%%%%%%%%%%%%%%%%%%%%%%%%%%%%%%%%%%%%%%

     Adding external electric field

     Computed dipole along edir(3) :
        Dipole              -10.1102 Ry au,        -25.6976 Debye
        Dipole field         -0.0191 Ry au,

        Potential amp.        1.7686 Ry
        Total length         46.3494 bohr

     Starting wfcs are  301 atomic wfcs
  @ DRIVER MODE: Message from server: STATUS
  @ DRIVER MODE: Message from server: POSDATA
  @ DRIVER MODE: Reading and sharing cell
  @ DRIVER MODE: Reading and sharing positions
  @ DRIVER MODE: Received positions

     Self-consistent Calculation

     iteration #  1     ecut=    29.40 Ry     beta= 0.05
     Davidson diagonalization with overlap
     c_bands:  2 eigenvalues not converged
     c_bands:  1 eigenvalues not converged
     c_bands:  1 eigenvalues not converged
     c_bands:  1 eigenvalues not converged
     c_bands:  1 eigenvalues not converged
     c_bands:  1 eigenvalues not converged
     c_bands:  1 eigenvalues not converged
     c_bands:  2 eigenvalues not converged
     ethr =  1.00E-05,  avg # of iterations = 19.0

[...]

     total energy              =   -2537.39673112 Ry
     estimated scf accuracy    <    4509.61561203 Ry

     iteration #  2     ecut=    29.40 Ry     beta= 0.05
     Davidson diagonalization with overlap
     ethr =  1.00E-02,  avg # of iterations = 24.7

[...]

     iteration # 43     ecut=    29.40 Ry     beta= 0.05
     Davidson diagonalization with overlap
     c_bands:  1 eigenvalues not converged
     ethr =  1.84E-07,  avg # of iterations = 13.9

[...]

     total energy              =   -2941.70785962 Ry
     estimated scf accuracy    <       0.00000033 Ry

     iteration # 63     ecut=    29.40 Ry     beta= 0.05
     Davidson diagonalization with overlap
     ethr =  4.97E-11,  avg # of iterations =  9.6

     negative rho (up, down):  1.502E-02 0.000E+00

     Adding external electric field

     Computed dipole along edir(3) :
        Dipole                0.8850 Ry au,          2.2494 Debye
        Dipole field          0.0017 Ry au,

        Potential amp.       -0.1548 Ry
        Total length         46.3494 bohr

     End of self-consistent calculation

          k = 0.0000 0.0000 0.0000 ( 18029 PWs)   bands (ev):

   -55.7599 -55.7518 -55.7259 -55.7159 -55.6458 -55.6054 -55.5890 -55.5709
   -55.5687 -55.5348 -55.5327 -55.4991 -55.2794 -55.0279 -54.7369 -54.7029
   -32.3048 -32.2422 -32.1066 -32.0957 -32.0675 -32.0644 -32.0528 -32.0232
   -32.0025 -31.9789 -31.9722 -31.9517 -31.9315 -31.9120 -31.9039 -31.8910
   -31.8768 -31.8641 -31.8496 -31.8170 -31.8147 -31.8120 -31.7704 -31.7639
   -31.7631 -31.7614 -31.7566 -31.7474 -31.7346 -31.7203 -31.7123 -31.7080
   -31.7031 -31.6990 -31.6857 -31.6760 -31.6449 -31.5337 -31.4605 -31.3092
   -31.2817 -31.2353 -31.1439 -31.0557 -31.0332 -30.9607 -30.8742 -30.7631
   -16.5003 -16.2349 -16.0183 -15.9137 -15.8786 -15.7629 -15.5987 -15.4795
   -15.4271 -15.3290 -15.3153 -15.2956 -15.2622 -15.2459 -15.2253 -15.2063
   -15.2015 -15.1839 -15.1705 -15.1191 -15.0962 -15.0591 -14.9618 -14.9322
   -14.8944 -14.8781 -14.8201 -14.8149 -14.6801 -14.3321 -14.0408 -13.2395
   -13.1231  -7.2658  -4.1708  -4.1251  -4.0110  -3.8760  -3.7639  -3.7134
    -3.6650  -3.6049  -3.3986  -3.3083  -3.2818  -2.9873  -2.9414  -2.9264
    -2.9044  -2.8789  -2.6593  -2.6046  -2.5729  -2.5558  -2.5411  -2.5279
    -2.5202  -2.5008  -2.4667  -2.3692  -2.3155  -2.3004  -2.1774  -2.1490
    -2.0886  -2.0717  -2.0251  -2.0102  -1.9972  -1.9924  -1.9640  -1.9478
    -1.9222  -1.8442  -1.7285  -1.5764  -1.5579  -1.5242  -1.4043  -1.3667
    -1.3032  -1.2195  -1.2013  -1.1850  -1.1509  -1.1396  -1.0602  -0.9472
    -0.9071  -0.8986  -0.7951  -0.7551  -0.7349  -0.6309  -0.6071  -0.5390
    -0.5224  -0.5125  -0.4796  -0.3198  -0.2618  -0.2269  -0.1623  -0.1392
    -0.0797  -0.0619  -0.0316   0.0511   0.0993   0.1258   0.1276   0.1764
     0.2150   0.2317   0.2356   0.2505   0.2706   0.4376   0.5135   0.5274
     0.5969   0.6084   0.7710   0.8151   0.8977   0.9998   1.0442   1.2107
     1.2850   1.3744   1.4773   1.6808   1.8562   1.9018   3.3770   3.4603
     3.5088   3.5210   3.6194   3.6605   3.8299   3.8379   3.8483   3.9227

[...]

          k = 0.0380-0.0419 0.0000 ( 17876 PWs)   bands (ev):

[...]

          k =-0.0760-0.0000 0.0000 ( 17886 PWs)   bands (ev):

[...]

          k =-0.0760-0.0839 0.0000 ( 17948 PWs)   bands (ev):

   -55.7433 -55.7424 -55.7346 -55.7330 -55.6399 -55.5948 -55.5899 -55.5863
   -55.5524 -55.5507 -55.5166 -55.5153 -55.2783 -55.0289 -54.7199 -54.7197
   -32.1098 -32.1071 -32.0578 -32.0571 -32.0387 -32.0377 -32.0231 -32.0109
   -31.9585 -31.9545 -31.9498 -31.9456 -31.9110 -31.8844 -31.8828 -31.8797
   -31.8703 -31.8643 -31.8627 -31.8618 -31.8555 -31.8531 -31.8432 -31.8091
   -31.8029 -31.7956 -31.7833 -31.7707 -31.7512 -31.7508 -31.7478 -31.7467
   -31.7312 -31.7305 -31.7256 -31.7227 -31.6432 -31.5361 -31.4570 -31.3759
   -31.2834 -31.2573 -31.0460 -31.0459 -30.9568 -30.9566 -30.9175 -30.9174
   -15.9396 -15.9084 -15.7031 -15.6761 -15.6725 -15.6564 -15.5315 -15.4684
   -15.4551 -15.4528 -15.3890 -15.3686 -15.3319 -15.3045 -15.2904 -15.2801
   -15.2744 -15.2682 -15.2195 -15.2136 -15.1958 -15.1886 -15.0858 -15.0761
   -15.0722 -15.0173 -14.9368 -14.7949 -14.6967 -14.5059 -14.0405 -13.2249
   -13.2248  -7.2622  -4.1883  -4.0911  -4.0297  -3.4331  -3.2295  -3.1923
    -2.9329  -2.9148  -2.9012  -2.8459  -2.6733  -2.6558  -2.6344  -2.6163
    -2.5825  -2.5816  -2.5624  -2.5608  -2.5496  -2.5154  -2.5036  -2.4739
    -2.4362  -2.4259  -2.4142  -2.4130  -2.3827  -2.3729  -2.3342  -2.3048
    -2.2957  -2.2772  -2.2625  -2.0930  -1.9849  -1.9596  -1.8963  -1.8885
    -1.8597  -1.8233  -1.8160  -1.7954  -1.7446  -1.6587  -1.4916  -1.4593
    -1.4410  -1.3789  -1.3615  -1.3106  -1.2308  -1.1567  -1.1346  -1.1292
    -1.0796  -0.9701  -0.9475  -0.9393  -0.8695  -0.8232  -0.8168  -0.7810
    -0.7524  -0.7192  -0.7149  -0.6229  -0.5736  -0.5306  -0.5256  -0.4773
    -0.4099  -0.3987  -0.3701  -0.2609  -0.2382  -0.1806  -0.1459  -0.0362
     0.0272   0.2253   0.2790   0.3155   0.3724   0.4475   0.5298   0.5453
     0.5496   0.5600   0.6157   0.6689   0.7737   0.7825   0.8376   0.9446
     1.0109   1.6049   1.6488   1.6494   1.7216   1.7217   3.6595   3.6712
     3.7100   3.7306   3.8691   3.8843   3.9081   3.9092   3.9606   4.0467

     the Fermi energy is     3.3743 ev

!    total energy              =   -2941.70790095 Ry
     estimated scf accuracy    <       0.00000005 Ry
     smearing contrib. (-TS)   =      -0.02185828 Ry
     internal energy E=F+TS    =   -2941.68604268 Ry

     The total energy is F=E-TS. E is the sum of the following terms:
     one-electron contribution =  -23925.20359248 Ry
     hartree contribution      =   12052.22557728 Ry
     xc contribution           =    -486.75958810 Ry
     ewald contribution        =    9418.05008265 Ry
     electric field correction =       0.00147797 Ry

     convergence has been achieved in  63 iterations

     Forces acting on atoms (cartesian axes, Ry/au):

     atom    1 type  1   force =     0.00002867   -0.00024945    0.09666399
     atom    2 type  1   force =     0.00003778   -0.00058236   -0.17537883
     atom    3 type  2   force =     0.00011463   -0.00004155   -0.02485418
     atom    4 type  2   force =    -0.00000235   -0.00141735    0.05293440
     atom    5 type  2   force =    -0.01227894   -0.00026544    0.00348733
     atom    6 type  2   force =     0.01363387    0.00026490    0.00256262
     atom    7 type  1   force =     0.00031691    0.00058490   -0.01139940
     atom    8 type  1   force =     0.00051971    0.00783688    0.02843539
     atom    9 type  2   force =     0.00020366    0.00041680    0.00052432
     atom   10 type  2   force =    -0.00292011    0.00138239   -0.01555866
     atom   11 type  2   force =     0.00067117   -0.00000860   -0.00001191
     atom   12 type  2   force =    -0.00008676   -0.00013969   -0.00013516
     atom   13 type  1   force =    -0.00018809   -0.00032444    0.00096642
     atom   14 type  1   force =     0.00018757   -0.00008075   -0.00020551
     atom   15 type  2   force =     0.00017670    0.00048261    0.00024871
     atom   16 type  2   force =    -0.00033222   -0.00035949   -0.00030669
     atom   17 type  2   force =    -0.00065884    0.00001469   -0.00046344
     atom   18 type  2   force =     0.00038885    0.00043524   -0.00005508
     atom   19 type  1   force =    -0.00049652   -0.00079845   -0.00020723
     atom   20 type  1   force =     0.00045543    0.00097396   -0.00119198
     atom   21 type  2   force =     0.00005555   -0.00006232    0.10319712
     atom   22 type  2   force =    -0.00077744    0.00002779    0.00069171
     atom   23 type  2   force =    -0.07149201   -0.00013703   -0.02770597
     atom   24 type  2   force =     0.07141675    0.00032362   -0.02778215
     atom   25 type  1   force =     0.00016780   -0.00024569    0.09628670
     atom   26 type  1   force =     0.00009397   -0.00022615   -0.17562158
     atom   27 type  2   force =     0.00017039   -0.00018766   -0.02390943
     atom   28 type  2   force =     0.00000038   -0.00117412    0.05284592
     atom   29 type  2   force =    -0.01240797    0.00039330    0.00318150
     atom   30 type  2   force =     0.01366208    0.00085684    0.00222714
     atom   31 type  1   force =     0.00029040    0.00324364   -0.01198901
     atom   32 type  1   force =     0.00065245   -0.01007340    0.02883823
     atom   33 type  2   force =     0.00024126   -0.00024976    0.00065721
     atom   34 type  2   force =    -0.00238018    0.00102584   -0.02370436
     atom   35 type  2   force =     0.00059293   -0.00070564   -0.00008499
     atom   36 type  2   force =    -0.00016470   -0.00079072    0.00017806
     atom   37 type  1   force =    -0.00017237   -0.00013265    0.00046705
     atom   38 type  1   force =     0.00030286    0.00036728   -0.00066244
     atom   39 type  2   force =    -0.00009375   -0.00076477    0.00121752
     atom   40 type  2   force =     0.00026449   -0.00062517   -0.00013656
     atom   41 type  2   force =    -0.00024873   -0.00062034   -0.00004279
     atom   42 type  2   force =    -0.00035242   -0.00024489   -0.00003439
     atom   43 type  1   force =    -0.00049314    0.00070422    0.00005532
     atom   44 type  1   force =    -0.00017905    0.00009461   -0.00048380
     atom   45 type  2   force =     0.00007179   -0.00006676    0.10322093
     atom   46 type  2   force =    -0.07152877   -0.00009250   -0.02773430
     atom   47 type  2   force =     0.07143271    0.00033192   -0.02779647
     atom   48 type  3   force =    -0.00016548   -0.00105720   -0.00106491
     atom   49 type  4   force =     0.00128731    0.00726579    0.00444700
     atom   50 type  5   force =    -0.00121557   -0.00769595   -0.00317180
     atom   51 type  5   force =    -0.00016873    0.00126424   -0.00001417
     atom   52 type  3   force =    -0.00158892    0.00032660   -0.00063120
     atom   53 type  5   force =     0.00138154    0.00073892   -0.00012615
     atom   54 type  5   force =     0.00138190   -0.00040276    0.00102072
     atom   55 type  5   force =     0.00019155    0.00046608   -0.00189076

     Total force =     0.368265     Total SCF correction =     0.000570
  @ DRIVER MODE: Message from server: STATUS
  @ DRIVER MODE: Message from server: GETFORCE
  @ DRIVER MODE: Returning v,forces,stress,ensemble

     Writing output data file ./calc.save/
  @ DRIVER MODE: Message from server: EXIT
  @ DRIVE MODE: Exiting

     General routines

     Parallel routines

   This run was terminated on:  15:58:29  24Aug2021

   JOB DONE.