     Program PWSCF v.6.7GPU starts on 27Sep2021 at 23:40:51

     R & G space division:  proc/nbgrp/npool/nimage =       8
     Reading input from /storage/home/hcoda1/3/ntian30/research/carbon/CxH_vib/H2O_calc/ads_slab/CHNHO_a/out_0004/pw.inp
Warning: card &CELL ignored
Warning: card   CELL_DYNAMICS='IPI', ignored
Warning: card / ignored

     Current dimensions of program PWSCF are:
     Max number of different atomic species (ntypx) = 10
     Max number of k-points (npk) =  40000
     Max angular momentum in pseudopotentials (lmaxx) =  3
     Presently no symmetry can be used with electric field

     Message from routine cell_base_init:
     DEPRECATED: use true lattice parameter, not A to a.u. conversion factor

     IMPORTANT: XC functional enforced from input :
     Exchange-correlation= BEEF-VDW
                           (   1   4  43  14   2   0   0)
     Any further DFT definition will be discarded
     Please, verify this is what you really want

  @ DRIVER MODE: Connecting to
 qe_1139763_3003541.sched-torque.pace.gatech.edu5qv8ywdi_scratch
  using UNIX socket
  @ DRIVER MODE: Message from server: STATUS
  @ DRIVER MODE: Message from server: INIT
  @ DRIVER MODE: Receiving replica           0          -1
  @ DRIVER MODE: Receiving encoded integer          25
  @ DRIVER MODE:  SCF:  T  FORCE:  T  STRESS:  F  VC:  F  ENSEMBLE:  F
  @ DRIVER MODE:  SCF:  T  FORCE:  T  STRESS:  F  VC:  F  ENSEMBLE:  F

     Using Slab Decomposition

     bravais-lattice index     =            0
     lattice parameter (alat)  =       1.8897  a.u.
     unit-cell volume          =    6658.9804 (a.u.)^3
     number of atoms/cell      =           52
     number of atomic types    =            5
     number of electrons       =       395.00
     number of Kohn-Sham states=          207
     kinetic-energy cutoff     =      29.3995  Ry
     charge density cutoff     =     293.9946  Ry
     scf convergence threshold =      7.3E-08
     mixing beta               =       0.0500
     number of iterations used =            8  plain     mixing
     Exchange-correlation= BEEF-VDW
                           (   1   4  43  14   2   0   0)

     celldm(1)=   1.889726  celldm(2)=   0.000000  celldm(3)=   0.000000
     celldm(4)=   0.000000  celldm(5)=   0.000000  celldm(6)=   0.000000

     crystal axes: (cart. coord. in units of alat)
               a(1) = (   6.579727   0.000000   0.000000 )
               a(2) = (  -0.000775   5.961596   0.000000 )
               a(3) = (   0.000000   0.000000  25.155947 )

     reciprocal axes: (cart. coord. in units 2 pi/alat)
               b(1) = (  0.151982  0.000020  0.000000 )
               b(2) = (  0.000000  0.167740  0.000000 )
               b(3) = (  0.000000  0.000000  0.039752 )

     PseudoPot. # 1 for Ti read from file:
     /storage/coda1/p-amedford6/0/shared/rich_project_chbe-medford/medford-share/data/pseudos_module/espresso/nninc/pbe/van/Ti.UPF
     MD5 check sum: 8e4df49b7f0d34bbd5052bf3f5ea0213
     Pseudo is Ultrasoft, Zval = 12.0
     Generated by new atomic code, or converted to UPF format
     Using radial grid of  851 points,  6 beta functions with:
                l(1) =   0
                l(2) =   0
                l(3) =   1
                l(4) =   1
                l(5) =   2
                l(6) =   2
     Q(r) pseudized with  8 coefficients,  rinner =    1.000   1.000   1.000
                                                       1.000   1.000

     PseudoPot. # 2 for O  read from file:
     /storage/coda1/p-amedford6/0/shared/rich_project_chbe-medford/medford-share/data/pseudos_module/espresso/nninc/pbe/van/O.UPF
     MD5 check sum: 78c19812648e8988a0fe644b0f25305e
     Pseudo is Ultrasoft, Zval =  6.0
     Generated by new atomic code, or converted to UPF format
     Using radial grid of  737 points,  4 beta functions with:
                l(1) =   0
                l(2) =   0
                l(3) =   1
                l(4) =   1
     Q(r) pseudized with  8 coefficients,  rinner =    0.800   0.800   0.800

     PseudoPot. # 3 for N  read from file:
     /storage/coda1/p-amedford6/0/shared/rich_project_chbe-medford/medford-share/data/pseudos_module/espresso/nninc/pbe/van/N.UPF
     MD5 check sum: 90d10febe142ad51ac9d5be1deb811c4
     Pseudo is Ultrasoft, Zval =  5.0
     Generated by new atomic code, or converted to UPF format
     Using radial grid of  729 points,  4 beta functions with:
                l(1) =   0
                l(2) =   0
                l(3) =   1
                l(4) =   1
     Q(r) pseudized with  8 coefficients,  rinner =    0.800   0.800   0.800

     PseudoPot. # 4 for C  read from file:
     /storage/coda1/p-amedford6/0/shared/rich_project_chbe-medford/medford-share/data/pseudos_module/espresso/nninc/pbe/van/C.UPF
     MD5 check sum: 1a69bf6b8db32088f5b2163dbdb77a27
     Pseudo is Ultrasoft, Zval =  4.0
     Generated by new atomic code, or converted to UPF format
     Using radial grid of  721 points,  4 beta functions with:
                l(1) =   0
                l(2) =   0
                l(3) =   1
                l(4) =   1
     Q(r) pseudized with  8 coefficients,  rinner =    0.800   0.800   0.800

     PseudoPot. # 5 for H  read from file:
     /storage/coda1/p-amedford6/0/shared/rich_project_chbe-medford/medford-share/data/pseudos_module/espresso/nninc/pbe/van/H.UPF
     MD5 check sum: b5ee9d7bfd3a09ee7748110bda690ff7
     Pseudo is Ultrasoft, Zval =  1.0
     Generated by new atomic code, or converted to UPF format
     Using radial grid of  615 points,  1 beta functions with:
                l(1) =   0
     Q(r) pseudized with  8 coefficients,  rinner =    0.800

     atomic species   valence    mass     pseudopotential
        Ti1           12.00    47.86700     Ti( 1.00)
        O1             6.00    15.99900     O ( 1.00)
        N1             5.00    14.00700     N ( 1.00)
        C1             4.00    12.01100     C ( 1.00)
        H1             1.00     1.00800     H ( 1.00)

     No symmetry found

   Cartesian axes

     site n.     atom                  positions (alat units)
         1           Ti1 tau(   1) = (   0.0004258   2.9801865   6.0000000  )
         2           Ti1 tau(   2) = (   3.2906075   1.4906267   6.0002472  )
         3           O1  tau(   3) = (   0.0006271   0.0005054   7.9858123  )
         4           O1  tau(   4) = (   3.2906025   0.0005020   7.3038282  )
         5           O1  tau(   5) = (   4.5942328   1.4918067   9.2879030  )
         6           O1  tau(   6) = (   1.9868534   1.4903216   9.2879459  )
         7           Ti1 tau(   7) = (   3.2907910   2.8959150   9.1758416  )
         8           Ti1 tau(   8) = (   0.0015273   1.4827037   9.2680791  )
         9           O1  tau(   9) = (   3.2959632   0.0395795  11.3506057  )
        10           O1  tau(  10) = (   0.0116148   5.9584955  10.6183126  )
        11           O1  tau(  11) = (   1.2788542   1.5152540  12.6826201  )
        12           O1  tau(  12) = (   5.3118026   1.5181145  12.6771052  )
        13           Ti1 tau(  13) = (   6.5565567   2.9614743  12.5245697  )
        14           Ti1 tau(  14) = (   3.2956814   1.5864178  12.4516600  )
        15           O1  tau(  15) = (   0.0252471   5.9065102  14.6673769  )
        16           O1  tau(  16) = (   3.3061784   5.9134112  13.9760755  )
        17           O1  tau(  17) = (   4.5493393   1.5513651  16.1111979  )
        18           O1  tau(  18) = (   2.0154464   1.5530992  16.0877549  )
        19           Ti1 tau(  19) = (   3.2773477   2.9896638  15.7021987  )
        20           Ti1 tau(  20) = (   0.0480268   1.3694702  15.7882682  )
        21           O1  tau(  21) = (   3.2904802   0.0005063   4.7018136  )
        22           O1  tau(  22) = (   6.5727385   0.1062933  17.1740559  )
        23           O1  tau(  23) = (   1.3043587   1.4918075   6.0039043  )
        24           O1  tau(  24) = (   5.2767064   1.4903225   6.0039473  )
        25           Ti1 tau(  25) = (   0.0000382   5.9609847   6.0000000  )
        26           Ti1 tau(  26) = (   3.2902200   4.4714249   6.0002472  )
        27           O1  tau(  27) = (   0.0002396   2.9813036   7.9858123  )
        28           O1  tau(  28) = (   3.2902150   2.9813002   7.3038282  )
        29           O1  tau(  29) = (   4.5938453   4.4726049   9.2879030  )
        30           O1  tau(  30) = (   1.9864658   4.4711199   9.2879459  )
        31           Ti1 tau(  31) = (   3.2891106   5.8743827   9.1763621  )
        32           Ti1 tau(  32) = (   0.0006254   4.4649316   9.2693709  )
        33           O1  tau(  33) = (   3.2965180   2.9598593  11.3174316  )
        34           O1  tau(  34) = (   0.0092240   2.9805883  10.6323155  )
        35           O1  tau(  35) = (   1.2824442   4.4846720  12.6503842  )
        36           O1  tau(  36) = (   5.3188658   4.4853930  12.6478368  )
        37           Ti1 tau(  37) = (   0.0485215   5.9261111  12.5025588  )
        38           Ti1 tau(  38) = (   3.3111372   4.6778342  12.7091208  )
        39           O1  tau(  39) = (   6.5585416   3.0335453  14.9077256  )
        40           O1  tau(  40) = (   3.2962521   3.0064119  13.9315977  )
        41           O1  tau(  41) = (   4.5433468   4.4479239  16.1972702  )
        42           O1  tau(  42) = (   2.0131479   4.4365031  16.1967174  )
        43           Ti1 tau(  43) = (   3.3705753   0.0290894  16.3529554  )
        44           Ti1 tau(  44) = (   0.0540424   4.5922997  16.0496824  )
        45           O1  tau(  45) = (   3.2900926   2.9813045   4.7018136  )
        46           O1  tau(  46) = (   1.3039711   4.4726057   6.0039043  )
        47           O1  tau(  47) = (   5.2763189   4.4711207   6.0039473  )
        48           N1  tau(  48) = (   6.5754701   3.2132128  17.9785674  )
        49           C1  tau(  49) = (   6.5468619   2.3444050  18.7439128  )
        50           H1  tau(  50) = (   6.5191205   1.5204410  19.4189644  )
        51           O1  tau(  51) = (   3.3183073   0.1146119  18.2142577  )
        52           H1  tau(  52) = (   3.2686675   5.2273609  18.6755658  )

     number of k points=    10  Fermi-Dirac smearing, width (Ry)=  0.0073
                       cart. coord. in units 2pi/alat
        k(    1) = (   0.0000000   0.0000000   0.0000000), wk =   0.1250000
        k(    2) = (   0.0000000   0.0419351   0.0000000), wk =   0.2500000
        k(    3) = (   0.0000000  -0.0838702   0.0000000), wk =   0.1250000
        k(    4) = (   0.0379955   0.0000049   0.0000000), wk =   0.2500000
        k(    5) = (   0.0379955   0.0419400   0.0000000), wk =   0.2500000
        k(    6) = (   0.0379955  -0.0838652   0.0000000), wk =   0.2500000
        k(    7) = (   0.0379955  -0.0419301   0.0000000), wk =   0.2500000
        k(    8) = (  -0.0759910  -0.0000099   0.0000000), wk =   0.1250000
        k(    9) = (  -0.0759910   0.0419252   0.0000000), wk =   0.2500000
        k(   10) = (  -0.0759910  -0.0838800   0.0000000), wk =   0.1250000

     Initial potential from superposition of free atoms

     starting charge  378.99918, renormalised to  395.00000

     negative rho (up, down):  1.719E-02 0.000E+00

     %%%%%%%%%%%%%%%%%%%%%%%%%%%%%%%%%%%%%%%%%%%%%%%%%%%%%%%%%%%%%%%%%%%%%%%%
     %                                                                      %
     % You are using vdW-DF, which was implemented by the Thonhauser group. %
     % Please cite the following two papers that made this development      %
     % possible and the two reviews that describe the various versions:     %
     %                                                                      %
     %   T. Thonhauser et al., PRL 115, 136402 (2015).                      %
     %   T. Thonhauser et al., PRB 76, 125112 (2007).                       %
     %   K. Berland et al., Rep. Prog. Phys. 78, 066501 (2015).             %
     %   D.C. Langreth et al., J. Phys.: Condens. Matter 21, 084203 (2009). %
     %                                                                      %
     %                                                                      %
     % If you are calculating the stress with vdW-DF, please also cite:     %
     %                                                                      %
     %   R. Sabatini et al., J. Phys.: Condens. Matter 24, 424209 (2012).   %
     %                                                                      %
     %%%%%%%%%%%%%%%%%%%%%%%%%%%%%%%%%%%%%%%%%%%%%%%%%%%%%%%%%%%%%%%%%%%%%%%%

     Adding external electric field

     Computed dipole along edir(3) :
        Dipole               -8.1496 Ry au,        -20.7143 Debye
        Dipole field         -0.0154 Ry au,

        Potential amp.        1.4257 Ry
        Total length         46.3494 bohr

     Starting wfcs are  298 atomic wfcs
  @ DRIVER MODE: Message from server: STATUS
  @ DRIVER MODE: Message from server: POSDATA
  @ DRIVER MODE: Reading and sharing cell
  @ DRIVER MODE: Reading and sharing positions
  @ DRIVER MODE: Received positions

     Self-consistent Calculation

     iteration #  1     ecut=    29.40 Ry     beta= 0.05
     Davidson diagonalization with overlap
     c_bands:  1 eigenvalues not converged
     c_bands:  2 eigenvalues not converged
     c_bands:  2 eigenvalues not converged
     c_bands:  3 eigenvalues not converged
     c_bands:  3 eigenvalues not converged
     c_bands:  1 eigenvalues not converged
     c_bands:  1 eigenvalues not converged
     ethr =  1.00E-05,  avg # of iterations = 19.3

[...]

     total energy              =   -2615.14280602 Ry
     estimated scf accuracy    <    3704.60210384 Ry

     iteration #  2     ecut=    29.40 Ry     beta= 0.05
     Davidson diagonalization with overlap
     ethr =  1.00E-02,  avg # of iterations = 23.0

[...]

     iteration # 38     ecut=    29.40 Ry     beta= 0.05
     Davidson diagonalization with overlap
     c_bands:  1 eigenvalues not converged
     ethr =  3.77E-07,  avg # of iterations = 11.5

[...]

     total energy              =   -2950.24095419 Ry
     estimated scf accuracy    <       0.00000030 Ry

     iteration # 62     ecut=    29.40 Ry     beta= 0.05
     Davidson diagonalization with overlap
     ethr =  3.43E-11,  avg # of iterations = 10.3

     negative rho (up, down):  1.735E-02 0.000E+00

     Adding external electric field

     Computed dipole along edir(3) :
        Dipole                1.2340 Ry au,          3.1366 Debye
        Dipole field          0.0023 Ry au,

        Potential amp.       -0.2159 Ry
        Total length         46.3494 bohr

     End of self-consistent calculation

          k = 0.0000 0.0000 0.0000 ( 18029 PWs)   bands (ev):

   -55.6685 -55.6197 -55.5856 -55.4478 -55.4435 -55.4405 -55.4111 -55.4108
   -55.4090 -55.3704 -55.3272 -55.2883 -55.2073 -55.0984 -54.5830 -54.5490
   -32.1035 -32.0164 -32.0131 -31.9478 -31.9351 -31.9107 -31.8910 -31.8814
   -31.8654 -31.8571 -31.8195 -31.7721 -31.7301 -31.7255 -31.7165 -31.7092
   -31.6980 -31.6927 -31.6772 -31.6546 -31.6490 -31.6414 -31.6400 -31.6228
   -31.6183 -31.5924 -31.5902 -31.5883 -31.5722 -31.5675 -31.5599 -31.5452
   -31.5430 -31.5233 -31.4902 -31.4807 -31.4771 -31.4193 -31.4008 -31.3499
   -31.3179 -31.3089 -30.9884 -30.9035 -30.8810 -30.8060 -30.7197 -30.6079
   -17.1885 -16.5935 -16.2441 -16.0803 -15.8615 -15.7808 -15.7497 -15.5637
   -15.4518 -15.4039 -15.1918 -15.1511 -15.1318 -15.1165 -15.0924 -15.0868
   -15.0728 -15.0345 -15.0339 -15.0169 -14.9975 -14.9628 -14.9464 -14.8970
   -14.8164 -14.8107 -14.7493 -14.6743 -14.6278 -14.3550 -14.3340 -13.0812
   -12.9651  -8.7557  -4.4806  -4.1494  -3.6002  -3.5172  -3.4880  -3.4297
    -3.3695  -3.2508  -3.1000  -3.0525  -2.9788  -2.9217  -2.8160  -2.7162
    -2.6462  -2.6000  -2.5424  -2.5100  -2.4707  -2.4294  -2.3937  -2.3526
    -2.3255  -2.3157  -2.2586  -2.2293  -2.1327  -2.1250  -2.0845  -1.9950
    -1.9759  -1.9310  -1.9232  -1.9197  -1.8654  -1.8507  -1.8338  -1.7995
    -1.6787  -1.6535  -1.6475  -1.5899  -1.5241  -1.2141  -1.2056  -1.1459
    -1.0686  -1.0384  -1.0120  -0.9939  -0.9322  -0.8932  -0.8786  -0.8606
    -0.7881  -0.6945  -0.6620  -0.6136  -0.4602  -0.4527  -0.3991  -0.3803
    -0.3534  -0.3140  -0.2596  -0.1921  -0.1652  -0.1417  -0.0106   0.0112
     0.0579   0.0725   0.1169   0.1650   0.1994   0.2664   0.3159   0.3377
     0.3553   0.3656   0.3993   0.4188   0.5105   0.5433   0.5928   0.6594
     0.7172   0.7342   0.7871   0.9458   1.0414   1.0676   1.1792   1.3969
     1.4436   1.4969   1.6397   2.0094   2.0543   3.4696   3.6189   3.6359
     3.7268   3.7372   3.8230   3.9569   4.0510   4.1724   4.2180

[...]

          k = 0.0380-0.0419 0.0000 ( 17876 PWs)   bands (ev):

[...]

          k =-0.0760-0.0000 0.0000 ( 17886 PWs)   bands (ev):

[...]

          k =-0.0760-0.0839 0.0000 ( 17948 PWs)   bands (ev):

   -55.6678 -55.6028 -55.6024 -55.4385 -55.4328 -55.4286 -55.4270 -55.4242
   -55.4096 -55.3623 -55.3353 -55.2903 -55.2047 -55.1009 -54.5659 -54.5659
   -31.9561 -31.9431 -31.9189 -31.9187 -31.8964 -31.8961 -31.8932 -31.8698
   -31.7995 -31.7589 -31.7572 -31.7499 -31.7366 -31.7226 -31.7222 -31.7098
   -31.7023 -31.7000 -31.6959 -31.6725 -31.6719 -31.6573 -31.6447 -31.6284
   -31.6272 -31.6257 -31.6174 -31.6076 -31.6050 -31.6001 -31.5972 -31.5819
   -31.5752 -31.5585 -31.5515 -31.5067 -31.4946 -31.4696 -31.4384 -31.4047
   -31.3557 -31.3133 -30.8938 -30.8937 -30.8015 -30.8011 -30.7630 -30.7628
   -17.1806 -16.5848 -15.8704 -15.6508 -15.5824 -15.5773 -15.4421 -15.3723
   -15.3491 -15.3200 -15.3028 -15.2672 -15.2418 -15.2260 -15.1826 -15.1612
   -15.1274 -15.1095 -15.0944 -15.0555 -15.0447 -15.0192 -15.0100 -14.9938
   -14.9365 -14.9153 -14.9063 -14.7719 -14.7369 -14.6659 -14.4740 -13.0670
   -13.0669  -8.7535  -4.4604  -4.1622  -3.2690  -3.0702  -3.0214  -2.8627
    -2.7977  -2.6748  -2.6502  -2.6147  -2.5472  -2.5312  -2.5004  -2.4564
    -2.3961  -2.3735  -2.3678  -2.3440  -2.3338  -2.3028  -2.2850  -2.2776
    -2.2724  -2.2454  -2.2319  -2.2181  -2.1939  -2.1635  -2.1612  -2.1445
    -2.1266  -2.0538  -1.9877  -1.9403  -1.8162  -1.7625  -1.7519  -1.7387
    -1.7237  -1.6863  -1.6793  -1.6405  -1.6151  -1.5027  -1.4232  -1.3785
    -1.3071  -1.1989  -1.1782  -1.1704  -1.1069  -1.0742  -1.0414  -1.0398
    -0.9332  -0.9032  -0.8180  -0.7635  -0.7284  -0.6629  -0.5727  -0.5581
    -0.5485  -0.5249  -0.5053  -0.4895  -0.4627  -0.4255  -0.3440  -0.3072
    -0.3022  -0.3009  -0.2490  -0.1747  -0.1114   0.0757   0.1625   0.1704
     0.2188   0.2564   0.4500   0.4847   0.5129   0.5293   0.5745   0.6272
     0.6906   0.7068   0.7553   0.8217   0.9105   0.9365   0.9694   0.9805
     1.0266   1.8079   1.8156   1.8745   1.8747   3.6395   3.9460   3.9848
     4.0032   4.0112   4.0495   4.0535   4.0729   4.1523   4.1609

     the Fermi energy is     3.5035 ev

!    total energy              =   -2950.24099454 Ry
     estimated scf accuracy    <       0.00000007 Ry
     smearing contrib. (-TS)   =      -0.01956326 Ry
     internal energy E=F+TS    =   -2950.22143128 Ry

     The total energy is F=E-TS. E is the sum of the following terms:
     one-electron contribution =  -23960.58325632 Ry
     hartree contribution      =   12071.25556150 Ry
     xc contribution           =    -486.31146959 Ry
     ewald contribution        =    9425.41485936 Ry
     electric field correction =       0.00287378 Ry

     convergence has been achieved in  62 iterations

     Forces acting on atoms (cartesian axes, Ry/au):

     atom    1 type  1   force =     0.00007652   -0.00023867    0.09448482
     atom    2 type  1   force =     0.00001585    0.00016637   -0.17483070
     atom    3 type  2   force =     0.00002804   -0.00043640   -0.02145261
     atom    4 type  2   force =     0.00004125   -0.00079940    0.05271336
     atom    5 type  2   force =    -0.00430630   -0.00228949    0.00043290
     atom    6 type  2   force =     0.00597060   -0.00164076    0.00006394
     atom    7 type  1   force =    -0.00012005    0.00325540    0.01155259
     atom    8 type  1   force =     0.00013821    0.00254264    0.00479423
     atom    9 type  2   force =    -0.00017651    0.00026925   -0.00026041
     atom   10 type  2   force =    -0.00077823    0.00345132   -0.01166468
     atom   11 type  2   force =     0.00053097   -0.00039314    0.00025747
     atom   12 type  2   force =    -0.00002882   -0.00023995    0.00009751
     atom   13 type  1   force =    -0.00102300   -0.00040004    0.00004727
     atom   14 type  1   force =     0.00081673    0.00051086   -0.00013866
     atom   15 type  2   force =     0.00021187    0.00007753   -0.00077073
     atom   16 type  2   force =    -0.00033269   -0.00072220    0.00081578
     atom   17 type  2   force =     0.00072650    0.00009613   -0.00059808
     atom   18 type  2   force =    -0.00040726   -0.00014224    0.00015320
     atom   19 type  1   force =     0.00054958    0.00088105    0.00036681
     atom   20 type  1   force =     0.00010469   -0.00032967   -0.00012105
     atom   21 type  2   force =     0.00009111    0.00000612    0.10299979
     atom   22 type  2   force =     0.00006318    0.00138548   -0.00011708
     atom   23 type  2   force =    -0.07228828   -0.00017294   -0.02736614
     atom   24 type  2   force =     0.07226268    0.00024155   -0.02741149
     atom   25 type  1   force =     0.00013695   -0.00025127    0.09441034
     atom   26 type  1   force =    -0.00008917   -0.00124981   -0.17479330
     atom   27 type  2   force =     0.00020524   -0.00006496   -0.02023874
     atom   28 type  2   force =     0.00009518   -0.00095750    0.04851714
     atom   29 type  2   force =    -0.00683981    0.00193632    0.00269039
     atom   30 type  2   force =     0.00839053    0.00227092    0.00215575
     atom   31 type  1   force =     0.00005013    0.00104630    0.00141704
     atom   32 type  1   force =     0.00009915   -0.00336682    0.00513359
     atom   33 type  2   force =    -0.00015853   -0.00020604    0.00008113
     atom   34 type  2   force =    -0.00192658   -0.00084047   -0.01112871
     atom   35 type  2   force =     0.00067445   -0.00019623    0.00000070
     atom   36 type  2   force =    -0.00004685    0.00011096   -0.00000399
     atom   37 type  1   force =    -0.00124067   -0.00010321   -0.00030225
     atom   38 type  1   force =     0.00068327    0.00012891    0.00071056
     atom   39 type  2   force =     0.00025009   -0.00076248    0.00008771
     atom   40 type  2   force =    -0.00035519   -0.00013861    0.00015171
     atom   41 type  2   force =    -0.00094860   -0.00047457    0.00011574
     atom   42 type  2   force =     0.00049153   -0.00052577   -0.00029262
     atom   43 type  1   force =     0.00029182   -0.00012309    0.00017163
     atom   44 type  1   force =    -0.00086968   -0.00021936   -0.00006122
     atom   45 type  2   force =     0.00008196    0.00003723    0.10285886
     atom   46 type  2   force =    -0.07221962   -0.00008726   -0.02729814
     atom   47 type  2   force =     0.07221790    0.00037535   -0.02735365
     atom   48 type  3   force =    -0.00083653   -0.02625695    0.02174954
     atom   49 type  4   force =     0.00076102    0.02553247   -0.02200181
     atom   50 type  5   force =    -0.00030099   -0.00023231    0.00005538
     atom   51 type  2   force =    -0.00024490    0.00074735   -0.00144344
     atom   52 type  5   force =    -0.00051875   -0.00120793    0.00056263

     Total force =     0.364745     Total SCF correction =     0.000613
  @ DRIVER MODE: Message from server: STATUS
  @ DRIVER MODE: Message from server: GETFORCE
  @ DRIVER MODE: Returning v,forces,stress,ensemble

     Writing output data file ./calc.save/
  @ DRIVER MODE: Message from server: EXIT
  @ DRIVE MODE: Exiting

     General routines

     Parallel routines

   This run was terminated on:   0: 1:34  28Sep2021

   JOB DONE.