     Program PWSCF v.6.7GPU starts on 26Sep2021 at 16:39: 3

     R & G space division:  proc/nbgrp/npool/nimage =       8
     Reading input from /storage/home/hcoda1/3/ntian30/research/carbon/CxH_vib/H2O_calc/ads_slab/CH2NHNHHO_b/out_0020/pw.inp
Warning: card &CELL ignored
Warning: card   CELL_DYNAMICS='IPI', ignored
Warning: card / ignored

     Current dimensions of program PWSCF are:
     Max number of different atomic species (ntypx) = 10
     Max number of k-points (npk) =  40000
     Max angular momentum in pseudopotentials (lmaxx) =  3
     Presently no symmetry can be used with electric field

     Message from routine cell_base_init:
     DEPRECATED: use true lattice parameter, not A to a.u. conversion factor

     IMPORTANT: XC functional enforced from input :
     Exchange-correlation= BEEF-VDW
                           (   1   4  43  14   2   0   0)
     Any further DFT definition will be discarded
     Please, verify this is what you really want

  @ DRIVER MODE: Connecting to
 qe_1139763_2971671.sched-torque.pace.gatech.edu38v9m27e_scratch
  using UNIX socket
  @ DRIVER MODE: Message from server: STATUS
  @ DRIVER MODE: Message from server: INIT
  @ DRIVER MODE: Receiving replica           0          -1
  @ DRIVER MODE: Receiving encoded integer          25
  @ DRIVER MODE:  SCF:  T  FORCE:  T  STRESS:  F  VC:  F  ENSEMBLE:  F
  @ DRIVER MODE:  SCF:  T  FORCE:  T  STRESS:  F  VC:  F  ENSEMBLE:  F

     Using Slab Decomposition

     bravais-lattice index     =            0
     lattice parameter (alat)  =       1.8897  a.u.
     unit-cell volume          =    6658.9804 (a.u.)^3
     number of atoms/cell      =           56
     number of atomic types    =            5
     number of electrons       =       403.00
     number of Kohn-Sham states=          211
     kinetic-energy cutoff     =      29.3995  Ry
     charge density cutoff     =     293.9946  Ry
     scf convergence threshold =      7.3E-08
     mixing beta               =       0.0500
     number of iterations used =            8  plain     mixing
     Exchange-correlation= BEEF-VDW
                           (   1   4  43  14   2   0   0)

     celldm(1)=   1.889726  celldm(2)=   0.000000  celldm(3)=   0.000000
     celldm(4)=   0.000000  celldm(5)=   0.000000  celldm(6)=   0.000000

     crystal axes: (cart. coord. in units of alat)
               a(1) = (   6.579727   0.000000   0.000000 )
               a(2) = (  -0.000775   5.961596   0.000000 )
               a(3) = (   0.000000   0.000000  25.155947 )

     reciprocal axes: (cart. coord. in units 2 pi/alat)
               b(1) = (  0.151982  0.000020  0.000000 )
               b(2) = (  0.000000  0.167740  0.000000 )
               b(3) = (  0.000000  0.000000  0.039752 )

     PseudoPot. # 1 for Ti read from file:
     /storage/coda1/p-amedford6/0/shared/rich_project_chbe-medford/medford-share/data/pseudos_module/espresso/nninc/pbe/van/Ti.UPF
     MD5 check sum: 8e4df49b7f0d34bbd5052bf3f5ea0213
     Pseudo is Ultrasoft, Zval = 12.0
     Generated by new atomic code, or converted to UPF format
     Using radial grid of  851 points,  6 beta functions with:
                l(1) =   0
                l(2) =   0
                l(3) =   1
                l(4) =   1
                l(5) =   2
                l(6) =   2
     Q(r) pseudized with  8 coefficients,  rinner =    1.000   1.000   1.000
                                                       1.000   1.000

     PseudoPot. # 2 for O  read from file:
     /storage/coda1/p-amedford6/0/shared/rich_project_chbe-medford/medford-share/data/pseudos_module/espresso/nninc/pbe/van/O.UPF
     MD5 check sum: 78c19812648e8988a0fe644b0f25305e
     Pseudo is Ultrasoft, Zval =  6.0
     Generated by new atomic code, or converted to UPF format
     Using radial grid of  737 points,  4 beta functions with:
                l(1) =   0
                l(2) =   0
                l(3) =   1
                l(4) =   1
     Q(r) pseudized with  8 coefficients,  rinner =    0.800   0.800   0.800

     PseudoPot. # 3 for N  read from file:
     /storage/coda1/p-amedford6/0/shared/rich_project_chbe-medford/medford-share/data/pseudos_module/espresso/nninc/pbe/van/N.UPF
     MD5 check sum: 90d10febe142ad51ac9d5be1deb811c4
     Pseudo is Ultrasoft, Zval =  5.0
     Generated by new atomic code, or converted to UPF format
     Using radial grid of  729 points,  4 beta functions with:
                l(1) =   0
                l(2) =   0
                l(3) =   1
                l(4) =   1
     Q(r) pseudized with  8 coefficients,  rinner =    0.800   0.800   0.800

     PseudoPot. # 4 for C  read from file:
     /storage/coda1/p-amedford6/0/shared/rich_project_chbe-medford/medford-share/data/pseudos_module/espresso/nninc/pbe/van/C.UPF
     MD5 check sum: 1a69bf6b8db32088f5b2163dbdb77a27
     Pseudo is Ultrasoft, Zval =  4.0
     Generated by new atomic code, or converted to UPF format
     Using radial grid of  721 points,  4 beta functions with:
                l(1) =   0
                l(2) =   0
                l(3) =   1
                l(4) =   1
     Q(r) pseudized with  8 coefficients,  rinner =    0.800   0.800   0.800

     PseudoPot. # 5 for H  read from file:
     /storage/coda1/p-amedford6/0/shared/rich_project_chbe-medford/medford-share/data/pseudos_module/espresso/nninc/pbe/van/H.UPF
     MD5 check sum: b5ee9d7bfd3a09ee7748110bda690ff7
     Pseudo is Ultrasoft, Zval =  1.0
     Generated by new atomic code, or converted to UPF format
     Using radial grid of  615 points,  1 beta functions with:
                l(1) =   0
     Q(r) pseudized with  8 coefficients,  rinner =    0.800

     atomic species   valence    mass     pseudopotential
        Ti1           12.00    47.86700     Ti( 1.00)
        O1             6.00    15.99900     O ( 1.00)
        N1             5.00    14.00700     N ( 1.00)
        C1             4.00    12.01100     C ( 1.00)
        H1             1.00     1.00800     H ( 1.00)

     No symmetry found

   Cartesian axes

     site n.     atom                  positions (alat units)
         1           Ti1 tau(   1) = (   0.0004258   2.9801865   6.0000000  )
         2           Ti1 tau(   2) = (   3.2906075   1.4906267   6.0002472  )
         3           O1  tau(   3) = (   0.0006271   0.0005054   7.9858123  )
         4           O1  tau(   4) = (   3.2906025   0.0005020   7.3038282  )
         5           O1  tau(   5) = (   4.5942328   1.4918067   9.2879030  )
         6           O1  tau(   6) = (   1.9868534   1.4903216   9.2879459  )
         7           Ti1 tau(   7) = (   3.2907910   2.8959150   9.1758416  )
         8           Ti1 tau(   8) = (   0.0015273   1.4827037   9.2680791  )
         9           O1  tau(   9) = (   3.2987294   5.9443783  11.3578989  )
        10           O1  tau(  10) = (   0.0116148   5.9584955  10.6183126  )
        11           O1  tau(  11) = (   1.2795512   1.4821507  12.6386044  )
        12           O1  tau(  12) = (   5.2980455   1.5005163  12.6536529  )
        13           Ti1 tau(  13) = (   6.5652885   2.9238251  12.5528928  )
        14           Ti1 tau(  14) = (   3.2988635   1.2998061  12.7048432  )
        15           O1  tau(  15) = (   0.0127057   0.0339484  14.6761273  )
        16           O1  tau(  16) = (   3.2875936   0.0940603  14.0290633  )
        17           O1  tau(  17) = (   4.5650748   1.6033894  16.0357995  )
        18           O1  tau(  18) = (   2.0190796   1.5896112  16.2175902  )
        19           Ti1 tau(  19) = (   3.3013862   3.0422678  15.6649453  )
        20           Ti1 tau(  20) = (   6.4815444   1.5191555  15.8288377  )
        21           O1  tau(  21) = (   3.2904802   0.0005063   4.7018136  )
        22           O1  tau(  22) = (   6.5172723   5.9480513  17.2191950  )
        23           O1  tau(  23) = (   1.3043587   1.4918075   6.0039043  )
        24           O1  tau(  24) = (   5.2767064   1.4903225   6.0039473  )
        25           Ti1 tau(  25) = (   0.0000382   5.9609847   6.0000000  )
        26           Ti1 tau(  26) = (   3.2902200   4.4714249   6.0002472  )
        27           O1  tau(  27) = (   0.0002396   2.9813036   7.9858123  )
        28           O1  tau(  28) = (   3.2902150   2.9813002   7.3038282  )
        29           O1  tau(  29) = (   4.5938453   4.4726049   9.2879030  )
        30           O1  tau(  30) = (   1.9864658   4.4711199   9.2879459  )
        31           Ti1 tau(  31) = (   3.2891106   5.8743827   9.1763621  )
        32           Ti1 tau(  32) = (   0.0006254   4.4649316   9.2693709  )
        33           O1  tau(  33) = (   3.2945946   2.9940555  11.3077331  )
        34           O1  tau(  34) = (   0.0092240   2.9805883  10.6323155  )
        35           O1  tau(  35) = (   1.2876619   4.4781899  12.6403949  )
        36           O1  tau(  36) = (   5.3010724   4.4646845  12.6541769  )
        37           Ti1 tau(  37) = (   0.0424196   5.9023569  12.5123361  )
        38           Ti1 tau(  38) = (   3.3119368   4.3729351  12.4217702  )
        39           O1  tau(  39) = (   0.0401333   2.9740317  14.7512036  )
        40           O1  tau(  40) = (   3.2576645   3.0028392  13.8982547  )
        41           O1  tau(  41) = (   4.5666544   4.4234537  16.0705803  )
        42           O1  tau(  42) = (   2.0215446   4.4756893  16.1430302  )
        43           Ti1 tau(  43) = (   3.2259990   0.0392177  16.2341362  )
        44           Ti1 tau(  44) = (   6.5723990   4.6710500  15.9980081  )
        45           O1  tau(  45) = (   3.2900926   2.9813045   4.7018136  )
        46           O1  tau(  46) = (   1.3039711   4.4726057   6.0039043  )
        47           O1  tau(  47) = (   5.2763189   4.4711207   6.0039473  )
        48           N1  tau(  48) = (   0.9334729   2.5913682  18.4753943  )
        49           N1  tau(  49) = (   6.5156687   2.9055835  17.6419879  )
        50           C1  tau(  50) = (   1.0224037   2.6952286  19.7617917  )
        51           H1  tau(  51) = (   1.9266829   2.3177709  20.2270220  )
        52           H1  tau(  52) = (   0.2162702   3.1370440  20.3260263  )
        53           H1  tau(  53) = (   1.6995924   2.1399843  17.9426691  )
        54           H1  tau(  54) = (   5.6785098   3.1284051  18.1783837  )
        55           O1  tau(  55) = (   3.5318048   0.0910060  18.0897867  )
        56           H1  tau(  56) = (   4.4897960   0.0680733  18.2655997  )

     number of k points=    10  Fermi-Dirac smearing, width (Ry)=  0.0073
                       cart. coord. in units 2pi/alat
        k(    1) = (   0.0000000   0.0000000   0.0000000), wk =   0.1250000
        k(    2) = (   0.0000000   0.0419351   0.0000000), wk =   0.2500000
        k(    3) = (   0.0000000  -0.0838702   0.0000000), wk =   0.1250000
        k(    4) = (   0.0379955   0.0000049   0.0000000), wk =   0.2500000
        k(    5) = (   0.0379955   0.0419400   0.0000000), wk =   0.2500000
        k(    6) = (   0.0379955  -0.0838652   0.0000000), wk =   0.2500000
        k(    7) = (   0.0379955  -0.0419301   0.0000000), wk =   0.2500000
        k(    8) = (  -0.0759910  -0.0000099   0.0000000), wk =   0.1250000
        k(    9) = (  -0.0759910   0.0419252   0.0000000), wk =   0.2500000
        k(   10) = (  -0.0759910  -0.0838800   0.0000000), wk =   0.1250000

     Initial potential from superposition of free atoms

     starting charge  386.99914, renormalised to  403.00000

     negative rho (up, down):  1.426E-02 0.000E+00

     %%%%%%%%%%%%%%%%%%%%%%%%%%%%%%%%%%%%%%%%%%%%%%%%%%%%%%%%%%%%%%%%%%%%%%%%
     %                                                                      %
     % You are using vdW-DF, which was implemented by the Thonhauser group. %
     % Please cite the following two papers that made this development      %
     % possible and the two reviews that describe the various versions:     %
     %                                                                      %
     %   T. Thonhauser et al., PRL 115, 136402 (2015).                      %
     %   T. Thonhauser et al., PRB 76, 125112 (2007).                       %
     %   K. Berland et al., Rep. Prog. Phys. 78, 066501 (2015).             %
     %   D.C. Langreth et al., J. Phys.: Condens. Matter 21, 084203 (2009). %
     %                                                                      %
     %                                                                      %
     % If you are calculating the stress with vdW-DF, please also cite:     %
     %                                                                      %
     %   R. Sabatini et al., J. Phys.: Condens. Matter 24, 424209 (2012).   %
     %                                                                      %
     %%%%%%%%%%%%%%%%%%%%%%%%%%%%%%%%%%%%%%%%%%%%%%%%%%%%%%%%%%%%%%%%%%%%%%%%

     Adding external electric field

     Computed dipole along edir(3) :
        Dipole              -12.9683 Ry au,        -32.9621 Debye
        Dipole field         -0.0245 Ry au,

        Potential amp.        2.2686 Ry
        Total length         46.3494 bohr

     Starting wfcs are  305 atomic wfcs
  @ DRIVER MODE: Message from server: STATUS
  @ DRIVER MODE: Message from server: POSDATA
  @ DRIVER MODE: Reading and sharing cell
  @ DRIVER MODE: Reading and sharing positions
  @ DRIVER MODE: Received positions

     Self-consistent Calculation

     iteration #  1     ecut=    29.40 Ry     beta= 0.05
     Davidson diagonalization with overlap
     c_bands:  4 eigenvalues not converged
     c_bands:  4 eigenvalues not converged
     c_bands:  3 eigenvalues not converged
     c_bands:  1 eigenvalues not converged
     c_bands:  3 eigenvalues not converged
     c_bands:  2 eigenvalues not converged
     ethr =  1.00E-05,  avg # of iterations = 25.6

[...]

     total energy              =   -2352.69613891 Ry
     estimated scf accuracy    <    7059.66834848 Ry

     iteration #  2     ecut=    29.40 Ry     beta= 0.05
     Davidson diagonalization with overlap
     ethr =  1.00E-02,  avg # of iterations = 22.9

[...]

     iteration # 57     ecut=    29.40 Ry     beta= 0.05
     Davidson diagonalization with overlap
     c_bands:  1 eigenvalues not converged
     c_bands:  1 eigenvalues not converged
     ethr =  3.14E-11,  avg # of iterations = 14.2

[...]

     total energy              =   -2973.99831767 Ry
     estimated scf accuracy    <       0.00000010 Ry

     iteration # 59     ecut=    29.40 Ry     beta= 0.05
     Davidson diagonalization with overlap
     ethr =  2.39E-11,  avg # of iterations = 10.1

     negative rho (up, down):  1.505E-02 0.000E+00

     Adding external electric field

     Computed dipole along edir(3) :
        Dipole                1.3493 Ry au,          3.4297 Debye
        Dipole field          0.0025 Ry au,

        Potential amp.       -0.2360 Ry
        Total length         46.3494 bohr

     End of self-consistent calculation

          k = 0.0000 0.0000 0.0000 ( 18029 PWs)   bands (ev):

   -55.4231 -55.3273 -55.2932 -55.1481 -55.1445 -55.1329 -55.1125 -55.1105
   -55.0836 -55.0555 -55.0335 -54.9568 -54.9543 -54.9102 -54.2905 -54.2564
   -31.8103 -31.7450 -31.6797 -31.6480 -31.6367 -31.6266 -31.6190 -31.5975
   -31.5722 -31.5710 -31.5668 -31.4823 -31.4796 -31.4323 -31.4184 -31.4043
   -31.3981 -31.3847 -31.3613 -31.3467 -31.3386 -31.3378 -31.3289 -31.3147
   -31.3028 -31.2907 -31.2785 -31.2753 -31.2740 -31.2626 -31.2592 -31.2489
   -31.2331 -31.2290 -31.2263 -31.1894 -31.1785 -31.1504 -31.1382 -31.1282
   -31.1160 -31.1118 -30.6960 -30.6109 -30.5884 -30.5136 -30.4272 -30.3155
   -19.6153 -16.1799 -15.9488 -15.7967 -15.6145 -15.4909 -15.4329 -15.2197
   -15.1521 -15.0809 -15.0007 -14.9357 -14.8579 -14.8439 -14.8185 -14.8031
   -14.7789 -14.7408 -14.7393 -14.7349 -14.6922 -14.6860 -14.6553 -14.6055
   -14.6001 -14.5781 -14.4559 -14.3823 -14.3363 -14.2024 -14.0823 -13.9468
   -12.7893 -12.6731 -10.1620  -6.9870  -6.6889  -4.2780  -4.0049  -3.6419
    -3.3295  -3.2528  -3.2220  -3.1811  -3.0570  -2.8760  -2.7584  -2.6852
    -2.5819  -2.4578  -2.4406  -2.3396  -2.3150  -2.2474  -2.2116  -2.1720
    -2.1515  -2.1281  -2.1050  -2.1014  -1.9894  -1.9850  -1.8599  -1.8425
    -1.7937  -1.7341  -1.6861  -1.6393  -1.6276  -1.6091  -1.5933  -1.5848
    -1.5541  -1.5403  -1.5169  -1.4647  -1.4039  -1.3564  -1.3193  -1.2064
    -1.0170  -0.9191  -0.8672  -0.8255  -0.7929  -0.7436  -0.7172  -0.7091
    -0.6793  -0.6411  -0.5084  -0.5005  -0.4542  -0.3784  -0.3387  -0.3181
    -0.1919  -0.1789  -0.1063  -0.0497  -0.0470  -0.0356   0.0585   0.1162
     0.1447   0.1737   0.2245   0.2811   0.3547   0.3835   0.4169   0.4762
     0.5372   0.5656   0.6252   0.6442   0.6561   0.7380   0.7589   0.7834
     0.8056   0.8768   0.9241   0.9598   1.0001   1.0885   1.1188   1.1680
     1.2051   1.3604   1.4150   1.6843   1.7356   1.8001   1.9295   2.3020
     2.3468   3.7747   3.9105   3.9297   3.9340   4.0316   4.1345   4.2476
     4.2957   4.3317   4.3767

[...]

          k = 0.0380-0.0419 0.0000 ( 17876 PWs)   bands (ev):

[...]

          k =-0.0760-0.0000 0.0000 ( 17886 PWs)   bands (ev):

[...]

          k =-0.0760-0.0839 0.0000 ( 17948 PWs)   bands (ev):

   -55.4223 -55.3105 -55.3098 -55.1335 -55.1333 -55.1302 -55.1285 -55.1233
   -55.0771 -55.0526 -55.0401 -54.9571 -54.9501 -54.9167 -54.2739 -54.2729
   -31.6787 -31.6716 -31.6282 -31.6257 -31.6254 -31.6047 -31.6041 -31.5447
   -31.5055 -31.4589 -31.4513 -31.4507 -31.4442 -31.4431 -31.4303 -31.4294
   -31.4196 -31.3977 -31.3769 -31.3680 -31.3570 -31.3421 -31.3411 -31.3297
   -31.3283 -31.3185 -31.3086 -31.3008 -31.2980 -31.2967 -31.2940 -31.2848
   -31.2726 -31.2621 -31.2573 -31.2490 -31.2197 -31.2091 -31.1823 -31.1591
   -31.1429 -31.1165 -30.6014 -30.6007 -30.5095 -30.5083 -30.4708 -30.4701
   -19.6134 -16.1425 -15.4849 -15.4161 -15.2672 -15.2580 -15.1870 -15.1460
   -15.1397 -15.0883 -15.0818 -15.0137 -14.9888 -14.9804 -14.9406 -14.8893
   -14.8391 -14.8092 -14.8037 -14.7556 -14.7457 -14.7342 -14.6977 -14.6780
   -14.6292 -14.6256 -14.6102 -14.5312 -14.4756 -14.3174 -14.3023 -13.9595
   -12.7753 -12.7747 -10.1652  -6.9825  -6.6863  -4.2685  -3.9932  -3.5951
    -2.6914  -2.6866  -2.6251  -2.4703  -2.4262  -2.3260  -2.3150  -2.2561
    -2.2423  -2.1945  -2.1737  -2.1624  -2.1258  -2.1058  -2.1026  -2.0758
    -2.0561  -2.0459  -2.0199  -1.9839  -1.9817  -1.9516  -1.9432  -1.9262
    -1.9060  -1.8845  -1.8651  -1.8596  -1.8082  -1.7747  -1.6174  -1.5978
    -1.4596  -1.4571  -1.4429  -1.4214  -1.3879  -1.3763  -1.3372  -1.3031
    -1.2332  -1.1902  -1.0955  -1.0603  -0.9531  -0.9250  -0.8547  -0.8067
    -0.7675  -0.7449  -0.7341  -0.7043  -0.6314  -0.5558  -0.5100  -0.4695
    -0.3696  -0.2937  -0.2692  -0.2649  -0.2577  -0.2246  -0.1544  -0.1529
    -0.1118  -0.0956  -0.0135  -0.0030   0.0111   0.0302   0.1642   0.1951
     0.2931   0.3571   0.4070   0.4610   0.4936   0.5440   0.6583   0.7894
     0.8421   0.8675   0.8811   0.9431   0.9914   1.0066   1.0531   1.1254
     1.1966   1.2457   1.2654   1.2889   1.3399   2.0986   2.1073   2.1669
     2.1673   4.0373   4.1387   4.2535   4.2878   4.3034   4.3227   4.3400
     4.3647   4.4088   4.4513

     the Fermi energy is     3.8001 ev

!    total energy              =   -2973.99837358 Ry
     estimated scf accuracy    <       0.00000005 Ry
     smearing contrib. (-TS)   =      -0.02052492 Ry
     internal energy E=F+TS    =   -2973.97784866 Ry

     The total energy is F=E-TS. E is the sum of the following terms:
     one-electron contribution =  -23635.40102605 Ry
     hartree contribution      =   11914.60757779 Ry
     xc contribution           =    -494.11250283 Ry
     ewald contribution        =    9240.92466646 Ry
     electric field correction =       0.00343597 Ry

     convergence has been achieved in  59 iterations

     Forces acting on atoms (cartesian axes, Ry/au):

     atom    1 type  1   force =    -0.00005870   -0.00028985    0.09523699
     atom    2 type  1   force =    -0.00010972    0.00042591   -0.17493974
     atom    3 type  2   force =     0.00000897   -0.00028167   -0.02254560
     atom    4 type  2   force =     0.00005211   -0.00195780    0.05325219
     atom    5 type  2   force =    -0.00764643   -0.00250816    0.00194670
     atom    6 type  2   force =     0.00923854   -0.00206882    0.00146949
     atom    7 type  1   force =    -0.00022792   -0.00467238    0.00730734
     atom    8 type  1   force =     0.00014223    0.00535334    0.01280591
     atom    9 type  2   force =    -0.00010801   -0.00003226    0.00022456
     atom   10 type  2   force =    -0.00275618    0.00061140   -0.01380232
     atom   11 type  2   force =    -0.00015841    0.00022384   -0.00001120
     atom   12 type  2   force =     0.00014820   -0.00003286    0.00024326
     atom   13 type  1   force =     0.00025487    0.00019522    0.00029211
     atom   14 type  1   force =     0.00002192   -0.00001776    0.00019294
     atom   15 type  2   force =     0.00036606   -0.00006343    0.00011069
     atom   16 type  2   force =    -0.00037049   -0.00007537    0.00005562
     atom   17 type  2   force =     0.00027344   -0.00025908   -0.00003543
     atom   18 type  2   force =     0.00006018    0.00005099    0.00026717
     atom   19 type  1   force =     0.00027836   -0.00003124   -0.00006484
     atom   20 type  1   force =     0.00010061   -0.00012490   -0.00007859
     atom   21 type  2   force =     0.00005718    0.00003410    0.10302485
     atom   22 type  2   force =     0.00006275    0.00012311   -0.00009783
     atom   23 type  2   force =    -0.07221721   -0.00020102   -0.02751422
     atom   24 type  2   force =     0.07212103    0.00020958   -0.02758032
     atom   25 type  1   force =     0.00010927   -0.00024868    0.09497486
     atom   26 type  1   force =    -0.00023279   -0.00136806   -0.17514982
     atom   27 type  2   force =     0.00015743   -0.00013755   -0.02138468
     atom   28 type  2   force =     0.00004987   -0.00025444    0.04859782
     atom   29 type  2   force =    -0.00690817    0.00262475    0.00143993
     atom   30 type  2   force =     0.00849067    0.00314632    0.00086554
     atom   31 type  1   force =    -0.00009625    0.00788221   -0.00302397
     atom   32 type  1   force =     0.00038996   -0.00772693    0.01219186
     atom   33 type  2   force =     0.00008294   -0.00002959   -0.00013848
     atom   34 type  2   force =    -0.00196114    0.00048902   -0.01636914
     atom   35 type  2   force =    -0.00013172    0.00002637   -0.00000036
     atom   36 type  2   force =    -0.00005046    0.00031708   -0.00001041
     atom   37 type  1   force =    -0.00013978    0.00017662    0.00002467
     atom   38 type  1   force =    -0.00009101    0.00005800    0.00015500
     atom   39 type  2   force =    -0.00005509   -0.00029022    0.00003707
     atom   40 type  2   force =     0.00012404    0.00000139    0.00020668
     atom   41 type  2   force =     0.00008759   -0.00012081   -0.00003566
     atom   42 type  2   force =     0.00024036   -0.00014092   -0.00006042
     atom   43 type  1   force =    -0.00021833   -0.00001508   -0.00034220
     atom   44 type  1   force =     0.00025666   -0.00003723   -0.00010190
     atom   45 type  2   force =     0.00008883   -0.00014082    0.10281471
     atom   46 type  2   force =    -0.07220682   -0.00009407   -0.02756677
     atom   47 type  2   force =     0.07213687    0.00036339   -0.02759590
     atom   48 type  3   force =    -0.00011644    0.00029620    0.00008186
     atom   49 type  3   force =     0.00031624   -0.00011726   -0.00007186
     atom   50 type  4   force =     0.00934373   -0.00345173    0.00373120
     atom   51 type  5   force =    -0.00935284    0.00401062   -0.00376457
     atom   52 type  5   force =    -0.00027856   -0.00029203    0.00052634
     atom   53 type  5   force =     0.00059070    0.00010507   -0.00017984
     atom   54 type  5   force =     0.00002396    0.00011492   -0.00003590
     atom   55 type  2   force =    -0.00058957   -0.00011039    0.00027336
     atom   56 type  5   force =     0.00040642    0.00035295    0.00015127

     Total force =     0.363528     Total SCF correction =     0.000661
  @ DRIVER MODE: Message from server: STATUS
  @ DRIVER MODE: Message from server: GETFORCE
  @ DRIVER MODE: Returning v,forces,stress,ensemble

     Writing output data file ./calc.save/
  @ DRIVER MODE: Message from server: EXIT
  @ DRIVE MODE: Exiting

     General routines

     Parallel routines

   This run was terminated on:  17:17: 4  26Sep2021

   JOB DONE.