     Program PWSCF v.6.7GPU starts on 25Sep2021 at 17:56:56

     R & G space division:  proc/nbgrp/npool/nimage =       8
     Reading input from /storage/home/hcoda1/3/ntian30/research/carbon/CxH_vib/H2O_calc/ads_slab/CH3N2OHHO_l/out_0007/pw.inp
Warning: card &CELL ignored
Warning: card   CELL_DYNAMICS='IPI', ignored
Warning: card / ignored

     Current dimensions of program PWSCF are:
     Max number of different atomic species (ntypx) = 10
     Max number of k-points (npk) =  40000
     Max angular momentum in pseudopotentials (lmaxx) =  3
     Presently no symmetry can be used with electric field

     Message from routine cell_base_init:
     DEPRECATED: use true lattice parameter, not A to a.u. conversion factor

     IMPORTANT: XC functional enforced from input :
     Exchange-correlation= BEEF-VDW
                           (   1   4  43  14   2   0   0)
     Any further DFT definition will be discarded
     Please, verify this is what you really want

  @ DRIVER MODE: Connecting to
 qe_1139763_2971669.sched-torque.pace.gatech.edumqs3210b_scratch
  using UNIX socket
  @ DRIVER MODE: Message from server: STATUS
  @ DRIVER MODE: Message from server: INIT
  @ DRIVER MODE: Receiving replica           0          -1
  @ DRIVER MODE: Receiving encoded integer          25
  @ DRIVER MODE:  SCF:  T  FORCE:  T  STRESS:  F  VC:  F  ENSEMBLE:  F
  @ DRIVER MODE:  SCF:  T  FORCE:  T  STRESS:  F  VC:  F  ENSEMBLE:  F

     Using Slab Decomposition

     bravais-lattice index     =            0
     lattice parameter (alat)  =       1.8897  a.u.
     unit-cell volume          =    6658.9804 (a.u.)^3
     number of atoms/cell      =           57
     number of atomic types    =            5
     number of electrons       =       409.00
     number of Kohn-Sham states=          214
     kinetic-energy cutoff     =      29.3995  Ry
     charge density cutoff     =     293.9946  Ry
     scf convergence threshold =      7.3E-08
     mixing beta               =       0.0500
     number of iterations used =            8  plain     mixing
     Exchange-correlation= BEEF-VDW
                           (   1   4  43  14   2   0   0)

     celldm(1)=   1.889726  celldm(2)=   0.000000  celldm(3)=   0.000000
     celldm(4)=   0.000000  celldm(5)=   0.000000  celldm(6)=   0.000000

     crystal axes: (cart. coord. in units of alat)
               a(1) = (   6.579727   0.000000   0.000000 )
               a(2) = (  -0.000775   5.961596   0.000000 )
               a(3) = (   0.000000   0.000000  25.155947 )

     reciprocal axes: (cart. coord. in units 2 pi/alat)
               b(1) = (  0.151982  0.000020  0.000000 )
               b(2) = (  0.000000  0.167740  0.000000 )
               b(3) = (  0.000000  0.000000  0.039752 )

     PseudoPot. # 1 for Ti read from file:
     /storage/coda1/p-amedford6/0/shared/rich_project_chbe-medford/medford-share/data/pseudos_module/espresso/nninc/pbe/van/Ti.UPF
     MD5 check sum: 8e4df49b7f0d34bbd5052bf3f5ea0213
     Pseudo is Ultrasoft, Zval = 12.0
     Generated by new atomic code, or converted to UPF format
     Using radial grid of  851 points,  6 beta functions with:
                l(1) =   0
                l(2) =   0
                l(3) =   1
                l(4) =   1
                l(5) =   2
                l(6) =   2
     Q(r) pseudized with  8 coefficients,  rinner =    1.000   1.000   1.000
                                                       1.000   1.000

     PseudoPot. # 2 for O  read from file:
     /storage/coda1/p-amedford6/0/shared/rich_project_chbe-medford/medford-share/data/pseudos_module/espresso/nninc/pbe/van/O.UPF
     MD5 check sum: 78c19812648e8988a0fe644b0f25305e
     Pseudo is Ultrasoft, Zval =  6.0
     Generated by new atomic code, or converted to UPF format
     Using radial grid of  737 points,  4 beta functions with:
                l(1) =   0
                l(2) =   0
                l(3) =   1
                l(4) =   1
     Q(r) pseudized with  8 coefficients,  rinner =    0.800   0.800   0.800

     PseudoPot. # 3 for N  read from file:
     /storage/coda1/p-amedford6/0/shared/rich_project_chbe-medford/medford-share/data/pseudos_module/espresso/nninc/pbe/van/N.UPF
     MD5 check sum: 90d10febe142ad51ac9d5be1deb811c4
     Pseudo is Ultrasoft, Zval =  5.0
     Generated by new atomic code, or converted to UPF format
     Using radial grid of  729 points,  4 beta functions with:
                l(1) =   0
                l(2) =   0
                l(3) =   1
                l(4) =   1
     Q(r) pseudized with  8 coefficients,  rinner =    0.800   0.800   0.800

     PseudoPot. # 4 for C  read from file:
     /storage/coda1/p-amedford6/0/shared/rich_project_chbe-medford/medford-share/data/pseudos_module/espresso/nninc/pbe/van/C.UPF
     MD5 check sum: 1a69bf6b8db32088f5b2163dbdb77a27
     Pseudo is Ultrasoft, Zval =  4.0
     Generated by new atomic code, or converted to UPF format
     Using radial grid of  721 points,  4 beta functions with:
                l(1) =   0
                l(2) =   0
                l(3) =   1
                l(4) =   1
     Q(r) pseudized with  8 coefficients,  rinner =    0.800   0.800   0.800

     PseudoPot. # 5 for H  read from file:
     /storage/coda1/p-amedford6/0/shared/rich_project_chbe-medford/medford-share/data/pseudos_module/espresso/nninc/pbe/van/H.UPF
     MD5 check sum: b5ee9d7bfd3a09ee7748110bda690ff7
     Pseudo is Ultrasoft, Zval =  1.0
     Generated by new atomic code, or converted to UPF format
     Using radial grid of  615 points,  1 beta functions with:
                l(1) =   0
     Q(r) pseudized with  8 coefficients,  rinner =    0.800

     atomic species   valence    mass     pseudopotential
        Ti1           12.00    47.86700     Ti( 1.00)
        O1             6.00    15.99900     O ( 1.00)
        N1             5.00    14.00700     N ( 1.00)
        C1             4.00    12.01100     C ( 1.00)
        H1             1.00     1.00800     H ( 1.00)

     No symmetry found

   Cartesian axes

     site n.     atom                  positions (alat units)
         1           Ti1 tau(   1) = (   0.0004258   2.9801865   6.0000000  )
         2           Ti1 tau(   2) = (   3.2906075   1.4906267   6.0002472  )
         3           O1  tau(   3) = (   0.0006271   0.0005054   7.9858123  )
         4           O1  tau(   4) = (   3.2906025   0.0005020   7.3038282  )
         5           O1  tau(   5) = (   4.5942328   1.4918067   9.2879030  )
         6           O1  tau(   6) = (   1.9868534   1.4903216   9.2879459  )
         7           Ti1 tau(   7) = (   3.2907910   2.8959150   9.1758416  )
         8           Ti1 tau(   8) = (   0.0015273   1.4827037   9.2680791  )
         9           O1  tau(   9) = (   3.2779673   5.9607700  11.3423085  )
        10           O1  tau(  10) = (   0.0116148   5.9584955  10.6183126  )
        11           O1  tau(  11) = (   1.2787083   1.4818767  12.6451794  )
        12           O1  tau(  12) = (   5.2707140   1.4872516  12.6060838  )
        13           Ti1 tau(  13) = (   0.0520196   2.9452147  12.6012095  )
        14           Ti1 tau(  14) = (   3.3669591   1.4706787  12.5087448  )
        15           O1  tau(  15) = (   6.5166736   5.9505275  14.6414754  )
        16           O1  tau(  16) = (   3.3002175   0.0041348  13.9548274  )
        17           O1  tau(  17) = (   4.5235890   1.5203341  16.0633414  )
        18           O1  tau(  18) = (   1.9992342   1.5602939  15.9747780  )
        19           Ti1 tau(  19) = (   3.2541499   3.0080313  15.6961896  )
        20           Ti1 tau(  20) = (   6.5591015   1.5323982  15.7823192  )
        21           O1  tau(  21) = (   3.2904802   0.0005063   4.7018136  )
        22           O1  tau(  22) = (   0.0960927   0.0099221  17.2178370  )
        23           O1  tau(  23) = (   1.3043587   1.4918075   6.0039043  )
        24           O1  tau(  24) = (   5.2767064   1.4903225   6.0039473  )
        25           Ti1 tau(  25) = (   0.0000382   5.9609847   6.0000000  )
        26           Ti1 tau(  26) = (   3.2902200   4.4714249   6.0002472  )
        27           O1  tau(  27) = (   0.0002396   2.9813036   7.9858123  )
        28           O1  tau(  28) = (   3.2902150   2.9813002   7.3038282  )
        29           O1  tau(  29) = (   4.5938453   4.4726049   9.2879030  )
        30           O1  tau(  30) = (   1.9864658   4.4711199   9.2879459  )
        31           Ti1 tau(  31) = (   3.2891106   5.8743827   9.1763621  )
        32           Ti1 tau(  32) = (   0.0006254   4.4649316   9.2693709  )
        33           O1  tau(  33) = (   3.2807211   2.9768430  11.3440791  )
        34           O1  tau(  34) = (   0.0092240   2.9805883  10.6323155  )
        35           O1  tau(  35) = (   1.2789702   4.4681595  12.6395138  )
        36           O1  tau(  36) = (   5.2737968   4.4775610  12.6008310  )
        37           Ti1 tau(  37) = (   0.0460201   5.9176504  12.5434570  )
        38           Ti1 tau(  38) = (   3.3658678   4.4646095  12.4976877  )
        39           O1  tau(  39) = (   6.5297297   2.9761478  14.6509524  )
        40           O1  tau(  40) = (   3.3085871   2.9961499  13.9017917  )
        41           O1  tau(  41) = (   4.5138497   4.4896837  16.1272785  )
        42           O1  tau(  42) = (   1.9961282   4.4344792  16.0060688  )
        43           Ti1 tau(  43) = (   3.3116018   0.0224549  15.7990204  )
        44           Ti1 tau(  44) = (   6.5775847   4.6577750  16.0638065  )
        45           O1  tau(  45) = (   3.2900926   2.9813045   4.7018136  )
        46           O1  tau(  46) = (   1.3039711   4.4726057   6.0039043  )
        47           O1  tau(  47) = (   5.2763189   4.4711207   6.0039473  )
        48           N1  tau(  48) = (   6.5065777   2.6139801  18.6303060  )
        49           N1  tau(  49) = (   6.5264102   2.8728423  17.4370429  )
        50           C1  tau(  50) = (   6.4341180   3.7235584  19.6105657  )
        51           H1  tau(  51) = (   6.3066687   4.7022679  19.1488110  )
        52           H1  tau(  52) = (   5.6164842   3.4805663  20.2913871  )
        53           H1  tau(  53) = (   0.7823074   3.6964598  20.1845303  )
        54           O1  tau(  54) = (   3.0314481   5.0835218  18.9911038  )
        55           H1  tau(  55) = (   1.7414717   0.2044793  18.0242669  )
        56           O1  tau(  56) = (   2.7372941   0.2572207  18.0778760  )
        57           H1  tau(  57) = (   3.9343361   5.3466317  19.2487757  )

     number of k points=    10  Fermi-Dirac smearing, width (Ry)=  0.0073
                       cart. coord. in units 2pi/alat
        k(    1) = (   0.0000000   0.0000000   0.0000000), wk =   0.1250000
        k(    2) = (   0.0000000   0.0419351   0.0000000), wk =   0.2500000
        k(    3) = (   0.0000000  -0.0838702   0.0000000), wk =   0.1250000
        k(    4) = (   0.0379955   0.0000049   0.0000000), wk =   0.2500000
        k(    5) = (   0.0379955   0.0419400   0.0000000), wk =   0.2500000
        k(    6) = (   0.0379955  -0.0838652   0.0000000), wk =   0.2500000
        k(    7) = (   0.0379955  -0.0419301   0.0000000), wk =   0.2500000
        k(    8) = (  -0.0759910  -0.0000099   0.0000000), wk =   0.1250000
        k(    9) = (  -0.0759910   0.0419252   0.0000000), wk =   0.2500000
        k(   10) = (  -0.0759910  -0.0838800   0.0000000), wk =   0.1250000

     Initial potential from superposition of free atoms

     starting charge  392.99914, renormalised to  409.00000

     negative rho (up, down):  1.422E-02 0.000E+00

     %%%%%%%%%%%%%%%%%%%%%%%%%%%%%%%%%%%%%%%%%%%%%%%%%%%%%%%%%%%%%%%%%%%%%%%%
     %                                                                      %
     % You are using vdW-DF, which was implemented by the Thonhauser group. %
     % Please cite the following two papers that made this development      %
     % possible and the two reviews that describe the various versions:     %
     %                                                                      %
     %   T. Thonhauser et al., PRL 115, 136402 (2015).                      %
     %   T. Thonhauser et al., PRB 76, 125112 (2007).                       %
     %   K. Berland et al., Rep. Prog. Phys. 78, 066501 (2015).             %
     %   D.C. Langreth et al., J. Phys.: Condens. Matter 21, 084203 (2009). %
     %                                                                      %
     %                                                                      %
     % If you are calculating the stress with vdW-DF, please also cite:     %
     %                                                                      %
     %   R. Sabatini et al., J. Phys.: Condens. Matter 24, 424209 (2012).   %
     %                                                                      %
     %%%%%%%%%%%%%%%%%%%%%%%%%%%%%%%%%%%%%%%%%%%%%%%%%%%%%%%%%%%%%%%%%%%%%%%%

     Adding external electric field

     Computed dipole along edir(3) :
        Dipole              -16.7505 Ry au,        -42.5754 Debye
        Dipole field         -0.0316 Ry au,

        Potential amp.        2.9302 Ry
        Total length         46.3494 bohr

     Starting wfcs are  309 atomic wfcs
  @ DRIVER MODE: Message from server: STATUS
  @ DRIVER MODE: Message from server: POSDATA
  @ DRIVER MODE: Reading and sharing cell
  @ DRIVER MODE: Reading and sharing positions
  @ DRIVER MODE: Received positions

     Self-consistent Calculation

     iteration #  1     ecut=    29.40 Ry     beta= 0.05
     Davidson diagonalization with overlap
     c_bands:  5 eigenvalues not converged
     c_bands:  5 eigenvalues not converged
     c_bands:  3 eigenvalues not converged
     c_bands:  1 eigenvalues not converged
     c_bands:  4 eigenvalues not converged
     c_bands:  2 eigenvalues not converged
     c_bands:  5 eigenvalues not converged
     ethr =  1.00E-05,  avg # of iterations = 26.6

[...]

     total energy              =   -2110.46302813 Ry
     estimated scf accuracy    <   10326.53641770 Ry

     iteration #  2     ecut=    29.40 Ry     beta= 0.05
     Davidson diagonalization with overlap
     ethr =  1.00E-02,  avg # of iterations = 32.0

[...]

     iteration # 59     ecut=    29.40 Ry     beta= 0.05
     Davidson diagonalization with overlap
     c_bands:  2 eigenvalues not converged
     ethr =  2.79E-11,  avg # of iterations = 15.0

[...]

     total energy              =   -3006.13720128 Ry
     estimated scf accuracy    <       0.00000010 Ry

     iteration # 60     ecut=    29.40 Ry     beta= 0.05
     Davidson diagonalization with overlap
     ethr =  2.35E-11,  avg # of iterations =  6.4

     negative rho (up, down):  1.469E-02 0.000E+00

     Adding external electric field

     Computed dipole along edir(3) :
        Dipole                0.8088 Ry au,          2.0557 Debye
        Dipole field          0.0015 Ry au,

        Potential amp.       -0.1415 Ry
        Total length         46.3494 bohr

     End of self-consistent calculation

          k = 0.0000 0.0000 0.0000 ( 18029 PWs)   bands (ev):

   -55.6051 -55.5711 -55.5627 -55.5335 -55.5265 -55.4408 -55.4194 -55.4038
   -55.3854 -55.3835 -55.3662 -55.3497 -54.9884 -54.9179 -54.5859 -54.5519
   -32.1034 -32.0883 -31.9484 -31.9406 -31.9179 -31.8978 -31.8733 -31.8598
   -31.8490 -31.7943 -31.7790 -31.7634 -31.7574 -31.7404 -31.7292 -31.7188
   -31.7102 -31.7014 -31.6895 -31.6627 -31.6623 -31.6419 -31.6104 -31.6090
   -31.5995 -31.5949 -31.5925 -31.5821 -31.5640 -31.5597 -31.5538 -31.5489
   -31.5381 -31.5367 -31.5271 -31.5153 -31.4955 -31.2663 -31.2097 -31.1781
   -31.1249 -31.1023 -30.9931 -30.9045 -30.8821 -30.8098 -30.7233 -30.6123
   -20.7375 -18.3014 -16.3051 -16.0791 -15.8953 -15.7657 -15.7106 -15.5539
   -15.4956 -15.4098 -15.3393 -15.2026 -15.1502 -15.1417 -15.1357 -15.1168
   -15.1107 -15.0507 -15.0396 -15.0380 -15.0272 -14.9993 -14.9603 -14.9469
   -14.9421 -14.8593 -14.7660 -14.7433 -14.7228 -14.7196 -14.6618 -14.2762
   -13.0879 -12.9714 -11.2804  -6.8134  -5.7524  -5.3637  -4.1825  -3.8064
    -3.7704  -3.6724  -3.5500  -3.5113  -3.4316  -3.3845  -3.2307  -3.0794
    -3.0263  -2.8516  -2.7828  -2.7556  -2.7118  -2.6284  -2.5212  -2.4677
    -2.4128  -2.4080  -2.3947  -2.3799  -2.3614  -2.3449  -2.2374  -2.2187
    -2.1677  -2.1459  -2.1166  -1.9845  -1.9569  -1.9290  -1.9187  -1.8906
    -1.8782  -1.8644  -1.8375  -1.8187  -1.7802  -1.7550  -1.6236  -1.5812
    -1.5398  -1.4488  -1.3892  -1.3296  -1.2332  -1.2009  -1.1325  -1.0616
    -1.0559  -1.0363  -1.0032  -0.9950  -0.8685  -0.7641  -0.7540  -0.6804
    -0.6191  -0.5699  -0.5280  -0.4628  -0.3794  -0.3618  -0.3541  -0.3336
    -0.2817  -0.2568  -0.0980  -0.0594  -0.0109   0.0145   0.0714   0.1046
     0.1475   0.1881   0.2272   0.2775   0.3114   0.3447   0.3631   0.3774
     0.3928   0.4241   0.4450   0.6107   0.6461   0.6693   0.7304   0.7595
     0.8459   0.9028   0.9666   1.0503   1.1585   1.3639   1.4367   1.5281
     1.6286   2.0080   2.0538   2.8300   3.5242   3.6162   3.6572   3.6877
     3.7690   3.7809   3.9821   4.0043   4.0337   4.1092

[...]

          k = 0.0380-0.0419 0.0000 ( 17876 PWs)   bands (ev):

[...]

          k =-0.0760-0.0000 0.0000 ( 17886 PWs)   bands (ev):

[...]

          k =-0.0760-0.0839 0.0000 ( 17948 PWs)   bands (ev):

   -55.5884 -55.5877 -55.5475 -55.5414 -55.5317 -55.4289 -55.4157 -55.4027
   -55.4016 -55.3680 -55.3679 -55.3653 -54.9845 -54.9217 -54.5689 -54.5688
   -31.9176 -31.9038 -31.9033 -31.9002 -31.8836 -31.8828 -31.8258 -31.8172
   -31.8052 -31.7854 -31.7770 -31.7531 -31.7480 -31.7226 -31.7169 -31.7162
   -31.7080 -31.7074 -31.7071 -31.7057 -31.7033 -31.7011 -31.6747 -31.6459
   -31.6323 -31.6285 -31.6196 -31.6035 -31.6025 -31.5976 -31.5923 -31.5834
   -31.5803 -31.5727 -31.5720 -31.5700 -31.4173 -31.2680 -31.2483 -31.1867
   -31.1633 -31.1262 -30.8948 -30.8947 -30.8060 -30.8058 -30.7666 -30.7666
   -20.7369 -18.2974 -15.7427 -15.6961 -15.6309 -15.5640 -15.5289 -15.4588
   -15.4152 -15.3733 -15.3214 -15.2834 -15.2742 -15.2149 -15.1942 -15.1617
   -15.1522 -15.1229 -15.1134 -15.1114 -15.0576 -15.0515 -15.0457 -15.0387
   -15.0324 -14.9736 -14.9337 -14.9257 -14.9208 -14.8223 -14.7000 -14.4448
   -13.0732 -13.0731 -11.2787  -6.8362  -5.7497  -5.3401  -4.1108  -3.8073
    -3.7568  -3.1138  -3.0211  -2.8275  -2.7972  -2.7144  -2.7102  -2.6674
    -2.5453  -2.5122  -2.4663  -2.4482  -2.4273  -2.4184  -2.4128  -2.3932
    -2.3867  -2.3681  -2.3394  -2.3183  -2.2859  -2.2736  -2.2606  -2.2526
    -2.2381  -2.2152  -2.2130  -2.1649  -2.1445  -2.1257  -2.0628  -2.0286
    -1.8428  -1.7937  -1.7489  -1.7421  -1.7216  -1.6899  -1.6750  -1.6581
    -1.6111  -1.5904  -1.5127  -1.4677  -1.3291  -1.3096  -1.2935  -1.2728
    -1.2059  -1.1483  -1.0986  -1.0125  -1.0074  -0.9582  -0.8656  -0.8063
    -0.7981  -0.7671  -0.7112  -0.7016  -0.6614  -0.5681  -0.5626  -0.5448
    -0.5387  -0.4627  -0.4183  -0.3561  -0.3480  -0.3282  -0.2973  -0.2695
    -0.2359  -0.1971  -0.1011  -0.0678   0.0259   0.1315   0.2081   0.3435
     0.4622   0.4750   0.5597   0.5840   0.6851   0.6966   0.7089   0.7502
     0.7860   0.8106   0.9302   0.9441   0.9671   0.9947   1.0818   1.8001
     1.8010   1.8735   1.8737   2.8199   3.7662   3.8801   3.9117   3.9223
     4.0073   4.0442   4.0628   4.0648   4.1302   4.2029

     the Fermi energy is     3.5271 ev

!    total energy              =   -3006.13725963 Ry
     estimated scf accuracy    <       0.00000005 Ry
     smearing contrib. (-TS)   =      -0.02165989 Ry
     internal energy E=F+TS    =   -3006.11559974 Ry

     The total energy is F=E-TS. E is the sum of the following terms:
     one-electron contribution =  -23513.92697100 Ry
     hartree contribution      =   11854.94037170 Ry
     xc contribution           =    -501.16878609 Ry
     ewald contribution        =    9154.03855126 Ry
     electric field correction =       0.00123439 Ry

     convergence has been achieved in  60 iterations

     Forces acting on atoms (cartesian axes, Ry/au):

     atom    1 type  1   force =     0.00020330   -0.00032215    0.09616228
     atom    2 type  1   force =    -0.00012428   -0.00050639   -0.17559098
     atom    3 type  2   force =    -0.00003415   -0.00015701   -0.02419507
     atom    4 type  2   force =     0.00000541   -0.00155525    0.05344203
     atom    5 type  2   force =    -0.01166862   -0.00075449    0.00385894
     atom    6 type  2   force =     0.01285428   -0.00002041    0.00197170
     atom    7 type  1   force =    -0.00131754    0.00027373   -0.00660799
     atom    8 type  1   force =     0.00074562    0.00795396    0.02424174
     atom    9 type  2   force =     0.00000607    0.00002897    0.00003592
     atom   10 type  2   force =    -0.00083622    0.00166736   -0.01687792
     atom   11 type  2   force =    -0.00003453    0.00002631    0.00000476
     atom   12 type  2   force =    -0.00001021    0.00002576   -0.00000377
     atom   13 type  1   force =    -0.00000441   -0.00000268    0.00001029
     atom   14 type  1   force =     0.00002796    0.00002857    0.00002260
     atom   15 type  2   force =    -0.00023463    0.00000183    0.00008923
     atom   16 type  2   force =    -0.00003131   -0.00003613   -0.00006476
     atom   17 type  2   force =    -0.00033816   -0.00016658   -0.00017422
     atom   18 type  2   force =    -0.00034852    0.00015852    0.00018966
     atom   19 type  1   force =     0.00033869   -0.00005419    0.00001009
     atom   20 type  1   force =    -0.00018587   -0.00001476   -0.00011855
     atom   21 type  2   force =     0.00005454   -0.00005118    0.10321902
     atom   22 type  2   force =     0.00009430    0.00000412   -0.00006693
     atom   23 type  2   force =    -0.07149258   -0.00011437   -0.02773631
     atom   24 type  2   force =     0.07139176    0.00028414   -0.02774838
     atom   25 type  1   force =    -0.00003466   -0.00028836    0.09579476
     atom   26 type  1   force =    -0.00022704   -0.00034579   -0.17585620
     atom   27 type  2   force =     0.00004946   -0.00017631   -0.02324355
     atom   28 type  2   force =     0.00006973   -0.00125728    0.05305027
     atom   29 type  2   force =    -0.01201704    0.00042890    0.00403419
     atom   30 type  2   force =     0.01310114    0.00077020    0.00212396
     atom   31 type  1   force =    -0.00117873    0.00400580   -0.00991480
     atom   32 type  1   force =     0.00066876   -0.01006147    0.02472397
     atom   33 type  2   force =     0.00001338   -0.00001297    0.00002007
     atom   34 type  2   force =    -0.00024534    0.00012337   -0.02257626
     atom   35 type  2   force =    -0.00002358    0.00000208   -0.00000971
     atom   36 type  2   force =    -0.00001381    0.00001212   -0.00002258
     atom   37 type  1   force =     0.00000134   -0.00004327    0.00000442
     atom   38 type  1   force =     0.00005178    0.00008457    0.00006999
     atom   39 type  2   force =     0.00003606   -0.00002370    0.00000382
     atom   40 type  2   force =    -0.00001763   -0.00004190    0.00000215
     atom   41 type  2   force =    -0.00039581    0.00019761   -0.00027248
     atom   42 type  2   force =    -0.00031325   -0.00016925    0.00018652
     atom   43 type  1   force =     0.00024474   -0.00004965   -0.00003030
     atom   44 type  1   force =    -0.00027814   -0.00008599   -0.00001014
     atom   45 type  2   force =     0.00004373   -0.00008741    0.10321513
     atom   46 type  2   force =    -0.07150105   -0.00007997   -0.02775417
     atom   47 type  2   force =     0.07141369    0.00035063   -0.02774609
     atom   48 type  3   force =    -0.00072612   -0.00003460    0.00059286
     atom   49 type  3   force =     0.00220575    0.00005928   -0.00067243
     atom   50 type  4   force =     0.00021280    0.00008201    0.00004431
     atom   51 type  5   force =    -0.00009889   -0.00006672    0.00003359
     atom   52 type  5   force =    -0.00000551   -0.00002194    0.00005389
     atom   53 type  5   force =    -0.00013269    0.00000158   -0.00001183
     atom   54 type  2   force =     0.00100299   -0.00003334   -0.00128016
     atom   55 type  5   force =    -0.00011487    0.00001949   -0.00002062
     atom   56 type  2   force =    -0.00112902   -0.00002225    0.00134408
     atom   57 type  5   force =     0.00027694    0.00006684    0.00004995

     Total force =     0.367131     Total SCF correction =     0.000667
  @ DRIVER MODE: Message from server: STATUS
  @ DRIVER MODE: Message from server: GETFORCE
  @ DRIVER MODE: Returning v,forces,stress,ensemble

     Writing output data file ./calc.save/
  @ DRIVER MODE: Message from server: EXIT
  @ DRIVE MODE: Exiting

     General routines

     Parallel routines

   This run was terminated on:  18:24:36  25Sep2021

   JOB DONE.