     Program PWSCF v.6.7GPU starts on  9Sep2021 at 10:57:48

     R & G space division:  proc/nbgrp/npool/nimage =      10
     Reading input from /storage/home/hcoda1/3/ntian30/research/carbon/CxH_vib/CH2_calc/ads_slab/CH2NNHHH_a/out_0039/pw.inp
Warning: card &CELL ignored
Warning: card   CELL_DYNAMICS='IPI', ignored
Warning: card / ignored

     Current dimensions of program PWSCF are:
     Max number of different atomic species (ntypx) = 10
     Max number of k-points (npk) =  40000
     Max angular momentum in pseudopotentials (lmaxx) =  3
     Presently no symmetry can be used with electric field

     Message from routine cell_base_init:
     DEPRECATED: use true lattice parameter, not A to a.u. conversion factor

     IMPORTANT: XC functional enforced from input :
     Exchange-correlation= BEEF-VDW
                           (   1   4  43  14   2   0   0)
     Any further DFT definition will be discarded
     Please, verify this is what you really want

  @ DRIVER MODE: Connecting to
 qe_1139763_2767390.sched-torque.pace.gatech.edu1_5dmhdf_scratch
  using UNIX socket
  @ DRIVER MODE: Message from server: STATUS
  @ DRIVER MODE: Message from server: INIT
  @ DRIVER MODE: Receiving replica           0          -1
  @ DRIVER MODE: Receiving encoded integer          25
  @ DRIVER MODE:  SCF:  T  FORCE:  T  STRESS:  F  VC:  F  ENSEMBLE:  F
  @ DRIVER MODE:  SCF:  T  FORCE:  T  STRESS:  F  VC:  F  ENSEMBLE:  F

     Using Slab Decomposition

     bravais-lattice index     =            0
     lattice parameter (alat)  =       1.8897  a.u.
     unit-cell volume          =    6658.9804 (a.u.)^3
     number of atoms/cell      =           55
     number of atomic types    =            5
     number of electrons       =       397.00
     number of Kohn-Sham states=          208
     kinetic-energy cutoff     =      29.3995  Ry
     charge density cutoff     =     293.9946  Ry
     scf convergence threshold =      7.3E-08
     mixing beta               =       0.0500
     number of iterations used =            8  plain     mixing
     Exchange-correlation= BEEF-VDW
                           (   1   4  43  14   2   0   0)

     celldm(1)=   1.889726  celldm(2)=   0.000000  celldm(3)=   0.000000
     celldm(4)=   0.000000  celldm(5)=   0.000000  celldm(6)=   0.000000

     crystal axes: (cart. coord. in units of alat)
               a(1) = (   6.579727   0.000000   0.000000 )
               a(2) = (  -0.000775   5.961596   0.000000 )
               a(3) = (   0.000000   0.000000  25.155947 )

     reciprocal axes: (cart. coord. in units 2 pi/alat)
               b(1) = (  0.151982  0.000020  0.000000 )
               b(2) = (  0.000000  0.167740  0.000000 )
               b(3) = (  0.000000  0.000000  0.039752 )

     PseudoPot. # 1 for Ti read from file:
     /storage/coda1/p-amedford6/0/shared/rich_project_chbe-medford/medford-share/data/pseudos_module/espresso/nninc/pbe/van/Ti.UPF
     MD5 check sum: 8e4df49b7f0d34bbd5052bf3f5ea0213
     Pseudo is Ultrasoft, Zval = 12.0
     Generated by new atomic code, or converted to UPF format
     Using radial grid of  851 points,  6 beta functions with:
                l(1) =   0
                l(2) =   0
                l(3) =   1
                l(4) =   1
                l(5) =   2
                l(6) =   2
     Q(r) pseudized with  8 coefficients,  rinner =    1.000   1.000   1.000
                                                       1.000   1.000

     PseudoPot. # 2 for O  read from file:
     /storage/coda1/p-amedford6/0/shared/rich_project_chbe-medford/medford-share/data/pseudos_module/espresso/nninc/pbe/van/O.UPF
     MD5 check sum: 78c19812648e8988a0fe644b0f25305e
     Pseudo is Ultrasoft, Zval =  6.0
     Generated by new atomic code, or converted to UPF format
     Using radial grid of  737 points,  4 beta functions with:
                l(1) =   0
                l(2) =   0
                l(3) =   1
                l(4) =   1
     Q(r) pseudized with  8 coefficients,  rinner =    0.800   0.800   0.800

     PseudoPot. # 3 for N  read from file:
     /storage/coda1/p-amedford6/0/shared/rich_project_chbe-medford/medford-share/data/pseudos_module/espresso/nninc/pbe/van/N.UPF
     MD5 check sum: 90d10febe142ad51ac9d5be1deb811c4
     Pseudo is Ultrasoft, Zval =  5.0
     Generated by new atomic code, or converted to UPF format
     Using radial grid of  729 points,  4 beta functions with:
                l(1) =   0
                l(2) =   0
                l(3) =   1
                l(4) =   1
     Q(r) pseudized with  8 coefficients,  rinner =    0.800   0.800   0.800

     PseudoPot. # 4 for C  read from file:
     /storage/coda1/p-amedford6/0/shared/rich_project_chbe-medford/medford-share/data/pseudos_module/espresso/nninc/pbe/van/C.UPF
     MD5 check sum: 1a69bf6b8db32088f5b2163dbdb77a27
     Pseudo is Ultrasoft, Zval =  4.0
     Generated by new atomic code, or converted to UPF format
     Using radial grid of  721 points,  4 beta functions with:
                l(1) =   0
                l(2) =   0
                l(3) =   1
                l(4) =   1
     Q(r) pseudized with  8 coefficients,  rinner =    0.800   0.800   0.800

     PseudoPot. # 5 for H  read from file:
     /storage/coda1/p-amedford6/0/shared/rich_project_chbe-medford/medford-share/data/pseudos_module/espresso/nninc/pbe/van/H.UPF
     MD5 check sum: b5ee9d7bfd3a09ee7748110bda690ff7
     Pseudo is Ultrasoft, Zval =  1.0
     Generated by new atomic code, or converted to UPF format
     Using radial grid of  615 points,  1 beta functions with:
                l(1) =   0
     Q(r) pseudized with  8 coefficients,  rinner =    0.800

     atomic species   valence    mass     pseudopotential
        Ti1           12.00    47.86700     Ti( 1.00)
        O1             6.00    15.99900     O ( 1.00)
        N1             5.00    14.00700     N ( 1.00)
        C1             4.00    12.01100     C ( 1.00)
        H1             1.00     1.00800     H ( 1.00)

     No symmetry found

   Cartesian axes

     site n.     atom                  positions (alat units)
         1           Ti1 tau(   1) = (   0.0004258   2.9801865   6.0000000  )
         2           Ti1 tau(   2) = (   3.2906075   1.4906267   6.0002472  )
         3           O1  tau(   3) = (   0.0006271   0.0005054   7.9858123  )
         4           O1  tau(   4) = (   3.2906025   0.0005020   7.3038282  )
         5           O1  tau(   5) = (   4.5942328   1.4918067   9.2879030  )
         6           O1  tau(   6) = (   1.9868534   1.4903216   9.2879459  )
         7           Ti1 tau(   7) = (   3.2907910   2.8959150   9.1758416  )
         8           Ti1 tau(   8) = (   0.0015273   1.4827037   9.2680791  )
         9           O1  tau(   9) = (   3.2797308   5.9473376  11.3602069  )
        10           O1  tau(  10) = (   0.0116148   5.9584955  10.6183126  )
        11           O1  tau(  11) = (   1.2902197   1.4970218  12.6485984  )
        12           O1  tau(  12) = (   5.2825647   1.4998509  12.6204812  )
        13           Ti1 tau(  13) = (   6.5707130   2.9731531  12.5352273  )
        14           Ti1 tau(  14) = (   3.2824754   1.4851695  12.4964603  )
        15           O1  tau(  15) = (   6.5335774   0.0914421  14.6722524  )
        16           O1  tau(  16) = (   3.3157438   0.0180770  13.9903400  )
        17           O1  tau(  17) = (   4.5084513   1.5196572  16.2619966  )
        18           O1  tau(  18) = (   2.0062152   1.4815140  16.1839734  )
        19           Ti1 tau(  19) = (   3.2259906   2.9465836  15.7211513  )
        20           Ti1 tau(  20) = (   6.5090593   1.4075841  16.1508600  )
        21           O1  tau(  21) = (   3.2904802   0.0005063   4.7018136  )
        22           O1  tau(  22) = (   6.5630310   5.8123487  17.2302531  )
        23           O1  tau(  23) = (   1.3043587   1.4918075   6.0039043  )
        24           O1  tau(  24) = (   5.2767064   1.4903225   6.0039473  )
        25           Ti1 tau(  25) = (   0.0000382   5.9609847   6.0000000  )
        26           Ti1 tau(  26) = (   3.2902200   4.4714249   6.0002472  )
        27           O1  tau(  27) = (   0.0002396   2.9813036   7.9858123  )
        28           O1  tau(  28) = (   3.2902150   2.9813002   7.3038282  )
        29           O1  tau(  29) = (   4.5938453   4.4726049   9.2879030  )
        30           O1  tau(  30) = (   1.9864658   4.4711199   9.2879459  )
        31           Ti1 tau(  31) = (   3.2891106   5.8743827   9.1763621  )
        32           Ti1 tau(  32) = (   0.0006254   4.4649316   9.2693709  )
        33           O1  tau(  33) = (   3.2783824   2.9878764  11.3535400  )
        34           O1  tau(  34) = (   0.0092240   2.9805883  10.6323155  )
        35           O1  tau(  35) = (   1.2857266   4.4729298  12.7006550  )
        36           O1  tau(  36) = (   5.2845514   4.4687958  12.6640455  )
        37           Ti1 tau(  37) = (   6.5734551   0.0101047  12.5124135  )
        38           Ti1 tau(  38) = (   3.2852174   4.4611384  12.5175569  )
        39           O1  tau(  39) = (   6.5279837   2.9480221  14.9030702  )
        40           O1  tau(  40) = (   3.2956390   2.9588503  13.9390168  )
        41           O1  tau(  41) = (   4.4992944   4.4159585  16.2207858  )
        42           O1  tau(  42) = (   2.0104883   4.4624356  16.0673450  )
        43           Ti1 tau(  43) = (   3.2790961   0.0058003  15.7788240  )
        44           Ti1 tau(  44) = (   0.0606790   4.6093333  15.7554573  )
        45           O1  tau(  45) = (   3.2900926   2.9813045   4.7018136  )
        46           O1  tau(  46) = (   1.3039711   4.4726057   6.0039043  )
        47           O1  tau(  47) = (   5.2763189   4.4711207   6.0039473  )
        48           N1  tau(  48) = (   0.0403274   2.7191540  18.0026804  )
        49           C1  tau(  49) = (   0.9398849   2.4944932  18.9664025  )
        50           H1  tau(  50) = (   0.9073005   3.0183022  19.9142263  )
        51           H1  tau(  51) = (   1.7098349   1.7704235  18.7615287  )
        52           N1  tau(  52) = (   5.5765855   3.6054979  18.4816711  )
        53           H1  tau(  53) = (   5.9881759   4.5320851  18.7147717  )
        54           H1  tau(  54) = (   4.9344470   3.8365857  17.6610935  )
        55           H1  tau(  55) = (   5.0674124   3.1947177  19.2767304  )

     number of k points=    10  Fermi-Dirac smearing, width (Ry)=  0.0073
                       cart. coord. in units 2pi/alat
        k(    1) = (   0.0000000   0.0000000   0.0000000), wk =   0.1250000
        k(    2) = (   0.0000000   0.0419351   0.0000000), wk =   0.2500000
        k(    3) = (   0.0000000  -0.0838702   0.0000000), wk =   0.1250000
        k(    4) = (   0.0379955   0.0000049   0.0000000), wk =   0.2500000
        k(    5) = (   0.0379955   0.0419400   0.0000000), wk =   0.2500000
        k(    6) = (   0.0379955  -0.0838652   0.0000000), wk =   0.2500000
        k(    7) = (   0.0379955  -0.0419301   0.0000000), wk =   0.2500000
        k(    8) = (  -0.0759910  -0.0000099   0.0000000), wk =   0.1250000
        k(    9) = (  -0.0759910   0.0419252   0.0000000), wk =   0.2500000
        k(   10) = (  -0.0759910  -0.0838800   0.0000000), wk =   0.1250000

     Initial potential from superposition of free atoms

     starting charge  380.99914, renormalised to  397.00000

     negative rho (up, down):  1.589E-02 0.000E+00

     %%%%%%%%%%%%%%%%%%%%%%%%%%%%%%%%%%%%%%%%%%%%%%%%%%%%%%%%%%%%%%%%%%%%%%%%
     %                                                                      %
     % You are using vdW-DF, which was implemented by the Thonhauser group. %
     % Please cite the following two papers that made this development      %
     % possible and the two reviews that describe the various versions:     %
     %                                                                      %
     %   T. Thonhauser et al., PRL 115, 136402 (2015).                      %
     %   T. Thonhauser et al., PRB 76, 125112 (2007).                       %
     %   K. Berland et al., Rep. Prog. Phys. 78, 066501 (2015).             %
     %   D.C. Langreth et al., J. Phys.: Condens. Matter 21, 084203 (2009). %
     %                                                                      %
     %                                                                      %
     % If you are calculating the stress with vdW-DF, please also cite:     %
     %                                                                      %
     %   R. Sabatini et al., J. Phys.: Condens. Matter 24, 424209 (2012).   %
     %                                                                      %
     %%%%%%%%%%%%%%%%%%%%%%%%%%%%%%%%%%%%%%%%%%%%%%%%%%%%%%%%%%%%%%%%%%%%%%%%

     Adding external electric field

     Computed dipole along edir(3) :
        Dipole              -10.3122 Ry au,        -26.2111 Debye
        Dipole field         -0.0195 Ry au,

        Potential amp.        1.8040 Ry
        Total length         46.3494 bohr

     Starting wfcs are  301 atomic wfcs
  @ DRIVER MODE: Message from server: STATUS
  @ DRIVER MODE: Message from server: POSDATA
  @ DRIVER MODE: Reading and sharing cell
  @ DRIVER MODE: Reading and sharing positions
  @ DRIVER MODE: Received positions

     Self-consistent Calculation

     iteration #  1     ecut=    29.40 Ry     beta= 0.05
     Davidson diagonalization with overlap
     c_bands:  3 eigenvalues not converged
     c_bands:  2 eigenvalues not converged
     c_bands:  3 eigenvalues not converged
     c_bands:  2 eigenvalues not converged
     c_bands:  3 eigenvalues not converged
     c_bands:  2 eigenvalues not converged
     c_bands:  3 eigenvalues not converged
     c_bands:  2 eigenvalues not converged
     c_bands:  2 eigenvalues not converged
     c_bands:  3 eigenvalues not converged
     ethr =  1.00E-05,  avg # of iterations = 20.0

[...]

     total energy              =   -2480.06414738 Ry
     estimated scf accuracy    <    5159.14791376 Ry

     iteration #  2     ecut=    29.40 Ry     beta= 0.05
     Davidson diagonalization with overlap
     ethr =  1.00E-02,  avg # of iterations = 22.6

[...]

     iteration # 82     ecut=    29.40 Ry     beta= 0.05
     Davidson diagonalization with overlap
     ethr =  5.80E-11,  avg # of iterations =  3.7

[...]

     total energy              =   -2941.49088598 Ry
     estimated scf accuracy    <       0.00000008 Ry

     iteration # 84     ecut=    29.40 Ry     beta= 0.05
     Davidson diagonalization with overlap
     c_bands:  1 eigenvalues not converged
     ethr =  2.03E-11,  avg # of iterations =  8.8

     negative rho (up, down):  1.344E-02 0.000E+00

     Adding external electric field

     Computed dipole along edir(3) :
        Dipole                1.3625 Ry au,          3.4631 Debye
        Dipole field          0.0026 Ry au,

        Potential amp.       -0.2383 Ry
        Total length         46.3494 bohr

     End of self-consistent calculation

          k = 0.0000 0.0000 0.0000 ( 18029 PWs)   bands (ev):

   -55.2838 -55.2447 -55.2447 -55.2106 -55.1593 -55.1574 -55.1208 -55.0939
   -55.0768 -55.0755 -55.0592 -55.0423 -54.9563 -54.7899 -54.2628 -54.2287
   -31.8559 -31.7354 -31.6457 -31.6105 -31.5837 -31.5812 -31.5787 -31.5344
   -31.5316 -31.4916 -31.4899 -31.4892 -31.4568 -31.4542 -31.4401 -31.4186
   -31.4034 -31.3984 -31.3941 -31.3930 -31.3569 -31.3517 -31.3381 -31.3246
   -31.3016 -31.2965 -31.2902 -31.2862 -31.2738 -31.2707 -31.2608 -31.2507
   -31.2440 -31.2389 -31.2090 -31.2045 -31.1975 -31.1853 -31.1474 -31.1050
   -31.0606 -30.9315 -30.6716 -30.5789 -30.5567 -30.4881 -30.4013 -30.2903
   -19.2351 -16.1252 -15.8625 -15.7346 -15.5436 -15.4776 -15.3820 -15.2440
   -15.1924 -15.1285 -15.0824 -15.0417 -15.0290 -14.9634 -14.9063 -14.8178
   -14.8162 -14.7991 -14.7891 -14.7769 -14.7740 -14.7118 -14.7088 -14.6818
   -14.6672 -14.6570 -14.5163 -14.4323 -14.3709 -14.2792 -14.0248 -12.7654
   -12.6482  -9.1495  -7.7951  -7.0918  -6.0022  -3.8223  -3.4631  -3.2903
    -3.2433  -3.2032  -3.1785  -3.0099  -2.9280  -2.6609  -2.5930  -2.5532
    -2.5056  -2.4944  -2.4688  -2.2967  -2.2661  -2.2263  -2.1897  -2.1661
    -2.1262  -2.0986  -2.0826  -2.0532  -2.0401  -2.0381  -1.8558  -1.7853
    -1.7633  -1.7016  -1.6848  -1.6684  -1.6109  -1.5820  -1.5690  -1.5666
    -1.5433  -1.5264  -1.5039  -1.4610  -1.3743  -1.2823  -1.2379  -1.2164
    -1.1030  -1.0385  -0.9149  -0.8714  -0.8584  -0.8312  -0.7596  -0.6929
    -0.6654  -0.6297  -0.4895  -0.4847  -0.4003  -0.3902  -0.3174  -0.3005
    -0.2609  -0.2150  -0.1029  -0.0703  -0.0489   0.0034   0.0668   0.0888
     0.1701   0.2246   0.2811   0.2950   0.3747   0.4145   0.4532   0.4737
     0.5613   0.6027   0.6621   0.6684   0.7057   0.7089   0.7342   0.8211
     0.8340   0.8534   0.8945   1.0640   1.2660   1.3164   1.3369   1.6697
     1.6888   1.7598   1.9451   2.3345   2.3820   3.8174   3.8829   3.9535
     3.9679   3.9785   4.0498   4.0948   4.2849   4.3140   4.3170   4.3383

[...]

          k = 0.0380-0.0419 0.0000 ( 17876 PWs)   bands (ev):

[...]

          k =-0.0760-0.0000 0.0000 ( 17886 PWs)   bands (ev):

[...]

          k =-0.0760-0.0839 0.0000 ( 17948 PWs)   bands (ev):

   -55.2717 -55.2566 -55.2277 -55.2275 -55.1556 -55.1455 -55.1326 -55.0803
   -55.0776 -55.0748 -55.0595 -55.0588 -54.9548 -54.7914 -54.2457 -54.2457
   -31.6654 -31.6524 -31.5784 -31.5506 -31.5505 -31.5470 -31.5199 -31.5198
   -31.4923 -31.4839 -31.4793 -31.4755 -31.4211 -31.4122 -31.4121 -31.4087
   -31.4067 -31.4024 -31.3959 -31.3806 -31.3685 -31.3580 -31.3536 -31.3470
   -31.3468 -31.3449 -31.3436 -31.3278 -31.3110 -31.3081 -31.2917 -31.2891
   -31.2843 -31.2826 -31.2824 -31.2514 -31.2398 -31.2385 -31.1647 -31.0919
   -31.0615 -31.0090 -30.5694 -30.5694 -30.4842 -30.4840 -30.4447 -30.4447
   -19.2314 -15.5901 -15.5135 -15.4577 -15.3657 -15.2903 -15.2703 -15.2601
   -15.2262 -15.1599 -15.1366 -15.0717 -15.0367 -14.9913 -14.9884 -14.9731
   -14.8886 -14.8694 -14.8543 -14.8501 -14.7891 -14.7877 -14.7607 -14.7383
   -14.7316 -14.7279 -14.6281 -14.6271 -14.4625 -14.4310 -14.1997 -12.7498
   -12.7497  -9.1366  -7.8050  -7.0758  -6.0126  -3.8454  -2.8517  -2.7651
    -2.6756  -2.5193  -2.4820  -2.4721  -2.4171  -2.3256  -2.2995  -2.2868
    -2.2663  -2.2592  -2.1864  -2.1811  -2.1372  -2.1156  -2.1046  -2.0988
    -2.0651  -2.0518  -2.0381  -2.0014  -1.9930  -1.9770  -1.9424  -1.9229
    -1.8984  -1.8706  -1.8565  -1.8272  -1.7037  -1.6747  -1.6306  -1.5683
    -1.5432  -1.4767  -1.4714  -1.3689  -1.3571  -1.3459  -1.3050  -1.2910
    -1.2711  -1.1077  -1.0635  -1.0279  -1.0167  -1.0105  -0.8549  -0.8384
    -0.7701  -0.7542  -0.7394  -0.6632  -0.6217  -0.6051  -0.5252  -0.4860
    -0.4557  -0.4350  -0.2929  -0.2799  -0.2545  -0.2405  -0.2338  -0.1410
    -0.1208  -0.0848  -0.0508  -0.0127   0.0037   0.0630   0.2173   0.2428
     0.2802   0.4243   0.4392   0.5255   0.5729   0.6992   0.7638   0.7659
     0.8473   0.9174   1.0193   1.0315   1.0524   1.1368   1.1830   1.1879
     1.1891   2.1178   2.1186   2.2020   2.2023   3.6939   3.9570   4.0795
     4.0857   4.1280   4.2506   4.3343   4.3577   4.3957   4.3980   4.4765

     the Fermi energy is     3.8724 ev

!    total energy              =   -2941.49089195 Ry
     estimated scf accuracy    <       0.00000007 Ry
     smearing contrib. (-TS)   =      -0.04231153 Ry
     internal energy E=F+TS    =   -2941.44858042 Ry

     The total energy is F=E-TS. E is the sum of the following terms:
     one-electron contribution =  -23922.00241185 Ry
     hartree contribution      =   12054.17682077 Ry
     xc contribution           =    -486.86062766 Ry
     ewald contribution        =    9413.23413504 Ry
     electric field correction =       0.00350328 Ry

     convergence has been achieved in  84 iterations

     Forces acting on atoms (cartesian axes, Ry/au):

     atom    1 type  1   force =     0.00016853   -0.00016992    0.09405375
     atom    2 type  1   force =    -0.00004742   -0.00042932   -0.17754297
     atom    3 type  2   force =     0.00006547   -0.00004605   -0.02100774
     atom    4 type  2   force =     0.00001730   -0.00180432    0.05733397
     atom    5 type  2   force =    -0.01086320   -0.00090511    0.00781496
     atom    6 type  2   force =     0.01207576   -0.00033625    0.00620936
     atom    7 type  1   force =    -0.00065270    0.00289937   -0.01529804
     atom    8 type  1   force =     0.00059430    0.00229304    0.00235295
     atom    9 type  2   force =    -0.00010390    0.00013191    0.00092584
     atom   10 type  2   force =    -0.00165419   -0.00049762   -0.00378561
     atom   11 type  2   force =    -0.00005398   -0.00023846    0.00019110
     atom   12 type  2   force =    -0.00018575   -0.00039950    0.00026338
     atom   13 type  1   force =     0.00041922    0.00109396    0.00063460
     atom   14 type  1   force =     0.00020244   -0.00061861    0.00039916
     atom   15 type  2   force =    -0.00018642    0.00038016    0.00051997
     atom   16 type  2   force =    -0.00017082   -0.00022655   -0.00122959
     atom   17 type  2   force =     0.00010709   -0.00018278    0.00021621
     atom   18 type  2   force =    -0.00080618   -0.00034004    0.00009547
     atom   19 type  1   force =    -0.00051334    0.00133476   -0.00051551
     atom   20 type  1   force =    -0.00028564    0.00115765   -0.00116884
     atom   21 type  2   force =     0.00010964   -0.00003993    0.10378756
     atom   22 type  2   force =     0.00012489    0.00027435    0.00049158
     atom   23 type  2   force =    -0.07064923   -0.00017643   -0.02706804
     atom   24 type  2   force =     0.07059099    0.00029657   -0.02710549
     atom   25 type  1   force =     0.00014928   -0.00024344    0.09337698
     atom   26 type  1   force =    -0.00000925   -0.00037582   -0.17776403
     atom   27 type  2   force =     0.00010998   -0.00039973   -0.02000743
     atom   28 type  2   force =     0.00003429   -0.00146734    0.05681256
     atom   29 type  2   force =    -0.01076700   -0.00065612    0.00673008
     atom   30 type  2   force =     0.01188463   -0.00016316    0.00508666
     atom   31 type  1   force =    -0.00063045    0.00409885   -0.01560769
     atom   32 type  1   force =     0.00067444   -0.00274550    0.00213492
     atom   33 type  2   force =     0.00015585   -0.00021935   -0.00057937
     atom   34 type  2   force =    -0.00109214    0.00272458   -0.00203716
     atom   35 type  2   force =     0.00008555    0.00020201    0.00008040
     atom   36 type  2   force =    -0.00032325    0.00033957   -0.00009164
     atom   37 type  1   force =     0.00046255   -0.00008936    0.00032462
     atom   38 type  1   force =     0.00009978    0.00089532    0.00019012
     atom   39 type  2   force =    -0.00003205   -0.00099982    0.00040772
     atom   40 type  2   force =    -0.00024355   -0.00045089    0.00057910
     atom   41 type  2   force =    -0.00052451   -0.00026904   -0.00067889
     atom   42 type  2   force =     0.00012215    0.00000920    0.00021466
     atom   43 type  1   force =     0.00012117   -0.00173921    0.00101962
     atom   44 type  1   force =    -0.00024223   -0.00082605   -0.00123276
     atom   45 type  2   force =     0.00009653   -0.00008096    0.10378291
     atom   46 type  2   force =    -0.07066709   -0.00009674   -0.02707584
     atom   47 type  2   force =     0.07062005    0.00028592   -0.02711256
     atom   48 type  3   force =    -0.00026818   -0.00059286    0.00041858
     atom   49 type  4   force =     0.00044875   -0.00072228    0.00132122
     atom   50 type  5   force =     0.00081747    0.00006808   -0.00102110
     atom   51 type  5   force =    -0.00019138    0.00060820   -0.00014070
     atom   52 type  3   force =     0.00052006   -0.00175719    0.00103053
     atom   53 type  5   force =    -0.00038467   -0.00123831   -0.00158027
     atom   54 type  5   force =    -0.00016179    0.00229850    0.00084360
     atom   55 type  5   force =     0.00083215    0.00015208    0.00000708

     Total force =     0.365756     Total SCF correction =     0.000686
  @ DRIVER MODE: Message from server: STATUS
  @ DRIVER MODE: Message from server: GETFORCE
  @ DRIVER MODE: Returning v,forces,stress,ensemble

     Writing output data file ./calc.save/
  @ DRIVER MODE: Message from server: EXIT
  @ DRIVE MODE: Exiting

     General routines

     Parallel routines

   This run was terminated on:  11:18: 8   9Sep2021

   JOB DONE.