     Program PWSCF v.6.7GPU starts on 10Sep2021 at 12: 0:17

     R & G space division:  proc/nbgrp/npool/nimage =      10
     Reading input from /storage/home/hcoda1/3/ntian30/research/carbon/CxH_vib/CH3_calc/ads_slab/CH3N2OH_j/out_0044/pw.inp
Warning: card &CELL ignored
Warning: card   CELL_DYNAMICS='IPI', ignored
Warning: card / ignored

     Current dimensions of program PWSCF are:
     Max number of different atomic species (ntypx) = 10
     Max number of k-points (npk) =  40000
     Max angular momentum in pseudopotentials (lmaxx) =  3
     Presently no symmetry can be used with electric field

     Message from routine cell_base_init:
     DEPRECATED: use true lattice parameter, not A to a.u. conversion factor

     IMPORTANT: XC functional enforced from input :
     Exchange-correlation= BEEF-VDW
                           (   1   4  43  14   2   0   0)
     Any further DFT definition will be discarded
     Please, verify this is what you really want

  @ DRIVER MODE: Connecting to
 qe_1139763_2779713.sched-torque.pace.gatech.eduyrxl2icj_scratch
  using UNIX socket
  @ DRIVER MODE: Message from server: STATUS
  @ DRIVER MODE: Message from server: INIT
  @ DRIVER MODE: Receiving replica           0          -1
  @ DRIVER MODE: Receiving encoded integer          25
  @ DRIVER MODE:  SCF:  T  FORCE:  T  STRESS:  F  VC:  F  ENSEMBLE:  F
  @ DRIVER MODE:  SCF:  T  FORCE:  T  STRESS:  F  VC:  F  ENSEMBLE:  F

     Using Slab Decomposition

     bravais-lattice index     =            0
     lattice parameter (alat)  =       1.8897  a.u.
     unit-cell volume          =    6658.9804 (a.u.)^3
     number of atoms/cell      =           55
     number of atomic types    =            5
     number of electrons       =       402.00
     number of Kohn-Sham states=          211
     kinetic-energy cutoff     =      29.3995  Ry
     charge density cutoff     =     293.9946  Ry
     scf convergence threshold =      7.3E-08
     mixing beta               =       0.0500
     number of iterations used =            8  plain     mixing
     Exchange-correlation= BEEF-VDW
                           (   1   4  43  14   2   0   0)

     celldm(1)=   1.889726  celldm(2)=   0.000000  celldm(3)=   0.000000
     celldm(4)=   0.000000  celldm(5)=   0.000000  celldm(6)=   0.000000

     crystal axes: (cart. coord. in units of alat)
               a(1) = (   6.579727   0.000000   0.000000 )
               a(2) = (  -0.000775   5.961596   0.000000 )
               a(3) = (   0.000000   0.000000  25.155947 )

     reciprocal axes: (cart. coord. in units 2 pi/alat)
               b(1) = (  0.151982  0.000020  0.000000 )
               b(2) = (  0.000000  0.167740  0.000000 )
               b(3) = (  0.000000  0.000000  0.039752 )

     PseudoPot. # 1 for Ti read from file:
     /storage/coda1/p-amedford6/0/shared/rich_project_chbe-medford/medford-share/data/pseudos_module/espresso/nninc/pbe/van/Ti.UPF
     MD5 check sum: 8e4df49b7f0d34bbd5052bf3f5ea0213
     Pseudo is Ultrasoft, Zval = 12.0
     Generated by new atomic code, or converted to UPF format
     Using radial grid of  851 points,  6 beta functions with:
                l(1) =   0
                l(2) =   0
                l(3) =   1
                l(4) =   1
                l(5) =   2
                l(6) =   2
     Q(r) pseudized with  8 coefficients,  rinner =    1.000   1.000   1.000
                                                       1.000   1.000

     PseudoPot. # 2 for O  read from file:
     /storage/coda1/p-amedford6/0/shared/rich_project_chbe-medford/medford-share/data/pseudos_module/espresso/nninc/pbe/van/O.UPF
     MD5 check sum: 78c19812648e8988a0fe644b0f25305e
     Pseudo is Ultrasoft, Zval =  6.0
     Generated by new atomic code, or converted to UPF format
     Using radial grid of  737 points,  4 beta functions with:
                l(1) =   0
                l(2) =   0
                l(3) =   1
                l(4) =   1
     Q(r) pseudized with  8 coefficients,  rinner =    0.800   0.800   0.800

     PseudoPot. # 3 for N  read from file:
     /storage/coda1/p-amedford6/0/shared/rich_project_chbe-medford/medford-share/data/pseudos_module/espresso/nninc/pbe/van/N.UPF
     MD5 check sum: 90d10febe142ad51ac9d5be1deb811c4
     Pseudo is Ultrasoft, Zval =  5.0
     Generated by new atomic code, or converted to UPF format
     Using radial grid of  729 points,  4 beta functions with:
                l(1) =   0
                l(2) =   0
                l(3) =   1
                l(4) =   1
     Q(r) pseudized with  8 coefficients,  rinner =    0.800   0.800   0.800

     PseudoPot. # 4 for C  read from file:
     /storage/coda1/p-amedford6/0/shared/rich_project_chbe-medford/medford-share/data/pseudos_module/espresso/nninc/pbe/van/C.UPF
     MD5 check sum: 1a69bf6b8db32088f5b2163dbdb77a27
     Pseudo is Ultrasoft, Zval =  4.0
     Generated by new atomic code, or converted to UPF format
     Using radial grid of  721 points,  4 beta functions with:
                l(1) =   0
                l(2) =   0
                l(3) =   1
                l(4) =   1
     Q(r) pseudized with  8 coefficients,  rinner =    0.800   0.800   0.800

     PseudoPot. # 5 for H  read from file:
     /storage/coda1/p-amedford6/0/shared/rich_project_chbe-medford/medford-share/data/pseudos_module/espresso/nninc/pbe/van/H.UPF
     MD5 check sum: b5ee9d7bfd3a09ee7748110bda690ff7
     Pseudo is Ultrasoft, Zval =  1.0
     Generated by new atomic code, or converted to UPF format
     Using radial grid of  615 points,  1 beta functions with:
                l(1) =   0
     Q(r) pseudized with  8 coefficients,  rinner =    0.800

     atomic species   valence    mass     pseudopotential
        Ti1           12.00    47.86700     Ti( 1.00)
        O1             6.00    15.99900     O ( 1.00)
        N1             5.00    14.00700     N ( 1.00)
        C1             4.00    12.01100     C ( 1.00)
        H1             1.00     1.00800     H ( 1.00)

     No symmetry found

   Cartesian axes

     site n.     atom                  positions (alat units)
         1           Ti1 tau(   1) = (   0.0004258   2.9801865   6.0000000  )
         2           Ti1 tau(   2) = (   3.2906075   1.4906267   6.0002472  )
         3           O1  tau(   3) = (   0.0006271   0.0005054   7.9858123  )
         4           O1  tau(   4) = (   3.2906025   0.0005020   7.3038282  )
         5           O1  tau(   5) = (   4.5942328   1.4918067   9.2879030  )
         6           O1  tau(   6) = (   1.9868534   1.4903216   9.2879459  )
         7           Ti1 tau(   7) = (   3.2907910   2.8959150   9.1758416  )
         8           Ti1 tau(   8) = (   0.0015273   1.4827037   9.2680791  )
         9           O1  tau(   9) = (   3.2817971   0.0424577  11.2706337  )
        10           O1  tau(  10) = (   0.0116148   5.9584955  10.6183126  )
        11           O1  tau(  11) = (   1.2813654   1.4951502  12.6332405  )
        12           O1  tau(  12) = (   5.2815101   1.4921423  12.6269808  )
        13           Ti1 tau(  13) = (   6.5662594   2.8603684  12.6843660  )
        14           Ti1 tau(  14) = (   3.2717346   1.4252475  12.4210995  )
        15           O1  tau(  15) = (   6.5710910   0.0045200  14.6317625  )
        16           O1  tau(  16) = (   3.2759495   0.0084639  13.8932321  )
        17           O1  tau(  17) = (   4.5517014   1.4983445  16.0008815  )
        18           O1  tau(  18) = (   2.0271237   1.5070609  16.0478782  )
        19           Ti1 tau(  19) = (   3.2345769   3.0092735  16.2435900  )
        20           Ti1 tau(  20) = (   6.4941389   1.4975806  15.8145731  )
        21           O1  tau(  21) = (   3.2904802   0.0005063   4.7018136  )
        22           O1  tau(  22) = (   6.5579512   0.0396517  17.1742205  )
        23           O1  tau(  23) = (   1.3043587   1.4918075   6.0039043  )
        24           O1  tau(  24) = (   5.2767064   1.4903225   6.0039473  )
        25           Ti1 tau(  25) = (   0.0000382   5.9609847   6.0000000  )
        26           Ti1 tau(  26) = (   3.2902200   4.4714249   6.0002472  )
        27           O1  tau(  27) = (   0.0002396   2.9813036   7.9858123  )
        28           O1  tau(  28) = (   3.2902150   2.9813002   7.3038282  )
        29           O1  tau(  29) = (   4.5938453   4.4726049   9.2879030  )
        30           O1  tau(  30) = (   1.9864658   4.4711199   9.2879459  )
        31           Ti1 tau(  31) = (   3.2891106   5.8743827   9.1763621  )
        32           Ti1 tau(  32) = (   0.0006254   4.4649316   9.2693709  )
        33           O1  tau(  33) = (   3.2800217   2.9666125  11.2981572  )
        34           O1  tau(  34) = (   0.0092240   2.9805883  10.6323155  )
        35           O1  tau(  35) = (   1.2755083   4.4823741  12.6262202  )
        36           O1  tau(  36) = (   5.2848398   4.4807727  12.6177486  )
        37           Ti1 tau(  37) = (   6.5672004   5.8338186  12.5551636  )
        38           Ti1 tau(  38) = (   3.2732152   4.2974050  12.6602233  )
        39           O1  tau(  39) = (   6.5693882   2.9786051  14.6782399  )
        40           O1  tau(  40) = (   3.2805734   3.0393479  13.9038923  )
        41           O1  tau(  41) = (   4.5335661   4.5240572  16.0872286  )
        42           O1  tau(  42) = (   2.0073973   4.5295938  16.0607137  )
        43           Ti1 tau(  43) = (   3.2598295   0.0330142  15.6732764  )
        44           Ti1 tau(  44) = (   6.5464637   4.6748829  16.0422594  )
        45           O1  tau(  45) = (   3.2900926   2.9813045   4.7018136  )
        46           O1  tau(  46) = (   1.3039711   4.4726057   6.0039043  )
        47           O1  tau(  47) = (   5.2763189   4.4711207   6.0039473  )
        48           N1  tau(  48) = (   0.1126456   2.6876119  18.6539570  )
        49           N1  tau(  49) = (   0.0165868   2.9082207  17.4746156  )
        50           C1  tau(  50) = (   0.2746321   3.7930379  19.6319179  )
        51           H1  tau(  51) = (   0.1055085   4.7742840  19.1878107  )
        52           H1  tau(  52) = (   6.1760284   3.5871646  20.4591619  )
        53           H1  tau(  53) = (   1.2982147   3.7051261  19.9977701  )
        54           O1  tau(  54) = (   3.2987527   2.9937385  18.0942264  )
        55           H1  tau(  55) = (   3.7576408   3.7324850  18.5320624  )

     number of k points=    10  Fermi-Dirac smearing, width (Ry)=  0.0073
                       cart. coord. in units 2pi/alat
        k(    1) = (   0.0000000   0.0000000   0.0000000), wk =   0.1250000
        k(    2) = (   0.0000000   0.0419351   0.0000000), wk =   0.2500000
        k(    3) = (   0.0000000  -0.0838702   0.0000000), wk =   0.1250000
        k(    4) = (   0.0379955   0.0000049   0.0000000), wk =   0.2500000
        k(    5) = (   0.0379955   0.0419400   0.0000000), wk =   0.2500000
        k(    6) = (   0.0379955  -0.0838652   0.0000000), wk =   0.2500000
        k(    7) = (   0.0379955  -0.0419301   0.0000000), wk =   0.2500000
        k(    8) = (  -0.0759910  -0.0000099   0.0000000), wk =   0.1250000
        k(    9) = (  -0.0759910   0.0419252   0.0000000), wk =   0.2500000
        k(   10) = (  -0.0759910  -0.0838800   0.0000000), wk =   0.1250000

     Initial potential from superposition of free atoms

     starting charge  385.99915, renormalised to  402.00000

     negative rho (up, down):  1.467E-02 0.000E+00

     %%%%%%%%%%%%%%%%%%%%%%%%%%%%%%%%%%%%%%%%%%%%%%%%%%%%%%%%%%%%%%%%%%%%%%%%
     %                                                                      %
     % You are using vdW-DF, which was implemented by the Thonhauser group. %
     % Please cite the following two papers that made this development      %
     % possible and the two reviews that describe the various versions:     %
     %                                                                      %
     %   T. Thonhauser et al., PRL 115, 136402 (2015).                      %
     %   T. Thonhauser et al., PRB 76, 125112 (2007).                       %
     %   K. Berland et al., Rep. Prog. Phys. 78, 066501 (2015).             %
     %   D.C. Langreth et al., J. Phys.: Condens. Matter 21, 084203 (2009). %
     %                                                                      %
     %                                                                      %
     % If you are calculating the stress with vdW-DF, please also cite:     %
     %                                                                      %
     %   R. Sabatini et al., J. Phys.: Condens. Matter 24, 424209 (2012).   %
     %                                                                      %
     %%%%%%%%%%%%%%%%%%%%%%%%%%%%%%%%%%%%%%%%%%%%%%%%%%%%%%%%%%%%%%%%%%%%%%%%

     Adding external electric field

     Computed dipole along edir(3) :
        Dipole              -11.9798 Ry au,        -30.4497 Debye
        Dipole field         -0.0226 Ry au,

        Potential amp.        2.0957 Ry
        Total length         46.3494 bohr

     Starting wfcs are  304 atomic wfcs
  @ DRIVER MODE: Message from server: STATUS
  @ DRIVER MODE: Message from server: POSDATA
  @ DRIVER MODE: Reading and sharing cell
  @ DRIVER MODE: Reading and sharing positions
  @ DRIVER MODE: Received positions

     Self-consistent Calculation

     iteration #  1     ecut=    29.40 Ry     beta= 0.05
     Davidson diagonalization with overlap
     c_bands:  4 eigenvalues not converged
     c_bands:  3 eigenvalues not converged
     c_bands:  5 eigenvalues not converged
     c_bands:  5 eigenvalues not converged
     c_bands:  3 eigenvalues not converged
     c_bands:  4 eigenvalues not converged
     c_bands:  2 eigenvalues not converged
     c_bands:  1 eigenvalues not converged
     ethr =  1.00E-05,  avg # of iterations = 25.4

[...]

     total energy              =   -2401.02710423 Ry
     estimated scf accuracy    <    6441.03509693 Ry

     iteration #  2     ecut=    29.40 Ry     beta= 0.05
     Davidson diagonalization with overlap
     ethr =  1.00E-02,  avg # of iterations = 23.2

[...]

     iteration # 48     ecut=    29.40 Ry     beta= 0.05
     Davidson diagonalization with overlap
     c_bands:  2 eigenvalues not converged
     ethr =  1.49E-06,  avg # of iterations = 10.2

[...]

     total energy              =   -2972.74454187 Ry
     estimated scf accuracy    <       0.00000018 Ry

     iteration # 73     ecut=    29.40 Ry     beta= 0.05
     Davidson diagonalization with overlap
     ethr =  4.36E-11,  avg # of iterations =  4.8

     negative rho (up, down):  1.548E-02 0.000E+00

     Adding external electric field

     Computed dipole along edir(3) :
        Dipole                0.6103 Ry au,          1.5513 Debye
        Dipole field          0.0012 Ry au,

        Potential amp.       -0.1068 Ry
        Total length         46.3494 bohr

     End of self-consistent calculation

          k = 0.0000 0.0000 0.0000 ( 18029 PWs)   bands (ev):

   -56.2389 -56.2051 -55.8238 -55.7902 -55.5912 -55.5316 -55.4793 -55.4048
   -55.3810 -55.3259 -55.2357 -55.1636 -55.0835 -55.0112 -54.9897 -54.9772
   -32.6893 -32.5314 -32.5045 -32.3975 -32.3134 -32.3049 -32.3030 -32.0712
   -32.0428 -32.0237 -31.9715 -31.9650 -31.9311 -31.8965 -31.8689 -31.8173
   -31.8080 -31.7921 -31.7544 -31.7349 -31.7270 -31.7065 -31.6939 -31.6921
   -31.6898 -31.6503 -31.6027 -31.5738 -31.5538 -31.5361 -31.5349 -31.4973
   -31.4877 -31.4274 -31.4176 -31.4080 -31.3678 -31.3443 -31.3392 -31.3207
   -31.3149 -31.2915 -31.2387 -31.2266 -31.2263 -31.2116 -31.1420 -31.0301
   -18.8598 -16.5330 -16.3256 -16.1972 -15.9855 -15.8185 -15.7260 -15.7181
   -15.6706 -15.5496 -15.5219 -15.4275 -15.3362 -15.2627 -15.2619 -15.2374
   -15.1409 -15.0844 -15.0580 -15.0178 -14.9978 -14.9905 -14.9779 -14.8795
   -14.8630 -14.8576 -14.7152 -14.6932 -14.6077 -14.3594 -14.2629 -13.5091
   -13.3969 -11.5270  -6.9374  -4.4150  -4.1661  -4.0423  -4.0150  -3.8190
    -3.7483  -3.5310  -3.4316  -3.3547  -3.2330  -3.1470  -2.9574  -2.9462
    -2.8924  -2.8228  -2.7480  -2.6888  -2.6369  -2.6263  -2.5528  -2.5142
    -2.4736  -2.4664  -2.4037  -2.3877  -2.3015  -2.2897  -2.2165  -2.1822
    -2.1516  -2.1213  -2.1021  -2.0415  -2.0337  -2.0031  -1.9713  -1.9196
    -1.8569  -1.8106  -1.7243  -1.6727  -1.6558  -1.5639  -1.5443  -1.5332
    -1.5168  -1.3213  -1.2476  -1.2260  -1.2149  -1.0673  -1.0243  -0.9996
    -0.9197  -0.8957  -0.8488  -0.8084  -0.7602  -0.7040  -0.6731  -0.6672
    -0.6421  -0.5908  -0.4039  -0.3706  -0.3217  -0.2921  -0.2544  -0.1980
    -0.1679  -0.1372  -0.0536  -0.0484  -0.0396  -0.0021   0.0475   0.1287
     0.1892   0.2089   0.3015   0.3078   0.3493   0.3842   0.4409   0.4693
     0.5516   0.5964   0.6111   0.6656   0.6861   0.8742   0.9113   0.9481
     0.9855   1.0131   1.0588   1.1735   1.2420   1.5436   1.5610   1.6005
     2.7526   2.9875   3.1164   3.2724   3.4198   3.5146   3.8256   3.8534
     3.8886   3.9477   4.0109

[...]

          k = 0.0380-0.0419 0.0000 ( 17876 PWs)   bands (ev):

[...]

          k =-0.0760-0.0000 0.0000 ( 17886 PWs)   bands (ev):

[...]

          k =-0.0760-0.0839 0.0000 ( 17948 PWs)   bands (ev):

   -56.2225 -56.2215 -55.8082 -55.8057 -55.5859 -55.5368 -55.4764 -55.4074
   -55.3750 -55.3317 -55.2339 -55.1619 -55.0852 -54.9945 -54.9937 -54.9912
   -32.5175 -32.5163 -32.5056 -32.5049 -32.3499 -32.3488 -32.1277 -32.1238
   -32.0025 -32.0004 -31.9970 -31.9953 -31.8914 -31.8528 -31.8154 -31.8093
   -31.8041 -31.7645 -31.7528 -31.7466 -31.7204 -31.7062 -31.6979 -31.6672
   -31.6609 -31.6255 -31.6208 -31.6016 -31.5944 -31.5645 -31.5583 -31.5446
   -31.4881 -31.4337 -31.4314 -31.4212 -31.3655 -31.3439 -31.3339 -31.3333
   -31.2959 -31.2955 -31.2453 -31.2281 -31.2232 -31.2221 -31.1848 -31.1840
   -18.8561 -16.3110 -15.9429 -15.9306 -15.8072 -15.8006 -15.6284 -15.6119
   -15.5905 -15.5338 -15.5123 -15.4649 -15.3247 -15.3152 -15.2550 -15.2221
   -15.1969 -15.1809 -15.1517 -15.1512 -15.1320 -15.0586 -15.0309 -15.0038
   -14.9548 -14.9507 -14.7851 -14.7194 -14.7053 -14.4912 -14.4598 -13.5001
   -13.4997 -11.5250  -6.9512  -4.3628  -4.0360  -3.9979  -3.9211  -3.1112
    -3.0566  -2.9462  -2.9195  -2.8454  -2.8229  -2.7155  -2.6917  -2.6508
    -2.6373  -2.6336  -2.5782  -2.5559  -2.5337  -2.4895  -2.4776  -2.4647
    -2.4400  -2.3918  -2.3814  -2.3629  -2.3473  -2.3311  -2.2370  -2.2321
    -2.2140  -2.1699  -2.1664  -2.1534  -2.0756  -2.0065  -1.9632  -1.9571
    -1.9250  -1.8684  -1.7904  -1.6811  -1.6596  -1.6065  -1.5785  -1.5026
    -1.4732  -1.4280  -1.3336  -1.3261  -1.2990  -1.2815  -1.2207  -1.2060
    -1.0633  -1.0305  -1.0246  -1.0173  -1.0153  -0.9177  -0.8565  -0.7967
    -0.7452  -0.6620  -0.6485  -0.6276  -0.6089  -0.5990  -0.5801  -0.5558
    -0.4945  -0.4531  -0.4024  -0.3856  -0.2814  -0.2022  -0.1681  -0.1008
    -0.0229   0.0649   0.1434   0.1568   0.1948   0.2491   0.3375   0.3794
     0.4219   0.4904   0.5325   0.6047   0.6671   0.7521   0.7759   0.8661
     0.9761   0.9932   1.0438   1.1306   1.4035   1.4102   1.4166   1.4176
     2.7583   3.5354   3.5392   3.5690   3.5773   3.7771   3.7891   3.9149
     3.9693   3.9944   4.0309

     the Fermi energy is     2.9243 ev

!    total energy              =   -2972.74456347 Ry
     estimated scf accuracy    <       0.00000006 Ry
     smearing contrib. (-TS)   =      -0.01283713 Ry
     internal energy E=F+TS    =   -2972.73172633 Ry

     The total energy is F=E-TS. E is the sum of the following terms:
     one-electron contribution =  -23700.63434580 Ry
     hartree contribution      =   11943.61340322 Ry
     xc contribution           =    -493.12051788 Ry
     ewald contribution        =    9277.40903115 Ry
     electric field correction =       0.00070298 Ry

     convergence has been achieved in  73 iterations

     Forces acting on atoms (cartesian axes, Ry/au):

     atom    1 type  1   force =     0.00008855   -0.00038612    0.10701316
     atom    2 type  1   force =    -0.00004395   -0.00169007   -0.16539461
     atom    3 type  2   force =     0.00003486   -0.00025862   -0.03868612
     atom    4 type  2   force =     0.00004494    0.00076508    0.03117810
     atom    5 type  2   force =    -0.00355562    0.00294451   -0.00840185
     atom    6 type  2   force =     0.00469104    0.00361370   -0.01017082
     atom    7 type  1   force =    -0.00073144    0.00048798    0.02124177
     atom    8 type  1   force =     0.00100728    0.01539293    0.06096515
     atom    9 type  2   force =     0.00011319   -0.00015149    0.00008472
     atom   10 type  2   force =    -0.00289351    0.00226747   -0.04713725
     atom   11 type  2   force =    -0.00004384   -0.00020802   -0.00001791
     atom   12 type  2   force =     0.00000710   -0.00003079    0.00020272
     atom   13 type  1   force =     0.00028512   -0.00013706    0.00012212
     atom   14 type  1   force =     0.00040340   -0.00014117    0.00027272
     atom   15 type  2   force =     0.00015504    0.00013655   -0.00029924
     atom   16 type  2   force =     0.00014655   -0.00015269    0.00001708
     atom   17 type  2   force =     0.00023726    0.00013164    0.00022562
     atom   18 type  2   force =     0.00013326    0.00034047    0.00014030
     atom   19 type  1   force =     0.00000349   -0.00009920   -0.00014111
     atom   20 type  1   force =    -0.00037644    0.00019091    0.00002421
     atom   21 type  2   force =     0.00010174    0.00000138    0.10024931
     atom   22 type  2   force =     0.00001753    0.00005290   -0.00015355
     atom   23 type  2   force =    -0.07669270   -0.00004655   -0.03007120
     atom   24 type  2   force =     0.07667866    0.00038585   -0.03009631
     atom   25 type  1   force =     0.00006007   -0.00043170    0.10696516
     atom   26 type  1   force =    -0.00010917    0.00062129   -0.16570013
     atom   27 type  2   force =     0.00012157   -0.00027287   -0.03749979
     atom   28 type  2   force =     0.00004393   -0.00043920    0.03535315
     atom   29 type  2   force =    -0.00569365   -0.00043752   -0.00598415
     atom   30 type  2   force =     0.00685608    0.00006068   -0.00767212
     atom   31 type  1   force =    -0.00057031   -0.00238956    0.03461772
     atom   32 type  1   force =     0.00111300   -0.01877462    0.06148731
     atom   33 type  2   force =     0.00022369   -0.00012434    0.00004355
     atom   34 type  2   force =    -0.00253736    0.00012928   -0.05384888
     atom   35 type  2   force =     0.00022092   -0.00024420   -0.00011026
     atom   36 type  2   force =     0.00017618   -0.00001878    0.00028714
     atom   37 type  1   force =     0.00035116   -0.00019208   -0.00011459
     atom   38 type  1   force =     0.00046396   -0.00023299    0.00032015
     atom   39 type  2   force =     0.00015859   -0.00045009    0.00026948
     atom   40 type  2   force =    -0.00018171   -0.00006459   -0.00013116
     atom   41 type  2   force =     0.00015098   -0.00041496    0.00011639
     atom   42 type  2   force =     0.00014857   -0.00035524    0.00005984
     atom   43 type  1   force =    -0.00025957    0.00000030   -0.00021956
     atom   44 type  1   force =     0.00002016   -0.00029733    0.00021860
     atom   45 type  2   force =     0.00009626    0.00010844    0.10045725
     atom   46 type  2   force =    -0.07667362   -0.00005933   -0.03008497
     atom   47 type  2   force =     0.07666404    0.00036191   -0.03011403
     atom   48 type  3   force =     0.00027553   -0.00029327    0.00052885
     atom   49 type  3   force =     0.00014800    0.00012262   -0.00110642
     atom   50 type  4   force =    -0.00072013    0.00144841   -0.00029992
     atom   51 type  5   force =     0.00033570   -0.00097454    0.00071350
     atom   52 type  5   force =     0.00016649    0.00008702   -0.00058853
     atom   53 type  5   force =    -0.00038157   -0.00009660    0.00060798
     atom   54 type  2   force =     0.00468573    0.00791335    0.00483642
     atom   55 type  5   force =    -0.00516504   -0.00769908   -0.00457498

     Total force =     0.381619     Total SCF correction =     0.000810
  @ DRIVER MODE: Message from server: STATUS
  @ DRIVER MODE: Message from server: GETFORCE
  @ DRIVER MODE: Returning v,forces,stress,ensemble

     Writing output data file ./calc.save/
  @ DRIVER MODE: Message from server: EXIT
  @ DRIVE MODE: Exiting

     General routines

     Parallel routines

   This run was terminated on:  12:19:49  10Sep2021

   JOB DONE.