     Program PWSCF v.6.7GPU starts on 16Sep2021 at  2:58:50

     R & G space division:  proc/nbgrp/npool/nimage =      10
     Reading input from /storage/home/hcoda1/3/ntian30/research/carbon/CxH_vib/H2O_calc/ads_slab/CHNHHH2O_a/out_0035/pw.inp
Warning: card &CELL ignored
Warning: card   CELL_DYNAMICS='IPI', ignored
Warning: card / ignored

     Current dimensions of program PWSCF are:
     Max number of different atomic species (ntypx) = 10
     Max number of k-points (npk) =  40000
     Max angular momentum in pseudopotentials (lmaxx) =  3
     Presently no symmetry can be used with electric field

     Message from routine cell_base_init:
     DEPRECATED: use true lattice parameter, not A to a.u. conversion factor

     IMPORTANT: XC functional enforced from input :
     Exchange-correlation= BEEF-VDW
                           (   1   4  43  14   2   0   0)
     Any further DFT definition will be discarded
     Please, verify this is what you really want

  @ DRIVER MODE: Connecting to
 qe_1139763_2852629.sched-torque.pace.gatech.edue7smkc64_scratch
  using UNIX socket
  @ DRIVER MODE: Message from server: STATUS
  @ DRIVER MODE: Message from server: INIT
  @ DRIVER MODE: Receiving replica           0          -1
  @ DRIVER MODE: Receiving encoded integer          25
  @ DRIVER MODE:  SCF:  T  FORCE:  T  STRESS:  F  VC:  F  ENSEMBLE:  F
  @ DRIVER MODE:  SCF:  T  FORCE:  T  STRESS:  F  VC:  F  ENSEMBLE:  F

     Using Slab Decomposition

     bravais-lattice index     =            0
     lattice parameter (alat)  =       1.8897  a.u.
     unit-cell volume          =    6658.9804 (a.u.)^3
     number of atoms/cell      =           55
     number of atomic types    =            5
     number of electrons       =       398.00
     number of Kohn-Sham states=          209
     kinetic-energy cutoff     =      29.3995  Ry
     charge density cutoff     =     293.9946  Ry
     scf convergence threshold =      7.3E-08
     mixing beta               =       0.0500
     number of iterations used =            8  plain     mixing
     Exchange-correlation= BEEF-VDW
                           (   1   4  43  14   2   0   0)

     celldm(1)=   1.889726  celldm(2)=   0.000000  celldm(3)=   0.000000
     celldm(4)=   0.000000  celldm(5)=   0.000000  celldm(6)=   0.000000

     crystal axes: (cart. coord. in units of alat)
               a(1) = (   6.579727   0.000000   0.000000 )
               a(2) = (  -0.000775   5.961596   0.000000 )
               a(3) = (   0.000000   0.000000  25.155947 )

     reciprocal axes: (cart. coord. in units 2 pi/alat)
               b(1) = (  0.151982  0.000020  0.000000 )
               b(2) = (  0.000000  0.167740  0.000000 )
               b(3) = (  0.000000  0.000000  0.039752 )

     PseudoPot. # 1 for Ti read from file:
     /storage/coda1/p-amedford6/0/shared/rich_project_chbe-medford/medford-share/data/pseudos_module/espresso/nninc/pbe/van/Ti.UPF
     MD5 check sum: 8e4df49b7f0d34bbd5052bf3f5ea0213
     Pseudo is Ultrasoft, Zval = 12.0
     Generated by new atomic code, or converted to UPF format
     Using radial grid of  851 points,  6 beta functions with:
                l(1) =   0
                l(2) =   0
                l(3) =   1
                l(4) =   1
                l(5) =   2
                l(6) =   2
     Q(r) pseudized with  8 coefficients,  rinner =    1.000   1.000   1.000
                                                       1.000   1.000

     PseudoPot. # 2 for O  read from file:
     /storage/coda1/p-amedford6/0/shared/rich_project_chbe-medford/medford-share/data/pseudos_module/espresso/nninc/pbe/van/O.UPF
     MD5 check sum: 78c19812648e8988a0fe644b0f25305e
     Pseudo is Ultrasoft, Zval =  6.0
     Generated by new atomic code, or converted to UPF format
     Using radial grid of  737 points,  4 beta functions with:
                l(1) =   0
                l(2) =   0
                l(3) =   1
                l(4) =   1
     Q(r) pseudized with  8 coefficients,  rinner =    0.800   0.800   0.800

     PseudoPot. # 3 for N  read from file:
     /storage/coda1/p-amedford6/0/shared/rich_project_chbe-medford/medford-share/data/pseudos_module/espresso/nninc/pbe/van/N.UPF
     MD5 check sum: 90d10febe142ad51ac9d5be1deb811c4
     Pseudo is Ultrasoft, Zval =  5.0
     Generated by new atomic code, or converted to UPF format
     Using radial grid of  729 points,  4 beta functions with:
                l(1) =   0
                l(2) =   0
                l(3) =   1
                l(4) =   1
     Q(r) pseudized with  8 coefficients,  rinner =    0.800   0.800   0.800

     PseudoPot. # 4 for C  read from file:
     /storage/coda1/p-amedford6/0/shared/rich_project_chbe-medford/medford-share/data/pseudos_module/espresso/nninc/pbe/van/C.UPF
     MD5 check sum: 1a69bf6b8db32088f5b2163dbdb77a27
     Pseudo is Ultrasoft, Zval =  4.0
     Generated by new atomic code, or converted to UPF format
     Using radial grid of  721 points,  4 beta functions with:
                l(1) =   0
                l(2) =   0
                l(3) =   1
                l(4) =   1
     Q(r) pseudized with  8 coefficients,  rinner =    0.800   0.800   0.800

     PseudoPot. # 5 for H  read from file:
     /storage/coda1/p-amedford6/0/shared/rich_project_chbe-medford/medford-share/data/pseudos_module/espresso/nninc/pbe/van/H.UPF
     MD5 check sum: b5ee9d7bfd3a09ee7748110bda690ff7
     Pseudo is Ultrasoft, Zval =  1.0
     Generated by new atomic code, or converted to UPF format
     Using radial grid of  615 points,  1 beta functions with:
                l(1) =   0
     Q(r) pseudized with  8 coefficients,  rinner =    0.800

     atomic species   valence    mass     pseudopotential
        Ti1           12.00    47.86700     Ti( 1.00)
        O1             6.00    15.99900     O ( 1.00)
        N1             5.00    14.00700     N ( 1.00)
        C1             4.00    12.01100     C ( 1.00)
        H1             1.00     1.00800     H ( 1.00)

     No symmetry found

   Cartesian axes

     site n.     atom                  positions (alat units)
         1           Ti1 tau(   1) = (   0.0004258   2.9801865   6.0000000  )
         2           Ti1 tau(   2) = (   3.2906075   1.4906267   6.0002472  )
         3           O1  tau(   3) = (   0.0006271   0.0005054   7.9858123  )
         4           O1  tau(   4) = (   3.2906025   0.0005020   7.3038282  )
         5           O1  tau(   5) = (   4.5942328   1.4918067   9.2879030  )
         6           O1  tau(   6) = (   1.9868534   1.4903216   9.2879459  )
         7           Ti1 tau(   7) = (   3.2907910   2.8959150   9.1758416  )
         8           Ti1 tau(   8) = (   0.0015273   1.4827037   9.2680791  )
         9           O1  tau(   9) = (   3.2943807   5.9438157  11.3430345  )
        10           O1  tau(  10) = (   0.0116148   5.9584955  10.6183126  )
        11           O1  tau(  11) = (   1.2953376   1.4759649  12.6292060  )
        12           O1  tau(  12) = (   5.2846356   1.4785235  12.6176154  )
        13           Ti1 tau(  13) = (   0.0556596   2.9564334  12.6140783  )
        14           Ti1 tau(  14) = (   3.3658323   1.4657407  12.4949608  )
        15           O1  tau(  15) = (   6.5664030   0.0209144  14.6477191  )
        16           O1  tau(  16) = (   3.3113265   5.9542485  13.9698242  )
        17           O1  tau(  17) = (   4.5454210   1.5146250  16.1225105  )
        18           O1  tau(  18) = (   2.0305911   1.5113983  16.0894517  )
        19           Ti1 tau(  19) = (   3.2587399   2.9544808  15.6767922  )
        20           Ti1 tau(  20) = (   6.5654577   1.5458692  15.9193722  )
        21           O1  tau(  21) = (   3.2904802   0.0005063   4.7018136  )
        22           O1  tau(  22) = (   0.0418464   5.8849155  17.2380659  )
        23           O1  tau(  23) = (   1.3043587   1.4918075   6.0039043  )
        24           O1  tau(  24) = (   5.2767064   1.4903225   6.0039473  )
        25           Ti1 tau(  25) = (   0.0000382   5.9609847   6.0000000  )
        26           Ti1 tau(  26) = (   3.2902200   4.4714249   6.0002472  )
        27           O1  tau(  27) = (   0.0002396   2.9813036   7.9858123  )
        28           O1  tau(  28) = (   3.2902150   2.9813002   7.3038282  )
        29           O1  tau(  29) = (   4.5938453   4.4726049   9.2879030  )
        30           O1  tau(  30) = (   1.9864658   4.4711199   9.2879459  )
        31           Ti1 tau(  31) = (   3.2891106   5.8743827   9.1763621  )
        32           Ti1 tau(  32) = (   0.0006254   4.4649316   9.2693709  )
        33           O1  tau(  33) = (   3.2978316   2.9705197  11.3397625  )
        34           O1  tau(  34) = (   0.0092240   2.9805883  10.6323155  )
        35           O1  tau(  35) = (   1.2936985   4.4655287  12.6460247  )
        36           O1  tau(  36) = (   5.2856521   4.4646452  12.6308247  )
        37           Ti1 tau(  37) = (   0.0515089   5.9379728  12.5308627  )
        38           Ti1 tau(  38) = (   3.3654372   4.4547101  12.4935900  )
        39           O1  tau(  39) = (   6.5748852   2.9443291  14.6951209  )
        40           O1  tau(  40) = (   3.2957406   2.9584624  13.8938737  )
        41           O1  tau(  41) = (   4.5486474   4.4154460  16.0876977  )
        42           O1  tau(  42) = (   2.0388008   4.4257786  16.0448984  )
        43           Ti1 tau(  43) = (   3.3137362   5.9209902  15.7922403  )
        44           Ti1 tau(  44) = (   0.0032603   4.6697478  15.9558853  )
        45           O1  tau(  45) = (   3.2900926   2.9813045   4.7018136  )
        46           O1  tau(  46) = (   1.3039711   4.4726057   6.0039043  )
        47           O1  tau(  47) = (   5.2763189   4.4711207   6.0039473  )
        48           N1  tau(  48) = (   5.6270067   3.1633449  18.6203826  )
        49           C1  tau(  49) = (   0.0237924   2.7940403  17.7774691  )
        50           H1  tau(  50) = (   0.9584034   2.6460975  18.3247808  )
        51           H1  tau(  51) = (   4.7713523   3.5531088  18.2436842  )
        52           H1  tau(  52) = (   5.8168525   3.4166350  19.5804594  )
        53           O1  tau(  53) = (   3.2115967   5.9081562  18.2446127  )
        54           H1  tau(  54) = (   3.8106726   0.6855978  18.4519937  )
        55           H1  tau(  55) = (   2.3006756   0.2828797  18.3268221  )

     number of k points=    10  Fermi-Dirac smearing, width (Ry)=  0.0073
                       cart. coord. in units 2pi/alat
        k(    1) = (   0.0000000   0.0000000   0.0000000), wk =   0.1250000
        k(    2) = (   0.0000000   0.0419351   0.0000000), wk =   0.2500000
        k(    3) = (   0.0000000  -0.0838702   0.0000000), wk =   0.1250000
        k(    4) = (   0.0379955   0.0000049   0.0000000), wk =   0.2500000
        k(    5) = (   0.0379955   0.0419400   0.0000000), wk =   0.2500000
        k(    6) = (   0.0379955  -0.0838652   0.0000000), wk =   0.2500000
        k(    7) = (   0.0379955  -0.0419301   0.0000000), wk =   0.2500000
        k(    8) = (  -0.0759910  -0.0000099   0.0000000), wk =   0.1250000
        k(    9) = (  -0.0759910   0.0419252   0.0000000), wk =   0.2500000
        k(   10) = (  -0.0759910  -0.0838800   0.0000000), wk =   0.1250000

     Initial potential from superposition of free atoms

     starting charge  381.99915, renormalised to  398.00000

     negative rho (up, down):  1.707E-02 0.000E+00

     %%%%%%%%%%%%%%%%%%%%%%%%%%%%%%%%%%%%%%%%%%%%%%%%%%%%%%%%%%%%%%%%%%%%%%%%
     %                                                                      %
     % You are using vdW-DF, which was implemented by the Thonhauser group. %
     % Please cite the following two papers that made this development      %
     % possible and the two reviews that describe the various versions:     %
     %                                                                      %
     %   T. Thonhauser et al., PRL 115, 136402 (2015).                      %
     %   T. Thonhauser et al., PRB 76, 125112 (2007).                       %
     %   K. Berland et al., Rep. Prog. Phys. 78, 066501 (2015).             %
     %   D.C. Langreth et al., J. Phys.: Condens. Matter 21, 084203 (2009). %
     %                                                                      %
     %                                                                      %
     % If you are calculating the stress with vdW-DF, please also cite:     %
     %                                                                      %
     %   R. Sabatini et al., J. Phys.: Condens. Matter 24, 424209 (2012).   %
     %                                                                      %
     %%%%%%%%%%%%%%%%%%%%%%%%%%%%%%%%%%%%%%%%%%%%%%%%%%%%%%%%%%%%%%%%%%%%%%%%

     Adding external electric field

     Computed dipole along edir(3) :
        Dipole              -10.1305 Ry au,        -25.7491 Debye
        Dipole field         -0.0191 Ry au,

        Potential amp.        1.7722 Ry
        Total length         46.3494 bohr

     Starting wfcs are  301 atomic wfcs
  @ DRIVER MODE: Message from server: STATUS
  @ DRIVER MODE: Message from server: POSDATA
  @ DRIVER MODE: Reading and sharing cell
  @ DRIVER MODE: Reading and sharing positions
  @ DRIVER MODE: Received positions

     Self-consistent Calculation

     iteration #  1     ecut=    29.40 Ry     beta= 0.05
     Davidson diagonalization with overlap
     c_bands:  2 eigenvalues not converged
     c_bands:  1 eigenvalues not converged
     c_bands:  1 eigenvalues not converged
     c_bands:  3 eigenvalues not converged
     c_bands:  1 eigenvalues not converged
     c_bands:  3 eigenvalues not converged
     c_bands:  3 eigenvalues not converged
     c_bands:  3 eigenvalues not converged
     c_bands:  1 eigenvalues not converged
     ethr =  1.00E-05,  avg # of iterations = 19.8

[...]

     total energy              =   -2497.70976651 Ry
     estimated scf accuracy    <    5093.98782950 Ry

     iteration #  2     ecut=    29.40 Ry     beta= 0.05
     Davidson diagonalization with overlap
     ethr =  1.00E-02,  avg # of iterations = 25.8

[...]

     iteration # 63     ecut=    29.40 Ry     beta= 0.05
     Davidson diagonalization with overlap
     c_bands:  1 eigenvalues not converged
     ethr =  4.63E-11,  avg # of iterations = 14.9

[...]

     total energy              =   -2953.88251875 Ry
     estimated scf accuracy    <       0.00000010 Ry

     iteration # 66     ecut=    29.40 Ry     beta= 0.05
     Davidson diagonalization with overlap
     ethr =  2.57E-11,  avg # of iterations =  6.0

     negative rho (up, down):  1.665E-02 0.000E+00

     Adding external electric field

     Computed dipole along edir(3) :
        Dipole                1.3015 Ry au,          3.3082 Debye
        Dipole field          0.0025 Ry au,

        Potential amp.       -0.2277 Ry
        Total length         46.3494 bohr

     End of self-consistent calculation

          k = 0.0000 0.0000 0.0000 ( 18029 PWs)   bands (ev):

   -55.4382 -55.4320 -55.4117 -55.4042 -55.3959 -55.2946 -55.2526 -55.2464
   -55.2305 -55.2289 -55.2118 -55.1955 -54.8539 -54.7623 -54.4247 -54.3907
   -31.9879 -31.9221 -31.8131 -31.7895 -31.7483 -31.7451 -31.7296 -31.7195
   -31.6801 -31.6795 -31.6496 -31.6332 -31.6222 -31.6121 -31.5912 -31.5786
   -31.5693 -31.5439 -31.5400 -31.5045 -31.4960 -31.4932 -31.4592 -31.4475
   -31.4414 -31.4388 -31.4307 -31.4300 -31.4293 -31.4038 -31.4034 -31.3983
   -31.3816 -31.3776 -31.3532 -31.3451 -31.3386 -31.1858 -31.0718 -31.0200
   -30.9601 -30.9239 -30.8322 -30.7429 -30.7205 -30.6489 -30.5624 -30.4513
   -19.0619 -16.4559 -16.1954 -15.9343 -15.7498 -15.6214 -15.5939 -15.4198
   -15.2850 -15.1833 -15.1207 -15.0641 -15.0433 -14.9962 -14.9927 -14.9813
   -14.9789 -14.9477 -14.8998 -14.8787 -14.8590 -14.8175 -14.8085 -14.7918
   -14.7424 -14.7027 -14.6089 -14.5772 -14.5510 -14.5109 -14.0266 -12.9272
   -12.8106  -9.0164  -6.8582  -6.6880  -4.2555  -3.5678  -3.4043  -3.3526
    -3.3476  -3.3169  -3.2428  -3.0872  -2.9547  -2.7165  -2.6542  -2.6194
    -2.5859  -2.5484  -2.4327  -2.3814  -2.3703  -2.3050  -2.2570  -2.2487
    -2.2359  -2.2147  -2.1995  -2.1385  -2.1251  -2.0270  -1.9829  -1.9138
    -1.8522  -1.8206  -1.7699  -1.7552  -1.7111  -1.7082  -1.6937  -1.6747
    -1.6607  -1.6459  -1.5889  -1.5251  -1.4477  -1.2625  -1.2299  -1.1136
    -1.0850  -1.0538  -1.0093  -0.9260  -0.8990  -0.8769  -0.8374  -0.7466
    -0.7207  -0.6736  -0.5852  -0.4957  -0.4509  -0.4238  -0.3440  -0.3087
    -0.2795  -0.2144  -0.2069  -0.1953  -0.1181  -0.0645   0.0428   0.0793
     0.1138   0.1294   0.1435   0.2284   0.2668   0.3244   0.3685   0.4211
     0.4572   0.4719   0.5080   0.5290   0.5441   0.5712   0.5830   0.7659
     0.8069   0.8360   0.8669   0.9515   1.0535   1.1201   1.2034   1.2732
     1.5201   1.5975   1.6507   1.7880   2.1696   2.2159   3.6326   3.7611
     3.7796   3.7980   3.8290   3.8923   3.9547   4.1438   4.1665   4.1879
     4.2161

[...]

          k = 0.0380-0.0419 0.0000 ( 17876 PWs)   bands (ev):

[...]

          k =-0.0760-0.0000 0.0000 ( 17886 PWs)   bands (ev):

[...]

          k =-0.0760-0.0839 0.0000 ( 17948 PWs)   bands (ev):

   -55.4217 -55.4205 -55.4156 -55.4123 -55.4097 -55.2857 -55.2613 -55.2320
   -55.2312 -55.2262 -55.2140 -55.2110 -54.8507 -54.7654 -54.4077 -54.4076
   -31.7974 -31.7868 -31.7378 -31.7369 -31.7210 -31.7155 -31.7144 -31.6977
   -31.6828 -31.6420 -31.6342 -31.6291 -31.6187 -31.6007 -31.5652 -31.5547
   -31.5503 -31.5503 -31.5478 -31.5417 -31.5415 -31.5406 -31.5369 -31.4983
   -31.4772 -31.4714 -31.4604 -31.4467 -31.4415 -31.4375 -31.4354 -31.4351
   -31.4285 -31.4253 -31.4063 -31.4009 -31.2470 -31.1876 -31.0650 -31.0379
   -31.0212 -30.9601 -30.7333 -30.7331 -30.6450 -30.6448 -30.6057 -30.6056
   -19.0609 -16.4456 -15.6852 -15.5558 -15.4276 -15.3698 -15.3646 -15.3053
   -15.3014 -15.1877 -15.1785 -15.1500 -15.1253 -15.1080 -15.0795 -15.0602
   -14.9989 -14.9786 -14.9750 -14.9445 -14.9159 -14.9030 -14.8980 -14.8833
   -14.8796 -14.8254 -14.7696 -14.7664 -14.6550 -14.5520 -14.1834 -12.9125
   -12.9122  -9.0260  -6.8412  -6.7080  -4.2230  -3.2657  -2.9696  -2.7879
    -2.6830  -2.6266  -2.5636  -2.5449  -2.3786  -2.3635  -2.3536  -2.3164
    -2.3007  -2.2788  -2.2686  -2.2638  -2.2373  -2.2254  -2.2074  -2.1768
    -2.1444  -2.1248  -2.1169  -2.1103  -2.0936  -2.0750  -2.0523  -2.0312
    -2.0272  -2.0000  -1.9602  -1.9375  -1.8776  -1.7416  -1.7042  -1.6635
    -1.5939  -1.5874  -1.5337  -1.5175  -1.4906  -1.4627  -1.4012  -1.3752
    -1.2283  -1.1634  -1.1474  -1.1312  -1.1167  -0.9959  -0.9548  -0.8856
    -0.8591  -0.7910  -0.7591  -0.7472  -0.7009  -0.5990  -0.5863  -0.5344
    -0.5232  -0.4268  -0.4037  -0.3928  -0.3578  -0.3124  -0.2434  -0.2038
    -0.1890  -0.1790  -0.1463  -0.1392  -0.0990   0.0214   0.0816   0.1431
     0.2141   0.3169   0.4286   0.4411   0.5902   0.6167   0.6307   0.7361
     0.8227   0.8531   0.8727   0.9007   0.9037   1.0286   1.0753   1.0851
     1.0868   1.2375   1.9597   1.9610   2.0354   2.0359   3.7403   3.9413
     3.9626   4.0046   4.0506   4.1821   4.1911   4.2252   4.2265   4.3110
     4.3431

     the Fermi energy is     3.6921 ev

!    total energy              =   -2953.88256581 Ry
     estimated scf accuracy    <       0.00000004 Ry
     smearing contrib. (-TS)   =      -0.03287954 Ry
     internal energy E=F+TS    =   -2953.84968627 Ry

     The total energy is F=E-TS. E is the sum of the following terms:
     one-electron contribution =  -24261.63126796 Ry
     hartree contribution      =   12224.41373221 Ry
     xc contribution           =    -488.84166060 Ry
     ewald contribution        =    9572.20631332 Ry
     electric field correction =       0.00319676 Ry

     convergence has been achieved in  66 iterations

     Forces acting on atoms (cartesian axes, Ry/au):

     atom    1 type  1   force =     0.00020534   -0.00020321    0.09615639
     atom    2 type  1   force =    -0.00010668   -0.00027497   -0.17606251
     atom    3 type  2   force =     0.00002586    0.00001955   -0.02488574
     atom    4 type  2   force =     0.00003532   -0.00159975    0.05414993
     atom    5 type  2   force =    -0.01178424   -0.00148484    0.00427490
     atom    6 type  2   force =     0.01354962   -0.00070942    0.00348248
     atom    7 type  1   force =    -0.00083810    0.00087638   -0.01025379
     atom    8 type  1   force =     0.00024825    0.01223216    0.02353967
     atom    9 type  2   force =    -0.00035611   -0.00008597   -0.00025508
     atom   10 type  2   force =    -0.00088222   -0.00045120   -0.01485711
     atom   11 type  2   force =     0.00040157    0.00008331    0.00016748
     atom   12 type  2   force =    -0.00039718   -0.00007725    0.00002072
     atom   13 type  1   force =    -0.00065928   -0.00007496   -0.00155189
     atom   14 type  1   force =     0.00058358    0.00012884    0.00037422
     atom   15 type  2   force =     0.00057612    0.00042622    0.00008003
     atom   16 type  2   force =    -0.00028336    0.00007450    0.00006820
     atom   17 type  2   force =    -0.00004298   -0.00011781   -0.00060469
     atom   18 type  2   force =     0.00000284    0.00010667   -0.00030958
     atom   19 type  1   force =     0.00076143   -0.00005362    0.00059025
     atom   20 type  1   force =    -0.00038346   -0.00055160    0.00014284
     atom   21 type  2   force =     0.00005890    0.00004381    0.10335791
     atom   22 type  2   force =     0.00036537    0.00078937   -0.00012278
     atom   23 type  2   force =    -0.07130444   -0.00007787   -0.02765074
     atom   24 type  2   force =     0.07126238    0.00035758   -0.02768796
     atom   25 type  1   force =    -0.00005935   -0.00014602    0.09566527
     atom   26 type  1   force =    -0.00019392   -0.00030700   -0.17601664
     atom   27 type  2   force =     0.00012335   -0.00040225   -0.02389215
     atom   28 type  2   force =     0.00009615   -0.00126829    0.05361397
     atom   29 type  2   force =    -0.01201614    0.00045052    0.00380410
     atom   30 type  2   force =     0.01366036    0.00069456    0.00308668
     atom   31 type  1   force =    -0.00061195    0.00370138   -0.01329045
     atom   32 type  1   force =     0.00020154   -0.01325298    0.02341451
     atom   33 type  2   force =    -0.00007949   -0.00005352   -0.00030578
     atom   34 type  2   force =    -0.00008680    0.00021916   -0.01833968
     atom   35 type  2   force =     0.00032533   -0.00048486    0.00023894
     atom   36 type  2   force =    -0.00030716   -0.00015929    0.00010292
     atom   37 type  1   force =    -0.00084113   -0.00023301   -0.00008218
     atom   38 type  1   force =     0.00047161    0.00013869    0.00069854
     atom   39 type  2   force =    -0.00002344    0.00085325   -0.00004651
     atom   40 type  2   force =    -0.00022690   -0.00017831   -0.00067086
     atom   41 type  2   force =     0.00041759    0.00035473   -0.00002830
     atom   42 type  2   force =    -0.00083107    0.00009475   -0.00005479
     atom   43 type  1   force =     0.00075463    0.00028202    0.00029484
     atom   44 type  1   force =    -0.00034160   -0.00101487    0.00041263
     atom   45 type  2   force =     0.00006000    0.00003671    0.10331570
     atom   46 type  2   force =    -0.07128681   -0.00002065   -0.02761834
     atom   47 type  2   force =     0.07123344    0.00040394   -0.02763892
     atom   48 type  3   force =    -0.00057139    0.00099541   -0.00008730
     atom   49 type  4   force =     0.00011596    0.00082101   -0.00083592
     atom   50 type  5   force =     0.00068432   -0.00002422    0.00097431
     atom   51 type  5   force =     0.00058471    0.00041010    0.00004465
     atom   52 type  5   force =    -0.00010026    0.00015119    0.00026568
     atom   53 type  2   force =    -0.00057446    0.00282439    0.00155310
     atom   54 type  5   force =    -0.00255749   -0.00235817   -0.00064152
     atom   55 type  5   force =     0.00094185   -0.00190430   -0.00009967

     Total force =     0.367632     Total SCF correction =     0.000502
  @ DRIVER MODE: Message from server: STATUS
  @ DRIVER MODE: Message from server: GETFORCE
  @ DRIVER MODE: Returning v,forces,stress,ensemble

     Writing output data file ./calc.save/
  @ DRIVER MODE: Message from server: EXIT
  @ DRIVE MODE: Exiting

     General routines

     Parallel routines

   This run was terminated on:   3:16:51  16Sep2021

   JOB DONE.