     Program PWSCF v.6.7GPU starts on  1Oct2021 at 10:20:13

     R & G space division:  proc/nbgrp/npool/nimage =       8
     Reading input from /storage/home/hcoda1/3/ntian30/research/carbon/CxH_vib/pristine/ads_slab/CHHNN_a/out_0016/pw.inp
Warning: card &CELL ignored
Warning: card   CELL_DYNAMICS='IPI', ignored
Warning: card / ignored

     Current dimensions of program PWSCF are:
     Max number of different atomic species (ntypx) = 10
     Max number of k-points (npk) =  40000
     Max angular momentum in pseudopotentials (lmaxx) =  3
     Presently no symmetry can be used with electric field

     Message from routine cell_base_init:
     DEPRECATED: use true lattice parameter, not A to a.u. conversion factor

     IMPORTANT: XC functional enforced from input :
     Exchange-correlation= BEEF-VDW
                           (   1   4  43  14   2   0   0)
     Any further DFT definition will be discarded
     Please, verify this is what you really want

  @ DRIVER MODE: Connecting to
 qe_1139763_3035467.sched-torque.pace.gatech.edun2elu_fx_scratch
  using UNIX socket
  @ DRIVER MODE: Message from server: STATUS
  @ DRIVER MODE: Message from server: INIT
  @ DRIVER MODE: Receiving replica           0          -1
  @ DRIVER MODE: Receiving encoded integer          25
  @ DRIVER MODE:  SCF:  T  FORCE:  T  STRESS:  F  VC:  F  ENSEMBLE:  F
  @ DRIVER MODE:  SCF:  T  FORCE:  T  STRESS:  F  VC:  F  ENSEMBLE:  F

     Using Slab Decomposition

     bravais-lattice index     =            0
     lattice parameter (alat)  =       1.8897  a.u.
     unit-cell volume          =    6658.9804 (a.u.)^3
     number of atoms/cell      =           53
     number of atomic types    =            5
     number of electrons       =       400.00
     number of Kohn-Sham states=          210
     kinetic-energy cutoff     =      29.3995  Ry
     charge density cutoff     =     293.9946  Ry
     scf convergence threshold =      7.3E-08
     mixing beta               =       0.0500
     number of iterations used =            8  plain     mixing
     Exchange-correlation= BEEF-VDW
                           (   1   4  43  14   2   0   0)

     celldm(1)=   1.889726  celldm(2)=   0.000000  celldm(3)=   0.000000
     celldm(4)=   0.000000  celldm(5)=   0.000000  celldm(6)=   0.000000

     crystal axes: (cart. coord. in units of alat)
               a(1) = (   6.579727   0.000000   0.000000 )
               a(2) = (  -0.000775   5.961596   0.000000 )
               a(3) = (   0.000000   0.000000  25.155947 )

     reciprocal axes: (cart. coord. in units 2 pi/alat)
               b(1) = (  0.151982  0.000020  0.000000 )
               b(2) = (  0.000000  0.167740  0.000000 )
               b(3) = (  0.000000  0.000000  0.039752 )

     PseudoPot. # 1 for Ti read from file:
     /storage/coda1/p-amedford6/0/shared/rich_project_chbe-medford/medford-share/data/pseudos_module/espresso/nninc/pbe/van/Ti.UPF
     MD5 check sum: 8e4df49b7f0d34bbd5052bf3f5ea0213
     Pseudo is Ultrasoft, Zval = 12.0
     Generated by new atomic code, or converted to UPF format
     Using radial grid of  851 points,  6 beta functions with:
                l(1) =   0
                l(2) =   0
                l(3) =   1
                l(4) =   1
                l(5) =   2
                l(6) =   2
     Q(r) pseudized with  8 coefficients,  rinner =    1.000   1.000   1.000
                                                       1.000   1.000

     PseudoPot. # 2 for O  read from file:
     /storage/coda1/p-amedford6/0/shared/rich_project_chbe-medford/medford-share/data/pseudos_module/espresso/nninc/pbe/van/O.UPF
     MD5 check sum: 78c19812648e8988a0fe644b0f25305e
     Pseudo is Ultrasoft, Zval =  6.0
     Generated by new atomic code, or converted to UPF format
     Using radial grid of  737 points,  4 beta functions with:
                l(1) =   0
                l(2) =   0
                l(3) =   1
                l(4) =   1
     Q(r) pseudized with  8 coefficients,  rinner =    0.800   0.800   0.800

     PseudoPot. # 3 for N  read from file:
     /storage/coda1/p-amedford6/0/shared/rich_project_chbe-medford/medford-share/data/pseudos_module/espresso/nninc/pbe/van/N.UPF
     MD5 check sum: 90d10febe142ad51ac9d5be1deb811c4
     Pseudo is Ultrasoft, Zval =  5.0
     Generated by new atomic code, or converted to UPF format
     Using radial grid of  729 points,  4 beta functions with:
                l(1) =   0
                l(2) =   0
                l(3) =   1
                l(4) =   1
     Q(r) pseudized with  8 coefficients,  rinner =    0.800   0.800   0.800

     PseudoPot. # 4 for C  read from file:
     /storage/coda1/p-amedford6/0/shared/rich_project_chbe-medford/medford-share/data/pseudos_module/espresso/nninc/pbe/van/C.UPF
     MD5 check sum: 1a69bf6b8db32088f5b2163dbdb77a27
     Pseudo is Ultrasoft, Zval =  4.0
     Generated by new atomic code, or converted to UPF format
     Using radial grid of  721 points,  4 beta functions with:
                l(1) =   0
                l(2) =   0
                l(3) =   1
                l(4) =   1
     Q(r) pseudized with  8 coefficients,  rinner =    0.800   0.800   0.800

     PseudoPot. # 5 for H  read from file:
     /storage/coda1/p-amedford6/0/shared/rich_project_chbe-medford/medford-share/data/pseudos_module/espresso/nninc/pbe/van/H.UPF
     MD5 check sum: b5ee9d7bfd3a09ee7748110bda690ff7
     Pseudo is Ultrasoft, Zval =  1.0
     Generated by new atomic code, or converted to UPF format
     Using radial grid of  615 points,  1 beta functions with:
                l(1) =   0
     Q(r) pseudized with  8 coefficients,  rinner =    0.800

     atomic species   valence    mass     pseudopotential
        Ti1           12.00    47.86700     Ti( 1.00)
        O1             6.00    15.99900     O ( 1.00)
        N1             5.00    14.00700     N ( 1.00)
        C1             4.00    12.01100     C ( 1.00)
        H1             1.00     1.00800     H ( 1.00)

     No symmetry found

   Cartesian axes

     site n.     atom                  positions (alat units)
         1           Ti1 tau(   1) = (   0.0004258   2.9801865   6.0000000  )
         2           Ti1 tau(   2) = (   3.2906075   1.4906267   6.0002472  )
         3           O1  tau(   3) = (   0.0006271   0.0005054   7.9858123  )
         4           O1  tau(   4) = (   3.2906025   0.0005020   7.3038282  )
         5           O1  tau(   5) = (   4.5942328   1.4918067   9.2879030  )
         6           O1  tau(   6) = (   1.9868534   1.4903216   9.2879459  )
         7           Ti1 tau(   7) = (   3.2961651   2.9340025   9.1571600  )
         8           Ti1 tau(   8) = (   0.0257383   1.5005952   9.3383585  )
         9           O1  tau(   9) = (   3.3091981   5.9584344  11.3361002  )
        10           O1  tau(  10) = (   6.5780281   5.9600862  10.6016087  )
        11           O1  tau(  11) = (   1.3203574   1.4925043  12.6130903  )
        12           O1  tau(  12) = (   5.3210186   1.4819496  12.6412376  )
        13           Ti1 tau(  13) = (   6.5659556   2.9650791  12.8176139  )
        14           Ti1 tau(  14) = (   3.2164003   1.4877187  12.4769567  )
        15           O1  tau(  15) = (   0.0404395   5.9536100  14.6624943  )
        16           O1  tau(  16) = (   3.3074673   5.9584959  13.9062718  )
        17           O1  tau(  17) = (   4.5856532   1.4904827  16.0465219  )
        18           O1  tau(  18) = (   2.1034043   1.4884928  16.0442595  )
        19           Ti1 tau(  19) = (   3.2939248   2.9785878  15.7144947  )
        20           Ti1 tau(  20) = (   6.5451327   1.4142704  16.0395912  )
        21           O1  tau(  21) = (   3.2904802   0.0005063   4.7018136  )
        22           O1  tau(  22) = (   0.0457580   0.0044623  17.2034710  )
        23           O1  tau(  23) = (   1.3043587   1.4918075   6.0039043  )
        24           O1  tau(  24) = (   5.2767064   1.4903225   6.0039473  )
        25           Ti1 tau(  25) = (   0.0000382   5.9609847   6.0000000  )
        26           Ti1 tau(  26) = (   3.2902200   4.4714249   6.0002472  )
        27           O1  tau(  27) = (   0.0002396   2.9813036   7.9858123  )
        28           O1  tau(  28) = (   3.2902150   2.9813002   7.3038282  )
        29           O1  tau(  29) = (   4.5938453   4.4726049   9.2879030  )
        30           O1  tau(  30) = (   1.9864658   4.4711199   9.2879459  )
        31           Ti1 tau(  31) = (   3.3296195   5.9152860   9.1560537  )
        32           Ti1 tau(  32) = (   0.0304643   4.4420822   9.3322224  )
        33           O1  tau(  33) = (   3.3127198   2.9780151  11.3348310  )
        34           O1  tau(  34) = (   0.0025308   2.9791118  10.5479895  )
        35           O1  tau(  35) = (   1.3183054   4.4635934  12.6126975  )
        36           O1  tau(  36) = (   5.3202651   4.4673696  12.6407401  )
        37           Ti1 tau(  37) = (   6.5108624   5.9459213  12.5946634  )
        38           Ti1 tau(  38) = (   3.2137380   4.4666137  12.4775098  )
        39           O1  tau(  39) = (   0.0464109   2.9731917  14.6594554  )
        40           O1  tau(  40) = (   3.3098714   2.9789900  13.9126757  )
        41           O1  tau(  41) = (   4.5859750   4.4686661  16.0488133  )
        42           O1  tau(  42) = (   2.1005049   4.4706468  16.0453856  )
        43           Ti1 tau(  43) = (   3.2853703   5.9589473  15.7052640  )
        44           Ti1 tau(  44) = (   6.5509595   4.5658457  16.0514827  )
        45           O1  tau(  45) = (   3.2900926   2.9813045   4.7018136  )
        46           O1  tau(  46) = (   0.0949885   2.9744829  17.2486893  )
        47           O1  tau(  47) = (   1.3039711   4.4726057   6.0039043  )
        48           O1  tau(  48) = (   5.2763189   4.4711207   6.0039473  )
        49           N1  tau(  49) = (   0.3730515   3.1615268  19.4484725  )
        50           N1  tau(  50) = (   6.0186590   2.9946300  18.5893579  )
        51           C1  tau(  51) = (   0.0316377   3.3159097  20.7092049  )
        52           H1  tau(  52) = (   5.5749133   3.3461147  21.0318256  )
        53           H1  tau(  53) = (   0.8315635   3.3875449  21.4270997  )

     number of k points=    10  Fermi-Dirac smearing, width (Ry)=  0.0073
                       cart. coord. in units 2pi/alat
        k(    1) = (   0.0000000   0.0000000   0.0000000), wk =   0.1250000
        k(    2) = (   0.0000000   0.0419351   0.0000000), wk =   0.2500000
        k(    3) = (   0.0000000  -0.0838702   0.0000000), wk =   0.1250000
        k(    4) = (   0.0379955   0.0000049   0.0000000), wk =   0.2500000
        k(    5) = (   0.0379955   0.0419400   0.0000000), wk =   0.2500000
        k(    6) = (   0.0379955  -0.0838652   0.0000000), wk =   0.2500000
        k(    7) = (   0.0379955  -0.0419301   0.0000000), wk =   0.2500000
        k(    8) = (  -0.0759910  -0.0000099   0.0000000), wk =   0.1250000
        k(    9) = (  -0.0759910   0.0419252   0.0000000), wk =   0.2500000
        k(   10) = (  -0.0759910  -0.0838800   0.0000000), wk =   0.1250000

     Initial potential from superposition of free atoms

     starting charge  383.99917, renormalised to  400.00000

     negative rho (up, down):  1.225E-02 0.000E+00

     %%%%%%%%%%%%%%%%%%%%%%%%%%%%%%%%%%%%%%%%%%%%%%%%%%%%%%%%%%%%%%%%%%%%%%%%
     %                                                                      %
     % You are using vdW-DF, which was implemented by the Thonhauser group. %
     % Please cite the following two papers that made this development      %
     % possible and the two reviews that describe the various versions:     %
     %                                                                      %
     %   T. Thonhauser et al., PRL 115, 136402 (2015).                      %
     %   T. Thonhauser et al., PRB 76, 125112 (2007).                       %
     %   K. Berland et al., Rep. Prog. Phys. 78, 066501 (2015).             %
     %   D.C. Langreth et al., J. Phys.: Condens. Matter 21, 084203 (2009). %
     %                                                                      %
     %                                                                      %
     % If you are calculating the stress with vdW-DF, please also cite:     %
     %                                                                      %
     %   R. Sabatini et al., J. Phys.: Condens. Matter 24, 424209 (2012).   %
     %                                                                      %
     %%%%%%%%%%%%%%%%%%%%%%%%%%%%%%%%%%%%%%%%%%%%%%%%%%%%%%%%%%%%%%%%%%%%%%%%

     Adding external electric field

     Computed dipole along edir(3) :
        Dipole              -11.7961 Ry au,        -29.9828 Debye
        Dipole field         -0.0223 Ry au,

        Potential amp.        2.0636 Ry
        Total length         46.3494 bohr

     Starting wfcs are  302 atomic wfcs
  @ DRIVER MODE: Message from server: STATUS
  @ DRIVER MODE: Message from server: POSDATA
  @ DRIVER MODE: Reading and sharing cell
  @ DRIVER MODE: Reading and sharing positions
  @ DRIVER MODE: Received positions

     Self-consistent Calculation

     iteration #  1     ecut=    29.40 Ry     beta= 0.05
     Davidson diagonalization with overlap
     c_bands:  3 eigenvalues not converged
     c_bands:  1 eigenvalues not converged
     c_bands:  2 eigenvalues not converged
     c_bands:  3 eigenvalues not converged
     c_bands:  3 eigenvalues not converged
     c_bands:  3 eigenvalues not converged
     c_bands:  1 eigenvalues not converged
     c_bands:  5 eigenvalues not converged
     c_bands:  2 eigenvalues not converged
     ethr =  1.00E-05,  avg # of iterations = 19.9

[...]

     total energy              =   -2452.84414102 Ry
     estimated scf accuracy    <    5806.10218570 Ry

     iteration #  2     ecut=    29.40 Ry     beta= 0.05
     Davidson diagonalization with overlap
     ethr =  1.00E-02,  avg # of iterations = 22.1

[...]

     iteration # 71     ecut=    29.40 Ry     beta= 0.05
     Davidson diagonalization with overlap
     c_bands:  1 eigenvalues not converged
     c_bands:  2 eigenvalues not converged
     c_bands:  1 eigenvalues not converged
     ethr =  1.94E-07,  avg # of iterations = 15.2

[...]

     total energy              =   -2970.15583585 Ry
     estimated scf accuracy    <       0.00000009 Ry

     iteration # 86     ecut=    29.40 Ry     beta= 0.05
     Davidson diagonalization with overlap
     ethr =  2.18E-11,  avg # of iterations =  6.6

     negative rho (up, down):  1.340E-02 0.000E+00

     Adding external electric field

     Computed dipole along edir(3) :
        Dipole                0.4168 Ry au,          1.0595 Debye
        Dipole field          0.0008 Ry au,

        Potential amp.       -0.0729 Ry
        Total length         46.3494 bohr

     End of self-consistent calculation

          k = 0.0000 0.0000 0.0000 ( 18029 PWs)   bands (ev):

   -56.1047 -56.0665 -56.0541 -56.0180 -55.9504 -55.9237 -55.8886 -55.8537
   -55.7998 -55.7889 -55.7630 -55.7625 -55.7541 -55.7177 -55.0703 -55.0363
   -32.6057 -32.5580 -32.4144 -32.3924 -32.3873 -32.3608 -32.3517 -32.3232
   -32.2848 -32.2821 -32.2754 -32.2717 -32.2545 -32.2447 -32.2353 -32.2093
   -32.1878 -32.1812 -32.1769 -32.1767 -32.1504 -32.1371 -32.0794 -32.0773
   -32.0695 -32.0558 -32.0507 -32.0247 -32.0235 -32.0197 -32.0079 -31.9959
   -31.9594 -31.9574 -31.9426 -31.9421 -31.9407 -31.9324 -31.9222 -31.9029
   -31.8884 -31.8425 -31.4785 -31.3849 -31.3622 -31.2955 -31.2096 -31.0982
   -19.0461 -16.7909 -16.4903 -16.3943 -16.2050 -16.1746 -16.0851 -16.0411
   -15.8106 -15.7154 -15.6558 -15.6266 -15.5988 -15.5911 -15.5854 -15.5593
   -15.5171 -15.5155 -15.4838 -15.4663 -15.4571 -15.4029 -15.3538 -15.3087
   -15.2479 -15.2147 -15.1829 -15.1800 -15.0731 -15.0261 -14.9786 -13.5692
   -13.4516 -10.9531  -6.4383  -4.8367  -4.1535  -3.9968  -3.9531  -3.9527
    -3.8388  -3.6910  -3.5910  -3.5524  -3.4408  -3.2234  -3.2111  -3.1938
    -3.1719  -3.1149  -2.9498  -2.8945  -2.8877  -2.8700  -2.8507  -2.8288
    -2.8055  -2.7911  -2.7617  -2.7343  -2.7180  -2.5778  -2.5695  -2.4722
    -2.4533  -2.4037  -2.3741  -2.3582  -2.3157  -2.2688  -2.2257  -2.2058
    -2.1830  -2.1570  -2.0781  -1.9129  -1.9043  -1.8705  -1.7930  -1.7395
    -1.7316  -1.4738  -1.4729  -1.4662  -1.4011  -1.3579  -1.3497  -1.2711
    -1.2193  -1.1965  -1.1803  -1.1539  -1.0807  -1.0039  -0.9594  -0.9066
    -0.8705  -0.8196  -0.7900  -0.7746  -0.7558  -0.5481  -0.5243  -0.4919
    -0.4548  -0.3388  -0.3290  -0.2833  -0.2698  -0.2271  -0.2187  -0.1055
    -0.0835  -0.0652  -0.0493  -0.0286  -0.0046   0.0131   0.0686   0.1195
     0.1524   0.1787   0.3688   0.3797   0.5439   0.5841   0.6130   0.7597
     0.8686   0.9551   1.0815   1.1306   1.5473   1.6169   1.7193   2.9810
     3.1118   3.1931   3.2433   3.2750   3.3353   3.4983   3.5480   3.5770
     3.6175   3.6247

[...]

          k = 0.0380-0.0419 0.0000 ( 17876 PWs)   bands (ev):

[...]

          k =-0.0760-0.0000 0.0000 ( 17886 PWs)   bands (ev):

[...]

          k =-0.0760-0.0839 0.0000 ( 17948 PWs)   bands (ev):

   -56.0944 -56.0766 -56.0367 -56.0352 -55.9474 -55.9081 -55.9041 -55.8566
   -55.7870 -55.7770 -55.7740 -55.7669 -55.7545 -55.7261 -55.0532 -55.0532
   -32.4084 -32.4066 -32.3817 -32.3803 -32.3660 -32.3527 -32.3105 -32.3093
   -32.2917 -32.2458 -32.2405 -32.2392 -32.2286 -32.2155 -32.2145 -32.2052
   -32.1965 -32.1940 -32.1771 -32.1561 -32.1308 -32.1255 -32.1144 -32.1128
   -32.1055 -32.0949 -32.0870 -32.0748 -32.0626 -32.0392 -32.0284 -31.9926
   -31.9879 -31.9852 -31.9784 -31.9677 -31.9668 -31.9632 -31.9621 -31.9555
   -31.9464 -31.9358 -31.3749 -31.3749 -31.2917 -31.2915 -31.2526 -31.2526
   -19.0376 -16.2115 -16.2028 -16.1800 -15.9496 -15.9462 -15.9123 -15.8585
   -15.7625 -15.7611 -15.7541 -15.7417 -15.6768 -15.6681 -15.6625 -15.5914
   -15.5804 -15.5775 -15.5708 -15.5463 -15.4923 -15.4914 -15.3799 -15.3581
   -15.3552 -15.3483 -15.3296 -15.3215 -15.2560 -15.2020 -15.1967 -13.5545
   -13.5515 -10.9546  -6.4255  -4.8002  -3.6898  -3.5041  -3.4953  -3.4145
    -3.1879  -3.1788  -3.0616  -3.0514  -3.0021  -2.9569  -2.9170  -2.9054
    -2.8948  -2.8747  -2.8679  -2.8510  -2.8305  -2.8134  -2.7959  -2.7693
    -2.7222  -2.6902  -2.6740  -2.6514  -2.6431  -2.6335  -2.6050  -2.5968
    -2.5750  -2.5723  -2.5525  -2.4530  -2.3178  -2.2906  -2.2310  -2.1834
    -2.1573  -2.1271  -2.1216  -2.0894  -2.0763  -2.0504  -1.9270  -1.8578
    -1.7813  -1.7489  -1.7248  -1.6616  -1.5813  -1.4978  -1.4287  -1.4068
    -1.3577  -1.3115  -1.2911  -1.2623  -1.2205  -1.2082  -1.1564  -1.0839
    -1.0761  -1.0367  -1.0269  -1.0060  -0.9332  -0.9248  -0.8687  -0.8110
    -0.7971  -0.7107  -0.6561  -0.6329  -0.6204  -0.5604  -0.5420  -0.4741
    -0.3970  -0.3177  -0.0433  -0.0265   0.0274   0.0390   0.0729   0.1722
     0.2343   0.2515   0.3255   0.3498   0.4266   0.4760   0.5087   0.5134
     0.5937   0.6117   1.3202   1.3238   1.4066   1.4160   1.7433   2.9413
     3.3905   3.4200   3.4262   3.4475   3.5829   3.5903   3.6074   3.6156
     3.7541   3.7917

     the Fermi energy is     3.0582 ev

!    total energy              =   -2970.15584186 Ry
     estimated scf accuracy    <       0.00000007 Ry
     smearing contrib. (-TS)   =      -0.02345486 Ry
     internal energy E=F+TS    =   -2970.13238700 Ry

     The total energy is F=E-TS. E is the sum of the following terms:
     one-electron contribution =  -23559.46789063 Ry
     hartree contribution      =   11867.95123285 Ry
     xc contribution           =    -491.49644662 Ry
     ewald contribution        =    9212.88038953 Ry
     electric field correction =       0.00032788 Ry

     convergence has been achieved in  86 iterations

     Forces acting on atoms (cartesian axes, Ry/au):

     atom    1 type  1   force =    -0.00000691   -0.00027846    0.11743029
     atom    2 type  1   force =    -0.00002863   -0.00046857   -0.17835695
     atom    3 type  2   force =     0.00020090    0.00070541   -0.03808749
     atom    4 type  2   force =     0.00087838   -0.00059818    0.04407612
     atom    5 type  2   force =    -0.02135140   -0.00158788    0.00209752
     atom    6 type  2   force =     0.02127349    0.00124972    0.00429461
     atom    7 type  1   force =     0.00092626   -0.00016776   -0.00003605
     atom    8 type  1   force =     0.00006189   -0.00015162    0.00095352
     atom    9 type  2   force =    -0.00048415    0.00006628   -0.00044549
     atom   10 type  2   force =     0.00025085    0.00008257   -0.00105337
     atom   11 type  2   force =     0.00062303    0.00009455   -0.00004478
     atom   12 type  2   force =    -0.00030226    0.00039734   -0.00025274
     atom   13 type  1   force =    -0.00137576    0.00032310    0.00004494
     atom   14 type  1   force =     0.00116179    0.00020534   -0.00034130
     atom   15 type  2   force =    -0.00033790    0.00017362    0.00097200
     atom   16 type  2   force =    -0.00027440    0.00003385    0.00151732
     atom   17 type  2   force =     0.00006250   -0.00027616    0.00046464
     atom   18 type  2   force =    -0.00041488   -0.00044037    0.00026901
     atom   19 type  1   force =    -0.00031041    0.00019631    0.00051350
     atom   20 type  1   force =     0.00023808    0.00012052    0.00027302
     atom   21 type  2   force =    -0.00000562    0.00005227    0.10377805
     atom   22 type  2   force =    -0.00037596    0.00024176   -0.00093936
     atom   23 type  2   force =    -0.06938184    0.00108313   -0.03122926
     atom   24 type  2   force =     0.06913999    0.00148734   -0.03122853
     atom   25 type  1   force =    -0.00023564   -0.00018949    0.12919489
     atom   26 type  1   force =    -0.00004524   -0.00004656   -0.17843241
     atom   27 type  2   force =     0.00040602    0.00016010   -0.03709244
     atom   28 type  2   force =     0.00033202   -0.00056299    0.04503764
     atom   29 type  2   force =    -0.02053203    0.00077097    0.00198575
     atom   30 type  2   force =     0.02218488    0.00158714    0.00424482
     atom   31 type  1   force =     0.00022104   -0.00043373   -0.00058537
     atom   32 type  1   force =    -0.00009846   -0.00105512    0.00110119
     atom   33 type  2   force =    -0.00049776   -0.00016076    0.00078863
     atom   34 type  2   force =     0.00010828   -0.00009249   -0.00023760
     atom   35 type  2   force =     0.00072146   -0.00023060   -0.00014985
     atom   36 type  2   force =    -0.00020750   -0.00014047   -0.00040545
     atom   37 type  1   force =    -0.00081771   -0.00049823    0.00043736
     atom   38 type  1   force =     0.00124573   -0.00042960   -0.00029034
     atom   39 type  2   force =    -0.00030735   -0.00017229   -0.00092584
     atom   40 type  2   force =    -0.00030080   -0.00009944   -0.00021556
     atom   41 type  2   force =    -0.00012307    0.00052885    0.00033649
     atom   42 type  2   force =    -0.00021688    0.00058324    0.00024478
     atom   43 type  1   force =    -0.00015000   -0.00006541   -0.00067247
     atom   44 type  1   force =     0.00008311   -0.00018557    0.00007535
     atom   45 type  2   force =     0.00001371    0.00004718    0.10390949
     atom   46 type  2   force =     0.00006746   -0.00030604   -0.00033278
     atom   47 type  2   force =    -0.06934929   -0.00128922   -0.03119359
     atom   48 type  2   force =     0.06913620   -0.00082728   -0.03124868
     atom   49 type  3   force =     0.00038750    0.00215324    0.00104558
     atom   50 type  3   force =    -0.00132385   -0.00018738    0.00109845
     atom   51 type  4   force =    -0.00082763   -0.00331213   -0.00287317
     atom   52 type  5   force =    -0.00060724    0.00100716   -0.00014557
     atom   53 type  5   force =     0.00056600    0.00090285    0.00063145

     Total force =     0.384079     Total SCF correction =     0.000816
  @ DRIVER MODE: Message from server: STATUS
  @ DRIVER MODE: Message from server: GETFORCE
  @ DRIVER MODE: Returning v,forces,stress,ensemble

     Writing output data file ./calc.save/
  @ DRIVER MODE: Message from server: EXIT
  @ DRIVE MODE: Exiting

     General routines

     Parallel routines

   This run was terminated on:  11:17: 8   1Oct2021

   JOB DONE.