     Program PWSCF v.6.7GPU starts on 24Sep2021 at 14:16:16

     R & G space division:  proc/nbgrp/npool/nimage =       8
     Reading input from /storage/home/hcoda1/3/ntian30/research/carbon/CxH_vib/H2O_calc/ads_slab/CH2NHNH2HO_a/out_0060/pw.inp
Warning: card &CELL ignored
Warning: card   CELL_DYNAMICS='IPI', ignored
Warning: card / ignored

     Current dimensions of program PWSCF are:
     Max number of different atomic species (ntypx) = 10
     Max number of k-points (npk) =  40000
     Max angular momentum in pseudopotentials (lmaxx) =  3
     Presently no symmetry can be used with electric field

     Message from routine cell_base_init:
     DEPRECATED: use true lattice parameter, not A to a.u. conversion factor

     IMPORTANT: XC functional enforced from input :
     Exchange-correlation= BEEF-VDW
                           (   1   4  43  14   2   0   0)
     Any further DFT definition will be discarded
     Please, verify this is what you really want

  @ DRIVER MODE: Connecting to
 qe_1139763_2947313.sched-torque.pace.gatech.edu33hx5waz_scratch
  using UNIX socket
  @ DRIVER MODE: Message from server: STATUS
  @ DRIVER MODE: Message from server: INIT
  @ DRIVER MODE: Receiving replica           0          -1
  @ DRIVER MODE: Receiving encoded integer          25
  @ DRIVER MODE:  SCF:  T  FORCE:  T  STRESS:  F  VC:  F  ENSEMBLE:  F
  @ DRIVER MODE:  SCF:  T  FORCE:  T  STRESS:  F  VC:  F  ENSEMBLE:  F

     Using Slab Decomposition

     bravais-lattice index     =            0
     lattice parameter (alat)  =       1.8897  a.u.
     unit-cell volume          =    6658.9804 (a.u.)^3
     number of atoms/cell      =           57
     number of atomic types    =            5
     number of electrons       =       404.00
     number of Kohn-Sham states=          212
     kinetic-energy cutoff     =      29.3995  Ry
     charge density cutoff     =     293.9946  Ry
     scf convergence threshold =      7.3E-08
     mixing beta               =       0.0500
     number of iterations used =            8  plain     mixing
     Exchange-correlation= BEEF-VDW
                           (   1   4  43  14   2   0   0)

     celldm(1)=   1.889726  celldm(2)=   0.000000  celldm(3)=   0.000000
     celldm(4)=   0.000000  celldm(5)=   0.000000  celldm(6)=   0.000000

     crystal axes: (cart. coord. in units of alat)
               a(1) = (   6.579727   0.000000   0.000000 )
               a(2) = (  -0.000775   5.961596   0.000000 )
               a(3) = (   0.000000   0.000000  25.155947 )

     reciprocal axes: (cart. coord. in units 2 pi/alat)
               b(1) = (  0.151982  0.000020  0.000000 )
               b(2) = (  0.000000  0.167740  0.000000 )
               b(3) = (  0.000000  0.000000  0.039752 )

     PseudoPot. # 1 for Ti read from file:
     /storage/coda1/p-amedford6/0/shared/rich_project_chbe-medford/medford-share/data/pseudos_module/espresso/nninc/pbe/van/Ti.UPF
     MD5 check sum: 8e4df49b7f0d34bbd5052bf3f5ea0213
     Pseudo is Ultrasoft, Zval = 12.0
     Generated by new atomic code, or converted to UPF format
     Using radial grid of  851 points,  6 beta functions with:
                l(1) =   0
                l(2) =   0
                l(3) =   1
                l(4) =   1
                l(5) =   2
                l(6) =   2
     Q(r) pseudized with  8 coefficients,  rinner =    1.000   1.000   1.000
                                                       1.000   1.000

     PseudoPot. # 2 for O  read from file:
     /storage/coda1/p-amedford6/0/shared/rich_project_chbe-medford/medford-share/data/pseudos_module/espresso/nninc/pbe/van/O.UPF
     MD5 check sum: 78c19812648e8988a0fe644b0f25305e
     Pseudo is Ultrasoft, Zval =  6.0
     Generated by new atomic code, or converted to UPF format
     Using radial grid of  737 points,  4 beta functions with:
                l(1) =   0
                l(2) =   0
                l(3) =   1
                l(4) =   1
     Q(r) pseudized with  8 coefficients,  rinner =    0.800   0.800   0.800

     PseudoPot. # 3 for N  read from file:
     /storage/coda1/p-amedford6/0/shared/rich_project_chbe-medford/medford-share/data/pseudos_module/espresso/nninc/pbe/van/N.UPF
     MD5 check sum: 90d10febe142ad51ac9d5be1deb811c4
     Pseudo is Ultrasoft, Zval =  5.0
     Generated by new atomic code, or converted to UPF format
     Using radial grid of  729 points,  4 beta functions with:
                l(1) =   0
                l(2) =   0
                l(3) =   1
                l(4) =   1
     Q(r) pseudized with  8 coefficients,  rinner =    0.800   0.800   0.800

     PseudoPot. # 4 for C  read from file:
     /storage/coda1/p-amedford6/0/shared/rich_project_chbe-medford/medford-share/data/pseudos_module/espresso/nninc/pbe/van/C.UPF
     MD5 check sum: 1a69bf6b8db32088f5b2163dbdb77a27
     Pseudo is Ultrasoft, Zval =  4.0
     Generated by new atomic code, or converted to UPF format
     Using radial grid of  721 points,  4 beta functions with:
                l(1) =   0
                l(2) =   0
                l(3) =   1
                l(4) =   1
     Q(r) pseudized with  8 coefficients,  rinner =    0.800   0.800   0.800

     PseudoPot. # 5 for H  read from file:
     /storage/coda1/p-amedford6/0/shared/rich_project_chbe-medford/medford-share/data/pseudos_module/espresso/nninc/pbe/van/H.UPF
     MD5 check sum: b5ee9d7bfd3a09ee7748110bda690ff7
     Pseudo is Ultrasoft, Zval =  1.0
     Generated by new atomic code, or converted to UPF format
     Using radial grid of  615 points,  1 beta functions with:
                l(1) =   0
     Q(r) pseudized with  8 coefficients,  rinner =    0.800

     atomic species   valence    mass     pseudopotential
        Ti1           12.00    47.86700     Ti( 1.00)
        O1             6.00    15.99900     O ( 1.00)
        N1             5.00    14.00700     N ( 1.00)
        C1             4.00    12.01100     C ( 1.00)
        H1             1.00     1.00800     H ( 1.00)

     No symmetry found

   Cartesian axes

     site n.     atom                  positions (alat units)
         1           Ti1 tau(   1) = (   0.0004258   2.9801865   6.0000000  )
         2           Ti1 tau(   2) = (   3.2906075   1.4906267   6.0002472  )
         3           O1  tau(   3) = (   0.0006271   0.0005054   7.9858123  )
         4           O1  tau(   4) = (   3.2906025   0.0005020   7.3038282  )
         5           O1  tau(   5) = (   4.5942328   1.4918067   9.2879030  )
         6           O1  tau(   6) = (   1.9868534   1.4903216   9.2879459  )
         7           Ti1 tau(   7) = (   3.2907910   2.8959150   9.1758416  )
         8           Ti1 tau(   8) = (   0.0015273   1.4827037   9.2680791  )
         9           O1  tau(   9) = (   3.2769995   5.9424463  11.3879711  )
        10           O1  tau(  10) = (   0.0116148   5.9584955  10.6183126  )
        11           O1  tau(  11) = (   1.2559300   1.4809235  12.6914295  )
        12           O1  tau(  12) = (   5.2914439   1.4888754  12.6824943  )
        13           Ti1 tau(  13) = (   6.5693074   2.9549812  12.5071532  )
        14           Ti1 tau(  14) = (   3.2720578   1.2926143  12.7373905  )
        15           O1  tau(  15) = (   6.5263330   5.9075480  14.6758232  )
        16           O1  tau(  16) = (   3.2750150   0.0724425  14.0538047  )
        17           O1  tau(  17) = (   4.5404297   1.6145126  16.1214498  )
        18           O1  tau(  18) = (   1.9612862   1.5681812  16.1371236  )
        19           Ti1 tau(  19) = (   3.2615978   3.0295928  15.7214328  )
        20           Ti1 tau(  20) = (   6.4910920   1.3289874  15.8500745  )
        21           O1  tau(  21) = (   3.2904802   0.0005063   4.7018136  )
        22           O1  tau(  22) = (   6.5149858   0.1606772  17.2625446  )
        23           O1  tau(  23) = (   1.3043587   1.4918075   6.0039043  )
        24           O1  tau(  24) = (   5.2767064   1.4903225   6.0039473  )
        25           Ti1 tau(  25) = (   0.0000382   5.9609847   6.0000000  )
        26           Ti1 tau(  26) = (   3.2902200   4.4714249   6.0002472  )
        27           O1  tau(  27) = (   0.0002396   2.9813036   7.9858123  )
        28           O1  tau(  28) = (   3.2902150   2.9813002   7.3038282  )
        29           O1  tau(  29) = (   4.5938453   4.4726049   9.2879030  )
        30           O1  tau(  30) = (   1.9864658   4.4711199   9.2879459  )
        31           Ti1 tau(  31) = (   3.2891106   5.8743827   9.1763621  )
        32           Ti1 tau(  32) = (   0.0006254   4.4649316   9.2693709  )
        33           O1  tau(  33) = (   3.2749377   2.9871965  11.3337082  )
        34           O1  tau(  34) = (   0.0092240   2.9805883  10.6323155  )
        35           O1  tau(  35) = (   1.2597673   4.4587344  12.6634223  )
        36           O1  tau(  36) = (   5.2866262   4.4511231  12.6493885  )
        37           Ti1 tau(  37) = (   6.5604603   5.9292220  12.4937940  )
        38           Ti1 tau(  38) = (   3.2724722   4.3622713  12.4512132  )
        39           O1  tau(  39) = (   6.5737517   3.0258615  14.9025115  )
        40           O1  tau(  40) = (   3.2593133   3.0063273  13.9441864  )
        41           O1  tau(  41) = (   4.5441350   4.4310557  16.1689449  )
        42           O1  tau(  42) = (   1.9655774   4.4762250  16.2070539  )
        43           Ti1 tau(  43) = (   3.1776431   0.0563557  16.2565842  )
        44           Ti1 tau(  44) = (   6.5216753   4.5226504  15.9439936  )
        45           O1  tau(  45) = (   3.2900926   2.9813045   4.7018136  )
        46           O1  tau(  46) = (   1.3039711   4.4726057   6.0039043  )
        47           O1  tau(  47) = (   5.2763189   4.4711207   6.0039473  )
        48           N1  tau(  48) = (   0.8157702   2.5297039  18.7633901  )
        49           N1  tau(  49) = (   6.4302604   3.3580032  18.1334362  )
        50           C1  tau(  50) = (   1.9549655   3.0231469  19.2293773  )
        51           H1  tau(  51) = (   2.0901252   4.0892486  19.3254668  )
        52           H1  tau(  52) = (   2.7239663   2.3052050  19.4587972  )
        53           H1  tau(  53) = (   0.7490178   1.5515861  18.4517582  )
        54           H1  tau(  54) = (   6.4535031   4.2829477  18.5696568  )
        55           H1  tau(  55) = (   5.5068980   2.9516776  18.2836589  )
        56           O1  tau(  56) = (   3.3967406   0.0908776  18.1493316  )
        57           H1  tau(  57) = (   4.3453859   0.1513423  18.3640861  )

     number of k points=    10  Fermi-Dirac smearing, width (Ry)=  0.0073
                       cart. coord. in units 2pi/alat
        k(    1) = (   0.0000000   0.0000000   0.0000000), wk =   0.1250000
        k(    2) = (   0.0000000   0.0419351   0.0000000), wk =   0.2500000
        k(    3) = (   0.0000000  -0.0838702   0.0000000), wk =   0.1250000
        k(    4) = (   0.0379955   0.0000049   0.0000000), wk =   0.2500000
        k(    5) = (   0.0379955   0.0419400   0.0000000), wk =   0.2500000
        k(    6) = (   0.0379955  -0.0838652   0.0000000), wk =   0.2500000
        k(    7) = (   0.0379955  -0.0419301   0.0000000), wk =   0.2500000
        k(    8) = (  -0.0759910  -0.0000099   0.0000000), wk =   0.1250000
        k(    9) = (  -0.0759910   0.0419252   0.0000000), wk =   0.2500000
        k(   10) = (  -0.0759910  -0.0838800   0.0000000), wk =   0.1250000

     Initial potential from superposition of free atoms

     starting charge  387.99913, renormalised to  404.00000

     negative rho (up, down):  1.608E-02 0.000E+00

     %%%%%%%%%%%%%%%%%%%%%%%%%%%%%%%%%%%%%%%%%%%%%%%%%%%%%%%%%%%%%%%%%%%%%%%%
     %                                                                      %
     % You are using vdW-DF, which was implemented by the Thonhauser group. %
     % Please cite the following two papers that made this development      %
     % possible and the two reviews that describe the various versions:     %
     %                                                                      %
     %   T. Thonhauser et al., PRL 115, 136402 (2015).                      %
     %   T. Thonhauser et al., PRB 76, 125112 (2007).                       %
     %   K. Berland et al., Rep. Prog. Phys. 78, 066501 (2015).             %
     %   D.C. Langreth et al., J. Phys.: Condens. Matter 21, 084203 (2009). %
     %                                                                      %
     %                                                                      %
     % If you are calculating the stress with vdW-DF, please also cite:     %
     %                                                                      %
     %   R. Sabatini et al., J. Phys.: Condens. Matter 24, 424209 (2012).   %
     %                                                                      %
     %%%%%%%%%%%%%%%%%%%%%%%%%%%%%%%%%%%%%%%%%%%%%%%%%%%%%%%%%%%%%%%%%%%%%%%%

     Adding external electric field

     Computed dipole along edir(3) :
        Dipole              -13.8436 Ry au,        -35.1870 Debye
        Dipole field         -0.0261 Ry au,

        Potential amp.        2.4217 Ry
        Total length         46.3494 bohr

     Starting wfcs are  306 atomic wfcs
  @ DRIVER MODE: Message from server: STATUS
  @ DRIVER MODE: Message from server: POSDATA
  @ DRIVER MODE: Reading and sharing cell
  @ DRIVER MODE: Reading and sharing positions
  @ DRIVER MODE: Received positions

     Self-consistent Calculation

     iteration #  1     ecut=    29.40 Ry     beta= 0.05
     Davidson diagonalization with overlap
     c_bands:  1 eigenvalues not converged
     c_bands:  1 eigenvalues not converged
     c_bands:  1 eigenvalues not converged
     c_bands:  1 eigenvalues not converged
     c_bands:  2 eigenvalues not converged
     c_bands:  5 eigenvalues not converged
     c_bands:  4 eigenvalues not converged
     ethr =  1.00E-05,  avg # of iterations = 32.7

[...]

     total energy              =   -2231.89639968 Ry
     estimated scf accuracy    <    8426.28169808 Ry

     iteration #  2     ecut=    29.40 Ry     beta= 0.05
     Davidson diagonalization with overlap
     ethr =  1.00E-02,  avg # of iterations = 26.0

[...]

     iteration # 81     ecut=    29.40 Ry     beta= 0.05
     Davidson diagonalization with overlap
     c_bands:  1 eigenvalues not converged
     c_bands:  1 eigenvalues not converged
     ethr =  2.31E-10,  avg # of iterations = 14.1

[...]

     total energy              =   -2975.15011501 Ry
     estimated scf accuracy    <       0.00000009 Ry

     iteration # 90     ecut=    29.40 Ry     beta= 0.05
     Davidson diagonalization with overlap
     ethr =  2.33E-11,  avg # of iterations =  4.3

     negative rho (up, down):  1.523E-02 0.000E+00

     Adding external electric field

     Computed dipole along edir(3) :
        Dipole                1.1808 Ry au,          3.0014 Debye
        Dipole field          0.0022 Ry au,

        Potential amp.       -0.2066 Ry
        Total length         46.3494 bohr

     End of self-consistent calculation

          k = 0.0000 0.0000 0.0000 ( 18029 PWs)   bands (ev):

   -55.4166 -55.3336 -55.2995 -55.2289 -55.1907 -55.1795 -55.1648 -55.1638
   -55.1487 -55.1292 -55.1009 -55.0300 -55.0215 -54.9956 -54.3280 -54.2939
   -31.8215 -31.7710 -31.7430 -31.7147 -31.6684 -31.6675 -31.6324 -31.6234
   -31.6200 -31.6076 -31.5789 -31.5411 -31.5036 -31.4865 -31.4707 -31.4629
   -31.4459 -31.4432 -31.4421 -31.4074 -31.3911 -31.3796 -31.3739 -31.3703
   -31.3657 -31.3596 -31.3561 -31.3341 -31.3286 -31.3253 -31.3253 -31.3018
   -31.2936 -31.2898 -31.2777 -31.2535 -31.2350 -31.2320 -31.2097 -31.1996
   -31.1957 -31.1929 -30.7350 -30.6460 -30.6237 -30.5523 -30.4657 -30.3541
   -19.3729 -16.2554 -16.0478 -15.8826 -15.6677 -15.6211 -15.5312 -15.3691
   -15.2569 -15.1866 -15.0773 -15.0020 -14.9270 -14.8936 -14.8844 -14.8709
   -14.8657 -14.8145 -14.8057 -14.7918 -14.7814 -14.7711 -14.7634 -14.7301
   -14.6960 -14.6477 -14.6085 -14.4925 -14.4541 -14.4175 -14.2934 -14.2746
   -12.8267 -12.7099 -10.1868  -7.8198  -6.5630  -5.3897  -4.1880  -3.8064
    -3.6641  -3.3915  -3.2831  -3.2514  -3.1877  -3.1565  -2.9020  -2.8025
    -2.7837  -2.6475  -2.5288  -2.4820  -2.4216  -2.3509  -2.3196  -2.2964
    -2.2712  -2.2144  -2.1515  -2.1373  -2.1232  -2.0471  -2.0426  -1.9678
    -1.9197  -1.9064  -1.8015  -1.7284  -1.6978  -1.6846  -1.6730  -1.6564
    -1.6314  -1.6245  -1.6009  -1.5387  -1.4732  -1.4641  -1.3985  -1.3723
    -1.1010  -1.0358  -0.9710  -0.9413  -0.8649  -0.8255  -0.8087  -0.7848
    -0.7419  -0.7388  -0.7167  -0.6554  -0.5585  -0.5038  -0.4708  -0.4541
    -0.4014  -0.2878  -0.2671  -0.1574  -0.1280  -0.1204  -0.0821  -0.0339
     0.0073   0.0468   0.1096   0.1790   0.2289   0.2798   0.3122   0.3381
     0.3786   0.4142   0.4740   0.5515   0.5754   0.6200   0.6499   0.6702
     0.6796   0.7367   0.7537   0.8411   0.9223   0.9338   1.0323   1.0640
     1.1140   1.2984   1.3353   1.6344   1.6807   1.6986   1.8872   2.2684
     2.3148   3.7336   3.8582   3.8881   3.8983   3.9369   3.9704   4.0260
     4.2208   4.2321   4.3439   4.4266

[...]

          k = 0.0380-0.0419 0.0000 ( 17876 PWs)   bands (ev):

[...]

          k =-0.0760-0.0000 0.0000 ( 17886 PWs)   bands (ev):

[...]

          k =-0.0760-0.0839 0.0000 ( 17948 PWs)   bands (ev):

   -55.4157 -55.3167 -55.3163 -55.2176 -55.2018 -55.1771 -55.1657 -55.1462
   -55.1459 -55.1424 -55.1078 -55.0236 -55.0187 -55.0069 -54.3113 -54.3104
   -31.6833 -31.6743 -31.6559 -31.6368 -31.6365 -31.6205 -31.6090 -31.6086
   -31.5676 -31.5365 -31.5208 -31.4957 -31.4863 -31.4780 -31.4664 -31.4536
   -31.4521 -31.4468 -31.4435 -31.4365 -31.4361 -31.4264 -31.4108 -31.4027
   -31.3987 -31.3808 -31.3669 -31.3666 -31.3604 -31.3579 -31.3528 -31.3431
   -31.3285 -31.3245 -31.3232 -31.3198 -31.2847 -31.2844 -31.2459 -31.2384
   -31.2138 -31.2053 -30.6368 -30.6361 -30.5483 -30.5471 -30.5094 -30.5086
   -19.3683 -16.2246 -15.7531 -15.4849 -15.3598 -15.3479 -15.2266 -15.2099
   -15.1477 -15.1395 -15.1098 -15.0971 -15.0861 -15.0418 -15.0125 -14.9300
   -14.9143 -14.8737 -14.8702 -14.8244 -14.8221 -14.8206 -14.7987 -14.7771
   -14.7711 -14.7463 -14.7208 -14.6831 -14.6697 -14.5327 -14.4385 -14.3979
   -12.8119 -12.8113 -10.1579  -7.7860  -6.5550  -5.4731  -4.1463  -3.8228
    -3.6266  -2.8406  -2.6978  -2.5963  -2.4863  -2.4542  -2.4056  -2.3563
    -2.3429  -2.3113  -2.2389  -2.2111  -2.1960  -2.1600  -2.1586  -2.1355
    -2.1259  -2.1062  -2.0776  -2.0580  -2.0482  -2.0416  -2.0148  -1.9989
    -1.9849  -1.9596  -1.9317  -1.9107  -1.8974  -1.8898  -1.8385  -1.7334
    -1.6452  -1.5663  -1.5298  -1.5041  -1.4914  -1.4453  -1.4319  -1.4191
    -1.3847  -1.3612  -1.2261  -1.2044  -1.0664  -1.0117  -0.9776  -0.9318
    -0.8779  -0.8692  -0.8523  -0.8125  -0.7731  -0.6403  -0.6090  -0.5737
    -0.5065  -0.4434  -0.3561  -0.3421  -0.3176  -0.3007  -0.2650  -0.2455
    -0.2316  -0.2015  -0.1716  -0.0936  -0.0597  -0.0479  -0.0292   0.0698
     0.1697   0.2092   0.2735   0.3427   0.3845   0.4099   0.4392   0.6230
     0.6523   0.7958   0.8044   0.8089   0.9542   0.9546   1.0031   1.0526
     1.0816   1.1238   1.1529   1.1675   1.2026   2.0574   2.0658   2.1350
     2.1351   3.7702   3.9356   4.1589   4.1813   4.2397   4.2510   4.2819
     4.3075   4.3368   4.3772   4.3970

     the Fermi energy is     3.7834 ev

!    total energy              =   -2975.15011854 Ry
     estimated scf accuracy    <       0.00000006 Ry
     smearing contrib. (-TS)   =      -0.03328736 Ry
     internal energy E=F+TS    =   -2975.11683118 Ry

     The total energy is F=E-TS. E is the sum of the following terms:
     one-electron contribution =  -23379.27294607 Ry
     hartree contribution      =   11786.90037349 Ry
     xc contribution           =    -494.90032694 Ry
     ewald contribution        =    9112.15343698 Ry
     electric field correction =       0.00263136 Ry

     convergence has been achieved in  90 iterations

     Forces acting on atoms (cartesian axes, Ry/au):

     atom    1 type  1   force =     0.00028359   -0.00019928    0.09345242
     atom    2 type  1   force =    -0.00005517    0.00053438   -0.17634682
     atom    3 type  2   force =     0.00004409   -0.00029554   -0.02070008
     atom    4 type  2   force =     0.00001713   -0.00222371    0.05687263
     atom    5 type  2   force =    -0.00785194   -0.00263137    0.00512822
     atom    6 type  2   force =     0.00892020   -0.00211445    0.00324835
     atom    7 type  1   force =    -0.00078061   -0.00333788    0.00575048
     atom    8 type  1   force =     0.00086256    0.00107797   -0.00174426
     atom    9 type  2   force =    -0.00018600    0.00015511    0.00007503
     atom   10 type  2   force =    -0.00341742    0.00105679   -0.00643999
     atom   11 type  2   force =     0.00018830   -0.00013778    0.00030661
     atom   12 type  2   force =    -0.00012014   -0.00023341    0.00002781
     atom   13 type  1   force =     0.00000320   -0.00005470   -0.00020268
     atom   14 type  1   force =     0.00053427   -0.00035497   -0.00026804
     atom   15 type  2   force =    -0.00002105   -0.00100902   -0.00045523
     atom   16 type  2   force =     0.00020790    0.00062152    0.00092654
     atom   17 type  2   force =    -0.00130306    0.00040454   -0.00047525
     atom   18 type  2   force =     0.00136630   -0.00001357   -0.00071176
     atom   19 type  1   force =     0.00013495    0.00058733    0.00003824
     atom   20 type  1   force =     0.00045658    0.00017004   -0.00044468
     atom   21 type  2   force =     0.00011587    0.00005197    0.10362142
     atom   22 type  2   force =     0.00019268    0.00009935    0.00059310
     atom   23 type  2   force =    -0.07137744   -0.00017520   -0.02701753
     atom   24 type  2   force =     0.07137303    0.00027308   -0.02704899
     atom   25 type  1   force =     0.00007492   -0.00017859    0.09322676
     atom   26 type  1   force =     0.00008388   -0.00126157   -0.17654884
     atom   27 type  2   force =     0.00007733   -0.00015069   -0.01946663
     atom   28 type  2   force =     0.00001886   -0.00060097    0.05223663
     atom   29 type  2   force =    -0.00742229    0.00177151    0.00488940
     atom   30 type  2   force =     0.00835295    0.00235559    0.00299245
     atom   31 type  1   force =    -0.00097980    0.00885472   -0.00437135
     atom   32 type  1   force =     0.00094315   -0.00222444   -0.00240504
     atom   33 type  2   force =    -0.00022385   -0.00134144   -0.00062883
     atom   34 type  2   force =    -0.00214301   -0.00210388   -0.00764377
     atom   35 type  2   force =    -0.00001827    0.00016713    0.00026253
     atom   36 type  2   force =     0.00018015    0.00016195    0.00020052
     atom   37 type  1   force =     0.00002916   -0.00031437    0.00014539
     atom   38 type  1   force =     0.00035454    0.00045136    0.00018335
     atom   39 type  2   force =     0.00000734    0.00076569   -0.00019212
     atom   40 type  2   force =     0.00020965   -0.00016176    0.00037359
     atom   41 type  2   force =    -0.00047316   -0.00017786    0.00013940
     atom   42 type  2   force =     0.00083661   -0.00024565    0.00004747
     atom   43 type  1   force =     0.00086295   -0.00060753    0.00027603
     atom   44 type  1   force =     0.00001030    0.00096353    0.00029088
     atom   45 type  2   force =     0.00010215   -0.00008939    0.10338095
     atom   46 type  2   force =    -0.07141776   -0.00002891   -0.02705265
     atom   47 type  2   force =     0.07139503    0.00038601   -0.02708495
     atom   48 type  3   force =    -0.00094763   -0.00012903   -0.00007544
     atom   49 type  3   force =     0.00043425    0.00057815    0.00038796
     atom   50 type  4   force =     0.00055006    0.00042719    0.00010076
     atom   51 type  5   force =     0.00052620   -0.00093132   -0.00049469
     atom   52 type  5   force =    -0.00009736    0.00012202   -0.00011459
     atom   53 type  5   force =    -0.00013665    0.00047768   -0.00001009
     atom   54 type  5   force =    -0.00016011    0.00024199   -0.00038245
     atom   55 type  5   force =     0.00001126    0.00038632    0.00048919
     atom   56 type  2   force =     0.00447153    0.00113907    0.00119970
     atom   57 type  5   force =    -0.00510025   -0.00095370   -0.00253704

     Total force =     0.363212     Total SCF correction =     0.000699
  @ DRIVER MODE: Message from server: STATUS
  @ DRIVER MODE: Message from server: GETFORCE
  @ DRIVER MODE: Returning v,forces,stress,ensemble

     Writing output data file ./calc.save/
  @ DRIVER MODE: Message from server: EXIT
  @ DRIVE MODE: Exiting

     General routines

     Parallel routines

   This run was terminated on:  14:46:36  24Sep2021

   JOB DONE.