     Program PWSCF v.6.7GPU starts on 23Sep2021 at  3:38:34

     R & G space division:  proc/nbgrp/npool/nimage =      10
     Reading input from /storage/home/hcoda1/3/ntian30/research/carbon/CxH_vib/H2O_calc/ads_slab/CHNHHHO_a/out_0037/pw.inp
Warning: card &CELL ignored
Warning: card   CELL_DYNAMICS='IPI', ignored
Warning: card / ignored

     Current dimensions of program PWSCF are:
     Max number of different atomic species (ntypx) = 10
     Max number of k-points (npk) =  40000
     Max angular momentum in pseudopotentials (lmaxx) =  3
     Presently no symmetry can be used with electric field

     Message from routine cell_base_init:
     DEPRECATED: use true lattice parameter, not A to a.u. conversion factor

     IMPORTANT: XC functional enforced from input :
     Exchange-correlation= BEEF-VDW
                           (   1   4  43  14   2   0   0)
     Any further DFT definition will be discarded
     Please, verify this is what you really want

  @ DRIVER MODE: Connecting to
 qe_1139763_2937313.sched-torque.pace.gatech.eduwitifqxs_scratch
  using UNIX socket
  @ DRIVER MODE: Message from server: STATUS
  @ DRIVER MODE: Message from server: INIT
  @ DRIVER MODE: Receiving replica           0          -1
  @ DRIVER MODE: Receiving encoded integer          25
  @ DRIVER MODE:  SCF:  T  FORCE:  T  STRESS:  F  VC:  F  ENSEMBLE:  F
  @ DRIVER MODE:  SCF:  T  FORCE:  T  STRESS:  F  VC:  F  ENSEMBLE:  F

     Using Slab Decomposition

     bravais-lattice index     =            0
     lattice parameter (alat)  =       1.8897  a.u.
     unit-cell volume          =    6658.9804 (a.u.)^3
     number of atoms/cell      =           54
     number of atomic types    =            5
     number of electrons       =       397.00
     number of Kohn-Sham states=          208
     kinetic-energy cutoff     =      29.3995  Ry
     charge density cutoff     =     293.9946  Ry
     scf convergence threshold =      7.3E-08
     mixing beta               =       0.0500
     number of iterations used =            8  plain     mixing
     Exchange-correlation= BEEF-VDW
                           (   1   4  43  14   2   0   0)

     celldm(1)=   1.889726  celldm(2)=   0.000000  celldm(3)=   0.000000
     celldm(4)=   0.000000  celldm(5)=   0.000000  celldm(6)=   0.000000

     crystal axes: (cart. coord. in units of alat)
               a(1) = (   6.579727   0.000000   0.000000 )
               a(2) = (  -0.000775   5.961596   0.000000 )
               a(3) = (   0.000000   0.000000  25.155947 )

     reciprocal axes: (cart. coord. in units 2 pi/alat)
               b(1) = (  0.151982  0.000020  0.000000 )
               b(2) = (  0.000000  0.167740  0.000000 )
               b(3) = (  0.000000  0.000000  0.039752 )

     PseudoPot. # 1 for Ti read from file:
     /storage/coda1/p-amedford6/0/shared/rich_project_chbe-medford/medford-share/data/pseudos_module/espresso/nninc/pbe/van/Ti.UPF
     MD5 check sum: 8e4df49b7f0d34bbd5052bf3f5ea0213
     Pseudo is Ultrasoft, Zval = 12.0
     Generated by new atomic code, or converted to UPF format
     Using radial grid of  851 points,  6 beta functions with:
                l(1) =   0
                l(2) =   0
                l(3) =   1
                l(4) =   1
                l(5) =   2
                l(6) =   2
     Q(r) pseudized with  8 coefficients,  rinner =    1.000   1.000   1.000
                                                       1.000   1.000

     PseudoPot. # 2 for O  read from file:
     /storage/coda1/p-amedford6/0/shared/rich_project_chbe-medford/medford-share/data/pseudos_module/espresso/nninc/pbe/van/O.UPF
     MD5 check sum: 78c19812648e8988a0fe644b0f25305e
     Pseudo is Ultrasoft, Zval =  6.0
     Generated by new atomic code, or converted to UPF format
     Using radial grid of  737 points,  4 beta functions with:
                l(1) =   0
                l(2) =   0
                l(3) =   1
                l(4) =   1
     Q(r) pseudized with  8 coefficients,  rinner =    0.800   0.800   0.800

     PseudoPot. # 3 for N  read from file:
     /storage/coda1/p-amedford6/0/shared/rich_project_chbe-medford/medford-share/data/pseudos_module/espresso/nninc/pbe/van/N.UPF
     MD5 check sum: 90d10febe142ad51ac9d5be1deb811c4
     Pseudo is Ultrasoft, Zval =  5.0
     Generated by new atomic code, or converted to UPF format
     Using radial grid of  729 points,  4 beta functions with:
                l(1) =   0
                l(2) =   0
                l(3) =   1
                l(4) =   1
     Q(r) pseudized with  8 coefficients,  rinner =    0.800   0.800   0.800

     PseudoPot. # 4 for C  read from file:
     /storage/coda1/p-amedford6/0/shared/rich_project_chbe-medford/medford-share/data/pseudos_module/espresso/nninc/pbe/van/C.UPF
     MD5 check sum: 1a69bf6b8db32088f5b2163dbdb77a27
     Pseudo is Ultrasoft, Zval =  4.0
     Generated by new atomic code, or converted to UPF format
     Using radial grid of  721 points,  4 beta functions with:
                l(1) =   0
                l(2) =   0
                l(3) =   1
                l(4) =   1
     Q(r) pseudized with  8 coefficients,  rinner =    0.800   0.800   0.800

     PseudoPot. # 5 for H  read from file:
     /storage/coda1/p-amedford6/0/shared/rich_project_chbe-medford/medford-share/data/pseudos_module/espresso/nninc/pbe/van/H.UPF
     MD5 check sum: b5ee9d7bfd3a09ee7748110bda690ff7
     Pseudo is Ultrasoft, Zval =  1.0
     Generated by new atomic code, or converted to UPF format
     Using radial grid of  615 points,  1 beta functions with:
                l(1) =   0
     Q(r) pseudized with  8 coefficients,  rinner =    0.800

     atomic species   valence    mass     pseudopotential
        Ti1           12.00    47.86700     Ti( 1.00)
        O1             6.00    15.99900     O ( 1.00)
        N1             5.00    14.00700     N ( 1.00)
        C1             4.00    12.01100     C ( 1.00)
        H1             1.00     1.00800     H ( 1.00)

     No symmetry found

   Cartesian axes

     site n.     atom                  positions (alat units)
         1           Ti1 tau(   1) = (   0.0004258   2.9801865   6.0000000  )
         2           Ti1 tau(   2) = (   3.2906075   1.4906267   6.0002472  )
         3           O1  tau(   3) = (   0.0006271   0.0005054   7.9858123  )
         4           O1  tau(   4) = (   3.2906025   0.0005020   7.3038282  )
         5           O1  tau(   5) = (   4.5942328   1.4918067   9.2879030  )
         6           O1  tau(   6) = (   1.9868534   1.4903216   9.2879459  )
         7           Ti1 tau(   7) = (   3.2907910   2.8959150   9.1758416  )
         8           Ti1 tau(   8) = (   0.0015273   1.4827037   9.2680791  )
         9           O1  tau(   9) = (   3.2973591   5.9237820  11.3497511  )
        10           O1  tau(  10) = (   0.0116148   5.9584955  10.6183126  )
        11           O1  tau(  11) = (   1.2811460   1.4768824  12.6391447  )
        12           O1  tau(  12) = (   5.3079631   1.4871840  12.6405626  )
        13           Ti1 tau(  13) = (   6.5754896   2.9244875  12.5445406  )
        14           Ti1 tau(  14) = (   3.3102182   1.2813077  12.7057081  )
        15           O1  tau(  15) = (   6.5763362   0.0566486  14.6337039  )
        16           O1  tau(  16) = (   3.2990834   0.0566264  13.9960278  )
        17           O1  tau(  17) = (   4.5749688   1.5338778  16.1314031  )
        18           O1  tau(  18) = (   2.0677763   1.5208417  16.2171153  )
        19           Ti1 tau(  19) = (   3.2830944   2.9922577  15.6820260  )
        20           Ti1 tau(  20) = (   6.5002293   1.4748383  16.0237708  )
        21           O1  tau(  21) = (   3.2904802   0.0005063   4.7018136  )
        22           O1  tau(  22) = (   0.0234767   5.8639946  17.1540191  )
        23           O1  tau(  23) = (   1.3043587   1.4918075   6.0039043  )
        24           O1  tau(  24) = (   5.2767064   1.4903225   6.0039473  )
        25           Ti1 tau(  25) = (   0.0000382   5.9609847   6.0000000  )
        26           Ti1 tau(  26) = (   3.2902200   4.4714249   6.0002472  )
        27           O1  tau(  27) = (   0.0002396   2.9813036   7.9858123  )
        28           O1  tau(  28) = (   3.2902150   2.9813002   7.3038282  )
        29           O1  tau(  29) = (   4.5938453   4.4726049   9.2879030  )
        30           O1  tau(  30) = (   1.9864658   4.4711199   9.2879459  )
        31           Ti1 tau(  31) = (   3.2891106   5.8743827   9.1763621  )
        32           Ti1 tau(  32) = (   0.0006254   4.4649316   9.2693709  )
        33           O1  tau(  33) = (   3.2952530   2.9960894  11.3054589  )
        34           O1  tau(  34) = (   0.0092240   2.9805883  10.6323155  )
        35           O1  tau(  35) = (   1.2848436   4.4566134  12.6628561  )
        36           O1  tau(  36) = (   5.3073415   4.4462911  12.6631571  )
        37           Ti1 tau(  37) = (   0.0411484   5.9123939  12.5136797  )
        38           Ti1 tau(  38) = (   3.3147701   4.3652790  12.4361622  )
        39           O1  tau(  39) = (   0.0290229   2.9306538  14.8412286  )
        40           O1  tau(  40) = (   3.2875986   2.9640914  13.9120161  )
        41           O1  tau(  41) = (   4.5659564   4.3862643  16.1232528  )
        42           O1  tau(  42) = (   2.0245242   4.4195217  16.0560026  )
        43           Ti1 tau(  43) = (   3.2475481   5.9608109  16.2864591  )
        44           Ti1 tau(  44) = (   0.0132903   4.6514137  15.7972829  )
        45           O1  tau(  45) = (   3.2900926   2.9813045   4.7018136  )
        46           O1  tau(  46) = (   1.3039711   4.4726057   6.0039043  )
        47           O1  tau(  47) = (   5.2763189   4.4711207   6.0039473  )
        48           N1  tau(  48) = (   5.7184149   3.3872802  18.6644769  )
        49           C1  tau(  49) = (   6.5536674   2.6142045  18.0347456  )
        50           H1  tau(  50) = (   0.7520291   2.2354638  18.7052436  )
        51           H1  tau(  51) = (   4.9873861   3.8928837  18.1615307  )
        52           H1  tau(  52) = (   5.8197376   3.6397576  19.6419508  )
        53           O1  tau(  53) = (   3.3578172   5.8156178  18.1613732  )
        54           H1  tau(  54) = (   2.9024532   0.5526369  18.6599525  )

     number of k points=    10  Fermi-Dirac smearing, width (Ry)=  0.0073
                       cart. coord. in units 2pi/alat
        k(    1) = (   0.0000000   0.0000000   0.0000000), wk =   0.1250000
        k(    2) = (   0.0000000   0.0419351   0.0000000), wk =   0.2500000
        k(    3) = (   0.0000000  -0.0838702   0.0000000), wk =   0.1250000
        k(    4) = (   0.0379955   0.0000049   0.0000000), wk =   0.2500000
        k(    5) = (   0.0379955   0.0419400   0.0000000), wk =   0.2500000
        k(    6) = (   0.0379955  -0.0838652   0.0000000), wk =   0.2500000
        k(    7) = (   0.0379955  -0.0419301   0.0000000), wk =   0.2500000
        k(    8) = (  -0.0759910  -0.0000099   0.0000000), wk =   0.1250000
        k(    9) = (  -0.0759910   0.0419252   0.0000000), wk =   0.2500000
        k(   10) = (  -0.0759910  -0.0838800   0.0000000), wk =   0.1250000

     Initial potential from superposition of free atoms

     starting charge  380.99916, renormalised to  397.00000

     negative rho (up, down):  1.674E-02 0.000E+00

     %%%%%%%%%%%%%%%%%%%%%%%%%%%%%%%%%%%%%%%%%%%%%%%%%%%%%%%%%%%%%%%%%%%%%%%%
     %                                                                      %
     % You are using vdW-DF, which was implemented by the Thonhauser group. %
     % Please cite the following two papers that made this development      %
     % possible and the two reviews that describe the various versions:     %
     %                                                                      %
     %   T. Thonhauser et al., PRL 115, 136402 (2015).                      %
     %   T. Thonhauser et al., PRB 76, 125112 (2007).                       %
     %   K. Berland et al., Rep. Prog. Phys. 78, 066501 (2015).             %
     %   D.C. Langreth et al., J. Phys.: Condens. Matter 21, 084203 (2009). %
     %                                                                      %
     %                                                                      %
     % If you are calculating the stress with vdW-DF, please also cite:     %
     %                                                                      %
     %   R. Sabatini et al., J. Phys.: Condens. Matter 24, 424209 (2012).   %
     %                                                                      %
     %%%%%%%%%%%%%%%%%%%%%%%%%%%%%%%%%%%%%%%%%%%%%%%%%%%%%%%%%%%%%%%%%%%%%%%%

     Adding external electric field

     Computed dipole along edir(3) :
        Dipole               -9.3089 Ry au,        -23.6608 Debye
        Dipole field         -0.0176 Ry au,

        Potential amp.        1.6284 Ry
        Total length         46.3494 bohr

     Starting wfcs are  300 atomic wfcs
  @ DRIVER MODE: Message from server: STATUS
  @ DRIVER MODE: Message from server: POSDATA
  @ DRIVER MODE: Reading and sharing cell
  @ DRIVER MODE: Reading and sharing positions
  @ DRIVER MODE: Received positions

     Self-consistent Calculation

     iteration #  1     ecut=    29.40 Ry     beta= 0.05
     Davidson diagonalization with overlap
     c_bands:  1 eigenvalues not converged
     c_bands:  2 eigenvalues not converged
     c_bands:  1 eigenvalues not converged
     c_bands:  1 eigenvalues not converged
     c_bands:  1 eigenvalues not converged
     c_bands:  2 eigenvalues not converged
     c_bands:  1 eigenvalues not converged
     c_bands:  1 eigenvalues not converged
     c_bands:  2 eigenvalues not converged
     ethr =  1.00E-05,  avg # of iterations = 19.6

[...]

     total energy              =   -2539.08774676 Ry
     estimated scf accuracy    <    4593.63983446 Ry

     iteration #  2     ecut=    29.40 Ry     beta= 0.05
     Davidson diagonalization with overlap
     ethr =  1.00E-02,  avg # of iterations = 23.8

[...]

     iteration # 44     ecut=    29.40 Ry     beta= 0.05
     Davidson diagonalization with overlap
     c_bands:  1 eigenvalues not converged
     ethr =  6.03E-07,  avg # of iterations =  7.8

[...]

     total energy              =   -2952.67092820 Ry
     estimated scf accuracy    <       0.00000041 Ry

     iteration # 63     ecut=    29.40 Ry     beta= 0.05
     Davidson diagonalization with overlap
     ethr =  1.03E-10,  avg # of iterations =  8.8

     negative rho (up, down):  1.682E-02 0.000E+00

     Adding external electric field

     Computed dipole along edir(3) :
        Dipole                1.3056 Ry au,          3.3186 Debye
        Dipole field          0.0025 Ry au,

        Potential amp.       -0.2284 Ry
        Total length         46.3494 bohr

     End of self-consistent calculation

          k = 0.0000 0.0000 0.0000 ( 18029 PWs)   bands (ev):

   -55.6244 -55.5464 -55.5124 -55.3635 -55.3394 -55.3294 -55.3040 -55.2963
   -55.2792 -55.2287 -55.1419 -55.1066 -55.0299 -55.0049 -54.4978 -54.4637
   -32.0278 -31.9567 -31.8656 -31.8481 -31.8381 -31.8257 -31.8232 -31.7912
   -31.7628 -31.7188 -31.6987 -31.6704 -31.6499 -31.6267 -31.6210 -31.6095
   -31.6040 -31.5867 -31.5529 -31.5378 -31.5216 -31.5179 -31.5034 -31.5025
   -31.4915 -31.4810 -31.4763 -31.4761 -31.4472 -31.4360 -31.4262 -31.4037
   -31.3865 -31.3858 -31.3838 -31.3075 -31.2967 -31.2757 -31.2435 -31.2345
   -31.2241 -31.1533 -30.9025 -30.8190 -30.7964 -30.7204 -30.6342 -30.5221
   -17.3047 -16.4570 -16.1311 -15.9661 -15.7692 -15.6650 -15.5957 -15.4071
   -15.3227 -15.2657 -15.0742 -15.0709 -15.0401 -15.0218 -14.9956 -14.9667
   -14.9587 -14.9529 -14.9261 -14.8927 -14.8757 -14.8476 -14.8302 -14.7720
   -14.7444 -14.7275 -14.6675 -14.5718 -14.5081 -14.2950 -14.1477 -12.9957
   -12.8798  -9.6360  -7.3144  -4.7788  -4.0491  -3.5004  -3.4332  -3.3720
    -3.3230  -3.2477  -3.0161  -2.8686  -2.7637  -2.7359  -2.6496  -2.6172
    -2.5706  -2.4920  -2.4247  -2.4014  -2.3555  -2.3180  -2.2870  -2.2647
    -2.2392  -2.2175  -2.1623  -2.1234  -2.0464  -1.9976  -1.9287  -1.9066
    -1.8492  -1.8111  -1.8084  -1.7937  -1.7569  -1.7516  -1.7431  -1.7231
    -1.6163  -1.5846  -1.5342  -1.4922  -1.3277  -1.1401  -1.1199  -1.0250
    -0.9884  -0.9505  -0.9231  -0.9078  -0.8820  -0.8590  -0.7644  -0.7443
    -0.6636  -0.6013  -0.5570  -0.5072  -0.4078  -0.3394  -0.3127  -0.2663
    -0.2613  -0.2295  -0.2136  -0.1256  -0.0486  -0.0011   0.0113   0.0631
     0.1483   0.1664   0.2218   0.2531   0.2940   0.3296   0.4006   0.4269
     0.4491   0.4606   0.4784   0.5353   0.5744   0.6073   0.6768   0.7787
     0.7876   0.8611   0.8625   0.8730   1.0733   1.1623   1.1814   1.2640
     1.4880   1.5291   1.6206   1.7252   2.0935   2.1378   3.5566   3.7002
     3.7178   3.7829   3.8311   3.9434   3.9556   4.0414   4.1695   4.2546

[...]

          k = 0.0380-0.0419 0.0000 ( 17876 PWs)   bands (ev):

[...]

          k =-0.0760-0.0000 0.0000 ( 17886 PWs)   bands (ev):

[...]

          k =-0.0760-0.0839 0.0000 ( 17948 PWs)   bands (ev):

   -55.6238 -55.5296 -55.5290 -55.3466 -55.3461 -55.3258 -55.3173 -55.2967
   -55.2727 -55.2352 -55.1397 -55.1029 -55.0335 -55.0070 -54.4811 -54.4802
   -31.9022 -31.8433 -31.8430 -31.8368 -31.8258 -31.8238 -31.8233 -31.6997
   -31.6717 -31.6654 -31.6494 -31.6488 -31.6431 -31.6343 -31.6211 -31.6022
   -31.5958 -31.5929 -31.5587 -31.5581 -31.5403 -31.5387 -31.5244 -31.5221
   -31.5152 -31.5107 -31.5026 -31.5008 -31.4909 -31.4847 -31.4588 -31.4527
   -31.4076 -31.3894 -31.3807 -31.3637 -31.3113 -31.3003 -31.2833 -31.2449
   -31.2384 -31.2263 -30.8095 -30.8088 -30.7161 -30.7148 -30.6777 -30.6769
   -17.3004 -16.4463 -15.5932 -15.5832 -15.4727 -15.4560 -15.3536 -15.2866
   -15.2526 -15.2286 -15.2089 -15.1776 -15.1724 -15.1257 -15.0800 -15.0645
   -15.0335 -15.0078 -14.9906 -14.9534 -14.9231 -14.9064 -14.8825 -14.8448
   -14.8383 -14.8234 -14.8101 -14.6411 -14.5937 -14.4495 -14.4216 -12.9820
   -12.9815  -9.6376  -7.3139  -4.7736  -4.0455  -2.8584  -2.7990  -2.6825
    -2.6454  -2.5852  -2.5107  -2.4775  -2.4637  -2.3772  -2.3663  -2.3621
    -2.3235  -2.2987  -2.2803  -2.2521  -2.2484  -2.2394  -2.2044  -2.1976
    -2.1801  -2.1592  -2.1427  -2.1273  -2.1128  -2.1040  -2.0809  -2.0581
    -2.0317  -1.9886  -1.8318  -1.7935  -1.7659  -1.6495  -1.6400  -1.6221
    -1.6109  -1.5977  -1.5660  -1.5000  -1.4815  -1.4753  -1.3159  -1.2313
    -1.1906  -1.1253  -1.1044  -1.0765  -0.9868  -0.9741  -0.9454  -0.9082
    -0.8603  -0.7878  -0.6892  -0.6818  -0.6380  -0.5295  -0.4797  -0.4671
    -0.4640  -0.4141  -0.4037  -0.3867  -0.3465  -0.2747  -0.2581  -0.2330
    -0.2007  -0.1852  -0.1440  -0.0757   0.0274   0.1089   0.2138   0.2502
     0.3318   0.3581   0.3727   0.5235   0.5879   0.6273   0.6750   0.6828
     0.7854   0.7961   0.8103   0.8919   0.9888   1.0088   1.0696   1.0867
     1.1062   1.1443   1.8944   1.9024   1.9580   1.9583   3.7455   4.0315
     4.0836   4.0938   4.1146   4.1293   4.1353   4.1639   4.2205   4.2540

     the Fermi energy is     3.5815 ev

!    total energy              =   -2952.67098564 Ry
     estimated scf accuracy    <       0.00000004 Ry
     smearing contrib. (-TS)   =      -0.02001082 Ry
     internal energy E=F+TS    =   -2952.65097482 Ry

     The total energy is F=E-TS. E is the sum of the following terms:
     one-electron contribution =  -23943.29155686 Ry
     hartree contribution      =   12064.57994465 Ry
     xc contribution           =    -487.97309136 Ry
     ewald contribution        =    9414.03051172 Ry
     electric field correction =       0.00321703 Ry

     convergence has been achieved in  63 iterations

     Forces acting on atoms (cartesian axes, Ry/au):

     atom    1 type  1   force =     0.00003970   -0.00031828    0.09546602
     atom    2 type  1   force =    -0.00013712    0.00030903   -0.17424235
     atom    3 type  2   force =    -0.00001965   -0.00015521   -0.02259437
     atom    4 type  2   force =     0.00003798   -0.00185405    0.05172310
     atom    5 type  2   force =    -0.00667479   -0.00269877    0.00168191
     atom    6 type  2   force =     0.00822336   -0.00219175    0.00116269
     atom    7 type  1   force =    -0.00012612   -0.00381073    0.01181203
     atom    8 type  1   force =     0.00015736    0.00376207    0.01274987
     atom    9 type  2   force =     0.00021003    0.00037301    0.00082716
     atom   10 type  2   force =    -0.00197706   -0.00130443   -0.01616774
     atom   11 type  2   force =     0.00115764   -0.00021402   -0.00029144
     atom   12 type  2   force =    -0.00060077    0.00012634   -0.00024737
     atom   13 type  1   force =    -0.00022424   -0.00145628    0.00053241
     atom   14 type  1   force =     0.00009678   -0.00044130   -0.00006365
     atom   15 type  2   force =     0.00009986    0.00034778   -0.00088637
     atom   16 type  2   force =     0.00004682    0.00105715   -0.00052281
     atom   17 type  2   force =    -0.00012479    0.00021723    0.00007356
     atom   18 type  2   force =     0.00005840    0.00020575   -0.00013216
     atom   19 type  1   force =    -0.00027015   -0.00003882    0.00027201
     atom   20 type  1   force =     0.00012764    0.00027004   -0.00042886
     atom   21 type  2   force =     0.00005886    0.00010618    0.10287519
     atom   22 type  2   force =    -0.00028398    0.00048870    0.00053303
     atom   23 type  2   force =    -0.07252021   -0.00013533   -0.02756317
     atom   24 type  2   force =     0.07242460    0.00027406   -0.02759205
     atom   25 type  1   force =     0.00009122   -0.00014723    0.09508626
     atom   26 type  1   force =    -0.00010708   -0.00128105   -0.17427019
     atom   27 type  2   force =     0.00015695   -0.00026082   -0.02135008
     atom   28 type  2   force =     0.00004817   -0.00014403    0.04732749
     atom   29 type  2   force =    -0.00545086    0.00230878   -0.00005053
     atom   30 type  2   force =     0.00702425    0.00274319   -0.00055809
     atom   31 type  1   force =    -0.00016295    0.00660037    0.00051630
     atom   32 type  1   force =     0.00008415   -0.00557312    0.01180607
     atom   33 type  2   force =    -0.00014507   -0.00038680    0.00011889
     atom   34 type  2   force =    -0.00121655    0.00016541   -0.01570806
     atom   35 type  2   force =    -0.00038519    0.00043748    0.00014704
     atom   36 type  2   force =     0.00103152    0.00059330    0.00041019
     atom   37 type  1   force =    -0.00024059    0.00178050    0.00019569
     atom   38 type  1   force =    -0.00006261    0.00024977    0.00038686
     atom   39 type  2   force =    -0.00010780    0.00010664   -0.00020735
     atom   40 type  2   force =     0.00037697   -0.00032362   -0.00020468
     atom   41 type  2   force =    -0.00049578    0.00045703    0.00036491
     atom   42 type  2   force =     0.00061693    0.00014925    0.00023270
     atom   43 type  1   force =     0.00029192    0.00024096    0.00036599
     atom   44 type  1   force =     0.00037018    0.00011103    0.00076683
     atom   45 type  2   force =     0.00005898   -0.00008973    0.10266818
     atom   46 type  2   force =    -0.07256184   -0.00005062   -0.02758901
     atom   47 type  2   force =     0.07248861    0.00040102   -0.02761400
     atom   48 type  3   force =     0.00020323   -0.00047708   -0.00047345
     atom   49 type  4   force =    -0.00009689   -0.00004586   -0.00069883
     atom   50 type  5   force =    -0.00056724   -0.00035955   -0.00010621
     atom   51 type  5   force =     0.00037331    0.00014588   -0.00000152
     atom   52 type  5   force =    -0.00027132    0.00056333    0.00033839
     atom   53 type  2   force =    -0.00427556    0.00639873    0.00389315
     atom   54 type  5   force =     0.00315078   -0.00723151   -0.00476959

     Total force =     0.362527     Total SCF correction =     0.000450
  @ DRIVER MODE: Message from server: STATUS
  @ DRIVER MODE: Message from server: GETFORCE
  @ DRIVER MODE: Returning v,forces,stress,ensemble

     Writing output data file ./calc.save/
  @ DRIVER MODE: Message from server: EXIT
  @ DRIVE MODE: Exiting

     General routines

     Parallel routines

   This run was terminated on:   3:55:48  23Sep2021

   JOB DONE.