     Program PWSCF v.6.7GPU starts on  8Sep2021 at 23:16:29

     R & G space division:  proc/nbgrp/npool/nimage =      10
     Reading input from /storage/home/hcoda1/3/ntian30/research/carbon/CxH_vib/CH_calc/ads_slab/CHNH_a/out_0005/pw.inp
Warning: card &CELL ignored
Warning: card   CELL_DYNAMICS='IPI', ignored
Warning: card / ignored

     Current dimensions of program PWSCF are:
     Max number of different atomic species (ntypx) = 10
     Max number of k-points (npk) =  40000
     Max angular momentum in pseudopotentials (lmaxx) =  3
     Presently no symmetry can be used with electric field

     Message from routine cell_base_init:
     DEPRECATED: use true lattice parameter, not A to a.u. conversion factor

     IMPORTANT: XC functional enforced from input :
     Exchange-correlation= BEEF-VDW
                           (   1   4  43  14   2   0   0)
     Any further DFT definition will be discarded
     Please, verify this is what you really want

  @ DRIVER MODE: Connecting to
 qe_1139763_2767380.sched-torque.pace.gatech.eduns3zs8tc_scratch
  using UNIX socket
  @ DRIVER MODE: Message from server: STATUS
  @ DRIVER MODE: Message from server: INIT
  @ DRIVER MODE: Receiving replica           0          -1
  @ DRIVER MODE: Receiving encoded integer          25
  @ DRIVER MODE:  SCF:  T  FORCE:  T  STRESS:  F  VC:  F  ENSEMBLE:  F
  @ DRIVER MODE:  SCF:  T  FORCE:  T  STRESS:  F  VC:  F  ENSEMBLE:  F

     Using Slab Decomposition

     bravais-lattice index     =            0
     lattice parameter (alat)  =       1.8897  a.u.
     unit-cell volume          =    6658.9804 (a.u.)^3
     number of atoms/cell      =           51
     number of atomic types    =            5
     number of electrons       =       389.00
     number of Kohn-Sham states=          204
     kinetic-energy cutoff     =      29.3995  Ry
     charge density cutoff     =     293.9946  Ry
     scf convergence threshold =      7.3E-08
     mixing beta               =       0.0500
     number of iterations used =            8  plain     mixing
     Exchange-correlation= BEEF-VDW
                           (   1   4  43  14   2   0   0)

     celldm(1)=   1.889726  celldm(2)=   0.000000  celldm(3)=   0.000000
     celldm(4)=   0.000000  celldm(5)=   0.000000  celldm(6)=   0.000000

     crystal axes: (cart. coord. in units of alat)
               a(1) = (   6.579727   0.000000   0.000000 )
               a(2) = (  -0.000775   5.961596   0.000000 )
               a(3) = (   0.000000   0.000000  25.155947 )

     reciprocal axes: (cart. coord. in units 2 pi/alat)
               b(1) = (  0.151982  0.000020  0.000000 )
               b(2) = (  0.000000  0.167740  0.000000 )
               b(3) = (  0.000000  0.000000  0.039752 )

     PseudoPot. # 1 for Ti read from file:
     /storage/coda1/p-amedford6/0/shared/rich_project_chbe-medford/medford-share/data/pseudos_module/espresso/nninc/pbe/van/Ti.UPF
     MD5 check sum: 8e4df49b7f0d34bbd5052bf3f5ea0213
     Pseudo is Ultrasoft, Zval = 12.0
     Generated by new atomic code, or converted to UPF format
     Using radial grid of  851 points,  6 beta functions with:
                l(1) =   0
                l(2) =   0
                l(3) =   1
                l(4) =   1
                l(5) =   2
                l(6) =   2
     Q(r) pseudized with  8 coefficients,  rinner =    1.000   1.000   1.000
                                                       1.000   1.000

     PseudoPot. # 2 for O  read from file:
     /storage/coda1/p-amedford6/0/shared/rich_project_chbe-medford/medford-share/data/pseudos_module/espresso/nninc/pbe/van/O.UPF
     MD5 check sum: 78c19812648e8988a0fe644b0f25305e
     Pseudo is Ultrasoft, Zval =  6.0
     Generated by new atomic code, or converted to UPF format
     Using radial grid of  737 points,  4 beta functions with:
                l(1) =   0
                l(2) =   0
                l(3) =   1
                l(4) =   1
     Q(r) pseudized with  8 coefficients,  rinner =    0.800   0.800   0.800

     PseudoPot. # 3 for N  read from file:
     /storage/coda1/p-amedford6/0/shared/rich_project_chbe-medford/medford-share/data/pseudos_module/espresso/nninc/pbe/van/N.UPF
     MD5 check sum: 90d10febe142ad51ac9d5be1deb811c4
     Pseudo is Ultrasoft, Zval =  5.0
     Generated by new atomic code, or converted to UPF format
     Using radial grid of  729 points,  4 beta functions with:
                l(1) =   0
                l(2) =   0
                l(3) =   1
                l(4) =   1
     Q(r) pseudized with  8 coefficients,  rinner =    0.800   0.800   0.800

     PseudoPot. # 4 for C  read from file:
     /storage/coda1/p-amedford6/0/shared/rich_project_chbe-medford/medford-share/data/pseudos_module/espresso/nninc/pbe/van/C.UPF
     MD5 check sum: 1a69bf6b8db32088f5b2163dbdb77a27
     Pseudo is Ultrasoft, Zval =  4.0
     Generated by new atomic code, or converted to UPF format
     Using radial grid of  721 points,  4 beta functions with:
                l(1) =   0
                l(2) =   0
                l(3) =   1
                l(4) =   1
     Q(r) pseudized with  8 coefficients,  rinner =    0.800   0.800   0.800

     PseudoPot. # 5 for H  read from file:
     /storage/coda1/p-amedford6/0/shared/rich_project_chbe-medford/medford-share/data/pseudos_module/espresso/nninc/pbe/van/H.UPF
     MD5 check sum: b5ee9d7bfd3a09ee7748110bda690ff7
     Pseudo is Ultrasoft, Zval =  1.0
     Generated by new atomic code, or converted to UPF format
     Using radial grid of  615 points,  1 beta functions with:
                l(1) =   0
     Q(r) pseudized with  8 coefficients,  rinner =    0.800

     atomic species   valence    mass     pseudopotential
        Ti1           12.00    47.86700     Ti( 1.00)
        O1             6.00    15.99900     O ( 1.00)
        N1             5.00    14.00700     N ( 1.00)
        C1             4.00    12.01100     C ( 1.00)
        H1             1.00     1.00800     H ( 1.00)

     No symmetry found

   Cartesian axes

     site n.     atom                  positions (alat units)
         1           Ti1 tau(   1) = (   0.0004258   2.9801865   6.0000000  )
         2           Ti1 tau(   2) = (   3.2906075   1.4906267   6.0002472  )
         3           O1  tau(   3) = (   0.0006271   0.0005054   7.9858123  )
         4           O1  tau(   4) = (   3.2906025   0.0005020   7.3038282  )
         5           O1  tau(   5) = (   4.5942328   1.4918067   9.2879030  )
         6           O1  tau(   6) = (   1.9868534   1.4903216   9.2879459  )
         7           Ti1 tau(   7) = (   3.2907910   2.8959150   9.1758416  )
         8           Ti1 tau(   8) = (   0.0015273   1.4827037   9.2680791  )
         9           O1  tau(   9) = (   3.3107583   5.9394213  11.3440837  )
        10           O1  tau(  10) = (   0.0116148   5.9584955  10.6183126  )
        11           O1  tau(  11) = (   1.3209705   1.4681434  12.6387851  )
        12           O1  tau(  12) = (   5.3117763   1.4689694  12.6372993  )
        13           Ti1 tau(  13) = (   6.5586693   2.9297660  12.6634068  )
        14           Ti1 tau(  14) = (   3.2703198   1.4638114  12.4955107  )
        15           O1  tau(  15) = (   0.0083729   5.9498784  14.6531507  )
        16           O1  tau(  16) = (   3.3267446   5.9373244  13.9471573  )
        17           O1  tau(  17) = (   4.5400383   1.4607670  16.1300196  )
        18           O1  tau(  18) = (   2.0562451   1.4605895  16.0859588  )
        19           Ti1 tau(  19) = (   3.3219294   2.9366742  15.7081325  )
        20           Ti1 tau(  20) = (   0.0794022   1.3719971  16.1804440  )
        21           O1  tau(  21) = (   3.2904802   0.0005063   4.7018136  )
        22           O1  tau(  22) = (   0.0048811   5.8540159  17.1722642  )
        23           O1  tau(  23) = (   1.3043587   1.4918075   6.0039043  )
        24           O1  tau(  24) = (   5.2767064   1.4903225   6.0039473  )
        25           Ti1 tau(  25) = (   0.0000382   5.9609847   6.0000000  )
        26           Ti1 tau(  26) = (   3.2902200   4.4714249   6.0002472  )
        27           O1  tau(  27) = (   0.0002396   2.9813036   7.9858123  )
        28           O1  tau(  28) = (   3.2902150   2.9813002   7.3038282  )
        29           O1  tau(  29) = (   4.5938453   4.4726049   9.2879030  )
        30           O1  tau(  30) = (   1.9864658   4.4711199   9.2879459  )
        31           Ti1 tau(  31) = (   3.2891106   5.8743827   9.1763621  )
        32           Ti1 tau(  32) = (   0.0006254   4.4649316   9.2693709  )
        33           O1  tau(  33) = (   3.3036409   2.9595551  11.3414423  )
        34           O1  tau(  34) = (   0.0092240   2.9805883  10.6323155  )
        35           O1  tau(  35) = (   1.3251634   4.4629088  12.6456700  )
        36           O1  tau(  36) = (   5.3099897   4.4533368  12.6426351  )
        37           Ti1 tau(  37) = (   0.0071655   5.9203210  12.5194715  )
        38           Ti1 tau(  38) = (   3.2774562   4.4456010  12.4944480  )
        39           O1  tau(  39) = (   0.0172281   2.9510719  14.7337574  )
        40           O1  tau(  40) = (   3.3230371   2.9488945  13.9167408  )
        41           O1  tau(  41) = (   4.5572773   4.4147185  16.0816828  )
        42           O1  tau(  42) = (   2.0601761   4.4202290  16.0727324  )
        43           Ti1 tau(  43) = (   3.3574729   5.9210026  15.7440268  )
        44           Ti1 tau(  44) = (   0.0706454   4.5402764  15.7844247  )
        45           O1  tau(  45) = (   3.2900926   2.9813045   4.7018136  )
        46           O1  tau(  46) = (   1.3039711   4.4726057   6.0039043  )
        47           O1  tau(  47) = (   5.2763189   4.4711207   6.0039473  )
        48           N1  tau(  48) = (   6.3928749   2.8496863  17.7311295  )
        49           C1  tau(  49) = (   0.6235525   2.6789418  18.7295412  )
        50           H1  tau(  50) = (   1.5351458   2.1120716  18.4733693  )
        51           H1  tau(  51) = (   5.5197072   3.3230476  17.9821812  )

     number of k points=    10  Fermi-Dirac smearing, width (Ry)=  0.0073
                       cart. coord. in units 2pi/alat
        k(    1) = (   0.0000000   0.0000000   0.0000000), wk =   0.1250000
        k(    2) = (   0.0000000   0.0419351   0.0000000), wk =   0.2500000
        k(    3) = (   0.0000000  -0.0838702   0.0000000), wk =   0.1250000
        k(    4) = (   0.0379955   0.0000049   0.0000000), wk =   0.2500000
        k(    5) = (   0.0379955   0.0419400   0.0000000), wk =   0.2500000
        k(    6) = (   0.0379955  -0.0838652   0.0000000), wk =   0.2500000
        k(    7) = (   0.0379955  -0.0419301   0.0000000), wk =   0.2500000
        k(    8) = (  -0.0759910  -0.0000099   0.0000000), wk =   0.1250000
        k(    9) = (  -0.0759910   0.0419252   0.0000000), wk =   0.2500000
        k(   10) = (  -0.0759910  -0.0838800   0.0000000), wk =   0.1250000

     Initial potential from superposition of free atoms

     starting charge  372.99918, renormalised to  389.00000

     negative rho (up, down):  1.910E-02 0.000E+00

     %%%%%%%%%%%%%%%%%%%%%%%%%%%%%%%%%%%%%%%%%%%%%%%%%%%%%%%%%%%%%%%%%%%%%%%%
     %                                                                      %
     % You are using vdW-DF, which was implemented by the Thonhauser group. %
     % Please cite the following two papers that made this development      %
     % possible and the two reviews that describe the various versions:     %
     %                                                                      %
     %   T. Thonhauser et al., PRL 115, 136402 (2015).                      %
     %   T. Thonhauser et al., PRB 76, 125112 (2007).                       %
     %   K. Berland et al., Rep. Prog. Phys. 78, 066501 (2015).             %
     %   D.C. Langreth et al., J. Phys.: Condens. Matter 21, 084203 (2009). %
     %                                                                      %
     %                                                                      %
     % If you are calculating the stress with vdW-DF, please also cite:     %
     %                                                                      %
     %   R. Sabatini et al., J. Phys.: Condens. Matter 24, 424209 (2012).   %
     %                                                                      %
     %%%%%%%%%%%%%%%%%%%%%%%%%%%%%%%%%%%%%%%%%%%%%%%%%%%%%%%%%%%%%%%%%%%%%%%%

     Adding external electric field

     Computed dipole along edir(3) :
        Dipole               -4.7340 Ry au,        -12.0327 Debye
        Dipole field         -0.0089 Ry au,

        Potential amp.        0.8281 Ry
        Total length         46.3494 bohr

     Starting wfcs are  294 atomic wfcs
  @ DRIVER MODE: Message from server: STATUS
  @ DRIVER MODE: Message from server: POSDATA
  @ DRIVER MODE: Reading and sharing cell
  @ DRIVER MODE: Reading and sharing positions
  @ DRIVER MODE: Received positions

     Self-consistent Calculation

     iteration #  1     ecut=    29.40 Ry     beta= 0.05
     Davidson diagonalization with overlap
     c_bands:  4 eigenvalues not converged
     c_bands:  2 eigenvalues not converged
     c_bands:  1 eigenvalues not converged
     c_bands:  3 eigenvalues not converged
     c_bands:  2 eigenvalues not converged
     c_bands:  1 eigenvalues not converged
     c_bands:  2 eigenvalues not converged
     c_bands:  3 eigenvalues not converged
     c_bands:  1 eigenvalues not converged
     c_bands:  1 eigenvalues not converged
     ethr =  1.00E-05,  avg # of iterations = 20.0

[...]

     total energy              =   -2847.40432769 Ry
     estimated scf accuracy    <     789.11581724 Ry

     iteration #  2     ecut=    29.40 Ry     beta= 0.05
     Davidson diagonalization with overlap
     ethr =  1.00E-02,  avg # of iterations = 15.1

[...]

     iteration # 46     ecut=    29.40 Ry     beta= 0.05
     Davidson diagonalization with overlap
     c_bands:  1 eigenvalues not converged
     ethr =  1.05E-08,  avg # of iterations =  7.5

[...]

     total energy              =   -2917.76267221 Ry
     estimated scf accuracy    <       0.00000014 Ry

     iteration # 58     ecut=    29.40 Ry     beta= 0.05
     Davidson diagonalization with overlap
     ethr =  2.84E-11,  avg # of iterations =  8.7

     negative rho (up, down):  1.797E-02 0.000E+00

     Adding external electric field

     Computed dipole along edir(3) :
        Dipole                0.1084 Ry au,          0.2754 Debye
        Dipole field          0.0002 Ry au,

        Potential amp.       -0.0190 Ry
        Total length         46.3494 bohr

     End of self-consistent calculation

          k = 0.0000 0.0000 0.0000 ( 18029 PWs)   bands (ev):

   -56.3328 -56.3272 -56.2964 -56.2931 -56.2253 -56.1926 -56.1658 -56.1521
   -56.1348 -56.1149 -56.1005 -56.0814 -55.9231 -55.7648 -55.3122 -55.2781
   -32.8946 -32.8107 -32.6786 -32.6731 -32.6463 -32.6353 -32.6195 -32.6051
   -32.5696 -32.5610 -32.5407 -32.5368 -32.5112 -32.4796 -32.4784 -32.4681
   -32.4614 -32.4326 -32.4259 -32.4251 -32.3979 -32.3882 -32.3844 -32.3510
   -32.3464 -32.3331 -32.3324 -32.3263 -32.3211 -32.3177 -32.2986 -32.2835
   -32.2823 -32.2715 -32.2669 -32.2373 -32.2240 -32.2229 -32.1369 -32.0492
   -31.9988 -31.8964 -31.7197 -31.6304 -31.6080 -31.5364 -31.4499 -31.3388
   -17.0908 -16.8244 -16.6533 -16.5056 -16.4699 -16.3589 -16.1933 -16.0676
   -16.0226 -15.9934 -15.9237 -15.8984 -15.8727 -15.8651 -15.8448 -15.8380
   -15.8026 -15.7835 -15.7608 -15.7442 -15.7131 -15.6975 -15.6754 -15.6344
   -15.5365 -15.4861 -15.4630 -15.3951 -15.3256 -14.9861 -13.8152 -13.6986
    -8.2357  -4.4572  -4.3527  -4.2809  -4.2373  -4.1935  -3.9782  -3.9012
    -3.8651  -3.7020  -3.5712  -3.5230  -3.5079  -3.4662  -3.4649  -3.2511
    -3.2105  -3.1481  -3.1455  -3.1267  -3.1219  -3.0962  -3.0848  -3.0665
    -3.0149  -2.9308  -2.8764  -2.7696  -2.7322  -2.6896  -2.6613  -2.6424
    -2.6038  -2.5909  -2.5860  -2.5679  -2.5521  -2.5383  -2.4457  -2.4031
    -2.2992  -2.1599  -2.1502  -2.1242  -1.9465  -1.8866  -1.8094  -1.7947
    -1.7653  -1.7381  -1.7247  -1.6392  -1.5561  -1.5252  -1.4545  -1.4530
    -1.3655  -1.3229  -1.2344  -1.2059  -1.1659  -1.0948  -1.0854  -1.0785
    -1.0214  -0.8251  -0.8072  -0.7997  -0.7788  -0.7097  -0.6607  -0.6239
    -0.5634  -0.5356  -0.4951  -0.4111  -0.4048  -0.3672  -0.3448  -0.3325
    -0.3035  -0.2988  -0.1087  -0.1023  -0.0613  -0.0488   0.0438   0.1946
     0.2889   0.3209   0.3970   0.6311   0.7094   0.7880   0.9003   1.2819
     1.3280   2.5321   2.8044   2.8773   2.8926   2.9339   3.0320   3.0409
     3.2561   3.2664   3.2927   3.3138

[...]

          k = 0.0380-0.0419 0.0000 ( 17876 PWs)   bands (ev):

[...]

          k =-0.0760-0.0000 0.0000 ( 17886 PWs)   bands (ev):

[...]

          k =-0.0760-0.0839 0.0000 ( 17948 PWs)   bands (ev):

   -56.3173 -56.3117 -56.3111 -56.3092 -56.2197 -56.1835 -56.1712 -56.1611
   -56.1189 -56.1157 -56.0999 -56.0969 -55.9216 -55.7662 -55.2953 -55.2949
   -32.7010 -32.6941 -32.6266 -32.6254 -32.6064 -32.6057 -32.6042 -32.5936
   -32.5351 -32.5302 -32.5290 -32.5183 -32.4909 -32.4620 -32.4576 -32.4477
   -32.4412 -32.4364 -32.4328 -32.4314 -32.4306 -32.4285 -32.4274 -32.3977
   -32.3917 -32.3751 -32.3642 -32.3481 -32.3386 -32.3318 -32.3303 -32.3224
   -32.3208 -32.3131 -32.3117 -32.2943 -32.2903 -32.2118 -32.1393 -32.0701
   -32.0026 -31.9483 -31.6209 -31.6206 -31.5326 -31.5323 -31.4933 -31.4931
   -16.5371 -16.4968 -16.3267 -16.2645 -16.2527 -16.2425 -16.1960 -16.0661
   -16.0512 -16.0347 -16.0145 -15.9988 -15.9729 -15.9567 -15.8753 -15.8637
   -15.8611 -15.8387 -15.8001 -15.7957 -15.7819 -15.7670 -15.7628 -15.7466
   -15.7297 -15.6562 -15.6520 -15.4284 -15.3354 -15.2639 -13.8005 -13.8002
    -8.2390  -4.0263  -3.8268  -3.7761  -3.6511  -3.5594  -3.4998  -3.4797
    -3.4047  -3.2830  -3.2255  -3.2183  -3.2079  -3.1753  -3.1704  -3.1506
    -3.1410  -3.1265  -3.0835  -3.0615  -3.0455  -3.0351  -3.0120  -2.9963
    -2.9754  -2.9667  -2.9537  -2.9271  -2.8935  -2.8912  -2.8624  -2.8544
    -2.6221  -2.6155  -2.5533  -2.4984  -2.4814  -2.4677  -2.4645  -2.4066
    -2.3891  -2.3627  -2.2667  -2.1980  -2.0487  -2.0326  -2.0238  -1.9844
    -1.9509  -1.8122  -1.7609  -1.7395  -1.7112  -1.6574  -1.6494  -1.5877
    -1.5700  -1.5315  -1.4622  -1.4281  -1.3786  -1.3621  -1.2908  -1.2843
    -1.2481  -1.1947  -1.1140  -1.0960  -1.0782  -1.0661  -1.0130  -0.9721
    -0.9275  -0.8739  -0.8039  -0.7068  -0.6272  -0.4763  -0.4032  -0.3128
    -0.2543  -0.2152  -0.1633  -0.1321  -0.0433  -0.0173  -0.0150   0.0525
     0.0857   0.1825   0.1876   0.2051   0.4337   1.0718   1.0730   1.1473
     1.1480   2.5378   3.0717   3.0870   3.0977   3.1446   3.3026   3.3082
     3.3351   3.3374   3.4297   3.4611

     the Fermi energy is     2.8057 ev

!    total energy              =   -2917.76271975 Ry
     estimated scf accuracy    <       0.00000005 Ry
     smearing contrib. (-TS)   =      -0.02741719 Ry
     internal energy E=F+TS    =   -2917.73530256 Ry

     The total energy is F=E-TS. E is the sum of the following terms:
     one-electron contribution =  -24686.33799221 Ry
     hartree contribution      =   12422.90440870 Ry
     xc contribution           =    -479.07498030 Ry
     ewald contribution        =    9824.77323909 Ry
     electric field correction =       0.00002216 Ry

     convergence has been achieved in  58 iterations

     Forces acting on atoms (cartesian axes, Ry/au):

     atom    1 type  1   force =     0.00012164   -0.00024413    0.09634463
     atom    2 type  1   force =    -0.00005397   -0.00048571   -0.17575864
     atom    3 type  2   force =     0.00008822   -0.00008232   -0.02478672
     atom    4 type  2   force =     0.00006420   -0.00165908    0.05384277
     atom    5 type  2   force =    -0.01231129   -0.00181092    0.00351363
     atom    6 type  2   force =     0.01428475   -0.00152938    0.00391739
     atom    7 type  1   force =     0.00061138    0.00062399   -0.01169211
     atom    8 type  1   force =    -0.00019984    0.02056085    0.02643560
     atom    9 type  2   force =    -0.00055090    0.00047629   -0.00022410
     atom   10 type  2   force =    -0.00145359   -0.00066526   -0.01381389
     atom   11 type  2   force =     0.00041861    0.00025504   -0.00024457
     atom   12 type  2   force =    -0.00052934    0.00053397   -0.00048107
     atom   13 type  1   force =     0.00051077   -0.00035047   -0.00041922
     atom   14 type  1   force =    -0.00117168    0.00108396   -0.00100469
     atom   15 type  2   force =     0.00001405   -0.00006514    0.00035656
     atom   16 type  2   force =     0.00021757    0.00068614   -0.00054335
     atom   17 type  2   force =    -0.00106858    0.00023268   -0.00122880
     atom   18 type  2   force =     0.00134328    0.00064969    0.00021772
     atom   19 type  1   force =    -0.00021035    0.00076240   -0.00071851
     atom   20 type  1   force =    -0.00034870    0.00037507   -0.00029837
     atom   21 type  2   force =     0.00004910    0.00002421    0.10337740
     atom   22 type  2   force =     0.00048958   -0.00068030    0.00036096
     atom   23 type  2   force =    -0.07128982   -0.00005337   -0.02761778
     atom   24 type  2   force =     0.07125529    0.00033822   -0.02772355
     atom   25 type  1   force =     0.00020125   -0.00035678    0.09607902
     atom   26 type  1   force =     0.00001260   -0.00025376   -0.17591249
     atom   27 type  2   force =     0.00021698   -0.00037171   -0.02357347
     atom   28 type  2   force =     0.00006550   -0.00137961    0.05390932
     atom   29 type  2   force =    -0.01263355    0.00048477    0.00327334
     atom   30 type  2   force =     0.01457960    0.00113663    0.00365694
     atom   31 type  1   force =     0.00072604    0.00351964   -0.01311812
     atom   32 type  1   force =    -0.00000082   -0.02245598    0.02634476
     atom   33 type  2   force =     0.00006065   -0.00002130    0.00097027
     atom   34 type  2   force =    -0.00088402   -0.00053783   -0.01882297
     atom   35 type  2   force =    -0.00023253   -0.00021586    0.00011702
     atom   36 type  2   force =     0.00011467   -0.00031402   -0.00010576
     atom   37 type  1   force =     0.00037597    0.00059377   -0.00019987
     atom   38 type  1   force =    -0.00133604   -0.00094513   -0.00037064
     atom   39 type  2   force =     0.00003161    0.00108748   -0.00131439
     atom   40 type  2   force =    -0.00013947   -0.00012027   -0.00045702
     atom   41 type  2   force =     0.00002336    0.00049844   -0.00025380
     atom   42 type  2   force =    -0.00049333    0.00011628   -0.00051343
     atom   43 type  1   force =    -0.00031228   -0.00029445   -0.00040386
     atom   44 type  1   force =    -0.00022395   -0.00003556    0.00013787
     atom   45 type  2   force =     0.00006519   -0.00001042    0.10334375
     atom   46 type  2   force =    -0.07127382   -0.00005780   -0.02762716
     atom   47 type  2   force =     0.07124681    0.00043106   -0.02768788
     atom   48 type  3   force =     0.00262429    0.00168748    0.01295225
     atom   49 type  4   force =    -0.00670499    0.00151780   -0.00932470
     atom   50 type  5   force =    -0.00034831   -0.00008922   -0.00059697
     atom   51 type  5   force =     0.00395820   -0.00259009   -0.00231333

     Total force =     0.369344     Total SCF correction =     0.000576
  @ DRIVER MODE: Message from server: STATUS
  @ DRIVER MODE: Message from server: GETFORCE
  @ DRIVER MODE: Returning v,forces,stress,ensemble

     Writing output data file ./calc.save/
  @ DRIVER MODE: Message from server: EXIT
  @ DRIVE MODE: Exiting

     General routines

     Parallel routines

   This run was terminated on:  23:30:56   8Sep2021

   JOB DONE.