     Program PWSCF v.6.7GPU starts on  9Sep2021 at  3:10:31

     R & G space division:  proc/nbgrp/npool/nimage =      10
     Reading input from /storage/home/hcoda1/3/ntian30/research/carbon/CxH_vib/CH3_calc/ads_slab/CH3NNH3_a/out_0016/pw.inp
Warning: card &CELL ignored
Warning: card   CELL_DYNAMICS='IPI', ignored
Warning: card / ignored

     Current dimensions of program PWSCF are:
     Max number of different atomic species (ntypx) = 10
     Max number of k-points (npk) =  40000
     Max angular momentum in pseudopotentials (lmaxx) =  3
     Presently no symmetry can be used with electric field

     Message from routine cell_base_init:
     DEPRECATED: use true lattice parameter, not A to a.u. conversion factor

     IMPORTANT: XC functional enforced from input :
     Exchange-correlation= BEEF-VDW
                           (   1   4  43  14   2   0   0)
     Any further DFT definition will be discarded
     Please, verify this is what you really want

  @ DRIVER MODE: Connecting to
 qe_1139763_2767402.sched-torque.pace.gatech.edu9_mjj5hy_scratch
  using UNIX socket
  @ DRIVER MODE: Message from server: STATUS
  @ DRIVER MODE: Message from server: INIT
  @ DRIVER MODE: Receiving replica           0          -1
  @ DRIVER MODE: Receiving encoded integer          25
  @ DRIVER MODE:  SCF:  T  FORCE:  T  STRESS:  F  VC:  F  ENSEMBLE:  F
  @ DRIVER MODE:  SCF:  T  FORCE:  T  STRESS:  F  VC:  F  ENSEMBLE:  F

     Using Slab Decomposition

     bravais-lattice index     =            0
     lattice parameter (alat)  =       1.8897  a.u.
     unit-cell volume          =    6658.9804 (a.u.)^3
     number of atoms/cell      =           56
     number of atomic types    =            5
     number of electrons       =       398.00
     number of Kohn-Sham states=          209
     kinetic-energy cutoff     =      29.3995  Ry
     charge density cutoff     =     293.9946  Ry
     scf convergence threshold =      7.3E-08
     mixing beta               =       0.0500
     number of iterations used =            8  plain     mixing
     Exchange-correlation= BEEF-VDW
                           (   1   4  43  14   2   0   0)

     celldm(1)=   1.889726  celldm(2)=   0.000000  celldm(3)=   0.000000
     celldm(4)=   0.000000  celldm(5)=   0.000000  celldm(6)=   0.000000

     crystal axes: (cart. coord. in units of alat)
               a(1) = (   6.579727   0.000000   0.000000 )
               a(2) = (  -0.000775   5.961596   0.000000 )
               a(3) = (   0.000000   0.000000  25.155947 )

     reciprocal axes: (cart. coord. in units 2 pi/alat)
               b(1) = (  0.151982  0.000020  0.000000 )
               b(2) = (  0.000000  0.167740  0.000000 )
               b(3) = (  0.000000  0.000000  0.039752 )

     PseudoPot. # 1 for Ti read from file:
     /storage/coda1/p-amedford6/0/shared/rich_project_chbe-medford/medford-share/data/pseudos_module/espresso/nninc/pbe/van/Ti.UPF
     MD5 check sum: 8e4df49b7f0d34bbd5052bf3f5ea0213
     Pseudo is Ultrasoft, Zval = 12.0
     Generated by new atomic code, or converted to UPF format
     Using radial grid of  851 points,  6 beta functions with:
                l(1) =   0
                l(2) =   0
                l(3) =   1
                l(4) =   1
                l(5) =   2
                l(6) =   2
     Q(r) pseudized with  8 coefficients,  rinner =    1.000   1.000   1.000
                                                       1.000   1.000

     PseudoPot. # 2 for O  read from file:
     /storage/coda1/p-amedford6/0/shared/rich_project_chbe-medford/medford-share/data/pseudos_module/espresso/nninc/pbe/van/O.UPF
     MD5 check sum: 78c19812648e8988a0fe644b0f25305e
     Pseudo is Ultrasoft, Zval =  6.0
     Generated by new atomic code, or converted to UPF format
     Using radial grid of  737 points,  4 beta functions with:
                l(1) =   0
                l(2) =   0
                l(3) =   1
                l(4) =   1
     Q(r) pseudized with  8 coefficients,  rinner =    0.800   0.800   0.800

     PseudoPot. # 3 for N  read from file:
     /storage/coda1/p-amedford6/0/shared/rich_project_chbe-medford/medford-share/data/pseudos_module/espresso/nninc/pbe/van/N.UPF
     MD5 check sum: 90d10febe142ad51ac9d5be1deb811c4
     Pseudo is Ultrasoft, Zval =  5.0
     Generated by new atomic code, or converted to UPF format
     Using radial grid of  729 points,  4 beta functions with:
                l(1) =   0
                l(2) =   0
                l(3) =   1
                l(4) =   1
     Q(r) pseudized with  8 coefficients,  rinner =    0.800   0.800   0.800

     PseudoPot. # 4 for C  read from file:
     /storage/coda1/p-amedford6/0/shared/rich_project_chbe-medford/medford-share/data/pseudos_module/espresso/nninc/pbe/van/C.UPF
     MD5 check sum: 1a69bf6b8db32088f5b2163dbdb77a27
     Pseudo is Ultrasoft, Zval =  4.0
     Generated by new atomic code, or converted to UPF format
     Using radial grid of  721 points,  4 beta functions with:
                l(1) =   0
                l(2) =   0
                l(3) =   1
                l(4) =   1
     Q(r) pseudized with  8 coefficients,  rinner =    0.800   0.800   0.800

     PseudoPot. # 5 for H  read from file:
     /storage/coda1/p-amedford6/0/shared/rich_project_chbe-medford/medford-share/data/pseudos_module/espresso/nninc/pbe/van/H.UPF
     MD5 check sum: b5ee9d7bfd3a09ee7748110bda690ff7
     Pseudo is Ultrasoft, Zval =  1.0
     Generated by new atomic code, or converted to UPF format
     Using radial grid of  615 points,  1 beta functions with:
                l(1) =   0
     Q(r) pseudized with  8 coefficients,  rinner =    0.800

     atomic species   valence    mass     pseudopotential
        Ti1           12.00    47.86700     Ti( 1.00)
        O1             6.00    15.99900     O ( 1.00)
        N1             5.00    14.00700     N ( 1.00)
        C1             4.00    12.01100     C ( 1.00)
        H1             1.00     1.00800     H ( 1.00)

     No symmetry found

   Cartesian axes

     site n.     atom                  positions (alat units)
         1           Ti1 tau(   1) = (   0.0004258   2.9801865   6.0000000  )
         2           Ti1 tau(   2) = (   3.2906075   1.4906267   6.0002472  )
         3           O1  tau(   3) = (   0.0006271   0.0005054   7.9858123  )
         4           O1  tau(   4) = (   3.2906025   0.0005020   7.3038282  )
         5           O1  tau(   5) = (   4.5942328   1.4918067   9.2879030  )
         6           O1  tau(   6) = (   1.9868534   1.4903216   9.2879459  )
         7           Ti1 tau(   7) = (   3.2907910   2.8959150   9.1758416  )
         8           Ti1 tau(   8) = (   0.0015273   1.4827037   9.2680791  )
         9           O1  tau(   9) = (   3.2915376   0.0135470  11.3011085  )
        10           O1  tau(  10) = (   0.0116148   5.9584955  10.6183126  )
        11           O1  tau(  11) = (   1.3264285   1.5112823  12.6233503  )
        12           O1  tau(  12) = (   5.3038506   1.5117067  12.6402039  )
        13           Ti1 tau(  13) = (   6.4820107   2.9926285  12.7699842  )
        14           Ti1 tau(  14) = (   3.1705855   1.5046985  12.4703807  )
        15           O1  tau(  15) = (   0.0265921   0.0018185  14.6022993  )
        16           O1  tau(  16) = (   3.3077976   0.0231332  13.8844522  )
        17           O1  tau(  17) = (   4.5431088   1.5356983  16.0582573  )
        18           O1  tau(  18) = (   2.0919096   1.5355568  16.0602035  )
        19           Ti1 tau(  19) = (   3.3160089   3.0194793  15.6930983  )
        20           Ti1 tau(  20) = (   0.0166562   1.5958061  16.1043543  )
        21           O1  tau(  21) = (   3.2904802   0.0005063   4.7018136  )
        22           O1  tau(  22) = (   0.0292894   0.0555714  17.2141426  )
        23           O1  tau(  23) = (   1.3043587   1.4918075   6.0039043  )
        24           O1  tau(  24) = (   5.2767064   1.4903225   6.0039473  )
        25           Ti1 tau(  25) = (   0.0000382   5.9609847   6.0000000  )
        26           Ti1 tau(  26) = (   3.2902200   4.4714249   6.0002472  )
        27           O1  tau(  27) = (   0.0002396   2.9813036   7.9858123  )
        28           O1  tau(  28) = (   3.2902150   2.9813002   7.3038282  )
        29           O1  tau(  29) = (   4.5938453   4.4726049   9.2879030  )
        30           O1  tau(  30) = (   1.9864658   4.4711199   9.2879459  )
        31           Ti1 tau(  31) = (   3.2891106   5.8743827   9.1763621  )
        32           Ti1 tau(  32) = (   0.0006254   4.4649316   9.2693709  )
        33           O1  tau(  33) = (   3.2938734   2.9940915  11.3014364  )
        34           O1  tau(  34) = (   0.0092240   2.9805883  10.6323155  )
        35           O1  tau(  35) = (   1.3265148   4.4779228  12.6213786  )
        36           O1  tau(  36) = (   5.3043665   4.4729268  12.6387898  )
        37           Ti1 tau(  37) = (   6.5102921   0.0103953  12.7821347  )
        38           Ti1 tau(  38) = (   3.1702703   4.4844908  12.4724723  )
        39           O1  tau(  39) = (   0.0044238   2.9856840  14.6711682  )
        40           O1  tau(  40) = (   3.3052367   3.0047533  13.8869641  )
        41           O1  tau(  41) = (   4.5463945   4.5179403  16.0573015  )
        42           O1  tau(  42) = (   2.0913021   4.5186677  16.0620504  )
        43           Ti1 tau(  43) = (   3.3128124   0.0388915  15.6953448  )
        44           Ti1 tau(  44) = (   0.0191476   4.5695365  16.1495174  )
        45           O1  tau(  45) = (   3.2900926   2.9813045   4.7018136  )
        46           O1  tau(  46) = (   1.3039711   4.4726057   6.0039043  )
        47           O1  tau(  47) = (   5.2763189   4.4711207   6.0039473  )
        48           N1  tau(  48) = (   0.0657769   3.0188755  17.3428317  )
        49           N1  tau(  49) = (   6.3710133   2.5762042  22.6422586  )
        50           C1  tau(  50) = (   0.3130180   3.0107025  18.7658599  )
        51           H1  tau(  51) = (   0.2928038   4.0066326  19.1970245  )
        52           H1  tau(  52) = (   6.1505335   2.3845869  19.2855718  )
        53           H1  tau(  53) = (   1.2957935   2.5555442  18.9776258  )
        54           H1  tau(  54) = (   5.9555952   3.1943721  23.3306195  )
        55           H1  tau(  55) = (   0.0098814   1.7053999  23.1148127  )
        56           H1  tau(  56) = (   0.6724875   2.9916800  22.3598805  )

     number of k points=    10  Fermi-Dirac smearing, width (Ry)=  0.0073
                       cart. coord. in units 2pi/alat
        k(    1) = (   0.0000000   0.0000000   0.0000000), wk =   0.1250000
        k(    2) = (   0.0000000   0.0419351   0.0000000), wk =   0.2500000
        k(    3) = (   0.0000000  -0.0838702   0.0000000), wk =   0.1250000
        k(    4) = (   0.0379955   0.0000049   0.0000000), wk =   0.2500000
        k(    5) = (   0.0379955   0.0419400   0.0000000), wk =   0.2500000
        k(    6) = (   0.0379955  -0.0838652   0.0000000), wk =   0.2500000
        k(    7) = (   0.0379955  -0.0419301   0.0000000), wk =   0.2500000
        k(    8) = (  -0.0759910  -0.0000099   0.0000000), wk =   0.1250000
        k(    9) = (  -0.0759910   0.0419252   0.0000000), wk =   0.2500000
        k(   10) = (  -0.0759910  -0.0838800   0.0000000), wk =   0.1250000

     Initial potential from superposition of free atoms

     starting charge  381.99914, renormalised to  398.00000

     negative rho (up, down):  7.226E-03 0.000E+00

     %%%%%%%%%%%%%%%%%%%%%%%%%%%%%%%%%%%%%%%%%%%%%%%%%%%%%%%%%%%%%%%%%%%%%%%%
     %                                                                      %
     % You are using vdW-DF, which was implemented by the Thonhauser group. %
     % Please cite the following two papers that made this development      %
     % possible and the two reviews that describe the various versions:     %
     %                                                                      %
     %   T. Thonhauser et al., PRL 115, 136402 (2015).                      %
     %   T. Thonhauser et al., PRB 76, 125112 (2007).                       %
     %   K. Berland et al., Rep. Prog. Phys. 78, 066501 (2015).             %
     %   D.C. Langreth et al., J. Phys.: Condens. Matter 21, 084203 (2009). %
     %                                                                      %
     %                                                                      %
     % If you are calculating the stress with vdW-DF, please also cite:     %
     %                                                                      %
     %   R. Sabatini et al., J. Phys.: Condens. Matter 24, 424209 (2012).   %
     %                                                                      %
     %%%%%%%%%%%%%%%%%%%%%%%%%%%%%%%%%%%%%%%%%%%%%%%%%%%%%%%%%%%%%%%%%%%%%%%%

     Adding external electric field

     Computed dipole along edir(3) :
        Dipole              -12.0378 Ry au,        -30.5970 Debye
        Dipole field         -0.0227 Ry au,

        Potential amp.        2.1058 Ry
        Total length         46.3494 bohr

     Starting wfcs are  302 atomic wfcs
  @ DRIVER MODE: Message from server: STATUS
  @ DRIVER MODE: Message from server: POSDATA
  @ DRIVER MODE: Reading and sharing cell
  @ DRIVER MODE: Reading and sharing positions
  @ DRIVER MODE: Received positions

     Self-consistent Calculation

     iteration #  1     ecut=    29.40 Ry     beta= 0.05
     Davidson diagonalization with overlap
     c_bands:  1 eigenvalues not converged
     c_bands:  1 eigenvalues not converged
     c_bands:  1 eigenvalues not converged
     c_bands:  1 eigenvalues not converged
     c_bands:  1 eigenvalues not converged
     c_bands:  1 eigenvalues not converged
     c_bands:  1 eigenvalues not converged
     c_bands:  2 eigenvalues not converged
     c_bands:  1 eigenvalues not converged
     ethr =  1.00E-05,  avg # of iterations = 19.6

[...]

     total energy              =   -2520.03916321 Ry
     estimated scf accuracy    <    4725.47099767 Ry

     iteration #  2     ecut=    29.40 Ry     beta= 0.05
     Davidson diagonalization with overlap
     ethr =  1.00E-02,  avg # of iterations = 21.8

[...]

     iteration # 38     ecut=    29.40 Ry     beta= 0.05
     Davidson diagonalization with overlap
     c_bands:  1 eigenvalues not converged
     ethr =  3.90E-06,  avg # of iterations =  4.8

[...]

     total energy              =   -2942.90419410 Ry
     estimated scf accuracy    <       0.00000008 Ry

     iteration # 68     ecut=    29.40 Ry     beta= 0.05
     Davidson diagonalization with overlap
     ethr =  1.97E-11,  avg # of iterations =  5.1

     negative rho (up, down):  9.741E-03 0.000E+00

     Adding external electric field

     Computed dipole along edir(3) :
        Dipole                0.6825 Ry au,          1.7348 Debye
        Dipole field          0.0013 Ry au,

        Potential amp.       -0.1194 Ry
        Total length         46.3494 bohr

     End of self-consistent calculation

          k = 0.0000 0.0000 0.0000 ( 18029 PWs)   bands (ev):

   -56.5014 -56.4678 -55.6109 -55.6020 -55.5756 -55.5695 -55.4738 -55.4382
   -55.2600 -55.2248 -55.1656 -55.1611 -55.1316 -55.0486 -54.6089 -54.5672
   -32.9289 -32.7753 -32.7471 -32.6781 -32.5870 -32.5550 -32.0901 -32.0685
   -32.0151 -31.8987 -31.8577 -31.8182 -31.8160 -31.7825 -31.7536 -31.7535
   -31.7511 -31.7333 -31.7246 -31.7185 -31.6975 -31.6824 -31.6562 -31.6425
   -31.6295 -31.6091 -31.6034 -31.5796 -31.5579 -31.5040 -31.4915 -31.4798
   -31.4028 -31.3988 -31.3764 -31.3344 -31.3271 -31.2929 -31.2784 -31.2547
   -31.2354 -31.1822 -31.1367 -30.8540 -30.8293 -30.8135 -30.7888 -30.6683
   -16.6632 -16.2225 -15.9947 -15.8629 -15.7905 -15.7410 -15.6887 -15.5750
   -15.4960 -15.4928 -15.4549 -15.4207 -15.3508 -15.2072 -15.1094 -15.0539
   -15.0120 -14.8975 -14.8299 -14.8051 -14.7954 -14.7642 -14.7466 -14.5472
   -14.5036 -14.4139 -14.4027 -14.2665 -14.0658 -13.9995 -13.6642 -13.5542
   -12.7023  -7.4338  -4.2301  -4.0948  -4.0756  -3.7184  -3.4773  -3.3905
    -3.2880  -3.2745  -3.2036  -3.0809  -3.0287  -2.9824  -2.8677  -2.8664
    -2.7424  -2.7226  -2.6764  -2.6668  -2.6344  -2.5778  -2.5540  -2.5022
    -2.4961  -2.4826  -2.3346  -2.2408  -2.1769  -2.1462  -2.1317  -2.1014
    -2.0274  -2.0027  -1.9898  -1.9814  -1.8954  -1.7430  -1.7384  -1.7115
    -1.6662  -1.6647  -1.6200  -1.6120  -1.4700  -1.3948  -1.2850  -1.2786
    -1.2432  -1.1743  -1.1721  -1.0727  -1.0004  -0.9487  -0.9087  -0.8024
    -0.7607  -0.7342  -0.6498  -0.5777  -0.5439  -0.5288  -0.5045  -0.4061
    -0.3884  -0.3675  -0.2845  -0.2748  -0.2260  -0.1382  -0.1170  -0.1135
    -0.0259  -0.0183   0.0817   0.1207   0.1615   0.1900   0.2789   0.3087
     0.4088   0.4537   0.4680   0.5914   0.6082   0.6676   0.7426   0.8055
     0.8258   0.8559   0.8871   0.8984   0.9787   1.1005   1.1043   1.1347
     1.2063   1.2532   1.4098   1.4487   1.7205   1.7431   2.4195   2.7737
     2.9352   3.2337   3.4340   3.5406   3.7506   3.7645   3.9441   3.9961
     4.0815

[...]

          k = 0.0380-0.0419 0.0000 ( 17876 PWs)   bands (ev):

[...]

          k =-0.0760-0.0000 0.0000 ( 17886 PWs)   bands (ev):

[...]

          k =-0.0760-0.0839 0.0000 ( 17948 PWs)   bands (ev):

   -56.4847 -56.4844 -55.5928 -55.5920 -55.5892 -55.5836 -55.4580 -55.4538
   -55.2448 -55.2398 -55.1583 -55.1486 -55.1485 -55.0513 -54.5992 -54.5768
   -32.7611 -32.7608 -32.7458 -32.7457 -32.6311 -32.6308 -31.9189 -31.9165
   -31.8931 -31.8868 -31.8486 -31.8477 -31.8060 -31.8035 -31.8026 -31.8017
   -31.7795 -31.7776 -31.7761 -31.7725 -31.7092 -31.7057 -31.6604 -31.6547
   -31.5953 -31.5869 -31.5272 -31.5225 -31.4928 -31.4928 -31.4874 -31.4436
   -31.4426 -31.4106 -31.3742 -31.3741 -31.3720 -31.3349 -31.3348 -31.3299
   -31.2942 -31.2563 -30.9985 -30.9270 -30.8252 -30.7985 -30.7966 -30.7545
   -16.0101 -16.0081 -15.9782 -15.9779 -15.7039 -15.7004 -15.6541 -15.6520
   -15.4831 -15.4768 -15.2660 -15.2578 -15.2539 -15.2497 -15.1217 -15.1151
   -15.0578 -15.0404 -14.9579 -14.9537 -14.8912 -14.8809 -14.8460 -14.8276
   -14.5057 -14.4847 -14.3654 -14.3476 -14.2140 -13.9987 -13.6577 -13.6576
   -12.7188  -7.4244  -4.1056  -4.0795  -3.1104  -3.1098  -3.0392  -3.0382
    -2.9171  -2.9120  -2.8422  -2.8414  -2.7322  -2.7299  -2.7212  -2.5964
    -2.5949  -2.5931  -2.5744  -2.5302  -2.4400  -2.4348  -2.4223  -2.4036
    -2.3574  -2.3543  -2.3460  -2.2661  -2.2519  -2.2161  -2.1760  -2.0703
    -2.0578  -2.0438  -2.0137  -1.9528  -1.9408  -1.9263  -1.8769  -1.8574
    -1.7772  -1.7230  -1.6600  -1.5511  -1.5464  -1.5378  -1.5259  -1.3699
    -1.3308  -1.3028  -1.2952  -1.2877  -1.2438  -1.1437  -1.1362  -0.9948
    -0.9944  -0.9234  -0.8424  -0.8264  -0.7960  -0.6660  -0.6225  -0.5825
    -0.5759  -0.5544  -0.5306  -0.5099  -0.4786  -0.3320  -0.3202  -0.2887
    -0.2483  -0.2407  -0.1929  -0.1271  -0.0381   0.0259   0.0272   0.0866
     0.1525   0.2129   0.2922   0.3099   0.3155   0.5953   0.6791   0.7657
     0.8421   0.9091   0.9745   0.9954   1.0649   1.0968   1.1336   1.2357
     1.2396   1.2572   1.2576   1.3276   1.3296   1.6989   2.3118   3.3475
     3.3479   3.4159   3.4164   3.7402   3.7458   3.8560   3.8662   3.9745
     3.9786

     the Fermi energy is     2.6072 ev

!    total energy              =   -2942.90422481 Ry
     estimated scf accuracy    <       0.00000004 Ry
     smearing contrib. (-TS)   =      -0.00457886 Ry
     internal energy E=F+TS    =   -2942.89964595 Ry

     The total energy is F=E-TS. E is the sum of the following terms:
     one-electron contribution =  -23043.00421992 Ry
     hartree contribution      =   11612.13400333 Ry
     xc contribution           =    -487.44172208 Ry
     ewald contribution        =    8975.41141365 Ry
     electric field correction =       0.00087907 Ry

     convergence has been achieved in  68 iterations

     Forces acting on atoms (cartesian axes, Ry/au):

     atom    1 type  1   force =     0.00001417   -0.00049758    0.12493986
     atom    2 type  1   force =    -0.00013531   -0.00063003   -0.16061865
     atom    3 type  2   force =     0.00017231   -0.00022313   -0.06928915
     atom    4 type  2   force =    -0.00004155   -0.00027970    0.02766271
     atom    5 type  2   force =    -0.01719239    0.00222255   -0.00887288
     atom    6 type  2   force =     0.01887385    0.00287305   -0.00919468
     atom    7 type  1   force =     0.00088335   -0.00375521    0.02224459
     atom    8 type  1   force =    -0.00036343   -0.00327580    0.11344363
     atom    9 type  2   force =     0.00050243   -0.00039718    0.00010533
     atom   10 type  2   force =    -0.00234778    0.00260207   -0.07311838
     atom   11 type  2   force =     0.00012437   -0.00096096   -0.00009183
     atom   12 type  2   force =     0.00000345   -0.00059786   -0.00001460
     atom   13 type  1   force =     0.00021524   -0.00019337   -0.00038657
     atom   14 type  1   force =    -0.00007755   -0.00053484   -0.00010076
     atom   15 type  2   force =    -0.00036123   -0.00092285    0.00099433
     atom   16 type  2   force =    -0.00013076   -0.00017104    0.00051327
     atom   17 type  2   force =     0.00093017   -0.00042025   -0.00032233
     atom   18 type  2   force =    -0.00062400   -0.00046080   -0.00028837
     atom   19 type  1   force =    -0.00025147    0.00007335   -0.00056005
     atom   20 type  1   force =     0.00059430   -0.00068587   -0.00087342
     atom   21 type  2   force =     0.00005205   -0.00006234    0.09968302
     atom   22 type  2   force =     0.00015526   -0.00033996   -0.00081776
     atom   23 type  2   force =    -0.07920301   -0.00006080   -0.03252001
     atom   24 type  2   force =     0.07905974    0.00037075   -0.03254859
     atom   25 type  1   force =     0.00002526   -0.00049287    0.12427609
     atom   26 type  1   force =    -0.00012219   -0.00048368   -0.16062317
     atom   27 type  2   force =     0.00028201   -0.00044555   -0.06829503
     atom   28 type  2   force =     0.00000314   -0.00013839    0.02751926
     atom   29 type  2   force =    -0.01765093    0.00173175   -0.00894463
     atom   30 type  2   force =     0.01922364    0.00199472   -0.00928338
     atom   31 type  1   force =     0.00080449   -0.00115670    0.02186679
     atom   32 type  1   force =    -0.00029640    0.00070632    0.11409318
     atom   33 type  2   force =    -0.00007931    0.00003977   -0.00051744
     atom   34 type  2   force =    -0.00201816    0.00206030   -0.07179080
     atom   35 type  2   force =     0.00000949   -0.00020327    0.00014324
     atom   36 type  2   force =    -0.00051475    0.00021785    0.00023746
     atom   37 type  1   force =     0.00086623    0.00095740   -0.00034981
     atom   38 type  1   force =    -0.00020290    0.00027115   -0.00024098
     atom   39 type  2   force =    -0.00002074   -0.00030781    0.00003599
     atom   40 type  2   force =    -0.00001067   -0.00019527   -0.00019702
     atom   41 type  2   force =     0.00023115   -0.00043586   -0.00029087
     atom   42 type  2   force =    -0.00002869   -0.00039987   -0.00033101
     atom   43 type  1   force =    -0.00037066    0.00007492   -0.00045611
     atom   44 type  1   force =     0.00002172    0.00119847   -0.00010213
     atom   45 type  2   force =     0.00004004   -0.00007569    0.09970375
     atom   46 type  2   force =    -0.07920500   -0.00002957   -0.03252567
     atom   47 type  2   force =     0.07905988    0.00041426   -0.03252827
     atom   48 type  3   force =    -0.00026887    0.00272239   -0.00056044
     atom   49 type  3   force =    -0.00074449   -0.00084523    0.00016656
     atom   50 type  4   force =    -0.00024278   -0.01956792    0.00069399
     atom   51 type  5   force =    -0.00074789    0.00954729    0.00264814
     atom   52 type  5   force =     0.00353795    0.00486747   -0.00236398
     atom   53 type  5   force =    -0.00333438    0.00360663   -0.00061519
     atom   54 type  5   force =     0.00050764   -0.00008103   -0.00010570
     atom   55 type  5   force =     0.00031864    0.00095910   -0.00053777
     atom   56 type  5   force =     0.00007532   -0.00018332   -0.00069376

     Total force =     0.427160     Total SCF correction =     0.000488
  @ DRIVER MODE: Message from server: STATUS
  @ DRIVER MODE: Message from server: GETFORCE
  @ DRIVER MODE: Returning v,forces,stress,ensemble

     Writing output data file ./calc.save/
  @ DRIVER MODE: Message from server: EXIT
  @ DRIVE MODE: Exiting

     General routines

     Parallel routines

   This run was terminated on:   3:28:22   9Sep2021

   JOB DONE.