     Program PWSCF v.6.7GPU starts on 15Sep2021 at 20:23:24

     R & G space division:  proc/nbgrp/npool/nimage =      10
     Reading input from /storage/home/hcoda1/3/ntian30/research/carbon/CxH_vib/H2O_calc/ads_slab/CH2OH2O_a/out_0014/pw.inp
Warning: card &CELL ignored
Warning: card   CELL_DYNAMICS='IPI', ignored
Warning: card / ignored

     Current dimensions of program PWSCF are:
     Max number of different atomic species (ntypx) = 10
     Max number of k-points (npk) =  40000
     Max angular momentum in pseudopotentials (lmaxx) =  3
     Presently no symmetry can be used with electric field

     Message from routine cell_base_init:
     DEPRECATED: use true lattice parameter, not A to a.u. conversion factor

     IMPORTANT: XC functional enforced from input :
     Exchange-correlation= BEEF-VDW
                           (   1   4  43  14   2   0   0)
     Any further DFT definition will be discarded
     Please, verify this is what you really want

  @ DRIVER MODE: Connecting to
 qe_1139763_2852613.sched-torque.pace.gatech.eduvyafd04e_scratch
  using UNIX socket
  @ DRIVER MODE: Message from server: STATUS
  @ DRIVER MODE: Message from server: INIT
  @ DRIVER MODE: Receiving replica           0          -1
  @ DRIVER MODE: Receiving encoded integer          25
  @ DRIVER MODE:  SCF:  T  FORCE:  T  STRESS:  F  VC:  F  ENSEMBLE:  F
  @ DRIVER MODE:  SCF:  T  FORCE:  T  STRESS:  F  VC:  F  ENSEMBLE:  F

     Using Slab Decomposition

     bravais-lattice index     =            0
     lattice parameter (alat)  =       1.8897  a.u.
     unit-cell volume          =    6658.9804 (a.u.)^3
     number of atoms/cell      =           54
     number of atomic types    =            4
     number of electrons       =       398.00
     number of Kohn-Sham states=          209
     kinetic-energy cutoff     =      29.3995  Ry
     charge density cutoff     =     293.9946  Ry
     scf convergence threshold =      7.3E-08
     mixing beta               =       0.0500
     number of iterations used =            8  plain     mixing
     Exchange-correlation= BEEF-VDW
                           (   1   4  43  14   2   0   0)

     celldm(1)=   1.889726  celldm(2)=   0.000000  celldm(3)=   0.000000
     celldm(4)=   0.000000  celldm(5)=   0.000000  celldm(6)=   0.000000

     crystal axes: (cart. coord. in units of alat)
               a(1) = (   6.579727   0.000000   0.000000 )
               a(2) = (  -0.000775   5.961596   0.000000 )
               a(3) = (   0.000000   0.000000  25.155947 )

     reciprocal axes: (cart. coord. in units 2 pi/alat)
               b(1) = (  0.151982  0.000020  0.000000 )
               b(2) = (  0.000000  0.167740  0.000000 )
               b(3) = (  0.000000  0.000000  0.039752 )

     PseudoPot. # 1 for O  read from file:
     /storage/coda1/p-amedford6/0/shared/rich_project_chbe-medford/medford-share/data/pseudos_module/espresso/nninc/pbe/van/O.UPF
     MD5 check sum: 78c19812648e8988a0fe644b0f25305e
     Pseudo is Ultrasoft, Zval =  6.0
     Generated by new atomic code, or converted to UPF format
     Using radial grid of  737 points,  4 beta functions with:
                l(1) =   0
                l(2) =   0
                l(3) =   1
                l(4) =   1
     Q(r) pseudized with  8 coefficients,  rinner =    0.800   0.800   0.800

     PseudoPot. # 2 for Ti read from file:
     /storage/coda1/p-amedford6/0/shared/rich_project_chbe-medford/medford-share/data/pseudos_module/espresso/nninc/pbe/van/Ti.UPF
     MD5 check sum: 8e4df49b7f0d34bbd5052bf3f5ea0213
     Pseudo is Ultrasoft, Zval = 12.0
     Generated by new atomic code, or converted to UPF format
     Using radial grid of  851 points,  6 beta functions with:
                l(1) =   0
                l(2) =   0
                l(3) =   1
                l(4) =   1
                l(5) =   2
                l(6) =   2
     Q(r) pseudized with  8 coefficients,  rinner =    1.000   1.000   1.000
                                                       1.000   1.000

     PseudoPot. # 3 for C  read from file:
     /storage/coda1/p-amedford6/0/shared/rich_project_chbe-medford/medford-share/data/pseudos_module/espresso/nninc/pbe/van/C.UPF
     MD5 check sum: 1a69bf6b8db32088f5b2163dbdb77a27
     Pseudo is Ultrasoft, Zval =  4.0
     Generated by new atomic code, or converted to UPF format
     Using radial grid of  721 points,  4 beta functions with:
                l(1) =   0
                l(2) =   0
                l(3) =   1
                l(4) =   1
     Q(r) pseudized with  8 coefficients,  rinner =    0.800   0.800   0.800

     PseudoPot. # 4 for H  read from file:
     /storage/coda1/p-amedford6/0/shared/rich_project_chbe-medford/medford-share/data/pseudos_module/espresso/nninc/pbe/van/H.UPF
     MD5 check sum: b5ee9d7bfd3a09ee7748110bda690ff7
     Pseudo is Ultrasoft, Zval =  1.0
     Generated by new atomic code, or converted to UPF format
     Using radial grid of  615 points,  1 beta functions with:
                l(1) =   0
     Q(r) pseudized with  8 coefficients,  rinner =    0.800

     atomic species   valence    mass     pseudopotential
        O1             6.00    15.99900     O ( 1.00)
        Ti1           12.00    47.86700     Ti( 1.00)
        C1             4.00    12.01100     C ( 1.00)
        H1             1.00     1.00800     H ( 1.00)

     No symmetry found

   Cartesian axes

     site n.     atom                  positions (alat units)
         1           O1  tau(   1) = (   3.2904802   0.0005063   4.7018136  )
         2           O1  tau(   2) = (   3.2900926   2.9813045   4.7018136  )
         3           Ti1 tau(   3) = (   0.0004258   2.9801865   6.0000000  )
         4           Ti1 tau(   4) = (   0.0000382   5.9609847   6.0000000  )
         5           Ti1 tau(   5) = (   3.2906075   1.4906267   6.0002472  )
         6           Ti1 tau(   6) = (   3.2902200   4.4714249   6.0002472  )
         7           O1  tau(   7) = (   1.3043587   1.4918075   6.0039043  )
         8           O1  tau(   8) = (   1.3039711   4.4726057   6.0039043  )
         9           O1  tau(   9) = (   5.2767064   1.4903225   6.0039473  )
        10           O1  tau(  10) = (   5.2763189   4.4711207   6.0039473  )
        11           O1  tau(  11) = (   3.2906025   0.0005020   7.3038282  )
        12           O1  tau(  12) = (   3.2902150   2.9813002   7.3038282  )
        13           O1  tau(  13) = (   0.0006271   0.0005054   7.9858123  )
        14           O1  tau(  14) = (   0.0002396   2.9813036   7.9858123  )
        15           Ti1 tau(  15) = (   3.3036605   0.0548493   9.1550340  )
        16           Ti1 tau(  16) = (   3.3179312   3.0323762   9.1622521  )
        17           Ti1 tau(  17) = (   0.0293130   4.5303424   9.2586280  )
        18           Ti1 tau(  18) = (   0.0255512   1.6071936   9.3606264  )
        19           O1  tau(  19) = (   4.5942328   1.4918067   9.2879030  )
        20           O1  tau(  20) = (   4.5938453   4.4726049   9.2879030  )
        21           O1  tau(  21) = (   1.9868534   1.4903216   9.2879459  )
        22           O1  tau(  22) = (   1.9864658   4.4711199   9.2879459  )
        23           O1  tau(  23) = (   0.0067149   0.0090568  10.6008527  )
        24           O1  tau(  24) = (   0.0066098   2.9904127  10.5810825  )
        25           O1  tau(  25) = (   3.3023248   2.9935247  11.3558429  )
        26           O1  tau(  26) = (   3.3019398   0.0103095  11.3581380  )
        27           Ti1 tau(  27) = (   0.0322082   0.0188897  12.5014682  )
        28           Ti1 tau(  28) = (   3.3323403   4.4947089  12.5096490  )
        29           Ti1 tau(  29) = (   3.3327227   1.5059056  12.5040540  )
        30           Ti1 tau(  30) = (   0.0321551   3.0004163  12.7750784  )
        31           O1  tau(  31) = (   1.2963378   4.4834263  12.6382484  )
        32           O1  tau(  32) = (   1.2968596   1.4996660  12.6342602  )
        33           O1  tau(  33) = (   5.3004736   4.4821179  12.6410582  )
        34           O1  tau(  34) = (   5.3007909   1.4998706  12.6367838  )
        35           O1  tau(  35) = (   3.3017874   2.9879694  13.9086975  )
        36           O1  tau(  36) = (   3.3040514   0.0100701  13.9766235  )
        37           O1  tau(  37) = (   0.0177811   0.0165449  14.6846256  )
        38           O1  tau(  38) = (   0.0218693   2.9952767  14.7100221  )
        39           Ti1 tau(  39) = (   3.3083447   2.9915206  15.7010863  )
        40           Ti1 tau(  40) = (   3.3165693   0.0114089  15.8055842  )
        41           Ti1 tau(  41) = (   0.0300915   4.5703342  15.9344200  )
        42           Ti1 tau(  42) = (   0.0294271   1.3911826  15.9958598  )
        43           O1  tau(  43) = (   4.5666857   4.4545776  16.0545193  )
        44           O1  tau(  44) = (   4.5654216   1.5273373  16.0688375  )
        45           O1  tau(  45) = (   2.0398213   1.5345912  16.0698912  )
        46           O1  tau(  46) = (   2.0372649   4.4468515  16.0554978  )
        47           O1  tau(  47) = (   0.0160947   0.0056016  17.2166677  )
        48           O1  tau(  48) = (   6.5639191   3.0028441  17.4181802  )
        49           C1  tau(  49) = (   6.3909186   3.0704891  18.6902598  )
        50           H1  tau(  50) = (   6.3216585   4.0479728  19.1570877  )
        51           H1  tau(  51) = (   6.3127454   2.1532251  19.2664540  )
        52           O1  tau(  52) = (   3.2659488   5.9319982  18.2141537  )
        53           H1  tau(  53) = (   4.0486762   5.9278262  18.7801078  )
        54           H1  tau(  54) = (   2.4667005   5.9275743  18.7583984  )

     number of k points=    10  Fermi-Dirac smearing, width (Ry)=  0.0073
                       cart. coord. in units 2pi/alat
        k(    1) = (   0.0000000   0.0000000   0.0000000), wk =   0.1250000
        k(    2) = (   0.0000000   0.0419351   0.0000000), wk =   0.2500000
        k(    3) = (   0.0000000  -0.0838702   0.0000000), wk =   0.1250000
        k(    4) = (   0.0379955   0.0000049   0.0000000), wk =   0.2500000
        k(    5) = (   0.0379955   0.0419400   0.0000000), wk =   0.2500000
        k(    6) = (   0.0379955  -0.0838652   0.0000000), wk =   0.2500000
        k(    7) = (   0.0379955  -0.0419301   0.0000000), wk =   0.2500000
        k(    8) = (  -0.0759910  -0.0000099   0.0000000), wk =   0.1250000
        k(    9) = (  -0.0759910   0.0419252   0.0000000), wk =   0.2500000
        k(   10) = (  -0.0759910  -0.0838800   0.0000000), wk =   0.1250000

     Initial potential from superposition of free atoms

     starting charge  381.99917, renormalised to  398.00000

     negative rho (up, down):  1.686E-02 0.000E+00

     %%%%%%%%%%%%%%%%%%%%%%%%%%%%%%%%%%%%%%%%%%%%%%%%%%%%%%%%%%%%%%%%%%%%%%%%
     %                                                                      %
     % You are using vdW-DF, which was implemented by the Thonhauser group. %
     % Please cite the following two papers that made this development      %
     % possible and the two reviews that describe the various versions:     %
     %                                                                      %
     %   T. Thonhauser et al., PRL 115, 136402 (2015).                      %
     %   T. Thonhauser et al., PRB 76, 125112 (2007).                       %
     %   K. Berland et al., Rep. Prog. Phys. 78, 066501 (2015).             %
     %   D.C. Langreth et al., J. Phys.: Condens. Matter 21, 084203 (2009). %
     %                                                                      %
     %                                                                      %
     % If you are calculating the stress with vdW-DF, please also cite:     %
     %                                                                      %
     %   R. Sabatini et al., J. Phys.: Condens. Matter 24, 424209 (2012).   %
     %                                                                      %
     %%%%%%%%%%%%%%%%%%%%%%%%%%%%%%%%%%%%%%%%%%%%%%%%%%%%%%%%%%%%%%%%%%%%%%%%

     Adding external electric field

     Computed dipole along edir(3) :
        Dipole               -9.6373 Ry au,        -24.4955 Debye
        Dipole field         -0.0182 Ry au,

        Potential amp.        1.6859 Ry
        Total length         46.3494 bohr

     Starting wfcs are  300 atomic wfcs
  @ DRIVER MODE: Message from server: STATUS
  @ DRIVER MODE: Message from server: POSDATA
  @ DRIVER MODE: Reading and sharing cell
  @ DRIVER MODE: Reading and sharing positions
  @ DRIVER MODE: Received positions

     Self-consistent Calculation

     iteration #  1     ecut=    29.40 Ry     beta= 0.05
     Davidson diagonalization with overlap
     c_bands:  1 eigenvalues not converged
     c_bands:  3 eigenvalues not converged
     c_bands:  2 eigenvalues not converged
     c_bands:  2 eigenvalues not converged
     c_bands:  2 eigenvalues not converged
     c_bands:  1 eigenvalues not converged
     c_bands:  2 eigenvalues not converged
     c_bands:  1 eigenvalues not converged
     c_bands:  2 eigenvalues not converged
     ethr =  1.00E-05,  avg # of iterations = 19.6

[...]

     total energy              =   -2526.83661423 Ry
     estimated scf accuracy    <    4873.64564651 Ry

     iteration #  2     ecut=    29.40 Ry     beta= 0.05
     Davidson diagonalization with overlap
     ethr =  1.00E-02,  avg # of iterations = 26.3

[...]

     iteration # 58     ecut=    29.40 Ry     beta= 0.05
     Davidson diagonalization with overlap
     c_bands:  1 eigenvalues not converged
     ethr =  2.79E-11,  avg # of iterations = 13.1

[...]

     total energy              =   -2964.99531406 Ry
     estimated scf accuracy    <       0.00000012 Ry

     iteration # 60     ecut=    29.40 Ry     beta= 0.05
     Davidson diagonalization with overlap
     ethr =  2.79E-11,  avg # of iterations = 13.3

     negative rho (up, down):  1.528E-02 0.000E+00

     Adding external electric field

     Computed dipole along edir(3) :
        Dipole                1.2242 Ry au,          3.1115 Debye
        Dipole field          0.0023 Ry au,

        Potential amp.       -0.2141 Ry
        Total length         46.3494 bohr

     End of self-consistent calculation

          k = 0.0000 0.0000 0.0000 ( 18029 PWs)   bands (ev):

   -55.5394 -55.5026 -55.5020 -55.4658 -55.4625 -55.4184 -55.3820 -55.3147
   -55.3018 -55.2795 -55.2684 -55.2592 -55.2180 -55.2095 -54.5502 -54.5162
   -32.0575 -32.0096 -31.8960 -31.8533 -31.8511 -31.8336 -31.8132 -31.8046
   -31.7808 -31.7693 -31.7356 -31.7256 -31.6983 -31.6855 -31.6833 -31.6491
   -31.6460 -31.6395 -31.6347 -31.6316 -31.6030 -31.5976 -31.5900 -31.5855
   -31.5585 -31.5543 -31.5504 -31.5301 -31.5231 -31.5211 -31.4757 -31.4746
   -31.4487 -31.4465 -31.4332 -31.4279 -31.4221 -31.4077 -31.3962 -31.3948
   -31.3917 -31.3755 -30.9598 -30.8636 -30.8412 -30.7763 -30.6902 -30.5791
   -19.3638 -19.1359 -16.2545 -15.9919 -15.8201 -15.7091 -15.6621 -15.4599
   -15.3670 -15.2864 -15.2227 -15.1451 -15.1284 -15.0908 -15.0648 -15.0591
   -15.0539 -15.0053 -14.9962 -14.9568 -14.9449 -14.9436 -14.9248 -14.9061
   -14.8241 -14.7218 -14.6784 -14.6603 -14.6014 -14.5449 -14.5316 -13.0512
   -12.9332  -9.0178  -7.1499  -5.2240  -5.1810  -3.7751  -3.5757  -3.4582
    -3.4236  -3.3879  -3.3191  -3.1382  -3.1294  -3.0366  -2.7994  -2.7089
    -2.6757  -2.6179  -2.6078  -2.5082  -2.4673  -2.3609  -2.3521  -2.3478
    -2.3316  -2.3057  -2.2728  -2.2306  -2.2062  -2.1943  -2.0666  -2.0554
    -1.9273  -1.9213  -1.8979  -1.8432  -1.8382  -1.7962  -1.7833  -1.7795
    -1.7668  -1.7185  -1.7067  -1.5937  -1.5200  -1.4569  -1.3699  -1.2316
    -1.1698  -1.0976  -1.0436  -1.0090  -0.9464  -0.9434  -0.8889  -0.8485
    -0.7901  -0.7788  -0.7713  -0.6748  -0.5759  -0.5541  -0.5239  -0.4456
    -0.3673  -0.2807  -0.2616  -0.2594  -0.2580  -0.2370  -0.0996  -0.0160
     0.0413   0.0464   0.1426   0.1757   0.2110   0.2250   0.2572   0.2779
     0.3339   0.4087   0.4204   0.4336   0.4593   0.5051   0.5107   0.6232
     0.6994   0.7010   0.7372   0.7700   0.9453   0.9803   1.1073   1.2145
     1.3808   1.4739   1.5457   1.6468   2.0599   2.1175   3.6338   3.6755
     3.6906   3.7330   3.7826   3.8092   3.8768   4.0759   4.0923   4.1019
     4.1415

[...]

          k = 0.0380-0.0419 0.0000 ( 17876 PWs)   bands (ev):

[...]

          k =-0.0760-0.0000 0.0000 ( 17886 PWs)   bands (ev):

[...]

          k =-0.0760-0.0839 0.0000 ( 17948 PWs)   bands (ev):

   -55.5280 -55.5139 -55.4852 -55.4823 -55.4610 -55.4082 -55.3922 -55.3112
   -55.2865 -55.2841 -55.2740 -55.2607 -55.2233 -55.2123 -54.5337 -54.5326
   -31.8682 -31.8534 -31.8337 -31.8211 -31.8182 -31.7988 -31.7738 -31.7563
   -31.7432 -31.7384 -31.7377 -31.7302 -31.6967 -31.6625 -31.6564 -31.6528
   -31.6436 -31.6408 -31.6374 -31.6350 -31.6292 -31.6105 -31.6092 -31.6085
   -31.6033 -31.5890 -31.5678 -31.5529 -31.5398 -31.5379 -31.5310 -31.5140
   -31.4964 -31.4919 -31.4853 -31.4835 -31.4657 -31.4472 -31.4424 -31.4366
   -31.4061 -31.3997 -30.8546 -30.8532 -30.7732 -30.7722 -30.7338 -30.7328
   -19.3549 -19.1356 -15.7059 -15.5968 -15.5626 -15.4156 -15.4113 -15.3603
   -15.3520 -15.3163 -15.2363 -15.2328 -15.1830 -15.1637 -15.1292 -15.1056
   -15.0938 -15.0483 -15.0460 -15.0272 -15.0033 -14.9848 -14.9683 -14.9407
   -14.9167 -14.9095 -14.8715 -14.8632 -14.7987 -14.7446 -14.7230 -13.0356
   -13.0334  -9.0187  -7.1473  -5.2011  -5.1576  -3.7314  -3.1567  -2.9898
    -2.8027  -2.7869  -2.6547  -2.6199  -2.6018  -2.5114  -2.4781  -2.4445
    -2.3814  -2.3705  -2.3640  -2.3424  -2.3374  -2.3236  -2.3026  -2.2654
    -2.2555  -2.2238  -2.1941  -2.1802  -2.1596  -2.1498  -2.1213  -2.1019
    -2.0892  -2.0856  -2.0236  -1.9958  -1.9103  -1.8444  -1.7633  -1.7111
    -1.6795  -1.6772  -1.6410  -1.6024  -1.5948  -1.5795  -1.4336  -1.3842
    -1.2615  -1.2482  -1.2289  -1.1528  -1.1371  -1.1029  -1.0976  -1.0313
    -0.9442  -0.9403  -0.9180  -0.8891  -0.8016  -0.7335  -0.6924  -0.6564
    -0.6126  -0.5826  -0.5089  -0.4953  -0.4845  -0.4220  -0.3816  -0.2965
    -0.2828  -0.2637  -0.2126  -0.1836  -0.1487  -0.0799  -0.0620  -0.0390
     0.0418   0.1079   0.1143   0.3241   0.4866   0.5155   0.5320   0.6168
     0.6636   0.7725   0.7954   0.8049   0.8472   0.8926   0.9801   1.0061
     1.0079   1.0854   1.8342   1.8349   1.9224   1.9329   3.5655   3.8793
     3.9437   3.9670   3.9920   4.1074   4.1100   4.1292   4.1379   4.2804
     4.2940

     the Fermi energy is     3.6120 ev

!    total energy              =   -2964.99538859 Ry
     estimated scf accuracy    <       0.00000004 Ry
     smearing contrib. (-TS)   =      -0.03111046 Ry
     internal energy E=F+TS    =   -2964.96427813 Ry

     The total energy is F=E-TS. E is the sum of the following terms:
     one-electron contribution =  -24342.47751752 Ry
     hartree contribution      =   12264.30008142 Ry
     xc contribution           =    -490.10294688 Ry
     ewald contribution        =    9603.31327689 Ry
     electric field correction =       0.00282796 Ry

     convergence has been achieved in  60 iterations

     Forces acting on atoms (cartesian axes, Ry/au):

     atom    1 type  1   force =    -0.00009645    0.00006758    0.10405934
     atom    2 type  1   force =    -0.00009157    0.00006471    0.10406837
     atom    3 type  2   force =    -0.00028920   -0.00187879    0.10331126
     atom    4 type  2   force =    -0.00016567    0.00151779    0.11464309
     atom    5 type  2   force =    -0.00038531    0.00123694   -0.17933758
     atom    6 type  2   force =    -0.00016794   -0.00076713   -0.17972421
     atom    7 type  1   force =    -0.06939512    0.00065372   -0.02930638
     atom    8 type  1   force =    -0.06894234   -0.00122553   -0.02935371
     atom    9 type  1   force =     0.06904268    0.00114817   -0.02936947
     atom   10 type  1   force =     0.06867427   -0.00080919   -0.02942776
     atom   11 type  1   force =     0.00042066    0.00056934    0.04680612
     atom   12 type  1   force =     0.00063380    0.00080558    0.04851228
     atom   13 type  1   force =     0.00026770   -0.00568091   -0.03323711
     atom   14 type  1   force =     0.00033507    0.00339837   -0.02637028
     atom   15 type  2   force =    -0.00010371   -0.00003536    0.00039251
     atom   16 type  2   force =     0.00001503    0.00001570    0.00050788
     atom   17 type  2   force =    -0.00001923    0.00013470    0.00041847
     atom   18 type  2   force =    -0.00006733   -0.00031819    0.00008339
     atom   19 type  1   force =    -0.01806109   -0.00015729    0.00404252
     atom   20 type  1   force =    -0.01683418    0.00147933    0.00329306
     atom   21 type  1   force =     0.01933455   -0.00136830    0.00448865
     atom   22 type  1   force =     0.01789946    0.00116313    0.00356397
     atom   23 type  1   force =     0.00001803    0.00003308   -0.00014041
     atom   24 type  1   force =    -0.00005402   -0.00000858   -0.00008940
     atom   25 type  1   force =    -0.00004743    0.00000603   -0.00056866
     atom   26 type  1   force =    -0.00023003    0.00014616   -0.00064301
     atom   27 type  2   force =     0.00002452    0.00013115   -0.00045972
     atom   28 type  2   force =     0.00023235    0.00002317   -0.00011473
     atom   29 type  2   force =     0.00022505    0.00001107   -0.00021902
     atom   30 type  2   force =    -0.00009735    0.00018576    0.00018690
     atom   31 type  1   force =    -0.00064044   -0.00024621    0.00053390
     atom   32 type  1   force =    -0.00055511    0.00032804    0.00056728
     atom   33 type  1   force =     0.00040224   -0.00014373    0.00035603
     atom   34 type  1   force =     0.00032190    0.00019602    0.00038351
     atom   35 type  1   force =    -0.00014416    0.00000941    0.00022212
     atom   36 type  1   force =    -0.00008586    0.00001215   -0.00020012
     atom   37 type  1   force =    -0.00035568    0.00001194   -0.00018382
     atom   38 type  1   force =    -0.00051924    0.00025932   -0.00001759
     atom   39 type  2   force =    -0.00014513   -0.00008937    0.00135473
     atom   40 type  2   force =     0.00009355    0.00020726   -0.00134793
     atom   41 type  2   force =    -0.00027702   -0.00094786   -0.00062420
     atom   42 type  2   force =    -0.00039470    0.00099050   -0.00049765
     atom   43 type  1   force =    -0.00002159    0.00021579    0.00028275
     atom   44 type  1   force =    -0.00010155   -0.00010234    0.00007529
     atom   45 type  1   force =    -0.00041660   -0.00023678   -0.00000483
     atom   46 type  1   force =    -0.00044246    0.00042901    0.00012849
     atom   47 type  1   force =    -0.00002795   -0.00018687    0.00020576
     atom   48 type  1   force =    -0.00039059   -0.00006259    0.00055487
     atom   49 type  3   force =     0.00097215   -0.00111892   -0.00022574
     atom   50 type  4   force =     0.00005327   -0.00048995    0.00099309
     atom   51 type  4   force =     0.00020237   -0.00020612   -0.00061619
     atom   52 type  1   force =     0.00047300    0.00065973   -0.00052976
     atom   53 type  4   force =     0.00036104   -0.00003164    0.00022743
     atom   54 type  4   force =    -0.00043661    0.00000103   -0.00165375

     Total force =     0.374473     Total SCF correction =     0.000625
  @ DRIVER MODE: Message from server: STATUS
  @ DRIVER MODE: Message from server: GETFORCE
  @ DRIVER MODE: Returning v,forces,stress,ensemble

     Writing output data file ./calc.save/
  @ DRIVER MODE: Message from server: EXIT
  @ DRIVE MODE: Exiting

     General routines

     Parallel routines

   This run was terminated on:  20:40:45  15Sep2021

   JOB DONE.