     Program PWSCF v.6.7GPU starts on 23Sep2021 at 11:32:31

     R & G space division:  proc/nbgrp/npool/nimage =       8
     Reading input from /storage/home/hcoda1/3/ntian30/research/carbon/CxH_vib/H2O_calc/ads_slab/CH3NHHHO_a/out_0002/pw.inp
Warning: card &CELL ignored
Warning: card   CELL_DYNAMICS='IPI', ignored
Warning: card / ignored

     Current dimensions of program PWSCF are:
     Max number of different atomic species (ntypx) = 10
     Max number of k-points (npk) =  40000
     Max angular momentum in pseudopotentials (lmaxx) =  3
     Presently no symmetry can be used with electric field

     Message from routine cell_base_init:
     DEPRECATED: use true lattice parameter, not A to a.u. conversion factor

     IMPORTANT: XC functional enforced from input :
     Exchange-correlation= BEEF-VDW
                           (   1   4  43  14   2   0   0)
     Any further DFT definition will be discarded
     Please, verify this is what you really want

  @ DRIVER MODE: Connecting to
 qe_1139763_2947311.sched-torque.pace.gatech.edu06bfw6pi_scratch
  using UNIX socket
  @ DRIVER MODE: Message from server: STATUS
  @ DRIVER MODE: Message from server: INIT
  @ DRIVER MODE: Receiving replica           0          -1
  @ DRIVER MODE: Receiving encoded integer          25
  @ DRIVER MODE:  SCF:  T  FORCE:  T  STRESS:  F  VC:  F  ENSEMBLE:  F
  @ DRIVER MODE:  SCF:  T  FORCE:  T  STRESS:  F  VC:  F  ENSEMBLE:  F

     Using Slab Decomposition

     bravais-lattice index     =            0
     lattice parameter (alat)  =       1.8897  a.u.
     unit-cell volume          =    6658.9804 (a.u.)^3
     number of atoms/cell      =           56
     number of atomic types    =            5
     number of electrons       =       399.00
     number of Kohn-Sham states=          209
     kinetic-energy cutoff     =      29.3995  Ry
     charge density cutoff     =     293.9946  Ry
     scf convergence threshold =      7.3E-08
     mixing beta               =       0.0500
     number of iterations used =            8  plain     mixing
     Exchange-correlation= BEEF-VDW
                           (   1   4  43  14   2   0   0)

     celldm(1)=   1.889726  celldm(2)=   0.000000  celldm(3)=   0.000000
     celldm(4)=   0.000000  celldm(5)=   0.000000  celldm(6)=   0.000000

     crystal axes: (cart. coord. in units of alat)
               a(1) = (   6.579727   0.000000   0.000000 )
               a(2) = (  -0.000775   5.961596   0.000000 )
               a(3) = (   0.000000   0.000000  25.155947 )

     reciprocal axes: (cart. coord. in units 2 pi/alat)
               b(1) = (  0.151982  0.000020  0.000000 )
               b(2) = (  0.000000  0.167740  0.000000 )
               b(3) = (  0.000000  0.000000  0.039752 )

     PseudoPot. # 1 for Ti read from file:
     /storage/coda1/p-amedford6/0/shared/rich_project_chbe-medford/medford-share/data/pseudos_module/espresso/nninc/pbe/van/Ti.UPF
     MD5 check sum: 8e4df49b7f0d34bbd5052bf3f5ea0213
     Pseudo is Ultrasoft, Zval = 12.0
     Generated by new atomic code, or converted to UPF format
     Using radial grid of  851 points,  6 beta functions with:
                l(1) =   0
                l(2) =   0
                l(3) =   1
                l(4) =   1
                l(5) =   2
                l(6) =   2
     Q(r) pseudized with  8 coefficients,  rinner =    1.000   1.000   1.000
                                                       1.000   1.000

     PseudoPot. # 2 for O  read from file:
     /storage/coda1/p-amedford6/0/shared/rich_project_chbe-medford/medford-share/data/pseudos_module/espresso/nninc/pbe/van/O.UPF
     MD5 check sum: 78c19812648e8988a0fe644b0f25305e
     Pseudo is Ultrasoft, Zval =  6.0
     Generated by new atomic code, or converted to UPF format
     Using radial grid of  737 points,  4 beta functions with:
                l(1) =   0
                l(2) =   0
                l(3) =   1
                l(4) =   1
     Q(r) pseudized with  8 coefficients,  rinner =    0.800   0.800   0.800

     PseudoPot. # 3 for N  read from file:
     /storage/coda1/p-amedford6/0/shared/rich_project_chbe-medford/medford-share/data/pseudos_module/espresso/nninc/pbe/van/N.UPF
     MD5 check sum: 90d10febe142ad51ac9d5be1deb811c4
     Pseudo is Ultrasoft, Zval =  5.0
     Generated by new atomic code, or converted to UPF format
     Using radial grid of  729 points,  4 beta functions with:
                l(1) =   0
                l(2) =   0
                l(3) =   1
                l(4) =   1
     Q(r) pseudized with  8 coefficients,  rinner =    0.800   0.800   0.800

     PseudoPot. # 4 for C  read from file:
     /storage/coda1/p-amedford6/0/shared/rich_project_chbe-medford/medford-share/data/pseudos_module/espresso/nninc/pbe/van/C.UPF
     MD5 check sum: 1a69bf6b8db32088f5b2163dbdb77a27
     Pseudo is Ultrasoft, Zval =  4.0
     Generated by new atomic code, or converted to UPF format
     Using radial grid of  721 points,  4 beta functions with:
                l(1) =   0
                l(2) =   0
                l(3) =   1
                l(4) =   1
     Q(r) pseudized with  8 coefficients,  rinner =    0.800   0.800   0.800

     PseudoPot. # 5 for H  read from file:
     /storage/coda1/p-amedford6/0/shared/rich_project_chbe-medford/medford-share/data/pseudos_module/espresso/nninc/pbe/van/H.UPF
     MD5 check sum: b5ee9d7bfd3a09ee7748110bda690ff7
     Pseudo is Ultrasoft, Zval =  1.0
     Generated by new atomic code, or converted to UPF format
     Using radial grid of  615 points,  1 beta functions with:
                l(1) =   0
     Q(r) pseudized with  8 coefficients,  rinner =    0.800

     atomic species   valence    mass     pseudopotential
        Ti1           12.00    47.86700     Ti( 1.00)
        O1             6.00    15.99900     O ( 1.00)
        N1             5.00    14.00700     N ( 1.00)
        C1             4.00    12.01100     C ( 1.00)
        H1             1.00     1.00800     H ( 1.00)

     No symmetry found

   Cartesian axes

     site n.     atom                  positions (alat units)
         1           Ti1 tau(   1) = (   0.0004258   2.9801865   6.0000000  )
         2           Ti1 tau(   2) = (   3.2906075   1.4906267   6.0002472  )
         3           O1  tau(   3) = (   0.0006271   0.0005054   7.9858123  )
         4           O1  tau(   4) = (   3.2906025   0.0005020   7.3038282  )
         5           O1  tau(   5) = (   4.5942328   1.4918067   9.2879030  )
         6           O1  tau(   6) = (   1.9868534   1.4903216   9.2879459  )
         7           Ti1 tau(   7) = (   3.2907910   2.8959150   9.1758416  )
         8           Ti1 tau(   8) = (   0.0015273   1.4827037   9.2680791  )
         9           O1  tau(   9) = (   3.2949530   5.9481847  11.3666340  )
        10           O1  tau(  10) = (   0.0116148   5.9584955  10.6183126  )
        11           O1  tau(  11) = (   1.2732546   1.4916747  12.6876809  )
        12           O1  tau(  12) = (   5.3119445   1.4892451  12.6851550  )
        13           Ti1 tau(  13) = (   6.5688325   2.9465269  12.5174317  )
        14           Ti1 tau(  14) = (   3.2996026   1.2975375  12.7241829  )
        15           O1  tau(  15) = (   0.0172205   5.8793003  14.6619373  )
        16           O1  tau(  16) = (   3.2917661   0.0702926  14.0149596  )
        17           O1  tau(  17) = (   4.5643074   1.5920826  16.1346482  )
        18           O1  tau(  18) = (   2.0131957   1.5841813  16.0575481  )
        19           Ti1 tau(  19) = (   3.2662748   3.0407108  15.6947786  )
        20           Ti1 tau(  20) = (   0.0618610   1.3206105  15.7998127  )
        21           O1  tau(  21) = (   3.2904802   0.0005063   4.7018136  )
        22           O1  tau(  22) = (   0.0233933   0.1570098  17.1842078  )
        23           O1  tau(  23) = (   1.3043587   1.4918075   6.0039043  )
        24           O1  tau(  24) = (   5.2767064   1.4903225   6.0039473  )
        25           Ti1 tau(  25) = (   0.0000382   5.9609847   6.0000000  )
        26           Ti1 tau(  26) = (   3.2902200   4.4714249   6.0002472  )
        27           O1  tau(  27) = (   0.0002396   2.9813036   7.9858123  )
        28           O1  tau(  28) = (   3.2902150   2.9813002   7.3038282  )
        29           O1  tau(  29) = (   4.5938453   4.4726049   9.2879030  )
        30           O1  tau(  30) = (   1.9864658   4.4711199   9.2879459  )
        31           Ti1 tau(  31) = (   3.2891106   5.8743827   9.1763621  )
        32           Ti1 tau(  32) = (   0.0006254   4.4649316   9.2693709  )
        33           O1  tau(  33) = (   3.2948289   2.9949798  11.3176834  )
        34           O1  tau(  34) = (   0.0092240   2.9805883  10.6323155  )
        35           O1  tau(  35) = (   1.2828652   4.4571597  12.6432593  )
        36           O1  tau(  36) = (   5.3079144   4.4605214  12.6419564  )
        37           Ti1 tau(  37) = (   0.0266940   5.9154698  12.5044250  )
        38           Ti1 tau(  38) = (   3.3008436   4.3760658  12.4353554  )
        39           O1  tau(  39) = (   6.5507285   3.0461080  14.9005035  )
        40           O1  tau(  40) = (   3.2938476   3.0131494  13.9233183  )
        41           O1  tau(  41) = (   4.5350990   4.4864192  16.1518712  )
        42           O1  tau(  42) = (   1.9883536   4.4285065  16.1690201  )
        43           Ti1 tau(  43) = (   3.3916644   0.0784854  16.2809578  )
        44           Ti1 tau(  44) = (   0.0590441   4.5159846  16.0209683  )
        45           O1  tau(  45) = (   3.2900926   2.9813045   4.7018136  )
        46           O1  tau(  46) = (   1.3039711   4.4726057   6.0039043  )
        47           O1  tau(  47) = (   5.2763189   4.4711207   6.0039473  )
        48           N1  tau(  48) = (   6.2806434   3.3837210  18.0754458  )
        49           C1  tau(  49) = (   0.7642246   3.1223808  19.0622891  )
        50           H1  tau(  50) = (   1.3158356   4.0410886  19.2409436  )
        51           H1  tau(  51) = (   0.3597117   2.7583523  20.0089400  )
        52           H1  tau(  52) = (   1.4517744   2.3810259  18.6668870  )
        53           H1  tau(  53) = (   5.6745199   4.1349376  18.4206214  )
        54           H1  tau(  54) = (   5.6587021   2.5696541  18.0151127  )
        55           O1  tau(  55) = (   3.1972372   0.0910451  18.1323504  )
        56           H1  tau(  56) = (   2.2767176   0.1080423  18.4377142  )

     number of k points=    10  Fermi-Dirac smearing, width (Ry)=  0.0073
                       cart. coord. in units 2pi/alat
        k(    1) = (   0.0000000   0.0000000   0.0000000), wk =   0.1250000
        k(    2) = (   0.0000000   0.0419351   0.0000000), wk =   0.2500000
        k(    3) = (   0.0000000  -0.0838702   0.0000000), wk =   0.1250000
        k(    4) = (   0.0379955   0.0000049   0.0000000), wk =   0.2500000
        k(    5) = (   0.0379955   0.0419400   0.0000000), wk =   0.2500000
        k(    6) = (   0.0379955  -0.0838652   0.0000000), wk =   0.2500000
        k(    7) = (   0.0379955  -0.0419301   0.0000000), wk =   0.2500000
        k(    8) = (  -0.0759910  -0.0000099   0.0000000), wk =   0.1250000
        k(    9) = (  -0.0759910   0.0419252   0.0000000), wk =   0.2500000
        k(   10) = (  -0.0759910  -0.0838800   0.0000000), wk =   0.1250000

     Initial potential from superposition of free atoms

     starting charge  382.99914, renormalised to  399.00000

     negative rho (up, down):  1.588E-02 0.000E+00

     %%%%%%%%%%%%%%%%%%%%%%%%%%%%%%%%%%%%%%%%%%%%%%%%%%%%%%%%%%%%%%%%%%%%%%%%
     %                                                                      %
     % You are using vdW-DF, which was implemented by the Thonhauser group. %
     % Please cite the following two papers that made this development      %
     % possible and the two reviews that describe the various versions:     %
     %                                                                      %
     %   T. Thonhauser et al., PRL 115, 136402 (2015).                      %
     %   T. Thonhauser et al., PRB 76, 125112 (2007).                       %
     %   K. Berland et al., Rep. Prog. Phys. 78, 066501 (2015).             %
     %   D.C. Langreth et al., J. Phys.: Condens. Matter 21, 084203 (2009). %
     %                                                                      %
     %                                                                      %
     % If you are calculating the stress with vdW-DF, please also cite:     %
     %                                                                      %
     %   R. Sabatini et al., J. Phys.: Condens. Matter 24, 424209 (2012).   %
     %                                                                      %
     %%%%%%%%%%%%%%%%%%%%%%%%%%%%%%%%%%%%%%%%%%%%%%%%%%%%%%%%%%%%%%%%%%%%%%%%

     Adding external electric field

     Computed dipole along edir(3) :
        Dipole              -10.6962 Ry au,        -27.1870 Debye
        Dipole field         -0.0202 Ry au,

        Potential amp.        1.8711 Ry
        Total length         46.3494 bohr

     Starting wfcs are  302 atomic wfcs
  @ DRIVER MODE: Message from server: STATUS
  @ DRIVER MODE: Message from server: POSDATA
  @ DRIVER MODE: Reading and sharing cell
  @ DRIVER MODE: Reading and sharing positions
  @ DRIVER MODE: Received positions

     Self-consistent Calculation

     iteration #  1     ecut=    29.40 Ry     beta= 0.05
     Davidson diagonalization with overlap
     c_bands:  3 eigenvalues not converged
     c_bands:  2 eigenvalues not converged
     c_bands:  2 eigenvalues not converged
     c_bands:  5 eigenvalues not converged
     c_bands:  2 eigenvalues not converged
     c_bands:  5 eigenvalues not converged
     c_bands:  4 eigenvalues not converged
     c_bands:  3 eigenvalues not converged
     ethr =  1.00E-05,  avg # of iterations = 21.6

[...]

     total energy              =   -2438.26633186 Ry
     estimated scf accuracy    <    5770.40750022 Ry

     iteration #  2     ecut=    29.40 Ry     beta= 0.05
     Davidson diagonalization with overlap
     ethr =  1.00E-02,  avg # of iterations = 23.9

[...]

     iteration # 59     ecut=    29.40 Ry     beta= 0.05
     Davidson diagonalization with overlap
     c_bands:  1 eigenvalues not converged
     c_bands:  1 eigenvalues not converged
     ethr =  3.15E-11,  avg # of iterations = 17.9

[...]

     total energy              =   -2955.26271319 Ry
     estimated scf accuracy    <       0.00000014 Ry

     iteration # 60     ecut=    29.40 Ry     beta= 0.05
     Davidson diagonalization with overlap
     ethr =  3.15E-11,  avg # of iterations =  8.4

     negative rho (up, down):  1.647E-02 0.000E+00

     Adding external electric field

     Computed dipole along edir(3) :
        Dipole                0.9731 Ry au,          2.4733 Debye
        Dipole field          0.0018 Ry au,

        Potential amp.       -0.1702 Ry
        Total length         46.3494 bohr

     End of self-consistent calculation

          k = 0.0000 0.0000 0.0000 ( 18029 PWs)   bands (ev):

   -55.6837 -55.6373 -55.6032 -55.5124 -55.5026 -55.4670 -55.4664 -55.4643
   -55.4323 -55.4188 -55.3681 -55.2730 -55.2262 -55.2129 -54.6131 -54.5790
   -32.1227 -32.0205 -32.0119 -31.9887 -31.9692 -31.9571 -31.9281 -31.9020
   -31.8949 -31.8833 -31.8832 -31.7903 -31.7899 -31.7748 -31.7496 -31.7457
   -31.7446 -31.7432 -31.7422 -31.7062 -31.6948 -31.6654 -31.6625 -31.6564
   -31.6508 -31.6447 -31.6367 -31.6064 -31.6036 -31.5985 -31.5934 -31.5901
   -31.5792 -31.5640 -31.5494 -31.5242 -31.4644 -31.4557 -31.4453 -31.4219
   -31.4194 -31.4147 -31.0191 -30.9327 -30.9102 -30.8367 -30.7503 -30.6385
   -16.5116 -16.2967 -16.1507 -15.9822 -15.8414 -15.8119 -15.7731 -15.5992
   -15.5065 -15.4430 -15.2423 -15.2217 -15.1760 -15.1642 -15.1592 -15.1364
   -15.1266 -15.0817 -15.0632 -15.0598 -15.0500 -15.0323 -14.9959 -14.9535
   -14.9108 -14.8894 -14.7770 -14.7205 -14.6798 -14.4687 -14.3993 -13.1116
   -12.9952  -9.9749  -5.9739  -4.6286  -4.0642  -3.7719  -3.6452  -3.5473
    -3.5359  -3.4171  -3.4070  -3.1661  -3.0425  -2.9829  -2.9052  -2.7825
    -2.7500  -2.6731  -2.6304  -2.5851  -2.5685  -2.5311  -2.4881  -2.4488
    -2.4236  -2.3956  -2.3608  -2.3056  -2.2944  -2.1959  -2.1822  -2.1580
    -2.0539  -2.0125  -1.9726  -1.9547  -1.9498  -1.9302  -1.8919  -1.8857
    -1.8659  -1.7877  -1.7187  -1.6722  -1.6372  -1.6096  -1.3320  -1.2469
    -1.2031  -1.1883  -1.0847  -1.0609  -1.0328  -1.0187  -0.9824  -0.9647
    -0.8538  -0.8367  -0.7678  -0.7191  -0.7016  -0.6674  -0.5491  -0.5125
    -0.4611  -0.4216  -0.3710  -0.3527  -0.3493  -0.2533  -0.2270  -0.1918
    -0.0834  -0.0675  -0.0044   0.0810   0.0907   0.1415   0.1665   0.2259
     0.2302   0.2846   0.3144   0.3366   0.3902   0.4225   0.4587   0.4918
     0.5088   0.6113   0.6864   0.6993   0.7964   0.8712   0.9247   1.0283
     1.0962   1.3599   1.4135   1.4374   1.6054   1.9808   2.0262   3.4445
     3.5934   3.6090   3.6837   3.6963   3.7733   3.9339   3.9587   4.0937
     4.1330

[...]

          k = 0.0380-0.0419 0.0000 ( 17876 PWs)   bands (ev):

[...]

          k =-0.0760-0.0000 0.0000 ( 17886 PWs)   bands (ev):

[...]

          k =-0.0760-0.0839 0.0000 ( 17948 PWs)   bands (ev):

   -55.6828 -55.6204 -55.6200 -55.5112 -55.4914 -55.4755 -55.4679 -55.4500
   -55.4482 -55.4124 -55.3745 -55.2683 -55.2272 -55.2175 -54.5965 -54.5955
   -31.9535 -31.9456 -31.9381 -31.9378 -31.9303 -31.9138 -31.9133 -31.8974
   -31.8528 -31.8115 -31.7935 -31.7807 -31.7766 -31.7751 -31.7533 -31.7433
   -31.7403 -31.7397 -31.7292 -31.7254 -31.7177 -31.7168 -31.7022 -31.6783
   -31.6721 -31.6677 -31.6584 -31.6479 -31.6322 -31.6317 -31.6296 -31.6242
   -31.6224 -31.5972 -31.5966 -31.5555 -31.5310 -31.4947 -31.4687 -31.4638
   -31.4477 -31.4187 -30.9233 -30.9226 -30.8326 -30.8313 -30.7939 -30.7931
   -16.4815 -15.9469 -15.8593 -15.7451 -15.6221 -15.6088 -15.4977 -15.4150
   -15.4112 -15.3808 -15.3500 -15.3221 -15.3127 -15.2964 -15.2485 -15.2052
   -15.1700 -15.1422 -15.1402 -15.0945 -15.0873 -15.0758 -15.0633 -15.0410
   -15.0072 -14.9576 -14.9431 -14.9038 -14.7664 -14.6889 -14.5910 -13.0972
   -13.0967  -9.9770  -5.9538  -4.6260  -4.0255  -3.7331  -3.0562  -2.9602
    -2.8485  -2.7221  -2.7106  -2.6911  -2.6428  -2.6111  -2.5856  -2.5443
    -2.4874  -2.4652  -2.4466  -2.4306  -2.4085  -2.3909  -2.3820  -2.3768
    -2.3402  -2.3227  -2.3144  -2.2733  -2.2657  -2.2473  -2.2273  -2.2117
    -2.1810  -2.1760  -2.1470  -2.0940  -2.0459  -1.9724  -1.8794  -1.7983
    -1.7872  -1.7688  -1.7193  -1.7127  -1.6672  -1.6593  -1.6346  -1.5479
    -1.4369  -1.3863  -1.2759  -1.2552  -1.2290  -1.1880  -1.1367  -1.1220
    -1.0770  -1.0460  -0.9863  -0.8854  -0.8554  -0.8003  -0.6868  -0.6494
    -0.6111  -0.5909  -0.5788  -0.5537  -0.5369  -0.4975  -0.4692  -0.4222
    -0.3813  -0.3476  -0.3208  -0.2950  -0.2496  -0.1465  -0.0520  -0.0152
     0.0869   0.1327   0.1753   0.2071   0.2691   0.4029   0.4299   0.5260
     0.5408   0.5698   0.6714   0.6816   0.7830   0.8073   0.8451   0.8860
     0.9107   0.9320   0.9515   1.7751   1.7836   1.8465   1.8466   3.7367
     3.9299   3.9450   3.9611   4.0060   4.0131   4.0402   4.0458   4.1130
     4.1237

     the Fermi energy is     3.4833 ev

!    total energy              =   -2955.26276467 Ry
     estimated scf accuracy    <       0.00000005 Ry
     smearing contrib. (-TS)   =      -0.01953192 Ry
     internal energy E=F+TS    =   -2955.24323276 Ry

     The total energy is F=E-TS. E is the sum of the following terms:
     one-electron contribution =  -23741.62683826 Ry
     hartree contribution      =   11962.91986435 Ry
     xc contribution           =    -489.73428744 Ry
     ewald contribution        =    9313.19624177 Ry
     electric field correction =       0.00178683 Ry

     convergence has been achieved in  60 iterations

     Forces acting on atoms (cartesian axes, Ry/au):

     atom    1 type  1   force =     0.00009110   -0.00029242    0.09417453
     atom    2 type  1   force =    -0.00004784    0.00042997   -0.17539040
     atom    3 type  2   force =     0.00003756   -0.00033570   -0.02108883
     atom    4 type  2   force =     0.00002107   -0.00197918    0.05461797
     atom    5 type  2   force =    -0.00674364   -0.00244864    0.00301803
     atom    6 type  2   force =     0.00834529   -0.00187165    0.00243797
     atom    7 type  1   force =    -0.00018811   -0.00404581    0.00898187
     atom    8 type  1   force =     0.00031217    0.00082547    0.00312242
     atom    9 type  2   force =    -0.00058385    0.00058683   -0.00017368
     atom   10 type  2   force =    -0.00139364    0.00173393   -0.00928943
     atom   11 type  2   force =     0.00003788   -0.00015500    0.00036269
     atom   12 type  2   force =    -0.00005688   -0.00010882   -0.00031859
     atom   13 type  1   force =    -0.00048929   -0.00024618    0.00007975
     atom   14 type  1   force =     0.00001463   -0.00031978   -0.00008775
     atom   15 type  2   force =    -0.00028185   -0.00001135   -0.00020038
     atom   16 type  2   force =     0.00033121   -0.00054042   -0.00040755
     atom   17 type  2   force =     0.00047289   -0.00008502   -0.00073419
     atom   18 type  2   force =    -0.00041155    0.00013887   -0.00015651
     atom   19 type  1   force =     0.00036285   -0.00064077    0.00072335
     atom   20 type  1   force =     0.00053091    0.00026024    0.00055743
     atom   21 type  2   force =     0.00007316    0.00004744    0.10326597
     atom   22 type  2   force =    -0.00047745    0.00044777    0.00010887
     atom   23 type  2   force =    -0.07192617   -0.00019048   -0.02721772
     atom   24 type  2   force =     0.07184874    0.00025028   -0.02726292
     atom   25 type  1   force =     0.00002302   -0.00024070    0.09382008
     atom   26 type  1   force =    -0.00006370   -0.00133309   -0.17558955
     atom   27 type  2   force =     0.00015488   -0.00011507   -0.01985344
     atom   28 type  2   force =     0.00006831   -0.00032335    0.04989334
     atom   29 type  2   force =    -0.00613457    0.00232220    0.00252154
     atom   30 type  2   force =     0.00762232    0.00268710    0.00197157
     atom   31 type  1   force =     0.00002742    0.00840850   -0.00273657
     atom   32 type  1   force =     0.00012357   -0.00236673    0.00258553
     atom   33 type  2   force =     0.00004859   -0.00001042   -0.00004693
     atom   34 type  2   force =    -0.00212206   -0.00249006   -0.01005979
     atom   35 type  2   force =    -0.00014714   -0.00001813    0.00051991
     atom   36 type  2   force =    -0.00007502    0.00006917   -0.00008843
     atom   37 type  1   force =     0.00016166   -0.00008860   -0.00020600
     atom   38 type  1   force =     0.00004795   -0.00018138    0.00023458
     atom   39 type  2   force =    -0.00016528    0.00011259   -0.00031142
     atom   40 type  2   force =     0.00016862   -0.00025410   -0.00009461
     atom   41 type  2   force =    -0.00006323   -0.00092224    0.00087788
     atom   42 type  2   force =     0.00066148    0.00009952   -0.00031767
     atom   43 type  1   force =    -0.00091779   -0.00056711    0.00034196
     atom   44 type  1   force =     0.00077498    0.00057650   -0.00032290
     atom   45 type  2   force =     0.00006619   -0.00007293    0.10305707
     atom   46 type  2   force =    -0.07194054   -0.00004429   -0.02724965
     atom   47 type  2   force =     0.07189954    0.00039286   -0.02729993
     atom   48 type  3   force =    -0.01981934    0.00070951   -0.00129536
     atom   49 type  4   force =     0.00569888   -0.00037414    0.00342128
     atom   50 type  5   force =     0.00116030    0.00069329    0.00039926
     atom   51 type  5   force =    -0.00027177    0.00068332    0.00020469
     atom   52 type  5   force =     0.00102367   -0.00035790    0.00003299
     atom   53 type  5   force =     0.00593148   -0.00456234   -0.00345706
     atom   54 type  5   force =     0.00685782    0.00566516   -0.00006799
     atom   55 type  2   force =    -0.00041758    0.00036725    0.00041480
     atom   56 type  5   force =    -0.00026187    0.00008605   -0.00042208

     Total force =     0.363016     Total SCF correction =     0.000759
  @ DRIVER MODE: Message from server: STATUS
  @ DRIVER MODE: Message from server: GETFORCE
  @ DRIVER MODE: Returning v,forces,stress,ensemble

     Writing output data file ./calc.save/
  @ DRIVER MODE: Message from server: EXIT
  @ DRIVE MODE: Exiting

     General routines

     Parallel routines

   This run was terminated on:  11:53:40  23Sep2021

   JOB DONE.