     Program PWSCF v.6.7GPU starts on 18Aug2021 at 16:56:47

     R & G space division:  proc/nbgrp/npool/nimage =       6
     Reading input from /storage/home/hcoda1/3/ntian30/research/carbon/CH3_vib_side_on/ads_slab/CH3N2_c/out_0011/pw.inp
Warning: card &CELL ignored
Warning: card   CELL_DYNAMICS='IPI', ignored
Warning: card / ignored

     Current dimensions of program PWSCF are:
     Max number of different atomic species (ntypx) = 10
     Max number of k-points (npk) =  40000
     Max angular momentum in pseudopotentials (lmaxx) =  3
     Presently no symmetry can be used with electric field

     Message from routine cell_base_init:
     DEPRECATED: use true lattice parameter, not A to a.u. conversion factor

     IMPORTANT: XC functional enforced from input :
     Exchange-correlation= BEEF-VDW
                           (   1   4  43  14   2   0   0)
     Any further DFT definition will be discarded
     Please, verify this is what you really want

  @ DRIVER MODE: Connecting to
 qe_1139763_2594174.sched-torque.pace.gatech.eduyj9vht7y_scratch
  using UNIX socket
  @ DRIVER MODE: Message from server: STATUS
  @ DRIVER MODE: Message from server: INIT
  @ DRIVER MODE: Receiving replica           0          -1
  @ DRIVER MODE: Receiving encoded integer          25
  @ DRIVER MODE:  SCF:  T  FORCE:  T  STRESS:  F  VC:  F  ENSEMBLE:  F
  @ DRIVER MODE:  SCF:  T  FORCE:  T  STRESS:  F  VC:  F  ENSEMBLE:  F

     Using Slab Decomposition

     bravais-lattice index     =            0
     lattice parameter (alat)  =       1.8897  a.u.
     unit-cell volume          =    6658.9804 (a.u.)^3
     number of atoms/cell      =           53
     number of atomic types    =            5
     number of electrons       =       395.00
     number of Kohn-Sham states=          207
     kinetic-energy cutoff     =      29.3995  Ry
     charge density cutoff     =     293.9946  Ry
     scf convergence threshold =      7.3E-08
     mixing beta               =       0.0500
     number of iterations used =            8  plain     mixing
     Exchange-correlation= BEEF-VDW
                           (   1   4  43  14   2   0   0)

     celldm(1)=   1.889726  celldm(2)=   0.000000  celldm(3)=   0.000000
     celldm(4)=   0.000000  celldm(5)=   0.000000  celldm(6)=   0.000000

     crystal axes: (cart. coord. in units of alat)
               a(1) = (   6.579727   0.000000   0.000000 )
               a(2) = (  -0.000775   5.961596   0.000000 )
               a(3) = (   0.000000   0.000000  25.155947 )

     reciprocal axes: (cart. coord. in units 2 pi/alat)
               b(1) = (  0.151982  0.000020  0.000000 )
               b(2) = (  0.000000  0.167740  0.000000 )
               b(3) = (  0.000000  0.000000  0.039752 )

     PseudoPot. # 1 for Ti read from file:
     /storage/coda1/p-amedford6/0/shared/rich_project_chbe-medford/medford-share/data/pseudos_module/espresso/nninc/pbe/van/Ti.UPF
     MD5 check sum: 8e4df49b7f0d34bbd5052bf3f5ea0213
     Pseudo is Ultrasoft, Zval = 12.0
     Generated by new atomic code, or converted to UPF format
     Using radial grid of  851 points,  6 beta functions with:
                l(1) =   0
                l(2) =   0
                l(3) =   1
                l(4) =   1
                l(5) =   2
                l(6) =   2
     Q(r) pseudized with  8 coefficients,  rinner =    1.000   1.000   1.000
                                                       1.000   1.000

     PseudoPot. # 2 for O  read from file:
     /storage/coda1/p-amedford6/0/shared/rich_project_chbe-medford/medford-share/data/pseudos_module/espresso/nninc/pbe/van/O.UPF
     MD5 check sum: 78c19812648e8988a0fe644b0f25305e
     Pseudo is Ultrasoft, Zval =  6.0
     Generated by new atomic code, or converted to UPF format
     Using radial grid of  737 points,  4 beta functions with:
                l(1) =   0
                l(2) =   0
                l(3) =   1
                l(4) =   1
     Q(r) pseudized with  8 coefficients,  rinner =    0.800   0.800   0.800

     PseudoPot. # 3 for N  read from file:
     /storage/coda1/p-amedford6/0/shared/rich_project_chbe-medford/medford-share/data/pseudos_module/espresso/nninc/pbe/van/N.UPF
     MD5 check sum: 90d10febe142ad51ac9d5be1deb811c4
     Pseudo is Ultrasoft, Zval =  5.0
     Generated by new atomic code, or converted to UPF format
     Using radial grid of  729 points,  4 beta functions with:
                l(1) =   0
                l(2) =   0
                l(3) =   1
                l(4) =   1
     Q(r) pseudized with  8 coefficients,  rinner =    0.800   0.800   0.800

     PseudoPot. # 4 for C  read from file:
     /storage/coda1/p-amedford6/0/shared/rich_project_chbe-medford/medford-share/data/pseudos_module/espresso/nninc/pbe/van/C.UPF
     MD5 check sum: 1a69bf6b8db32088f5b2163dbdb77a27
     Pseudo is Ultrasoft, Zval =  4.0
     Generated by new atomic code, or converted to UPF format
     Using radial grid of  721 points,  4 beta functions with:
                l(1) =   0
                l(2) =   0
                l(3) =   1
                l(4) =   1
     Q(r) pseudized with  8 coefficients,  rinner =    0.800   0.800   0.800

     PseudoPot. # 5 for H  read from file:
     /storage/coda1/p-amedford6/0/shared/rich_project_chbe-medford/medford-share/data/pseudos_module/espresso/nninc/pbe/van/H.UPF
     MD5 check sum: b5ee9d7bfd3a09ee7748110bda690ff7
     Pseudo is Ultrasoft, Zval =  1.0
     Generated by new atomic code, or converted to UPF format
     Using radial grid of  615 points,  1 beta functions with:
                l(1) =   0
     Q(r) pseudized with  8 coefficients,  rinner =    0.800

     atomic species   valence    mass     pseudopotential
        Ti1           12.00    47.86700     Ti( 1.00)
        O1             6.00    15.99900     O ( 1.00)
        N1             5.00    14.00700     N ( 1.00)
        C1             4.00    12.01100     C ( 1.00)
        H1             1.00     1.00800     H ( 1.00)

     No symmetry found

   Cartesian axes

     site n.     atom                  positions (alat units)
         1           Ti1 tau(   1) = (   0.0004258   2.9801865   6.0000000  )
         2           Ti1 tau(   2) = (   3.2906075   1.4906267   6.0002472  )
         3           O1  tau(   3) = (   0.0006271   0.0005054   7.9858123  )
         4           O1  tau(   4) = (   3.2906025   0.0005020   7.3038282  )
         5           O1  tau(   5) = (   4.5942328   1.4918067   9.2879030  )
         6           O1  tau(   6) = (   1.9868534   1.4903216   9.2879459  )
         7           Ti1 tau(   7) = (   3.2907910   2.8959150   9.1758416  )
         8           Ti1 tau(   8) = (   0.0015273   1.4827037   9.2680791  )
         9           O1  tau(   9) = (   3.2868105   5.9447858  11.3346005  )
        10           O1  tau(  10) = (   0.0116148   5.9584955  10.6183126  )
        11           O1  tau(  11) = (   1.2897616   1.4699164  12.6258314  )
        12           O1  tau(  12) = (   5.2713851   1.4716199  12.6109895  )
        13           Ti1 tau(  13) = (   0.0629619   2.9460495  12.6207869  )
        14           Ti1 tau(  14) = (   3.3778125   1.4702366  12.4807322  )
        15           O1  tau(  15) = (   6.5741670   5.9392046  14.6271830  )
        16           O1  tau(  16) = (   3.2925211   5.9405975  13.9303826  )
        17           O1  tau(  17) = (   4.5331425   1.4971777  16.0590535  )
        18           O1  tau(  18) = (   2.0416154   1.4974824  16.0477615  )
        19           Ti1 tau(  19) = (   3.2901388   2.9722967  15.7036181  )
        20           Ti1 tau(  20) = (   6.5714728   1.5019933  15.8140906  )
        21           O1  tau(  21) = (   3.2904802   0.0005063   4.7018136  )
        22           O1  tau(  22) = (   6.5775371   0.0159386  17.1814867  )
        23           O1  tau(  23) = (   1.3043587   1.4918075   6.0039043  )
        24           O1  tau(  24) = (   5.2767064   1.4903225   6.0039473  )
        25           Ti1 tau(  25) = (   0.0000382   5.9609847   6.0000000  )
        26           Ti1 tau(  26) = (   3.2902200   4.4714249   6.0002472  )
        27           O1  tau(  27) = (   0.0002396   2.9813036   7.9858123  )
        28           O1  tau(  28) = (   3.2902150   2.9813002   7.3038282  )
        29           O1  tau(  29) = (   4.5938453   4.4726049   9.2879030  )
        30           O1  tau(  30) = (   1.9864658   4.4711199   9.2879459  )
        31           Ti1 tau(  31) = (   3.2891106   5.8743827   9.1763621  )
        32           Ti1 tau(  32) = (   0.0006254   4.4649316   9.2693709  )
        33           O1  tau(  33) = (   3.2909631   2.9655588  11.3316111  )
        34           O1  tau(  34) = (   0.0092240   2.9805883  10.6323155  )
        35           O1  tau(  35) = (   1.2884032   4.4536117  12.6269208  )
        36           O1  tau(  36) = (   5.2752684   4.4605011  12.6109535  )
        37           Ti1 tau(  37) = (   0.0626277   5.9200555  12.5524633  )
        38           Ti1 tau(  38) = (   3.3797810   4.4486816  12.4846537  )
        39           O1  tau(  39) = (   6.5720240   2.9440667  14.6479771  )
        40           O1  tau(  40) = (   3.2941106   2.9728877  13.9057494  )
        41           O1  tau(  41) = (   4.5311790   4.4530262  16.1020043  )
        42           O1  tau(  42) = (   2.0427069   4.4534008  16.0946336  )
        43           Ti1 tau(  43) = (   3.2818950   5.9508925  15.7274921  )
        44           Ti1 tau(  44) = (   6.5750914   4.6476268  16.0792144  )
        45           O1  tau(  45) = (   3.2900926   2.9813045   4.7018136  )
        46           O1  tau(  46) = (   1.3039711   4.4726057   6.0039043  )
        47           O1  tau(  47) = (   5.2763189   4.4711207   6.0039473  )
        48           N1  tau(  48) = (   0.0795740   2.6614725  18.6386781  )
        49           N1  tau(  49) = (   0.0132033   2.8794178  17.4283708  )
        50           C1  tau(  50) = (   0.1510961   3.8031638  19.5808395  )
        51           H1  tau(  51) = (   6.4701351   4.7592986  19.1328852  )
        52           H1  tau(  52) = (   6.0910372   3.5604803  20.4266230  )
        53           H1  tau(  53) = (   1.1812797   3.8285794  19.9476819  )

     number of k points=    10  Fermi-Dirac smearing, width (Ry)=  0.0073
                       cart. coord. in units 2pi/alat
        k(    1) = (   0.0000000   0.0000000   0.0000000), wk =   0.1250000
        k(    2) = (   0.0000000   0.0419351   0.0000000), wk =   0.2500000
        k(    3) = (   0.0000000  -0.0838702   0.0000000), wk =   0.1250000
        k(    4) = (   0.0379955   0.0000049   0.0000000), wk =   0.2500000
        k(    5) = (   0.0379955   0.0419400   0.0000000), wk =   0.2500000
        k(    6) = (   0.0379955  -0.0838652   0.0000000), wk =   0.2500000
        k(    7) = (   0.0379955  -0.0419301   0.0000000), wk =   0.2500000
        k(    8) = (  -0.0759910  -0.0000099   0.0000000), wk =   0.1250000
        k(    9) = (  -0.0759910   0.0419252   0.0000000), wk =   0.2500000
        k(   10) = (  -0.0759910  -0.0838800   0.0000000), wk =   0.1250000

     Initial potential from superposition of free atoms

     starting charge  378.99916, renormalised to  395.00000

     negative rho (up, down):  1.507E-02 0.000E+00

     %%%%%%%%%%%%%%%%%%%%%%%%%%%%%%%%%%%%%%%%%%%%%%%%%%%%%%%%%%%%%%%%%%%%%%%%
     %                                                                      %
     % You are using vdW-DF, which was implemented by the Thonhauser group. %
     % Please cite the following two papers that made this development      %
     % possible and the two reviews that describe the various versions:     %
     %                                                                      %
     %   T. Thonhauser et al., PRL 115, 136402 (2015).                      %
     %   T. Thonhauser et al., PRB 76, 125112 (2007).                       %
     %   K. Berland et al., Rep. Prog. Phys. 78, 066501 (2015).             %
     %   D.C. Langreth et al., J. Phys.: Condens. Matter 21, 084203 (2009). %
     %                                                                      %
     %                                                                      %
     % If you are calculating the stress with vdW-DF, please also cite:     %
     %                                                                      %
     %   R. Sabatini et al., J. Phys.: Condens. Matter 24, 424209 (2012).   %
     %                                                                      %
     %%%%%%%%%%%%%%%%%%%%%%%%%%%%%%%%%%%%%%%%%%%%%%%%%%%%%%%%%%%%%%%%%%%%%%%%

     Adding external electric field

     Computed dipole along edir(3) :
        Dipole               -8.8455 Ry au,        -22.4830 Debye
        Dipole field         -0.0167 Ry au,

        Potential amp.        1.5474 Ry
        Total length         46.3494 bohr

     Starting wfcs are  299 atomic wfcs
  @ DRIVER MODE: Message from server: STATUS
  @ DRIVER MODE: Message from server: POSDATA
  @ DRIVER MODE: Reading and sharing cell
  @ DRIVER MODE: Reading and sharing positions
  @ DRIVER MODE: Received positions

     Self-consistent Calculation

     iteration #  1     ecut=    29.40 Ry     beta= 0.05
     Davidson diagonalization with overlap
     c_bands:  1 eigenvalues not converged
     c_bands:  2 eigenvalues not converged
     c_bands:  1 eigenvalues not converged
     c_bands:  3 eigenvalues not converged
     c_bands:  3 eigenvalues not converged
     c_bands:  1 eigenvalues not converged
     ethr =  1.00E-05,  avg # of iterations = 19.1

[...]

     total energy              =   -2605.92696375 Ry
     estimated scf accuracy    <    3696.49750744 Ry

     iteration #  2     ecut=    29.40 Ry     beta= 0.05
     Davidson diagonalization with overlap
     ethr =  1.00E-02,  avg # of iterations = 22.1

[...]

     iteration # 63     ecut=    29.40 Ry     beta= 0.05
     Davidson diagonalization with overlap
     c_bands:  1 eigenvalues not converged
     c_bands:  1 eigenvalues not converged
     ethr =  3.73E-11,  avg # of iterations = 16.4

[...]

     total energy              =   -2939.15452472 Ry
     estimated scf accuracy    <       0.00000026 Ry

     iteration # 64     ecut=    29.40 Ry     beta= 0.05
     Davidson diagonalization with overlap
     ethr =  3.73E-11,  avg # of iterations = 12.4

     negative rho (up, down):  1.565E-02 0.000E+00

     Adding external electric field

     Computed dipole along edir(3) :
        Dipole                0.7062 Ry au,          1.7949 Debye
        Dipole field          0.0013 Ry au,

        Potential amp.       -0.1235 Ry
        Total length         46.3494 bohr

     End of self-consistent calculation

          k = 0.0000 0.0000 0.0000 ( 18029 PWs)   bands (ev):

   -55.8990 -55.8843 -55.8649 -55.8484 -55.7971 -55.7333 -55.7077 -55.7055
   -55.6969 -55.6737 -55.6727 -55.6390 -55.2863 -55.0895 -54.8763 -54.8422
   -32.4384 -32.3811 -32.2334 -32.2289 -32.2063 -32.2019 -32.1919 -32.1632
   -32.1415 -32.1267 -32.1062 -32.0685 -32.0648 -32.0513 -32.0375 -32.0240
   -32.0190 -32.0030 -31.9889 -31.9563 -31.9477 -31.9431 -31.9027 -31.8955
   -31.8948 -31.8913 -31.8832 -31.8779 -31.8747 -31.8474 -31.8474 -31.8384
   -31.8344 -31.8255 -31.8141 -31.7848 -31.7760 -31.5653 -31.4600 -31.3546
   -31.3502 -31.3058 -31.2834 -31.1950 -31.1726 -31.1001 -31.0136 -30.9026
   -18.2948 -16.6355 -16.3712 -16.1390 -16.0480 -16.0159 -15.8977 -15.7360
   -15.6189 -15.5632 -15.4658 -15.4462 -15.4342 -15.4018 -15.3787 -15.3729
   -15.3420 -15.3396 -15.3211 -15.3052 -15.2586 -15.2348 -15.2097 -15.1112
   -15.0661 -15.0332 -15.0140 -14.9550 -14.9492 -14.4384 -13.3790 -13.2626
   -11.3521  -6.9483  -4.3286  -4.0056  -3.8559  -3.8492  -3.8249  -3.8043
    -3.7471  -3.6229  -3.5021  -3.4391  -3.1290  -3.0810  -3.0652  -3.0480
    -3.0098  -2.8025  -2.7498  -2.7121  -2.6864  -2.6788  -2.6682  -2.6589
    -2.6485  -2.6109  -2.5045  -2.4389  -2.4280  -2.3399  -2.2930  -2.2729
    -2.2109  -2.1886  -2.1682  -2.1455  -2.1343  -2.1087  -2.0934  -2.0819
    -1.9748  -1.8850  -1.7468  -1.6969  -1.6719  -1.6417  -1.6292  -1.5065
    -1.3669  -1.3403  -1.3259  -1.3188  -1.2902  -1.2726  -1.1954  -1.0609
    -1.0545  -1.0103  -0.9594  -0.9042  -0.8791  -0.7772  -0.7404  -0.6643
    -0.6596  -0.6420  -0.5849  -0.5210  -0.3788  -0.3327  -0.3089  -0.2875
    -0.2617  -0.1932  -0.1726  -0.0546  -0.0371  -0.0208   0.0392   0.0642
     0.0766   0.0864   0.1046   0.1220   0.1405   0.3068   0.3781   0.4346
     0.4546   0.5169   0.6373   0.7100   0.7599   0.8635   1.0713   1.1455
     1.2394   1.3376   1.7169   1.7625   2.6151   3.2404   3.3211   3.3701
     3.3855   3.4819   3.5192   3.6915   3.6926   3.7222   3.7920

[...]

          k = 0.0380-0.0419 0.0000 ( 17876 PWs)   bands (ev):

[...]

          k =-0.0760-0.0000 0.0000 ( 17886 PWs)   bands (ev):

[...]

          k =-0.0760-0.0839 0.0000 ( 17948 PWs)   bands (ev):

   -55.8824 -55.8813 -55.8665 -55.8661 -55.7937 -55.7210 -55.7092 -55.7088
   -55.6916 -55.6892 -55.6566 -55.6553 -55.2849 -55.0908 -54.8594 -54.8590
   -32.2429 -32.2411 -32.1967 -32.1960 -32.1778 -32.1768 -32.1717 -32.1373
   -32.0920 -32.0890 -32.0828 -32.0812 -32.0442 -32.0164 -32.0091 -32.0083
   -32.0021 -32.0020 -32.0010 -31.9987 -31.9953 -31.9945 -31.9929 -31.9409
   -31.9275 -31.9146 -31.9128 -31.9028 -31.8906 -31.8901 -31.8876 -31.8866
   -31.8710 -31.8703 -31.8609 -31.8580 -31.6931 -31.5670 -31.4659 -31.4134
   -31.3519 -31.3317 -31.1855 -31.1851 -31.0964 -31.0960 -31.0570 -31.0568
   -18.2900 -16.0712 -16.0453 -15.8461 -15.8133 -15.8082 -15.7936 -15.6834
   -15.5996 -15.5936 -15.5910 -15.5204 -15.4902 -15.4761 -15.4374 -15.4245
   -15.4168 -15.4058 -15.3919 -15.3594 -15.3520 -15.3348 -15.3274 -15.2405
   -15.2154 -15.2113 -15.1822 -15.0659 -14.9323 -14.6141 -13.3645 -13.3643
   -11.3499  -6.9598  -4.2350  -3.8637  -3.7978  -3.3606  -3.3318  -3.0916
    -3.0535  -3.0398  -2.9867  -2.8241  -2.7945  -2.7681  -2.7568  -2.7251
    -2.7203  -2.7072  -2.7031  -2.6833  -2.6396  -2.6181  -2.6010  -2.5826
    -2.5662  -2.5521  -2.5343  -2.5188  -2.5094  -2.4695  -2.4457  -2.4337
    -2.4149  -2.4027  -2.2438  -2.1246  -2.0905  -2.0367  -2.0266  -2.0027
    -1.9638  -1.9589  -1.9486  -1.8840  -1.8029  -1.6478  -1.6025  -1.5958
    -1.5709  -1.5456  -1.5016  -1.4600  -1.3728  -1.2993  -1.2772  -1.2717
    -1.2030  -1.1173  -1.1054  -1.0603  -1.0144  -1.0053  -0.9528  -0.8892
    -0.8611  -0.8566  -0.7995  -0.7262  -0.7140  -0.6666  -0.6593  -0.6155
    -0.5588  -0.5403  -0.5253  -0.4894  -0.4076  -0.3844  -0.2438  -0.1647
    -0.0359   0.0723   0.1663   0.1803   0.2618   0.3124   0.3980   0.4129
     0.4225   0.4350   0.4770   0.5635   0.6335   0.6484   0.6952   0.8157
     1.5092   1.5100   1.5821   1.5825   2.6711   3.4878   3.5339   3.5753
     3.6071   3.7102   3.7455   3.7689   3.7701   3.7947   3.9124

     the Fermi energy is     3.2355 ev

!    total energy              =   -2939.15455799 Ry
     estimated scf accuracy    <       0.00000004 Ry
     smearing contrib. (-TS)   =      -0.02235198 Ry
     internal energy E=F+TS    =   -2939.13220601 Ry

     The total energy is F=E-TS. E is the sum of the following terms:
     one-electron contribution =  -24178.51838016 Ry
     hartree contribution      =   12176.49081196 Ry
     xc contribution           =    -485.17164051 Ry
     ewald contribution        =    9548.06606168 Ry
     electric field correction =       0.00094102 Ry

     convergence has been achieved in  64 iterations

     Forces acting on atoms (cartesian axes, Ry/au):

     atom    1 type  1   force =     0.00012129   -0.00025728    0.09665053
     atom    2 type  1   force =    -0.00013064   -0.00048877   -0.17524872
     atom    3 type  2   force =     0.00000070   -0.00010538   -0.02498107
     atom    4 type  2   force =     0.00005239   -0.00150623    0.05299727
     atom    5 type  2   force =    -0.01215296   -0.00109032    0.00361236
     atom    6 type  2   force =     0.01370325   -0.00028296    0.00228707
     atom    7 type  1   force =    -0.00117197    0.00037264   -0.01148391
     atom    8 type  1   force =     0.00055962    0.00940982    0.02854199
     atom    9 type  2   force =     0.00019715    0.00053767   -0.00014531
     atom   10 type  2   force =    -0.00115229    0.00027910   -0.01829261
     atom   11 type  2   force =    -0.00012330   -0.00000947   -0.00018875
     atom   12 type  2   force =     0.00008867    0.00021331    0.00012644
     atom   13 type  1   force =     0.00010819   -0.00028204    0.00048860
     atom   14 type  1   force =     0.00024777    0.00016426    0.00031230
     atom   15 type  2   force =     0.00023480   -0.00022845   -0.00080140
     atom   16 type  2   force =    -0.00032668    0.00033851    0.00019401
     atom   17 type  2   force =    -0.00046888    0.00029430   -0.00036154
     atom   18 type  2   force =     0.00048002    0.00001458   -0.00000851
     atom   19 type  1   force =    -0.00008846    0.00014226    0.00040043
     atom   20 type  1   force =    -0.00060005   -0.00047339   -0.00012646
     atom   21 type  2   force =     0.00008557    0.00001014    0.10321964
     atom   22 type  2   force =    -0.00021134    0.00023801    0.00046773
     atom   23 type  2   force =    -0.07145463   -0.00007617   -0.02770877
     atom   24 type  2   force =     0.07142144    0.00034548   -0.02771862
     atom   25 type  1   force =     0.00007553   -0.00022691    0.09637963
     atom   26 type  1   force =    -0.00022248   -0.00025641   -0.17565218
     atom   27 type  2   force =     0.00007253   -0.00024377   -0.02397894
     atom   28 type  2   force =     0.00009532   -0.00125675    0.05286077
     atom   29 type  2   force =    -0.01239235    0.00003807    0.00352373
     atom   30 type  2   force =     0.01385780    0.00032967    0.00216766
     atom   31 type  1   force =    -0.00113718    0.00333245   -0.01189230
     atom   32 type  1   force =     0.00065240   -0.01118864    0.02913842
     atom   33 type  2   force =     0.00010941   -0.00020915   -0.00039593
     atom   34 type  2   force =    -0.00090109   -0.00092719   -0.02490920
     atom   35 type  2   force =    -0.00040181    0.00028165   -0.00003972
     atom   36 type  2   force =     0.00068163    0.00029358    0.00028295
     atom   37 type  1   force =     0.00002566   -0.00022383    0.00037093
     atom   38 type  1   force =     0.00001938    0.00010606    0.00010073
     atom   39 type  2   force =     0.00032175    0.00017808   -0.00139305
     atom   40 type  2   force =    -0.00030312    0.00010707   -0.00002326
     atom   41 type  2   force =    -0.00076890    0.00064470   -0.00004643
     atom   42 type  2   force =     0.00039111    0.00059317    0.00023549
     atom   43 type  1   force =    -0.00006317    0.00037571    0.00061500
     atom   44 type  1   force =    -0.00040223   -0.00004181    0.00098084
     atom   45 type  2   force =     0.00008119   -0.00002561    0.10322478
     atom   46 type  2   force =    -0.07148326   -0.00003146   -0.02772152
     atom   47 type  2   force =     0.07144762    0.00039204   -0.02774669
     atom   48 type  3   force =    -0.00079627    0.00221178   -0.02194911
     atom   49 type  3   force =     0.00187068   -0.00152255    0.02638631
     atom   50 type  4   force =     0.00143106   -0.00003757   -0.00353120
     atom   51 type  5   force =     0.00024744    0.00093813   -0.00018260
     atom   52 type  5   force =    -0.00127337   -0.00103257    0.00096313
     atom   53 type  5   force =    -0.00065493   -0.00015755   -0.00000092

     Total force =     0.369958     Total SCF correction =     0.000672
  @ DRIVER MODE: Message from server: STATUS
  @ DRIVER MODE: Message from server: GETFORCE
  @ DRIVER MODE: Returning v,forces,stress,ensemble

     Writing output data file ./calc.save/
  @ DRIVER MODE: Message from server: EXIT
  @ DRIVE MODE: Exiting

     General routines

     Parallel routines

   This run was terminated on:  17:26:17  18Aug2021

   JOB DONE.