     Program PWSCF v.6.7GPU starts on 16Sep2021 at  6:22: 5

     R & G space division:  proc/nbgrp/npool/nimage =      10
     Reading input from /storage/home/hcoda1/3/ntian30/research/carbon/CxH_vib/H2O_calc/ads_slab/CH3OHH2O_e/out_0046/pw.inp
Warning: card &CELL ignored
Warning: card   CELL_DYNAMICS='IPI', ignored
Warning: card / ignored

     Current dimensions of program PWSCF are:
     Max number of different atomic species (ntypx) = 10
     Max number of k-points (npk) =  40000
     Max angular momentum in pseudopotentials (lmaxx) =  3
     Presently no symmetry can be used with electric field

     Message from routine cell_base_init:
     DEPRECATED: use true lattice parameter, not A to a.u. conversion factor

     IMPORTANT: XC functional enforced from input :
     Exchange-correlation= BEEF-VDW
                           (   1   4  43  14   2   0   0)
     Any further DFT definition will be discarded
     Please, verify this is what you really want

  @ DRIVER MODE: Connecting to
 qe_1139763_2852623.sched-torque.pace.gatech.edum52_z71c_scratch
  using UNIX socket
  @ DRIVER MODE: Message from server: STATUS
  @ DRIVER MODE: Message from server: INIT
  @ DRIVER MODE: Receiving replica           0          -1
  @ DRIVER MODE: Receiving encoded integer          25
  @ DRIVER MODE:  SCF:  T  FORCE:  T  STRESS:  F  VC:  F  ENSEMBLE:  F
  @ DRIVER MODE:  SCF:  T  FORCE:  T  STRESS:  F  VC:  F  ENSEMBLE:  F

     Using Slab Decomposition

     bravais-lattice index     =            0
     lattice parameter (alat)  =       1.8897  a.u.
     unit-cell volume          =    6658.9804 (a.u.)^3
     number of atoms/cell      =           56
     number of atomic types    =            4
     number of electrons       =       400.00
     number of Kohn-Sham states=          210
     kinetic-energy cutoff     =      29.3995  Ry
     charge density cutoff     =     293.9946  Ry
     scf convergence threshold =      7.3E-08
     mixing beta               =       0.0500
     number of iterations used =            8  plain     mixing
     Exchange-correlation= BEEF-VDW
                           (   1   4  43  14   2   0   0)

     celldm(1)=   1.889726  celldm(2)=   0.000000  celldm(3)=   0.000000
     celldm(4)=   0.000000  celldm(5)=   0.000000  celldm(6)=   0.000000

     crystal axes: (cart. coord. in units of alat)
               a(1) = (   6.579727   0.000000   0.000000 )
               a(2) = (  -0.000775   5.961596   0.000000 )
               a(3) = (   0.000000   0.000000  25.155947 )

     reciprocal axes: (cart. coord. in units 2 pi/alat)
               b(1) = (  0.151982  0.000020  0.000000 )
               b(2) = (  0.000000  0.167740  0.000000 )
               b(3) = (  0.000000  0.000000  0.039752 )

     PseudoPot. # 1 for Ti read from file:
     /storage/coda1/p-amedford6/0/shared/rich_project_chbe-medford/medford-share/data/pseudos_module/espresso/nninc/pbe/van/Ti.UPF
     MD5 check sum: 8e4df49b7f0d34bbd5052bf3f5ea0213
     Pseudo is Ultrasoft, Zval = 12.0
     Generated by new atomic code, or converted to UPF format
     Using radial grid of  851 points,  6 beta functions with:
                l(1) =   0
                l(2) =   0
                l(3) =   1
                l(4) =   1
                l(5) =   2
                l(6) =   2
     Q(r) pseudized with  8 coefficients,  rinner =    1.000   1.000   1.000
                                                       1.000   1.000

     PseudoPot. # 2 for O  read from file:
     /storage/coda1/p-amedford6/0/shared/rich_project_chbe-medford/medford-share/data/pseudos_module/espresso/nninc/pbe/van/O.UPF
     MD5 check sum: 78c19812648e8988a0fe644b0f25305e
     Pseudo is Ultrasoft, Zval =  6.0
     Generated by new atomic code, or converted to UPF format
     Using radial grid of  737 points,  4 beta functions with:
                l(1) =   0
                l(2) =   0
                l(3) =   1
                l(4) =   1
     Q(r) pseudized with  8 coefficients,  rinner =    0.800   0.800   0.800

     PseudoPot. # 3 for C  read from file:
     /storage/coda1/p-amedford6/0/shared/rich_project_chbe-medford/medford-share/data/pseudos_module/espresso/nninc/pbe/van/C.UPF
     MD5 check sum: 1a69bf6b8db32088f5b2163dbdb77a27
     Pseudo is Ultrasoft, Zval =  4.0
     Generated by new atomic code, or converted to UPF format
     Using radial grid of  721 points,  4 beta functions with:
                l(1) =   0
                l(2) =   0
                l(3) =   1
                l(4) =   1
     Q(r) pseudized with  8 coefficients,  rinner =    0.800   0.800   0.800

     PseudoPot. # 4 for H  read from file:
     /storage/coda1/p-amedford6/0/shared/rich_project_chbe-medford/medford-share/data/pseudos_module/espresso/nninc/pbe/van/H.UPF
     MD5 check sum: b5ee9d7bfd3a09ee7748110bda690ff7
     Pseudo is Ultrasoft, Zval =  1.0
     Generated by new atomic code, or converted to UPF format
     Using radial grid of  615 points,  1 beta functions with:
                l(1) =   0
     Q(r) pseudized with  8 coefficients,  rinner =    0.800

     atomic species   valence    mass     pseudopotential
        Ti1           12.00    47.86700     Ti( 1.00)
        O1             6.00    15.99900     O ( 1.00)
        C1             4.00    12.01100     C ( 1.00)
        H1             1.00     1.00800     H ( 1.00)

     No symmetry found

   Cartesian axes

     site n.     atom                  positions (alat units)
         1           Ti1 tau(   1) = (   0.0004258   2.9801865   6.0000000  )
         2           Ti1 tau(   2) = (   3.2906075   1.4906267   6.0002472  )
         3           O1  tau(   3) = (   0.0006271   0.0005054   7.9858123  )
         4           O1  tau(   4) = (   3.2906025   0.0005020   7.3038282  )
         5           O1  tau(   5) = (   4.5942328   1.4918067   9.2879030  )
         6           O1  tau(   6) = (   1.9868534   1.4903216   9.2879459  )
         7           Ti1 tau(   7) = (   3.3179988   2.9667087   9.1587561  )
         8           Ti1 tau(   8) = (   0.0368451   1.4888401   9.2646154  )
         9           O1  tau(   9) = (   3.2981896   5.9413050  11.3756853  )
        10           O1  tau(  10) = (   0.0022081   5.9550161  10.6068466  )
        11           O1  tau(  11) = (   1.2930414   1.4711740  12.6526869  )
        12           O1  tau(  12) = (   5.2963464   1.4745835  12.6500758  )
        13           Ti1 tau(  13) = (   0.0229324   2.9590759  12.5385950  )
        14           Ti1 tau(  14) = (   3.3157970   1.4644123  12.5194148  )
        15           O1  tau(  15) = (   6.5691168   5.9481840  14.6869282  )
        16           O1  tau(  16) = (   3.2964787   5.9455965  14.0277316  )
        17           O1  tau(  17) = (   4.5665908   1.5027878  16.2081754  )
        18           O1  tau(  18) = (   2.0283028   1.5092035  16.1774433  )
        19           Ti1 tau(  19) = (   3.2999954   2.9453206  15.7178785  )
        20           Ti1 tau(  20) = (   6.5724188   1.3235339  15.9896992  )
        21           O1  tau(  21) = (   3.2904802   0.0005063   4.7018136  )
        22           O1  tau(  22) = (   0.0286320   5.9425150  17.2304330  )
        23           O1  tau(  23) = (   1.3043587   1.4918075   6.0039043  )
        24           O1  tau(  24) = (   5.2767064   1.4903225   6.0039473  )
        25           Ti1 tau(  25) = (   0.0000382   5.9609847   6.0000000  )
        26           Ti1 tau(  26) = (   3.2902200   4.4714249   6.0002472  )
        27           O1  tau(  27) = (   0.0002396   2.9813036   7.9858123  )
        28           O1  tau(  28) = (   3.2902150   2.9813002   7.3038282  )
        29           O1  tau(  29) = (   4.5938453   4.4726049   9.2879030  )
        30           O1  tau(  30) = (   1.9864658   4.4711199   9.2879459  )
        31           Ti1 tau(  31) = (   3.3176359   5.9492212   9.1540102  )
        32           Ti1 tau(  32) = (   0.0367062   4.4560090   9.2708352  )
        33           O1  tau(  33) = (   3.2951800   2.9650663  11.3684769  )
        34           O1  tau(  34) = (   0.0080098   2.9764013  10.6279654  )
        35           O1  tau(  35) = (   1.2931912   4.4560454  12.6592269  )
        36           O1  tau(  36) = (   5.2946864   4.4524020  12.6579832  )
        37           Ti1 tau(  37) = (   0.0159028   5.9413441  12.4831893  )
        38           Ti1 tau(  38) = (   3.3151975   4.4500431  12.5204281  )
        39           O1  tau(  39) = (   0.0034497   2.9621527  14.8596962  )
        40           O1  tau(  40) = (   3.2989893   2.9535984  13.9376031  )
        41           O1  tau(  41) = (   4.5724332   4.4114593  16.1445292  )
        42           O1  tau(  42) = (   2.0255208   4.3883007  16.1585022  )
        43           Ti1 tau(  43) = (   3.2821299   5.9114753  15.8432964  )
        44           Ti1 tau(  44) = (   6.5414858   4.5242847  15.8739915  )
        45           O1  tau(  45) = (   3.2900926   2.9813045   4.7018136  )
        46           O1  tau(  46) = (   1.3039711   4.4726057   6.0039043  )
        47           O1  tau(  47) = (   5.2763189   4.4711207   6.0039473  )
        48           C1  tau(  48) = (   5.9754720   3.1749164  18.9278073  )
        49           O1  tau(  49) = (   0.1533887   3.0270296  17.7012840  )
        50           H1  tau(  50) = (   4.9293134   3.0706859  18.6584277  )
        51           H1  tau(  51) = (   1.0910173   3.2466920  17.8500278  )
        52           H1  tau(  52) = (   6.2690755   2.3937635  19.6305738  )
        53           H1  tau(  53) = (   6.1431946   4.1694627  19.3379575  )
        54           O1  tau(  54) = (   3.1723115   5.9428592  18.3689464  )
        55           H1  tau(  55) = (   3.8852673   0.6453712  18.4582360  )
        56           H1  tau(  56) = (   2.3406934   0.4831942  18.3201771  )

     number of k points=    10  Fermi-Dirac smearing, width (Ry)=  0.0073
                       cart. coord. in units 2pi/alat
        k(    1) = (   0.0000000   0.0000000   0.0000000), wk =   0.1250000
        k(    2) = (   0.0000000   0.0419351   0.0000000), wk =   0.2500000
        k(    3) = (   0.0000000  -0.0838702   0.0000000), wk =   0.1250000
        k(    4) = (   0.0379955   0.0000049   0.0000000), wk =   0.2500000
        k(    5) = (   0.0379955   0.0419400   0.0000000), wk =   0.2500000
        k(    6) = (   0.0379955  -0.0838652   0.0000000), wk =   0.2500000
        k(    7) = (   0.0379955  -0.0419301   0.0000000), wk =   0.2500000
        k(    8) = (  -0.0759910  -0.0000099   0.0000000), wk =   0.1250000
        k(    9) = (  -0.0759910   0.0419252   0.0000000), wk =   0.2500000
        k(   10) = (  -0.0759910  -0.0838800   0.0000000), wk =   0.1250000

     Initial potential from superposition of free atoms

     starting charge  383.99915, renormalised to  400.00000

     negative rho (up, down):  1.599E-02 0.000E+00

     %%%%%%%%%%%%%%%%%%%%%%%%%%%%%%%%%%%%%%%%%%%%%%%%%%%%%%%%%%%%%%%%%%%%%%%%
     %                                                                      %
     % You are using vdW-DF, which was implemented by the Thonhauser group. %
     % Please cite the following two papers that made this development      %
     % possible and the two reviews that describe the various versions:     %
     %                                                                      %
     %   T. Thonhauser et al., PRL 115, 136402 (2015).                      %
     %   T. Thonhauser et al., PRB 76, 125112 (2007).                       %
     %   K. Berland et al., Rep. Prog. Phys. 78, 066501 (2015).             %
     %   D.C. Langreth et al., J. Phys.: Condens. Matter 21, 084203 (2009). %
     %                                                                      %
     %                                                                      %
     % If you are calculating the stress with vdW-DF, please also cite:     %
     %                                                                      %
     %   R. Sabatini et al., J. Phys.: Condens. Matter 24, 424209 (2012).   %
     %                                                                      %
     %%%%%%%%%%%%%%%%%%%%%%%%%%%%%%%%%%%%%%%%%%%%%%%%%%%%%%%%%%%%%%%%%%%%%%%%

     Adding external electric field

     Computed dipole along edir(3) :
        Dipole              -11.7400 Ry au,        -29.8402 Debye
        Dipole field         -0.0222 Ry au,

        Potential amp.        2.0537 Ry
        Total length         46.3494 bohr

     Starting wfcs are  302 atomic wfcs
  @ DRIVER MODE: Message from server: STATUS
  @ DRIVER MODE: Message from server: POSDATA
  @ DRIVER MODE: Reading and sharing cell
  @ DRIVER MODE: Reading and sharing positions
  @ DRIVER MODE: Received positions

     Self-consistent Calculation

     iteration #  1     ecut=    29.40 Ry     beta= 0.05
     Davidson diagonalization with overlap
     c_bands:  2 eigenvalues not converged
     c_bands:  2 eigenvalues not converged
     c_bands:  4 eigenvalues not converged
     c_bands:  3 eigenvalues not converged
     c_bands:  4 eigenvalues not converged
     c_bands:  4 eigenvalues not converged
     c_bands:  3 eigenvalues not converged
     c_bands:  2 eigenvalues not converged
     ethr =  1.00E-05,  avg # of iterations = 21.3

[...]

     total energy              =   -2420.24041518 Ry
     estimated scf accuracy    <    6189.14291217 Ry

     iteration #  2     ecut=    29.40 Ry     beta= 0.05
     Davidson diagonalization with overlap
     ethr =  1.00E-02,  avg # of iterations = 29.4

[...]

     iteration # 80     ecut=    29.40 Ry     beta= 0.05
     Davidson diagonalization with overlap
     c_bands:  1 eigenvalues not converged
     ethr =  2.18E-11,  avg # of iterations = 11.6

[...]

     total energy              =   -2967.47590851 Ry
     estimated scf accuracy    <       0.00000009 Ry

     iteration # 81     ecut=    29.40 Ry     beta= 0.05
     Davidson diagonalization with overlap
     ethr =  2.18E-11,  avg # of iterations =  4.8

     negative rho (up, down):  1.588E-02 0.000E+00

     Adding external electric field

     Computed dipole along edir(3) :
        Dipole                1.3776 Ry au,          3.5015 Debye
        Dipole field          0.0026 Ry au,

        Potential amp.       -0.2410 Ry
        Total length         46.3494 bohr

     End of self-consistent calculation

          k = 0.0000 0.0000 0.0000 ( 18029 PWs)   bands (ev):

   -55.2503 -55.2228 -55.2143 -55.1884 -55.1566 -55.1487 -55.1433 -55.0965
   -55.0959 -55.0895 -55.0552 -55.0378 -55.0080 -55.0039 -54.3121 -54.2780
   -31.8170 -31.7664 -31.7179 -31.6277 -31.5649 -31.5551 -31.5504 -31.5480
   -31.5114 -31.4820 -31.4659 -31.4637 -31.4525 -31.4426 -31.4284 -31.4139
   -31.3968 -31.3906 -31.3874 -31.3830 -31.3769 -31.3678 -31.3449 -31.3406
   -31.3388 -31.3189 -31.3158 -31.3142 -31.2934 -31.2801 -31.2643 -31.2437
   -31.2423 -31.2415 -31.2299 -31.2209 -31.2026 -31.1889 -31.1772 -31.1727
   -31.1596 -31.1490 -30.7241 -30.6217 -30.6002 -30.5404 -30.4541 -30.3430
   -20.1697 -19.0530 -16.0797 -15.8327 -15.6928 -15.5944 -15.4735 -15.3400
   -15.2798 -15.1650 -15.0740 -14.9839 -14.9690 -14.9506 -14.9211 -14.8984
   -14.8737 -14.8354 -14.8094 -14.7655 -14.7567 -14.7402 -14.7335 -14.6968
   -14.6939 -14.6487 -14.6402 -14.4833 -14.4131 -14.3529 -14.1306 -12.8127
   -12.6933 -11.1883  -6.9245  -6.8006  -5.1374  -5.0165  -3.4193  -3.2627
    -3.2267  -3.2056  -3.1836  -3.1493  -3.0592  -2.9611  -2.7905  -2.6793
    -2.5418  -2.5347  -2.4886  -2.4613  -2.4042  -2.3222  -2.2339  -2.2074
    -2.1722  -2.1392  -2.1358  -2.1199  -2.1095  -2.0537  -2.0179  -1.9602
    -1.8639  -1.8136  -1.7728  -1.7551  -1.6953  -1.6515  -1.6155  -1.5888
    -1.5824  -1.5761  -1.5174  -1.5153  -1.5073  -1.4959  -1.4782  -1.2896
    -1.2498  -1.1174  -1.0264  -0.9859  -0.9715  -0.8179  -0.8111  -0.7666
    -0.7332  -0.6993  -0.6588  -0.6011  -0.5036  -0.4711  -0.4216  -0.3835
    -0.2754  -0.2432  -0.2121  -0.1573  -0.0503  -0.0419  -0.0161   0.0033
     0.0773   0.1730   0.2021   0.2234   0.3004   0.3056   0.3669   0.4075
     0.4410   0.5161   0.5614   0.5726   0.6642   0.6812   0.6947   0.7213
     0.7248   0.8234   0.8595   0.9041   0.9225   1.0741   1.1688   1.3079
     1.3366   1.6033   1.6985   1.7139   1.8742   2.2997   2.3545   3.8408
     3.9092   3.9477   3.9553   3.9686   4.0483   4.3319   4.3472   4.3591
     4.3688   4.3869

[...]

          k = 0.0380-0.0419 0.0000 ( 17876 PWs)   bands (ev):

[...]

          k =-0.0760-0.0000 0.0000 ( 17886 PWs)   bands (ev):

[...]

          k =-0.0760-0.0839 0.0000 ( 17948 PWs)   bands (ev):

   -55.2333 -55.2311 -55.2076 -55.2036 -55.1536 -55.1428 -55.1359 -55.1039
   -55.1026 -55.0737 -55.0707 -55.0227 -55.0191 -55.0099 -54.2951 -54.2949
   -31.6834 -31.6241 -31.6171 -31.5348 -31.5309 -31.5170 -31.5056 -31.5006
   -31.4930 -31.4725 -31.4543 -31.4487 -31.4446 -31.4310 -31.4053 -31.4029
   -31.3910 -31.3885 -31.3817 -31.3808 -31.3773 -31.3740 -31.3612 -31.3474
   -31.3395 -31.3342 -31.3336 -31.3273 -31.3242 -31.3238 -31.3235 -31.3052
   -31.2979 -31.2954 -31.2768 -31.2720 -31.2714 -31.2477 -31.2439 -31.2089
   -31.2046 -31.1916 -30.6127 -30.6127 -30.5369 -30.5366 -30.4973 -30.4972
   -20.1663 -19.0523 -15.6381 -15.5394 -15.3891 -15.2659 -15.2536 -15.2409
   -15.1887 -15.1244 -15.1108 -15.0606 -15.0478 -15.0171 -15.0011 -14.9951
   -14.9591 -14.8506 -14.8466 -14.8362 -14.8155 -14.7705 -14.7594 -14.7524
   -14.7402 -14.7040 -14.6956 -14.6812 -14.6708 -14.5791 -14.4398 -12.7947
   -12.7940 -11.1901  -6.9223  -6.7993  -5.1388  -4.9948  -3.1916  -2.9874
    -2.8075  -2.7286  -2.6310  -2.4838  -2.4691  -2.3880  -2.3760  -2.3256
    -2.2547  -2.2518  -2.2482  -2.1669  -2.1547  -2.1545  -2.1334  -2.1136
    -2.0736  -2.0649  -2.0410  -2.0309  -1.9896  -1.9588  -1.9458  -1.9281
    -1.9182  -1.9144  -1.8833  -1.8685  -1.8530  -1.8115  -1.7882  -1.7284
    -1.6410  -1.6034  -1.4803  -1.4779  -1.4412  -1.4117  -1.3875  -1.3471
    -1.3272  -1.2794  -1.2596  -1.2335  -1.0500  -1.0340  -0.9793  -0.9389
    -0.9196  -0.9064  -0.8445  -0.7726  -0.7454  -0.7143  -0.6486  -0.5755
    -0.4792  -0.4551  -0.4467  -0.3402  -0.2885  -0.2491  -0.2447  -0.2353
    -0.2115  -0.1629  -0.1432  -0.0812  -0.0423   0.0014   0.0268   0.0437
     0.2248   0.2633   0.3217   0.4132   0.4420   0.5868   0.6355   0.6873
     0.7478   0.8243   0.8352   0.9013   1.0155   1.0278   1.0580   1.1346
     1.1780   1.1838   1.2088   2.0652   2.0673   2.1687   2.1718   3.9706
     4.0781   4.0968   4.1756   4.2417   4.3501   4.3631   4.3925   4.4028
     4.4478   4.4825

     the Fermi energy is     3.8973 ev

!    total energy              =   -2967.47591886 Ry
     estimated scf accuracy    <       0.00000006 Ry
     smearing contrib. (-TS)   =      -0.03653898 Ry
     internal energy E=F+TS    =   -2967.43937988 Ry

     The total energy is F=E-TS. E is the sum of the following terms:
     one-electron contribution =  -23962.73039070 Ry
     hartree contribution      =   12076.96413881 Ry
     xc contribution           =    -491.85370874 Ry
     ewald contribution        =    9410.17699946 Ry
     electric field correction =       0.00358129 Ry

     convergence has been achieved in  81 iterations

     Forces acting on atoms (cartesian axes, Ry/au):

     atom    1 type  1   force =    -0.00026783    0.00019913    0.09244329
     atom    2 type  1   force =    -0.00035788    0.00104847   -0.18340225
     atom    3 type  2   force =     0.00050543   -0.00072090   -0.02349083
     atom    4 type  2   force =     0.00072329   -0.00018498    0.05070699
     atom    5 type  2   force =    -0.01405067   -0.00131733    0.00495679
     atom    6 type  2   force =     0.01521460   -0.00065093    0.00509883
     atom    7 type  1   force =    -0.00048269    0.00106349   -0.00011895
     atom    8 type  1   force =     0.00015915   -0.00053391    0.00040074
     atom    9 type  2   force =    -0.00043977    0.00017421    0.00039712
     atom   10 type  2   force =     0.00040969    0.00016686    0.00048587
     atom   11 type  2   force =     0.00035464    0.00043999    0.00033780
     atom   12 type  2   force =     0.00006158    0.00013965    0.00026642
     atom   13 type  1   force =    -0.00088268   -0.00118816   -0.00010804
     atom   14 type  1   force =     0.00059057   -0.00004944    0.00020633
     atom   15 type  2   force =     0.00051083    0.00076157    0.00006211
     atom   16 type  2   force =    -0.00061386   -0.00036303    0.00004075
     atom   17 type  2   force =     0.00006120    0.00027433   -0.00032484
     atom   18 type  2   force =    -0.00014255    0.00032310   -0.00014850
     atom   19 type  1   force =     0.00063183   -0.00001862   -0.00034767
     atom   20 type  1   force =     0.00000292    0.00012579   -0.00010575
     atom   21 type  2   force =    -0.00004302    0.00015840    0.10496036
     atom   22 type  2   force =    -0.00033215    0.00060071   -0.00096388
     atom   23 type  2   force =    -0.06802408    0.00012598   -0.02680268
     atom   24 type  2   force =     0.06774233    0.00053190   -0.02686747
     atom   25 type  1   force =    -0.00038508   -0.00008703    0.09622292
     atom   26 type  1   force =    -0.00035732   -0.00099715   -0.18319887
     atom   27 type  2   force =     0.00041801   -0.00125363   -0.02226120
     atom   28 type  2   force =     0.00070266   -0.00033252    0.05102526
     atom   29 type  2   force =    -0.01424161   -0.00105900    0.00466620
     atom   30 type  2   force =     0.01518697    0.00021614    0.00485056
     atom   31 type  1   force =    -0.00049669   -0.00145723    0.00017587
     atom   32 type  1   force =     0.00012885    0.00071496   -0.00026625
     atom   33 type  2   force =     0.00002236   -0.00020437    0.00006697
     atom   34 type  2   force =     0.00002527   -0.00006938   -0.00007158
     atom   35 type  2   force =     0.00021133    0.00008516    0.00030519
     atom   36 type  2   force =     0.00039889    0.00045214    0.00004896
     atom   37 type  1   force =    -0.00106229    0.00125152   -0.00005436
     atom   38 type  1   force =     0.00037635    0.00011417   -0.00044800
     atom   39 type  2   force =     0.00039383    0.00022718   -0.00032945
     atom   40 type  2   force =    -0.00008096    0.00019499    0.00006713
     atom   41 type  2   force =    -0.00021375    0.00015767   -0.00051866
     atom   42 type  2   force =     0.00013433   -0.00002501    0.00025230
     atom   43 type  1   force =    -0.00055569    0.00010301    0.00035138
     atom   44 type  1   force =    -0.00008002    0.00007089   -0.00083681
     atom   45 type  2   force =    -0.00005541    0.00015320    0.10490343
     atom   46 type  2   force =    -0.06806659   -0.00038188   -0.02679967
     atom   47 type  2   force =     0.06779135    0.00005525   -0.02688610
     atom   48 type  3   force =     0.00000819    0.00051935   -0.00023704
     atom   49 type  2   force =    -0.00113003    0.00031220    0.00088473
     atom   50 type  4   force =     0.00048616    0.00061652    0.00007319
     atom   51 type  4   force =     0.00071380    0.00086060   -0.00004034
     atom   52 type  4   force =    -0.00042407    0.00060368   -0.00023399
     atom   53 type  4   force =    -0.00021002   -0.00024687    0.00009953
     atom   54 type  2   force =     0.01008498    0.00919171    0.00231149
     atom   55 type  4   force =    -0.00925986   -0.00948739   -0.00186443
     atom   56 type  4   force =    -0.00179482   -0.00140513    0.00005910

     Total force =     0.368701     Total SCF correction =     0.000796
  @ DRIVER MODE: Message from server: STATUS
  @ DRIVER MODE: Message from server: GETFORCE
  @ DRIVER MODE: Returning v,forces,stress,ensemble

     Writing output data file ./calc.save/
  @ DRIVER MODE: Message from server: EXIT
  @ DRIVE MODE: Exiting

     General routines

     Parallel routines

   This run was terminated on:   6:43:33  16Sep2021

   JOB DONE.