     Program PWSCF v.6.7GPU starts on 18Oct2021 at 11:51:58

     R & G space division:  proc/nbgrp/npool/nimage =       8
     Reading input from /storage/home/hcoda1/3/ntian30/research/carbon/CxH_vib/Thiel_calc/ads_slab/NH2NH3H_perslab/out_0001/pw.inp
Warning: card &CELL ignored
Warning: card   CELL_DYNAMICS='IPI', ignored
Warning: card / ignored

     Current dimensions of program PWSCF are:
     Max number of different atomic species (ntypx) = 10
     Max number of k-points (npk) =  40000
     Max angular momentum in pseudopotentials (lmaxx) =  3
     Presently no symmetry can be used with electric field

     Message from routine cell_base_init:
     DEPRECATED: use true lattice parameter, not A to a.u. conversion factor

     IMPORTANT: XC functional enforced from input :
     Exchange-correlation= BEEF-VDW
                           (   1   4  43  14   2   0   0)
     Any further DFT definition will be discarded
     Please, verify this is what you really want

  @ DRIVER MODE: Connecting to
 qe_1139763_3255138.sched-torque.pace.gatech.educpuhouwp_scratch
  using UNIX socket
  @ DRIVER MODE: Message from server: STATUS
  @ DRIVER MODE: Message from server: INIT
  @ DRIVER MODE: Receiving replica           0          -1
  @ DRIVER MODE: Receiving encoded integer          25
  @ DRIVER MODE:  SCF:  T  FORCE:  T  STRESS:  F  VC:  F  ENSEMBLE:  F
  @ DRIVER MODE:  SCF:  T  FORCE:  T  STRESS:  F  VC:  F  ENSEMBLE:  F

     Using Slab Decomposition

     bravais-lattice index     =            0
     lattice parameter (alat)  =       1.8897  a.u.
     unit-cell volume          =    9988.4706 (a.u.)^3
     number of atoms/cell      =           61
     number of atomic types    =            4
     number of electrons       =       442.00
     number of Kohn-Sham states=          231
     kinetic-energy cutoff     =      29.3995  Ry
     charge density cutoff     =     293.9946  Ry
     scf convergence threshold =      7.3E-08
     mixing beta               =       0.0500
     number of iterations used =            8  plain     mixing
     Exchange-correlation= BEEF-VDW
                           (   1   4  43  14   2   0   0)

     celldm(1)=   1.889726  celldm(2)=   0.000000  celldm(3)=   0.000000
     celldm(4)=   0.000000  celldm(5)=   0.000000  celldm(6)=   0.000000

     crystal axes: (cart. coord. in units of alat)
               a(1) = (   6.579727   0.000000   0.000000 )
               a(2) = (  -0.001163   8.942395   0.000000 )
               a(3) = (   0.000000   0.000000  25.155947 )

     reciprocal axes: (cart. coord. in units 2 pi/alat)
               b(1) = (  0.151982  0.000020  0.000000 )
               b(2) = (  0.000000  0.111827  0.000000 )
               b(3) = (  0.000000  0.000000  0.039752 )

     PseudoPot. # 1 for O  read from file:
     /storage/coda1/p-amedford6/0/shared/rich_project_chbe-medford/medford-share/data/pseudos_module/espresso/nninc/pbe/van/O.UPF
     MD5 check sum: 78c19812648e8988a0fe644b0f25305e
     Pseudo is Ultrasoft, Zval =  6.0
     Generated by new atomic code, or converted to UPF format
     Using radial grid of  737 points,  4 beta functions with:
                l(1) =   0
                l(2) =   0
                l(3) =   1
                l(4) =   1
     Q(r) pseudized with  8 coefficients,  rinner =    0.800   0.800   0.800

     PseudoPot. # 2 for Ti read from file:
     /storage/coda1/p-amedford6/0/shared/rich_project_chbe-medford/medford-share/data/pseudos_module/espresso/nninc/pbe/van/Ti.UPF
     MD5 check sum: 8e4df49b7f0d34bbd5052bf3f5ea0213
     Pseudo is Ultrasoft, Zval = 12.0
     Generated by new atomic code, or converted to UPF format
     Using radial grid of  851 points,  6 beta functions with:
                l(1) =   0
                l(2) =   0
                l(3) =   1
                l(4) =   1
                l(5) =   2
                l(6) =   2
     Q(r) pseudized with  8 coefficients,  rinner =    1.000   1.000   1.000
                                                       1.000   1.000

     PseudoPot. # 3 for N  read from file:
     /storage/coda1/p-amedford6/0/shared/rich_project_chbe-medford/medford-share/data/pseudos_module/espresso/nninc/pbe/van/N.UPF
     MD5 check sum: 90d10febe142ad51ac9d5be1deb811c4
     Pseudo is Ultrasoft, Zval =  5.0
     Generated by new atomic code, or converted to UPF format
     Using radial grid of  729 points,  4 beta functions with:
                l(1) =   0
                l(2) =   0
                l(3) =   1
                l(4) =   1
     Q(r) pseudized with  8 coefficients,  rinner =    0.800   0.800   0.800

     PseudoPot. # 4 for H  read from file:
     /storage/coda1/p-amedford6/0/shared/rich_project_chbe-medford/medford-share/data/pseudos_module/espresso/nninc/pbe/van/H.UPF
     MD5 check sum: b5ee9d7bfd3a09ee7748110bda690ff7
     Pseudo is Ultrasoft, Zval =  1.0
     Generated by new atomic code, or converted to UPF format
     Using radial grid of  615 points,  1 beta functions with:
                l(1) =   0
     Q(r) pseudized with  8 coefficients,  rinner =    0.800

     atomic species   valence    mass     pseudopotential
        O1             6.00    15.99900     O ( 1.00)
        Ti1           12.00    47.86700     Ti( 1.00)
        N1             5.00    14.00700     N ( 1.00)
        H1             1.00     1.00800     H ( 1.00)

     No symmetry found

   Cartesian axes

     site n.     atom                  positions (alat units)
         1           O1  tau(   1) = (   0.0007354   0.0005023  10.5931620  )
         2           O1  tau(   2) = (   3.2893251   8.9324977  13.8850595  )
         3           O1  tau(   3) = (   0.0000810   0.0519898  17.3357851  )
         4           O1  tau(   4) = (   0.0006271   0.0005054   7.9858123  )
         5           O1  tau(   5) = (   3.2891750   8.9291278  11.1853435  )
         6           O1  tau(   6) = (   0.0004222   0.0485762  14.6167438  )
         7           O1  tau(   7) = (   1.9868534   1.4903216   9.2879459  )
         8           O1  tau(   8) = (   5.2393499   1.5905449  12.5682489  )
         9           O1  tau(   9) = (   1.9991366   1.5492019  16.1124644  )
        10           Ti1 tau(  10) = (   0.0007404   1.4906270   9.2895810  )
        11           Ti1 tau(  11) = (   3.2902999   1.3249318  12.4520864  )
        12           Ti1 tau(  12) = (   0.0005939   1.3452645  15.7597600  )
        13           O1  tau(  13) = (   4.5942328   1.4918067   9.2879030  )
        14           O1  tau(  14) = (   1.3411764   1.5910169  12.5684512  )
        15           O1  tau(  15) = (   4.5798538   1.5480364  16.1129854  )
        16           Ti1 tau(  16) = (   3.2902859   2.9801868   9.2893338  )
        17           Ti1 tau(  17) = (   0.0006295   2.8174385  12.4372122  )
        18           Ti1 tau(  18) = (   3.2897038   2.9127836  15.6935398  )
        19           O1  tau(  19) = (   0.0003479   2.9813005  10.5931620  )
        20           O1  tau(  20) = (   3.2904107   2.9319293  13.8952334  )
        21           O1  tau(  21) = (   0.0002396   2.9813036   7.9858123  )
        22           O1  tau(  22) = (   3.2903884   2.9732875  11.2024877  )
        23           O1  tau(  23) = (   6.5791771   2.9400465  14.7470945  )
        24           O1  tau(  24) = (   1.9864658   4.4711199   9.2879459  )
        25           O1  tau(  25) = (   5.2507180   4.5586503  12.6053682  )
        26           O1  tau(  26) = (   1.9989508   4.4013585  16.0758979  )
        27           Ti1 tau(  27) = (   0.0003529   4.4714252   9.2895810  )
        28           Ti1 tau(  28) = (   3.2908498   4.3294621  12.5515864  )
        29           Ti1 tau(  29) = (   0.0012874   4.5361023  15.7587160  )
        30           O1  tau(  30) = (   4.5938453   4.4726049   9.2879030  )
        31           O1  tau(  31) = (   1.3295807   4.5581274  12.6051842  )
        32           O1  tau(  32) = (   4.5807093   4.4011557  16.0767203  )
        33           Ti1 tau(  33) = (   3.2898983   5.9609850   9.2893338  )
        34           Ti1 tau(  34) = (   0.0011720   5.8030845  12.4395124  )
        35           Ti1 tau(  35) = (   3.2913837   5.8399099  16.1904745  )
        36           O1  tau(  36) = (  -0.0000397   5.9620987  10.5931620  )
        37           O1  tau(  37) = (   3.2897076   5.9457256  13.9643012  )
        38           O1  tau(  38) = (   0.0001823   5.8979554  17.1998916  )
        39           O1  tau(  39) = (  -0.0001480   5.9621018   7.9858123  )
        40           O1  tau(  40) = (   3.2897623   5.9362706  11.2341171  )
        41           O1  tau(  41) = (   0.0004469   5.9800359  14.6665197  )
        42           O1  tau(  42) = (   1.9860782   7.4519181   9.2879459  )
        43           O1  tau(  43) = (   5.2507221   7.5245448  12.5933772  )
        44           O1  tau(  44) = (   1.9799843   7.5745874  16.0532815  )
        45           Ti1 tau(  45) = (  -0.0000347   7.4522234   9.2895810  )
        46           Ti1 tau(  46) = (   3.2894177   7.1911746  12.6495270  )
        47           Ti1 tau(  47) = (   0.0007314   7.2822180  16.1322395  )
        48           O1  tau(  48) = (   4.5934577   7.4534031   9.2879030  )
        49           O1  tau(  49) = (   1.3275845   7.5244469  12.5935105  )
        50           O1  tau(  50) = (   4.5990354   7.5728923  16.0522427  )
        51           Ti1 tau(  51) = (   3.2895107   8.9417832   9.2893338  )
        52           Ti1 tau(  52) = (  -0.0007012   8.7603021  12.4499776  )
        53           Ti1 tau(  53) = (   3.2901857   8.8509785  15.6953962  )
        54           N1  tau(  54) = (   3.2799770   5.9827455  18.1265562  )
        55           H1  tau(  55) = (   3.2886311   5.2071789  18.7771882  )
        56           H1  tau(  56) = (   3.2869209   6.8541504  18.6418389  )
        57           H1  tau(  57) = (   6.5771076   8.8877891  18.2917622  )
        58           N1  tau(  58) = (   6.5788838   3.2021548  17.9140464  )
        59           H1  tau(  59) = (   6.5785461   2.2502248  18.2648563  )
        60           H1  tau(  60) = (   5.7591345   3.6762813  18.2792932  )
        61           H1  tau(  61) = (   0.8178175   3.6764091  18.2810048  )

     number of k points=    10  Fermi-Dirac smearing, width (Ry)=  0.0073
                       cart. coord. in units 2pi/alat
        k(    1) = (   0.0000000   0.0000000   0.0000000), wk =   0.1250000
        k(    2) = (   0.0000000   0.0279567   0.0000000), wk =   0.2500000
        k(    3) = (   0.0000000  -0.0559134   0.0000000), wk =   0.1250000
        k(    4) = (   0.0379955   0.0000049   0.0000000), wk =   0.2500000
        k(    5) = (   0.0379955   0.0279617   0.0000000), wk =   0.2500000
        k(    6) = (   0.0379955  -0.0559085   0.0000000), wk =   0.2500000
        k(    7) = (   0.0379955  -0.0279518   0.0000000), wk =   0.2500000
        k(    8) = (  -0.0759910  -0.0000099   0.0000000), wk =   0.1250000
        k(    9) = (  -0.0759910   0.0279468   0.0000000), wk =   0.2500000
        k(   10) = (  -0.0759910  -0.0559233   0.0000000), wk =   0.1250000

     Initial potential from superposition of free atoms

     starting charge  423.99908, renormalised to  442.00000

     negative rho (up, down):  3.661E-02 0.000E+00

     %%%%%%%%%%%%%%%%%%%%%%%%%%%%%%%%%%%%%%%%%%%%%%%%%%%%%%%%%%%%%%%%%%%%%%%%
     %                                                                      %
     % You are using vdW-DF, which was implemented by the Thonhauser group. %
     % Please cite the following two papers that made this development      %
     % possible and the two reviews that describe the various versions:     %
     %                                                                      %
     %   T. Thonhauser et al., PRL 115, 136402 (2015).                      %
     %   T. Thonhauser et al., PRB 76, 125112 (2007).                       %
     %   K. Berland et al., Rep. Prog. Phys. 78, 066501 (2015).             %
     %   D.C. Langreth et al., J. Phys.: Condens. Matter 21, 084203 (2009). %
     %                                                                      %
     %                                                                      %
     % If you are calculating the stress with vdW-DF, please also cite:     %
     %                                                                      %
     %   R. Sabatini et al., J. Phys.: Condens. Matter 24, 424209 (2012).   %
     %                                                                      %
     %%%%%%%%%%%%%%%%%%%%%%%%%%%%%%%%%%%%%%%%%%%%%%%%%%%%%%%%%%%%%%%%%%%%%%%%

     Adding external electric field

     Computed dipole along edir(3) :
        Dipole               -6.2843 Ry au,        -15.9732 Debye
        Dipole field         -0.0079 Ry au,

        Potential amp.        0.7329 Ry
        Total length         46.3494 bohr

     Starting wfcs are  334 atomic wfcs
  @ DRIVER MODE: Message from server: STATUS
  @ DRIVER MODE: Message from server: POSDATA
  @ DRIVER MODE: Reading and sharing cell
  @ DRIVER MODE: Reading and sharing positions
  @ DRIVER MODE: Received positions

     Self-consistent Calculation

     iteration #  1     ecut=    29.40 Ry     beta= 0.05
     Davidson diagonalization with overlap
     c_bands:  2 eigenvalues not converged
     c_bands:  4 eigenvalues not converged
     c_bands:  3 eigenvalues not converged
     c_bands:  4 eigenvalues not converged
     c_bands:  5 eigenvalues not converged
     c_bands:  4 eigenvalues not converged
     c_bands:  2 eigenvalues not converged
     c_bands:  2 eigenvalues not converged
     ethr =  1.00E-05,  avg # of iterations = 21.4

[...]

     total energy              =   -3276.10293432 Ry
     estimated scf accuracy    <     260.30943653 Ry

     iteration #  2     ecut=    29.40 Ry     beta= 0.05
     Davidson diagonalization with overlap
     ethr =  1.00E-02,  avg # of iterations = 14.8

[...]

     iteration # 52     ecut=    29.40 Ry     beta= 0.05
     Davidson diagonalization with overlap
     c_bands:  2 eigenvalues not converged
     ethr =  2.64E-11,  avg # of iterations = 16.2

[...]

     total energy              =   -3295.82444805 Ry
     estimated scf accuracy    <       0.00000020 Ry

     iteration # 53     ecut=    29.40 Ry     beta= 0.05
     Davidson diagonalization with overlap
     ethr =  2.64E-11,  avg # of iterations = 10.5

     negative rho (up, down):  3.545E-02 0.000E+00

     Adding external electric field

     Computed dipole along edir(3) :
        Dipole                1.9325 Ry au,          4.9119 Debye
        Dipole field          0.0024 Ry au,

        Potential amp.       -0.2254 Ry
        Total length         46.3494 bohr

     End of self-consistent calculation

          k = 0.0000 0.0000 0.0000 ( 26871 PWs)   bands (ev):

   -57.4687 -57.4334 -57.4207 -57.3811 -57.3721 -57.3641 -57.3535 -57.3422
   -57.3214 -57.2830 -57.2764 -57.2398 -57.2183 -57.2016 -57.1821 -56.5422
   -56.5179 -56.5119 -33.9392 -33.8527 -33.8521 -33.8296 -33.8097 -33.7922
   -33.7744 -33.7705 -33.7667 -33.7534 -33.7282 -33.7071 -33.7022 -33.6874
   -33.6856 -33.6811 -33.6604 -33.6516 -33.6301 -33.6246 -33.5931 -33.5784
   -33.5609 -33.5565 -33.5491 -33.5480 -33.5444 -33.5369 -33.5251 -33.5219
   -33.5150 -33.5007 -33.4922 -33.4913 -33.4845 -33.4829 -33.4742 -33.4722
   -33.4642 -33.4534 -33.4415 -33.4246 -33.4089 -33.4024 -33.3878 -32.8609
   -32.8527 -32.8517 -32.8351 -32.8297 -32.7702 -32.7089 -32.7017 -32.5700
   -19.3434 -18.2728 -17.9733 -17.7759 -17.7259 -17.6924 -17.5768 -17.5483
   -17.4957 -17.4421 -17.4055 -17.3623 -17.2877 -17.2474 -17.2455 -17.2216
   -17.1675 -17.1436 -17.1356 -17.1254 -17.1235 -17.0989 -17.0495 -17.0456
   -16.9890 -16.9476 -16.9160 -16.9057 -16.8970 -16.8646 -16.8566 -16.8038
   -16.6053 -15.0251 -15.0081 -14.9492 -14.9458  -7.8649  -7.6272  -7.3902
    -6.4607  -5.5813  -5.4295  -5.3985  -5.2346  -4.9633  -4.9115  -4.8682
    -4.8218  -4.7843  -4.7458  -4.7229  -4.6939  -4.6624  -4.6107  -4.5800
    -4.5635  -4.5300  -4.5101  -4.4791  -4.4491  -4.4439  -4.4144  -4.3256
    -4.3164  -4.2926  -4.2749  -4.2391  -4.2211  -4.2184  -4.1692  -4.1578
    -4.0691  -3.9824  -3.8966  -3.8440  -3.8177  -3.7943  -3.7470  -3.7095
    -3.6803  -3.6359  -3.6159  -3.5472  -3.5195  -3.5088  -3.4329  -3.3980
    -3.3027  -3.2642  -3.2529  -3.2321  -3.1896  -3.1780  -3.0941  -3.0828
    -2.9736  -2.9545  -2.8642  -2.7911  -2.7416  -2.7137  -2.6758  -2.6141
    -2.5945  -2.5489  -2.5211  -2.4607  -2.4466  -2.3208  -2.2531  -2.2496
    -2.2294  -2.1910  -2.1616  -2.1475  -2.1251  -2.1222  -2.0437  -2.0348
    -1.9850  -1.9099  -1.8841  -1.8474  -1.8347  -1.7994  -1.7572  -1.6924
    -1.6869  -1.6513  -1.5636  -1.5026  -1.5017  -1.3554  -1.3494  -1.3158
    -1.2676  -1.2138  -1.1833  -0.7809  -0.6050  -0.4357  -0.3095  -0.2488
    -0.2475   0.0272   0.0322   0.1647   1.6136   1.7646   1.8251   1.9590
     1.9775   2.0366   2.1182   2.1404   2.2074   2.2348   2.2440

[...]

          k = 0.0380-0.0280 0.0000 ( 26873 PWs)   bands (ev):

[...]

          k =-0.0760-0.0000 0.0000 ( 26902 PWs)   bands (ev):

[...]

          k =-0.0760-0.0559 0.0000 ( 26868 PWs)   bands (ev):

   -57.4671 -57.4380 -57.4176 -57.3786 -57.3679 -57.3660 -57.3619 -57.3388
   -57.3209 -57.2827 -57.2768 -57.2360 -57.2249 -57.1987 -57.1821 -56.5369
   -56.5289 -56.5061 -33.9841 -33.9354 -33.8635 -33.8190 -33.8032 -33.7908
   -33.7842 -33.7762 -33.7658 -33.7443 -33.7154 -33.6970 -33.6596 -33.6576
   -33.6378 -33.6245 -33.6097 -33.5961 -33.5950 -33.5904 -33.5860 -33.5766
   -33.5725 -33.5656 -33.5636 -33.5508 -33.5428 -33.5282 -33.5223 -33.5204
   -33.5158 -33.5153 -33.5115 -33.5084 -33.5063 -33.4950 -33.4885 -33.4847
   -33.4818 -33.4747 -33.4471 -33.4411 -33.4356 -33.4237 -33.3996 -32.9483
   -32.8535 -32.8455 -32.8238 -32.7529 -32.7444 -32.6839 -32.6707 -32.6631
   -19.3368 -17.9700 -17.8313 -17.8255 -17.6483 -17.6032 -17.6002 -17.5305
   -17.4848 -17.4390 -17.4348 -17.4034 -17.3548 -17.3303 -17.3009 -17.2752
   -17.2596 -17.2243 -17.1830 -17.1821 -17.1484 -17.1150 -17.0885 -17.0464
   -17.0397 -16.9854 -16.9215 -16.8841 -16.8595 -16.8573 -16.8206 -16.7955
   -16.6385 -15.0256 -15.0060 -15.0017 -14.8859  -7.8729  -7.6451  -7.3793
    -6.4520  -5.2157  -5.1781  -5.1326  -5.0395  -5.0017  -4.9700  -4.8341
    -4.7738  -4.7320  -4.6867  -4.6443  -4.6366  -4.6223  -4.5666  -4.5493
    -4.5337  -4.4875  -4.4468  -4.4266  -4.4038  -4.4023  -4.3987  -4.3956
    -4.2635  -4.2514  -4.1990  -4.1786  -4.1564  -4.1335  -4.1306  -4.0768
    -4.0348  -3.9937  -3.9816  -3.9558  -3.8934  -3.8365  -3.7560  -3.6581
    -3.6472  -3.5903  -3.5802  -3.4874  -3.4822  -3.3891  -3.3257  -3.2812
    -3.2524  -3.2274  -3.1509  -3.1459  -3.1369  -3.0865  -3.0526  -3.0242
    -2.9760  -2.9656  -2.9209  -2.8181  -2.7827  -2.7244  -2.6979  -2.6934
    -2.6366  -2.6326  -2.5955  -2.5939  -2.5872  -2.5422  -2.4875  -2.4535
    -2.4365  -2.4049  -2.3164  -2.2918  -2.2391  -2.2313  -2.1657  -2.1493
    -2.1369  -2.0732  -2.0216  -1.9904  -1.9822  -1.9085  -1.8049  -1.7467
    -1.7247  -1.7033  -1.5975  -1.5488  -1.4932  -1.4505  -1.2682  -1.2560
    -1.1835  -1.1438  -1.0910  -1.0422  -0.8553  -0.4566  -0.4051  -0.1872
    -0.1719  -0.1345   0.0319   0.0376   1.7062   1.7178   1.8153   1.8567
     1.9186   1.9293   1.9736   1.9908   2.0007   2.0467   2.0524

     the Fermi energy is     1.6451 ev

!    total energy              =   -3295.82452913 Ry
     estimated scf accuracy    <       0.00000005 Ry
     smearing contrib. (-TS)   =      -0.03670634 Ry
     internal energy E=F+TS    =   -3295.78782280 Ry

     The total energy is F=E-TS. E is the sum of the following terms:
     one-electron contribution =  -34289.90131971 Ry
     hartree contribution      =   17213.93945731 Ry
     xc contribution           =    -543.77343679 Ry
     ewald contribution        =   14323.94277808 Ry
     electric field correction =       0.00469832 Ry

     convergence has been achieved in  53 iterations

     Forces acting on atoms (cartesian axes, Ry/au):

     atom    1 type  1   force =     0.00001335    0.00239617    0.05211050
     atom    2 type  1   force =    -0.00003810   -0.00061133   -0.00557649
     atom    3 type  1   force =     0.00000991   -0.00287852   -0.00289299
     atom    4 type  1   force =     0.00005381   -0.00037332    0.10762756
     atom    5 type  1   force =    -0.00002225    0.00170915    0.00528024
     atom    6 type  1   force =    -0.00000016   -0.00046950    0.00059069
     atom    7 type  1   force =     0.06436260    0.00076912   -0.03001883
     atom    8 type  1   force =     0.00532982   -0.02657853    0.00244960
     atom    9 type  1   force =     0.00844275   -0.01289087   -0.00077899
     atom   10 type  2   force =    -0.00006017   -0.00537412   -0.18728563
     atom   11 type  2   force =     0.00012001    0.02017031   -0.00479031
     atom   12 type  2   force =    -0.00010448    0.01847498   -0.00059076
     atom   13 type  1   force =    -0.06446685    0.00029197   -0.02997846
     atom   14 type  1   force =    -0.00514669   -0.02678783    0.00247800
     atom   15 type  1   force =    -0.00836930   -0.01280128   -0.00074950
     atom   16 type  2   force =     0.00009792   -0.00105895    0.07211816
     atom   17 type  2   force =    -0.00027794    0.03302799    0.00618099
     atom   18 type  2   force =    -0.00006253    0.00457925   -0.00758375
     atom   19 type  1   force =     0.00001490    0.00395504    0.05308873
     atom   20 type  1   force =    -0.00003269   -0.00054885   -0.00169676
     atom   21 type  1   force =     0.00005287    0.00130357    0.10847903
     atom   22 type  1   force =    -0.00002588   -0.00118704    0.00629814
     atom   23 type  1   force =     0.00000538   -0.00518898    0.00193986
     atom   24 type  1   force =     0.06587720    0.00139819   -0.02848087
     atom   25 type  1   force =     0.00547040   -0.02924517    0.00263128
     atom   26 type  1   force =     0.00974139   -0.00209973   -0.00045232
     atom   27 type  2   force =    -0.00007303   -0.00075446   -0.19124529
     atom   28 type  2   force =     0.00014552    0.02480704   -0.00470030
     atom   29 type  2   force =     0.00007293   -0.00423988    0.00931339
     atom   30 type  1   force =    -0.06598076    0.00095907   -0.02844948
     atom   31 type  1   force =    -0.00532427   -0.02936607    0.00266504
     atom   32 type  1   force =    -0.00967974   -0.00177847    0.00001487
     atom   33 type  2   force =     0.00012903    0.00069682    0.08050531
     atom   34 type  2   force =    -0.00029092    0.03537421    0.00621451
     atom   35 type  2   force =    -0.00061495    0.01546254    0.00195801
     atom   36 type  1   force =     0.00006612    0.00026688    0.05320561
     atom   37 type  1   force =     0.00000466    0.00175953   -0.00890689
     atom   38 type  1   force =    -0.00020928    0.00138092   -0.00016622
     atom   39 type  1   force =     0.00005437   -0.00117354    0.10820792
     atom   40 type  1   force =    -0.00003335   -0.00139201    0.00603360
     atom   41 type  1   force =     0.00001322    0.00390108    0.00144177
     atom   42 type  1   force =     0.06613788   -0.00349341   -0.02907424
     atom   43 type  1   force =     0.00366210   -0.02410510    0.00085474
     atom   44 type  1   force =     0.01422998   -0.01846846    0.00295431
     atom   45 type  2   force =    -0.00009975    0.00310666   -0.18717916
     atom   46 type  2   force =     0.00012066    0.01623821    0.00222149
     atom   47 type  2   force =     0.00005956    0.01858917   -0.00293287
     atom   48 type  1   force =    -0.06623709   -0.00393062   -0.02903169
     atom   49 type  1   force =    -0.00341423   -0.02429466    0.00086726
     atom   50 type  1   force =    -0.01421633   -0.01871070    0.00326660
     atom   51 type  2   force =     0.00013144   -0.00295139    0.07343056
     atom   52 type  2   force =    -0.00028294    0.03103852    0.00786918
     atom   53 type  2   force =    -0.00010555    0.02029474    0.00048574
     atom   54 type  3   force =     0.00100531   -0.00080092   -0.00274397
     atom   55 type  4   force =    -0.00009741   -0.00036133    0.00063843
     atom   56 type  4   force =    -0.00016274    0.00034058   -0.00029257
     atom   57 type  4   force =    -0.00002982   -0.00019476   -0.00004379
     atom   58 type  3   force =    -0.00025601    0.00027233    0.00007504
     atom   59 type  4   force =     0.00000220    0.00024852    0.00047301
     atom   60 type  4   force =     0.00011701    0.00055034    0.00076468
     atom   61 type  4   force =     0.00017091    0.00074693    0.00090829

     Total force =     0.459389     Total SCF correction =     0.000575
  @ DRIVER MODE: Message from server: STATUS
  @ DRIVER MODE: Message from server: GETFORCE
  @ DRIVER MODE: Returning v,forces,stress,ensemble

     Writing output data file ./calc.save/
  @ DRIVER MODE: Message from server: EXIT
  @ DRIVE MODE: Exiting

     General routines

     Parallel routines

   This run was terminated on:  12:19:22  18Oct2021

   JOB DONE.