     Program PWSCF v.6.7GPU starts on  2Aug2021 at 12:14:53

     R & G space division:  proc/nbgrp/npool/nimage =      16
     Reading input from /storage/home/hcoda1/3/ntian30/research/carbon/02Aug_vib_paired/ads_slab/CH3N_a/out_0001/pw.inp
Warning: card &CELL ignored
Warning: card   CELL_DYNAMICS='IPI', ignored
Warning: card / ignored

     Current dimensions of program PWSCF are:
     Max number of different atomic species (ntypx) = 10
     Max number of k-points (npk) =  40000
     Max angular momentum in pseudopotentials (lmaxx) =  3
     Presently no symmetry can be used with electric field

     Message from routine cell_base_init:
     DEPRECATED: use true lattice parameter, not A to a.u. conversion factor

     IMPORTANT: XC functional enforced from input :
     Exchange-correlation= BEEF-VDW
                           (   1   4  43  14   2   0   0)
     Any further DFT definition will be discarded
     Please, verify this is what you really want

  @ DRIVER MODE: Connecting to
 qe_1139763_2482542.sched-torque.pace.gatech.edubnwegys6_scratch
  using UNIX socket
  @ DRIVER MODE: Message from server: STATUS
  @ DRIVER MODE: Message from server: INIT
  @ DRIVER MODE: Receiving replica           0          -1
  @ DRIVER MODE: Receiving encoded integer          25
  @ DRIVER MODE:  SCF:  T  FORCE:  T  STRESS:  F  VC:  F  ENSEMBLE:  F
  @ DRIVER MODE:  SCF:  T  FORCE:  T  STRESS:  F  VC:  F  ENSEMBLE:  F

     Using Slab Decomposition

     bravais-lattice index     =            0
     lattice parameter (alat)  =       1.8897  a.u.
     unit-cell volume          =    6658.9804 (a.u.)^3
     number of atoms/cell      =           52
     number of atomic types    =            5
     number of electrons       =       390.00
     number of Kohn-Sham states=          205
     kinetic-energy cutoff     =      29.3995  Ry
     charge density cutoff     =     293.9946  Ry
     scf convergence threshold =      7.3E-08
     mixing beta               =       0.0500
     number of iterations used =            8  plain     mixing
     Exchange-correlation= BEEF-VDW
                           (   1   4  43  14   2   0   0)

     celldm(1)=   1.889726  celldm(2)=   0.000000  celldm(3)=   0.000000
     celldm(4)=   0.000000  celldm(5)=   0.000000  celldm(6)=   0.000000

     crystal axes: (cart. coord. in units of alat)
               a(1) = (   6.579727   0.000000   0.000000 )
               a(2) = (  -0.000775   5.961596   0.000000 )
               a(3) = (   0.000000   0.000000  25.155947 )

     reciprocal axes: (cart. coord. in units 2 pi/alat)
               b(1) = (  0.151982  0.000020  0.000000 )
               b(2) = (  0.000000  0.167740  0.000000 )
               b(3) = (  0.000000  0.000000  0.039752 )

     PseudoPot. # 1 for Ti read from file:
     /storage/coda1/p-amedford6/0/shared/rich_project_chbe-medford/medford-share/data/pseudos_module/espresso/nninc/pbe/van/Ti.UPF
     MD5 check sum: 8e4df49b7f0d34bbd5052bf3f5ea0213
     Pseudo is Ultrasoft, Zval = 12.0
     Generated by new atomic code, or converted to UPF format
     Using radial grid of  851 points,  6 beta functions with:
                l(1) =   0
                l(2) =   0
                l(3) =   1
                l(4) =   1
                l(5) =   2
                l(6) =   2
     Q(r) pseudized with  8 coefficients,  rinner =    1.000   1.000   1.000
                                                       1.000   1.000

     PseudoPot. # 2 for O  read from file:
     /storage/coda1/p-amedford6/0/shared/rich_project_chbe-medford/medford-share/data/pseudos_module/espresso/nninc/pbe/van/O.UPF
     MD5 check sum: 78c19812648e8988a0fe644b0f25305e
     Pseudo is Ultrasoft, Zval =  6.0
     Generated by new atomic code, or converted to UPF format
     Using radial grid of  737 points,  4 beta functions with:
                l(1) =   0
                l(2) =   0
                l(3) =   1
                l(4) =   1
     Q(r) pseudized with  8 coefficients,  rinner =    0.800   0.800   0.800

     PseudoPot. # 3 for N  read from file:
     /storage/coda1/p-amedford6/0/shared/rich_project_chbe-medford/medford-share/data/pseudos_module/espresso/nninc/pbe/van/N.UPF
     MD5 check sum: 90d10febe142ad51ac9d5be1deb811c4
     Pseudo is Ultrasoft, Zval =  5.0
     Generated by new atomic code, or converted to UPF format
     Using radial grid of  729 points,  4 beta functions with:
                l(1) =   0
                l(2) =   0
                l(3) =   1
                l(4) =   1
     Q(r) pseudized with  8 coefficients,  rinner =    0.800   0.800   0.800

     PseudoPot. # 4 for C  read from file:
     /storage/coda1/p-amedford6/0/shared/rich_project_chbe-medford/medford-share/data/pseudos_module/espresso/nninc/pbe/van/C.UPF
     MD5 check sum: 1a69bf6b8db32088f5b2163dbdb77a27
     Pseudo is Ultrasoft, Zval =  4.0
     Generated by new atomic code, or converted to UPF format
     Using radial grid of  721 points,  4 beta functions with:
                l(1) =   0
                l(2) =   0
                l(3) =   1
                l(4) =   1
     Q(r) pseudized with  8 coefficients,  rinner =    0.800   0.800   0.800

     PseudoPot. # 5 for H  read from file:
     /storage/coda1/p-amedford6/0/shared/rich_project_chbe-medford/medford-share/data/pseudos_module/espresso/nninc/pbe/van/H.UPF
     MD5 check sum: b5ee9d7bfd3a09ee7748110bda690ff7
     Pseudo is Ultrasoft, Zval =  1.0
     Generated by new atomic code, or converted to UPF format
     Using radial grid of  615 points,  1 beta functions with:
                l(1) =   0
     Q(r) pseudized with  8 coefficients,  rinner =    0.800

     atomic species   valence    mass     pseudopotential
        Ti1           12.00    47.86700     Ti( 1.00)
        O1             6.00    15.99900     O ( 1.00)
        N1             5.00    14.00700     N ( 1.00)
        C1             4.00    12.01100     C ( 1.00)
        H1             1.00     1.00800     H ( 1.00)

     No symmetry found

   Cartesian axes

     site n.     atom                  positions (alat units)
         1           Ti1 tau(   1) = (   0.0004258   2.9801865   6.0000000  )
         2           Ti1 tau(   2) = (   3.2906075   1.4906267   6.0002472  )
         3           O1  tau(   3) = (   0.0006271   0.0005054   7.9858123  )
         4           O1  tau(   4) = (   3.2906025   0.0005020   7.3038282  )
         5           O1  tau(   5) = (   4.5942328   1.4918067   9.2879030  )
         6           O1  tau(   6) = (   1.9868534   1.4903216   9.2879459  )
         7           Ti1 tau(   7) = (   3.2907910   2.8959150   9.1758416  )
         8           Ti1 tau(   8) = (   0.0015273   1.4827037   9.2680791  )
         9           O1  tau(   9) = (   3.2848820   0.0184509  11.2968037  )
        10           O1  tau(  10) = (   0.0116148   5.9584955  10.6183126  )
        11           O1  tau(  11) = (   1.3164307   1.5202202  12.6152053  )
        12           O1  tau(  12) = (   5.2938533   1.5248534  12.6363518  )
        13           Ti1 tau(  13) = (   6.4693392   3.0155455  12.7604093  )
        14           Ti1 tau(  14) = (   3.1621140   1.5165027  12.4659144  )
        15           O1  tau(  15) = (   0.0250032   0.0426882  14.5925537  )
        16           O1  tau(  16) = (   3.2896737   0.0171256  13.8799622  )
        17           O1  tau(  17) = (   4.5365032   1.4993634  16.0438468  )
        18           O1  tau(  18) = (   2.0814567   1.5015292  16.0591106  )
        19           Ti1 tau(  19) = (   3.3082904   2.9956922  15.6854367  )
        20           Ti1 tau(  20) = (   0.0032501   1.4479889  16.1249605  )
        21           O1  tau(  21) = (   3.2904802   0.0005063   4.7018136  )
        22           O1  tau(  22) = (   0.0161699   0.0004382  17.1970091  )
        23           O1  tau(  23) = (   1.3043587   1.4918075   6.0039043  )
        24           O1  tau(  24) = (   5.2767064   1.4903225   6.0039473  )
        25           Ti1 tau(  25) = (   0.0000382   5.9609847   6.0000000  )
        26           Ti1 tau(  26) = (   3.2902200   4.4714249   6.0002472  )
        27           O1  tau(  27) = (   0.0002396   2.9813036   7.9858123  )
        28           O1  tau(  28) = (   3.2902150   2.9813002   7.3038282  )
        29           O1  tau(  29) = (   4.5938453   4.4726049   9.2879030  )
        30           O1  tau(  30) = (   1.9864658   4.4711199   9.2879459  )
        31           Ti1 tau(  31) = (   3.2891106   5.8743827   9.1763621  )
        32           Ti1 tau(  32) = (   0.0006254   4.4649316   9.2693709  )
        33           O1  tau(  33) = (   3.2855107   2.9994495  11.2959752  )
        34           O1  tau(  34) = (   0.0092240   2.9805883  10.6323155  )
        35           O1  tau(  35) = (   1.3179678   4.4860142  12.6155112  )
        36           O1  tau(  36) = (   5.2920789   4.4901865  12.6316709  )
        37           Ti1 tau(  37) = (   6.5050993   0.0355131  12.7707974  )
        38           Ti1 tau(  38) = (   3.1594757   4.4963870  12.4672366  )
        39           O1  tau(  39) = (   6.5726527   3.0227966  14.6583025  )
        40           O1  tau(  40) = (   3.2932321   2.9979836  13.8792693  )
        41           O1  tau(  41) = (   4.5322310   4.4839795  16.0418810  )
        42           O1  tau(  42) = (   2.0800586   4.4799519  16.0553745  )
        43           Ti1 tau(  43) = (   3.2910362   0.0127607  15.6894215  )
        44           Ti1 tau(  44) = (   0.0049462   4.4269923  16.0943486  )
        45           O1  tau(  45) = (   3.2900926   2.9813045   4.7018136  )
        46           O1  tau(  46) = (   1.3039711   4.4726057   6.0039043  )
        47           O1  tau(  47) = (   5.2763189   4.4711207   6.0039473  )
        48           N1  tau(  48) = (   0.0496666   2.9942962  17.3216073  )
        49           C1  tau(  49) = (   0.3918855   2.9774893  18.7266025  )
        50           H1  tau(  50) = (   0.0017595   3.8652167  19.2343835  )
        51           H1  tau(  51) = (   0.0043965   2.0815098  19.2200810  )
        52           H1  tau(  52) = (   1.4843755   2.9788857  18.8581259  )

     number of k points=    10  Fermi-Dirac smearing, width (Ry)=  0.0073
                       cart. coord. in units 2pi/alat
        k(    1) = (   0.0000000   0.0000000   0.0000000), wk =   0.1250000
        k(    2) = (   0.0000000   0.0419351   0.0000000), wk =   0.2500000
        k(    3) = (   0.0000000  -0.0838702   0.0000000), wk =   0.1250000
        k(    4) = (   0.0379955   0.0000049   0.0000000), wk =   0.2500000
        k(    5) = (   0.0379955   0.0419400   0.0000000), wk =   0.2500000
        k(    6) = (   0.0379955  -0.0838652   0.0000000), wk =   0.2500000
        k(    7) = (   0.0379955  -0.0419301   0.0000000), wk =   0.2500000
        k(    8) = (  -0.0759910  -0.0000099   0.0000000), wk =   0.1250000
        k(    9) = (  -0.0759910   0.0419252   0.0000000), wk =   0.2500000
        k(   10) = (  -0.0759910  -0.0838800   0.0000000), wk =   0.1250000

     Initial potential from superposition of free atoms

     starting charge  373.99917, renormalised to  390.00000

     negative rho (up, down):  1.730E-02 0.000E+00

     %%%%%%%%%%%%%%%%%%%%%%%%%%%%%%%%%%%%%%%%%%%%%%%%%%%%%%%%%%%%%%%%%%%%%%%%
     %                                                                      %
     % You are using vdW-DF, which was implemented by the Thonhauser group. %
     % Please cite the following two papers that made this development      %
     % possible and the two reviews that describe the various versions:     %
     %                                                                      %
     %   T. Thonhauser et al., PRL 115, 136402 (2015).                      %
     %   T. Thonhauser et al., PRB 76, 125112 (2007).                       %
     %   K. Berland et al., Rep. Prog. Phys. 78, 066501 (2015).             %
     %   D.C. Langreth et al., J. Phys.: Condens. Matter 21, 084203 (2009). %
     %                                                                      %
     %                                                                      %
     % If you are calculating the stress with vdW-DF, please also cite:     %
     %                                                                      %
     %   R. Sabatini et al., J. Phys.: Condens. Matter 24, 424209 (2012).   %
     %                                                                      %
     %%%%%%%%%%%%%%%%%%%%%%%%%%%%%%%%%%%%%%%%%%%%%%%%%%%%%%%%%%%%%%%%%%%%%%%%

     Adding external electric field

     Computed dipole along edir(3) :
        Dipole               -4.6263 Ry au,        -11.7589 Debye
        Dipole field         -0.0087 Ry au,

        Potential amp.        0.8093 Ry
        Total length         46.3494 bohr

     Starting wfcs are  295 atomic wfcs
  @ DRIVER MODE: Message from server: STATUS
  @ DRIVER MODE: Message from server: POSDATA
  @ DRIVER MODE: Reading and sharing cell
  @ DRIVER MODE: Reading and sharing positions
  @ DRIVER MODE: Received positions

     Self-consistent Calculation

     iteration #  1     ecut=    29.40 Ry     beta= 0.05
     Davidson diagonalization with overlap
     c_bands:  4 eigenvalues not converged
     c_bands:  3 eigenvalues not converged
     c_bands:  2 eigenvalues not converged
     c_bands:  4 eigenvalues not converged
     c_bands:  4 eigenvalues not converged
     c_bands:  2 eigenvalues not converged
     c_bands:  3 eigenvalues not converged
     c_bands:  2 eigenvalues not converged
     ethr =  1.00E-05,  avg # of iterations = 19.7

[...]

     total energy              =   -2877.09713124 Ry
     estimated scf accuracy    <     484.53392773 Ry

     iteration #  2     ecut=    29.40 Ry     beta= 0.05
     Davidson diagonalization with overlap
     ethr =  1.00E-02,  avg # of iterations = 13.8

[...]

     iteration # 40     ecut=    29.40 Ry     beta= 0.05
     Davidson diagonalization with overlap
     c_bands:  1 eigenvalues not converged
     ethr =  5.81E-08,  avg # of iterations = 10.7

[...]

     total energy              =   -2919.13278376 Ry
     estimated scf accuracy    <       0.00000021 Ry

     iteration # 60     ecut=    29.40 Ry     beta= 0.05
     Davidson diagonalization with overlap
     ethr =  5.26E-11,  avg # of iterations =  5.0

     negative rho (up, down):  1.773E-02 0.000E+00

     Adding external electric field

     Computed dipole along edir(3) :
        Dipole                0.2488 Ry au,          0.6323 Debye
        Dipole field          0.0005 Ry au,

        Potential amp.       -0.0435 Ry
        Total length         46.3494 bohr

     End of self-consistent calculation

          k = 0.0000 0.0000 0.0000 ( 18029 PWs)   bands (ev):

   -56.9018 -56.8682 -56.0134 -56.0040 -55.9783 -55.9715 -55.8622 -55.8264
   -55.6442 -55.6090 -55.5632 -55.5383 -55.5293 -55.4405 -54.9942 -54.9417
   -33.3293 -33.1761 -33.1479 -33.0783 -32.9873 -32.9554 -32.4867 -32.4776
   -32.4051 -32.2993 -32.2536 -32.2270 -32.2118 -32.1879 -32.1550 -32.1518
   -32.1430 -32.1423 -32.1180 -32.1084 -32.1037 -32.0705 -32.0444 -32.0291
   -32.0153 -31.9985 -31.9895 -31.9658 -31.9553 -31.9019 -31.8778 -31.8758
   -31.7831 -31.7821 -31.7741 -31.7138 -31.7105 -31.6906 -31.6685 -31.6468
   -31.6226 -31.5797 -31.5163 -31.2377 -31.2192 -31.1920 -31.1629 -31.0445
   -17.0634 -16.6223 -16.3910 -16.2628 -16.1902 -16.1409 -16.0927 -15.9628
   -15.8935 -15.8909 -15.8547 -15.8125 -15.7453 -15.6065 -15.5092 -15.4484
   -15.4050 -15.2850 -15.2295 -15.1904 -15.1834 -15.1514 -15.1318 -14.9347
   -14.9123 -14.8178 -14.7988 -14.6763 -14.4467 -14.0616 -13.9515 -13.0681
    -7.8083  -4.6298  -4.1187  -3.8751  -3.7934  -3.6820  -3.6764  -3.5914
    -3.4808  -3.4289  -3.3837  -3.2682  -3.2625  -3.1182  -3.0956  -3.0763
    -3.0687  -3.0291  -2.9967  -2.9515  -2.8980  -2.8897  -2.8787  -2.7367
    -2.6391  -2.5675  -2.5462  -2.5284  -2.5016  -2.4081  -2.4033  -2.3901
    -2.3865  -2.2888  -2.1427  -2.1302  -2.0955  -2.0617  -2.0558  -2.0118
    -2.0014  -1.8442  -1.8023  -1.6852  -1.6739  -1.6394  -1.5740  -1.5708
    -1.4528  -1.3980  -1.3508  -1.3079  -1.2016  -1.1541  -1.1254  -1.0356
    -0.9771  -0.9396  -0.9195  -0.9014  -0.7932  -0.7887  -0.7712  -0.6791
    -0.6724  -0.6238  -0.5347  -0.5115  -0.5090  -0.4190  -0.4104  -0.3107
    -0.2779  -0.2244  -0.1941  -0.1135  -0.0837   0.0199   0.0588   0.0742
     0.2040   0.2202   0.2776   0.3456   0.4006   0.4442   0.4586   0.4947
     0.5028   0.5981   0.7035   0.7066   0.8198   0.8563   1.0114   1.0502
     1.3505   1.3609   2.0188   2.3735   2.5344   2.8325   3.0280   3.1410
     3.3504   3.3640   3.3699   3.5530   3.6000

[...]

          k = 0.0380-0.0419 0.0000 ( 17876 PWs)   bands (ev):

[...]

          k =-0.0760-0.0000 0.0000 ( 17886 PWs)   bands (ev):

[...]

          k =-0.0760-0.0839 0.0000 ( 17948 PWs)   bands (ev):

   -56.8851 -56.8847 -55.9972 -55.9929 -55.9885 -55.9882 -55.8472 -55.8413
   -55.6292 -55.6238 -55.5462 -55.5461 -55.5352 -55.4436 -54.9873 -54.9485
   -33.1619 -33.1616 -33.1463 -33.1461 -33.0314 -33.0311 -32.3164 -32.3140
   -32.3015 -32.2962 -32.2432 -32.2418 -32.1995 -32.1985 -32.1980 -32.1937
   -32.1871 -32.1845 -32.1835 -32.1816 -32.0991 -32.0940 -32.0477 -32.0440
   -31.9811 -31.9731 -31.9116 -31.9057 -31.8908 -31.8907 -31.8662 -31.8280
   -31.8266 -31.7927 -31.7717 -31.7716 -31.7599 -31.7326 -31.7325 -31.7087
   -31.6855 -31.6489 -31.3817 -31.3014 -31.2159 -31.1843 -31.1701 -31.1291
   -16.4114 -16.4094 -16.3777 -16.3774 -16.1063 -16.1027 -16.0520 -16.0498
   -15.8777 -15.8698 -15.6663 -15.6569 -15.6502 -15.6466 -15.5187 -15.5118
   -15.4468 -15.4339 -15.3452 -15.3382 -15.2774 -15.2712 -15.2343 -15.2129
   -14.8962 -14.8906 -14.7687 -14.7553 -14.6019 -14.0550 -14.0550 -13.0847
    -7.7991  -3.5102  -3.5094  -3.4430  -3.4421  -3.3157  -3.3089  -3.2420
    -3.2414  -3.1335  -3.1297  -3.0654  -3.0030  -2.9924  -2.9890  -2.9777
    -2.9644  -2.8354  -2.8324  -2.8212  -2.8067  -2.7562  -2.7538  -2.7321
    -2.6560  -2.6407  -2.6096  -2.5654  -2.4652  -2.4490  -2.4316  -2.4053
    -2.3466  -2.3377  -2.3231  -2.2775  -2.2558  -2.1517  -2.1054  -2.0629
    -1.9449  -1.9424  -1.9311  -1.9139  -1.7674  -1.7307  -1.6995  -1.6938
    -1.6832  -1.6328  -1.5437  -1.5352  -1.4000  -1.3953  -1.3221  -1.2399
    -1.2216  -1.1918  -1.0602  -1.0125  -0.9806  -0.9740  -0.9535  -0.9240
    -0.8958  -0.8686  -0.7237  -0.7053  -0.6811  -0.6432  -0.6306  -0.5755
    -0.5272  -0.4484  -0.3698  -0.3686  -0.2862  -0.2420  -0.1786  -0.0968
    -0.0853  -0.0784   0.2017   0.2789   0.3724   0.4575   0.5209   0.5834
     0.6072   0.6730   0.7054   0.8402   0.8434   0.8592   0.8594   0.9283
     0.9330   1.3333   1.9126   2.9475   2.9478   3.0152   3.0156   3.3393
     3.3448   3.4544   3.4638   3.5817   3.5836

     the Fermi energy is     2.2073 ev

!    total energy              =   -2919.13282001 Ry
     estimated scf accuracy    <       0.00000006 Ry
     smearing contrib. (-TS)   =      -0.00462028 Ry
     internal energy E=F+TS    =   -2919.12819973 Ry

     The total energy is F=E-TS. E is the sum of the following terms:
     one-electron contribution =  -24579.05460309 Ry
     hartree contribution      =   12373.70970872 Ry
     xc contribution           =    -479.89842408 Ry
     ewald contribution        =    9766.11500193 Ry
     electric field correction =       0.00011680 Ry

     convergence has been achieved in  60 iterations

     Forces acting on atoms (cartesian axes, Ry/au):

     atom    1 type  1   force =    -0.00003125   -0.00045495    0.12464276
     atom    2 type  1   force =    -0.00012634   -0.00051776   -0.16049940
     atom    3 type  2   force =     0.00015850   -0.00014305   -0.06874447
     atom    4 type  2   force =    -0.00004194   -0.00017291    0.02740646
     atom    5 type  2   force =    -0.01664840    0.00229621   -0.00878076
     atom    6 type  2   force =     0.01810659    0.00296055   -0.00973353
     atom    7 type  1   force =     0.00058470   -0.00360972    0.02228524
     atom    8 type  1   force =    -0.00014180   -0.00291767    0.11223972
     atom    9 type  2   force =     0.00047813   -0.00002777   -0.00032261
     atom   10 type  2   force =    -0.00265791    0.00369058   -0.07369676
     atom   11 type  2   force =     0.00133106   -0.00058402   -0.00044453
     atom   12 type  2   force =    -0.00058632   -0.00105212   -0.00080185
     atom   13 type  1   force =     0.00030241   -0.00067833    0.00083178
     atom   14 type  1   force =    -0.00082985   -0.00057253    0.00009104
     atom   15 type  2   force =    -0.00042755   -0.00010443   -0.00018754
     atom   16 type  2   force =     0.00026295    0.00011655   -0.00057029
     atom   17 type  2   force =    -0.00019160   -0.00043604   -0.00048075
     atom   18 type  2   force =    -0.00087018   -0.00012289   -0.00021629
     atom   19 type  1   force =     0.00090197   -0.00040154   -0.00007990
     atom   20 type  1   force =    -0.00044777   -0.00031020   -0.00012899
     atom   21 type  2   force =     0.00006009   -0.00006192    0.09971801
     atom   22 type  2   force =     0.00023537   -0.00034657    0.00047929
     atom   23 type  2   force =    -0.07927735   -0.00009327   -0.03248922
     atom   24 type  2   force =     0.07914951    0.00035474   -0.03250731
     atom   25 type  1   force =     0.00002052   -0.00047996    0.12414501
     atom   26 type  1   force =    -0.00015385   -0.00045170   -0.16059096
     atom   27 type  2   force =     0.00029169   -0.00031937   -0.06775814
     atom   28 type  2   force =    -0.00002479   -0.00001347    0.02717180
     atom   29 type  2   force =    -0.01711052    0.00187703   -0.00888761
     atom   30 type  2   force =     0.01844742    0.00225974   -0.00978744
     atom   31 type  1   force =     0.00059046   -0.00092016    0.02183197
     atom   32 type  1   force =    -0.00010534    0.00052671    0.11267870
     atom   33 type  2   force =     0.00026438   -0.00063994   -0.00050947
     atom   34 type  2   force =    -0.00272648    0.00315874   -0.07286533
     atom   35 type  2   force =    -0.00107355    0.00023535    0.00015431
     atom   36 type  2   force =     0.00082181    0.00007776    0.00026258
     atom   37 type  1   force =    -0.00010752   -0.00004441   -0.00001701
     atom   38 type  1   force =     0.00088867   -0.00028871   -0.00011993
     atom   39 type  2   force =    -0.00003290   -0.00052891   -0.00013047
     atom   40 type  2   force =     0.00006784   -0.00012472   -0.00015979
     atom   41 type  2   force =    -0.00019677   -0.00020163   -0.00043842
     atom   42 type  2   force =    -0.00046589   -0.00037291   -0.00031097
     atom   43 type  1   force =     0.00046221    0.00068541    0.00067969
     atom   44 type  1   force =    -0.00104452   -0.00033979   -0.00026055
     atom   45 type  2   force =     0.00004556   -0.00006808    0.09973935
     atom   46 type  2   force =    -0.07928222   -0.00004614   -0.03247796
     atom   47 type  2   force =     0.07915700    0.00039633   -0.03249474
     atom   48 type  3   force =     0.00450635   -0.00060664    0.00301966
     atom   49 type  4   force =    -0.00220774    0.00019729   -0.00082572
     atom   50 type  5   force =     0.00039061   -0.00019648    0.00018961
     atom   51 type  5   force =     0.00024307   -0.00031139    0.00063085
     atom   52 type  5   force =    -0.00095850   -0.00027090   -0.00087910

     Total force =     0.425739     Total SCF correction =     0.000667
  @ DRIVER MODE: Message from server: STATUS
  @ DRIVER MODE: Message from server: GETFORCE
  @ DRIVER MODE: Returning v,forces,stress,ensemble

     Writing output data file ./calc.save/
  @ DRIVER MODE: Message from server: EXIT
  @ DRIVE MODE: Exiting

     General routines

     Parallel routines

   This run was terminated on:  12:27:46   2Aug2021

   JOB DONE.