     Program PWSCF v.6.7GPU starts on 12Oct2021 at 20:17:17

     R & G space division:  proc/nbgrp/npool/nimage =       8
     Reading input from /storage/home/hcoda1/3/ntian30/research/carbon/CxH_vib/CH_calc/ads_slab/CHNHH_b/out_0020/pw.inp
Warning: card &CELL ignored
Warning: card   CELL_DYNAMICS='IPI', ignored
Warning: card / ignored

     Current dimensions of program PWSCF are:
     Max number of different atomic species (ntypx) = 10
     Max number of k-points (npk) =  40000
     Max angular momentum in pseudopotentials (lmaxx) =  3
     Presently no symmetry can be used with electric field

     Message from routine cell_base_init:
     DEPRECATED: use true lattice parameter, not A to a.u. conversion factor

     IMPORTANT: XC functional enforced from input :
     Exchange-correlation= BEEF-VDW
                           (   1   4  43  14   2   0   0)
     Any further DFT definition will be discarded
     Please, verify this is what you really want

  @ DRIVER MODE: Connecting to
 qe_1139763_3182856.sched-torque.pace.gatech.edusr1gearc_scratch
  using UNIX socket
  @ DRIVER MODE: Message from server: STATUS
  @ DRIVER MODE: Message from server: INIT
  @ DRIVER MODE: Receiving replica           0          -1
  @ DRIVER MODE: Receiving encoded integer          25
  @ DRIVER MODE:  SCF:  T  FORCE:  T  STRESS:  F  VC:  F  ENSEMBLE:  F
  @ DRIVER MODE:  SCF:  T  FORCE:  T  STRESS:  F  VC:  F  ENSEMBLE:  F

     Using Slab Decomposition

     bravais-lattice index     =            0
     lattice parameter (alat)  =       1.8897  a.u.
     unit-cell volume          =    6658.9804 (a.u.)^3
     number of atoms/cell      =           52
     number of atomic types    =            5
     number of electrons       =       390.00
     number of Kohn-Sham states=          205
     kinetic-energy cutoff     =      29.3995  Ry
     charge density cutoff     =     293.9946  Ry
     scf convergence threshold =      7.3E-08
     mixing beta               =       0.0500
     number of iterations used =            8  plain     mixing
     Exchange-correlation= BEEF-VDW
                           (   1   4  43  14   2   0   0)

     celldm(1)=   1.889726  celldm(2)=   0.000000  celldm(3)=   0.000000
     celldm(4)=   0.000000  celldm(5)=   0.000000  celldm(6)=   0.000000

     crystal axes: (cart. coord. in units of alat)
               a(1) = (   6.579727   0.000000   0.000000 )
               a(2) = (  -0.000775   5.961596   0.000000 )
               a(3) = (   0.000000   0.000000  25.155947 )

     reciprocal axes: (cart. coord. in units 2 pi/alat)
               b(1) = (  0.151982  0.000020  0.000000 )
               b(2) = (  0.000000  0.167740  0.000000 )
               b(3) = (  0.000000  0.000000  0.039752 )

     PseudoPot. # 1 for Ti read from file:
     /storage/coda1/p-amedford6/0/shared/rich_project_chbe-medford/medford-share/data/pseudos_module/espresso/nninc/pbe/van/Ti.UPF
     MD5 check sum: 8e4df49b7f0d34bbd5052bf3f5ea0213
     Pseudo is Ultrasoft, Zval = 12.0
     Generated by new atomic code, or converted to UPF format
     Using radial grid of  851 points,  6 beta functions with:
                l(1) =   0
                l(2) =   0
                l(3) =   1
                l(4) =   1
                l(5) =   2
                l(6) =   2
     Q(r) pseudized with  8 coefficients,  rinner =    1.000   1.000   1.000
                                                       1.000   1.000

     PseudoPot. # 2 for O  read from file:
     /storage/coda1/p-amedford6/0/shared/rich_project_chbe-medford/medford-share/data/pseudos_module/espresso/nninc/pbe/van/O.UPF
     MD5 check sum: 78c19812648e8988a0fe644b0f25305e
     Pseudo is Ultrasoft, Zval =  6.0
     Generated by new atomic code, or converted to UPF format
     Using radial grid of  737 points,  4 beta functions with:
                l(1) =   0
                l(2) =   0
                l(3) =   1
                l(4) =   1
     Q(r) pseudized with  8 coefficients,  rinner =    0.800   0.800   0.800

     PseudoPot. # 3 for C  read from file:
     /storage/coda1/p-amedford6/0/shared/rich_project_chbe-medford/medford-share/data/pseudos_module/espresso/nninc/pbe/van/C.UPF
     MD5 check sum: 1a69bf6b8db32088f5b2163dbdb77a27
     Pseudo is Ultrasoft, Zval =  4.0
     Generated by new atomic code, or converted to UPF format
     Using radial grid of  721 points,  4 beta functions with:
                l(1) =   0
                l(2) =   0
                l(3) =   1
                l(4) =   1
     Q(r) pseudized with  8 coefficients,  rinner =    0.800   0.800   0.800

     PseudoPot. # 4 for H  read from file:
     /storage/coda1/p-amedford6/0/shared/rich_project_chbe-medford/medford-share/data/pseudos_module/espresso/nninc/pbe/van/H.UPF
     MD5 check sum: b5ee9d7bfd3a09ee7748110bda690ff7
     Pseudo is Ultrasoft, Zval =  1.0
     Generated by new atomic code, or converted to UPF format
     Using radial grid of  615 points,  1 beta functions with:
                l(1) =   0
     Q(r) pseudized with  8 coefficients,  rinner =    0.800

     PseudoPot. # 5 for N  read from file:
     /storage/coda1/p-amedford6/0/shared/rich_project_chbe-medford/medford-share/data/pseudos_module/espresso/nninc/pbe/van/N.UPF
     MD5 check sum: 90d10febe142ad51ac9d5be1deb811c4
     Pseudo is Ultrasoft, Zval =  5.0
     Generated by new atomic code, or converted to UPF format
     Using radial grid of  729 points,  4 beta functions with:
                l(1) =   0
                l(2) =   0
                l(3) =   1
                l(4) =   1
     Q(r) pseudized with  8 coefficients,  rinner =    0.800   0.800   0.800

     atomic species   valence    mass     pseudopotential
        Ti1           12.00    47.86700     Ti( 1.00)
        O1             6.00    15.99900     O ( 1.00)
        C1             4.00    12.01100     C ( 1.00)
        H1             1.00     1.00800     H ( 1.00)
        N1             5.00    14.00700     N ( 1.00)

     No symmetry found

   Cartesian axes

     site n.     atom                  positions (alat units)
         1           Ti1 tau(   1) = (   0.0004258   2.9801865   6.0000000  )
         2           Ti1 tau(   2) = (   3.2906075   1.4906267   6.0002472  )
         3           O1  tau(   3) = (   0.0006271   0.0005054   7.9858123  )
         4           O1  tau(   4) = (   3.2906025   0.0005020   7.3038282  )
         5           O1  tau(   5) = (   4.5942328   1.4918067   9.2879030  )
         6           O1  tau(   6) = (   1.9868534   1.4903216   9.2879459  )
         7           Ti1 tau(   7) = (   3.2907309   2.9776765   9.1658812  )
         8           Ti1 tau(   8) = (   0.0014263   1.4814950   9.2876947  )
         9           O1  tau(   9) = (   3.2944750   0.0002302  11.3604974  )
        10           O1  tau(  10) = (   0.0008895   5.9586890  10.6035392  )
        11           O1  tau(  11) = (   1.2972031   1.4939413  12.6393260  )
        12           O1  tau(  12) = (   5.2935702   1.4970258  12.6342454  )
        13           Ti1 tau(  13) = (   6.5783930   2.9813526  12.8381062  )
        14           Ti1 tau(  14) = (   3.2906537   1.4978773  12.4963327  )
        15           O1  tau(  15) = (   6.5733175   0.0290402  14.6574804  )
        16           O1  tau(  16) = (   3.3054662   0.0216765  13.9740687  )
        17           O1  tau(  17) = (   4.5350609   1.5403548  16.2059549  )
        18           O1  tau(  18) = (   2.0349166   1.5291342  16.1470642  )
        19           Ti1 tau(  19) = (   3.2872240   3.0047607  15.7234092  )
        20           Ti1 tau(  20) = (   0.0410825   1.5194215  16.1276637  )
        21           O1  tau(  21) = (   3.2904802   0.0005063   4.7018136  )
        22           O1  tau(  22) = (   6.5652676   5.8907541  17.2497628  )
        23           O1  tau(  23) = (   1.3043587   1.4918075   6.0039043  )
        24           O1  tau(  24) = (   5.2767064   1.4903225   6.0039473  )
        25           Ti1 tau(  25) = (   0.0000382   5.9609847   6.0000000  )
        26           Ti1 tau(  26) = (   3.2902200   4.4714249   6.0002472  )
        27           O1  tau(  27) = (   0.0002396   2.9813036   7.9858123  )
        28           O1  tau(  28) = (   3.2902150   2.9813002   7.3038282  )
        29           O1  tau(  29) = (   4.5938453   4.4726049   9.2879030  )
        30           O1  tau(  30) = (   1.9864658   4.4711199   9.2879459  )
        31           Ti1 tau(  31) = (   3.2906741   5.9584693   9.1623309  )
        32           Ti1 tau(  32) = (   0.0012165   4.4014169   9.3465426  )
        33           O1  tau(  33) = (   3.2924083   2.9889881  11.3543434  )
        34           O1  tau(  34) = (   0.0022264   2.9772995  10.5544931  )
        35           O1  tau(  35) = (   1.2986444   4.4679898  12.6568800  )
        36           O1  tau(  36) = (   5.2923799   4.4657857  12.6543205  )
        37           Ti1 tau(  37) = (   0.0025552   0.0092372  12.5181211  )
        38           Ti1 tau(  38) = (   3.2887235   4.4740353  12.4983661  )
        39           O1  tau(  39) = (   0.0036310   2.9570434  14.7349056  )
        40           O1  tau(  40) = (   3.2990611   2.9752856  13.9364830  )
        41           O1  tau(  41) = (   4.5418486   4.4722619  16.1017917  )
        42           O1  tau(  42) = (   2.0452692   4.4787779  16.1069431  )
        43           Ti1 tau(  43) = (   3.3182015   0.0155015  15.7624703  )
        44           Ti1 tau(  44) = (   0.0016332   4.6944760  15.9151726  )
        45           O1  tau(  45) = (   3.2900926   2.9813045   4.7018136  )
        46           C1  tau(  46) = (   0.0781255   2.7894620  17.8686468  )
        47           O1  tau(  47) = (   1.3039711   4.4726057   6.0039043  )
        48           O1  tau(  48) = (   5.2763189   4.4711207   6.0039473  )
        49           H1  tau(  49) = (   0.9954384   3.2332450  18.2619424  )
        50           H1  tau(  50) = (   4.7724221   2.4647446  18.5698542  )
        51           N1  tau(  51) = (   5.6945287   2.8438018  18.7814782  )
        52           H1  tau(  52) = (   5.7759989   3.3395087  19.6567880  )

     number of k points=    10  Fermi-Dirac smearing, width (Ry)=  0.0073
                       cart. coord. in units 2pi/alat
        k(    1) = (   0.0000000   0.0000000   0.0000000), wk =   0.1250000
        k(    2) = (   0.0000000   0.0419351   0.0000000), wk =   0.2500000
        k(    3) = (   0.0000000  -0.0838702   0.0000000), wk =   0.1250000
        k(    4) = (   0.0379955   0.0000049   0.0000000), wk =   0.2500000
        k(    5) = (   0.0379955   0.0419400   0.0000000), wk =   0.2500000
        k(    6) = (   0.0379955  -0.0838652   0.0000000), wk =   0.2500000
        k(    7) = (   0.0379955  -0.0419301   0.0000000), wk =   0.2500000
        k(    8) = (  -0.0759910  -0.0000099   0.0000000), wk =   0.1250000
        k(    9) = (  -0.0759910   0.0419252   0.0000000), wk =   0.2500000
        k(   10) = (  -0.0759910  -0.0838800   0.0000000), wk =   0.1250000

     Initial potential from superposition of free atoms

     starting charge  373.99917, renormalised to  390.00000

     negative rho (up, down):  1.780E-02 0.000E+00

     %%%%%%%%%%%%%%%%%%%%%%%%%%%%%%%%%%%%%%%%%%%%%%%%%%%%%%%%%%%%%%%%%%%%%%%%
     %                                                                      %
     % You are using vdW-DF, which was implemented by the Thonhauser group. %
     % Please cite the following two papers that made this development      %
     % possible and the two reviews that describe the various versions:     %
     %                                                                      %
     %   T. Thonhauser et al., PRL 115, 136402 (2015).                      %
     %   T. Thonhauser et al., PRB 76, 125112 (2007).                       %
     %   K. Berland et al., Rep. Prog. Phys. 78, 066501 (2015).             %
     %   D.C. Langreth et al., J. Phys.: Condens. Matter 21, 084203 (2009). %
     %                                                                      %
     %                                                                      %
     % If you are calculating the stress with vdW-DF, please also cite:     %
     %                                                                      %
     %   R. Sabatini et al., J. Phys.: Condens. Matter 24, 424209 (2012).   %
     %                                                                      %
     %%%%%%%%%%%%%%%%%%%%%%%%%%%%%%%%%%%%%%%%%%%%%%%%%%%%%%%%%%%%%%%%%%%%%%%%

     Adding external electric field

     Computed dipole along edir(3) :
        Dipole               -5.3776 Ry au,        -13.6685 Debye
        Dipole field         -0.0101 Ry au,

        Potential amp.        0.9407 Ry
        Total length         46.3494 bohr

     Starting wfcs are  295 atomic wfcs
  @ DRIVER MODE: Message from server: STATUS
  @ DRIVER MODE: Message from server: POSDATA
  @ DRIVER MODE: Reading and sharing cell
  @ DRIVER MODE: Reading and sharing positions
  @ DRIVER MODE: Received positions

     Self-consistent Calculation

     iteration #  1     ecut=    29.40 Ry     beta= 0.05
     Davidson diagonalization with overlap
     c_bands:  5 eigenvalues not converged
     c_bands:  1 eigenvalues not converged
     c_bands:  1 eigenvalues not converged
     c_bands:  2 eigenvalues not converged
     c_bands:  4 eigenvalues not converged
     c_bands:  1 eigenvalues not converged
     c_bands:  5 eigenvalues not converged
     c_bands:  1 eigenvalues not converged
     c_bands:  1 eigenvalues not converged
     ethr =  1.00E-05,  avg # of iterations = 20.0

[...]

     total energy              =   -2826.83827541 Ry
     estimated scf accuracy    <    1027.04958275 Ry

     iteration #  2     ecut=    29.40 Ry     beta= 0.05
     Davidson diagonalization with overlap
     ethr =  1.00E-02,  avg # of iterations = 16.2

[...]

     iteration # 70     ecut=    29.40 Ry     beta= 0.05
     Davidson diagonalization with overlap
     c_bands:  1 eigenvalues not converged
     ethr =  1.06E-07,  avg # of iterations = 12.3

[...]

     total energy              =   -2919.05139836 Ry
     estimated scf accuracy    <       0.00000010 Ry

     iteration # 92     ecut=    29.40 Ry     beta= 0.05
     Davidson diagonalization with overlap
     ethr =  2.55E-11,  avg # of iterations =  5.2

     negative rho (up, down):  1.780E-02 0.000E+00

     Adding external electric field

     Computed dipole along edir(3) :
        Dipole                1.2383 Ry au,          3.1475 Debye
        Dipole field          0.0023 Ry au,

        Potential amp.       -0.2166 Ry
        Total length         46.3494 bohr

     End of self-consistent calculation

          k = 0.0000 0.0000 0.0000 ( 18029 PWs)   bands (ev):

   -55.6300 -55.6107 -55.5895 -55.5744 -55.5361 -55.4921 -55.4435 -55.4349
   -55.3868 -55.3740 -55.3520 -55.2898 -55.0156 -54.9578 -54.6121 -54.5780
   -32.1810 -32.0912 -31.9623 -31.9510 -31.9459 -31.9210 -31.8848 -31.8720
   -31.8582 -31.8432 -31.8248 -31.8149 -31.7933 -31.7914 -31.7591 -31.7584
   -31.7403 -31.7136 -31.7090 -31.6959 -31.6723 -31.6591 -31.6535 -31.6356
   -31.6341 -31.6218 -31.6056 -31.5924 -31.5842 -31.5739 -31.5440 -31.5418
   -31.5244 -31.4994 -31.4825 -31.4790 -31.4482 -31.3676 -31.3127 -31.2479
   -31.0716 -31.0357 -31.0214 -30.9265 -30.9040 -30.8376 -30.7513 -30.6406
   -16.6044 -16.3697 -16.0657 -15.9419 -15.7758 -15.7354 -15.6560 -15.4419
   -15.3234 -15.2533 -15.2318 -15.2176 -15.2003 -15.1880 -15.1446 -15.1313
   -15.1124 -15.0656 -15.0430 -15.0128 -15.0079 -14.9845 -14.9290 -14.8917
   -14.8869 -14.7692 -14.7279 -14.6023 -14.5648 -14.4284 -13.1139 -12.9964
    -9.1911  -6.8814  -4.3954  -3.7230  -3.5305  -3.5023  -3.4986  -3.4254
    -3.2021  -3.1796  -2.8490  -2.7893  -2.7794  -2.7456  -2.7279  -2.5865
    -2.5403  -2.4710  -2.4323  -2.4226  -2.4159  -2.4007  -2.3810  -2.3509
    -2.3362  -2.3114  -2.2237  -2.1488  -2.0470  -2.0401  -1.9663  -1.9151
    -1.8821  -1.8718  -1.8404  -1.8248  -1.8017  -1.7978  -1.7518  -1.7092
    -1.5239  -1.5177  -1.4783  -1.4376  -1.2793  -1.2489  -1.2165  -1.0843
    -1.0377  -1.0101  -0.9357  -0.9304  -0.9210  -0.8644  -0.8234  -0.7687
    -0.6725  -0.6476  -0.5653  -0.5480  -0.4932  -0.4647  -0.3406  -0.3305
    -0.3125  -0.3043  -0.1100  -0.1039  -0.0745  -0.0617   0.0386   0.0791
     0.1005   0.1736   0.1844   0.2005   0.2216   0.3431   0.3789   0.3879
     0.4076   0.4165   0.4263   0.5891   0.6181   0.6850   0.7087   0.7693
     0.9230   0.9487   1.0502   1.1145   1.3182   1.4105   1.4768   1.5876
     1.9977   2.0625   3.4464   3.5779   3.5836   3.6359   3.6620   3.7161
     3.9233   3.9591   3.9864   4.0201   4.0459

[...]

          k = 0.0380-0.0419 0.0000 ( 17876 PWs)   bands (ev):

[...]

          k =-0.0760-0.0000 0.0000 ( 17886 PWs)   bands (ev):

[...]

          k =-0.0760-0.0839 0.0000 ( 17948 PWs)   bands (ev):

   -55.6207 -55.5986 -55.5939 -55.5910 -55.5327 -55.4872 -55.4466 -55.4398
   -55.3712 -55.3709 -55.3669 -55.2933 -55.0107 -54.9625 -54.5953 -54.5947
   -31.9844 -31.9824 -31.9243 -31.9177 -31.9125 -31.8965 -31.8782 -31.8772
   -31.8237 -31.8217 -31.8160 -31.7899 -31.7872 -31.7491 -31.7378 -31.7342
   -31.7337 -31.7325 -31.7282 -31.7110 -31.6982 -31.6875 -31.6856 -31.6790
   -31.6531 -31.6514 -31.6468 -31.6188 -31.6185 -31.6115 -31.5727 -31.5705
   -31.5600 -31.5583 -31.5059 -31.4889 -31.4768 -31.3719 -31.3068 -31.2504
   -31.1473 -31.0386 -30.9169 -30.9163 -30.8344 -30.8340 -30.7947 -30.7942
   -16.5959 -15.8423 -15.7831 -15.5671 -15.5469 -15.5462 -15.4611 -15.3911
   -15.3854 -15.3541 -15.3347 -15.3086 -15.3013 -15.2480 -15.2256 -15.1583
   -15.1344 -15.1180 -15.1154 -15.0581 -15.0501 -15.0202 -15.0008 -14.9852
   -14.9615 -14.9308 -14.9202 -14.7923 -14.7545 -14.5567 -13.0997 -13.0959
    -9.2009  -6.8857  -4.3513  -3.1330  -3.0636  -2.7791  -2.7694  -2.7526
    -2.6480  -2.5684  -2.5543  -2.5213  -2.4680  -2.4432  -2.4350  -2.4217
    -2.4046  -2.3996  -2.3944  -2.3857  -2.3412  -2.3160  -2.2878  -2.2415
    -2.2324  -2.2213  -2.2110  -2.1660  -2.1554  -2.1490  -2.1424  -2.1330
    -2.0951  -1.9175  -1.8878  -1.8667  -1.7593  -1.7342  -1.6993  -1.6712
    -1.6700  -1.6318  -1.6241  -1.5526  -1.4591  -1.3661  -1.3301  -1.3104
    -1.2809  -1.2382  -1.1466  -1.0388  -0.9998  -0.9731  -0.9391  -0.9069
    -0.8733  -0.8722  -0.7622  -0.7126  -0.6938  -0.6413  -0.5836  -0.5604
    -0.5315  -0.4870  -0.4774  -0.4252  -0.3528  -0.3369  -0.2748  -0.2270
    -0.1987  -0.1969  -0.1426  -0.1299  -0.0211   0.0297   0.2161   0.2918
     0.3615   0.4060   0.4210   0.5659   0.5746   0.6804   0.7291   0.7345
     0.7766   0.8556   0.9341   0.9487   0.9806   1.0354   1.7721   1.7744
     1.8576   1.8713   3.5730   3.7416   3.7734   3.7793   3.8798   4.0242
     4.0382   4.0482   4.0582   4.1559   4.2174

     the Fermi energy is     3.5271 ev

!    total energy              =   -2919.05140103 Ry
     estimated scf accuracy    <       0.00000006 Ry
     smearing contrib. (-TS)   =      -0.03138349 Ry
     internal energy E=F+TS    =   -2919.02001754 Ry

     The total energy is F=E-TS. E is the sum of the following terms:
     one-electron contribution =  -24311.81817355 Ry
     hartree contribution      =   12243.48785580 Ry
     xc contribution           =    -479.93062433 Ry
     ewald contribution        =    9629.23803082 Ry
     electric field correction =       0.00289372 Ry

     convergence has been achieved in  92 iterations

     Forces acting on atoms (cartesian axes, Ry/au):

     atom    1 type  1   force =     0.00007818    0.00095839    0.10692986
     atom    2 type  1   force =    -0.00004822    0.00020184   -0.17812768
     atom    3 type  2   force =     0.00008299    0.00468009   -0.03578461
     atom    4 type  2   force =     0.00003359    0.00016570    0.04947679
     atom    5 type  2   force =    -0.02037434   -0.00163835    0.00504266
     atom    6 type  2   force =     0.02053805   -0.00128389    0.00512577
     atom    7 type  1   force =     0.00006220    0.00149083   -0.00757523
     atom    8 type  1   force =     0.00002606   -0.00051448   -0.00010019
     atom    9 type  2   force =    -0.00002857    0.00001019   -0.00041743
     atom   10 type  2   force =     0.00010428   -0.00035820    0.00074860
     atom   11 type  2   force =     0.00035699   -0.00018650    0.00004895
     atom   12 type  2   force =    -0.00027309   -0.00019871   -0.00005268
     atom   13 type  1   force =    -0.00022373   -0.00062345   -0.00041606
     atom   14 type  1   force =    -0.00012264   -0.00007662   -0.00001439
     atom   15 type  2   force =     0.00006672    0.00029382    0.00082655
     atom   16 type  2   force =     0.00012703    0.00023939   -0.00051931
     atom   17 type  2   force =    -0.00007063    0.00006386    0.00059787
     atom   18 type  2   force =     0.00035036   -0.00013233    0.00028267
     atom   19 type  1   force =    -0.00002397    0.00022919    0.00001730
     atom   20 type  1   force =    -0.00024019   -0.00054481   -0.00066328
     atom   21 type  2   force =     0.00003926    0.00000337    0.10385614
     atom   22 type  2   force =    -0.00001279   -0.00018772   -0.00120545
     atom   23 type  2   force =    -0.06935335    0.00127538   -0.03018608
     atom   24 type  2   force =     0.06923305    0.00170323   -0.03022937
     atom   25 type  1   force =     0.00003393   -0.00088907    0.12349777
     atom   26 type  1   force =    -0.00008477   -0.00068105   -0.17774361
     atom   27 type  2   force =     0.00001374   -0.00219927   -0.03269519
     atom   28 type  2   force =     0.00001596   -0.00014378    0.05053912
     atom   29 type  2   force =    -0.02136149    0.00086058    0.00494289
     atom   30 type  2   force =     0.02156403    0.00148870    0.00503746
     atom   31 type  1   force =     0.00025830   -0.00214995   -0.00795520
     atom   32 type  1   force =     0.00000704   -0.00074077    0.00061640
     atom   33 type  2   force =    -0.00002911   -0.00000351   -0.00020600
     atom   34 type  2   force =     0.00002380    0.00024019    0.00083802
     atom   35 type  2   force =     0.00021367    0.00028369   -0.00005020
     atom   36 type  2   force =    -0.00013594    0.00031749   -0.00017413
     atom   37 type  1   force =    -0.00000067    0.00056935    0.00097377
     atom   38 type  1   force =    -0.00009339   -0.00033459    0.00028869
     atom   39 type  2   force =    -0.00001821    0.00055357    0.00045010
     atom   40 type  2   force =     0.00004984    0.00024240   -0.00116312
     atom   41 type  2   force =    -0.00068804    0.00042022    0.00066033
     atom   42 type  2   force =     0.00092555    0.00045797    0.00067548
     atom   43 type  1   force =     0.00003372    0.00032130   -0.00012285
     atom   44 type  1   force =     0.00047751    0.00036140    0.00034993
     atom   45 type  2   force =     0.00005232    0.00006927    0.10391796
     atom   46 type  3   force =     0.00973286    0.00071896   -0.00438806
     atom   47 type  2   force =    -0.06958960   -0.00177108   -0.03017486
     atom   48 type  2   force =     0.06950214   -0.00133105   -0.03023680
     atom   49 type  4   force =     0.00033257    0.00001591   -0.00104038
     atom   50 type  4   force =     0.01339183    0.00430415    0.00191077
     atom   51 type  5   force =    -0.02679298   -0.00751151    0.00221353
     atom   52 type  4   force =     0.00183812    0.00096024    0.00137679

     Total force =     0.380817     Total SCF correction =     0.000836
  @ DRIVER MODE: Message from server: STATUS
  @ DRIVER MODE: Message from server: GETFORCE
  @ DRIVER MODE: Returning v,forces,stress,ensemble

     Writing output data file ./calc.save/
  @ DRIVER MODE: Message from server: EXIT
  @ DRIVE MODE: Exiting

     General routines

     Parallel routines

   This run was terminated on:  20:46:34  12Oct2021

   JOB DONE.