     Program PWSCF v.6.7GPU starts on 24Sep2021 at 19:23:52

     R & G space division:  proc/nbgrp/npool/nimage =       8
     Reading input from /storage/home/hcoda1/3/ntian30/research/carbon/CxH_vib/H2O_calc/ads_slab/CH3NHNH2HO_a/out_0063/pw.inp
Warning: card &CELL ignored
Warning: card   CELL_DYNAMICS='IPI', ignored
Warning: card / ignored

     Current dimensions of program PWSCF are:
     Max number of different atomic species (ntypx) = 10
     Max number of k-points (npk) =  40000
     Max angular momentum in pseudopotentials (lmaxx) =  3
     Presently no symmetry can be used with electric field

     Message from routine cell_base_init:
     DEPRECATED: use true lattice parameter, not A to a.u. conversion factor

     IMPORTANT: XC functional enforced from input :
     Exchange-correlation= BEEF-VDW
                           (   1   4  43  14   2   0   0)
     Any further DFT definition will be discarded
     Please, verify this is what you really want

  @ DRIVER MODE: Connecting to
 qe_1139763_2947307.sched-torque.pace.gatech.edua2s86uxz_scratch
  using UNIX socket
  @ DRIVER MODE: Message from server: STATUS
  @ DRIVER MODE: Message from server: INIT
  @ DRIVER MODE: Receiving replica           0          -1
  @ DRIVER MODE: Receiving encoded integer          25
  @ DRIVER MODE:  SCF:  T  FORCE:  T  STRESS:  F  VC:  F  ENSEMBLE:  F
  @ DRIVER MODE:  SCF:  T  FORCE:  T  STRESS:  F  VC:  F  ENSEMBLE:  F

     Using Slab Decomposition

     bravais-lattice index     =            0
     lattice parameter (alat)  =       1.8897  a.u.
     unit-cell volume          =    6658.9804 (a.u.)^3
     number of atoms/cell      =           58
     number of atomic types    =            5
     number of electrons       =       405.00
     number of Kohn-Sham states=          212
     kinetic-energy cutoff     =      29.3995  Ry
     charge density cutoff     =     293.9946  Ry
     scf convergence threshold =      7.3E-08
     mixing beta               =       0.0500
     number of iterations used =            8  plain     mixing
     Exchange-correlation= BEEF-VDW
                           (   1   4  43  14   2   0   0)

     celldm(1)=   1.889726  celldm(2)=   0.000000  celldm(3)=   0.000000
     celldm(4)=   0.000000  celldm(5)=   0.000000  celldm(6)=   0.000000

     crystal axes: (cart. coord. in units of alat)
               a(1) = (   6.579727   0.000000   0.000000 )
               a(2) = (  -0.000775   5.961596   0.000000 )
               a(3) = (   0.000000   0.000000  25.155947 )

     reciprocal axes: (cart. coord. in units 2 pi/alat)
               b(1) = (  0.151982  0.000020  0.000000 )
               b(2) = (  0.000000  0.167740  0.000000 )
               b(3) = (  0.000000  0.000000  0.039752 )

     PseudoPot. # 1 for Ti read from file:
     /storage/coda1/p-amedford6/0/shared/rich_project_chbe-medford/medford-share/data/pseudos_module/espresso/nninc/pbe/van/Ti.UPF
     MD5 check sum: 8e4df49b7f0d34bbd5052bf3f5ea0213
     Pseudo is Ultrasoft, Zval = 12.0
     Generated by new atomic code, or converted to UPF format
     Using radial grid of  851 points,  6 beta functions with:
                l(1) =   0
                l(2) =   0
                l(3) =   1
                l(4) =   1
                l(5) =   2
                l(6) =   2
     Q(r) pseudized with  8 coefficients,  rinner =    1.000   1.000   1.000
                                                       1.000   1.000

     PseudoPot. # 2 for O  read from file:
     /storage/coda1/p-amedford6/0/shared/rich_project_chbe-medford/medford-share/data/pseudos_module/espresso/nninc/pbe/van/O.UPF
     MD5 check sum: 78c19812648e8988a0fe644b0f25305e
     Pseudo is Ultrasoft, Zval =  6.0
     Generated by new atomic code, or converted to UPF format
     Using radial grid of  737 points,  4 beta functions with:
                l(1) =   0
                l(2) =   0
                l(3) =   1
                l(4) =   1
     Q(r) pseudized with  8 coefficients,  rinner =    0.800   0.800   0.800

     PseudoPot. # 3 for N  read from file:
     /storage/coda1/p-amedford6/0/shared/rich_project_chbe-medford/medford-share/data/pseudos_module/espresso/nninc/pbe/van/N.UPF
     MD5 check sum: 90d10febe142ad51ac9d5be1deb811c4
     Pseudo is Ultrasoft, Zval =  5.0
     Generated by new atomic code, or converted to UPF format
     Using radial grid of  729 points,  4 beta functions with:
                l(1) =   0
                l(2) =   0
                l(3) =   1
                l(4) =   1
     Q(r) pseudized with  8 coefficients,  rinner =    0.800   0.800   0.800

     PseudoPot. # 4 for C  read from file:
     /storage/coda1/p-amedford6/0/shared/rich_project_chbe-medford/medford-share/data/pseudos_module/espresso/nninc/pbe/van/C.UPF
     MD5 check sum: 1a69bf6b8db32088f5b2163dbdb77a27
     Pseudo is Ultrasoft, Zval =  4.0
     Generated by new atomic code, or converted to UPF format
     Using radial grid of  721 points,  4 beta functions with:
                l(1) =   0
                l(2) =   0
                l(3) =   1
                l(4) =   1
     Q(r) pseudized with  8 coefficients,  rinner =    0.800   0.800   0.800

     PseudoPot. # 5 for H  read from file:
     /storage/coda1/p-amedford6/0/shared/rich_project_chbe-medford/medford-share/data/pseudos_module/espresso/nninc/pbe/van/H.UPF
     MD5 check sum: b5ee9d7bfd3a09ee7748110bda690ff7
     Pseudo is Ultrasoft, Zval =  1.0
     Generated by new atomic code, or converted to UPF format
     Using radial grid of  615 points,  1 beta functions with:
                l(1) =   0
     Q(r) pseudized with  8 coefficients,  rinner =    0.800

     atomic species   valence    mass     pseudopotential
        Ti1           12.00    47.86700     Ti( 1.00)
        O1             6.00    15.99900     O ( 1.00)
        N1             5.00    14.00700     N ( 1.00)
        C1             4.00    12.01100     C ( 1.00)
        H1             1.00     1.00800     H ( 1.00)

     No symmetry found

   Cartesian axes

     site n.     atom                  positions (alat units)
         1           Ti1 tau(   1) = (   0.0004258   2.9801865   6.0000000  )
         2           Ti1 tau(   2) = (   3.2906075   1.4906267   6.0002472  )
         3           O1  tau(   3) = (   0.0006271   0.0005054   7.9858123  )
         4           O1  tau(   4) = (   3.2906025   0.0005020   7.3038282  )
         5           O1  tau(   5) = (   4.5942328   1.4918067   9.2879030  )
         6           O1  tau(   6) = (   1.9868534   1.4903216   9.2879459  )
         7           Ti1 tau(   7) = (   3.2907910   2.8959150   9.1758416  )
         8           Ti1 tau(   8) = (   0.0015273   1.4827037   9.2680791  )
         9           O1  tau(   9) = (   3.3003128   0.0493987  11.3625472  )
        10           O1  tau(  10) = (   0.0116148   5.9584955  10.6183126  )
        11           O1  tau(  11) = (   1.2863924   1.5188706  12.6959087  )
        12           O1  tau(  12) = (   5.3173592   1.5183023  12.6957539  )
        13           Ti1 tau(  13) = (   0.0130489   2.9571150  12.5182267  )
        14           Ti1 tau(  14) = (   3.3124343   1.5987737  12.4587140  )
        15           O1  tau(  15) = (   0.0455642   5.8537743  14.6515032  )
        16           O1  tau(  16) = (   3.3135256   5.8999501  14.0036581  )
        17           O1  tau(  17) = (   4.5824137   1.5787328  16.0473457  )
        18           O1  tau(  18) = (   2.0456054   1.5356268  16.0652349  )
        19           Ti1 tau(  19) = (   3.2855744   2.9948502  15.7047272  )
        20           Ti1 tau(  20) = (   0.0729980   1.3194477  15.7501807  )
        21           O1  tau(  21) = (   3.2904802   0.0005063   4.7018136  )
        22           O1  tau(  22) = (   6.5643345   0.1786488  17.1561759  )
        23           O1  tau(  23) = (   1.3043587   1.4918075   6.0039043  )
        24           O1  tau(  24) = (   5.2767064   1.4903225   6.0039473  )
        25           Ti1 tau(  25) = (   0.0000382   5.9609847   6.0000000  )
        26           Ti1 tau(  26) = (   3.2902200   4.4714249   6.0002472  )
        27           O1  tau(  27) = (   0.0002396   2.9813036   7.9858123  )
        28           O1  tau(  28) = (   3.2902150   2.9813002   7.3038282  )
        29           O1  tau(  29) = (   4.5938453   4.4726049   9.2879030  )
        30           O1  tau(  30) = (   1.9864658   4.4711199   9.2879459  )
        31           Ti1 tau(  31) = (   3.2891106   5.8743827   9.1763621  )
        32           Ti1 tau(  32) = (   0.0006254   4.4649316   9.2693709  )
        33           O1  tau(  33) = (   3.3044115   2.9646987  11.3227374  )
        34           O1  tau(  34) = (   0.0092240   2.9805883  10.6323155  )
        35           O1  tau(  35) = (   1.2889249   4.4812606  12.6373974  )
        36           O1  tau(  36) = (   5.3198440   4.4849614  12.6453916  )
        37           Ti1 tau(  37) = (   0.0274371   5.9167426  12.5032498  )
        38           Ti1 tau(  38) = (   3.3124303   4.6827448  12.7121475  )
        39           O1  tau(  39) = (   0.0064664   3.0605765  14.9143048  )
        40           O1  tau(  40) = (   3.2921723   3.0190953  13.9337278  )
        41           O1  tau(  41) = (   4.5343043   4.4484976  16.2223827  )
        42           O1  tau(  42) = (   2.0055671   4.4324605  16.2273083  )
        43           Ti1 tau(  43) = (   3.3963104   0.0511244  16.3072024  )
        44           Ti1 tau(  44) = (   0.1011521   4.5293608  16.0606835  )
        45           O1  tau(  45) = (   3.2900926   2.9813045   4.7018136  )
        46           O1  tau(  46) = (   1.3039711   4.4726057   6.0039043  )
        47           O1  tau(  47) = (   5.2763189   4.4711207   6.0039473  )
        48           N1  tau(  48) = (   0.7799224   3.1460235  19.0808133  )
        49           N1  tau(  49) = (   6.3029119   3.3142126  18.0946246  )
        50           C1  tau(  50) = (   0.9829876   4.3811599  19.8296872  )
        51           H1  tau(  51) = (   0.0599524   4.7630682  20.2995108  )
        52           H1  tau(  52) = (   1.7087173   4.1728717  20.6153690  )
        53           H1  tau(  53) = (   1.3778604   5.1510331  19.1745456  )
        54           H1  tau(  54) = (   0.4845774   2.4057476  19.7140978  )
        55           H1  tau(  55) = (   5.5451363   3.8924421  18.4761980  )
        56           H1  tau(  56) = (   5.8791802   2.3931312  17.9634808  )
        57           O1  tau(  57) = (   3.3895457   0.1916509  18.1699706  )
        58           H1  tau(  58) = (   3.8128180   5.4241384  18.6581559  )

     number of k points=    10  Fermi-Dirac smearing, width (Ry)=  0.0073
                       cart. coord. in units 2pi/alat
        k(    1) = (   0.0000000   0.0000000   0.0000000), wk =   0.1250000
        k(    2) = (   0.0000000   0.0419351   0.0000000), wk =   0.2500000
        k(    3) = (   0.0000000  -0.0838702   0.0000000), wk =   0.1250000
        k(    4) = (   0.0379955   0.0000049   0.0000000), wk =   0.2500000
        k(    5) = (   0.0379955   0.0419400   0.0000000), wk =   0.2500000
        k(    6) = (   0.0379955  -0.0838652   0.0000000), wk =   0.2500000
        k(    7) = (   0.0379955  -0.0419301   0.0000000), wk =   0.2500000
        k(    8) = (  -0.0759910  -0.0000099   0.0000000), wk =   0.1250000
        k(    9) = (  -0.0759910   0.0419252   0.0000000), wk =   0.2500000
        k(   10) = (  -0.0759910  -0.0838800   0.0000000), wk =   0.1250000

     Initial potential from superposition of free atoms

     starting charge  388.99913, renormalised to  405.00000

     negative rho (up, down):  1.368E-02 0.000E+00

     %%%%%%%%%%%%%%%%%%%%%%%%%%%%%%%%%%%%%%%%%%%%%%%%%%%%%%%%%%%%%%%%%%%%%%%%
     %                                                                      %
     % You are using vdW-DF, which was implemented by the Thonhauser group. %
     % Please cite the following two papers that made this development      %
     % possible and the two reviews that describe the various versions:     %
     %                                                                      %
     %   T. Thonhauser et al., PRL 115, 136402 (2015).                      %
     %   T. Thonhauser et al., PRB 76, 125112 (2007).                       %
     %   K. Berland et al., Rep. Prog. Phys. 78, 066501 (2015).             %
     %   D.C. Langreth et al., J. Phys.: Condens. Matter 21, 084203 (2009). %
     %                                                                      %
     %                                                                      %
     % If you are calculating the stress with vdW-DF, please also cite:     %
     %                                                                      %
     %   R. Sabatini et al., J. Phys.: Condens. Matter 24, 424209 (2012).   %
     %                                                                      %
     %%%%%%%%%%%%%%%%%%%%%%%%%%%%%%%%%%%%%%%%%%%%%%%%%%%%%%%%%%%%%%%%%%%%%%%%

     Adding external electric field

     Computed dipole along edir(3) :
        Dipole              -14.8124 Ry au,        -37.6493 Debye
        Dipole field         -0.0280 Ry au,

        Potential amp.        2.5912 Ry
        Total length         46.3494 bohr

     Starting wfcs are  307 atomic wfcs
  @ DRIVER MODE: Message from server: STATUS
  @ DRIVER MODE: Message from server: POSDATA
  @ DRIVER MODE: Reading and sharing cell
  @ DRIVER MODE: Reading and sharing positions
  @ DRIVER MODE: Received positions

     Self-consistent Calculation

     iteration #  1     ecut=    29.40 Ry     beta= 0.05
     Davidson diagonalization with overlap
     c_bands:  4 eigenvalues not converged
     c_bands:  4 eigenvalues not converged
     c_bands:  5 eigenvalues not converged
     c_bands:  5 eigenvalues not converged
     c_bands:  2 eigenvalues not converged
     c_bands:  2 eigenvalues not converged
     c_bands:  3 eigenvalues not converged
     c_bands:  2 eigenvalues not converged
     ethr =  1.00E-05,  avg # of iterations = 22.3

[...]

     total energy              =   -2203.01481128 Ry
     estimated scf accuracy    <    8803.83658386 Ry

     iteration #  2     ecut=    29.40 Ry     beta= 0.05
     Davidson diagonalization with overlap
     ethr =  1.00E-02,  avg # of iterations = 31.4

[...]

     iteration # 38     ecut=    29.40 Ry     beta= 0.05
     Davidson diagonalization with overlap
     c_bands:  2 eigenvalues not converged
     c_bands:  1 eigenvalues not converged
     ethr =  1.44E-06,  avg # of iterations = 10.8

[...]

     total energy              =   -2976.46390904 Ry
     estimated scf accuracy    <       0.00000009 Ry

     iteration # 61     ecut=    29.40 Ry     beta= 0.05
     Davidson diagonalization with overlap
     ethr =  2.27E-11,  avg # of iterations =  5.0

     negative rho (up, down):  1.441E-02 0.000E+00

     Adding external electric field

     Computed dipole along edir(3) :
        Dipole                1.2252 Ry au,          3.1142 Debye
        Dipole field          0.0023 Ry au,

        Potential amp.       -0.2143 Ry
        Total length         46.3494 bohr

     End of self-consistent calculation

          k = 0.0000 0.0000 0.0000 ( 18029 PWs)   bands (ev):

   -55.4434 -55.3564 -55.3223 -55.2181 -55.2150 -55.1872 -55.1853 -55.1775
   -55.1532 -55.1301 -55.0870 -54.9852 -54.9369 -54.8934 -54.3314 -54.2974
   -31.8415 -31.7905 -31.7218 -31.7043 -31.6900 -31.6740 -31.6533 -31.6473
   -31.6162 -31.6026 -31.5969 -31.5090 -31.4941 -31.4870 -31.4671 -31.4634
   -31.4598 -31.4507 -31.4501 -31.4203 -31.4139 -31.3924 -31.3853 -31.3754
   -31.3707 -31.3545 -31.3536 -31.3216 -31.3213 -31.3147 -31.3140 -31.3082
   -31.2999 -31.2818 -31.2580 -31.2395 -31.1743 -31.1526 -31.1408 -31.1326
   -31.1117 -31.1026 -30.7374 -30.6510 -30.6286 -30.5549 -30.4685 -30.3568
   -17.7440 -16.3242 -16.0102 -15.8462 -15.6318 -15.5395 -15.5123 -15.3136
   -15.2186 -15.1603 -14.9591 -14.9322 -14.8942 -14.8817 -14.8726 -14.8515
   -14.8480 -14.7964 -14.7809 -14.7710 -14.7675 -14.7372 -14.7101 -14.6709
   -14.6115 -14.5974 -14.4949 -14.4395 -14.3996 -14.1582 -14.1382 -13.1777
   -12.8300 -12.7136  -9.4415  -6.4468  -5.7428  -4.2723  -3.9123  -3.3688
    -3.2674  -3.2558  -3.1997  -3.1318  -2.9804  -2.8840  -2.7823  -2.7427
    -2.6111  -2.5970  -2.4921  -2.4431  -2.3703  -2.3242  -2.2829  -2.2483
    -2.2206  -2.1644  -2.1421  -2.1163  -2.1051  -2.0322  -2.0139  -1.9242
    -1.8913  -1.8778  -1.7602  -1.7255  -1.6910  -1.6776  -1.6685  -1.6624
    -1.6187  -1.6083  -1.5976  -1.5558  -1.4549  -1.4472  -1.4295  -1.3389
    -1.2417  -0.9910  -0.9602  -0.9096  -0.8982  -0.8200  -0.7813  -0.7497
    -0.7170  -0.6472  -0.6362  -0.6102  -0.5488  -0.4731  -0.4189  -0.3712
    -0.3370  -0.2253  -0.1750  -0.1314  -0.0985  -0.0617   0.0011   0.0406
     0.0649   0.1078   0.1953   0.2595   0.2867   0.3031   0.3534   0.3952
     0.4331   0.4737   0.5455   0.5679   0.5781   0.6173   0.6257   0.6468
     0.7422   0.7608   0.8204   0.8469   0.9354   0.9664   1.0106   1.1802
     1.2497   1.3081   1.3861   1.4765   1.6405   1.6950   1.7198   1.8889
     2.2623   2.3077   3.7272   3.8748   3.8910   3.9689   3.9857   4.0497
     4.2163   4.2757   4.4139   4.4239

[...]

          k = 0.0380-0.0419 0.0000 ( 17876 PWs)   bands (ev):

[...]

          k =-0.0760-0.0000 0.0000 ( 17886 PWs)   bands (ev):

[...]

          k =-0.0760-0.0839 0.0000 ( 17948 PWs)   bands (ev):

   -55.4426 -55.3394 -55.3392 -55.2168 -55.2034 -55.1890 -55.1860 -55.1714
   -55.1686 -55.1221 -55.0951 -54.9821 -54.9379 -54.8964 -54.3144 -54.3143
   -31.7290 -31.6682 -31.6569 -31.6567 -31.6551 -31.6415 -31.6329 -31.6326
   -31.5758 -31.5308 -31.5093 -31.4984 -31.4931 -31.4880 -31.4651 -31.4594
   -31.4588 -31.4560 -31.4493 -31.4370 -31.4304 -31.4275 -31.4158 -31.3899
   -31.3853 -31.3832 -31.3757 -31.3679 -31.3495 -31.3441 -31.3407 -31.3403
   -31.3376 -31.3172 -31.3157 -31.2512 -31.2342 -31.2065 -31.1785 -31.1549
   -31.1486 -31.1074 -30.6413 -30.6413 -30.5505 -30.5501 -30.5119 -30.5116
   -17.7400 -16.3126 -15.5915 -15.4466 -15.3380 -15.3277 -15.2038 -15.1366
   -15.1269 -15.0932 -15.0704 -15.0485 -15.0303 -15.0148 -14.9602 -14.9203
   -14.8890 -14.8616 -14.8570 -14.8140 -14.8043 -14.7930 -14.7751 -14.7635
   -14.7083 -14.6721 -14.6624 -14.6041 -14.4648 -14.4445 -14.2884 -13.1791
   -12.8156 -12.8153  -9.4605  -6.4313  -5.7490  -4.2579  -3.9008  -2.9664
    -2.8009  -2.6580  -2.6059  -2.5625  -2.4491  -2.4250  -2.3668  -2.3164
    -2.2923  -2.2707  -2.2189  -2.2086  -2.1627  -2.1465  -2.1225  -2.1076
    -2.0911  -2.0846  -2.0567  -2.0409  -2.0305  -2.0177  -1.9906  -1.9795
    -1.9612  -1.9325  -1.9123  -1.9032  -1.8697  -1.8274  -1.7660  -1.6558
    -1.5818  -1.5705  -1.5270  -1.5020  -1.4857  -1.4447  -1.4321  -1.3911
    -1.3737  -1.3079  -1.1496  -1.1247  -1.1098  -0.9675  -0.9603  -0.9315
    -0.8573  -0.8154  -0.7938  -0.7358  -0.7059  -0.6657  -0.5889  -0.5453
    -0.4909  -0.4254  -0.3253  -0.3180  -0.3016  -0.2819  -0.2657  -0.2578
    -0.2245  -0.1873  -0.1141  -0.0678  -0.0589  -0.0530  -0.0014   0.0776
     0.1287   0.2432   0.3897   0.3940   0.4613   0.4620   0.6617   0.6709
     0.7469   0.7828   0.8169   0.8440   0.9377   0.9558   0.9933   1.0761
     1.1399   1.1694   1.1903   1.1949   1.2481   1.4588   2.0573   2.0651
     2.1280   2.1281   3.9678   4.2015   4.2416   4.2549   4.2732   4.2999
     4.3133   4.3275   4.3943   4.4174

     the Fermi energy is     3.7646 ev

!    total energy              =   -2976.46395333 Ry
     estimated scf accuracy    <       0.00000003 Ry
     smearing contrib. (-TS)   =      -0.01955543 Ry
     internal energy E=F+TS    =   -2976.44439790 Ry

     The total energy is F=E-TS. E is the sum of the following terms:
     one-electron contribution =  -23037.19850960 Ry
     hartree contribution      =   11616.32533727 Ry
     xc contribution           =    -495.71902712 Ry
     ewald contribution        =    8940.14496871 Ry
     electric field correction =       0.00283284 Ry

     convergence has been achieved in  61 iterations

     Forces acting on atoms (cartesian axes, Ry/au):

     atom    1 type  1   force =     0.00016254   -0.00022779    0.09415586
     atom    2 type  1   force =    -0.00010025    0.00018391   -0.17536656
     atom    3 type  2   force =     0.00005427   -0.00049683   -0.02103618
     atom    4 type  2   force =    -0.00002475   -0.00093766    0.05425455
     atom    5 type  2   force =    -0.00488575   -0.00215890    0.00107001
     atom    6 type  2   force =     0.00670858   -0.00138486    0.00108678
     atom    7 type  1   force =     0.00005728    0.00331436    0.00865473
     atom    8 type  1   force =    -0.00010050    0.00120248    0.00270834
     atom    9 type  2   force =    -0.00022075   -0.00030373   -0.00058836
     atom   10 type  2   force =    -0.00112104    0.00429108   -0.01024598
     atom   11 type  2   force =    -0.00008190   -0.00055405   -0.00010869
     atom   12 type  2   force =     0.00062303   -0.00031781   -0.00027286
     atom   13 type  1   force =    -0.00143518    0.00019464   -0.00057626
     atom   14 type  1   force =     0.00070938    0.00016696   -0.00046541
     atom   15 type  2   force =     0.00013725   -0.00001405    0.00005153
     atom   16 type  2   force =    -0.00010241   -0.00069232   -0.00034469
     atom   17 type  2   force =    -0.00044973    0.00072623    0.00012368
     atom   18 type  2   force =    -0.00074565    0.00033132   -0.00016412
     atom   19 type  1   force =     0.00043380   -0.00091096    0.00055508
     atom   20 type  1   force =    -0.00070038   -0.00007849    0.00054044
     atom   21 type  2   force =     0.00003776   -0.00001067    0.10320656
     atom   22 type  2   force =    -0.00008806    0.00002733    0.00041352
     atom   23 type  2   force =    -0.07199564   -0.00020118   -0.02727047
     atom   24 type  2   force =     0.07187279    0.00025575   -0.02734157
     atom   25 type  1   force =     0.00007140   -0.00017036    0.09388684
     atom   26 type  1   force =    -0.00011876   -0.00137246   -0.17550694
     atom   27 type  2   force =     0.00011068   -0.00005367   -0.01984750
     atom   28 type  2   force =     0.00006416   -0.00105284    0.04980242
     atom   29 type  2   force =    -0.00746995    0.00209479    0.00339485
     atom   30 type  2   force =     0.00907293    0.00223546    0.00331388
     atom   31 type  1   force =     0.00019524    0.00151995    0.00005780
     atom   32 type  1   force =    -0.00008872   -0.00227283    0.00302155
     atom   33 type  2   force =    -0.00017787   -0.00031588   -0.00002100
     atom   34 type  2   force =    -0.00117116   -0.00218449   -0.00963898
     atom   35 type  2   force =     0.00063004    0.00005548   -0.00022705
     atom   36 type  2   force =     0.00038481    0.00011486   -0.00035543
     atom   37 type  1   force =    -0.00096653    0.00025712    0.00034753
     atom   38 type  1   force =     0.00096857   -0.00023873    0.00020315
     atom   39 type  2   force =    -0.00016413   -0.00053273    0.00010726
     atom   40 type  2   force =    -0.00020334   -0.00019683   -0.00015804
     atom   41 type  2   force =     0.00026989   -0.00042410   -0.00011511
     atom   42 type  2   force =    -0.00064733    0.00002817   -0.00007697
     atom   43 type  1   force =     0.00028574    0.00089156    0.00032590
     atom   44 type  1   force =    -0.00043006    0.00086682    0.00005874
     atom   45 type  2   force =     0.00002589    0.00003357    0.10302967
     atom   46 type  2   force =    -0.07194926   -0.00008137   -0.02722378
     atom   47 type  2   force =     0.07183877    0.00035152   -0.02730775
     atom   48 type  3   force =     0.00000431   -0.00097755   -0.00077505
     atom   49 type  3   force =    -0.00028638   -0.00024881   -0.00045691
     atom   50 type  4   force =     0.00004259   -0.00014990    0.00020002
     atom   51 type  5   force =    -0.00103726   -0.00019020    0.00048111
     atom   52 type  5   force =     0.00057715   -0.00008305    0.00038506
     atom   53 type  5   force =    -0.00023599    0.00065076   -0.00046971
     atom   54 type  5   force =     0.00065069   -0.00025884    0.00001910
     atom   55 type  5   force =     0.00056060   -0.00057719    0.00007243
     atom   56 type  5   force =     0.00063971   -0.00004591   -0.00005501
     atom   57 type  2   force =     0.00686483   -0.01175029    0.00743823
     atom   58 type  5   force =    -0.00705598    0.01167321   -0.00695024

     Total force =     0.362645     Total SCF correction =     0.000627
  @ DRIVER MODE: Message from server: STATUS
  @ DRIVER MODE: Message from server: GETFORCE
  @ DRIVER MODE: Returning v,forces,stress,ensemble

     Writing output data file ./calc.save/
  @ DRIVER MODE: Message from server: EXIT
  @ DRIVE MODE: Exiting

     General routines

     Parallel routines

   This run was terminated on:  19:49:34  24Sep2021

   JOB DONE.