     Program PWSCF v.6.7GPU starts on 23Sep2021 at 14:13: 3

     R & G space division:  proc/nbgrp/npool/nimage =       8
     Reading input from /storage/home/hcoda1/3/ntian30/research/carbon/CxH_vib/H2O_calc/ads_slab/CH3NHNH2HO_a/out_0008/pw.inp
Warning: card &CELL ignored
Warning: card   CELL_DYNAMICS='IPI', ignored
Warning: card / ignored

     Current dimensions of program PWSCF are:
     Max number of different atomic species (ntypx) = 10
     Max number of k-points (npk) =  40000
     Max angular momentum in pseudopotentials (lmaxx) =  3
     Presently no symmetry can be used with electric field

     Message from routine cell_base_init:
     DEPRECATED: use true lattice parameter, not A to a.u. conversion factor

     IMPORTANT: XC functional enforced from input :
     Exchange-correlation= BEEF-VDW
                           (   1   4  43  14   2   0   0)
     Any further DFT definition will be discarded
     Please, verify this is what you really want

  @ DRIVER MODE: Connecting to
 qe_1139763_2947307.sched-torque.pace.gatech.eduenw9th_x_scratch
  using UNIX socket
  @ DRIVER MODE: Message from server: STATUS
  @ DRIVER MODE: Message from server: INIT
  @ DRIVER MODE: Receiving replica           0          -1
  @ DRIVER MODE: Receiving encoded integer          25
  @ DRIVER MODE:  SCF:  T  FORCE:  T  STRESS:  F  VC:  F  ENSEMBLE:  F
  @ DRIVER MODE:  SCF:  T  FORCE:  T  STRESS:  F  VC:  F  ENSEMBLE:  F

     Using Slab Decomposition

     bravais-lattice index     =            0
     lattice parameter (alat)  =       1.8897  a.u.
     unit-cell volume          =    6658.9804 (a.u.)^3
     number of atoms/cell      =           58
     number of atomic types    =            5
     number of electrons       =       405.00
     number of Kohn-Sham states=          212
     kinetic-energy cutoff     =      29.3995  Ry
     charge density cutoff     =     293.9946  Ry
     scf convergence threshold =      7.3E-08
     mixing beta               =       0.0500
     number of iterations used =            8  plain     mixing
     Exchange-correlation= BEEF-VDW
                           (   1   4  43  14   2   0   0)

     celldm(1)=   1.889726  celldm(2)=   0.000000  celldm(3)=   0.000000
     celldm(4)=   0.000000  celldm(5)=   0.000000  celldm(6)=   0.000000

     crystal axes: (cart. coord. in units of alat)
               a(1) = (   6.579727   0.000000   0.000000 )
               a(2) = (  -0.000775   5.961596   0.000000 )
               a(3) = (   0.000000   0.000000  25.155947 )

     reciprocal axes: (cart. coord. in units 2 pi/alat)
               b(1) = (  0.151982  0.000020  0.000000 )
               b(2) = (  0.000000  0.167740  0.000000 )
               b(3) = (  0.000000  0.000000  0.039752 )

     PseudoPot. # 1 for Ti read from file:
     /storage/coda1/p-amedford6/0/shared/rich_project_chbe-medford/medford-share/data/pseudos_module/espresso/nninc/pbe/van/Ti.UPF
     MD5 check sum: 8e4df49b7f0d34bbd5052bf3f5ea0213
     Pseudo is Ultrasoft, Zval = 12.0
     Generated by new atomic code, or converted to UPF format
     Using radial grid of  851 points,  6 beta functions with:
                l(1) =   0
                l(2) =   0
                l(3) =   1
                l(4) =   1
                l(5) =   2
                l(6) =   2
     Q(r) pseudized with  8 coefficients,  rinner =    1.000   1.000   1.000
                                                       1.000   1.000

     PseudoPot. # 2 for O  read from file:
     /storage/coda1/p-amedford6/0/shared/rich_project_chbe-medford/medford-share/data/pseudos_module/espresso/nninc/pbe/van/O.UPF
     MD5 check sum: 78c19812648e8988a0fe644b0f25305e
     Pseudo is Ultrasoft, Zval =  6.0
     Generated by new atomic code, or converted to UPF format
     Using radial grid of  737 points,  4 beta functions with:
                l(1) =   0
                l(2) =   0
                l(3) =   1
                l(4) =   1
     Q(r) pseudized with  8 coefficients,  rinner =    0.800   0.800   0.800

     PseudoPot. # 3 for N  read from file:
     /storage/coda1/p-amedford6/0/shared/rich_project_chbe-medford/medford-share/data/pseudos_module/espresso/nninc/pbe/van/N.UPF
     MD5 check sum: 90d10febe142ad51ac9d5be1deb811c4
     Pseudo is Ultrasoft, Zval =  5.0
     Generated by new atomic code, or converted to UPF format
     Using radial grid of  729 points,  4 beta functions with:
                l(1) =   0
                l(2) =   0
                l(3) =   1
                l(4) =   1
     Q(r) pseudized with  8 coefficients,  rinner =    0.800   0.800   0.800

     PseudoPot. # 4 for C  read from file:
     /storage/coda1/p-amedford6/0/shared/rich_project_chbe-medford/medford-share/data/pseudos_module/espresso/nninc/pbe/van/C.UPF
     MD5 check sum: 1a69bf6b8db32088f5b2163dbdb77a27
     Pseudo is Ultrasoft, Zval =  4.0
     Generated by new atomic code, or converted to UPF format
     Using radial grid of  721 points,  4 beta functions with:
                l(1) =   0
                l(2) =   0
                l(3) =   1
                l(4) =   1
     Q(r) pseudized with  8 coefficients,  rinner =    0.800   0.800   0.800

     PseudoPot. # 5 for H  read from file:
     /storage/coda1/p-amedford6/0/shared/rich_project_chbe-medford/medford-share/data/pseudos_module/espresso/nninc/pbe/van/H.UPF
     MD5 check sum: b5ee9d7bfd3a09ee7748110bda690ff7
     Pseudo is Ultrasoft, Zval =  1.0
     Generated by new atomic code, or converted to UPF format
     Using radial grid of  615 points,  1 beta functions with:
                l(1) =   0
     Q(r) pseudized with  8 coefficients,  rinner =    0.800

     atomic species   valence    mass     pseudopotential
        Ti1           12.00    47.86700     Ti( 1.00)
        O1             6.00    15.99900     O ( 1.00)
        N1             5.00    14.00700     N ( 1.00)
        C1             4.00    12.01100     C ( 1.00)
        H1             1.00     1.00800     H ( 1.00)

     No symmetry found

   Cartesian axes

     site n.     atom                  positions (alat units)
         1           Ti1 tau(   1) = (   0.0004258   2.9801865   6.0000000  )
         2           Ti1 tau(   2) = (   3.2906075   1.4906267   6.0002472  )
         3           O1  tau(   3) = (   0.0006271   0.0005054   7.9858123  )
         4           O1  tau(   4) = (   3.2906025   0.0005020   7.3038282  )
         5           O1  tau(   5) = (   4.5942328   1.4918067   9.2879030  )
         6           O1  tau(   6) = (   1.9868534   1.4903216   9.2879459  )
         7           Ti1 tau(   7) = (   3.2907910   2.8959150   9.1758416  )
         8           Ti1 tau(   8) = (   0.0015273   1.4827037   9.2680791  )
         9           O1  tau(   9) = (   3.3003128   0.0493987  11.3625472  )
        10           O1  tau(  10) = (   0.0116148   5.9584955  10.6183126  )
        11           O1  tau(  11) = (   1.2863924   1.5188706  12.6959087  )
        12           O1  tau(  12) = (   5.3173592   1.5183023  12.6957539  )
        13           Ti1 tau(  13) = (   0.0130489   2.9571150  12.5182267  )
        14           Ti1 tau(  14) = (   3.3124343   1.5987737  12.4587140  )
        15           O1  tau(  15) = (   0.0455642   5.8537743  14.6515032  )
        16           O1  tau(  16) = (   3.3135256   5.8999501  14.0036581  )
        17           O1  tau(  17) = (   4.5824137   1.5787328  16.0473457  )
        18           O1  tau(  18) = (   2.0456054   1.5356268  16.0652349  )
        19           Ti1 tau(  19) = (   3.2855744   2.9948502  15.7047272  )
        20           Ti1 tau(  20) = (   0.0729980   1.3194477  15.7501807  )
        21           O1  tau(  21) = (   3.2904802   0.0005063   4.7018136  )
        22           O1  tau(  22) = (   6.5643345   0.1786488  17.1561759  )
        23           O1  tau(  23) = (   1.3043587   1.4918075   6.0039043  )
        24           O1  tau(  24) = (   5.2767064   1.4903225   6.0039473  )
        25           Ti1 tau(  25) = (   0.0000382   5.9609847   6.0000000  )
        26           Ti1 tau(  26) = (   3.2902200   4.4714249   6.0002472  )
        27           O1  tau(  27) = (   0.0002396   2.9813036   7.9858123  )
        28           O1  tau(  28) = (   3.2902150   2.9813002   7.3038282  )
        29           O1  tau(  29) = (   4.5938453   4.4726049   9.2879030  )
        30           O1  tau(  30) = (   1.9864658   4.4711199   9.2879459  )
        31           Ti1 tau(  31) = (   3.2891106   5.8743827   9.1763621  )
        32           Ti1 tau(  32) = (   0.0006254   4.4649316   9.2693709  )
        33           O1  tau(  33) = (   3.3044115   2.9646987  11.3227374  )
        34           O1  tau(  34) = (   0.0092240   2.9805883  10.6323155  )
        35           O1  tau(  35) = (   1.2889249   4.4812606  12.6373974  )
        36           O1  tau(  36) = (   5.3198440   4.4849614  12.6453916  )
        37           Ti1 tau(  37) = (   0.0274371   5.9167426  12.5032498  )
        38           Ti1 tau(  38) = (   3.3124303   4.6827448  12.7121475  )
        39           O1  tau(  39) = (   0.0064664   3.0605765  14.9143048  )
        40           O1  tau(  40) = (   3.2921723   3.0190953  13.9337278  )
        41           O1  tau(  41) = (   4.5343043   4.4484976  16.2223827  )
        42           O1  tau(  42) = (   2.0055671   4.4324605  16.2273083  )
        43           Ti1 tau(  43) = (   3.3963104   0.0511244  16.3072024  )
        44           Ti1 tau(  44) = (   0.1011521   4.5293608  16.0606835  )
        45           O1  tau(  45) = (   3.2900926   2.9813045   4.7018136  )
        46           O1  tau(  46) = (   1.3039711   4.4726057   6.0039043  )
        47           O1  tau(  47) = (   5.2763189   4.4711207   6.0039473  )
        48           N1  tau(  48) = (   0.7799224   3.1460235  19.0808133  )
        49           N1  tau(  49) = (   6.3129119   3.3142126  18.0946246  )
        50           C1  tau(  50) = (   0.9829876   4.3811599  19.8296872  )
        51           H1  tau(  51) = (   0.0599524   4.7630682  20.2995108  )
        52           H1  tau(  52) = (   1.7087173   4.1728717  20.6153690  )
        53           H1  tau(  53) = (   1.3778604   5.1510331  19.1745456  )
        54           H1  tau(  54) = (   0.4845774   2.4057476  19.7140978  )
        55           H1  tau(  55) = (   5.5451363   3.8924421  18.4761980  )
        56           H1  tau(  56) = (   5.8791802   2.3931312  17.9634808  )
        57           O1  tau(  57) = (   3.3895457   0.1916509  18.1699706  )
        58           H1  tau(  58) = (   3.8128180   5.4341384  18.6581559  )

     number of k points=    10  Fermi-Dirac smearing, width (Ry)=  0.0073
                       cart. coord. in units 2pi/alat
        k(    1) = (   0.0000000   0.0000000   0.0000000), wk =   0.1250000
        k(    2) = (   0.0000000   0.0419351   0.0000000), wk =   0.2500000
        k(    3) = (   0.0000000  -0.0838702   0.0000000), wk =   0.1250000
        k(    4) = (   0.0379955   0.0000049   0.0000000), wk =   0.2500000
        k(    5) = (   0.0379955   0.0419400   0.0000000), wk =   0.2500000
        k(    6) = (   0.0379955  -0.0838652   0.0000000), wk =   0.2500000
        k(    7) = (   0.0379955  -0.0419301   0.0000000), wk =   0.2500000
        k(    8) = (  -0.0759910  -0.0000099   0.0000000), wk =   0.1250000
        k(    9) = (  -0.0759910   0.0419252   0.0000000), wk =   0.2500000
        k(   10) = (  -0.0759910  -0.0838800   0.0000000), wk =   0.1250000

     Initial potential from superposition of free atoms

     starting charge  388.99913, renormalised to  405.00000

     negative rho (up, down):  1.368E-02 0.000E+00

     %%%%%%%%%%%%%%%%%%%%%%%%%%%%%%%%%%%%%%%%%%%%%%%%%%%%%%%%%%%%%%%%%%%%%%%%
     %                                                                      %
     % You are using vdW-DF, which was implemented by the Thonhauser group. %
     % Please cite the following two papers that made this development      %
     % possible and the two reviews that describe the various versions:     %
     %                                                                      %
     %   T. Thonhauser et al., PRL 115, 136402 (2015).                      %
     %   T. Thonhauser et al., PRB 76, 125112 (2007).                       %
     %   K. Berland et al., Rep. Prog. Phys. 78, 066501 (2015).             %
     %   D.C. Langreth et al., J. Phys.: Condens. Matter 21, 084203 (2009). %
     %                                                                      %
     %                                                                      %
     % If you are calculating the stress with vdW-DF, please also cite:     %
     %                                                                      %
     %   R. Sabatini et al., J. Phys.: Condens. Matter 24, 424209 (2012).   %
     %                                                                      %
     %%%%%%%%%%%%%%%%%%%%%%%%%%%%%%%%%%%%%%%%%%%%%%%%%%%%%%%%%%%%%%%%%%%%%%%%

     Adding external electric field

     Computed dipole along edir(3) :
        Dipole              -14.8124 Ry au,        -37.6493 Debye
        Dipole field         -0.0280 Ry au,

        Potential amp.        2.5912 Ry
        Total length         46.3494 bohr

     Starting wfcs are  307 atomic wfcs
  @ DRIVER MODE: Message from server: STATUS
  @ DRIVER MODE: Message from server: POSDATA
  @ DRIVER MODE: Reading and sharing cell
  @ DRIVER MODE: Reading and sharing positions
  @ DRIVER MODE: Received positions

     Self-consistent Calculation

     iteration #  1     ecut=    29.40 Ry     beta= 0.05
     Davidson diagonalization with overlap
     c_bands:  4 eigenvalues not converged
     c_bands:  4 eigenvalues not converged
     c_bands:  5 eigenvalues not converged
     c_bands:  2 eigenvalues not converged
     c_bands:  3 eigenvalues not converged
     c_bands:  4 eigenvalues not converged
     c_bands:  2 eigenvalues not converged
     ethr =  1.00E-05,  avg # of iterations = 22.9

[...]

     total energy              =   -2202.99354715 Ry
     estimated scf accuracy    <    8803.92939986 Ry

     iteration #  2     ecut=    29.40 Ry     beta= 0.05
     Davidson diagonalization with overlap
     ethr =  1.00E-02,  avg # of iterations = 30.6

[...]

     iteration # 46     ecut=    29.40 Ry     beta= 0.05
     Davidson diagonalization with overlap
     c_bands:  1 eigenvalues not converged
     ethr =  8.55E-07,  avg # of iterations = 12.3

[...]

     total energy              =   -2976.46388217 Ry
     estimated scf accuracy    <       0.00000015 Ry

     iteration # 71     ecut=    29.40 Ry     beta= 0.05
     Davidson diagonalization with overlap
     ethr =  3.15E-11,  avg # of iterations =  7.2

     negative rho (up, down):  1.442E-02 0.000E+00

     Adding external electric field

     Computed dipole along edir(3) :
        Dipole                1.2275 Ry au,          3.1200 Debye
        Dipole field          0.0023 Ry au,

        Potential amp.       -0.2147 Ry
        Total length         46.3494 bohr

     End of self-consistent calculation

          k = 0.0000 0.0000 0.0000 ( 18029 PWs)   bands (ev):

   -55.4449 -55.3567 -55.3226 -55.2172 -55.2150 -55.1873 -55.1854 -55.1775
   -55.1532 -55.1300 -55.0870 -54.9854 -54.9362 -54.8937 -54.3313 -54.2973
   -31.8419 -31.7913 -31.7210 -31.7043 -31.6901 -31.6755 -31.6548 -31.6476
   -31.6162 -31.6029 -31.5969 -31.5092 -31.4943 -31.4868 -31.4671 -31.4638
   -31.4598 -31.4503 -31.4493 -31.4204 -31.4142 -31.3926 -31.3853 -31.3754
   -31.3707 -31.3545 -31.3537 -31.3215 -31.3205 -31.3148 -31.3140 -31.3081
   -31.2999 -31.2817 -31.2581 -31.2394 -31.1745 -31.1521 -31.1410 -31.1319
   -31.1120 -31.1028 -30.7373 -30.6510 -30.6286 -30.5549 -30.4685 -30.3567
   -17.7880 -16.3666 -16.0108 -15.8470 -15.6324 -15.5394 -15.5124 -15.3135
   -15.2186 -15.1604 -14.9587 -14.9321 -14.8945 -14.8816 -14.8727 -14.8516
   -14.8480 -14.7964 -14.7811 -14.7711 -14.7676 -14.7373 -14.7102 -14.6709
   -14.6114 -14.5976 -14.4951 -14.4396 -14.3997 -14.1585 -14.1374 -13.1463
   -12.8302 -12.7138  -9.4415  -6.4634  -5.7226  -4.2762  -3.9335  -3.3688
    -3.2676  -3.2559  -3.1994  -3.1318  -2.9692  -2.8841  -2.7830  -2.7426
    -2.6132  -2.5977  -2.4921  -2.4434  -2.3704  -2.3239  -2.2831  -2.2484
    -2.2206  -2.1644  -2.1423  -2.1161  -2.1054  -2.0323  -2.0138  -1.9233
    -1.8914  -1.8778  -1.7606  -1.7254  -1.6918  -1.6784  -1.6690  -1.6653
    -1.6202  -1.6084  -1.5976  -1.5580  -1.4555  -1.4474  -1.4298  -1.3389
    -1.2431  -0.9912  -0.9602  -0.9098  -0.8982  -0.8201  -0.7815  -0.7499
    -0.7170  -0.6499  -0.6364  -0.6097  -0.5484  -0.4733  -0.4190  -0.3714
    -0.3362  -0.2254  -0.1754  -0.1316  -0.0986  -0.0620   0.0012   0.0413
     0.0651   0.1076   0.1955   0.2581   0.2863   0.3034   0.3534   0.3951
     0.4329   0.4737   0.5452   0.5678   0.5780   0.6172   0.6259   0.6467
     0.7422   0.7607   0.8202   0.8477   0.9352   0.9663   1.0105   1.1805
     1.2500   1.3080   1.3878   1.4831   1.6403   1.6948   1.7197   1.8888
     2.2620   2.3074   3.7272   3.8746   3.8909   3.9687   3.9856   4.0497
     4.2160   4.2753   4.4126   4.4255

[...]

          k = 0.0380-0.0419 0.0000 ( 17876 PWs)   bands (ev):

[...]

          k =-0.0760-0.0000 0.0000 ( 17886 PWs)   bands (ev):

[...]

          k =-0.0760-0.0839 0.0000 ( 17948 PWs)   bands (ev):

   -55.4441 -55.3397 -55.3395 -55.2159 -55.2034 -55.1891 -55.1861 -55.1714
   -55.1687 -55.1220 -55.0951 -54.9823 -54.9372 -54.8966 -54.3143 -54.3142
   -31.7300 -31.6695 -31.6573 -31.6571 -31.6559 -31.6414 -31.6332 -31.6329
   -31.5759 -31.5308 -31.5093 -31.4985 -31.4931 -31.4879 -31.4650 -31.4596
   -31.4590 -31.4557 -31.4493 -31.4369 -31.4300 -31.4271 -31.4159 -31.3900
   -31.3853 -31.3834 -31.3757 -31.3679 -31.3493 -31.3441 -31.3405 -31.3403
   -31.3371 -31.3172 -31.3157 -31.2514 -31.2344 -31.2058 -31.1787 -31.1543
   -31.1489 -31.1077 -30.6413 -30.6413 -30.5504 -30.5500 -30.5118 -30.5116
   -17.7840 -16.3565 -15.5909 -15.4467 -15.3381 -15.3277 -15.2038 -15.1368
   -15.1269 -15.0935 -15.0705 -15.0486 -15.0301 -15.0151 -14.9602 -14.9205
   -14.8891 -14.8617 -14.8571 -14.8142 -14.8044 -14.7931 -14.7751 -14.7635
   -14.7083 -14.6722 -14.6625 -14.6037 -14.4649 -14.4434 -14.2888 -13.1476
   -12.8158 -12.8156  -9.4605  -6.4499  -5.7264  -4.2628  -3.9213  -2.9552
    -2.8008  -2.6581  -2.6089  -2.5625  -2.4491  -2.4250  -2.3668  -2.3167
    -2.2923  -2.2706  -2.2197  -2.2090  -2.1625  -2.1465  -2.1226  -2.1077
    -2.0912  -2.0845  -2.0566  -2.0409  -2.0305  -2.0165  -1.9906  -1.9794
    -1.9613  -1.9325  -1.9124  -1.9034  -1.8696  -1.8271  -1.7661  -1.6589
    -1.5850  -1.5733  -1.5272  -1.5021  -1.4858  -1.4450  -1.4324  -1.3914
    -1.3740  -1.3076  -1.1498  -1.1246  -1.1103  -0.9676  -0.9604  -0.9315
    -0.8574  -0.8157  -0.7938  -0.7356  -0.7068  -0.6678  -0.5890  -0.5457
    -0.4913  -0.4253  -0.3256  -0.3179  -0.3018  -0.2817  -0.2656  -0.2579
    -0.2245  -0.1873  -0.1144  -0.0677  -0.0590  -0.0530  -0.0019   0.0783
     0.1289   0.2434   0.3898   0.3939   0.4610   0.4619   0.6616   0.6697
     0.7467   0.7824   0.8168   0.8439   0.9378   0.9557   0.9935   1.0765
     1.1397   1.1693   1.1902   1.1950   1.2481   1.4684   2.0571   2.0649
     2.1277   2.1278   3.9678   4.2013   4.2417   4.2548   4.2734   4.2996
     4.3136   4.3276   4.3941   4.4175

     the Fermi energy is     3.7644 ev

!    total energy              =   -2976.46390525 Ry
     estimated scf accuracy    <       0.00000007 Ry
     smearing contrib. (-TS)   =      -0.01955664 Ry
     internal energy E=F+TS    =   -2976.44434861 Ry

     The total energy is F=E-TS. E is the sum of the following terms:
     one-electron contribution =  -23037.38253381 Ry
     hartree contribution      =   11616.40982454 Ry
     xc contribution           =    -495.72243231 Ry
     ewald contribution        =    8940.24794948 Ry
     electric field correction =       0.00284349 Ry

     convergence has been achieved in  71 iterations

     Forces acting on atoms (cartesian axes, Ry/au):

     atom    1 type  1   force =     0.00016136   -0.00023337    0.09416141
     atom    2 type  1   force =    -0.00009919    0.00017409   -0.17537328
     atom    3 type  2   force =     0.00005408   -0.00049568   -0.02103202
     atom    4 type  2   force =    -0.00002447   -0.00093840    0.05426504
     atom    5 type  2   force =    -0.00488346   -0.00215818    0.00107207
     atom    6 type  2   force =     0.00670831   -0.00138364    0.00108670
     atom    7 type  1   force =     0.00005472    0.00331130    0.00865893
     atom    8 type  1   force =    -0.00010218    0.00119802    0.00270018
     atom    9 type  2   force =    -0.00021813   -0.00031348   -0.00059140
     atom   10 type  2   force =    -0.00111994    0.00429225   -0.01025510
     atom   11 type  2   force =    -0.00007642   -0.00054898   -0.00011433
     atom   12 type  2   force =     0.00062204   -0.00031741   -0.00027412
     atom   13 type  1   force =    -0.00143927    0.00019469   -0.00056758
     atom   14 type  1   force =     0.00072120    0.00018062   -0.00049392
     atom   15 type  2   force =     0.00015394    0.00003713   -0.00002284
     atom   16 type  2   force =    -0.00008651   -0.00069077   -0.00028199
     atom   17 type  2   force =    -0.00038521    0.00076237    0.00015571
     atom   18 type  2   force =    -0.00071014    0.00032014   -0.00019150
     atom   19 type  1   force =     0.00036216   -0.00092079    0.00058158
     atom   20 type  1   force =    -0.00068035   -0.00005291    0.00061342
     atom   21 type  2   force =     0.00003808   -0.00001060    0.10318156
     atom   22 type  2   force =    -0.00009422    0.00003317    0.00039105
     atom   23 type  2   force =    -0.07198408   -0.00019672   -0.02725337
     atom   24 type  2   force =     0.07186317    0.00025894   -0.02732437
     atom   25 type  1   force =     0.00007637   -0.00016610    0.09390106
     atom   26 type  1   force =    -0.00011890   -0.00136316   -0.17551527
     atom   27 type  2   force =     0.00011167   -0.00005439   -0.01984393
     atom   28 type  2   force =     0.00006556   -0.00104993    0.04981035
     atom   29 type  2   force =    -0.00746351    0.00209345    0.00339557
     atom   30 type  2   force =     0.00906930    0.00223512    0.00331266
     atom   31 type  1   force =     0.00019432    0.00150965    0.00005711
     atom   32 type  1   force =    -0.00008594   -0.00227073    0.00300456
     atom   33 type  2   force =    -0.00017615   -0.00030180   -0.00003246
     atom   34 type  2   force =    -0.00117176   -0.00218303   -0.00964858
     atom   35 type  2   force =     0.00064361    0.00005874   -0.00023437
     atom   36 type  2   force =     0.00037184    0.00012165   -0.00036205
     atom   37 type  1   force =    -0.00096807    0.00024764    0.00037094
     atom   38 type  1   force =     0.00097068   -0.00024877    0.00017955
     atom   39 type  2   force =    -0.00020276   -0.00052967    0.00005819
     atom   40 type  2   force =    -0.00019836   -0.00018813   -0.00015648
     atom   41 type  2   force =     0.00052577   -0.00048035    0.00010935
     atom   42 type  2   force =    -0.00051730    0.00008329   -0.00016036
     atom   43 type  1   force =     0.00015801    0.00093322    0.00053425
     atom   44 type  1   force =    -0.00011312    0.00095232   -0.00001755
     atom   45 type  2   force =     0.00002622    0.00003444    0.10299897
     atom   46 type  2   force =    -0.07193625   -0.00008115   -0.02720738
     atom   47 type  2   force =     0.07182659    0.00034928   -0.02729084
     atom   48 type  3   force =     0.00402495   -0.00155219    0.00329910
     atom   49 type  3   force =    -0.01755521    0.00031202   -0.00121454
     atom   50 type  4   force =     0.00087899   -0.00040208    0.00035741
     atom   51 type  5   force =    -0.00127877   -0.00029134    0.00030876
     atom   52 type  5   force =     0.00055114    0.00001815    0.00037775
     atom   53 type  5   force =    -0.00023427    0.00064451   -0.00049191
     atom   54 type  5   force =     0.00089344   -0.00025704   -0.00003394
     atom   55 type  5   force =     0.00812145   -0.00475026   -0.00347030
     atom   56 type  5   force =     0.00474440    0.00432182    0.00019836
     atom   57 type  2   force =     0.00067979   -0.00115755    0.00008335
     atom   58 type  5   force =    -0.00074920    0.00091058    0.00023087

     Total force =     0.362641     Total SCF correction =     0.000796
  @ DRIVER MODE: Message from server: STATUS
  @ DRIVER MODE: Message from server: GETFORCE
  @ DRIVER MODE: Returning v,forces,stress,ensemble

     Writing output data file ./calc.save/
  @ DRIVER MODE: Message from server: EXIT
  @ DRIVE MODE: Exiting

     General routines

     Parallel routines

   This run was terminated on:  14:40:27  23Sep2021

   JOB DONE.