     Program PWSCF v.6.7GPU starts on 15Sep2021 at 23: 4: 0

     R & G space division:  proc/nbgrp/npool/nimage =      10
     Reading input from /storage/home/hcoda1/3/ntian30/research/carbon/CxH_vib/H2O_calc/ads_slab/CHOHH2O_a/out_0022/pw.inp
Warning: card &CELL ignored
Warning: card   CELL_DYNAMICS='IPI', ignored
Warning: card / ignored

     Current dimensions of program PWSCF are:
     Max number of different atomic species (ntypx) = 10
     Max number of k-points (npk) =  40000
     Max angular momentum in pseudopotentials (lmaxx) =  3
     Presently no symmetry can be used with electric field

     Message from routine cell_base_init:
     DEPRECATED: use true lattice parameter, not A to a.u. conversion factor

     IMPORTANT: XC functional enforced from input :
     Exchange-correlation= BEEF-VDW
                           (   1   4  43  14   2   0   0)
     Any further DFT definition will be discarded
     Please, verify this is what you really want

  @ DRIVER MODE: Connecting to
 qe_1139763_2852632.sched-torque.pace.gatech.eduzj9jyacc_scratch
  using UNIX socket
  @ DRIVER MODE: Message from server: STATUS
  @ DRIVER MODE: Message from server: INIT
  @ DRIVER MODE: Receiving replica           0          -1
  @ DRIVER MODE: Receiving encoded integer          25
  @ DRIVER MODE:  SCF:  T  FORCE:  T  STRESS:  F  VC:  F  ENSEMBLE:  F
  @ DRIVER MODE:  SCF:  T  FORCE:  T  STRESS:  F  VC:  F  ENSEMBLE:  F

     Using Slab Decomposition

     bravais-lattice index     =            0
     lattice parameter (alat)  =       1.8897  a.u.
     unit-cell volume          =    6658.9804 (a.u.)^3
     number of atoms/cell      =           54
     number of atomic types    =            4
     number of electrons       =       398.00
     number of Kohn-Sham states=          209
     kinetic-energy cutoff     =      29.3995  Ry
     charge density cutoff     =     293.9946  Ry
     scf convergence threshold =      7.3E-08
     mixing beta               =       0.0500
     number of iterations used =            8  plain     mixing
     Exchange-correlation= BEEF-VDW
                           (   1   4  43  14   2   0   0)

     celldm(1)=   1.889726  celldm(2)=   0.000000  celldm(3)=   0.000000
     celldm(4)=   0.000000  celldm(5)=   0.000000  celldm(6)=   0.000000

     crystal axes: (cart. coord. in units of alat)
               a(1) = (   6.579727   0.000000   0.000000 )
               a(2) = (  -0.000775   5.961596   0.000000 )
               a(3) = (   0.000000   0.000000  25.155947 )

     reciprocal axes: (cart. coord. in units 2 pi/alat)
               b(1) = (  0.151982  0.000020  0.000000 )
               b(2) = (  0.000000  0.167740  0.000000 )
               b(3) = (  0.000000  0.000000  0.039752 )

     PseudoPot. # 1 for Ti read from file:
     /storage/coda1/p-amedford6/0/shared/rich_project_chbe-medford/medford-share/data/pseudos_module/espresso/nninc/pbe/van/Ti.UPF
     MD5 check sum: 8e4df49b7f0d34bbd5052bf3f5ea0213
     Pseudo is Ultrasoft, Zval = 12.0
     Generated by new atomic code, or converted to UPF format
     Using radial grid of  851 points,  6 beta functions with:
                l(1) =   0
                l(2) =   0
                l(3) =   1
                l(4) =   1
                l(5) =   2
                l(6) =   2
     Q(r) pseudized with  8 coefficients,  rinner =    1.000   1.000   1.000
                                                       1.000   1.000

     PseudoPot. # 2 for O  read from file:
     /storage/coda1/p-amedford6/0/shared/rich_project_chbe-medford/medford-share/data/pseudos_module/espresso/nninc/pbe/van/O.UPF
     MD5 check sum: 78c19812648e8988a0fe644b0f25305e
     Pseudo is Ultrasoft, Zval =  6.0
     Generated by new atomic code, or converted to UPF format
     Using radial grid of  737 points,  4 beta functions with:
                l(1) =   0
                l(2) =   0
                l(3) =   1
                l(4) =   1
     Q(r) pseudized with  8 coefficients,  rinner =    0.800   0.800   0.800

     PseudoPot. # 3 for C  read from file:
     /storage/coda1/p-amedford6/0/shared/rich_project_chbe-medford/medford-share/data/pseudos_module/espresso/nninc/pbe/van/C.UPF
     MD5 check sum: 1a69bf6b8db32088f5b2163dbdb77a27
     Pseudo is Ultrasoft, Zval =  4.0
     Generated by new atomic code, or converted to UPF format
     Using radial grid of  721 points,  4 beta functions with:
                l(1) =   0
                l(2) =   0
                l(3) =   1
                l(4) =   1
     Q(r) pseudized with  8 coefficients,  rinner =    0.800   0.800   0.800

     PseudoPot. # 4 for H  read from file:
     /storage/coda1/p-amedford6/0/shared/rich_project_chbe-medford/medford-share/data/pseudos_module/espresso/nninc/pbe/van/H.UPF
     MD5 check sum: b5ee9d7bfd3a09ee7748110bda690ff7
     Pseudo is Ultrasoft, Zval =  1.0
     Generated by new atomic code, or converted to UPF format
     Using radial grid of  615 points,  1 beta functions with:
                l(1) =   0
     Q(r) pseudized with  8 coefficients,  rinner =    0.800

     atomic species   valence    mass     pseudopotential
        Ti1           12.00    47.86700     Ti( 1.00)
        O1             6.00    15.99900     O ( 1.00)
        C1             4.00    12.01100     C ( 1.00)
        H1             1.00     1.00800     H ( 1.00)

     No symmetry found

   Cartesian axes

     site n.     atom                  positions (alat units)
         1           Ti1 tau(   1) = (   0.0004258   2.9801865   6.0000000  )
         2           Ti1 tau(   2) = (   3.2906075   1.4906267   6.0002472  )
         3           O1  tau(   3) = (   0.0006271   0.0005054   7.9858123  )
         4           O1  tau(   4) = (   3.2906025   0.0005020   7.3038282  )
         5           O1  tau(   5) = (   4.5942328   1.4918067   9.2879030  )
         6           O1  tau(   6) = (   1.9868534   1.4903216   9.2879459  )
         7           Ti1 tau(   7) = (   3.3203992   3.0065636   9.1614972  )
         8           Ti1 tau(   8) = (   0.0364112   1.5055733   9.2692997  )
         9           O1  tau(   9) = (   3.3037507   0.0048223  11.3846665  )
        10           O1  tau(  10) = (   0.0023770   0.0017864  10.5989407  )
        11           O1  tau(  11) = (   1.2986710   1.4943985  12.6419360  )
        12           O1  tau(  12) = (   5.3019195   1.4930987  12.6558330  )
        13           Ti1 tau(  13) = (   0.0201679   2.9954199  12.5459836  )
        14           Ti1 tau(  14) = (   3.3085843   1.4996073  12.5278567  )
        15           O1  tau(  15) = (   0.0306707   0.0063333  14.6434371  )
        16           O1  tau(  16) = (   3.2901280   5.9588824  14.0411263  )
        17           O1  tau(  17) = (   4.5937705   1.5245028  16.1210063  )
        18           O1  tau(  18) = (   2.0412355   1.5396885  16.1535958  )
        19           Ti1 tau(  19) = (   3.3250740   2.9785215  15.7238461  )
        20           Ti1 tau(  20) = (   0.0142243   1.3716099  15.9029131  )
        21           O1  tau(  21) = (   3.2904802   0.0005063   4.7018136  )
        22           O1  tau(  22) = (   0.0234726   5.9563001  17.1693433  )
        23           O1  tau(  23) = (   1.3043587   1.4918075   6.0039043  )
        24           O1  tau(  24) = (   5.2767064   1.4903225   6.0039473  )
        25           Ti1 tau(  25) = (   0.0000382   5.9609847   6.0000000  )
        26           Ti1 tau(  26) = (   3.2902200   4.4714249   6.0002472  )
        27           O1  tau(  27) = (   0.0002396   2.9813036   7.9858123  )
        28           O1  tau(  28) = (   3.2902150   2.9813002   7.3038282  )
        29           O1  tau(  29) = (   4.5938453   4.4726049   9.2879030  )
        30           O1  tau(  30) = (   1.9864658   4.4711199   9.2879459  )
        31           Ti1 tau(  31) = (   3.3166040   0.0254347   9.1556988  )
        32           Ti1 tau(  32) = (   0.0362352   4.4699824   9.2670842  )
        33           O1  tau(  33) = (   3.3035804   2.9865095  11.3763011  )
        34           O1  tau(  34) = (   0.0042610   2.9829788  10.6236548  )
        35           O1  tau(  35) = (   1.2977823   4.4749822  12.6434080  )
        36           O1  tau(  36) = (   5.3021498   4.4756442  12.6578133  )
        37           Ti1 tau(  37) = (   0.0128731   0.0155586  12.4748574  )
        38           Ti1 tau(  38) = (   3.3087006   4.4877506  12.5360639  )
        39           O1  tau(  39) = (   0.0289868   2.9802581  14.8446641  )
        40           O1  tau(  40) = (   3.2975897   2.9808645  13.9396156  )
        41           O1  tau(  41) = (   4.5936103   4.4348319  16.1149158  )
        42           O1  tau(  42) = (   2.0365336   4.4144103  16.1518429  )
        43           Ti1 tau(  43) = (   3.2980932   5.9591119  15.8729608  )
        44           Ti1 tau(  44) = (   0.0070259   4.5936845  15.8821292  )
        45           O1  tau(  45) = (   3.2900926   2.9813045   4.7018136  )
        46           O1  tau(  46) = (   1.3039711   4.4726057   6.0039043  )
        47           O1  tau(  47) = (   5.2763189   4.4711207   6.0039473  )
        48           C1  tau(  48) = (   6.0563806   2.9601134  19.0478501  )
        49           O1  tau(  49) = (   0.1703025   2.9720528  17.8813388  )
        50           H1  tau(  50) = (   5.0099104   2.8626262  18.6876999  )
        51           H1  tau(  51) = (   1.1251272   3.0666160  18.0647747  )
        52           O1  tau(  52) = (   3.2803433   5.9178330  18.2983259  )
        53           H1  tau(  53) = (   4.0549949   5.9397654  18.8787675  )
        54           H1  tau(  54) = (   2.4787048   0.0262026  18.8357284  )

     number of k points=    10  Fermi-Dirac smearing, width (Ry)=  0.0073
                       cart. coord. in units 2pi/alat
        k(    1) = (   0.0000000   0.0000000   0.0000000), wk =   0.1250000
        k(    2) = (   0.0000000   0.0419351   0.0000000), wk =   0.2500000
        k(    3) = (   0.0000000  -0.0838702   0.0000000), wk =   0.1250000
        k(    4) = (   0.0379955   0.0000049   0.0000000), wk =   0.2500000
        k(    5) = (   0.0379955   0.0419400   0.0000000), wk =   0.2500000
        k(    6) = (   0.0379955  -0.0838652   0.0000000), wk =   0.2500000
        k(    7) = (   0.0379955  -0.0419301   0.0000000), wk =   0.2500000
        k(    8) = (  -0.0759910  -0.0000099   0.0000000), wk =   0.1250000
        k(    9) = (  -0.0759910   0.0419252   0.0000000), wk =   0.2500000
        k(   10) = (  -0.0759910  -0.0838800   0.0000000), wk =   0.1250000

     Initial potential from superposition of free atoms

     starting charge  381.99917, renormalised to  398.00000

     negative rho (up, down):  1.670E-02 0.000E+00

     %%%%%%%%%%%%%%%%%%%%%%%%%%%%%%%%%%%%%%%%%%%%%%%%%%%%%%%%%%%%%%%%%%%%%%%%
     %                                                                      %
     % You are using vdW-DF, which was implemented by the Thonhauser group. %
     % Please cite the following two papers that made this development      %
     % possible and the two reviews that describe the various versions:     %
     %                                                                      %
     %   T. Thonhauser et al., PRL 115, 136402 (2015).                      %
     %   T. Thonhauser et al., PRB 76, 125112 (2007).                       %
     %   K. Berland et al., Rep. Prog. Phys. 78, 066501 (2015).             %
     %   D.C. Langreth et al., J. Phys.: Condens. Matter 21, 084203 (2009). %
     %                                                                      %
     %                                                                      %
     % If you are calculating the stress with vdW-DF, please also cite:     %
     %                                                                      %
     %   R. Sabatini et al., J. Phys.: Condens. Matter 24, 424209 (2012).   %
     %                                                                      %
     %%%%%%%%%%%%%%%%%%%%%%%%%%%%%%%%%%%%%%%%%%%%%%%%%%%%%%%%%%%%%%%%%%%%%%%%

     Adding external electric field

     Computed dipole along edir(3) :
        Dipole              -10.5131 Ry au,        -26.7216 Debye
        Dipole field         -0.0198 Ry au,

        Potential amp.        1.8391 Ry
        Total length         46.3494 bohr

     Starting wfcs are  300 atomic wfcs
  @ DRIVER MODE: Message from server: STATUS
  @ DRIVER MODE: Message from server: POSDATA
  @ DRIVER MODE: Reading and sharing cell
  @ DRIVER MODE: Reading and sharing positions
  @ DRIVER MODE: Received positions

     Self-consistent Calculation

     iteration #  1     ecut=    29.40 Ry     beta= 0.05
     Davidson diagonalization with overlap
     c_bands:  2 eigenvalues not converged
     c_bands:  3 eigenvalues not converged
     c_bands:  1 eigenvalues not converged
     c_bands:  4 eigenvalues not converged
     c_bands:  4 eigenvalues not converged
     c_bands:  4 eigenvalues not converged
     c_bands:  1 eigenvalues not converged
     c_bands:  3 eigenvalues not converged
     c_bands:  4 eigenvalues not converged
     ethr =  1.00E-05,  avg # of iterations = 19.9

[...]

     total energy              =   -2479.43176555 Ry
     estimated scf accuracy    <    5441.08112300 Ry

     iteration #  2     ecut=    29.40 Ry     beta= 0.05
     Davidson diagonalization with overlap
     ethr =  1.00E-02,  avg # of iterations = 24.8

[...]

     iteration # 48     ecut=    29.40 Ry     beta= 0.05
     Davidson diagonalization with overlap
     c_bands:  1 eigenvalues not converged
     ethr =  1.06E-08,  avg # of iterations =  9.1

[...]

     total energy              =   -2964.77944715 Ry
     estimated scf accuracy    <       0.00000008 Ry

     iteration # 61     ecut=    29.40 Ry     beta= 0.05
     Davidson diagonalization with overlap
     ethr =  1.96E-11,  avg # of iterations = 12.5

     negative rho (up, down):  1.518E-02 0.000E+00

     Adding external electric field

     Computed dipole along edir(3) :
        Dipole                0.7119 Ry au,          1.8096 Debye
        Dipole field          0.0013 Ry au,

        Potential amp.       -0.1245 Ry
        Total length         46.3494 bohr

     End of self-consistent calculation

          k = 0.0000 0.0000 0.0000 ( 18029 PWs)   bands (ev):

   -55.7046 -55.6916 -55.6684 -55.6660 -55.6572 -55.6062 -55.5549 -55.5533
   -55.5409 -55.5205 -55.5076 -55.4861 -55.4854 -55.4737 -54.7726 -54.7385
   -32.2651 -32.1857 -32.1824 -32.0874 -32.0500 -32.0306 -32.0193 -32.0090
   -31.9806 -31.9451 -31.9353 -31.9204 -31.8959 -31.8886 -31.8817 -31.8626
   -31.8453 -31.8446 -31.8414 -31.8340 -31.8180 -31.8070 -31.8066 -31.7972
   -31.7952 -31.7798 -31.7768 -31.7487 -31.7365 -31.7229 -31.7116 -31.7106
   -31.7057 -31.7015 -31.6953 -31.6872 -31.6551 -31.6533 -31.6484 -31.6448
   -31.6184 -31.5623 -31.1844 -31.0828 -31.0612 -31.0006 -30.9142 -30.8032
   -21.1327 -19.2601 -16.5232 -16.2812 -16.1384 -16.0351 -15.9305 -15.7980
   -15.7111 -15.5876 -15.5245 -15.3975 -15.3581 -15.3524 -15.3461 -15.3177
   -15.2962 -15.2735 -15.2496 -15.2088 -15.2043 -15.2007 -15.1717 -15.1596
   -15.1020 -15.0893 -15.0450 -14.9273 -14.8758 -14.8148 -14.4965 -13.2733
   -13.1542 -10.3367  -7.2207  -5.7006  -4.7262  -4.0143  -3.9433  -3.8138
    -3.7171  -3.6486  -3.6111  -3.5427  -3.4637  -3.2606  -3.1302  -3.1222
    -2.9895  -2.9528  -2.9082  -2.8069  -2.7412  -2.6790  -2.6687  -2.5930
    -2.5888  -2.5809  -2.5675  -2.4749  -2.4687  -2.4201  -2.3788  -2.2998
    -2.2641  -2.1468  -2.1161  -2.1073  -2.0636  -2.0479  -2.0411  -2.0286
    -1.9790  -1.9532  -1.9350  -1.9338  -1.7920  -1.7502  -1.6043  -1.4795
    -1.4463  -1.4321  -1.3038  -1.2663  -1.2498  -1.1921  -1.1716  -1.1618
    -1.1229  -1.0419  -0.9587  -0.9344  -0.8624  -0.8195  -0.7153  -0.6211
    -0.5765  -0.5278  -0.5054  -0.4960  -0.4767  -0.4119  -0.3641  -0.2775
    -0.2234  -0.1603  -0.1335  -0.1267  -0.0721  -0.0420   0.0380   0.0848
     0.1191   0.1333   0.2190   0.2334   0.2462   0.2775   0.2798   0.3928
     0.4466   0.5038   0.5103   0.6587   0.8258   0.8509   0.9304   1.1447
     1.2531   1.2557   1.4164   1.4732   1.8382   1.8925   3.3830   3.4530
     3.4875   3.5017   3.5109   3.5887   3.8187   3.8708   3.9023   3.9214
     3.9306

[...]

          k = 0.0380-0.0419 0.0000 ( 17876 PWs)   bands (ev):

[...]

          k =-0.0760-0.0000 0.0000 ( 17886 PWs)   bands (ev):

[...]

          k =-0.0760-0.0839 0.0000 ( 17948 PWs)   bands (ev):

   -55.6891 -55.6837 -55.6766 -55.6721 -55.6643 -55.5999 -55.5595 -55.5397
   -55.5354 -55.5341 -55.4922 -55.4917 -55.4896 -55.4876 -54.7555 -54.7555
   -32.1074 -32.0754 -32.0643 -32.0028 -31.9985 -31.9793 -31.9706 -31.9615
   -31.9593 -31.9347 -31.9337 -31.9090 -31.8997 -31.8713 -31.8574 -31.8561
   -31.8546 -31.8462 -31.8413 -31.8373 -31.8295 -31.8219 -31.8048 -31.8018
   -31.7990 -31.7971 -31.7968 -31.7957 -31.7923 -31.7843 -31.7821 -31.7526
   -31.7381 -31.7376 -31.7220 -31.7131 -31.7112 -31.7058 -31.6805 -31.6757
   -31.6744 -31.6514 -31.0737 -31.0737 -30.9972 -30.9968 -30.9575 -30.9573
   -21.1314 -19.2596 -16.1541 -15.9590 -15.8087 -15.7243 -15.7176 -15.6586
   -15.5783 -15.5371 -15.4912 -15.4794 -15.4692 -15.4345 -15.4253 -15.4141
   -15.3516 -15.3016 -15.2981 -15.2826 -15.2333 -15.2259 -15.2154 -15.2098
   -15.2011 -15.1581 -15.1538 -15.1393 -15.1285 -14.9847 -14.8283 -13.2556
   -13.2548 -10.3400  -7.2183  -5.7036  -4.7050  -3.9438  -3.8712  -3.2343
    -3.2316  -2.9700  -2.9479  -2.8893  -2.8777  -2.8137  -2.7825  -2.7066
    -2.7002  -2.6550  -2.6147  -2.6063  -2.5935  -2.5691  -2.5359  -2.5224
    -2.4806  -2.4706  -2.4448  -2.4402  -2.4214  -2.4054  -2.3805  -2.3746
    -2.3423  -2.3221  -2.3140  -2.3105  -2.2334  -2.1714  -2.0484  -2.0265
    -1.9858  -1.9367  -1.9211  -1.8505  -1.8148  -1.7999  -1.7423  -1.7077
    -1.6811  -1.5082  -1.4963  -1.4759  -1.3847  -1.3521  -1.3394  -1.3114
    -1.2550  -1.2261  -1.2220  -1.1444  -1.0331  -1.0102  -0.9117  -0.8661
    -0.8650  -0.7765  -0.7430  -0.7046  -0.7025  -0.6653  -0.6089  -0.5872
    -0.5301  -0.5243  -0.4767  -0.4562  -0.4327  -0.4017  -0.2290  -0.1739
    -0.1183  -0.0211   0.0077   0.2354   0.2663   0.2732   0.3389   0.3693
     0.4757   0.4970   0.5600   0.5749   0.6762   0.7076   0.7245   0.7294
     0.7757   1.4800   1.6049   1.6076   1.7065   1.7101   3.5324   3.5465
     3.6481   3.7000   3.7374   3.8410   3.8898   3.9220   3.9296   3.9446
     4.0196

     the Fermi energy is     3.4310 ev

!    total energy              =   -2964.77950354 Ry
     estimated scf accuracy    <       0.00000005 Ry
     smearing contrib. (-TS)   =      -0.03745695 Ry
     internal energy E=F+TS    =   -2964.74204659 Ry

     The total energy is F=E-TS. E is the sum of the following terms:
     one-electron contribution =  -24112.40680978 Ry
     hartree contribution      =   12146.42732658 Ry
     xc contribution           =    -490.01988117 Ry
     ewald contribution        =    9491.25636127 Ry
     electric field correction =       0.00095650 Ry

     convergence has been achieved in  61 iterations

     Forces acting on atoms (cartesian axes, Ry/au):

     atom    1 type  1   force =    -0.00034854   -0.00001622    0.09253933
     atom    2 type  1   force =    -0.00033166    0.00121899   -0.18261321
     atom    3 type  2   force =     0.00043677    0.00023070   -0.02456902
     atom    4 type  2   force =     0.00073603    0.00044739    0.05162275
     atom    5 type  2   force =    -0.01465530   -0.00007678    0.00467099
     atom    6 type  2   force =     0.01553227   -0.00056822    0.00542387
     atom    7 type  1   force =    -0.00050878   -0.00017594    0.00012542
     atom    8 type  1   force =     0.00022564    0.00004699    0.00020773
     atom    9 type  2   force =    -0.00016885   -0.00017551   -0.00031027
     atom   10 type  2   force =     0.00006418   -0.00004355    0.00031439
     atom   11 type  2   force =    -0.00031896    0.00021383    0.00003471
     atom   12 type  2   force =     0.00038829    0.00008464   -0.00020987
     atom   13 type  1   force =    -0.00020715   -0.00025614    0.00022426
     atom   14 type  1   force =     0.00013296   -0.00021905   -0.00047778
     atom   15 type  2   force =    -0.00032332    0.00032843   -0.00013537
     atom   16 type  2   force =     0.00008226    0.00000500   -0.00029429
     atom   17 type  2   force =    -0.00009230   -0.00012811    0.00017998
     atom   18 type  2   force =     0.00021239   -0.00013336   -0.00040039
     atom   19 type  1   force =    -0.00096733   -0.00006363   -0.00032300
     atom   20 type  1   force =     0.00051162    0.00012526    0.00009530
     atom   21 type  2   force =    -0.00009793    0.00005981    0.10487061
     atom   22 type  2   force =    -0.00032655   -0.00009137    0.00044211
     atom   23 type  2   force =    -0.06834756    0.00002539   -0.02694264
     atom   24 type  2   force =     0.06804146    0.00045996   -0.02701702
     atom   25 type  1   force =    -0.00031141   -0.00002082    0.09721591
     atom   26 type  1   force =    -0.00030494   -0.00119825   -0.18266523
     atom   27 type  2   force =     0.00035227    0.00023855   -0.02298407
     atom   28 type  2   force =     0.00081417    0.00042615    0.05200718
     atom   29 type  2   force =    -0.01464008    0.00065022    0.00459908
     atom   30 type  2   force =     0.01565822    0.00040029    0.00532797
     atom   31 type  1   force =    -0.00046610   -0.00000835    0.00013602
     atom   32 type  1   force =     0.00022900    0.00007212    0.00019781
     atom   33 type  2   force =    -0.00008802    0.00013013    0.00017168
     atom   34 type  2   force =     0.00001160    0.00001678    0.00015919
     atom   35 type  2   force =    -0.00015633   -0.00031105    0.00012582
     atom   36 type  2   force =     0.00022498   -0.00020424   -0.00010722
     atom   37 type  1   force =    -0.00030003    0.00016274   -0.00046390
     atom   38 type  1   force =     0.00013007    0.00037814   -0.00037175
     atom   39 type  2   force =    -0.00035699   -0.00027057   -0.00020084
     atom   40 type  2   force =     0.00018034   -0.00007502   -0.00003226
     atom   41 type  2   force =    -0.00034418   -0.00012033   -0.00018558
     atom   42 type  2   force =     0.00027031   -0.00021093   -0.00047499
     atom   43 type  1   force =    -0.00089496   -0.00012448    0.00005916
     atom   44 type  1   force =     0.00021818   -0.00060711   -0.00009723
     atom   45 type  2   force =    -0.00007299    0.00005314    0.10477137
     atom   46 type  2   force =    -0.06833319   -0.00060093   -0.02693365
     atom   47 type  2   force =     0.06803075   -0.00013257   -0.02700746
     atom   48 type  3   force =    -0.00009251    0.00039941   -0.00033775
     atom   49 type  2   force =     0.00135576    0.00102540    0.00039414
     atom   50 type  4   force =     0.00021591   -0.00036664   -0.00014956
     atom   51 type  4   force =    -0.00132033   -0.00098546   -0.00048789
     atom   52 type  2   force =     0.00004624   -0.00117507    0.00090254
     atom   53 type  4   force =    -0.00026040    0.00058966   -0.00042915
     atom   54 type  4   force =     0.00053503    0.00057059   -0.00059793

     Total force =     0.368449     Total SCF correction =     0.000601
  @ DRIVER MODE: Message from server: STATUS
  @ DRIVER MODE: Message from server: GETFORCE
  @ DRIVER MODE: Returning v,forces,stress,ensemble

     Writing output data file ./calc.save/
  @ DRIVER MODE: Message from server: EXIT
  @ DRIVE MODE: Exiting

     General routines

     Parallel routines

   This run was terminated on:  23:21: 9  15Sep2021

   JOB DONE.