     Program PWSCF v.6.7GPU starts on 16Jul2021 at  0:45:23

     R & G space division:  proc/nbgrp/npool/nimage =      16
     Reading input from /storage/home/hcoda1/3/ntian30/research/carbon/15Jul_vib/ads_slab/CH3N_a/out_0021/pw.inp
Warning: card &CELL ignored
Warning: card   CELL_DYNAMICS='IPI', ignored
Warning: card / ignored

     Current dimensions of program PWSCF are:
     Max number of different atomic species (ntypx) = 10
     Max number of k-points (npk) =  40000
     Max angular momentum in pseudopotentials (lmaxx) =  3
     Presently no symmetry can be used with electric field

     Message from routine cell_base_init:
     DEPRECATED: use true lattice parameter, not A to a.u. conversion factor

     IMPORTANT: XC functional enforced from input :
     Exchange-correlation= BEEF-VDW
                           (   1   4  43  14   2   0   0)
     Any further DFT definition will be discarded
     Please, verify this is what you really want

  @ DRIVER MODE: Connecting to
 qe_1139763_2351643.sched-torque.pace.gatech.edudbca56vc_scratch
  using UNIX socket
  @ DRIVER MODE: Message from server: STATUS
  @ DRIVER MODE: Message from server: INIT
  @ DRIVER MODE: Receiving replica           0          -1
  @ DRIVER MODE: Receiving encoded integer          25
  @ DRIVER MODE:  SCF:  T  FORCE:  T  STRESS:  F  VC:  F  ENSEMBLE:  F
  @ DRIVER MODE:  SCF:  T  FORCE:  T  STRESS:  F  VC:  F  ENSEMBLE:  F

     Using Slab Decomposition

     bravais-lattice index     =            0
     lattice parameter (alat)  =       1.8897  a.u.
     unit-cell volume          =    6658.9804 (a.u.)^3
     number of atoms/cell      =           52
     number of atomic types    =            5
     number of electrons       =       390.00
     number of Kohn-Sham states=          205
     kinetic-energy cutoff     =      29.3995  Ry
     charge density cutoff     =     293.9946  Ry
     scf convergence threshold =      7.3E-08
     mixing beta               =       0.0500
     number of iterations used =            8  plain     mixing
     Exchange-correlation= BEEF-VDW
                           (   1   4  43  14   2   0   0)

     celldm(1)=   1.889726  celldm(2)=   0.000000  celldm(3)=   0.000000
     celldm(4)=   0.000000  celldm(5)=   0.000000  celldm(6)=   0.000000

     crystal axes: (cart. coord. in units of alat)
               a(1) = (   6.579727   0.000000   0.000000 )
               a(2) = (  -0.000775   5.961596   0.000000 )
               a(3) = (   0.000000   0.000000  25.155947 )

     reciprocal axes: (cart. coord. in units 2 pi/alat)
               b(1) = (  0.151982  0.000020  0.000000 )
               b(2) = (  0.000000  0.167740  0.000000 )
               b(3) = (  0.000000  0.000000  0.039752 )

     PseudoPot. # 1 for Ti read from file:
     /storage/coda1/p-amedford6/0/shared/rich_project_chbe-medford/medford-share/data/pseudos_module/espresso/nninc/pbe/van/Ti.UPF
     MD5 check sum: 8e4df49b7f0d34bbd5052bf3f5ea0213
     Pseudo is Ultrasoft, Zval = 12.0
     Generated by new atomic code, or converted to UPF format
     Using radial grid of  851 points,  6 beta functions with:
                l(1) =   0
                l(2) =   0
                l(3) =   1
                l(4) =   1
                l(5) =   2
                l(6) =   2
     Q(r) pseudized with  8 coefficients,  rinner =    1.000   1.000   1.000
                                                       1.000   1.000

     PseudoPot. # 2 for O  read from file:
     /storage/coda1/p-amedford6/0/shared/rich_project_chbe-medford/medford-share/data/pseudos_module/espresso/nninc/pbe/van/O.UPF
     MD5 check sum: 78c19812648e8988a0fe644b0f25305e
     Pseudo is Ultrasoft, Zval =  6.0
     Generated by new atomic code, or converted to UPF format
     Using radial grid of  737 points,  4 beta functions with:
                l(1) =   0
                l(2) =   0
                l(3) =   1
                l(4) =   1
     Q(r) pseudized with  8 coefficients,  rinner =    0.800   0.800   0.800

     PseudoPot. # 3 for N  read from file:
     /storage/coda1/p-amedford6/0/shared/rich_project_chbe-medford/medford-share/data/pseudos_module/espresso/nninc/pbe/van/N.UPF
     MD5 check sum: 90d10febe142ad51ac9d5be1deb811c4
     Pseudo is Ultrasoft, Zval =  5.0
     Generated by new atomic code, or converted to UPF format
     Using radial grid of  729 points,  4 beta functions with:
                l(1) =   0
                l(2) =   0
                l(3) =   1
                l(4) =   1
     Q(r) pseudized with  8 coefficients,  rinner =    0.800   0.800   0.800

     PseudoPot. # 4 for C  read from file:
     /storage/coda1/p-amedford6/0/shared/rich_project_chbe-medford/medford-share/data/pseudos_module/espresso/nninc/pbe/van/C.UPF
     MD5 check sum: 1a69bf6b8db32088f5b2163dbdb77a27
     Pseudo is Ultrasoft, Zval =  4.0
     Generated by new atomic code, or converted to UPF format
     Using radial grid of  721 points,  4 beta functions with:
                l(1) =   0
                l(2) =   0
                l(3) =   1
                l(4) =   1
     Q(r) pseudized with  8 coefficients,  rinner =    0.800   0.800   0.800

     PseudoPot. # 5 for H  read from file:
     /storage/coda1/p-amedford6/0/shared/rich_project_chbe-medford/medford-share/data/pseudos_module/espresso/nninc/pbe/van/H.UPF
     MD5 check sum: b5ee9d7bfd3a09ee7748110bda690ff7
     Pseudo is Ultrasoft, Zval =  1.0
     Generated by new atomic code, or converted to UPF format
     Using radial grid of  615 points,  1 beta functions with:
                l(1) =   0
     Q(r) pseudized with  8 coefficients,  rinner =    0.800

     atomic species   valence    mass     pseudopotential
        Ti1           12.00    47.86700     Ti( 1.00)
        O1             6.00    15.99900     O ( 1.00)
        N1             5.00    14.00700     N ( 1.00)
        C1             4.00    12.01100     C ( 1.00)
        H1             1.00     1.00800     H ( 1.00)

     Starting magnetic structure
     atomic species   magnetization
        Ti1          0.000
        O1           0.000
        N1           0.000
        C1           0.025
        H1           0.000

     No symmetry found

   Cartesian axes

     site n.     atom                  positions (alat units)
         1           Ti1 tau(   1) = (   0.0004258   2.9801865   6.0000000  )
         2           Ti1 tau(   2) = (   3.2906075   1.4906267   6.0002472  )
         3           O1  tau(   3) = (   0.0006271   0.0005054   7.9858123  )
         4           O1  tau(   4) = (   3.2906025   0.0005020   7.3038282  )
         5           O1  tau(   5) = (   4.5942328   1.4918067   9.2879030  )
         6           O1  tau(   6) = (   1.9868534   1.4903216   9.2879459  )
         7           Ti1 tau(   7) = (   3.2907910   2.8959150   9.1758416  )
         8           Ti1 tau(   8) = (   0.0015273   1.4827037   9.2680791  )
         9           O1  tau(   9) = (   3.2848820   0.0184509  11.2968037  )
        10           O1  tau(  10) = (   0.0116148   5.9584955  10.6183126  )
        11           O1  tau(  11) = (   1.3164307   1.5202202  12.6152053  )
        12           O1  tau(  12) = (   5.2938533   1.5248534  12.6363518  )
        13           Ti1 tau(  13) = (   6.4693392   3.0155455  12.7604093  )
        14           Ti1 tau(  14) = (   3.1621140   1.5165027  12.4659144  )
        15           O1  tau(  15) = (   0.0250032   0.0426882  14.5925537  )
        16           O1  tau(  16) = (   3.2896737   0.0171256  13.8799622  )
        17           O1  tau(  17) = (   4.5365032   1.4993634  16.0438468  )
        18           O1  tau(  18) = (   2.0814567   1.5015292  16.0591106  )
        19           Ti1 tau(  19) = (   3.3082904   2.9956922  15.6854367  )
        20           Ti1 tau(  20) = (   0.0032501   1.4479889  16.1249605  )
        21           O1  tau(  21) = (   3.2904802   0.0005063   4.7018136  )
        22           O1  tau(  22) = (   0.0161699   0.0004382  17.1970091  )
        23           O1  tau(  23) = (   1.3043587   1.4918075   6.0039043  )
        24           O1  tau(  24) = (   5.2767064   1.4903225   6.0039473  )
        25           Ti1 tau(  25) = (   0.0000382   5.9609847   6.0000000  )
        26           Ti1 tau(  26) = (   3.2902200   4.4714249   6.0002472  )
        27           O1  tau(  27) = (   0.0002396   2.9813036   7.9858123  )
        28           O1  tau(  28) = (   3.2902150   2.9813002   7.3038282  )
        29           O1  tau(  29) = (   4.5938453   4.4726049   9.2879030  )
        30           O1  tau(  30) = (   1.9864658   4.4711199   9.2879459  )
        31           Ti1 tau(  31) = (   3.2891106   5.8743827   9.1763621  )
        32           Ti1 tau(  32) = (   0.0006254   4.4649316   9.2693709  )
        33           O1  tau(  33) = (   3.2855107   2.9994495  11.2959752  )
        34           O1  tau(  34) = (   0.0092240   2.9805883  10.6323155  )
        35           O1  tau(  35) = (   1.3179678   4.4860142  12.6155112  )
        36           O1  tau(  36) = (   5.2920789   4.4901865  12.6316709  )
        37           Ti1 tau(  37) = (   6.5050993   0.0355131  12.7707974  )
        38           Ti1 tau(  38) = (   3.1594757   4.4963870  12.4672366  )
        39           O1  tau(  39) = (   6.5726527   3.0227966  14.6583025  )
        40           O1  tau(  40) = (   3.2932321   2.9979836  13.8792693  )
        41           O1  tau(  41) = (   4.5322310   4.4839795  16.0418810  )
        42           O1  tau(  42) = (   2.0800586   4.4799519  16.0553745  )
        43           Ti1 tau(  43) = (   3.2910362   0.0127607  15.6894215  )
        44           Ti1 tau(  44) = (   0.0049462   4.4269923  16.0943486  )
        45           O1  tau(  45) = (   3.2900926   2.9813045   4.7018136  )
        46           O1  tau(  46) = (   1.3039711   4.4726057   6.0039043  )
        47           O1  tau(  47) = (   5.2763189   4.4711207   6.0039473  )
        48           N1  tau(  48) = (   0.0596666   2.9942962  17.3216073  )
        49           C1  tau(  49) = (   0.3918855   2.9774893  18.7266025  )
        50           H1  tau(  50) = (   0.0017595   3.8652167  19.2343835  )
        51           H1  tau(  51) = (   0.0043965   2.0715098  19.2200810  )
        52           H1  tau(  52) = (   1.4843755   2.9788857  18.8581259  )

     number of k points=    10  Fermi-Dirac smearing, width (Ry)=  0.0073
                       cart. coord. in units 2pi/alat
        k(    1) = (   0.0000000   0.0000000   0.0000000), wk =   0.0625000
        k(    2) = (   0.0000000   0.0419351   0.0000000), wk =   0.1250000
        k(    3) = (   0.0000000  -0.0838702   0.0000000), wk =   0.0625000
        k(    4) = (   0.0379955   0.0000049   0.0000000), wk =   0.1250000
        k(    5) = (   0.0379955   0.0419400   0.0000000), wk =   0.1250000
        k(    6) = (   0.0379955  -0.0838652   0.0000000), wk =   0.1250000
        k(    7) = (   0.0379955  -0.0419301   0.0000000), wk =   0.1250000
        k(    8) = (  -0.0759910  -0.0000099   0.0000000), wk =   0.0625000
        k(    9) = (  -0.0759910   0.0419252   0.0000000), wk =   0.1250000
        k(   10) = (  -0.0759910  -0.0838800   0.0000000), wk =   0.0625000

     Initial potential from superposition of free atoms

     starting charge  373.99917, renormalised to  390.00000

     negative rho (up, down):  8.647E-03 8.653E-03

     %%%%%%%%%%%%%%%%%%%%%%%%%%%%%%%%%%%%%%%%%%%%%%%%%%%%%%%%%%%%%%%%%%%%%%%%
     %                                                                      %
     % You are using vdW-DF, which was implemented by the Thonhauser group. %
     % Please cite the following two papers that made this development      %
     % possible and the two reviews that describe the various versions:     %
     %                                                                      %
     %   T. Thonhauser et al., PRL 115, 136402 (2015).                      %
     %   T. Thonhauser et al., PRB 76, 125112 (2007).                       %
     %   K. Berland et al., Rep. Prog. Phys. 78, 066501 (2015).             %
     %   D.C. Langreth et al., J. Phys.: Condens. Matter 21, 084203 (2009). %
     %                                                                      %
     %                                                                      %
     % If you are calculating the stress with vdW-DF, please also cite:     %
     %                                                                      %
     %   R. Sabatini et al., J. Phys.: Condens. Matter 24, 424209 (2012).   %
     %                                                                      %
     %%%%%%%%%%%%%%%%%%%%%%%%%%%%%%%%%%%%%%%%%%%%%%%%%%%%%%%%%%%%%%%%%%%%%%%%

     Adding external electric field

     Computed dipole along edir(3) :
        Dipole               -4.6263 Ry au,        -11.7589 Debye
        Dipole field         -0.0087 Ry au,

        Potential amp.        0.8093 Ry
        Total length         46.3494 bohr

[...]

     Starting wfcs are  295 atomic wfcs
  @ DRIVER MODE: Message from server: STATUS
  @ DRIVER MODE: Message from server: POSDATA
  @ DRIVER MODE: Reading and sharing cell
  @ DRIVER MODE: Reading and sharing positions
  @ DRIVER MODE: Received positions

     Self-consistent Calculation

     iteration #  1     ecut=    29.40 Ry     beta= 0.05
     Davidson diagonalization with overlap
     c_bands:  3 eigenvalues not converged
     c_bands:  4 eigenvalues not converged
     c_bands:  2 eigenvalues not converged
     c_bands:  4 eigenvalues not converged
     c_bands:  4 eigenvalues not converged
     c_bands:  2 eigenvalues not converged
     c_bands:  3 eigenvalues not converged
     c_bands:  2 eigenvalues not converged
     c_bands:  4 eigenvalues not converged
     c_bands:  2 eigenvalues not converged
     c_bands:  2 eigenvalues not converged
     c_bands:  4 eigenvalues not converged
     c_bands:  2 eigenvalues not converged
     c_bands:  4 eigenvalues not converged
     c_bands:  2 eigenvalues not converged
     c_bands:  3 eigenvalues not converged
     c_bands:  3 eigenvalues not converged
     ethr =  1.00E-05,  avg # of iterations = 19.8

[...]

     total energy              =   -2876.93647267 Ry
     estimated scf accuracy    <     486.26604586 Ry

     total magnetization       =     0.13 Bohr mag/cell
     absolute magnetization    =     0.16 Bohr mag/cell

     iteration #  2     ecut=    29.40 Ry     beta= 0.05
     Davidson diagonalization with overlap
     ethr =  1.00E-02,  avg # of iterations = 13.6

[...]

     iteration # 31     ecut=    29.40 Ry     beta= 0.05
     Davidson diagonalization with overlap
     c_bands:  1 eigenvalues not converged
     c_bands:  1 eigenvalues not converged
     ethr =  3.39E-06,  avg # of iterations = 12.2

[...]

     total energy              =   -2919.13331368 Ry
     estimated scf accuracy    <       0.00000015 Ry

[...]

     iteration # 68     ecut=    29.40 Ry     beta= 0.05
     Davidson diagonalization with overlap
     ethr =  2.72E-11,  avg # of iterations =  7.0

     negative rho (up, down):  8.884E-03 8.883E-03

[...]

     Adding external electric field

     Computed dipole along edir(3) :
        Dipole                0.2496 Ry au,          0.6345 Debye
        Dipole field          0.0005 Ry au,

        Potential amp.       -0.0437 Ry
        Total length         46.3494 bohr

     Magnetic moment per site  (integrated on atomic sphere of radius R)
     atom   1 (R=0.743)  charge=  8.0712  magn= -0.0001
     atom   2 (R=0.743)  charge=  8.0673  magn= -0.0000
     atom   3 (R=0.743)  charge=  5.0508  magn=  0.0000
     atom   4 (R=0.743)  charge=  5.0897  magn=  0.0000
     atom   5 (R=0.743)  charge=  5.0526  magn=  0.0000
     atom   6 (R=0.743)  charge=  5.0540  magn=  0.0000
     atom   7 (R=0.743)  charge=  8.0607  magn= -0.0000
     atom   8 (R=0.743)  charge=  8.0480  magn= -0.0000
     atom   9 (R=0.743)  charge=  5.0677  magn=  0.0000
     atom  10 (R=0.743)  charge=  4.9974  magn=  0.0000
     atom  11 (R=0.743)  charge=  5.0556  magn=  0.0000
     atom  12 (R=0.743)  charge=  5.0584  magn=  0.0000
     atom  13 (R=0.743)  charge=  8.0594  magn= -0.0000
     atom  14 (R=0.743)  charge=  8.0663  magn= -0.0000
     atom  15 (R=0.743)  charge=  5.0445  magn=  0.0000
     atom  16 (R=0.743)  charge=  5.0715  magn=  0.0000
     atom  17 (R=0.743)  charge=  5.0432  magn=  0.0001
     atom  18 (R=0.743)  charge=  5.0420  magn=  0.0001
     atom  19 (R=0.743)  charge=  8.0873  magn= -0.0001
     atom  20 (R=0.743)  charge=  8.0865  magn= -0.0003
     atom  21 (R=0.743)  charge=  4.9345  magn=  0.0000
     atom  22 (R=0.743)  charge=  5.0262  magn=  0.0001
     atom  23 (R=0.743)  charge=  5.0425  magn=  0.0000
     atom  24 (R=0.743)  charge=  5.0426  magn=  0.0000
     atom  25 (R=0.743)  charge=  8.0712  magn= -0.0001
     atom  26 (R=0.743)  charge=  8.0673  magn= -0.0000
     atom  27 (R=0.743)  charge=  5.0507  magn=  0.0000
     atom  28 (R=0.743)  charge=  5.0899  magn=  0.0000
     atom  29 (R=0.743)  charge=  5.0534  magn=  0.0000
     atom  30 (R=0.743)  charge=  5.0547  magn=  0.0000
     atom  31 (R=0.743)  charge=  8.0608  magn= -0.0000
     atom  32 (R=0.743)  charge=  8.0482  magn= -0.0000
     atom  33 (R=0.743)  charge=  5.0679  magn=  0.0000
     atom  34 (R=0.743)  charge=  4.9963  magn=  0.0000
     atom  35 (R=0.743)  charge=  5.0558  magn=  0.0000
     atom  36 (R=0.743)  charge=  5.0580  magn=  0.0000
     atom  37 (R=0.743)  charge=  8.0669  magn= -0.0000
     atom  38 (R=0.743)  charge=  8.0667  magn= -0.0000
     atom  39 (R=0.743)  charge=  5.0387  magn=  0.0001
     atom  40 (R=0.743)  charge=  5.0730  magn=  0.0000
     atom  41 (R=0.743)  charge=  5.0440  magn=  0.0001
     atom  42 (R=0.743)  charge=  5.0430  magn=  0.0001
     atom  43 (R=0.743)  charge=  8.0878  magn= -0.0000
     atom  44 (R=0.743)  charge=  8.0856  magn= -0.0004
     atom  45 (R=0.743)  charge=  4.9345  magn=  0.0000
     atom  46 (R=0.743)  charge=  5.0425  magn=  0.0000
     atom  47 (R=0.743)  charge=  5.0426  magn=  0.0000
     atom  48 (R=0.596)  charge=  2.7578  magn=  0.0014
     atom  49 (R=0.452)  charge=  0.8550  magn= -0.0000
     atom  50 (R=0.452)  charge=  0.5112  magn=  0.0000
     atom  51 (R=0.452)  charge=  0.5063  magn=  0.0000
     atom  52 (R=0.452)  charge=  0.5064  magn=  0.0001

     End of self-consistent calculation

 ------ SPIN UP ------------

          k = 0.0000 0.0000 0.0000 ( 18029 PWs)   bands (ev):

   -56.8986 -56.8650 -56.0118 -56.0026 -55.9768 -55.9701 -55.8623 -55.8265
   -55.6448 -55.6096 -55.5608 -55.5389 -55.5269 -55.4414 -54.9961 -54.9430
   -33.3260 -33.1727 -33.1445 -33.0749 -32.9838 -32.9521 -32.4852 -32.4759
   -32.4050 -32.2977 -32.2521 -32.2253 -32.2102 -32.1862 -32.1534 -32.1503
   -32.1429 -32.1406 -32.1165 -32.1089 -32.1021 -32.0705 -32.0444 -32.0293
   -32.0156 -31.9984 -31.9898 -31.9663 -31.9527 -31.8993 -31.8763 -31.8751
   -31.7836 -31.7826 -31.7714 -31.7143 -31.7110 -31.6880 -31.6691 -31.6475
   -31.6232 -31.5771 -31.5184 -31.2392 -31.2205 -31.1927 -31.1642 -31.0459
   -17.0605 -16.6211 -16.3902 -16.2597 -16.1885 -16.1378 -16.0902 -15.9638
   -15.8924 -15.8890 -15.8517 -15.8127 -15.7446 -15.6050 -15.5077 -15.4482
   -15.4051 -15.2854 -15.2280 -15.1916 -15.1838 -15.1533 -15.1330 -14.9351
   -14.9128 -14.8167 -14.8000 -14.6761 -14.4494 -14.0591 -13.9490 -13.0878
    -7.7895  -4.6268  -4.1173  -3.8746  -3.7920  -3.6817  -3.6742  -3.5927
    -3.4780  -3.4272  -3.3816  -3.2659  -3.2619  -3.1164  -3.0964  -3.0732
    -3.0668  -3.0278  -2.9953  -2.9510  -2.8972  -2.8904  -2.8827  -2.7368
    -2.6378  -2.5679  -2.5454  -2.5284  -2.5004  -2.4076  -2.4033  -2.3883
    -2.3847  -2.2898  -2.1397  -2.1302  -2.0960  -2.0595  -2.0560  -2.0115
    -2.0024  -1.8459  -1.8019  -1.6857  -1.6734  -1.6384  -1.5724  -1.5686
    -1.4529  -1.3974  -1.3516  -1.3061  -1.1991  -1.1544  -1.1255  -1.0369
    -0.9760  -0.9391  -0.9203  -0.9010  -0.7934  -0.7859  -0.7703  -0.6790
    -0.6732  -0.6227  -0.5331  -0.5106  -0.5084  -0.4179  -0.4099  -0.3110
    -0.2772  -0.2246  -0.1945  -0.1148  -0.0840   0.0204   0.0590   0.0746
     0.2044   0.2195   0.2780   0.3445   0.4013   0.4447   0.4610   0.4953
     0.5046   0.5973   0.7054   0.7075   0.8188   0.8562   1.0139   1.0528
     1.3502   1.3598   2.0214   2.3768   2.5375   2.8356   3.0303   3.1428
     3.3533   3.3673   3.3730   3.5539   3.6009

[...]

          k =-0.0760-0.0000 0.0000 ( 17886 PWs)   bands (ev):

[...]

 ------ SPIN DOWN ----------

[...]

          k = 0.0380-0.0419 0.0000 ( 17876 PWs)   bands (ev):

[...]

          k =-0.0760-0.0839 0.0000 ( 17948 PWs)   bands (ev):

   -56.8821 -56.8818 -55.9957 -55.9914 -55.9872 -55.9868 -55.8473 -55.8414
   -55.6299 -55.6247 -55.5439 -55.5438 -55.5358 -55.4446 -54.9900 -54.9507
   -33.1587 -33.1584 -33.1431 -33.1429 -33.0282 -33.0279 -32.3150 -32.3125
   -32.2999 -32.2946 -32.2421 -32.2407 -32.1980 -32.1975 -32.1970 -32.1933
   -32.1854 -32.1829 -32.1819 -32.1799 -32.0991 -32.0940 -32.0478 -32.0440
   -31.9815 -31.9737 -31.9121 -31.9064 -31.8882 -31.8881 -31.8667 -31.8286
   -31.8273 -31.7933 -31.7691 -31.7690 -31.7605 -31.7299 -31.7299 -31.7092
   -31.6863 -31.6497 -31.3843 -31.3037 -31.2180 -31.1865 -31.1718 -31.1311
   -16.4085 -16.4065 -16.3748 -16.3745 -16.1036 -16.1000 -16.0510 -16.0488
   -15.8771 -15.8692 -15.6647 -15.6555 -15.6492 -15.6455 -15.5178 -15.5108
   -15.4471 -15.4343 -15.3458 -15.3391 -15.2780 -15.2717 -15.2353 -15.2139
   -14.8967 -14.8908 -14.7682 -14.7553 -14.6047 -14.0525 -14.0525 -13.1016
    -7.7782  -3.5076  -3.5068  -3.4405  -3.4396  -3.3149  -3.3082  -3.2391
    -3.2385  -3.1324  -3.1287  -3.0672  -3.0010  -2.9911  -2.9878  -2.9755
    -2.9624  -2.8342  -2.8323  -2.8200  -2.8052  -2.7535  -2.7511  -2.7331
    -2.6563  -2.6409  -2.6097  -2.5656  -2.4653  -2.4489  -2.4328  -2.4056
    -2.3477  -2.3363  -2.3222  -2.2767  -2.2562  -2.1527  -2.1066  -2.0635
    -1.9435  -1.9409  -1.9312  -1.9142  -1.7662  -1.7293  -1.6983  -1.6914
    -1.6828  -1.6333  -1.5414  -1.5332  -1.3987  -1.3940  -1.3224  -1.2391
    -1.2204  -1.1914  -1.0595  -1.0118  -0.9796  -0.9732  -0.9536  -0.9244
    -0.8962  -0.8690  -0.7242  -0.7052  -0.6808  -0.6432  -0.6306  -0.5763
    -0.5277  -0.4475  -0.3679  -0.3669  -0.2861  -0.2420  -0.1785  -0.0954
    -0.0839  -0.0775   0.2024   0.2801   0.3725   0.4570   0.5198   0.5835
     0.6071   0.6723   0.7045   0.8421   0.8453   0.8618   0.8620   0.9290
     0.9338   1.3320   1.9210   2.9504   2.9508   3.0182   3.0186   3.3422
     3.3477   3.4573   3.4667   3.5826   3.5845

     the Fermi energy is     2.2115 ev

!    total energy              =   -2919.13333227 Ry
     estimated scf accuracy    <       0.00000004 Ry
     smearing contrib. (-TS)   =      -0.00465557 Ry
     internal energy E=F+TS    =   -2919.12867670 Ry

     The total energy is F=E-TS. E is the sum of the following terms:
     one-electron contribution =  -24579.05351008 Ry
     hartree contribution      =   12373.71425776 Ry
     xc contribution           =    -479.89536239 Ry
     ewald contribution        =    9766.10582042 Ry
     electric field correction =       0.00011759 Ry

     total magnetization       =     0.00 Bohr mag/cell
     absolute magnetization    =     0.01 Bohr mag/cell

     convergence has been achieved in  68 iterations

     Forces acting on atoms (cartesian axes, Ry/au):

     atom    1 type  1   force =    -0.00003250   -0.00046272    0.12459424
     atom    2 type  1   force =    -0.00012297   -0.00053730   -0.16056140
     atom    3 type  2   force =     0.00016223   -0.00014341   -0.06866706
     atom    4 type  2   force =    -0.00004298   -0.00017658    0.02745282
     atom    5 type  2   force =    -0.01663603    0.00229484   -0.00876436
     atom    6 type  2   force =     0.01809669    0.00296271   -0.00971253
     atom    7 type  1   force =     0.00056893   -0.00364915    0.02217649
     atom    8 type  1   force =    -0.00015654   -0.00290617    0.11210037
     atom    9 type  2   force =     0.00047918   -0.00002748   -0.00025237
     atom   10 type  2   force =    -0.00266131    0.00368947   -0.07361749
     atom   11 type  2   force =     0.00131410   -0.00058124   -0.00042475
     atom   12 type  2   force =    -0.00057101   -0.00105146   -0.00077643
     atom   13 type  1   force =     0.00030837   -0.00065849    0.00064687
     atom   14 type  1   force =    -0.00082588   -0.00054615    0.00004871
     atom   15 type  2   force =    -0.00028749   -0.00010289    0.00005249
     atom   16 type  2   force =     0.00028732    0.00012110   -0.00052955
     atom   17 type  2   force =     0.00022389   -0.00019075   -0.00015669
     atom   18 type  2   force =    -0.00041762   -0.00035654   -0.00048069
     atom   19 type  1   force =     0.00062543   -0.00036307   -0.00010384
     atom   20 type  1   force =    -0.00009150   -0.00024366   -0.00024775
     atom   21 type  2   force =     0.00005543   -0.00006221    0.09974296
     atom   22 type  2   force =     0.00006995   -0.00033882    0.00054103
     atom   23 type  2   force =    -0.07927362   -0.00009227   -0.03247552
     atom   24 type  2   force =     0.07914774    0.00035741   -0.03249909
     atom   25 type  1   force =     0.00000446   -0.00050347    0.12408181
     atom   26 type  1   force =    -0.00015615   -0.00044711   -0.16063950
     atom   27 type  2   force =     0.00029509   -0.00031720   -0.06768035
     atom   28 type  2   force =    -0.00002462   -0.00001584    0.02721875
     atom   29 type  2   force =    -0.01709924    0.00187259   -0.00887246
     atom   30 type  2   force =     0.01843740    0.00225947   -0.00976619
     atom   31 type  1   force =     0.00058578   -0.00094222    0.02170919
     atom   32 type  1   force =    -0.00011476    0.00053039    0.11255197
     atom   33 type  2   force =     0.00026226   -0.00064015   -0.00043890
     atom   34 type  2   force =    -0.00273244    0.00315667   -0.07278446
     atom   35 type  2   force =    -0.00109059    0.00023508    0.00017268
     atom   36 type  2   force =     0.00083654    0.00008325    0.00028720
     atom   37 type  1   force =    -0.00008928   -0.00003519   -0.00019981
     atom   38 type  1   force =     0.00088845   -0.00026976   -0.00014242
     atom   39 type  2   force =    -0.00009111   -0.00052173    0.00010072
     atom   40 type  2   force =     0.00007804   -0.00012299   -0.00011115
     atom   41 type  2   force =     0.00019196   -0.00045380   -0.00010587
     atom   42 type  2   force =    -0.00000165   -0.00012563   -0.00059174
     atom   43 type  1   force =     0.00015460    0.00069707    0.00068531
     atom   44 type  1   force =    -0.00060747   -0.00051544   -0.00034079
     atom   45 type  2   force =     0.00004461   -0.00006791    0.09976292
     atom   46 type  2   force =    -0.07927996   -0.00004438   -0.03246848
     atom   47 type  2   force =     0.07915735    0.00040005   -0.03248864
     atom   48 type  3   force =     0.00081396   -0.00037682    0.00115734
     atom   49 type  4   force =    -0.00286306   -0.00776745    0.00327792
     atom   50 type  5   force =    -0.00014630   -0.00081751    0.00032241
     atom   51 type  5   force =     0.00310660    0.00811471   -0.00308403
     atom   52 type  5   force =    -0.00078026   -0.00029990    0.00030009

     Total force =     0.425773     Total SCF correction =     0.000331
  @ DRIVER MODE: Message from server: STATUS
  @ DRIVER MODE: Message from server: GETFORCE
  @ DRIVER MODE: Returning v,forces,stress,ensemble

     Writing output data file ./calc.save/
  @ DRIVER MODE: Message from server: EXIT
  @ DRIVE MODE: Exiting

     General routines

     Parallel routines

   This run was terminated on:   1:12:51  16Jul2021

   JOB DONE.