     Program PWSCF v.6.8 starts on 30Aug2021 at 14:39:28

     R & G space division:  proc/nbgrp/npool/nimage =      24

     Reading input from /storage/home/hcoda1/3/ntian30/research/carbon/methanol/ads_slab/CH3OHN2_o/methanol.log/pw.inp
Warning: card &CELL ignored
Warning: card   CELL_DYNAMICS='IPI', ignored
Warning: card / ignored

     Current dimensions of program PWSCF are:
     Max number of different atomic species (ntypx) = 10
     Max number of k-points (npk) =  40000
     Max angular momentum in pseudopotentials (lmaxx) =  4
     Presently no symmetry can be used with electric field

     Message from routine cell_base_init:
     DEPRECATED: use true lattice parameter, not A to a.u. conversion factor

     IMPORTANT: XC functional enforced from input :
     Exchange-correlation= BEEF-VDW
                           (   1   4  43  14   2   0   0)
     Any further DFT definition will be discarded
     Please, verify this is what you really want

  @ DRIVER MODE: Connecting to
 qe_1139763_2685219.sched-torque.pace.gatech.edut35ym465_scratch
  using UNIX socket
  @ DRIVER MODE: Message from server: STATUS
  @ DRIVER MODE: Message from server: INIT
  @ DRIVER MODE: Receiving replica           0          -1
  @ DRIVER MODE: Receiving encoded integer          25
  @ DRIVER MODE:  SCF:  T  FORCE:  T  STRESS:  F  VC:  F  ENSEMBLE:  F
  @ DRIVER MODE:  SCF:  T  FORCE:  T  STRESS:  F  VC:  F  ENSEMBLE:  F

     Using Slab Decomposition

     bravais-lattice index     =            0
     lattice parameter (alat)  =       1.8897  a.u.
     unit-cell volume          =    6658.9804 (a.u.)^3
     number of atoms/cell      =           55
     number of atomic types    =            5
     number of electrons       =       402.00
     number of Kohn-Sham states=          211
     kinetic-energy cutoff     =      29.3995  Ry
     charge density cutoff     =     293.9946  Ry
     scf convergence threshold =      7.3E-08
     mixing beta               =       0.0500
     number of iterations used =            8  plain     mixing
     Exchange-correlation= BEEF-VDW
                           (   1   4  43  14   2   0   0)

     celldm(1)=   1.889726  celldm(2)=   0.000000  celldm(3)=   0.000000
     celldm(4)=   0.000000  celldm(5)=   0.000000  celldm(6)=   0.000000

     crystal axes: (cart. coord. in units of alat)
               a(1) = (   6.579727   0.000000   0.000000 )
               a(2) = (  -0.000775   5.961596   0.000000 )
               a(3) = (   0.000000   0.000000  25.155947 )

     reciprocal axes: (cart. coord. in units 2 pi/alat)
               b(1) = (  0.151982  0.000020  0.000000 )
               b(2) = (  0.000000  0.167740  0.000000 )
               b(3) = (  0.000000  0.000000  0.039752 )

     PseudoPot. # 1 for Ti read from file:
     /storage/coda1/p-amedford6/0/shared/rich_project_chbe-medford/medford-share/data/pseudos_module/espresso/nninc/pbe/van/Ti.UPF
     MD5 check sum: 8e4df49b7f0d34bbd5052bf3f5ea0213
     Pseudo is Ultrasoft, Zval = 12.0
     Generated by new atomic code, or converted to UPF format
     Using radial grid of  851 points,  6 beta functions with:
                l(1) =   0
                l(2) =   0
                l(3) =   1
                l(4) =   1
                l(5) =   2
                l(6) =   2
     Q(r) pseudized with  8 coefficients,  rinner =    1.000   1.000   1.000
                                                       1.000   1.000

     PseudoPot. # 2 for O  read from file:
     /storage/coda1/p-amedford6/0/shared/rich_project_chbe-medford/medford-share/data/pseudos_module/espresso/nninc/pbe/van/O.UPF
     MD5 check sum: 78c19812648e8988a0fe644b0f25305e
     Pseudo is Ultrasoft, Zval =  6.0
     Generated by new atomic code, or converted to UPF format
     Using radial grid of  737 points,  4 beta functions with:
                l(1) =   0
                l(2) =   0
                l(3) =   1
                l(4) =   1
     Q(r) pseudized with  8 coefficients,  rinner =    0.800   0.800   0.800

     PseudoPot. # 3 for C  read from file:
     /storage/coda1/p-amedford6/0/shared/rich_project_chbe-medford/medford-share/data/pseudos_module/espresso/nninc/pbe/van/C.UPF
     MD5 check sum: 1a69bf6b8db32088f5b2163dbdb77a27
     Pseudo is Ultrasoft, Zval =  4.0
     Generated by new atomic code, or converted to UPF format
     Using radial grid of  721 points,  4 beta functions with:
                l(1) =   0
                l(2) =   0
                l(3) =   1
                l(4) =   1
     Q(r) pseudized with  8 coefficients,  rinner =    0.800   0.800   0.800

     PseudoPot. # 4 for H  read from file:
     /storage/coda1/p-amedford6/0/shared/rich_project_chbe-medford/medford-share/data/pseudos_module/espresso/nninc/pbe/van/H.UPF
     MD5 check sum: b5ee9d7bfd3a09ee7748110bda690ff7
     Pseudo is Ultrasoft, Zval =  1.0
     Generated by new atomic code, or converted to UPF format
     Using radial grid of  615 points,  1 beta functions with:
                l(1) =   0
     Q(r) pseudized with  8 coefficients,  rinner =    0.800

     PseudoPot. # 5 for N  read from file:
     /storage/coda1/p-amedford6/0/shared/rich_project_chbe-medford/medford-share/data/pseudos_module/espresso/nninc/pbe/van/N.UPF
     MD5 check sum: 90d10febe142ad51ac9d5be1deb811c4
     Pseudo is Ultrasoft, Zval =  5.0
     Generated by new atomic code, or converted to UPF format
     Using radial grid of  729 points,  4 beta functions with:
                l(1) =   0
                l(2) =   0
                l(3) =   1
                l(4) =   1
     Q(r) pseudized with  8 coefficients,  rinner =    0.800   0.800   0.800

     atomic species   valence    mass     pseudopotential
        Ti1           12.00    47.86700     Ti( 1.00)
        O1             6.00    15.99900     O ( 1.00)
        C1             4.00    12.01100     C ( 1.00)
        H1             1.00     1.00800     H ( 1.00)
        N1             5.00    14.00700     N ( 1.00)

     No symmetry found

   Cartesian axes

     site n.     atom                  positions (alat units)
         1           Ti1 tau(   1) = (   0.0004258   2.9801865   6.0000000  )
         2           Ti1 tau(   2) = (   3.2906075   1.4906267   6.0002472  )
         3           O1  tau(   3) = (   0.0006271   0.0005054   7.9858123  )
         4           O1  tau(   4) = (   3.2906025   0.0005020   7.3038282  )
         5           O1  tau(   5) = (   4.5942328   1.4918067   9.2879030  )
         6           O1  tau(   6) = (   1.9868534   1.4903216   9.2879459  )
         7           Ti1 tau(   7) = (   3.3021192   3.0013726   9.1559606  )
         8           Ti1 tau(   8) = (   0.0193113   1.4897290   9.2589557  )
         9           O1  tau(   9) = (   3.2722964   0.0091792  11.3883460  )
        10           O1  tau(  10) = (   6.5758979   0.0018863  10.6213819  )
        11           O1  tau(  11) = (   1.2686513   1.5214143  12.6543571  )
        12           O1  tau(  12) = (   5.2747919   1.5203212  12.6462517  )
        13           Ti1 tau(  13) = (   6.5523151   2.9997954  12.4875151  )
        14           Ti1 tau(  14) = (   3.2568535   1.5191218  12.5298849  )
        15           O1  tau(  15) = (   6.5502494   0.1428195  14.7146693  )
        16           O1  tau(  16) = (   3.2696560   0.0432880  14.0033951  )
        17           O1  tau(  17) = (   4.5205468   1.5018975  16.2537626  )
        18           O1  tau(  18) = (   2.0094599   1.5006194  16.2381262  )
        19           Ti1 tau(  19) = (   3.2645096   2.9931572  15.7781393  )
        20           Ti1 tau(  20) = (   6.5536469   1.4235375  16.1373887  )
        21           O1  tau(  21) = (   3.2904802   0.0005063   4.7018136  )
        22           O1  tau(  22) = (   6.5593633   5.7877869  17.2527805  )
        23           O1  tau(  23) = (   1.3043587   1.4918075   6.0039043  )
        24           O1  tau(  24) = (   5.2767064   1.4903225   6.0039473  )
        25           Ti1 tau(  25) = (   0.0000382   5.9609847   6.0000000  )
        26           Ti1 tau(  26) = (   3.2902200   4.4714249   6.0002472  )
        27           O1  tau(  27) = (   0.0002396   2.9813036   7.9858123  )
        28           O1  tau(  28) = (   3.2902150   2.9813002   7.3038282  )
        29           O1  tau(  29) = (   4.5938453   4.4726049   9.2879030  )
        30           O1  tau(  30) = (   1.9864658   4.4711199   9.2879459  )
        31           Ti1 tau(  31) = (   3.3070864   0.0186050   9.1555137  )
        32           Ti1 tau(  32) = (   0.0189529   4.4785929   9.2579079  )
        33           O1  tau(  33) = (   3.2721460   3.0134182  11.3841444  )
        34           O1  tau(  34) = (   6.5743747   2.9972075  10.6293231  )
        35           O1  tau(  35) = (   1.2644736   4.4871391  12.7149656  )
        36           O1  tau(  36) = (   5.2793800   4.4878911  12.7080014  )
        37           Ti1 tau(  37) = (   6.5510435   0.0349511  12.4990712  )
        38           Ti1 tau(  38) = (   3.2571354   4.4984972  12.5427853  )
        39           O1  tau(  39) = (   6.5520331   2.9333915  15.0371926  )
        40           O1  tau(  40) = (   3.2721801   2.9735564  13.9862719  )
        41           O1  tau(  41) = (   4.5203875   4.4744495  16.1258944  )
        42           O1  tau(  42) = (   2.0073924   4.4721670  16.1212407  )
        43           Ti1 tau(  43) = (   3.2631111   0.0168914  15.8037529  )
        44           Ti1 tau(  44) = (   6.5463548   4.6605216  15.8078345  )
        45           O1  tau(  45) = (   3.2900926   2.9813045   4.7018136  )
        46           O1  tau(  46) = (   1.3039711   4.4726057   6.0039043  )
        47           O1  tau(  47) = (   5.2763189   4.4711207   6.0039473  )
        48           C1  tau(  48) = (   6.5242992   2.1809267  19.4465401  )
        49           O1  tau(  49) = (   0.0148260   2.7438948  18.1184794  )
        50           H1  tau(  50) = (   6.5092154   1.1023238  19.3286493  )
        51           H1  tau(  51) = (   0.0606026   3.7146365  18.1979091  )
        52           H1  tau(  52) = (   0.8216107   2.4782675  20.0256770  )
        53           H1  tau(  53) = (   5.6140840   2.5129912  19.9496412  )
        54           N1  tau(  54) = (   6.5463548   4.9605216  19.1078345  )
        55           N1  tau(  55) = (   6.5463548   4.9605216  17.9778545  )

     number of k points=    10  Fermi-Dirac smearing, width (Ry)=  0.0073
                       cart. coord. in units 2pi/alat
        k(    1) = (   0.0000000   0.0000000   0.0000000), wk =   0.1250000
        k(    2) = (   0.0000000   0.0419351   0.0000000), wk =   0.2500000
        k(    3) = (   0.0000000  -0.0838702   0.0000000), wk =   0.1250000
        k(    4) = (   0.0379955   0.0000049   0.0000000), wk =   0.2500000
        k(    5) = (   0.0379955   0.0419400   0.0000000), wk =   0.2500000
        k(    6) = (   0.0379955  -0.0838652   0.0000000), wk =   0.2500000
        k(    7) = (   0.0379955  -0.0419301   0.0000000), wk =   0.2500000
        k(    8) = (  -0.0759910  -0.0000099   0.0000000), wk =   0.1250000
        k(    9) = (  -0.0759910   0.0419252   0.0000000), wk =   0.2500000
[...]
        46           O1  tau(  46) = (   1.3039711   4.4726057   6.0039043  )
        47           O1  tau(  47) = (   5.2763189   4.4711207   6.0039473  )
        48           C1  tau(  48) = (   6.5248612   2.0061472  19.2523758  )
        49           O1  tau(  49) = (   0.1952136   2.6642493  17.9857121  )
        50           H1  tau(  50) = (   6.5672482   0.9519824  19.0436051  )
        51           H1  tau(  51) = (   0.3824671   3.5979090  18.1547167  )
        52           H1  tau(  52) = (   0.7235856   2.2973756  19.9586980  )
        53           H1  tau(  53) = (   5.5392354   2.2816287  19.6258269  )
        54           N1  tau(  54) = (   6.2808364   5.2191410  21.7287100  )
        55           N1  tau(  55) = (   5.9914539   4.9216045  20.7075646  )

     number of k points=    10  Fermi-Dirac smearing, width (Ry)=  0.0073
                       cart. coord. in units 2pi/alat
        k(    1) = (   0.0000000   0.0000000   0.0000000), wk =   0.1250000
        k(    2) = (   0.0000000   0.0419351   0.0000000), wk =   0.2500000
        k(    3) = (   0.0000000  -0.0838702   0.0000000), wk =   0.1250000
        k(    4) = (   0.0379955   0.0000049   0.0000000), wk =   0.2500000
        k(    5) = (   0.0379955   0.0419400   0.0000000), wk =   0.2500000
        k(    6) = (   0.0379955  -0.0838652   0.0000000), wk =   0.2500000
        k(    7) = (   0.0379955  -0.0419301   0.0000000), wk =   0.2500000
        k(    8) = (  -0.0759910  -0.0000099   0.0000000), wk =   0.1250000
        k(    9) = (  -0.0759910   0.0419252   0.0000000), wk =   0.2500000
        k(   10) = (  -0.0759910  -0.0838800   0.0000000), wk =   0.1250000

     Initial potential from superposition of free atoms

     starting charge  385.99915, renormalised to  402.00000

[...]

     %%%%%%%%%%%%%%%%%%%%%%%%%%%%%%%%%%%%%%%%%%%%%%%%%%%%%%%%%%%%%%%%%%%%%%%%
     %                                                                      %
     % You are using vdW-DF, which was implemented by the Thonhauser group. %
     % Please cite the following two papers that made this development      %
     % possible and the two reviews that describe the various versions:     %
     %                                                                      %
     %   T. Thonhauser et al., PRL 115, 136402 (2015).                      %
     %   T. Thonhauser et al., PRB 76, 125112 (2007).                       %
     %   K. Berland et al., Rep. Prog. Phys. 78, 066501 (2015).             %
     %   D.C. Langreth et al., J. Phys.: Condens. Matter 21, 084203 (2009). %
     %                                                                      %
     %                                                                      %
     % If you are calculating the stress with vdW-DF, please also cite:     %
     %                                                                      %
     %   R. Sabatini et al., J. Phys.: Condens. Matter 24, 424209 (2012).   %
     %                                                                      %
     %%%%%%%%%%%%%%%%%%%%%%%%%%%%%%%%%%%%%%%%%%%%%%%%%%%%%%%%%%%%%%%%%%%%%%%%

[...]

     Starting wfcs are  304 atomic wfcs
  @ DRIVER MODE: Message from server: STATUS
  @ DRIVER MODE: Message from server: POSDATA
  @ DRIVER MODE: Reading and sharing cell
  @ DRIVER MODE: Reading and sharing positions
  @ DRIVER MODE: Received positions

[...]

     Self-consistent Calculation

[...]

     iteration # 30     ecut=    29.40 Ry     beta= 0.05
     Davidson diagonalization with overlap
     ethr =  1.16E-10,  avg # of iterations =  2.4

[...]

     total energy              =   -2972.80718588 Ry
     estimated scf accuracy    <       0.00000012 Ry

     iteration # 35     ecut=    29.40 Ry     beta= 0.05
     Davidson diagonalization with overlap
     c_bands:  2 eigenvalues not converged
     c_bands:  2 eigenvalues not converged
     c_bands:  1 eigenvalues not converged
     c_bands:  1 eigenvalues not converged
     c_bands:  1 eigenvalues not converged
     c_bands:  1 eigenvalues not converged
     ethr =  2.98E-11,  avg # of iterations = 18.9

[...]

     End of self-consistent calculation

[...]

          k = 0.0380-0.0419 0.0000 ( 17876 PWs)   bands (ev):

[...]

          k =-0.0760-0.0839 0.0000 ( 17948 PWs)   bands (ev):

   -55.1708 -55.1700 -55.1649 -55.1209 -55.1197 -55.0529 -55.0493 -55.0343
   -55.0105 -55.0084 -55.0055 -54.9502 -54.9426 -54.8453 -54.2262 -54.2260
   -31.6239 -31.5569 -31.5517 -31.4536 -31.4524 -31.4485 -31.4447 -31.4137
   -31.4107 -31.3967 -31.3945 -31.3845 -31.3806 -31.3789 -31.3617 -31.3327
   -31.3272 -31.3256 -31.3231 -31.3178 -31.3121 -31.3007 -31.2798 -31.2698
   -31.2678 -31.2637 -31.2580 -31.2571 -31.2538 -31.2469 -31.2390 -31.2383
   -31.2251 -31.2067 -31.2037 -31.1956 -31.1828 -31.1749 -31.1329 -31.1271
   -31.1175 -31.0588 -30.5433 -30.5431 -30.4685 -30.4684 -30.4288 -30.4287
   -21.8734 -19.2716 -15.5327 -15.3858 -15.3612 -15.2438 -15.2145 -15.1477
   -15.1382 -15.0248 -14.9808 -14.9688 -14.9616 -14.9248 -14.9043 -14.8838
   -14.8444 -14.8113 -14.7921 -14.7829 -14.7530 -14.7067 -14.7022 -14.6997
   -14.6936 -14.6609 -14.6531 -14.6180 -14.6154 -14.5157 -14.3903 -12.7256
   -12.7251 -10.4472  -7.0748  -6.2245  -5.0235  -5.0095  -4.2963  -4.1906
    -3.7375  -2.6640  -2.6550  -2.6226  -2.4616  -2.3809  -2.3624  -2.3322
    -2.2721  -2.2392  -2.2043  -2.1777  -2.1614  -2.0980  -2.0956  -2.0873
    -2.0757  -2.0554  -1.9964  -1.9898  -1.9422  -1.9186  -1.8979  -1.8900
    -1.8808  -1.8566  -1.8488  -1.8452  -1.8024  -1.7924  -1.7799  -1.7631
    -1.6533  -1.5638  -1.5394  -1.4567  -1.4210  -1.4181  -1.3496  -1.3051
    -1.2597  -1.2473  -1.1948  -1.0916  -0.9874  -0.9821  -0.9691  -0.9341
    -0.8357  -0.8287  -0.7414  -0.7376  -0.6886  -0.6585  -0.5861  -0.4847
    -0.4744  -0.4083  -0.3850  -0.3646  -0.2950  -0.2284  -0.1947  -0.1727
    -0.1716  -0.1302  -0.1287  -0.0139   0.0165   0.0657   0.0703   0.0772
     0.1354   0.3143   0.3360   0.3543   0.4900   0.4971   0.6521   0.7106
     0.7533   0.8537   0.8820   0.8990   0.9300   1.0623   1.0842   1.1109
     1.1721   1.1908   1.2306   1.2360   2.1325   2.1334   2.2389   2.2406
     4.0825   4.1684   4.1900   4.2048   4.3173   4.3570   4.4207   4.4527
     4.4689   4.4717   4.5005

     the Fermi energy is     3.9761 ev

!    total energy              =   -2972.80718335 Ry
     estimated scf accuracy    <          5.8E-09 Ry
     smearing contrib. (-TS)   =      -0.03702743 Ry
     internal energy E=F+TS    =   -2972.77015591 Ry

     The total energy is F=E-TS. E is the sum of the following terms:
     one-electron contribution =  -22220.91724483 Ry
     hartree contribution      =   11206.07883970 Ry
     xc contribution           =    -493.16442740 Ry
     ewald contribution        =    8535.22984361 Ry
     electric field correction =       0.00283301 Ry

     convergence has been achieved in  35 iterations

     Forces acting on atoms (cartesian axes, Ry/au):

     atom    1 type  1   force =    -0.00028906   -0.00006469    0.09181135
     atom    2 type  1   force =    -0.00032399    0.00023082   -0.18394079
     atom    3 type  2   force =     0.00027490    0.00056274   -0.02226354
     atom    4 type  2   force =     0.00038320   -0.00061486    0.05231258
     atom    5 type  2   force =    -0.01200713   -0.00123968    0.00632543
     atom    6 type  2   force =     0.01352327   -0.00028955    0.00702793
     atom    7 type  1   force =     0.00002377    0.00028345   -0.00027562
     atom    8 type  1   force =     0.00004211   -0.00036514   -0.00135990
     atom    9 type  2   force =     0.00019711   -0.00001849   -0.00023080
     atom   10 type  2   force =    -0.00003259    0.00008335    0.00057344
     atom   11 type  2   force =    -0.00063793   -0.00034664   -0.00009932
     atom   12 type  2   force =     0.00016377   -0.00024242   -0.00012482
     atom   13 type  1   force =     0.00103072   -0.00022166    0.00138090
     atom   14 type  1   force =    -0.00045889    0.00082042    0.00075864
     atom   15 type  2   force =    -0.00028934    0.00063039   -0.00094472
     atom   16 type  2   force =     0.00020721    0.00003447    0.00075749
     atom   17 type  2   force =    -0.00037075    0.00031688    0.00023702
     atom   18 type  2   force =     0.00032114    0.00030470   -0.00015114
     atom   19 type  1   force =    -0.00058508    0.00031264    0.00033273
     atom   20 type  1   force =    -0.00012088    0.00047314   -0.00061859
     atom   21 type  2   force =    -0.00008222    0.00011524    0.10517310
     atom   22 type  2   force =    -0.00014027   -0.00044655    0.00077968
     atom   23 type  2   force =    -0.06782692   -0.00029275   -0.02619705
     atom   24 type  2   force =     0.06755975    0.00011422   -0.02627552
     atom   25 type  1   force =    -0.00016354    0.00008673    0.08938256
     atom   26 type  1   force =    -0.00023931   -0.00028455   -0.18401582
     atom   27 type  2   force =     0.00026190   -0.00109842   -0.02144161
     atom   28 type  2   force =     0.00046615   -0.00050510    0.05203073
     atom   29 type  2   force =    -0.01267982   -0.00120099    0.00490702
     atom   30 type  2   force =     0.01421227   -0.00012698    0.00568476
     atom   31 type  1   force =     0.00009438    0.00020067   -0.00049633
     atom   32 type  1   force =    -0.00001480    0.00028443   -0.00129843
     atom   33 type  2   force =     0.00009677    0.00001306    0.00031686
     atom   34 type  2   force =    -0.00008539    0.00004710    0.00013528
     atom   35 type  2   force =    -0.00039083    0.00002502   -0.00012267
     atom   36 type  2   force =     0.00022047    0.00007929   -0.00009461
     atom   37 type  1   force =     0.00104051    0.00011029    0.00070659
     atom   38 type  1   force =    -0.00049250   -0.00041968    0.00066363
     atom   39 type  2   force =    -0.00026133   -0.00030131   -0.00136603
     atom   40 type  2   force =     0.00018118   -0.00014813   -0.00044181
     atom   41 type  2   force =    -0.00006896    0.00053512   -0.00024552
     atom   42 type  2   force =    -0.00005211    0.00052274   -0.00029664
     atom   43 type  1   force =    -0.00030533   -0.00035027   -0.00022834
     atom   44 type  1   force =     0.00012819    0.00043279    0.00030136
     atom   45 type  2   force =    -0.00008591    0.00008872    0.10510133
     atom   46 type  2   force =    -0.06784199    0.00000548   -0.02614409
     atom   47 type  2   force =     0.06756393    0.00045422   -0.02622723
     atom   48 type  3   force =    -0.00010272   -0.00008561   -0.00027036
     atom   49 type  2   force =     0.00006019   -0.00076255    0.00047096
     atom   50 type  4   force =    -0.00068023    0.00003967   -0.00018214
     atom   51 type  4   force =     0.00016217    0.00082791   -0.00002606
     atom   52 type  4   force =    -0.00120041   -0.00023816   -0.00016238
     atom   53 type  4   force =    -0.00062969    0.00030279   -0.00043613
     atom   54 type  5   force =    -0.00006296    0.00047480   -0.00096392
     atom   55 type  5   force =     0.00030786    0.00085091   -0.00022942

     Total force =     0.366839     Total SCF correction =     0.000286
  @ DRIVER MODE: Message from server: STATUS
  @ DRIVER MODE: Message from server: GETFORCE
  @ DRIVER MODE: Returning v,forces,stress,ensemble

     Writing config to output data dir ./calc.save/
  @ DRIVER MODE: Message from server: STATUS
  @ DRIVER MODE: Message from server: INIT
  @ DRIVER MODE: Receiving replica           0           0
  @ DRIVER MODE: Receiving encoded integer           2
  @ DRIVER MODE:  SCF:  T  FORCE:  T  STRESS:  F  VC:  F  ENSEMBLE:  F
  @ DRIVER MODE:  SCF:  F  FORCE:  F  STRESS:  F  VC:  F  ENSEMBLE:  T
  @ DRIVER MODE: Message from server: STATUS
  @ DRIVER MODE: Message from server: POSDATA
  @ DRIVER MODE: Reading and sharing positions
  @ DRIVER MODE: Received positions
     NEW-OLD atomic charge density approx. for the potential

[...]

     Adding external electric field

     Computed dipole along edir(3) :
        Dipole                1.2252 Ry au,          3.1143 Debye
        Dipole field          0.0023 Ry au,

        Potential amp.       -0.2143 Ry
        Total length         46.3494 bohr

  @ DRIVER MODE: BEEF-vdw

[...]

     negative rho (up, down):  1.163E-02 0.000E+00

     negative rho (up, down):  1.163E-02 0.000E+00
 BEEFens 2000 ensemble energies
             -0.354109590079823E+02
             -0.203673153604062E+01
             -0.730522654849430E+01
              0.245592218717834E+02
             -0.121748395781214E+02
             -0.940545226478639E+01
             -0.245981297067100E+02
             -0.514175525661316E+02
             -0.219417250582361E+02
             -0.230826753817660E+02
             -0.213755892901994E+02
              0.430762969574008E+01
              0.202534621767295E+01
             -0.108258341373069E+01
              0.177507466816292E+01
              0.270561967766907E+02
             -0.104625490270853E+02
             -0.736866744081992E+01
              0.119710930179644E+02
             -0.632345040249321E+02
              0.316666841621219E+02
             -0.135609767199167E+02
             -0.247666692239617E+01
             -0.572547537860342E+01
             -0.956957297265603E+00
             -0.222396445600786E+01
              0.490753137391914E+02
             -0.152660386734098E+02
             -0.413261245875384E+01
             -0.309953662916246E+02
              0.400985493973484E+02
             -0.444465155664354E+01
             -0.218275831350755E+02
              0.114612139929027E+02
             -0.209166123702778E+01
              0.132826320999200E+02
             -0.557937797884108E+00
              0.277425865322394E+01
              0.193027130455394E+02
             -0.558471238006162E+02
              0.311150920858859E+02
              0.827512824180030E+01
             -0.638523026524388E+01
             -0.178484058149614E+02
              0.704619483980679E+01
             -0.111438384654853E+02
              0.254433591547379E+02
              0.203121091891235E+02
             -0.130915635803691E+02
             -0.167223538531775E+02
             -0.176237154909515E+02
             -0.212425520024993E+02
              0.107849218710757E+02
             -0.276884716924058E+02
              0.847904915459554E+01
              0.353300133556481E+02
              0.407183283703939E+02
              0.189795190547049E+02
              0.853077473354529E+01
              0.177116673016893E+02
[...]
             -0.416583976851168E+02
              0.283233586325565E+01
             -0.142894322844150E+01
             -0.579981522419962E+01
              0.623422947334689E-01
             -0.370992756436645E+02
             -0.717492828578705E+01
              0.506333702873770E+01
              0.755311150849374E+01
              0.277822083016762E+02
             -0.242625795699015E+02
              0.317412030761308E+02
             -0.227031731312467E+02
              0.145891848543596E+02
              0.229886341584664E+02

 BEEF-vdW xc energy contributions
           1 :   -417.714809963633
           2 :    363.574754553612
           3 :   -276.581949927273
           4 :    186.165515224953
           5 :   -115.331523506861
           6 :    72.9482530223432
           7 :   -55.0745308973683
           8 :    51.5756543648711
           9 :   -53.0152219401733
          10 :    54.1763904081822
          11 :   -53.8023255763976
          12 :    52.3577076227824
          13 :   -50.1742658395247
          14 :    46.9684280888530
          15 :   -42.4023800048801
          16 :    36.7168467328850
          17 :   -30.8638336492994
          18 :    26.0728332806966
          19 :   -23.2290540147863
          20 :    22.4789480170214
          21 :   -23.3026449422640
          22 :    24.9017492344833
          23 :   -26.5621237496659
          24 :    27.7539709001621
          25 :   -28.0937580995825
          26 :    27.3559396265528
          27 :   -25.5419862763126
          28 :    22.9113729616741
          29 :   -19.9499723898104
          30 :    17.2624105006641
          31 :   -49.1593663028955
          32 :   -33.3174174977659
  @ DRIVER MODE: Message from server: STATUS
  @ DRIVER MODE: Message from server: GETFORCE
  @ DRIVER MODE: Returning v,forces,stress,ensemble
  @ DRIVE MODE: Returning Ensemble Energies

     Writing config to output data dir ./calc.save/
  @ DRIVER MODE: Message from server: EXIT
  @ DRIVE MODE: Exiting

     General routines

     Parallel routines

   This run was terminated on:   0:47:52  31Aug2021

   JOB DONE.