     Program PWSCF v.6.7GPU starts on 27Sep2021 at 13:27:16

     R & G space division:  proc/nbgrp/npool/nimage =       8
     Reading input from /storage/home/hcoda1/3/ntian30/research/carbon/CxH_vib/H2O_calc/ads_slab/CH3OH2O_a/out_0045/pw.inp
Warning: card &CELL ignored
Warning: card   CELL_DYNAMICS='IPI', ignored
Warning: card / ignored

     Current dimensions of program PWSCF are:
     Max number of different atomic species (ntypx) = 10
     Max number of k-points (npk) =  40000
     Max angular momentum in pseudopotentials (lmaxx) =  3
     Presently no symmetry can be used with electric field

     Message from routine cell_base_init:
     DEPRECATED: use true lattice parameter, not A to a.u. conversion factor

     IMPORTANT: XC functional enforced from input :
     Exchange-correlation= BEEF-VDW
                           (   1   4  43  14   2   0   0)
     Any further DFT definition will be discarded
     Please, verify this is what you really want

  @ DRIVER MODE: Connecting to
 qe_1139763_2971673.sched-torque.pace.gatech.edu20j6s8k__scratch
  using UNIX socket
  @ DRIVER MODE: Message from server: STATUS
  @ DRIVER MODE: Message from server: INIT
  @ DRIVER MODE: Receiving replica           0          -1
  @ DRIVER MODE: Receiving encoded integer          25
  @ DRIVER MODE:  SCF:  T  FORCE:  T  STRESS:  F  VC:  F  ENSEMBLE:  F
  @ DRIVER MODE:  SCF:  T  FORCE:  T  STRESS:  F  VC:  F  ENSEMBLE:  F

     Using Slab Decomposition

     bravais-lattice index     =            0
     lattice parameter (alat)  =       1.8897  a.u.
     unit-cell volume          =    6658.9804 (a.u.)^3
     number of atoms/cell      =           55
     number of atomic types    =            4
     number of electrons       =       399.00
     number of Kohn-Sham states=          209
     kinetic-energy cutoff     =      29.3995  Ry
     charge density cutoff     =     293.9946  Ry
     scf convergence threshold =      7.3E-08
     mixing beta               =       0.0500
     number of iterations used =            8  plain     mixing
     Exchange-correlation= BEEF-VDW
                           (   1   4  43  14   2   0   0)

     celldm(1)=   1.889726  celldm(2)=   0.000000  celldm(3)=   0.000000
     celldm(4)=   0.000000  celldm(5)=   0.000000  celldm(6)=   0.000000

     crystal axes: (cart. coord. in units of alat)
               a(1) = (   6.579727   0.000000   0.000000 )
               a(2) = (  -0.000775   5.961596   0.000000 )
               a(3) = (   0.000000   0.000000  25.155947 )

     reciprocal axes: (cart. coord. in units 2 pi/alat)
               b(1) = (  0.151982  0.000020  0.000000 )
               b(2) = (  0.000000  0.167740  0.000000 )
               b(3) = (  0.000000  0.000000  0.039752 )

     PseudoPot. # 1 for Ti read from file:
     /storage/coda1/p-amedford6/0/shared/rich_project_chbe-medford/medford-share/data/pseudos_module/espresso/nninc/pbe/van/Ti.UPF
     MD5 check sum: 8e4df49b7f0d34bbd5052bf3f5ea0213
     Pseudo is Ultrasoft, Zval = 12.0
     Generated by new atomic code, or converted to UPF format
     Using radial grid of  851 points,  6 beta functions with:
                l(1) =   0
                l(2) =   0
                l(3) =   1
                l(4) =   1
                l(5) =   2
                l(6) =   2
     Q(r) pseudized with  8 coefficients,  rinner =    1.000   1.000   1.000
                                                       1.000   1.000

     PseudoPot. # 2 for O  read from file:
     /storage/coda1/p-amedford6/0/shared/rich_project_chbe-medford/medford-share/data/pseudos_module/espresso/nninc/pbe/van/O.UPF
     MD5 check sum: 78c19812648e8988a0fe644b0f25305e
     Pseudo is Ultrasoft, Zval =  6.0
     Generated by new atomic code, or converted to UPF format
     Using radial grid of  737 points,  4 beta functions with:
                l(1) =   0
                l(2) =   0
                l(3) =   1
                l(4) =   1
     Q(r) pseudized with  8 coefficients,  rinner =    0.800   0.800   0.800

     PseudoPot. # 3 for C  read from file:
     /storage/coda1/p-amedford6/0/shared/rich_project_chbe-medford/medford-share/data/pseudos_module/espresso/nninc/pbe/van/C.UPF
     MD5 check sum: 1a69bf6b8db32088f5b2163dbdb77a27
     Pseudo is Ultrasoft, Zval =  4.0
     Generated by new atomic code, or converted to UPF format
     Using radial grid of  721 points,  4 beta functions with:
                l(1) =   0
                l(2) =   0
                l(3) =   1
                l(4) =   1
     Q(r) pseudized with  8 coefficients,  rinner =    0.800   0.800   0.800

     PseudoPot. # 4 for H  read from file:
     /storage/coda1/p-amedford6/0/shared/rich_project_chbe-medford/medford-share/data/pseudos_module/espresso/nninc/pbe/van/H.UPF
     MD5 check sum: b5ee9d7bfd3a09ee7748110bda690ff7
     Pseudo is Ultrasoft, Zval =  1.0
     Generated by new atomic code, or converted to UPF format
     Using radial grid of  615 points,  1 beta functions with:
                l(1) =   0
     Q(r) pseudized with  8 coefficients,  rinner =    0.800

     atomic species   valence    mass     pseudopotential
        Ti1           12.00    47.86700     Ti( 1.00)
        O1             6.00    15.99900     O ( 1.00)
        C1             4.00    12.01100     C ( 1.00)
        H1             1.00     1.00800     H ( 1.00)

     No symmetry found

   Cartesian axes

     site n.     atom                  positions (alat units)
         1           Ti1 tau(   1) = (   0.0004258   2.9801865   6.0000000  )
         2           Ti1 tau(   2) = (   3.2906075   1.4906267   6.0002472  )
         3           O1  tau(   3) = (   0.0006271   0.0005054   7.9858123  )
         4           O1  tau(   4) = (   3.2906025   0.0005020   7.3038282  )
         5           O1  tau(   5) = (   4.5942328   1.4918067   9.2879030  )
         6           O1  tau(   6) = (   1.9868534   1.4903216   9.2879459  )
         7           Ti1 tau(   7) = (   3.2820359   3.0439161   9.1623595  )
         8           Ti1 tau(   8) = (   6.5599266   1.6132547   9.3553476  )
         9           O1  tau(   9) = (   3.2945286   0.0238644  11.3456088  )
        10           O1  tau(  10) = (   0.0063054   0.0138127  10.6020390  )
        11           O1  tau(  11) = (   1.2951583   1.5100513  12.6443238  )
        12           O1  tau(  12) = (   5.2990995   1.5148170  12.6233090  )
        13           Ti1 tau(  13) = (   0.0263474   3.0106421  12.7494805  )
        14           Ti1 tau(  14) = (   3.3336015   1.5167552  12.4948480  )
        15           O1  tau(  15) = (   6.5448532   0.0190031  14.6983011  )
        16           O1  tau(  16) = (   3.3224233   0.0259125  13.9568087  )
        17           O1  tau(  17) = (   4.5367000   1.5168325  16.1249780  )
        18           O1  tau(  18) = (   2.0218268   1.5507800  16.0022153  )
        19           Ti1 tau(  19) = (   3.2743302   2.9980917  15.6870858  )
        20           Ti1 tau(  20) = (   0.0201860   1.3869735  16.0719154  )
        21           O1  tau(  21) = (   3.2904802   0.0005063   4.7018136  )
        22           O1  tau(  22) = (   0.0925506   0.0150102  17.2361640  )
        23           O1  tau(  23) = (   1.3043587   1.4918075   6.0039043  )
        24           O1  tau(  24) = (   5.2767064   1.4903225   6.0039473  )
        25           Ti1 tau(  25) = (   0.0000382   5.9609847   6.0000000  )
        26           Ti1 tau(  26) = (   3.2902200   4.4714249   6.0002472  )
        27           O1  tau(  27) = (   0.0002396   2.9813036   7.9858123  )
        28           O1  tau(  28) = (   3.2902150   2.9813002   7.3038282  )
        29           O1  tau(  29) = (   4.5938453   4.4726049   9.2879030  )
        30           O1  tau(  30) = (   1.9864658   4.4711199   9.2879459  )
        31           Ti1 tau(  31) = (   3.2669230   0.0652730   9.1555536  )
        32           Ti1 tau(  32) = (   6.5613759   4.5453191   9.2698998  )
        33           O1  tau(  33) = (   3.2918870   3.0052186  11.3478826  )
        34           O1  tau(  34) = (   0.0060846   2.9950393  10.5821163  )
        35           O1  tau(  35) = (   1.2959246   4.5006532  12.6413340  )
        36           O1  tau(  36) = (   5.2961686   4.4944485  12.6189864  )
        37           Ti1 tau(  37) = (   0.0327138   0.0295606  12.5236923  )
        38           Ti1 tau(  38) = (   3.3339673   4.5113903  12.4983483  )
        39           O1  tau(  39) = (   6.5730609   3.0277731  14.6772624  )
        40           O1  tau(  40) = (   3.3208155   3.0007925  13.9016932  )
        41           O1  tau(  41) = (   4.5507661   4.4739758  16.0704957  )
        42           O1  tau(  42) = (   2.0281244   4.4521521  15.9894756  )
        43           Ti1 tau(  43) = (   3.3328935   0.0118079  15.7915215  )
        44           Ti1 tau(  44) = (   0.0096178   4.5175135  15.9069376  )
        45           O1  tau(  45) = (   3.2900926   2.9813045   4.7018136  )
        46           O1  tau(  46) = (   1.3039711   4.4726057   6.0039043  )
        47           O1  tau(  47) = (   5.2763189   4.4711207   6.0039473  )
        48           C1  tau(  48) = (   6.0108469   3.0492512  18.6187439  )
        49           O1  tau(  49) = (   6.5747659   3.0013081  17.3187206  )
        50           H1  tau(  50) = (   4.9221177   3.1735116  18.5649479  )
        51           H1  tau(  51) = (   6.2378858   2.1236533  19.1567593  )
        52           H1  tau(  52) = (   6.4208835   3.9027719  19.1655001  )
        53           O1  tau(  53) = (   2.8960476   5.8777769  18.1661119  )
        54           H1  tau(  54) = (   3.1709146   0.7341104  18.6084320  )
        55           H1  tau(  55) = (   1.9162551   5.8997105  18.1191095  )

     number of k points=    10  Fermi-Dirac smearing, width (Ry)=  0.0073
                       cart. coord. in units 2pi/alat
        k(    1) = (   0.0000000   0.0000000   0.0000000), wk =   0.1250000
        k(    2) = (   0.0000000   0.0419351   0.0000000), wk =   0.2500000
        k(    3) = (   0.0000000  -0.0838702   0.0000000), wk =   0.1250000
        k(    4) = (   0.0379955   0.0000049   0.0000000), wk =   0.2500000
        k(    5) = (   0.0379955   0.0419400   0.0000000), wk =   0.2500000
        k(    6) = (   0.0379955  -0.0838652   0.0000000), wk =   0.2500000
        k(    7) = (   0.0379955  -0.0419301   0.0000000), wk =   0.2500000
        k(    8) = (  -0.0759910  -0.0000099   0.0000000), wk =   0.1250000
        k(    9) = (  -0.0759910   0.0419252   0.0000000), wk =   0.2500000
        k(   10) = (  -0.0759910  -0.0838800   0.0000000), wk =   0.1250000

     Initial potential from superposition of free atoms

     starting charge  382.99916, renormalised to  399.00000

     negative rho (up, down):  1.705E-02 0.000E+00

     %%%%%%%%%%%%%%%%%%%%%%%%%%%%%%%%%%%%%%%%%%%%%%%%%%%%%%%%%%%%%%%%%%%%%%%%
     %                                                                      %
     % You are using vdW-DF, which was implemented by the Thonhauser group. %
     % Please cite the following two papers that made this development      %
     % possible and the two reviews that describe the various versions:     %
     %                                                                      %
     %   T. Thonhauser et al., PRL 115, 136402 (2015).                      %
     %   T. Thonhauser et al., PRB 76, 125112 (2007).                       %
     %   K. Berland et al., Rep. Prog. Phys. 78, 066501 (2015).             %
     %   D.C. Langreth et al., J. Phys.: Condens. Matter 21, 084203 (2009). %
     %                                                                      %
     %                                                                      %
     % If you are calculating the stress with vdW-DF, please also cite:     %
     %                                                                      %
     %   R. Sabatini et al., J. Phys.: Condens. Matter 24, 424209 (2012).   %
     %                                                                      %
     %%%%%%%%%%%%%%%%%%%%%%%%%%%%%%%%%%%%%%%%%%%%%%%%%%%%%%%%%%%%%%%%%%%%%%%%

     Adding external electric field

     Computed dipole along edir(3) :
        Dipole               -9.9871 Ry au,        -25.3847 Debye
        Dipole field         -0.0188 Ry au,

        Potential amp.        1.7471 Ry
        Total length         46.3494 bohr

     Starting wfcs are  301 atomic wfcs
  @ DRIVER MODE: Message from server: STATUS
  @ DRIVER MODE: Message from server: POSDATA
  @ DRIVER MODE: Reading and sharing cell
  @ DRIVER MODE: Reading and sharing positions
  @ DRIVER MODE: Received positions

     Self-consistent Calculation

     iteration #  1     ecut=    29.40 Ry     beta= 0.05
     Davidson diagonalization with overlap
     c_bands:  2 eigenvalues not converged
     c_bands:  2 eigenvalues not converged
     c_bands:  3 eigenvalues not converged
     c_bands:  3 eigenvalues not converged
     c_bands:  1 eigenvalues not converged
     c_bands:  3 eigenvalues not converged
     c_bands:  3 eigenvalues not converged
     c_bands:  1 eigenvalues not converged
     ethr =  1.00E-05,  avg # of iterations = 19.6

[...]

     total energy              =   -2489.86930591 Ry
     estimated scf accuracy    <    5304.37940479 Ry

     iteration #  2     ecut=    29.40 Ry     beta= 0.05
     Davidson diagonalization with overlap
     ethr =  1.00E-02,  avg # of iterations = 24.0

[...]

     iteration # 59     ecut=    29.40 Ry     beta= 0.05
     Davidson diagonalization with overlap
     c_bands:  1 eigenvalues not converged
     ethr =  3.43E-11,  avg # of iterations = 16.4

[...]

     total energy              =   -2966.34218536 Ry
     estimated scf accuracy    <       0.00000012 Ry

     iteration # 60     ecut=    29.40 Ry     beta= 0.05
     Davidson diagonalization with overlap
     ethr =  3.06E-11,  avg # of iterations = 12.2

     negative rho (up, down):  1.686E-02 0.000E+00

     Adding external electric field

     Computed dipole along edir(3) :
        Dipole                0.9467 Ry au,          2.4062 Debye
        Dipole field          0.0018 Ry au,

        Potential amp.       -0.1656 Ry
        Total length         46.3494 bohr

     End of self-consistent calculation

          k = 0.0000 0.0000 0.0000 ( 18029 PWs)   bands (ev):

   -55.7045 -55.6686 -55.6654 -55.6291 -55.6172 -55.6045 -55.5831 -55.5490
   -55.4941 -55.4805 -55.4715 -55.4541 -55.4193 -55.3789 -54.7078 -54.6737
   -32.2229 -32.1741 -32.0954 -32.0626 -32.0462 -31.9969 -31.9805 -31.9697
   -31.9368 -31.9338 -31.8927 -31.8817 -31.8761 -31.8708 -31.8639 -31.8480
   -31.8467 -31.8035 -31.7988 -31.7963 -31.7878 -31.7833 -31.7689 -31.7549
   -31.7487 -31.7435 -31.7258 -31.7028 -31.6961 -31.6950 -31.6882 -31.6849
   -31.6721 -31.6649 -31.6517 -31.6441 -31.6365 -31.6004 -31.5947 -31.5700
   -31.5612 -31.5548 -31.1168 -31.0218 -30.9994 -30.9336 -30.8476 -30.7362
   -18.8984 -17.5520 -16.4190 -16.1498 -15.9886 -15.8608 -15.8224 -15.6266
   -15.5107 -15.3862 -15.3597 -15.3049 -15.2804 -15.2404 -15.2345 -15.2260
   -15.2150 -15.2064 -15.1525 -15.1184 -15.1060 -15.0961 -15.0842 -15.0331
   -14.9809 -14.9169 -14.8445 -14.8218 -14.7972 -14.7255 -14.7043 -13.2083
   -13.0905  -9.4267  -6.6995  -4.2685  -4.0857  -3.8049  -3.7680  -3.6411
    -3.6168  -3.5872  -3.5054  -3.2983  -3.2753  -3.1468  -2.9409  -2.8826
    -2.8268  -2.8029  -2.7603  -2.6095  -2.5911  -2.5204  -2.5097  -2.4908
    -2.4802  -2.4481  -2.4300  -2.3974  -2.3703  -2.3315  -2.2862  -2.2248
    -2.0859  -2.0712  -2.0345  -2.0166  -2.0054  -1.9906  -1.9537  -1.9324
    -1.8989  -1.8810  -1.8718  -1.7711  -1.6631  -1.5679  -1.5313  -1.4630
    -1.3825  -1.2379  -1.2176  -1.1464  -1.1212  -1.1056  -1.0545  -1.0026
    -0.9412  -0.9375  -0.8807  -0.7819  -0.7132  -0.6942  -0.6571  -0.6088
    -0.5494  -0.4733  -0.4443  -0.4268  -0.4037  -0.3913  -0.2038  -0.1789
    -0.1368  -0.1091  -0.0268   0.0317   0.0487   0.0670   0.0937   0.1205
     0.1936   0.2532   0.2624   0.2891   0.3330   0.3477   0.3813   0.4492
     0.4980   0.5164   0.5637   0.6130   0.6645   0.8048   0.9077   0.9509
     1.0625   1.2275   1.3166   1.3906   1.4917   1.9020   1.9580   3.4754
     3.5075   3.5355   3.5570   3.6339   3.7258   3.8354   3.9276   3.9429
     3.9721

[...]

          k = 0.0380-0.0419 0.0000 ( 17876 PWs)   bands (ev):

[...]

          k =-0.0760-0.0000 0.0000 ( 17886 PWs)   bands (ev):

[...]

          k =-0.0760-0.0839 0.0000 ( 17948 PWs)   bands (ev):

   -55.6922 -55.6808 -55.6491 -55.6451 -55.6143 -55.6026 -55.5702 -55.5619
   -55.4964 -55.4772 -55.4737 -55.4413 -55.4322 -55.3818 -54.6912 -54.6902
   -32.0361 -32.0170 -31.9967 -31.9902 -31.9849 -31.9835 -31.9664 -31.9292
   -31.9196 -31.9114 -31.9027 -31.8935 -31.8555 -31.8451 -31.8309 -31.8261
   -31.8256 -31.8192 -31.8178 -31.8103 -31.8024 -31.7997 -31.7928 -31.7836
   -31.7747 -31.7712 -31.7667 -31.7663 -31.7559 -31.7404 -31.7138 -31.6974
   -31.6920 -31.6854 -31.6847 -31.6813 -31.6756 -31.6581 -31.6478 -31.6364
   -31.6067 -31.5723 -31.0127 -31.0115 -30.9301 -30.9293 -30.8911 -30.8902
   -18.8970 -17.5194 -15.8876 -15.7738 -15.6556 -15.5815 -15.5698 -15.5236
   -15.4936 -15.4672 -15.4098 -15.4023 -15.3544 -15.3531 -15.3022 -15.2960
   -15.2452 -15.2131 -15.2090 -15.1676 -15.1447 -15.1364 -15.1263 -15.0898
   -15.0731 -15.0631 -15.0281 -15.0189 -14.9700 -14.9314 -14.9052 -13.1927
   -13.1910  -9.4290  -6.6941  -4.1659  -4.0503  -3.8066  -3.2915  -3.1737
    -2.9672  -2.9006  -2.8354  -2.7730  -2.7695  -2.6536  -2.6338  -2.5948
    -2.5642  -2.5315  -2.5236  -2.5134  -2.4967  -2.4943  -2.4772  -2.4377
    -2.4173  -2.3936  -2.3715  -2.3602  -2.3386  -2.3163  -2.3086  -2.2889
    -2.2560  -2.2493  -2.2415  -2.1777  -2.1154  -1.9830  -1.9389  -1.9261
    -1.8410  -1.8064  -1.7899  -1.7606  -1.7529  -1.7374  -1.6064  -1.5868
    -1.4906  -1.4264  -1.4070  -1.3790  -1.2711  -1.2124  -1.1812  -1.1580
    -1.1220  -1.0746  -1.0072  -0.9665  -0.9143  -0.8563  -0.8120  -0.7982
    -0.7650  -0.6612  -0.6569  -0.6491  -0.6074  -0.5676  -0.5159  -0.4661
    -0.4581  -0.4335  -0.4011  -0.3592  -0.3399  -0.2430  -0.2321  -0.1931
    -0.1467  -0.0539   0.1265   0.2099   0.3166   0.3510   0.3908   0.4525
     0.4972   0.5484   0.5954   0.6431   0.6691   0.7130   0.7467   0.8292
     0.8477   0.8529   0.9212   1.6782   1.6787   1.7647   1.7732   3.7194
     3.7346   3.7870   3.8057   3.9438   3.9495   3.9633   3.9727   4.0713
     4.1281

     the Fermi energy is     3.4466 ev

!    total energy              =   -2966.34223979 Ry
     estimated scf accuracy    <       0.00000004 Ry
     smearing contrib. (-TS)   =      -0.02282824 Ry
     internal energy E=F+TS    =   -2966.31941155 Ry

     The total energy is F=E-TS. E is the sum of the following terms:
     one-electron contribution =  -24405.15954403 Ry
     hartree contribution      =   12294.57678395 Ry
     xc contribution           =    -490.96410634 Ry
     ewald contribution        =    9635.22576365 Ry
     electric field correction =       0.00169121 Ry

     convergence has been achieved in  60 iterations

     Forces acting on atoms (cartesian axes, Ry/au):

     atom    1 type  1   force =     0.00017776   -0.00146342    0.10512398
     atom    2 type  1   force =     0.00006738    0.00125382   -0.17888185
     atom    3 type  2   force =    -0.00001251   -0.00502023   -0.03283030
     atom    4 type  2   force =    -0.00058189    0.00074247    0.04591122
     atom    5 type  2   force =    -0.01790221   -0.00053043    0.00428308
     atom    6 type  2   force =     0.01740806    0.00074042    0.00347818
     atom    7 type  1   force =    -0.00006393   -0.00058853   -0.00005429
     atom    8 type  1   force =    -0.00037189   -0.00056309    0.00044374
     atom    9 type  2   force =     0.00014948   -0.00029026   -0.00004048
     atom   10 type  2   force =     0.00022738   -0.00002397    0.00054327
     atom   11 type  2   force =    -0.00002451   -0.00010371   -0.00006272
     atom   12 type  2   force =    -0.00011342   -0.00029138   -0.00026312
     atom   13 type  1   force =     0.00055430   -0.00058658   -0.00133015
     atom   14 type  1   force =     0.00000922   -0.00046669    0.00036040
     atom   15 type  2   force =    -0.00012286   -0.00036671    0.00003877
     atom   16 type  2   force =     0.00004795   -0.00064644   -0.00005253
     atom   17 type  2   force =    -0.00034487   -0.00013342   -0.00038472
     atom   18 type  2   force =     0.00048693   -0.00039599   -0.00003859
     atom   19 type  1   force =     0.00002929    0.00041862    0.00020302
     atom   20 type  1   force =     0.00014827   -0.00094819    0.00072053
     atom   21 type  2   force =     0.00007152    0.00010859    0.10392615
     atom   22 type  2   force =    -0.00031135   -0.00044694   -0.00024106
     atom   23 type  2   force =    -0.06948031    0.00050690   -0.02943161
     atom   24 type  2   force =     0.06951152    0.00087587   -0.02946117
     atom   25 type  1   force =     0.00027723    0.00145393    0.11397303
     atom   26 type  1   force =    -0.00005847   -0.00044147   -0.17904861
     atom   27 type  2   force =    -0.00013468    0.00370756   -0.02689702
     atom   28 type  2   force =    -0.00026876    0.00101858    0.04785329
     atom   29 type  2   force =    -0.01571245    0.00042357    0.00352012
     atom   30 type  2   force =     0.01709208    0.00264673    0.00289908
     atom   31 type  1   force =     0.00036444    0.00004676   -0.00017231
     atom   32 type  1   force =    -0.00067096    0.00013218    0.00028222
     atom   33 type  2   force =     0.00024993   -0.00039918    0.00015902
     atom   34 type  2   force =     0.00006773   -0.00006070   -0.00007650
     atom   35 type  2   force =     0.00010080   -0.00018361    0.00021933
     atom   36 type  2   force =     0.00020764    0.00017040    0.00014881
     atom   37 type  1   force =     0.00033332    0.00077999   -0.00025432
     atom   38 type  1   force =    -0.00009015   -0.00052995    0.00002426
     atom   39 type  2   force =    -0.00047087    0.00024008    0.00026132
     atom   40 type  2   force =     0.00025866   -0.00063541   -0.00011449
     atom   41 type  2   force =     0.00010238   -0.00004461   -0.00017621
     atom   42 type  2   force =    -0.00037254   -0.00034702   -0.00032244
     atom   43 type  1   force =    -0.00013291   -0.00015598   -0.00000438
     atom   44 type  1   force =     0.00023350    0.00035785    0.00027097
     atom   45 type  2   force =     0.00007939    0.00008451    0.10395188
     atom   46 type  2   force =    -0.06917835   -0.00106280   -0.02945073
     atom   47 type  2   force =     0.06915604   -0.00059963   -0.02952599
     atom   48 type  3   force =    -0.00008838    0.00036779    0.00067786
     atom   49 type  2   force =    -0.00042038    0.00049784    0.00020301
     atom   50 type  4   force =     0.00060435    0.00023365    0.00053495
     atom   51 type  4   force =    -0.00019778    0.00072054   -0.00052473
     atom   52 type  4   force =    -0.00029815   -0.00058041   -0.00015089
     atom   53 type  2   force =     0.00238535   -0.00033108   -0.00012034
     atom   54 type  4   force =    -0.00174634   -0.00098231   -0.00070989
     atom   55 type  4   force =    -0.00123099    0.00169146    0.00060991

     Total force =     0.374040     Total SCF correction =     0.000532
  @ DRIVER MODE: Message from server: STATUS
  @ DRIVER MODE: Message from server: GETFORCE
  @ DRIVER MODE: Returning v,forces,stress,ensemble

     Writing output data file ./calc.save/
  @ DRIVER MODE: Message from server: EXIT
  @ DRIVE MODE: Exiting

     General routines

     Parallel routines

   This run was terminated on:  14:16:28  27Sep2021

   JOB DONE.