     Program PWSCF v.6.7GPU starts on 10Sep2021 at  5:47:56

     R & G space division:  proc/nbgrp/npool/nimage =      10
     Reading input from /storage/home/hcoda1/3/ntian30/research/carbon/CxH_vib/CH3_calc/ads_slab/CH3N2OH_j/out_0027/pw.inp
Warning: card &CELL ignored
Warning: card   CELL_DYNAMICS='IPI', ignored
Warning: card / ignored

     Current dimensions of program PWSCF are:
     Max number of different atomic species (ntypx) = 10
     Max number of k-points (npk) =  40000
     Max angular momentum in pseudopotentials (lmaxx) =  3
     Presently no symmetry can be used with electric field

     Message from routine cell_base_init:
     DEPRECATED: use true lattice parameter, not A to a.u. conversion factor

     IMPORTANT: XC functional enforced from input :
     Exchange-correlation= BEEF-VDW
                           (   1   4  43  14   2   0   0)
     Any further DFT definition will be discarded
     Please, verify this is what you really want

  @ DRIVER MODE: Connecting to
 qe_1139763_2779713.sched-torque.pace.gatech.eduamv0oixp_scratch
  using UNIX socket
  @ DRIVER MODE: Message from server: STATUS
  @ DRIVER MODE: Message from server: INIT
  @ DRIVER MODE: Receiving replica           0          -1
  @ DRIVER MODE: Receiving encoded integer          25
  @ DRIVER MODE:  SCF:  T  FORCE:  T  STRESS:  F  VC:  F  ENSEMBLE:  F
  @ DRIVER MODE:  SCF:  T  FORCE:  T  STRESS:  F  VC:  F  ENSEMBLE:  F

     Using Slab Decomposition

     bravais-lattice index     =            0
     lattice parameter (alat)  =       1.8897  a.u.
     unit-cell volume          =    6658.9804 (a.u.)^3
     number of atoms/cell      =           55
     number of atomic types    =            5
     number of electrons       =       402.00
     number of Kohn-Sham states=          211
     kinetic-energy cutoff     =      29.3995  Ry
     charge density cutoff     =     293.9946  Ry
     scf convergence threshold =      7.3E-08
     mixing beta               =       0.0500
     number of iterations used =            8  plain     mixing
     Exchange-correlation= BEEF-VDW
                           (   1   4  43  14   2   0   0)

     celldm(1)=   1.889726  celldm(2)=   0.000000  celldm(3)=   0.000000
     celldm(4)=   0.000000  celldm(5)=   0.000000  celldm(6)=   0.000000

     crystal axes: (cart. coord. in units of alat)
               a(1) = (   6.579727   0.000000   0.000000 )
               a(2) = (  -0.000775   5.961596   0.000000 )
               a(3) = (   0.000000   0.000000  25.155947 )

     reciprocal axes: (cart. coord. in units 2 pi/alat)
               b(1) = (  0.151982  0.000020  0.000000 )
               b(2) = (  0.000000  0.167740  0.000000 )
               b(3) = (  0.000000  0.000000  0.039752 )

     PseudoPot. # 1 for Ti read from file:
     /storage/coda1/p-amedford6/0/shared/rich_project_chbe-medford/medford-share/data/pseudos_module/espresso/nninc/pbe/van/Ti.UPF
     MD5 check sum: 8e4df49b7f0d34bbd5052bf3f5ea0213
     Pseudo is Ultrasoft, Zval = 12.0
     Generated by new atomic code, or converted to UPF format
     Using radial grid of  851 points,  6 beta functions with:
                l(1) =   0
                l(2) =   0
                l(3) =   1
                l(4) =   1
                l(5) =   2
                l(6) =   2
     Q(r) pseudized with  8 coefficients,  rinner =    1.000   1.000   1.000
                                                       1.000   1.000

     PseudoPot. # 2 for O  read from file:
     /storage/coda1/p-amedford6/0/shared/rich_project_chbe-medford/medford-share/data/pseudos_module/espresso/nninc/pbe/van/O.UPF
     MD5 check sum: 78c19812648e8988a0fe644b0f25305e
     Pseudo is Ultrasoft, Zval =  6.0
     Generated by new atomic code, or converted to UPF format
     Using radial grid of  737 points,  4 beta functions with:
                l(1) =   0
                l(2) =   0
                l(3) =   1
                l(4) =   1
     Q(r) pseudized with  8 coefficients,  rinner =    0.800   0.800   0.800

     PseudoPot. # 3 for N  read from file:
     /storage/coda1/p-amedford6/0/shared/rich_project_chbe-medford/medford-share/data/pseudos_module/espresso/nninc/pbe/van/N.UPF
     MD5 check sum: 90d10febe142ad51ac9d5be1deb811c4
     Pseudo is Ultrasoft, Zval =  5.0
     Generated by new atomic code, or converted to UPF format
     Using radial grid of  729 points,  4 beta functions with:
                l(1) =   0
                l(2) =   0
                l(3) =   1
                l(4) =   1
     Q(r) pseudized with  8 coefficients,  rinner =    0.800   0.800   0.800

     PseudoPot. # 4 for C  read from file:
     /storage/coda1/p-amedford6/0/shared/rich_project_chbe-medford/medford-share/data/pseudos_module/espresso/nninc/pbe/van/C.UPF
     MD5 check sum: 1a69bf6b8db32088f5b2163dbdb77a27
     Pseudo is Ultrasoft, Zval =  4.0
     Generated by new atomic code, or converted to UPF format
     Using radial grid of  721 points,  4 beta functions with:
                l(1) =   0
                l(2) =   0
                l(3) =   1
                l(4) =   1
     Q(r) pseudized with  8 coefficients,  rinner =    0.800   0.800   0.800

     PseudoPot. # 5 for H  read from file:
     /storage/coda1/p-amedford6/0/shared/rich_project_chbe-medford/medford-share/data/pseudos_module/espresso/nninc/pbe/van/H.UPF
     MD5 check sum: b5ee9d7bfd3a09ee7748110bda690ff7
     Pseudo is Ultrasoft, Zval =  1.0
     Generated by new atomic code, or converted to UPF format
     Using radial grid of  615 points,  1 beta functions with:
                l(1) =   0
     Q(r) pseudized with  8 coefficients,  rinner =    0.800

     atomic species   valence    mass     pseudopotential
        Ti1           12.00    47.86700     Ti( 1.00)
        O1             6.00    15.99900     O ( 1.00)
        N1             5.00    14.00700     N ( 1.00)
        C1             4.00    12.01100     C ( 1.00)
        H1             1.00     1.00800     H ( 1.00)

     No symmetry found

   Cartesian axes

     site n.     atom                  positions (alat units)
         1           Ti1 tau(   1) = (   0.0004258   2.9801865   6.0000000  )
         2           Ti1 tau(   2) = (   3.2906075   1.4906267   6.0002472  )
         3           O1  tau(   3) = (   0.0006271   0.0005054   7.9858123  )
         4           O1  tau(   4) = (   3.2906025   0.0005020   7.3038282  )
         5           O1  tau(   5) = (   4.5942328   1.4918067   9.2879030  )
         6           O1  tau(   6) = (   1.9868534   1.4903216   9.2879459  )
         7           Ti1 tau(   7) = (   3.2907910   2.8959150   9.1758416  )
         8           Ti1 tau(   8) = (   0.0015273   1.4827037   9.2680791  )
         9           O1  tau(   9) = (   3.2817971   0.0424577  11.2706337  )
        10           O1  tau(  10) = (   0.0116148   5.9584955  10.6183126  )
        11           O1  tau(  11) = (   1.2813654   1.4951502  12.6332405  )
        12           O1  tau(  12) = (   5.2815101   1.4921423  12.6269808  )
        13           Ti1 tau(  13) = (   6.5662594   2.8603684  12.6843660  )
        14           Ti1 tau(  14) = (   3.2717346   1.4252475  12.4210995  )
        15           O1  tau(  15) = (   6.5710910   0.0045200  14.6317625  )
        16           O1  tau(  16) = (   3.2759495   0.0084639  13.8932321  )
        17           O1  tau(  17) = (   4.5517014   1.4983445  16.0008815  )
        18           O1  tau(  18) = (   2.0271237   1.5070609  16.0478782  )
        19           Ti1 tau(  19) = (   3.2345769   3.0092735  16.2435900  )
        20           Ti1 tau(  20) = (   6.4941389   1.4975806  15.8145731  )
        21           O1  tau(  21) = (   3.2904802   0.0005063   4.7018136  )
        22           O1  tau(  22) = (   6.5579512   0.0396517  17.1742205  )
        23           O1  tau(  23) = (   1.3043587   1.4918075   6.0039043  )
        24           O1  tau(  24) = (   5.2767064   1.4903225   6.0039473  )
        25           Ti1 tau(  25) = (   0.0000382   5.9609847   6.0000000  )
        26           Ti1 tau(  26) = (   3.2902200   4.4714249   6.0002472  )
        27           O1  tau(  27) = (   0.0002396   2.9813036   7.9858123  )
        28           O1  tau(  28) = (   3.2902150   2.9813002   7.3038282  )
        29           O1  tau(  29) = (   4.5938453   4.4726049   9.2879030  )
        30           O1  tau(  30) = (   1.9864658   4.4711199   9.2879459  )
        31           Ti1 tau(  31) = (   3.2891106   5.8743827   9.1763621  )
        32           Ti1 tau(  32) = (   0.0006254   4.4649316   9.2693709  )
        33           O1  tau(  33) = (   3.2800217   2.9666125  11.2981572  )
        34           O1  tau(  34) = (   0.0092240   2.9805883  10.6323155  )
        35           O1  tau(  35) = (   1.2755083   4.4823741  12.6262202  )
        36           O1  tau(  36) = (   5.2848398   4.4807727  12.6177486  )
        37           Ti1 tau(  37) = (   6.5672004   5.8338186  12.5551636  )
        38           Ti1 tau(  38) = (   3.2732152   4.2974050  12.6602233  )
        39           O1  tau(  39) = (   6.5693882   2.9786051  14.6782399  )
        40           O1  tau(  40) = (   3.2805734   3.0393479  13.9038923  )
        41           O1  tau(  41) = (   4.5335661   4.5240572  16.0872286  )
        42           O1  tau(  42) = (   2.0073973   4.5295938  16.0607137  )
        43           Ti1 tau(  43) = (   3.2598295   0.0330142  15.6732764  )
        44           Ti1 tau(  44) = (   6.5464637   4.6748829  16.0422594  )
        45           O1  tau(  45) = (   3.2900926   2.9813045   4.7018136  )
        46           O1  tau(  46) = (   1.3039711   4.4726057   6.0039043  )
        47           O1  tau(  47) = (   5.2763189   4.4711207   6.0039473  )
        48           N1  tau(  48) = (   0.1126456   2.6876119  18.6539570  )
        49           N1  tau(  49) = (   0.0165868   2.9082207  17.4746156  )
        50           C1  tau(  50) = (   0.2746321   3.7930379  19.6319179  )
        51           H1  tau(  51) = (   0.1055085   4.7742840  19.1878107  )
        52           H1  tau(  52) = (   6.1760284   3.5771646  20.4591619  )
        53           H1  tau(  53) = (   1.2982147   3.7051261  19.9977701  )
        54           O1  tau(  54) = (   3.2987527   2.9937385  18.0942264  )
        55           H1  tau(  55) = (   3.7476408   3.7324850  18.5320624  )

     number of k points=    10  Fermi-Dirac smearing, width (Ry)=  0.0073
                       cart. coord. in units 2pi/alat
        k(    1) = (   0.0000000   0.0000000   0.0000000), wk =   0.1250000
        k(    2) = (   0.0000000   0.0419351   0.0000000), wk =   0.2500000
        k(    3) = (   0.0000000  -0.0838702   0.0000000), wk =   0.1250000
        k(    4) = (   0.0379955   0.0000049   0.0000000), wk =   0.2500000
        k(    5) = (   0.0379955   0.0419400   0.0000000), wk =   0.2500000
        k(    6) = (   0.0379955  -0.0838652   0.0000000), wk =   0.2500000
        k(    7) = (   0.0379955  -0.0419301   0.0000000), wk =   0.2500000
        k(    8) = (  -0.0759910  -0.0000099   0.0000000), wk =   0.1250000
        k(    9) = (  -0.0759910   0.0419252   0.0000000), wk =   0.2500000
        k(   10) = (  -0.0759910  -0.0838800   0.0000000), wk =   0.1250000

     Initial potential from superposition of free atoms

     starting charge  385.99915, renormalised to  402.00000

     negative rho (up, down):  1.467E-02 0.000E+00

     %%%%%%%%%%%%%%%%%%%%%%%%%%%%%%%%%%%%%%%%%%%%%%%%%%%%%%%%%%%%%%%%%%%%%%%%
     %                                                                      %
     % You are using vdW-DF, which was implemented by the Thonhauser group. %
     % Please cite the following two papers that made this development      %
     % possible and the two reviews that describe the various versions:     %
     %                                                                      %
     %   T. Thonhauser et al., PRL 115, 136402 (2015).                      %
     %   T. Thonhauser et al., PRB 76, 125112 (2007).                       %
     %   K. Berland et al., Rep. Prog. Phys. 78, 066501 (2015).             %
     %   D.C. Langreth et al., J. Phys.: Condens. Matter 21, 084203 (2009). %
     %                                                                      %
     %                                                                      %
     % If you are calculating the stress with vdW-DF, please also cite:     %
     %                                                                      %
     %   R. Sabatini et al., J. Phys.: Condens. Matter 24, 424209 (2012).   %
     %                                                                      %
     %%%%%%%%%%%%%%%%%%%%%%%%%%%%%%%%%%%%%%%%%%%%%%%%%%%%%%%%%%%%%%%%%%%%%%%%

     Adding external electric field

     Computed dipole along edir(3) :
        Dipole              -11.9798 Ry au,        -30.4497 Debye
        Dipole field         -0.0226 Ry au,

        Potential amp.        2.0957 Ry
        Total length         46.3494 bohr

     Starting wfcs are  304 atomic wfcs
  @ DRIVER MODE: Message from server: STATUS
  @ DRIVER MODE: Message from server: POSDATA
  @ DRIVER MODE: Reading and sharing cell
  @ DRIVER MODE: Reading and sharing positions
  @ DRIVER MODE: Received positions

     Self-consistent Calculation

     iteration #  1     ecut=    29.40 Ry     beta= 0.05
     Davidson diagonalization with overlap
     c_bands:  4 eigenvalues not converged
     c_bands:  3 eigenvalues not converged
     c_bands:  5 eigenvalues not converged
     c_bands:  5 eigenvalues not converged
     c_bands:  3 eigenvalues not converged
     c_bands:  4 eigenvalues not converged
     c_bands:  2 eigenvalues not converged
     c_bands:  1 eigenvalues not converged
     ethr =  1.00E-05,  avg # of iterations = 25.4

[...]

     total energy              =   -2401.02559757 Ry
     estimated scf accuracy    <    6440.98412648 Ry

     iteration #  2     ecut=    29.40 Ry     beta= 0.05
     Davidson diagonalization with overlap
     ethr =  1.00E-02,  avg # of iterations = 22.6

[...]

     iteration # 52     ecut=    29.40 Ry     beta= 0.05
     Davidson diagonalization with overlap
     c_bands:  1 eigenvalues not converged
     ethr =  1.26E-06,  avg # of iterations =  8.7

[...]

     total energy              =   -2972.74458784 Ry
     estimated scf accuracy    <       0.00000012 Ry

     iteration # 82     ecut=    29.40 Ry     beta= 0.05
     Davidson diagonalization with overlap
     ethr =  2.29E-11,  avg # of iterations =  1.3

     negative rho (up, down):  1.548E-02 0.000E+00

     Adding external electric field

     Computed dipole along edir(3) :
        Dipole                0.6110 Ry au,          1.5530 Debye
        Dipole field          0.0012 Ry au,

        Potential amp.       -0.1069 Ry
        Total length         46.3494 bohr

     End of self-consistent calculation

          k = 0.0000 0.0000 0.0000 ( 18029 PWs)   bands (ev):

   -56.2382 -56.2044 -55.8233 -55.7897 -55.5908 -55.5313 -55.4804 -55.4046
   -55.3807 -55.3258 -55.2356 -55.1634 -55.0834 -55.0109 -54.9897 -54.9769
   -32.6886 -32.5308 -32.5038 -32.3967 -32.3127 -32.3041 -32.3025 -32.0709
   -32.0423 -32.0232 -31.9710 -31.9645 -31.9306 -31.8972 -31.8687 -31.8170
   -31.8076 -31.7919 -31.7541 -31.7345 -31.7274 -31.7066 -31.6936 -31.6921
   -31.6904 -31.6501 -31.6027 -31.5737 -31.5543 -31.5359 -31.5347 -31.4972
   -31.4875 -31.4273 -31.4175 -31.4076 -31.3677 -31.3440 -31.3391 -31.3204
   -31.3148 -31.2914 -31.2387 -31.2264 -31.2263 -31.2115 -31.1417 -31.0298
   -18.8580 -16.5324 -16.3528 -16.1973 -15.9862 -15.8181 -15.7261 -15.7180
   -15.6700 -15.5490 -15.5216 -15.4269 -15.3357 -15.2621 -15.2617 -15.2369
   -15.1404 -15.0840 -15.0579 -15.0175 -14.9975 -14.9907 -14.9776 -14.8792
   -14.8625 -14.8573 -14.7149 -14.6930 -14.6075 -14.3592 -14.2628 -13.5087
   -13.3964 -11.5275  -6.9295  -4.4098  -4.1656  -4.0417  -4.0201  -3.8314
    -3.7480  -3.5305  -3.4313  -3.3549  -3.2325  -3.1468  -2.9570  -2.9457
    -2.8918  -2.8223  -2.7476  -2.6885  -2.6365  -2.6260  -2.5524  -2.5139
    -2.4732  -2.4657  -2.4034  -2.3875  -2.3014  -2.2890  -2.2165  -2.1816
    -2.1510  -2.1217  -2.1016  -2.0411  -2.0333  -2.0015  -1.9710  -1.9191
    -1.8577  -1.8095  -1.7244  -1.6737  -1.6560  -1.5635  -1.5436  -1.5328
    -1.5158  -1.3210  -1.2472  -1.2260  -1.2144  -1.0667  -1.0241  -0.9992
    -0.9192  -0.8955  -0.8484  -0.8084  -0.7606  -0.7038  -0.6727  -0.6668
    -0.6421  -0.5904  -0.4030  -0.3702  -0.3218  -0.2917  -0.2540  -0.1976
    -0.1673  -0.1363  -0.0537  -0.0485  -0.0394  -0.0019   0.0481   0.1290
     0.1887   0.2091   0.3018   0.3080   0.3499   0.3844   0.4408   0.4681
     0.5520   0.5957   0.6113   0.6660   0.6860   0.8745   0.9116   0.9482
     0.9856   1.0136   1.0592   1.1738   1.2425   1.5439   1.5615   1.6010
     2.7533   2.9882   3.1170   3.2729   3.4204   3.5151   3.8255   3.8539
     3.8891   3.9477   4.0138

[...]

          k = 0.0380-0.0419 0.0000 ( 17876 PWs)   bands (ev):

[...]

          k =-0.0760-0.0000 0.0000 ( 17886 PWs)   bands (ev):

[...]

          k =-0.0760-0.0839 0.0000 ( 17948 PWs)   bands (ev):

   -56.2218 -56.2208 -55.8077 -55.8052 -55.5855 -55.5365 -55.4775 -55.4073
   -55.3747 -55.3316 -55.2338 -55.1618 -55.0852 -54.9942 -54.9935 -54.9912
   -32.5169 -32.5156 -32.5049 -32.5042 -32.3492 -32.3481 -32.1272 -32.1233
   -32.0020 -31.9998 -31.9965 -31.9948 -31.8910 -31.8524 -31.8158 -31.8089
   -31.8037 -31.7641 -31.7524 -31.7471 -31.7207 -31.7059 -31.6987 -31.6671
   -31.6614 -31.6254 -31.6207 -31.6015 -31.5942 -31.5644 -31.5581 -31.5445
   -31.4880 -31.4336 -31.4313 -31.4211 -31.3654 -31.3439 -31.3335 -31.3331
   -31.2958 -31.2954 -31.2452 -31.2281 -31.2228 -31.2218 -31.1844 -31.1837
   -18.8543 -16.3401 -15.9423 -15.9300 -15.8066 -15.8000 -15.6278 -15.6113
   -15.5903 -15.5333 -15.5120 -15.4644 -15.3243 -15.3148 -15.2548 -15.2219
   -15.1969 -15.1805 -15.1515 -15.1511 -15.1318 -15.0582 -15.0307 -15.0035
   -14.9545 -14.9504 -14.7848 -14.7191 -14.7049 -14.4911 -14.4597 -13.4995
   -13.4993 -11.5255  -6.9433  -4.3579  -4.0331  -4.0030  -3.9359  -3.1106
    -3.0560  -2.9457  -2.9189  -2.8449  -2.8226  -2.7150  -2.6913  -2.6503
    -2.6368  -2.6331  -2.5778  -2.5556  -2.5332  -2.4891  -2.4772  -2.4643
    -2.4396  -2.3915  -2.3807  -2.3625  -2.3471  -2.3309  -2.2370  -2.2311
    -2.2137  -2.1693  -2.1658  -2.1531  -2.0757  -2.0065  -1.9626  -1.9567
    -1.9246  -1.8678  -1.7894  -1.6820  -1.6601  -1.6060  -1.5786  -1.5030
    -1.4730  -1.4277  -1.3327  -1.3254  -1.2984  -1.2810  -1.2201  -1.2058
    -1.0630  -1.0299  -1.0242  -1.0173  -1.0147  -0.9174  -0.8565  -0.7963
    -0.7456  -0.6620  -0.6482  -0.6273  -0.6085  -0.5990  -0.5797  -0.5555
    -0.4942  -0.4528  -0.4023  -0.3852  -0.2811  -0.2021  -0.1676  -0.1014
    -0.0237   0.0652   0.1437   0.1572   0.1949   0.2493   0.3379   0.3796
     0.4220   0.4907   0.5328   0.6058   0.6674   0.7525   0.7764   0.8649
     0.9765   0.9931   1.0434   1.1309   1.4040   1.4107   1.4172   1.4180
     2.7589   3.5359   3.5398   3.5695   3.5778   3.7776   3.7896   3.9153
     3.9698   3.9950   4.0314

     the Fermi energy is     2.9249 ev

!    total energy              =   -2972.74459654 Ry
     estimated scf accuracy    <       0.00000007 Ry
     smearing contrib. (-TS)   =      -0.01284099 Ry
     internal energy E=F+TS    =   -2972.73175555 Ry

     The total energy is F=E-TS. E is the sum of the following terms:
     one-electron contribution =  -23700.66789861 Ry
     hartree contribution      =   11943.62563263 Ry
     xc contribution           =    -493.12345761 Ry
     ewald contribution        =    9277.43326356 Ry
     electric field correction =       0.00070447 Ry

     convergence has been achieved in  82 iterations

     Forces acting on atoms (cartesian axes, Ry/au):

     atom    1 type  1   force =     0.00008871   -0.00038466    0.10702569
     atom    2 type  1   force =    -0.00004300   -0.00169598   -0.16538897
     atom    3 type  2   force =     0.00003501   -0.00025923   -0.03867114
     atom    4 type  2   force =     0.00004462    0.00076137    0.03119164
     atom    5 type  2   force =    -0.00356048    0.00294469   -0.00839780
     atom    6 type  2   force =     0.00469649    0.00361302   -0.01016756
     atom    7 type  1   force =    -0.00073203    0.00048032    0.02122326
     atom    8 type  1   force =     0.00100656    0.01539157    0.06094599
     atom    9 type  2   force =     0.00011281   -0.00014007    0.00009539
     atom   10 type  2   force =    -0.00289386    0.00226536   -0.04713183
     atom   11 type  2   force =    -0.00004916   -0.00020304   -0.00001794
     atom   12 type  2   force =     0.00001325   -0.00002735    0.00020510
     atom   13 type  1   force =     0.00028230   -0.00013813    0.00010500
     atom   14 type  1   force =     0.00040268   -0.00015382    0.00023910
     atom   15 type  2   force =     0.00015736    0.00012484   -0.00027762
     atom   16 type  2   force =     0.00014440   -0.00015254    0.00003504
     atom   17 type  2   force =     0.00014734    0.00016064    0.00024828
     atom   18 type  2   force =     0.00014619    0.00027524    0.00007896
     atom   19 type  1   force =     0.00004415   -0.00015043   -0.00016260
     atom   20 type  1   force =    -0.00034699    0.00024675    0.00004559
     atom   21 type  2   force =     0.00010237    0.00000046    0.10025287
     atom   22 type  2   force =     0.00004067    0.00002536   -0.00012976
     atom   23 type  2   force =    -0.07668909   -0.00004780   -0.03005210
     atom   24 type  2   force =     0.07667498    0.00038454   -0.03007600
     atom   25 type  1   force =     0.00005805   -0.00043341    0.10697258
     atom   26 type  1   force =    -0.00010834    0.00062595   -0.16568953
     atom   27 type  2   force =     0.00012157   -0.00027337   -0.03748768
     atom   28 type  2   force =     0.00004388   -0.00043775    0.03536789
     atom   29 type  2   force =    -0.00569738   -0.00043611   -0.00598455
     atom   30 type  2   force =     0.00686113    0.00006166   -0.00767285
     atom   31 type  1   force =    -0.00056622   -0.00239755    0.03460565
     atom   32 type  1   force =     0.00111225   -0.01877246    0.06146801
     atom   33 type  2   force =     0.00022393   -0.00012371    0.00006173
     atom   34 type  2   force =    -0.00253706    0.00012736   -0.05383866
     atom   35 type  2   force =     0.00021123   -0.00024504   -0.00010943
     atom   36 type  2   force =     0.00018735   -0.00002035    0.00028572
     atom   37 type  1   force =     0.00035250   -0.00019515   -0.00013818
     atom   38 type  1   force =     0.00047190   -0.00023410    0.00028020
     atom   39 type  2   force =     0.00015846   -0.00045922    0.00026215
     atom   40 type  2   force =    -0.00019227   -0.00003581   -0.00013218
     atom   41 type  2   force =     0.00010188   -0.00039128    0.00011426
     atom   42 type  2   force =     0.00023339   -0.00042363    0.00012657
     atom   43 type  1   force =    -0.00024438    0.00005600   -0.00025299
     atom   44 type  1   force =    -0.00006439   -0.00034260    0.00023043
     atom   45 type  2   force =     0.00009567    0.00010996    0.10045744
     atom   46 type  2   force =    -0.07666751   -0.00006009   -0.03006389
     atom   47 type  2   force =     0.07665869    0.00036081   -0.03009239
     atom   48 type  3   force =     0.00086762   -0.00016385   -0.00032753
     atom   49 type  3   force =     0.00008422    0.00003117   -0.00118850
     atom   50 type  4   force =    -0.00205122   -0.00085043    0.00138796
     atom   51 type  5   force =    -0.00035967   -0.00099813    0.00139902
     atom   52 type  5   force =     0.00152305    0.00238389   -0.00206825
     atom   53 type  5   force =    -0.00031226   -0.00009924    0.00060646
     atom   54 type  2   force =     0.00043808    0.00125370    0.00070137
     atom   55 type  5   force =    -0.00082946   -0.00093832   -0.00049944

     Total force =     0.381345     Total SCF correction =     0.000961
  @ DRIVER MODE: Message from server: STATUS
  @ DRIVER MODE: Message from server: GETFORCE
  @ DRIVER MODE: Returning v,forces,stress,ensemble

     Writing output data file ./calc.save/
  @ DRIVER MODE: Message from server: EXIT
  @ DRIVE MODE: Exiting

     General routines

     Parallel routines

   This run was terminated on:   6:10: 6  10Sep2021

   JOB DONE.