     Program PWSCF v.6.7GPU starts on 21Sep2021 at 11: 1: 7

     R & G space division:  proc/nbgrp/npool/nimage =      10
     Reading input from /storage/home/hcoda1/3/ntian30/research/carbon/CxH_vib/CH3_calc/ads_slab/CH3OHN2_a/out_0005/pw.inp
Warning: card &CELL ignored
Warning: card   CELL_DYNAMICS='IPI', ignored
Warning: card / ignored

     Current dimensions of program PWSCF are:
     Max number of different atomic species (ntypx) = 10
     Max number of k-points (npk) =  40000
     Max angular momentum in pseudopotentials (lmaxx) =  3
     Presently no symmetry can be used with electric field

     Message from routine cell_base_init:
     DEPRECATED: use true lattice parameter, not A to a.u. conversion factor

     IMPORTANT: XC functional enforced from input :
     Exchange-correlation= BEEF-VDW
                           (   1   4  43  14   2   0   0)
     Any further DFT definition will be discarded
     Please, verify this is what you really want

  @ DRIVER MODE: Connecting to
 qe_1139763_2920907.sched-torque.pace.gatech.edujjhhk3wh_scratch
  using UNIX socket
  @ DRIVER MODE: Message from server: STATUS
  @ DRIVER MODE: Message from server: INIT
  @ DRIVER MODE: Receiving replica           0          -1
  @ DRIVER MODE: Receiving encoded integer          25
  @ DRIVER MODE:  SCF:  T  FORCE:  T  STRESS:  F  VC:  F  ENSEMBLE:  F
  @ DRIVER MODE:  SCF:  T  FORCE:  T  STRESS:  F  VC:  F  ENSEMBLE:  F

     Using Slab Decomposition

     bravais-lattice index     =            0
     lattice parameter (alat)  =       1.8897  a.u.
     unit-cell volume          =    6658.9804 (a.u.)^3
     number of atoms/cell      =           55
     number of atomic types    =            5
     number of electrons       =       402.00
     number of Kohn-Sham states=          211
     kinetic-energy cutoff     =      29.3995  Ry
     charge density cutoff     =     293.9946  Ry
     scf convergence threshold =      7.3E-08
     mixing beta               =       0.0500
     number of iterations used =            8  plain     mixing
     Exchange-correlation= BEEF-VDW
                           (   1   4  43  14   2   0   0)

     celldm(1)=   1.889726  celldm(2)=   0.000000  celldm(3)=   0.000000
     celldm(4)=   0.000000  celldm(5)=   0.000000  celldm(6)=   0.000000

     crystal axes: (cart. coord. in units of alat)
               a(1) = (   6.579727   0.000000   0.000000 )
               a(2) = (  -0.000775   5.961596   0.000000 )
               a(3) = (   0.000000   0.000000  25.155947 )

     reciprocal axes: (cart. coord. in units 2 pi/alat)
               b(1) = (  0.151982  0.000020  0.000000 )
               b(2) = (  0.000000  0.167740  0.000000 )
               b(3) = (  0.000000  0.000000  0.039752 )

     PseudoPot. # 1 for Ti read from file:
     /storage/coda1/p-amedford6/0/shared/rich_project_chbe-medford/medford-share/data/pseudos_module/espresso/nninc/pbe/van/Ti.UPF
     MD5 check sum: 8e4df49b7f0d34bbd5052bf3f5ea0213
     Pseudo is Ultrasoft, Zval = 12.0
     Generated by new atomic code, or converted to UPF format
     Using radial grid of  851 points,  6 beta functions with:
                l(1) =   0
                l(2) =   0
                l(3) =   1
                l(4) =   1
                l(5) =   2
                l(6) =   2
     Q(r) pseudized with  8 coefficients,  rinner =    1.000   1.000   1.000
                                                       1.000   1.000

     PseudoPot. # 2 for O  read from file:
     /storage/coda1/p-amedford6/0/shared/rich_project_chbe-medford/medford-share/data/pseudos_module/espresso/nninc/pbe/van/O.UPF
     MD5 check sum: 78c19812648e8988a0fe644b0f25305e
     Pseudo is Ultrasoft, Zval =  6.0
     Generated by new atomic code, or converted to UPF format
     Using radial grid of  737 points,  4 beta functions with:
                l(1) =   0
                l(2) =   0
                l(3) =   1
                l(4) =   1
     Q(r) pseudized with  8 coefficients,  rinner =    0.800   0.800   0.800

     PseudoPot. # 3 for C  read from file:
     /storage/coda1/p-amedford6/0/shared/rich_project_chbe-medford/medford-share/data/pseudos_module/espresso/nninc/pbe/van/C.UPF
     MD5 check sum: 1a69bf6b8db32088f5b2163dbdb77a27
     Pseudo is Ultrasoft, Zval =  4.0
     Generated by new atomic code, or converted to UPF format
     Using radial grid of  721 points,  4 beta functions with:
                l(1) =   0
                l(2) =   0
                l(3) =   1
                l(4) =   1
     Q(r) pseudized with  8 coefficients,  rinner =    0.800   0.800   0.800

     PseudoPot. # 4 for H  read from file:
     /storage/coda1/p-amedford6/0/shared/rich_project_chbe-medford/medford-share/data/pseudos_module/espresso/nninc/pbe/van/H.UPF
     MD5 check sum: b5ee9d7bfd3a09ee7748110bda690ff7
     Pseudo is Ultrasoft, Zval =  1.0
     Generated by new atomic code, or converted to UPF format
     Using radial grid of  615 points,  1 beta functions with:
                l(1) =   0
     Q(r) pseudized with  8 coefficients,  rinner =    0.800

     PseudoPot. # 5 for N  read from file:
     /storage/coda1/p-amedford6/0/shared/rich_project_chbe-medford/medford-share/data/pseudos_module/espresso/nninc/pbe/van/N.UPF
     MD5 check sum: 90d10febe142ad51ac9d5be1deb811c4
     Pseudo is Ultrasoft, Zval =  5.0
     Generated by new atomic code, or converted to UPF format
     Using radial grid of  729 points,  4 beta functions with:
                l(1) =   0
                l(2) =   0
                l(3) =   1
                l(4) =   1
     Q(r) pseudized with  8 coefficients,  rinner =    0.800   0.800   0.800

     atomic species   valence    mass     pseudopotential
        Ti1           12.00    47.86700     Ti( 1.00)
        O1             6.00    15.99900     O ( 1.00)
        C1             4.00    12.01100     C ( 1.00)
        H1             1.00     1.00800     H ( 1.00)
        N1             5.00    14.00700     N ( 1.00)

     No symmetry found

   Cartesian axes

     site n.     atom                  positions (alat units)
         1           Ti1 tau(   1) = (   0.0004258   2.9801865   6.0000000  )
         2           Ti1 tau(   2) = (   3.2906075   1.4906267   6.0002472  )
         3           O1  tau(   3) = (   0.0006271   0.0005054   7.9858123  )
         4           O1  tau(   4) = (   3.2906025   0.0005020   7.3038282  )
         5           O1  tau(   5) = (   4.5942328   1.4918067   9.2879030  )
         6           O1  tau(   6) = (   1.9868534   1.4903216   9.2879459  )
         7           Ti1 tau(   7) = (   3.3211404   3.0081938   9.1556858  )
         8           Ti1 tau(   8) = (   0.0375071   1.5080972   9.2716578  )
         9           O1  tau(   9) = (   3.3277925   5.9557797  11.3694302  )
        10           O1  tau(  10) = (   0.0078976   5.9611837  10.6081260  )
        11           O1  tau(  11) = (   1.3277664   1.4864252  12.6397593  )
        12           O1  tau(  12) = (   5.3262284   1.4857564  12.6680137  )
        13           Ti1 tau(  13) = (   0.0382198   2.9867085  12.5465535  )
        14           Ti1 tau(  14) = (   3.3284736   1.4838689  12.5095855  )
        15           O1  tau(  15) = (   0.0698013   5.9529072  14.6863034  )
        16           O1  tau(  16) = (   3.3155098   5.9507563  14.0021001  )
        17           O1  tau(  17) = (   4.6216333   1.4999481  16.1676996  )
        18           O1  tau(  18) = (   2.1028183   1.5030586  16.1896030  )
        19           Ti1 tau(  19) = (   3.3604961   2.9604831  15.7299238  )
        20           Ti1 tau(  20) = (   0.0595664   1.3265798  16.0016092  )
        21           O1  tau(  21) = (   3.2904802   0.0005063   4.7018136  )
        22           O1  tau(  22) = (   0.0623262   5.9524117  17.2155155  )
        23           O1  tau(  23) = (   1.3043587   1.4918075   6.0039043  )
        24           O1  tau(  24) = (   5.2767064   1.4903225   6.0039473  )
        25           Ti1 tau(  25) = (   0.0000382   5.9609847   6.0000000  )
        26           Ti1 tau(  26) = (   3.2902200   4.4714249   6.0002472  )
        27           O1  tau(  27) = (   0.0002396   2.9813036   7.9858123  )
        28           O1  tau(  28) = (   3.2902150   2.9813002   7.3038282  )
        29           O1  tau(  29) = (   4.5938453   4.4726049   9.2879030  )
        30           O1  tau(  30) = (   1.9864658   4.4711199   9.2879459  )
        31           Ti1 tau(  31) = (   3.3196244   0.0273134   9.1542523  )
        32           Ti1 tau(  32) = (   0.0371349   4.4750001   9.2683202  )
        33           O1  tau(  33) = (   3.3269250   2.9737845  11.3614682  )
        34           O1  tau(  34) = (   0.0102569   2.9799478  10.6284786  )
        35           O1  tau(  35) = (   1.3273985   4.4664108  12.6387590  )
        36           O1  tau(  36) = (   5.3255394   4.4666731  12.6678084  )
        37           Ti1 tau(  37) = (   0.0353421   0.0100523  12.4855181  )
        38           Ti1 tau(  38) = (   3.3275229   4.4611679  12.5089648  )
        39           O1  tau(  39) = (   0.0781084   2.9831843  14.8552695  )
        40           O1  tau(  40) = (   3.3245390   2.9730906  13.9466850  )
        41           O1  tau(  41) = (   4.6258727   4.4416536  16.1518815  )
        42           O1  tau(  42) = (   2.1073368   4.4232626  16.2242367  )
        43           Ti1 tau(  43) = (   3.3327466   5.9477500  15.7934189  )
        44           Ti1 tau(  44) = (   0.0181599   4.5343900  15.8803951  )
        45           O1  tau(  45) = (   3.2900926   2.9813045   4.7018136  )
        46           O1  tau(  46) = (   1.3039711   4.4726057   6.0039043  )
        47           O1  tau(  47) = (   5.2763189   4.4711207   6.0039473  )
        48           C1  tau(  48) = (   6.0691997   3.0849333  18.9277027  )
        49           O1  tau(  49) = (   0.2130057   3.0153153  17.6823395  )
        50           H1  tau(  50) = (   5.0329807   2.8589369  18.7109091  )
        51           H1  tau(  51) = (   1.1577086   3.2067366  17.8266184  )
        52           H1  tau(  52) = (   6.4674937   2.3371334  19.6221514  )
        53           H1  tau(  53) = (   6.1550233   4.0909394  19.3455689  )
        54           N1  tau(  54) = (   5.8673014   3.1443680  22.9807165  )
        55           N1  tau(  55) = (   5.1182427   3.2281067  22.1722476  )

     number of k points=    10  Fermi-Dirac smearing, width (Ry)=  0.0073
                       cart. coord. in units 2pi/alat
        k(    1) = (   0.0000000   0.0000000   0.0000000), wk =   0.1250000
        k(    2) = (   0.0000000   0.0419351   0.0000000), wk =   0.2500000
        k(    3) = (   0.0000000  -0.0838702   0.0000000), wk =   0.1250000
        k(    4) = (   0.0379955   0.0000049   0.0000000), wk =   0.2500000
        k(    5) = (   0.0379955   0.0419400   0.0000000), wk =   0.2500000
        k(    6) = (   0.0379955  -0.0838652   0.0000000), wk =   0.2500000
        k(    7) = (   0.0379955  -0.0419301   0.0000000), wk =   0.2500000
        k(    8) = (  -0.0759910  -0.0000099   0.0000000), wk =   0.1250000
        k(    9) = (  -0.0759910   0.0419252   0.0000000), wk =   0.2500000
        k(   10) = (  -0.0759910  -0.0838800   0.0000000), wk =   0.1250000

     Initial potential from superposition of free atoms

     starting charge  385.99915, renormalised to  402.00000

     negative rho (up, down):  9.333E-03 0.000E+00

     %%%%%%%%%%%%%%%%%%%%%%%%%%%%%%%%%%%%%%%%%%%%%%%%%%%%%%%%%%%%%%%%%%%%%%%%
     %                                                                      %
     % You are using vdW-DF, which was implemented by the Thonhauser group. %
     % Please cite the following two papers that made this development      %
     % possible and the two reviews that describe the various versions:     %
     %                                                                      %
     %   T. Thonhauser et al., PRL 115, 136402 (2015).                      %
     %   T. Thonhauser et al., PRB 76, 125112 (2007).                       %
     %   K. Berland et al., Rep. Prog. Phys. 78, 066501 (2015).             %
     %   D.C. Langreth et al., J. Phys.: Condens. Matter 21, 084203 (2009). %
     %                                                                      %
     %                                                                      %
     % If you are calculating the stress with vdW-DF, please also cite:     %
     %                                                                      %
     %   R. Sabatini et al., J. Phys.: Condens. Matter 24, 424209 (2012).   %
     %                                                                      %
     %%%%%%%%%%%%%%%%%%%%%%%%%%%%%%%%%%%%%%%%%%%%%%%%%%%%%%%%%%%%%%%%%%%%%%%%

     Adding external electric field

     Computed dipole along edir(3) :
        Dipole              -16.1697 Ry au,        -41.0993 Debye
        Dipole field         -0.0305 Ry au,

        Potential amp.        2.8286 Ry
        Total length         46.3494 bohr

     Starting wfcs are  304 atomic wfcs
  @ DRIVER MODE: Message from server: STATUS
  @ DRIVER MODE: Message from server: POSDATA
  @ DRIVER MODE: Reading and sharing cell
  @ DRIVER MODE: Reading and sharing positions
  @ DRIVER MODE: Received positions

     Self-consistent Calculation

     iteration #  1     ecut=    29.40 Ry     beta= 0.05
     Davidson diagonalization with overlap
     c_bands:  5 eigenvalues not converged
     c_bands:  2 eigenvalues not converged
     c_bands:  1 eigenvalues not converged
     c_bands:  4 eigenvalues not converged
     c_bands:  5 eigenvalues not converged
     c_bands:  1 eigenvalues not converged
     ethr =  1.00E-05,  avg # of iterations = 22.9

[...]

     total energy              =   -2354.23351376 Ry
     estimated scf accuracy    <    7139.89613847 Ry

     iteration #  2     ecut=    29.40 Ry     beta= 0.05
     Davidson diagonalization with overlap
     ethr =  1.00E-02,  avg # of iterations = 23.0

[...]

     iteration # 74     ecut=    29.40 Ry     beta= 0.05
     Davidson diagonalization with overlap
     c_bands:  1 eigenvalues not converged
     ethr =  4.10E-11,  avg # of iterations = 11.4

[...]

     total energy              =   -2972.82585636 Ry
     estimated scf accuracy    <       0.00000007 Ry

     iteration # 77     ecut=    29.40 Ry     beta= 0.05
     Davidson diagonalization with overlap
     ethr =  1.86E-11,  avg # of iterations = 15.1

     negative rho (up, down):  1.104E-02 0.000E+00

     Adding external electric field

     Computed dipole along edir(3) :
        Dipole                1.2251 Ry au,          3.1138 Debye
        Dipole field          0.0023 Ry au,

        Potential amp.       -0.2143 Ry
        Total length         46.3494 bohr

     End of self-consistent calculation

          k = 0.0000 0.0000 0.0000 ( 18029 PWs)   bands (ev):

   -55.0648 -55.0346 -55.0286 -55.0002 -54.9576 -54.9548 -54.9519 -54.9080
   -54.8987 -54.8956 -54.8644 -54.8485 -54.8482 -54.8143 -54.1262 -54.0921
   -31.6387 -31.5707 -31.5300 -31.4384 -31.3911 -31.3756 -31.3641 -31.3576
   -31.3228 -31.3199 -31.2772 -31.2755 -31.2716 -31.2610 -31.2418 -31.2208
   -31.2171 -31.1993 -31.1936 -31.1880 -31.1866 -31.1781 -31.1552 -31.1509
   -31.1495 -31.1299 -31.1271 -31.1211 -31.0912 -31.0903 -31.0750 -31.0544
   -31.0541 -31.0520 -31.0396 -31.0312 -31.0217 -31.0038 -30.9993 -30.9834
   -30.9776 -30.9587 -30.5383 -30.4354 -30.4139 -30.3546 -30.2682 -30.1572
   -21.7491 -19.9106 -15.9033 -15.6414 -15.5026 -15.3975 -15.2841 -15.1487
   -15.1347 -15.0084 -14.8752 -14.8087 -14.7852 -14.7537 -14.7348 -14.7109
   -14.6979 -14.6873 -14.6210 -14.5937 -14.5720 -14.5538 -14.5426 -14.5083
   -14.4872 -14.4529 -14.4451 -14.2993 -14.2253 -14.1658 -13.9088 -12.6267
   -12.5073 -10.8001  -6.9763  -6.6034  -4.9171  -4.8931  -4.8313  -4.6100
    -3.6512  -3.2385  -3.0744  -3.0049  -2.9949  -2.9863  -2.8359  -2.6987
    -2.6888  -2.4809  -2.3563  -2.3263  -2.3013  -2.2785  -2.2351  -2.1208
    -2.0339  -2.0144  -2.0005  -1.9571  -1.9516  -1.9348  -1.8740  -1.8563
    -1.8310  -1.8274  -1.6694  -1.5996  -1.5482  -1.5255  -1.4952  -1.4609
    -1.4052  -1.3880  -1.3836  -1.3433  -1.3417  -1.3121  -1.2950  -1.2731
    -1.0979  -1.0464  -1.0184  -0.9236  -0.8431  -0.7295  -0.6451  -0.6322
    -0.6221  -0.5709  -0.5132  -0.4927  -0.4713  -0.4286  -0.3092  -0.2361
    -0.1882  -0.1341  -0.0668  -0.0530   0.0024   0.1339   0.1445   0.1616
     0.1723   0.2792   0.3601   0.3705   0.4279   0.4763   0.4920   0.5714
     0.6006   0.6627   0.6879   0.7459   0.7606   0.8500   0.8656   0.8816
     0.9043   0.9241   1.0124   1.0485   1.0894   1.0917   1.2528   1.3931
     1.4945   1.5151   1.7872   1.8835   1.8997   2.0595   2.4868   2.5422
     4.0301   4.0957   4.1426   4.1544   4.1656   4.2393   4.5217   4.5293
     4.5366   4.5509   4.5631

[...]

          k = 0.0380-0.0419 0.0000 ( 17876 PWs)   bands (ev):

[...]

          k =-0.0760-0.0000 0.0000 ( 17886 PWs)   bands (ev):

[...]

          k =-0.0760-0.0839 0.0000 ( 17948 PWs)   bands (ev):

   -55.0475 -55.0457 -55.0192 -55.0154 -54.9514 -54.9493 -54.9474 -54.9154
   -54.9014 -54.8829 -54.8798 -54.8512 -54.8323 -54.8303 -54.1091 -54.1090
   -31.4890 -31.4430 -31.4398 -31.3668 -31.3467 -31.3432 -31.3277 -31.3119
   -31.3044 -31.2843 -31.2695 -31.2653 -31.2608 -31.2384 -31.2159 -31.2059
   -31.2012 -31.1995 -31.1927 -31.1887 -31.1870 -31.1849 -31.1762 -31.1486
   -31.1450 -31.1428 -31.1421 -31.1388 -31.1363 -31.1353 -31.1334 -31.1147
   -31.1060 -31.0972 -31.0939 -31.0822 -31.0818 -31.0568 -31.0552 -31.0384
   -31.0186 -31.0156 -30.4264 -30.4264 -30.3510 -30.3509 -30.3114 -30.3114
   -21.7490 -19.9071 -15.4277 -15.3418 -15.2639 -15.0788 -15.0680 -15.0603
   -15.0493 -14.9351 -14.9121 -14.8815 -14.8405 -14.8263 -14.8235 -14.8032
   -14.7937 -14.6619 -14.6569 -14.6557 -14.6471 -14.5832 -14.5804 -14.5637
   -14.5465 -14.5086 -14.5071 -14.4908 -14.4877 -14.3637 -14.2360 -12.6087
   -12.6078 -10.8016  -6.9765  -6.6041  -4.9167  -4.8999  -4.8230  -4.5989
    -3.6419  -2.6667  -2.6168  -2.5319  -2.5260  -2.2877  -2.2839  -2.2413
    -2.1809  -2.1310  -2.0790  -2.0554  -2.0521  -1.9772  -1.9728  -1.9710
    -1.9622  -1.9256  -1.9218  -1.8825  -1.8583  -1.8326  -1.7813  -1.7697
    -1.7584  -1.7334  -1.7304  -1.7208  -1.6938  -1.6887  -1.6716  -1.5945
    -1.5168  -1.4405  -1.4298  -1.3873  -1.2920  -1.2792  -1.2061  -1.1986
    -1.1539  -1.1372  -1.1046  -1.0390  -1.0055  -0.9014  -0.8612  -0.8558
    -0.7968  -0.7393  -0.6936  -0.6581  -0.6121  -0.5580  -0.5302  -0.4840
    -0.4165  -0.3695  -0.2818  -0.2722  -0.2309  -0.0940  -0.0892  -0.0649
    -0.0559  -0.0527   0.0354   0.0517   0.0943   0.1391   0.1911   0.2161
     0.2265   0.4274   0.4346   0.5164   0.6128   0.6284   0.7848   0.7997
     0.8641   0.9310   0.9788   1.0098   1.0786   1.1841   1.2066   1.2333
     1.3215   1.3616   1.3703   1.4034   2.2517   2.2525   2.3557   2.3590
     4.1772   4.2479   4.2805   4.3533   4.4152   4.5391   4.5522   4.5653
     4.5832   4.5897   4.6706

     the Fermi energy is     4.0875 ev

!    total energy              =   -2972.82586826 Ry
     estimated scf accuracy    <       0.00000005 Ry
     smearing contrib. (-TS)   =      -0.03695373 Ry
     internal energy E=F+TS    =   -2972.78891453 Ry

     The total energy is F=E-TS. E is the sum of the following terms:
     one-electron contribution =  -22556.86840559 Ry
     hartree contribution      =   11374.33328806 Ry
     xc contribution           =    -493.19708422 Ry
     ewald contribution        =    8702.94045496 Ry
     electric field correction =       0.00283224 Ry

     convergence has been achieved in  77 iterations

     Forces acting on atoms (cartesian axes, Ry/au):

     atom    1 type  1   force =    -0.00032711    0.00005070    0.09316656
     atom    2 type  1   force =    -0.00037186    0.00058080   -0.18337685
     atom    3 type  2   force =     0.00046803    0.00012004   -0.02306950
     atom    4 type  2   force =     0.00093559    0.00041426    0.05023377
     atom    5 type  2   force =    -0.01320281   -0.00007821    0.00385401
     atom    6 type  2   force =     0.01622583   -0.00067764    0.00559286
     atom    7 type  1   force =    -0.00089517   -0.00024014   -0.00005473
     atom    8 type  1   force =     0.00040977    0.00011844   -0.00018102
     atom    9 type  2   force =    -0.00024292    0.00009714    0.00022073
     atom   10 type  2   force =    -0.00015908    0.00005572    0.00025793
     atom   11 type  2   force =    -0.00041947    0.00000519    0.00032801
     atom   12 type  2   force =    -0.00023420    0.00008732   -0.00005063
     atom   13 type  1   force =     0.00038117    0.00052492   -0.00040990
     atom   14 type  1   force =    -0.00044033   -0.00014484   -0.00038380
     atom   15 type  2   force =    -0.00035683    0.00023806   -0.00002017
     atom   16 type  2   force =     0.00023846    0.00002088    0.00005744
     atom   17 type  2   force =    -0.00032685    0.00005925    0.00011328
     atom   18 type  2   force =    -0.00044103    0.00011340   -0.00001868
     atom   19 type  1   force =     0.00027239    0.00041765   -0.00012346
     atom   20 type  1   force =    -0.00047872   -0.00004070   -0.00003043
     atom   21 type  2   force =    -0.00004355    0.00010585    0.10493766
     atom   22 type  2   force =    -0.00001650    0.00000341    0.00058219
     atom   23 type  2   force =    -0.06787699    0.00007978   -0.02684180
     atom   24 type  2   force =     0.06766108    0.00050804   -0.02689327
     atom   25 type  1   force =    -0.00039170    0.00016215    0.09700702
     atom   26 type  1   force =    -0.00028346   -0.00022798   -0.18347974
     atom   27 type  2   force =     0.00042047    0.00018092   -0.02185974
     atom   28 type  2   force =     0.00096620    0.00038823    0.04999526
     atom   29 type  2   force =    -0.01321614    0.00022352    0.00390812
     atom   30 type  2   force =     0.01630022   -0.00018673    0.00560138
     atom   31 type  1   force =    -0.00095515   -0.00012379    0.00004318
     atom   32 type  1   force =     0.00041232   -0.00009120   -0.00004063
     atom   33 type  2   force =    -0.00009997    0.00000812   -0.00000303
     atom   34 type  2   force =    -0.00016368   -0.00003726    0.00015954
     atom   35 type  2   force =    -0.00042633    0.00003440    0.00033053
     atom   36 type  2   force =    -0.00016586    0.00005112   -0.00004967
     atom   37 type  1   force =     0.00029906   -0.00074756    0.00018557
     atom   38 type  1   force =    -0.00049085    0.00036327   -0.00003598
     atom   39 type  2   force =    -0.00038864   -0.00015489    0.00017235
     atom   40 type  2   force =    -0.00013228   -0.00008669    0.00008169
     atom   41 type  2   force =    -0.00046434   -0.00019899    0.00003448
     atom   42 type  2   force =    -0.00022678   -0.00019461   -0.00023967
     atom   43 type  1   force =     0.00028141   -0.00038850    0.00025044
     atom   44 type  1   force =    -0.00026864   -0.00001745   -0.00060549
     atom   45 type  2   force =    -0.00004493    0.00012810    0.10495019
     atom   46 type  2   force =    -0.06785883   -0.00052507   -0.02684243
     atom   47 type  2   force =     0.06763839   -0.00005653   -0.02691738
     atom   48 type  3   force =     0.00286499   -0.00003262    0.01652844
     atom   49 type  2   force =     0.00187080   -0.00033382   -0.00637381
     atom   50 type  4   force =    -0.00232726   -0.00063177   -0.00261962
     atom   51 type  4   force =     0.00002964   -0.00035769    0.00022054
     atom   52 type  4   force =    -0.00247002    0.00378771   -0.00544985
     atom   53 type  4   force =    -0.00089384   -0.00320689   -0.00317836
     atom   54 type  5   force =    -0.00047942   -0.00003518   -0.00016656
     atom   55 type  5   force =    -0.00009425   -0.00011167    0.00050301

     Total force =     0.368903     Total SCF correction =     0.000489
  @ DRIVER MODE: Message from server: STATUS
  @ DRIVER MODE: Message from server: GETFORCE
  @ DRIVER MODE: Returning v,forces,stress,ensemble

     Writing output data file ./calc.save/
  @ DRIVER MODE: Message from server: EXIT
  @ DRIVE MODE: Exiting

     General routines

     Parallel routines

   This run was terminated on:  11:22:13  21Sep2021

   JOB DONE.