     Program PWSCF v.6.7GPU starts on 26Sep2021 at 17:46:57

     R & G space division:  proc/nbgrp/npool/nimage =       8
     Reading input from /storage/home/hcoda1/3/ntian30/research/carbon/CxH_vib/H2O_calc/ads_slab/CH3ON2H2O_a/out_0054/pw.inp
Warning: card &CELL ignored
Warning: card   CELL_DYNAMICS='IPI', ignored
Warning: card / ignored

     Current dimensions of program PWSCF are:
     Max number of different atomic species (ntypx) = 10
     Max number of k-points (npk) =  40000
     Max angular momentum in pseudopotentials (lmaxx) =  3
     Presently no symmetry can be used with electric field

     Message from routine cell_base_init:
     DEPRECATED: use true lattice parameter, not A to a.u. conversion factor

     IMPORTANT: XC functional enforced from input :
     Exchange-correlation= BEEF-VDW
                           (   1   4  43  14   2   0   0)
     Any further DFT definition will be discarded
     Please, verify this is what you really want

  @ DRIVER MODE: Connecting to
 qe_1139763_2971672.sched-torque.pace.gatech.eduu5j0dvtj_scratch
  using UNIX socket
  @ DRIVER MODE: Message from server: STATUS
  @ DRIVER MODE: Message from server: INIT
  @ DRIVER MODE: Receiving replica           0          -1
  @ DRIVER MODE: Receiving encoded integer          25
  @ DRIVER MODE:  SCF:  T  FORCE:  T  STRESS:  F  VC:  F  ENSEMBLE:  F
  @ DRIVER MODE:  SCF:  T  FORCE:  T  STRESS:  F  VC:  F  ENSEMBLE:  F

     Using Slab Decomposition

     bravais-lattice index     =            0
     lattice parameter (alat)  =       1.8897  a.u.
     unit-cell volume          =    6658.9804 (a.u.)^3
     number of atoms/cell      =           57
     number of atomic types    =            5
     number of electrons       =       409.00
     number of Kohn-Sham states=          214
     kinetic-energy cutoff     =      29.3995  Ry
     charge density cutoff     =     293.9946  Ry
     scf convergence threshold =      7.3E-08
     mixing beta               =       0.0500
     number of iterations used =            8  plain     mixing
     Exchange-correlation= BEEF-VDW
                           (   1   4  43  14   2   0   0)

     celldm(1)=   1.889726  celldm(2)=   0.000000  celldm(3)=   0.000000
     celldm(4)=   0.000000  celldm(5)=   0.000000  celldm(6)=   0.000000

     crystal axes: (cart. coord. in units of alat)
               a(1) = (   6.579727   0.000000   0.000000 )
               a(2) = (  -0.000775   5.961596   0.000000 )
               a(3) = (   0.000000   0.000000  25.155947 )

     reciprocal axes: (cart. coord. in units 2 pi/alat)
               b(1) = (  0.151982  0.000020  0.000000 )
               b(2) = (  0.000000  0.167740  0.000000 )
               b(3) = (  0.000000  0.000000  0.039752 )

     PseudoPot. # 1 for Ti read from file:
     /storage/coda1/p-amedford6/0/shared/rich_project_chbe-medford/medford-share/data/pseudos_module/espresso/nninc/pbe/van/Ti.UPF
     MD5 check sum: 8e4df49b7f0d34bbd5052bf3f5ea0213
     Pseudo is Ultrasoft, Zval = 12.0
     Generated by new atomic code, or converted to UPF format
     Using radial grid of  851 points,  6 beta functions with:
                l(1) =   0
                l(2) =   0
                l(3) =   1
                l(4) =   1
                l(5) =   2
                l(6) =   2
     Q(r) pseudized with  8 coefficients,  rinner =    1.000   1.000   1.000
                                                       1.000   1.000

     PseudoPot. # 2 for O  read from file:
     /storage/coda1/p-amedford6/0/shared/rich_project_chbe-medford/medford-share/data/pseudos_module/espresso/nninc/pbe/van/O.UPF
     MD5 check sum: 78c19812648e8988a0fe644b0f25305e
     Pseudo is Ultrasoft, Zval =  6.0
     Generated by new atomic code, or converted to UPF format
     Using radial grid of  737 points,  4 beta functions with:
                l(1) =   0
                l(2) =   0
                l(3) =   1
                l(4) =   1
     Q(r) pseudized with  8 coefficients,  rinner =    0.800   0.800   0.800

     PseudoPot. # 3 for C  read from file:
     /storage/coda1/p-amedford6/0/shared/rich_project_chbe-medford/medford-share/data/pseudos_module/espresso/nninc/pbe/van/C.UPF
     MD5 check sum: 1a69bf6b8db32088f5b2163dbdb77a27
     Pseudo is Ultrasoft, Zval =  4.0
     Generated by new atomic code, or converted to UPF format
     Using radial grid of  721 points,  4 beta functions with:
                l(1) =   0
                l(2) =   0
                l(3) =   1
                l(4) =   1
     Q(r) pseudized with  8 coefficients,  rinner =    0.800   0.800   0.800

     PseudoPot. # 4 for H  read from file:
     /storage/coda1/p-amedford6/0/shared/rich_project_chbe-medford/medford-share/data/pseudos_module/espresso/nninc/pbe/van/H.UPF
     MD5 check sum: b5ee9d7bfd3a09ee7748110bda690ff7
     Pseudo is Ultrasoft, Zval =  1.0
     Generated by new atomic code, or converted to UPF format
     Using radial grid of  615 points,  1 beta functions with:
                l(1) =   0
     Q(r) pseudized with  8 coefficients,  rinner =    0.800

     PseudoPot. # 5 for N  read from file:
     /storage/coda1/p-amedford6/0/shared/rich_project_chbe-medford/medford-share/data/pseudos_module/espresso/nninc/pbe/van/N.UPF
     MD5 check sum: 90d10febe142ad51ac9d5be1deb811c4
     Pseudo is Ultrasoft, Zval =  5.0
     Generated by new atomic code, or converted to UPF format
     Using radial grid of  729 points,  4 beta functions with:
                l(1) =   0
                l(2) =   0
                l(3) =   1
                l(4) =   1
     Q(r) pseudized with  8 coefficients,  rinner =    0.800   0.800   0.800

     atomic species   valence    mass     pseudopotential
        Ti1           12.00    47.86700     Ti( 1.00)
        O1             6.00    15.99900     O ( 1.00)
        C1             4.00    12.01100     C ( 1.00)
        H1             1.00     1.00800     H ( 1.00)
        N1             5.00    14.00700     N ( 1.00)

     No symmetry found

   Cartesian axes

     site n.     atom                  positions (alat units)
         1           Ti1 tau(   1) = (   0.0004258   2.9801865   6.0000000  )
         2           Ti1 tau(   2) = (   3.2906075   1.4906267   6.0002472  )
         3           O1  tau(   3) = (   0.0006271   0.0005054   7.9858123  )
         4           O1  tau(   4) = (   3.2906025   0.0005020   7.3038282  )
         5           O1  tau(   5) = (   4.5942328   1.4918067   9.2879030  )
         6           O1  tau(   6) = (   1.9868534   1.4903216   9.2879459  )
         7           Ti1 tau(   7) = (   3.3113259   3.0354369   9.1618307  )
         8           Ti1 tau(   8) = (   0.0141821   1.6139659   9.3625064  )
         9           O1  tau(   9) = (   3.2964399   0.0287090  11.3517035  )
        10           O1  tau(  10) = (   0.0046459   0.0167322  10.6079620  )
        11           O1  tau(  11) = (   1.2916403   1.5142126  12.6509924  )
        12           O1  tau(  12) = (   5.2954765   1.5212855  12.6445515  )
        13           Ti1 tau(  13) = (   0.0303381   3.0181167  12.7741416  )
        14           Ti1 tau(  14) = (   3.3376880   1.5190318  12.5019279  )
        15           O1  tau(  15) = (   6.5702980   0.0162101  14.7136675  )
        16           O1  tau(  16) = (   3.3118210   0.0215951  13.9605728  )
        17           O1  tau(  17) = (   4.5586303   1.5408398  16.0643691  )
        18           O1  tau(  18) = (   2.0376984   1.5397913  16.0346728  )
        19           Ti1 tau(  19) = (   3.2806018   3.0126274  15.6982083  )
        20           Ti1 tau(  20) = (   0.0204579   1.3876160  16.0921805  )
        21           O1  tau(  21) = (   3.2904802   0.0005063   4.7018136  )
        22           O1  tau(  22) = (   0.0362274   0.0182013  17.2505027  )
        23           O1  tau(  23) = (   1.3043587   1.4918075   6.0039043  )
        24           O1  tau(  24) = (   5.2767064   1.4903225   6.0039473  )
        25           Ti1 tau(  25) = (   0.0000382   5.9609847   6.0000000  )
        26           Ti1 tau(  26) = (   3.2902200   4.4714249   6.0002472  )
        27           O1  tau(  27) = (   0.0002396   2.9813036   7.9858123  )
        28           O1  tau(  28) = (   3.2902150   2.9813002   7.3038282  )
        29           O1  tau(  29) = (   4.5938453   4.4726049   9.2879030  )
        30           O1  tau(  30) = (   1.9864658   4.4711199   9.2879459  )
        31           Ti1 tau(  31) = (   3.2918133   0.0584897   9.1554610  )
        32           Ti1 tau(  32) = (   0.0176696   4.5429683   9.2683582  )
        33           O1  tau(  33) = (   3.2944385   3.0046939  11.3531965  )
        34           O1  tau(  34) = (   0.0071923   2.9964285  10.5824339  )
        35           O1  tau(  35) = (   1.2923070   4.5060354  12.6395470  )
        36           O1  tau(  36) = (   5.2930342   4.4972821  12.6335129  )
        37           Ti1 tau(  37) = (   0.0360028   0.0369787  12.5252624  )
        38           Ti1 tau(  38) = (   3.3378333   4.5109478  12.5016189  )
        39           O1  tau(  39) = (   0.0182598   3.0415135  14.6926035  )
        40           O1  tau(  40) = (   3.2973286   3.0139918  13.9115332  )
        41           O1  tau(  41) = (   4.5518717   4.4752506  16.0920674  )
        42           O1  tau(  42) = (   2.0385343   4.4722040  16.0556704  )
        43           Ti1 tau(  43) = (   3.3273276   0.0437280  15.7880462  )
        44           Ti1 tau(  44) = (   0.0148993   4.5306414  15.9319406  )
        45           O1  tau(  45) = (   3.2900926   2.9813045   4.7018136  )
        46           O1  tau(  46) = (   1.3039711   4.4726057   6.0039043  )
        47           O1  tau(  47) = (   5.2763189   4.4711207   6.0039473  )
        48           C1  tau(  48) = (   6.0619278   3.0088867  18.6555636  )
        49           O1  tau(  49) = (   6.5788924   2.9994598  17.3400993  )
        50           H1  tau(  50) = (   4.9713474   2.8828304  18.6515055  )
        51           H1  tau(  51) = (   6.4909130   2.1836263  19.2313859  )
        52           H1  tau(  52) = (   6.3070107   3.9563896  19.1453893  )
        53           N1  tau(  53) = (   5.9950546   3.0301018  22.7159517  )
        54           N1  tau(  54) = (   5.2276613   3.1827328  21.9368001  )
        55           O1  tau(  55) = (   3.1818816   0.0591848  18.2205797  )
        56           H1  tau(  56) = (   3.8437189   5.3938241  18.5618935  )
        57           H1  tau(  57) = (   2.3086839   5.6188137  18.3735615  )

     number of k points=    10  Fermi-Dirac smearing, width (Ry)=  0.0073
                       cart. coord. in units 2pi/alat
        k(    1) = (   0.0000000   0.0000000   0.0000000), wk =   0.1250000
        k(    2) = (   0.0000000   0.0419351   0.0000000), wk =   0.2500000
        k(    3) = (   0.0000000  -0.0838702   0.0000000), wk =   0.1250000
        k(    4) = (   0.0379955   0.0000049   0.0000000), wk =   0.2500000
        k(    5) = (   0.0379955   0.0419400   0.0000000), wk =   0.2500000
        k(    6) = (   0.0379955  -0.0838652   0.0000000), wk =   0.2500000
        k(    7) = (   0.0379955  -0.0419301   0.0000000), wk =   0.2500000
        k(    8) = (  -0.0759910  -0.0000099   0.0000000), wk =   0.1250000
        k(    9) = (  -0.0759910   0.0419252   0.0000000), wk =   0.2500000
        k(   10) = (  -0.0759910  -0.0838800   0.0000000), wk =   0.1250000

     Initial potential from superposition of free atoms

     starting charge  392.99914, renormalised to  409.00000

     negative rho (up, down):  9.745E-03 0.000E+00

     %%%%%%%%%%%%%%%%%%%%%%%%%%%%%%%%%%%%%%%%%%%%%%%%%%%%%%%%%%%%%%%%%%%%%%%%
     %                                                                      %
     % You are using vdW-DF, which was implemented by the Thonhauser group. %
     % Please cite the following two papers that made this development      %
     % possible and the two reviews that describe the various versions:     %
     %                                                                      %
     %   T. Thonhauser et al., PRL 115, 136402 (2015).                      %
     %   T. Thonhauser et al., PRB 76, 125112 (2007).                       %
     %   K. Berland et al., Rep. Prog. Phys. 78, 066501 (2015).             %
     %   D.C. Langreth et al., J. Phys.: Condens. Matter 21, 084203 (2009). %
     %                                                                      %
     %                                                                      %
     % If you are calculating the stress with vdW-DF, please also cite:     %
     %                                                                      %
     %   R. Sabatini et al., J. Phys.: Condens. Matter 24, 424209 (2012).   %
     %                                                                      %
     %%%%%%%%%%%%%%%%%%%%%%%%%%%%%%%%%%%%%%%%%%%%%%%%%%%%%%%%%%%%%%%%%%%%%%%%

     Adding external electric field

     Computed dipole along edir(3) :
        Dipole              -18.5723 Ry au,        -47.2060 Debye
        Dipole field         -0.0350 Ry au,

        Potential amp.        3.2489 Ry
        Total length         46.3494 bohr

     Starting wfcs are  309 atomic wfcs
  @ DRIVER MODE: Message from server: STATUS
  @ DRIVER MODE: Message from server: POSDATA
  @ DRIVER MODE: Reading and sharing cell
  @ DRIVER MODE: Reading and sharing positions
  @ DRIVER MODE: Received positions

     Self-consistent Calculation

     iteration #  1     ecut=    29.40 Ry     beta= 0.05
     Davidson diagonalization with overlap
     c_bands:  3 eigenvalues not converged
     c_bands:  2 eigenvalues not converged
     c_bands:  2 eigenvalues not converged
     c_bands:  5 eigenvalues not converged
     c_bands:  5 eigenvalues not converged
     c_bands:  5 eigenvalues not converged
     c_bands:  1 eigenvalues not converged
     c_bands:  3 eigenvalues not converged
     ethr =  1.00E-05,  avg # of iterations = 28.5

[...]

     total energy              =   -2113.12368610 Ry
     estimated scf accuracy    <   10297.66453681 Ry

     iteration #  2     ecut=    29.40 Ry     beta= 0.05
     Davidson diagonalization with overlap
     ethr =  1.00E-02,  avg # of iterations = 30.0

[...]

     iteration # 52     ecut=    29.40 Ry     beta= 0.05
     Davidson diagonalization with overlap
     c_bands:  1 eigenvalues not converged
     c_bands:  2 eigenvalues not converged
     ethr =  5.83E-07,  avg # of iterations = 16.6

[...]

     total energy              =   -3006.52130288 Ry
     estimated scf accuracy    <       0.00000015 Ry

     iteration # 79     ecut=    29.40 Ry     beta= 0.05
     Davidson diagonalization with overlap
     ethr =  3.73E-11,  avg # of iterations = 10.4

     negative rho (up, down):  1.093E-02 0.000E+00

     Adding external electric field

     Computed dipole along edir(3) :
        Dipole                1.0005 Ry au,          2.5431 Debye
        Dipole field          0.0019 Ry au,

        Potential amp.       -0.1750 Ry
        Total length         46.3494 bohr

     End of self-consistent calculation

          k = 0.0000 0.0000 0.0000 ( 18029 PWs)   bands (ev):

   -55.2829 -55.2484 -55.2469 -55.2120 -55.1896 -55.1743 -55.1664 -55.1307
   -55.0799 -55.0614 -55.0468 -55.0383 -55.0044 -54.9504 -54.2895 -54.2554
   -31.8054 -31.7520 -31.6757 -31.6434 -31.6219 -31.5747 -31.5573 -31.5539
   -31.5176 -31.5125 -31.4759 -31.4624 -31.4558 -31.4470 -31.4426 -31.4297
   -31.4240 -31.3875 -31.3822 -31.3743 -31.3704 -31.3517 -31.3476 -31.3386
   -31.3309 -31.3244 -31.3090 -31.2873 -31.2769 -31.2717 -31.2683 -31.2614
   -31.2577 -31.2426 -31.2298 -31.2198 -31.2174 -31.1829 -31.1679 -31.1474
   -31.1351 -31.1338 -30.6988 -30.6029 -30.5805 -30.5154 -30.4293 -30.3182
   -21.4302 -18.7166 -17.1970 -15.9978 -15.7271 -15.5669 -15.4359 -15.4007
   -15.2138 -15.0920 -14.9595 -14.9353 -14.8814 -14.8542 -14.8198 -14.8091
   -14.8040 -14.7920 -14.7836 -14.7372 -14.7026 -14.6850 -14.6846 -14.6612
   -14.6126 -14.5590 -14.4939 -14.4291 -14.4002 -14.3589 -14.2897 -14.2814
   -12.7903 -12.6723  -9.1237  -6.6072  -6.5032  -4.5682  -4.5575  -3.9159
    -3.7663  -3.4718  -3.3618  -3.2904  -3.2100  -3.1876  -3.1655  -3.0911
    -2.9846  -2.8431  -2.7498  -2.5087  -2.4532  -2.4104  -2.3788  -2.3499
    -2.1928  -2.1683  -2.0993  -2.0882  -2.0796  -2.0689  -2.0422  -2.0128
    -1.9872  -1.9554  -1.8962  -1.8722  -1.8016  -1.6708  -1.6620  -1.6302
    -1.5836  -1.5673  -1.5658  -1.5391  -1.4950  -1.4760  -1.4519  -1.4463
    -1.3492  -1.2556  -1.2129  -1.1202  -1.0401  -0.9673  -0.8445  -0.8061
    -0.7330  -0.6998  -0.6834  -0.6298  -0.5809  -0.5706  -0.5118  -0.4649
    -0.3573  -0.3154  -0.2727  -0.2361  -0.1844  -0.1405  -0.0700  -0.0360
    -0.0036   0.0008   0.0223   0.2204   0.2314   0.2830   0.2958   0.3928
     0.4452   0.4800   0.4929   0.5022   0.5401   0.6157   0.6713   0.6799
     0.7118   0.7474   0.7668   0.8127   0.8535   0.9061   0.9357   0.9703
     1.0371   1.0773   1.2314   1.3257   1.3702   1.4860   1.6432   1.7346
     1.8081   1.9086   2.3213   2.3786   3.8986   3.9326   3.9594   3.9776
     4.0458   4.1447   4.2613   4.3523   4.3618   4.3922

[...]

          k = 0.0380-0.0419 0.0000 ( 17876 PWs)   bands (ev):

[...]

          k =-0.0760-0.0000 0.0000 ( 17886 PWs)   bands (ev):

[...]

          k =-0.0760-0.0839 0.0000 ( 17948 PWs)   bands (ev):

   -55.2708 -55.2589 -55.2324 -55.2278 -55.1864 -55.1721 -55.1557 -55.1416
   -55.0826 -55.0583 -55.0491 -55.0236 -55.0192 -54.9531 -54.2729 -54.2718
   -31.6173 -31.6008 -31.5750 -31.5736 -31.5628 -31.5614 -31.5439 -31.5112
   -31.5043 -31.4874 -31.4842 -31.4737 -31.4385 -31.4281 -31.4079 -31.4036
   -31.3984 -31.3966 -31.3951 -31.3889 -31.3860 -31.3826 -31.3713 -31.3629
   -31.3565 -31.3480 -31.3469 -31.3455 -31.3399 -31.3147 -31.2884 -31.2758
   -31.2729 -31.2722 -31.2687 -31.2599 -31.2519 -31.2388 -31.2293 -31.2200
   -31.1784 -31.1446 -30.5939 -30.5925 -30.5122 -30.5113 -30.4728 -30.4719
   -21.4301 -18.7156 -17.1666 -15.4658 -15.3567 -15.2277 -15.1631 -15.1403
   -15.1137 -15.0607 -15.0446 -14.9887 -14.9847 -14.9341 -14.9279 -14.8846
   -14.8780 -14.8240 -14.7959 -14.7867 -14.7579 -14.7251 -14.7091 -14.7083
   -14.6681 -14.6467 -14.6380 -14.6075 -14.6003 -14.5382 -14.5012 -14.4679
   -12.7746 -12.7728  -9.1256  -6.6080  -6.4965  -4.5687  -4.5648  -3.8259
    -3.7252  -3.4979  -3.2774  -3.0086  -2.7513  -2.5688  -2.4773  -2.4083
    -2.3553  -2.3372  -2.2277  -2.2032  -2.1733  -2.1386  -2.1160  -2.1052
    -2.0877  -2.0787  -2.0716  -2.0541  -2.0207  -2.0012  -1.9747  -1.9499
    -1.9349  -1.9112  -1.8936  -1.8862  -1.8614  -1.8335  -1.8266  -1.8239
    -1.7614  -1.7216  -1.5631  -1.5178  -1.4960  -1.4069  -1.3874  -1.3709
    -1.3452  -1.3312  -1.3146  -1.1959  -1.1447  -1.1146  -1.0084  -0.9904
    -0.9643  -0.8260  -0.8024  -0.7697  -0.7417  -0.6995  -0.6299  -0.6062
    -0.5511  -0.5381  -0.4369  -0.3997  -0.3747  -0.3617  -0.2659  -0.2433
    -0.2377  -0.2121  -0.1487  -0.1171  -0.0716  -0.0416  -0.0111   0.0136
     0.0595   0.0794   0.1733   0.1935   0.2297   0.2725   0.3665   0.5327
     0.6262   0.7365   0.7621   0.8090   0.8696   0.9118   0.9615   1.0156
     1.0630   1.0699   1.1324   1.1698   1.2546   1.2685   1.2718   1.3401
     2.0959   2.0962   2.1840   2.1930   4.1399   4.1482   4.2054   4.2250
     4.3643   4.3705   4.3840   4.3916   4.4861   4.5535

     the Fermi energy is     3.8685 ev

!    total energy              =   -3006.52131643 Ry
     estimated scf accuracy    <       0.00000005 Ry
     smearing contrib. (-TS)   =      -0.02294677 Ry
     internal energy E=F+TS    =   -3006.49836966 Ry

     The total energy is F=E-TS. E is the sum of the following terms:
     one-electron contribution =  -22562.65570426 Ry
     hartree contribution      =   11380.69977077 Ry
     xc contribution           =    -501.14251995 Ry
     ewald contribution        =    8676.59819459 Ry
     electric field correction =       0.00188919 Ry

     convergence has been achieved in  79 iterations

     Forces acting on atoms (cartesian axes, Ry/au):

     atom    1 type  1   force =    -0.00014656   -0.00167681    0.10539545
     atom    2 type  1   force =    -0.00021753    0.00113753   -0.17918509
     atom    3 type  2   force =     0.00020638   -0.00552868   -0.03235630
     atom    4 type  2   force =     0.00010333    0.00071958    0.04628061
     atom    5 type  2   force =    -0.01803212    0.00052469    0.00422639
     atom    6 type  2   force =     0.01842999   -0.00044704    0.00409456
     atom    7 type  1   force =     0.00007492    0.00020094    0.00004029
     atom    8 type  1   force =     0.00007351    0.00030382   -0.00014111
     atom    9 type  2   force =     0.00017655    0.00034847   -0.00007892
     atom   10 type  2   force =     0.00017164   -0.00000210    0.00004356
     atom   11 type  2   force =     0.00006060   -0.00035133   -0.00037062
     atom   12 type  2   force =    -0.00006753   -0.00052634   -0.00050995
     atom   13 type  1   force =     0.00047533    0.00024438    0.00006219
     atom   14 type  1   force =    -0.00027129   -0.00047083   -0.00042920
     atom   15 type  2   force =     0.00005174   -0.00052881    0.00033155
     atom   16 type  2   force =    -0.00008878    0.00031205   -0.00020988
     atom   17 type  2   force =    -0.00042729   -0.00060408    0.00009146
     atom   18 type  2   force =     0.00004459   -0.00054605    0.00027905
     atom   19 type  1   force =     0.00049470   -0.00016822   -0.00007467
     atom   20 type  1   force =    -0.00012342   -0.00081167   -0.00086718
     atom   21 type  2   force =    -0.00003371    0.00009876    0.10394907
     atom   22 type  2   force =     0.00000920   -0.00050288    0.00055683
     atom   23 type  2   force =    -0.06942793    0.00052497   -0.02947957
     atom   24 type  2   force =     0.06918285    0.00098227   -0.02953473
     atom   25 type  1   force =    -0.00003587    0.00156479    0.11480258
     atom   26 type  1   force =    -0.00022333   -0.00047567   -0.17919003
     atom   27 type  2   force =     0.00021507    0.00414893   -0.02606226
     atom   28 type  2   force =     0.00042807    0.00092883    0.04806618
     atom   29 type  2   force =    -0.01630659    0.00162405    0.00383707
     atom   30 type  2   force =     0.01736088    0.00217531    0.00360686
     atom   31 type  1   force =    -0.00014559    0.00010179   -0.00024288
     atom   32 type  1   force =     0.00011214   -0.00008860    0.00024310
     atom   33 type  2   force =     0.00028672   -0.00050829    0.00018751
     atom   34 type  2   force =    -0.00004092   -0.00030230   -0.00025298
     atom   35 type  2   force =    -0.00044807   -0.00012963    0.00002259
     atom   36 type  2   force =     0.00053408    0.00002483    0.00001394
     atom   37 type  1   force =     0.00046467   -0.00073449   -0.00005328
     atom   38 type  1   force =    -0.00037305   -0.00002528   -0.00036959
     atom   39 type  2   force =    -0.00041037   -0.00050983   -0.00045925
     atom   40 type  2   force =     0.00035262   -0.00041361   -0.00026729
     atom   41 type  2   force =    -0.00016019   -0.00009163   -0.00005751
     atom   42 type  2   force =    -0.00035568   -0.00019703    0.00006872
     atom   43 type  1   force =     0.00044820   -0.00009750    0.00150114
     atom   44 type  1   force =    -0.00005441   -0.00029718   -0.00079613
     atom   45 type  2   force =    -0.00003685    0.00007973    0.10398953
     atom   46 type  2   force =    -0.06903808   -0.00107435   -0.02953526
     atom   47 type  2   force =     0.06885289   -0.00063039   -0.02961313
     atom   48 type  3   force =    -0.00021258    0.00000353    0.00022237
     atom   49 type  2   force =    -0.00001510    0.00025498   -0.00069632
     atom   50 type  4   force =    -0.00044160   -0.00005386    0.00002451
     atom   51 type  4   force =     0.00030374   -0.00028403    0.00015749
     atom   52 type  4   force =    -0.00003567    0.00038305   -0.00042296
     atom   53 type  5   force =    -0.00111043   -0.00017562   -0.00115428
     atom   54 type  5   force =     0.00054217    0.00037616    0.00083020
     atom   55 type  2   force =     0.00506543   -0.00440932    0.00314934
     atom   56 type  4   force =    -0.00579048    0.00449725   -0.00340647
     atom   57 type  4   force =    -0.00045095    0.00110275   -0.00025729

     Total force =     0.374709     Total SCF correction =     0.000848
  @ DRIVER MODE: Message from server: STATUS
  @ DRIVER MODE: Message from server: GETFORCE
  @ DRIVER MODE: Returning v,forces,stress,ensemble

     Writing output data file ./calc.save/
  @ DRIVER MODE: Message from server: EXIT
  @ DRIVE MODE: Exiting

     General routines

     Parallel routines

   This run was terminated on:  18:19:27  26Sep2021

   JOB DONE.