     Program PWSCF v.6.7GPU starts on 25Sep2021 at 14: 7:27

     R & G space division:  proc/nbgrp/npool/nimage =       8
     Reading input from /storage/home/hcoda1/3/ntian30/research/carbon/CxH_vib/H2O_calc/ads_slab/CH2OHN2HO_a/out_0000/pw.inp
Warning: card &CELL ignored
Warning: card   CELL_DYNAMICS='IPI', ignored
Warning: card / ignored

     Current dimensions of program PWSCF are:
     Max number of different atomic species (ntypx) = 10
     Max number of k-points (npk) =  40000
     Max angular momentum in pseudopotentials (lmaxx) =  3
     Presently no symmetry can be used with electric field

     Message from routine cell_base_init:
     DEPRECATED: use true lattice parameter, not A to a.u. conversion factor

     IMPORTANT: XC functional enforced from input :
     Exchange-correlation= BEEF-VDW
                           (   1   4  43  14   2   0   0)
     Any further DFT definition will be discarded
     Please, verify this is what you really want

  @ DRIVER MODE: Connecting to
 qe_1139763_2971670.sched-torque.pace.gatech.edut0q07iql_scratch
  using UNIX socket
  @ DRIVER MODE: Message from server: STATUS
  @ DRIVER MODE: Message from server: INIT
  @ DRIVER MODE: Receiving replica           0          -1
  @ DRIVER MODE: Receiving encoded integer          25
  @ DRIVER MODE:  SCF:  T  FORCE:  T  STRESS:  F  VC:  F  ENSEMBLE:  F
  @ DRIVER MODE:  SCF:  T  FORCE:  T  STRESS:  F  VC:  F  ENSEMBLE:  F

     Using Slab Decomposition

     bravais-lattice index     =            0
     lattice parameter (alat)  =       1.8897  a.u.
     unit-cell volume          =    6658.9804 (a.u.)^3
     number of atoms/cell      =           56
     number of atomic types    =            5
     number of electrons       =       408.00
     number of Kohn-Sham states=          214
     kinetic-energy cutoff     =      29.3995  Ry
     charge density cutoff     =     293.9946  Ry
     scf convergence threshold =      7.3E-08
     mixing beta               =       0.0500
     number of iterations used =            8  plain     mixing
     Exchange-correlation= BEEF-VDW
                           (   1   4  43  14   2   0   0)

     celldm(1)=   1.889726  celldm(2)=   0.000000  celldm(3)=   0.000000
     celldm(4)=   0.000000  celldm(5)=   0.000000  celldm(6)=   0.000000

     crystal axes: (cart. coord. in units of alat)
               a(1) = (   6.579727   0.000000   0.000000 )
               a(2) = (  -0.000775   5.961596   0.000000 )
               a(3) = (   0.000000   0.000000  25.155947 )

     reciprocal axes: (cart. coord. in units 2 pi/alat)
               b(1) = (  0.151982  0.000020  0.000000 )
               b(2) = (  0.000000  0.167740  0.000000 )
               b(3) = (  0.000000  0.000000  0.039752 )

     PseudoPot. # 1 for C  read from file:
     /storage/coda1/p-amedford6/0/shared/rich_project_chbe-medford/medford-share/data/pseudos_module/espresso/nninc/pbe/van/C.UPF
     MD5 check sum: 1a69bf6b8db32088f5b2163dbdb77a27
     Pseudo is Ultrasoft, Zval =  4.0
     Generated by new atomic code, or converted to UPF format
     Using radial grid of  721 points,  4 beta functions with:
                l(1) =   0
                l(2) =   0
                l(3) =   1
                l(4) =   1
     Q(r) pseudized with  8 coefficients,  rinner =    0.800   0.800   0.800

     PseudoPot. # 2 for H  read from file:
     /storage/coda1/p-amedford6/0/shared/rich_project_chbe-medford/medford-share/data/pseudos_module/espresso/nninc/pbe/van/H.UPF
     MD5 check sum: b5ee9d7bfd3a09ee7748110bda690ff7
     Pseudo is Ultrasoft, Zval =  1.0
     Generated by new atomic code, or converted to UPF format
     Using radial grid of  615 points,  1 beta functions with:
                l(1) =   0
     Q(r) pseudized with  8 coefficients,  rinner =    0.800

     PseudoPot. # 3 for O  read from file:
     /storage/coda1/p-amedford6/0/shared/rich_project_chbe-medford/medford-share/data/pseudos_module/espresso/nninc/pbe/van/O.UPF
     MD5 check sum: 78c19812648e8988a0fe644b0f25305e
     Pseudo is Ultrasoft, Zval =  6.0
     Generated by new atomic code, or converted to UPF format
     Using radial grid of  737 points,  4 beta functions with:
                l(1) =   0
                l(2) =   0
                l(3) =   1
                l(4) =   1
     Q(r) pseudized with  8 coefficients,  rinner =    0.800   0.800   0.800

     PseudoPot. # 4 for Ti read from file:
     /storage/coda1/p-amedford6/0/shared/rich_project_chbe-medford/medford-share/data/pseudos_module/espresso/nninc/pbe/van/Ti.UPF
     MD5 check sum: 8e4df49b7f0d34bbd5052bf3f5ea0213
     Pseudo is Ultrasoft, Zval = 12.0
     Generated by new atomic code, or converted to UPF format
     Using radial grid of  851 points,  6 beta functions with:
                l(1) =   0
                l(2) =   0
                l(3) =   1
                l(4) =   1
                l(5) =   2
                l(6) =   2
     Q(r) pseudized with  8 coefficients,  rinner =    1.000   1.000   1.000
                                                       1.000   1.000

     PseudoPot. # 5 for N  read from file:
     /storage/coda1/p-amedford6/0/shared/rich_project_chbe-medford/medford-share/data/pseudos_module/espresso/nninc/pbe/van/N.UPF
     MD5 check sum: 90d10febe142ad51ac9d5be1deb811c4
     Pseudo is Ultrasoft, Zval =  5.0
     Generated by new atomic code, or converted to UPF format
     Using radial grid of  729 points,  4 beta functions with:
                l(1) =   0
                l(2) =   0
                l(3) =   1
                l(4) =   1
     Q(r) pseudized with  8 coefficients,  rinner =    0.800   0.800   0.800

     atomic species   valence    mass     pseudopotential
        C1             4.00    12.01100     C ( 1.00)
        H1             1.00     1.00800     H ( 1.00)
        O1             6.00    15.99900     O ( 1.00)
        Ti1           12.00    47.86700     Ti( 1.00)
        N1             5.00    14.00700     N ( 1.00)

     No symmetry found

   Cartesian axes

     site n.     atom                  positions (alat units)
         1           C1  tau(   1) = (   4.4694424   3.1333252  19.5683752  )
         2           H1  tau(   2) = (   3.5225350   3.1610456  19.0510688  )
         3           H1  tau(   3) = (   5.8501665   2.9975095  17.9951248  )
         4           H1  tau(   4) = (   4.8161173   2.2403860  20.0673745  )
         5           O1  tau(   5) = (   0.0006271   0.0005054   7.9858123  )
         6           O1  tau(   6) = (   3.2906025   0.0005020   7.3038282  )
         7           O1  tau(   7) = (   4.5942328   1.4918067   9.2879030  )
         8           O1  tau(   8) = (   1.9868534   1.4903216   9.2879459  )
         9           O1  tau(   9) = (   3.2658522   0.0207364  11.3165592  )
        10           O1  tau(  10) = (   0.0022773   0.0111808  10.5833539  )
        11           O1  tau(  11) = (   1.2584498   1.5025451  12.6333345  )
        12           O1  tau(  12) = (   5.2827793   1.4879884  12.6049259  )
        13           O1  tau(  13) = (   6.5229081   0.0016576  14.6697044  )
        14           O1  tau(  14) = (   3.2671471   5.9223268  13.9212949  )
        15           O1  tau(  15) = (   4.5038562   1.5078053  16.0770842  )
        16           O1  tau(  16) = (   1.9713840   1.5400684  15.9915579  )
        17           O1  tau(  17) = (   3.2904802   0.0005063   4.7018136  )
        18           O1  tau(  18) = (   0.0083768   5.9574009  17.1899481  )
        19           O1  tau(  19) = (   1.3043587   1.4918075   6.0039043  )
        20           O1  tau(  20) = (   5.2767064   1.4903225   6.0039473  )
        21           O1  tau(  21) = (   0.0002396   2.9813036   7.9858123  )
        22           O1  tau(  22) = (   3.2902150   2.9813002   7.3038282  )
        23           O1  tau(  23) = (   4.5938453   4.4726049   9.2879030  )
        24           O1  tau(  24) = (   1.9864658   4.4711199   9.2879459  )
        25           O1  tau(  25) = (   3.2699439   2.9592623  11.2883102  )
        26           O1  tau(  26) = (   0.0014687   2.9942081  10.5424492  )
        27           O1  tau(  27) = (   1.2624719   4.4656417  12.6394791  )
        28           O1  tau(  28) = (   5.2897987   4.4902883  12.6063686  )
        29           O1  tau(  29) = (   6.5205774   2.9949485  14.6561412  )
        30           O1  tau(  30) = (   3.3050662   2.9767913  13.8748461  )
        31           O1  tau(  31) = (   4.4950179   4.4323158  16.0974573  )
        32           O1  tau(  32) = (   1.9671975   4.4064719  15.9829847  )
        33           O1  tau(  33) = (   3.2900926   2.9813045   4.7018136  )
        34           O1  tau(  34) = (   1.3039711   4.4726057   6.0039043  )
        35           O1  tau(  35) = (   5.2763189   4.4711207   6.0039473  )
        36           O1  tau(  36) = (   6.5424668   2.9800173  17.2949776  )
        37           Ti1 tau(  37) = (   0.0004258   2.9801865   6.0000000  )
        38           Ti1 tau(  38) = (   3.2906075   1.4906267   6.0002472  )
        39           Ti1 tau(  39) = (   3.3167600   3.1006338   9.2159236  )
        40           Ti1 tau(  40) = (   0.0391818   1.5627686   9.3440282  )
        41           Ti1 tau(  41) = (   6.5783755   3.0458713  12.7937554  )
        42           Ti1 tau(  42) = (   3.2318486   1.5634082  12.4209175  )
        43           Ti1 tau(  43) = (   3.2670811   2.9501284  15.6494465  )
        44           Ti1 tau(  44) = (   0.0280251   1.4030395  16.0254105  )
        45           Ti1 tau(  45) = (   0.0000382   5.9609847   6.0000000  )
        46           Ti1 tau(  46) = (   3.2902200   4.4714249   6.0002472  )
        47           Ti1 tau(  47) = (   3.3194908   0.1157174   9.1781592  )
        48           Ti1 tau(  48) = (   0.0398790   4.5135925   9.3581580  )
        49           Ti1 tau(  49) = (   6.5007586   0.0629955  12.6074658  )
        50           Ti1 tau(  50) = (   3.2510718   4.6571100  12.6672192  )
        51           Ti1 tau(  51) = (   3.3282601   5.9350673  16.2366838  )
        52           Ti1 tau(  52) = (   0.0495319   4.5308688  15.9870001  )
        53           N1  tau(  53) = (   5.2748021   5.2735043  20.4272172  )
        54           N1  tau(  54) = (   4.8779203   4.2732533  20.0576380  )
        55           O1  tau(  55) = (   3.0402417   5.9484128  18.0530970  )
        56           H1  tau(  56) = (   2.1234608   0.1014992  18.3542784  )

     number of k points=    10  Fermi-Dirac smearing, width (Ry)=  0.0073
                       cart. coord. in units 2pi/alat
        k(    1) = (   0.0000000   0.0000000   0.0000000), wk =   0.1250000
        k(    2) = (   0.0000000   0.0419351   0.0000000), wk =   0.2500000
        k(    3) = (   0.0000000  -0.0838702   0.0000000), wk =   0.1250000
        k(    4) = (   0.0379955   0.0000049   0.0000000), wk =   0.2500000
        k(    5) = (   0.0379955   0.0419400   0.0000000), wk =   0.2500000
        k(    6) = (   0.0379955  -0.0838652   0.0000000), wk =   0.2500000
        k(    7) = (   0.0379955  -0.0419301   0.0000000), wk =   0.2500000
        k(    8) = (  -0.0759910  -0.0000099   0.0000000), wk =   0.1250000
        k(    9) = (  -0.0759910   0.0419252   0.0000000), wk =   0.2500000
        k(   10) = (  -0.0759910  -0.0838800   0.0000000), wk =   0.1250000

     Initial potential from superposition of free atoms

     starting charge  391.99915, renormalised to  408.00000

     negative rho (up, down):  1.415E-02 0.000E+00

     %%%%%%%%%%%%%%%%%%%%%%%%%%%%%%%%%%%%%%%%%%%%%%%%%%%%%%%%%%%%%%%%%%%%%%%%
     %                                                                      %
     % You are using vdW-DF, which was implemented by the Thonhauser group. %
     % Please cite the following two papers that made this development      %
     % possible and the two reviews that describe the various versions:     %
     %                                                                      %
     %   T. Thonhauser et al., PRL 115, 136402 (2015).                      %
     %   T. Thonhauser et al., PRB 76, 125112 (2007).                       %
     %   K. Berland et al., Rep. Prog. Phys. 78, 066501 (2015).             %
     %   D.C. Langreth et al., J. Phys.: Condens. Matter 21, 084203 (2009). %
     %                                                                      %
     %                                                                      %
     % If you are calculating the stress with vdW-DF, please also cite:     %
     %                                                                      %
     %   R. Sabatini et al., J. Phys.: Condens. Matter 24, 424209 (2012).   %
     %                                                                      %
     %%%%%%%%%%%%%%%%%%%%%%%%%%%%%%%%%%%%%%%%%%%%%%%%%%%%%%%%%%%%%%%%%%%%%%%%

     Adding external electric field

     Computed dipole along edir(3) :
        Dipole              -15.5929 Ry au,        -39.6331 Debye
        Dipole field         -0.0294 Ry au,

        Potential amp.        2.7277 Ry
        Total length         46.3494 bohr

     Starting wfcs are  308 atomic wfcs
  @ DRIVER MODE: Message from server: STATUS
  @ DRIVER MODE: Message from server: POSDATA
  @ DRIVER MODE: Reading and sharing cell
  @ DRIVER MODE: Reading and sharing positions
  @ DRIVER MODE: Received positions

     Self-consistent Calculation

     iteration #  1     ecut=    29.40 Ry     beta= 0.05
     Davidson diagonalization with overlap
     ethr =  1.00E-02,  avg # of iterations =  5.3

[...]

     total energy              =   -2282.41932245 Ry
     estimated scf accuracy    <    8310.47718710 Ry

[...]

     iteration #  3     ecut=    29.40 Ry     beta= 0.05
     Davidson diagonalization with overlap
     c_bands:  3 eigenvalues not converged
     ethr =  1.00E-02,  avg # of iterations = 17.6

[...]

     iteration # 43     ecut=    29.40 Ry     beta= 0.05
     Davidson diagonalization with overlap
     c_bands:  1 eigenvalues not converged
     c_bands:  3 eigenvalues not converged
     c_bands:  1 eigenvalues not converged
     ethr =  1.15E-06,  avg # of iterations = 13.3

[...]

     total energy              =   -3005.15893154 Ry
     estimated scf accuracy    <       0.00000011 Ry

     iteration # 65     ecut=    29.40 Ry     beta= 0.05
     Davidson diagonalization with overlap
     ethr =  2.64E-11,  avg # of iterations =  2.0

     negative rho (up, down):  1.447E-02 0.000E+00

     Adding external electric field

     Computed dipole along edir(3) :
        Dipole                0.4963 Ry au,          1.2615 Debye
        Dipole field          0.0009 Ry au,

        Potential amp.       -0.0868 Ry
        Total length         46.3494 bohr

     End of self-consistent calculation

          k = 0.0000 0.0000 0.0000 ( 18029 PWs)   bands (ev):

   -56.1952 -56.1488 -55.6509 -55.6461 -55.6277 -55.5814 -55.5694 -55.5293
   -55.5173 -55.4892 -55.4451 -55.4026 -55.3981 -55.2752 -54.8198 -54.7859
   -32.6094 -32.4585 -32.4098 -32.3755 -32.2811 -32.2358 -32.1457 -32.0866
   -32.0770 -32.0217 -31.9546 -31.9431 -31.9411 -31.8858 -31.8853 -31.8775
   -31.8622 -31.8441 -31.8287 -31.8109 -31.8016 -31.7928 -31.7566 -31.7332
   -31.7297 -31.7122 -31.7066 -31.7028 -31.7023 -31.6940 -31.6879 -31.6797
   -31.6687 -31.6509 -31.6477 -31.6063 -31.5974 -31.5900 -31.5645 -31.5288
   -31.4885 -31.4769 -31.2146 -31.1590 -31.1347 -31.0316 -30.9467 -30.8357
   -20.6077 -16.8432 -16.4169 -16.3581 -16.2153 -15.9849 -15.8478 -15.7636
   -15.5328 -15.5163 -15.4028 -15.3946 -15.3514 -15.2394 -15.2247 -15.1881
   -15.1826 -15.1684 -15.1558 -15.1210 -15.1163 -15.1092 -15.0418 -15.0139
   -14.9864 -14.9425 -14.8874 -14.8470 -14.7776 -14.7716 -14.7278 -14.5238
   -13.7525 -13.3205 -13.2115  -6.3499  -5.3676  -4.8357  -4.2689  -4.0108
    -3.8836  -3.6676  -3.5725  -3.5639  -3.3968  -3.3715  -3.2753  -3.0557
    -2.9228  -2.8402  -2.8098  -2.7498  -2.7269  -2.6568  -2.6223  -2.6134
    -2.5729  -2.5231  -2.4714  -2.4566  -2.4437  -2.3990  -2.3871  -2.3550
    -2.3392  -2.3355  -2.2944  -2.1486  -2.1358  -2.0781  -2.0691  -2.0225
    -2.0161  -1.9878  -1.9770  -1.9313  -1.8941  -1.7547  -1.7369  -1.7231
    -1.6554  -1.4370  -1.4026  -1.3056  -1.2455  -1.2112  -1.1155  -1.1141
    -1.0823  -1.0518  -1.0033  -0.9226  -0.8894  -0.8331  -0.7876  -0.7798
    -0.7315  -0.6644  -0.6143  -0.5560  -0.5199  -0.4796  -0.4021  -0.3504
    -0.2844  -0.2653  -0.2152  -0.1765  -0.0850  -0.0513  -0.0227   0.0296
     0.0544   0.1190   0.1227   0.1634   0.1819   0.2611   0.2901   0.3078
     0.3576   0.3833   0.3989   0.4608   0.5235   0.5673   0.6122   0.7142
     0.7596   0.7841   0.8545   0.9309   1.0995   1.1987   1.2277   1.4233
     1.4554   1.7524   1.8005   1.8567   3.1029   3.2677   3.5555   3.6445
     3.6820   3.7131   3.8102   3.8404   3.9964   4.0400

[...]

          k = 0.0380-0.0419 0.0000 ( 17876 PWs)   bands (ev):

[...]

          k =-0.0760-0.0000 0.0000 ( 17886 PWs)   bands (ev):

[...]

          k =-0.0760-0.0839 0.0000 ( 17948 PWs)   bands (ev):

   -56.1880 -56.1559 -55.6491 -55.6441 -55.6223 -55.5749 -55.5746 -55.5358
   -55.5187 -55.4910 -55.4366 -55.4110 -55.3958 -55.2774 -54.8030 -54.8025
   -32.4538 -32.4399 -32.4141 -32.4125 -32.3404 -32.3132 -32.0350 -31.9529
   -31.9519 -31.9238 -31.9203 -31.8857 -31.8845 -31.8728 -31.8644 -31.8529
   -31.8432 -31.8312 -31.8171 -31.8092 -31.8027 -31.7996 -31.7911 -31.7887
   -31.7826 -31.7820 -31.7698 -31.7531 -31.7237 -31.7201 -31.7111 -31.7018
   -31.7004 -31.6758 -31.6591 -31.6488 -31.6441 -31.6251 -31.5949 -31.5890
   -31.5287 -31.4804 -31.1478 -31.1476 -31.0301 -31.0284 -30.9889 -30.9880
   -20.6070 -16.7668 -16.3920 -15.7995 -15.6697 -15.6617 -15.6610 -15.6257
   -15.5847 -15.5321 -15.5050 -15.4506 -15.3821 -15.3551 -15.3379 -15.3130
   -15.2691 -15.2372 -15.2230 -15.1498 -15.1124 -15.1005 -15.0854 -15.0745
   -15.0311 -15.0282 -15.0091 -15.0016 -14.9939 -14.9383 -14.8408 -14.6645
   -13.7597 -13.3156 -13.3146  -6.2819  -5.4107  -4.7846  -4.2396  -3.9838
    -3.4904  -3.0272  -2.9255  -2.8471  -2.8395  -2.7515  -2.7105  -2.6798
    -2.6600  -2.6417  -2.6148  -2.5655  -2.5418  -2.5061  -2.4965  -2.4952
    -2.4761  -2.4693  -2.4479  -2.4238  -2.4109  -2.3957  -2.3839  -2.3600
    -2.3479  -2.3381  -2.3201  -2.2898  -2.2472  -2.2270  -2.0489  -2.0186
    -2.0110  -2.0107  -1.9430  -1.9390  -1.8807  -1.8076  -1.7916  -1.7705
    -1.7518  -1.6384  -1.5011  -1.4536  -1.3968  -1.3756  -1.3073  -1.2552
    -1.1590  -1.1405  -1.1295  -1.1115  -1.0676  -1.0636  -0.9775  -0.9236
    -0.8804  -0.8762  -0.8550  -0.8111  -0.6924  -0.6834  -0.6453  -0.6221
    -0.6080  -0.5060  -0.4740  -0.4537  -0.4391  -0.4273  -0.3232  -0.2737
    -0.2275  -0.1797  -0.1187  -0.0605   0.0628   0.0880   0.1813   0.2120
     0.2526   0.3870   0.4125   0.4614   0.4971   0.5501   0.5882   0.6038
     0.7296   0.7857   0.8039   0.8703   0.8907   0.9295   0.9532   1.5912
     1.5973   1.6045   1.6070   1.7947   3.6452   3.6716   3.6779   3.7123
     3.8958   3.9248   4.0038   4.0275   4.0426   4.0556

     the Fermi energy is     2.5629 ev

!    total energy              =   -3005.15897305 Ry
     estimated scf accuracy    <       0.00000007 Ry
     smearing contrib. (-TS)   =      -0.00024056 Ry
     internal energy E=F+TS    =   -3005.15873249 Ry

     The total energy is F=E-TS. E is the sum of the following terms:
     one-electron contribution =  -22952.19570765 Ry
     hartree contribution      =   11572.01616678 Ry
     xc contribution           =    -500.30586364 Ry
     ewald contribution        =    8875.32620716 Ry
     electric field correction =       0.00046487 Ry

     convergence has been achieved in  65 iterations

     Forces acting on atoms (cartesian axes, Ry/au):

     atom    1 type  1   force =     0.00059922   -0.00030328    0.00017966
     atom    2 type  2   force =    -0.00021116    0.00020836   -0.00008268
     atom    3 type  2   force =    -0.00002277    0.00000958   -0.00027303
     atom    4 type  2   force =    -0.00039635   -0.00012261    0.00010575
     atom    5 type  3   force =     0.00027635   -0.00316589   -0.05388095
     atom    6 type  3   force =     0.00044448    0.00120128    0.04054996
     atom    7 type  3   force =    -0.00981222   -0.00221643    0.00042403
     atom    8 type  3   force =     0.00889008   -0.00512030   -0.00067696
     atom    9 type  3   force =     0.00010365    0.00002982    0.00000952
     atom   10 type  3   force =    -0.00010239    0.00004690    0.00001142
     atom   11 type  3   force =     0.00014423   -0.00001283   -0.00010350
     atom   12 type  3   force =     0.00001254    0.00013533    0.00001517
     atom   13 type  3   force =     0.00000608    0.00002617   -0.00003935
     atom   14 type  3   force =     0.00006488   -0.00009857    0.00035288
     atom   15 type  3   force =    -0.00004710    0.00007367    0.00012631
     atom   16 type  3   force =     0.00001007   -0.00010809    0.00000721
     atom   17 type  3   force =    -0.00007014    0.00016428    0.09942888
     atom   18 type  3   force =     0.00008257   -0.00005235    0.00007375
     atom   19 type  3   force =    -0.08023703    0.00059122   -0.03417750
     atom   20 type  3   force =     0.08000721    0.00110624   -0.03420316
     atom   21 type  3   force =     0.00051781    0.00001862   -0.05295913
     atom   22 type  3   force =     0.00038212    0.00049119    0.04230244
     atom   23 type  3   force =    -0.01094273    0.00575824    0.00233968
     atom   24 type  3   force =     0.01006713    0.00213083    0.00119602
     atom   25 type  3   force =     0.00007875    0.00000275    0.00008979
     atom   26 type  3   force =     0.00000701    0.00006529   -0.00000076
     atom   27 type  3   force =     0.00008592    0.00008580   -0.00000785
     atom   28 type  3   force =     0.00004796   -0.00001830    0.00007069
     atom   29 type  3   force =     0.00013467   -0.00013935    0.00007956
     atom   30 type  3   force =    -0.00002006   -0.00005566    0.00002892
     atom   31 type  3   force =     0.00008538   -0.00005820   -0.00004205
     atom   32 type  3   force =    -0.00000611   -0.00017275    0.00015089
     atom   33 type  3   force =    -0.00008067    0.00025299    0.09899397
     atom   34 type  3   force =    -0.08023551   -0.00145030   -0.03417868
     atom   35 type  3   force =     0.08001549   -0.00092583   -0.03422895
     atom   36 type  3   force =     0.00004491   -0.00014231    0.00004512
     atom   37 type  4   force =     0.00019830    0.00016750    0.13338547
     atom   38 type  4   force =     0.00002273    0.00799504   -0.15912583
     atom   39 type  4   force =    -0.00005944   -0.00006881   -0.00002395
     atom   40 type  4   force =    -0.00008133    0.00016223    0.00003487
     atom   41 type  4   force =    -0.00028994   -0.00002215   -0.00003998
     atom   42 type  4   force =    -0.00007359    0.00012415   -0.00006841
     atom   43 type  4   force =     0.00012741   -0.00003970    0.00002370
     atom   44 type  4   force =     0.00018740   -0.00003069   -0.00005896
     atom   45 type  4   force =    -0.00023899   -0.00008665    0.14213684
     atom   46 type  4   force =    -0.00018906   -0.00647016   -0.15858834
     atom   47 type  4   force =     0.00011110   -0.00007706    0.00001926
     atom   48 type  4   force =    -0.00014760    0.00016086    0.00012340
     atom   49 type  4   force =    -0.00012300   -0.00000806    0.00010592
     atom   50 type  4   force =    -0.00010483   -0.00006887   -0.00002162
     atom   51 type  4   force =     0.00019214    0.00006746    0.00025824
     atom   52 type  4   force =     0.00010967   -0.00006354    0.00013770
     atom   53 type  5   force =     0.00022422   -0.00003989   -0.00042526
     atom   54 type  5   force =     0.00000231    0.00013936    0.00053997
     atom   55 type  3   force =    -0.00015231    0.00033585   -0.00047221
     atom   56 type  2   force =     0.00036052   -0.00041238    0.00033214

     Total force =     0.385032     Total SCF correction =     0.000815
  @ DRIVER MODE: Message from server: STATUS
  @ DRIVER MODE: Message from server: GETFORCE
  @ DRIVER MODE: Returning v,forces,stress,ensemble

     Writing output data file ./calc.save/
  @ DRIVER MODE: Message from server: EXIT
  @ DRIVE MODE: Exiting

     General routines

     Parallel routines

   This run was terminated on:  14:38: 3  25Sep2021

   JOB DONE.