     Program PWSCF v.6.7GPU starts on 22Sep2021 at 17:33:15

     R & G space division:  proc/nbgrp/npool/nimage =      10
     Reading input from /storage/home/hcoda1/3/ntian30/research/carbon/CxH_vib/H2O_calc/ads_slab/CH2N2HHO_a/out_0003/pw.inp
Warning: card &CELL ignored
Warning: card   CELL_DYNAMICS='IPI', ignored
Warning: card / ignored

     Current dimensions of program PWSCF are:
     Max number of different atomic species (ntypx) = 10
     Max number of k-points (npk) =  40000
     Max angular momentum in pseudopotentials (lmaxx) =  3
     Presently no symmetry can be used with electric field

     Message from routine cell_base_init:
     DEPRECATED: use true lattice parameter, not A to a.u. conversion factor

     IMPORTANT: XC functional enforced from input :
     Exchange-correlation= BEEF-VDW
                           (   1   4  43  14   2   0   0)
     Any further DFT definition will be discarded
     Please, verify this is what you really want

  @ DRIVER MODE: Connecting to
 qe_1139763_2937323.sched-torque.pace.gatech.edu7ud67qhd_scratch
  using UNIX socket
  @ DRIVER MODE: Message from server: STATUS
  @ DRIVER MODE: Message from server: INIT
  @ DRIVER MODE: Receiving replica           0          -1
  @ DRIVER MODE: Receiving encoded integer          25
  @ DRIVER MODE:  SCF:  T  FORCE:  T  STRESS:  F  VC:  F  ENSEMBLE:  F
  @ DRIVER MODE:  SCF:  T  FORCE:  T  STRESS:  F  VC:  F  ENSEMBLE:  F

     Using Slab Decomposition

     bravais-lattice index     =            0
     lattice parameter (alat)  =       1.8897  a.u.
     unit-cell volume          =    6658.9804 (a.u.)^3
     number of atoms/cell      =           55
     number of atomic types    =            5
     number of electrons       =       402.00
     number of Kohn-Sham states=          211
     kinetic-energy cutoff     =      29.3995  Ry
     charge density cutoff     =     293.9946  Ry
     scf convergence threshold =      7.3E-08
     mixing beta               =       0.0500
     number of iterations used =            8  plain     mixing
     Exchange-correlation= BEEF-VDW
                           (   1   4  43  14   2   0   0)

     celldm(1)=   1.889726  celldm(2)=   0.000000  celldm(3)=   0.000000
     celldm(4)=   0.000000  celldm(5)=   0.000000  celldm(6)=   0.000000

     crystal axes: (cart. coord. in units of alat)
               a(1) = (   6.579727   0.000000   0.000000 )
               a(2) = (  -0.000775   5.961596   0.000000 )
               a(3) = (   0.000000   0.000000  25.155947 )

     reciprocal axes: (cart. coord. in units 2 pi/alat)
               b(1) = (  0.151982  0.000020  0.000000 )
               b(2) = (  0.000000  0.167740  0.000000 )
               b(3) = (  0.000000  0.000000  0.039752 )

     PseudoPot. # 1 for Ti read from file:
     /storage/coda1/p-amedford6/0/shared/rich_project_chbe-medford/medford-share/data/pseudos_module/espresso/nninc/pbe/van/Ti.UPF
     MD5 check sum: 8e4df49b7f0d34bbd5052bf3f5ea0213
     Pseudo is Ultrasoft, Zval = 12.0
     Generated by new atomic code, or converted to UPF format
     Using radial grid of  851 points,  6 beta functions with:
                l(1) =   0
                l(2) =   0
                l(3) =   1
                l(4) =   1
                l(5) =   2
                l(6) =   2
     Q(r) pseudized with  8 coefficients,  rinner =    1.000   1.000   1.000
                                                       1.000   1.000

     PseudoPot. # 2 for O  read from file:
     /storage/coda1/p-amedford6/0/shared/rich_project_chbe-medford/medford-share/data/pseudos_module/espresso/nninc/pbe/van/O.UPF
     MD5 check sum: 78c19812648e8988a0fe644b0f25305e
     Pseudo is Ultrasoft, Zval =  6.0
     Generated by new atomic code, or converted to UPF format
     Using radial grid of  737 points,  4 beta functions with:
                l(1) =   0
                l(2) =   0
                l(3) =   1
                l(4) =   1
     Q(r) pseudized with  8 coefficients,  rinner =    0.800   0.800   0.800

     PseudoPot. # 3 for N  read from file:
     /storage/coda1/p-amedford6/0/shared/rich_project_chbe-medford/medford-share/data/pseudos_module/espresso/nninc/pbe/van/N.UPF
     MD5 check sum: 90d10febe142ad51ac9d5be1deb811c4
     Pseudo is Ultrasoft, Zval =  5.0
     Generated by new atomic code, or converted to UPF format
     Using radial grid of  729 points,  4 beta functions with:
                l(1) =   0
                l(2) =   0
                l(3) =   1
                l(4) =   1
     Q(r) pseudized with  8 coefficients,  rinner =    0.800   0.800   0.800

     PseudoPot. # 4 for C  read from file:
     /storage/coda1/p-amedford6/0/shared/rich_project_chbe-medford/medford-share/data/pseudos_module/espresso/nninc/pbe/van/C.UPF
     MD5 check sum: 1a69bf6b8db32088f5b2163dbdb77a27
     Pseudo is Ultrasoft, Zval =  4.0
     Generated by new atomic code, or converted to UPF format
     Using radial grid of  721 points,  4 beta functions with:
                l(1) =   0
                l(2) =   0
                l(3) =   1
                l(4) =   1
     Q(r) pseudized with  8 coefficients,  rinner =    0.800   0.800   0.800

     PseudoPot. # 5 for H  read from file:
     /storage/coda1/p-amedford6/0/shared/rich_project_chbe-medford/medford-share/data/pseudos_module/espresso/nninc/pbe/van/H.UPF
     MD5 check sum: b5ee9d7bfd3a09ee7748110bda690ff7
     Pseudo is Ultrasoft, Zval =  1.0
     Generated by new atomic code, or converted to UPF format
     Using radial grid of  615 points,  1 beta functions with:
                l(1) =   0
     Q(r) pseudized with  8 coefficients,  rinner =    0.800

     atomic species   valence    mass     pseudopotential
        Ti1           12.00    47.86700     Ti( 1.00)
        O1             6.00    15.99900     O ( 1.00)
        N1             5.00    14.00700     N ( 1.00)
        C1             4.00    12.01100     C ( 1.00)
        H1             1.00     1.00800     H ( 1.00)

     No symmetry found

   Cartesian axes

     site n.     atom                  positions (alat units)
         1           Ti1 tau(   1) = (   0.0004258   2.9801865   6.0000000  )
         2           Ti1 tau(   2) = (   3.2906075   1.4906267   6.0002472  )
         3           O1  tau(   3) = (   0.0006271   0.0005054   7.9858123  )
         4           O1  tau(   4) = (   3.2906025   0.0005020   7.3038282  )
         5           O1  tau(   5) = (   4.5942328   1.4918067   9.2879030  )
         6           O1  tau(   6) = (   1.9868534   1.4903216   9.2879459  )
         7           Ti1 tau(   7) = (   3.2907910   2.8959150   9.1758416  )
         8           Ti1 tau(   8) = (   0.0015273   1.4827037   9.2680791  )
         9           O1  tau(   9) = (   3.3002520   5.9418316  11.2747492  )
        10           O1  tau(  10) = (   0.0116148   5.9584955  10.6183126  )
        11           O1  tau(  11) = (   1.2897458   1.4862980  12.6211975  )
        12           O1  tau(  12) = (   5.3051886   1.5023792  12.6347999  )
        13           Ti1 tau(  13) = (   0.0146078   2.8478158  12.7200684  )
        14           Ti1 tau(  14) = (   3.3063360   1.3081926  12.6482236  )
        15           O1  tau(  15) = (   0.0235978   5.9609164  14.6274833  )
        16           O1  tau(  16) = (   3.2983906   0.0399142  13.8749830  )
        17           O1  tau(  17) = (   4.5813539   1.5856785  16.0626423  )
        18           O1  tau(  18) = (   2.0324892   1.5097802  16.0098020  )
        19           Ti1 tau(  19) = (   3.2774956   2.9544257  15.6266065  )
        20           Ti1 tau(  20) = (   6.5530467   1.3151789  15.9772938  )
        21           O1  tau(  21) = (   3.2904802   0.0005063   4.7018136  )
        22           O1  tau(  22) = (   6.5059356   5.9265713  17.1294848  )
        23           O1  tau(  23) = (   1.3043587   1.4918075   6.0039043  )
        24           O1  tau(  24) = (   5.2767064   1.4903225   6.0039473  )
        25           Ti1 tau(  25) = (   0.0000382   5.9609847   6.0000000  )
        26           Ti1 tau(  26) = (   3.2902200   4.4714249   6.0002472  )
        27           O1  tau(  27) = (   0.0002396   2.9813036   7.9858123  )
        28           O1  tau(  28) = (   3.2902150   2.9813002   7.3038282  )
        29           O1  tau(  29) = (   4.5938453   4.4726049   9.2879030  )
        30           O1  tau(  30) = (   1.9864658   4.4711199   9.2879459  )
        31           Ti1 tau(  31) = (   3.2891106   5.8743827   9.1763621  )
        32           Ti1 tau(  32) = (   0.0006254   4.4649316   9.2693709  )
        33           O1  tau(  33) = (   3.2992753   3.0242338  11.2405823  )
        34           O1  tau(  34) = (   0.0092240   2.9805883  10.6323155  )
        35           O1  tau(  35) = (   1.2972400   4.4705050  12.6241655  )
        36           O1  tau(  36) = (   5.3008088   4.4694758  12.6340222  )
        37           Ti1 tau(  37) = (   0.0289225   5.8314391  12.5906285  )
        38           Ti1 tau(  38) = (   3.3189507   4.3956991  12.4097224  )
        39           O1  tau(  39) = (   0.0312427   2.9750824  14.7260556  )
        40           O1  tau(  40) = (   3.2762925   2.9668711  13.8358254  )
        41           O1  tau(  41) = (   4.5358187   4.4455929  15.9064879  )
        42           O1  tau(  42) = (   2.0572077   4.4429961  16.0439637  )
        43           Ti1 tau(  43) = (   3.2186928   5.9141907  16.2420754  )
        44           Ti1 tau(  44) = (   6.4642982   4.4840528  15.9061301  )
        45           O1  tau(  45) = (   3.2900926   2.9813045   4.7018136  )
        46           O1  tau(  46) = (   1.3039711   4.4726057   6.0039043  )
        47           O1  tau(  47) = (   5.2763189   4.4711207   6.0039473  )
        48           N1  tau(  48) = (   0.2499663   2.3319386  17.9913213  )
        49           C1  tau(  49) = (   0.6208863   1.8700663  19.1394302  )
        50           H1  tau(  50) = (   0.7431952   2.5333404  19.9929579  )
        51           H1  tau(  51) = (   0.8399735   0.8189210  19.2161768  )
        52           N1  tau(  52) = (   6.5658643   3.6116587  17.7752569  )
        53           H1  tau(  53) = (   0.1300021   4.2235620  18.5825096  )
        54           O1  tau(  54) = (   3.3713844   5.9089882  18.0735649  )
        55           H1  tau(  55) = (   4.1655974   0.3538959  18.4550359  )

     number of k points=    10  Fermi-Dirac smearing, width (Ry)=  0.0073
                       cart. coord. in units 2pi/alat
        k(    1) = (   0.0000000   0.0000000   0.0000000), wk =   0.1250000
        k(    2) = (   0.0000000   0.0419351   0.0000000), wk =   0.2500000
        k(    3) = (   0.0000000  -0.0838702   0.0000000), wk =   0.1250000
        k(    4) = (   0.0379955   0.0000049   0.0000000), wk =   0.2500000
        k(    5) = (   0.0379955   0.0419400   0.0000000), wk =   0.2500000
        k(    6) = (   0.0379955  -0.0838652   0.0000000), wk =   0.2500000
        k(    7) = (   0.0379955  -0.0419301   0.0000000), wk =   0.2500000
        k(    8) = (  -0.0759910  -0.0000099   0.0000000), wk =   0.1250000
        k(    9) = (  -0.0759910   0.0419252   0.0000000), wk =   0.2500000
        k(   10) = (  -0.0759910  -0.0838800   0.0000000), wk =   0.1250000

     Initial potential from superposition of free atoms

     starting charge  385.99915, renormalised to  402.00000

     negative rho (up, down):  1.591E-02 0.000E+00

     %%%%%%%%%%%%%%%%%%%%%%%%%%%%%%%%%%%%%%%%%%%%%%%%%%%%%%%%%%%%%%%%%%%%%%%%
     %                                                                      %
     % You are using vdW-DF, which was implemented by the Thonhauser group. %
     % Please cite the following two papers that made this development      %
     % possible and the two reviews that describe the various versions:     %
     %                                                                      %
     %   T. Thonhauser et al., PRL 115, 136402 (2015).                      %
     %   T. Thonhauser et al., PRB 76, 125112 (2007).                       %
     %   K. Berland et al., Rep. Prog. Phys. 78, 066501 (2015).             %
     %   D.C. Langreth et al., J. Phys.: Condens. Matter 21, 084203 (2009). %
     %                                                                      %
     %                                                                      %
     % If you are calculating the stress with vdW-DF, please also cite:     %
     %                                                                      %
     %   R. Sabatini et al., J. Phys.: Condens. Matter 24, 424209 (2012).   %
     %                                                                      %
     %%%%%%%%%%%%%%%%%%%%%%%%%%%%%%%%%%%%%%%%%%%%%%%%%%%%%%%%%%%%%%%%%%%%%%%%

     Adding external electric field

     Computed dipole along edir(3) :
        Dipole              -11.3527 Ry au,        -28.8557 Debye
        Dipole field         -0.0214 Ry au,

        Potential amp.        1.9860 Ry
        Total length         46.3494 bohr

     Starting wfcs are  304 atomic wfcs
  @ DRIVER MODE: Message from server: STATUS
  @ DRIVER MODE: Message from server: POSDATA
  @ DRIVER MODE: Reading and sharing cell
  @ DRIVER MODE: Reading and sharing positions
  @ DRIVER MODE: Received positions

     Self-consistent Calculation

     iteration #  1     ecut=    29.40 Ry     beta= 0.05
     Davidson diagonalization with overlap
     c_bands:  4 eigenvalues not converged
     c_bands:  3 eigenvalues not converged
     c_bands:  3 eigenvalues not converged
     c_bands:  5 eigenvalues not converged
     c_bands:  5 eigenvalues not converged
     c_bands:  1 eigenvalues not converged
     c_bands:  5 eigenvalues not converged
     c_bands:  4 eigenvalues not converged
     c_bands:  5 eigenvalues not converged
     c_bands:  1 eigenvalues not converged
     ethr =  1.00E-05,  avg # of iterations = 24.0

[...]

     total energy              =   -2410.17688788 Ry
     estimated scf accuracy    <    6308.30469001 Ry

     iteration #  2     ecut=    29.40 Ry     beta= 0.05
     Davidson diagonalization with overlap
     ethr =  1.00E-02,  avg # of iterations = 22.4

[...]

     iteration # 53     ecut=    29.40 Ry     beta= 0.05
     Davidson diagonalization with overlap
     c_bands:  1 eigenvalues not converged
     ethr =  1.70E-07,  avg # of iterations =  8.8

[...]

     total energy              =   -2972.72734438 Ry
     estimated scf accuracy    <       0.00000016 Ry

     iteration # 75     ecut=    29.40 Ry     beta= 0.05
     Davidson diagonalization with overlap
     ethr =  3.88E-11,  avg # of iterations =  5.4

     negative rho (up, down):  1.621E-02 0.000E+00

     Adding external electric field

     Computed dipole along edir(3) :
        Dipole                0.4663 Ry au,          1.1851 Debye
        Dipole field          0.0009 Ry au,

        Potential amp.       -0.0816 Ry
        Total length         46.3494 bohr

     End of self-consistent calculation

          k = 0.0000 0.0000 0.0000 ( 18029 PWs)   bands (ev):

   -56.5393 -56.5056 -55.8847 -55.8492 -55.6221 -55.5625 -55.3754 -55.3209
   -55.2939 -55.2258 -55.1921 -55.1891 -55.1552 -55.0275 -55.0249 -54.9771
   -32.9713 -32.8238 -32.7958 -32.7067 -32.6155 -32.5970 -32.3677 -32.1042
   -32.1025 -32.0751 -32.0279 -32.0242 -31.9912 -31.8647 -31.8507 -31.8429
   -31.7898 -31.7662 -31.7253 -31.7046 -31.6841 -31.6427 -31.6373 -31.5822
   -31.5794 -31.5771 -31.5728 -31.5301 -31.5295 -31.5193 -31.5059 -31.5009
   -31.4794 -31.4750 -31.4194 -31.3988 -31.3976 -31.3467 -31.3161 -31.2892
   -31.2814 -31.2744 -31.2377 -31.2344 -31.2105 -31.2043 -31.1675 -31.1480
   -17.7258 -16.7236 -16.2880 -16.1656 -15.9771 -15.9082 -15.8808 -15.8511
   -15.7864 -15.6067 -15.5330 -15.5045 -15.4997 -15.4386 -15.2708 -15.1743
   -15.1524 -15.0865 -15.0099 -14.9859 -14.9468 -14.8961 -14.8626 -14.8510
   -14.8363 -14.7981 -14.6800 -14.5975 -14.4962 -14.3183 -14.2991 -13.6866
   -13.5771 -11.9750  -7.7071  -5.1428  -4.3584  -4.2744  -3.7942  -3.7695
    -3.6043  -3.4219  -3.3694  -3.2177  -3.1621  -3.1172  -3.0598  -3.0452
    -2.9420  -2.7983  -2.7793  -2.7355  -2.7178  -2.7099  -2.6852  -2.5802
    -2.5238  -2.5157  -2.4200  -2.3255  -2.3054  -2.2678  -2.2294  -2.2198
    -2.1782  -2.1360  -2.0837  -2.0475  -2.0271  -1.9311  -1.9125  -1.8047
    -1.7851  -1.7512  -1.7410  -1.7148  -1.6770  -1.6157  -1.5377  -1.4199
    -1.3397  -1.3202  -1.2483  -1.2367  -1.2185  -1.0555  -1.0132  -1.0110
    -0.9505  -0.8754  -0.8484  -0.7883  -0.7519  -0.7053  -0.6532  -0.6165
    -0.5755  -0.4524  -0.4468  -0.3924  -0.3135  -0.2909  -0.2589  -0.2359
    -0.1563  -0.0989  -0.0627   0.0122   0.0707   0.0759   0.1235   0.1791
     0.2870   0.3309   0.3554   0.3869   0.4287   0.4506   0.5204   0.5684
     0.5989   0.6086   0.6856   0.7861   0.8034   0.8341   0.9289   0.9489
     1.0399   1.0752   1.0886   1.1617   1.1966   1.3721   1.4104   1.5850
     2.3816   2.7256   2.8758   3.1585   3.1748   3.4677   3.6884   3.7155
     3.7186   3.8009   3.9390

[...]

          k = 0.0380-0.0419 0.0000 ( 17876 PWs)   bands (ev):

[...]

          k =-0.0760-0.0000 0.0000 ( 17886 PWs)   bands (ev):

[...]

          k =-0.0760-0.0839 0.0000 ( 17948 PWs)   bands (ev):

   -56.5227 -56.5220 -55.8728 -55.8610 -55.6168 -55.5677 -55.3693 -55.3268
   -55.2919 -55.2243 -55.1939 -55.1727 -55.1715 -55.0288 -55.0177 -54.9841
   -32.8098 -32.8090 -32.7885 -32.7875 -32.6597 -32.6594 -32.1938 -32.1843
   -32.0664 -32.0535 -32.0532 -32.0453 -31.9248 -31.8860 -31.8445 -31.8379
   -31.7947 -31.7886 -31.6985 -31.6656 -31.6213 -31.6059 -31.5874 -31.5825
   -31.5676 -31.5594 -31.5428 -31.5313 -31.5194 -31.5185 -31.5157 -31.5046
   -31.4677 -31.4619 -31.4257 -31.4024 -31.3967 -31.3952 -31.3821 -31.3583
   -31.3572 -31.2938 -31.2741 -31.2517 -31.2411 -31.2357 -31.2130 -31.1696
   -17.7111 -16.1462 -16.1067 -16.1024 -16.0196 -16.0172 -15.8131 -15.8060
   -15.6239 -15.5994 -15.5236 -15.4553 -15.3483 -15.3135 -15.2909 -15.2402
   -15.1915 -15.1650 -15.1064 -15.0739 -14.9923 -14.9601 -14.9452 -14.9345
   -14.9003 -14.8463 -14.7160 -14.6828 -14.6643 -14.5808 -14.4486 -13.6811
   -13.6804 -11.9317  -7.6362  -5.2036  -4.4317  -3.7435  -3.2182  -3.1902
    -3.1421  -3.1331  -2.9339  -2.8945  -2.8687  -2.8203  -2.7809  -2.7422
    -2.7238  -2.7171  -2.6352  -2.5826  -2.5513  -2.5389  -2.5152  -2.4540
    -2.4311  -2.4046  -2.3931  -2.3579  -2.3462  -2.3357  -2.3123  -2.2465
    -2.1909  -2.1438  -2.1062  -2.0673  -2.0151  -2.0090  -1.9746  -1.9643
    -1.8815  -1.7866  -1.7543  -1.6818  -1.5999  -1.5651  -1.5391  -1.5214
    -1.4746  -1.4229  -1.3944  -1.3469  -1.3195  -1.2671  -1.2334  -1.2213
    -1.1537  -1.1164  -1.0492  -1.0261  -0.9457  -0.8360  -0.7789  -0.7577
    -0.7288  -0.7173  -0.6473  -0.5827  -0.5335  -0.5152  -0.4456  -0.4354
    -0.4094  -0.3595  -0.3448  -0.3151  -0.1975  -0.1269  -0.0757   0.0080
     0.0494   0.0873   0.1686   0.2203   0.2429   0.3208   0.3996   0.4812
     0.4979   0.5360   0.5436   0.7067   0.7424   0.8424   0.8832   0.9571
     0.9920   1.0319   1.1506   1.1912   1.2221   1.2233   1.2445   1.2631
     2.3264   3.2957   3.2983   3.3481   3.3562   3.6247   3.6331   3.7698
     3.7718   3.8932   3.9322

     the Fermi energy is     2.6039 ev

!    total energy              =   -2972.72736582 Ry
     estimated scf accuracy    <       0.00000005 Ry
     smearing contrib. (-TS)   =      -0.00738974 Ry
     internal energy E=F+TS    =   -2972.71997609 Ry

     The total energy is F=E-TS. E is the sum of the following terms:
     one-electron contribution =  -24031.72151715 Ry
     hartree contribution      =   12109.55884485 Ry
     xc contribution           =    -493.27827844 Ry
     ewald contribution        =    9442.72056439 Ry
     electric field correction =       0.00041026 Ry

     convergence has been achieved in  75 iterations

     Forces acting on atoms (cartesian axes, Ry/au):

     atom    1 type  1   force =     0.00000268   -0.00043031    0.11627992
     atom    2 type  1   force =    -0.00008168    0.00013651   -0.15935113
     atom    3 type  2   force =     0.00002497    0.00000569   -0.05268912
     atom    4 type  2   force =     0.00005202   -0.00013407    0.02458052
     atom    5 type  2   force =    -0.00348124   -0.00224523   -0.01045468
     atom    6 type  2   force =     0.00527726   -0.00174603   -0.01065331
     atom    7 type  1   force =     0.00000106   -0.00613871    0.04645189
     atom    8 type  1   force =     0.00041833    0.01612233    0.08055597
     atom    9 type  2   force =    -0.00001155   -0.00062755    0.00000722
     atom   10 type  2   force =    -0.00257517    0.00059226   -0.04993566
     atom   11 type  2   force =    -0.00055654   -0.00014363   -0.00020783
     atom   12 type  2   force =     0.00059546   -0.00028898   -0.00004918
     atom   13 type  1   force =    -0.00017938    0.00043787    0.00023828
     atom   14 type  1   force =     0.00016644    0.00011471   -0.00095083
     atom   15 type  2   force =    -0.00020171   -0.00033677   -0.00070946
     atom   16 type  2   force =     0.00012590   -0.00062333    0.00062839
     atom   17 type  2   force =     0.00000460    0.00051128    0.00006080
     atom   18 type  2   force =     0.00013392    0.00056942   -0.00030577
     atom   19 type  1   force =    -0.00052566   -0.00012008   -0.00029800
     atom   20 type  1   force =     0.00045198    0.00007193   -0.00029532
     atom   21 type  2   force =     0.00004990    0.00021770    0.09893136
     atom   22 type  2   force =    -0.00010176   -0.00148673   -0.00053239
     atom   23 type  2   force =    -0.07988154    0.00004287   -0.03166185
     atom   24 type  2   force =     0.07977880    0.00047530   -0.03172421
     atom   25 type  1   force =     0.00006726   -0.00058139    0.11657694
     atom   26 type  1   force =    -0.00011567   -0.00143280   -0.15987364
     atom   27 type  2   force =     0.00007108   -0.00069889   -0.05069850
     atom   28 type  2   force =     0.00005457    0.00167133    0.02011691
     atom   29 type  2   force =    -0.00168118    0.00505410   -0.01374360
     atom   30 type  2   force =     0.00359489    0.00547618   -0.01387442
     atom   31 type  1   force =    -0.00016579    0.00219634    0.03192490
     atom   32 type  1   force =     0.00031857   -0.01972923    0.08020819
     atom   33 type  2   force =     0.00014211   -0.00038329    0.00001488
     atom   34 type  2   force =    -0.00158577    0.00085767   -0.06346162
     atom   35 type  2   force =     0.00040336    0.00003602   -0.00021877
     atom   36 type  2   force =     0.00015760   -0.00004615   -0.00029265
     atom   37 type  1   force =    -0.00013758   -0.00022311   -0.00034994
     atom   38 type  1   force =     0.00013378    0.00043829    0.00023356
     atom   39 type  2   force =    -0.00027804    0.00047722   -0.00004740
     atom   40 type  2   force =     0.00023708    0.00011152    0.00046994
     atom   41 type  2   force =     0.00101136    0.00010542   -0.00023469
     atom   42 type  2   force =    -0.00096024   -0.00038227   -0.00008271
     atom   43 type  1   force =    -0.00050391    0.00025132   -0.00052642
     atom   44 type  1   force =     0.00007076   -0.00014736    0.00128717
     atom   45 type  2   force =     0.00005115    0.00003153    0.09872767
     atom   46 type  2   force =    -0.07993902    0.00000850   -0.03166586
     atom   47 type  2   force =     0.07983213    0.00043682   -0.03173831
     atom   48 type  3   force =    -0.00358359    0.02024262   -0.00378469
     atom   49 type  4   force =     0.00131411   -0.00508925    0.00333817
     atom   50 type  5   force =    -0.00025388   -0.00001919   -0.00078598
     atom   51 type  5   force =     0.00042186   -0.00019935    0.00098142
     atom   52 type  3   force =     0.00095004   -0.01209115   -0.00035339
     atom   53 type  5   force =     0.00013581   -0.00123718   -0.00006607
     atom   54 type  2   force =    -0.00033769   -0.00011501   -0.00054670
     atom   55 type  5   force =     0.00108773    0.00000433    0.00055002

     Total force =     0.397714     Total SCF correction =     0.000706
  @ DRIVER MODE: Message from server: STATUS
  @ DRIVER MODE: Message from server: GETFORCE
  @ DRIVER MODE: Returning v,forces,stress,ensemble

     Writing output data file ./calc.save/
  @ DRIVER MODE: Message from server: EXIT
  @ DRIVE MODE: Exiting

     General routines

     Parallel routines

   This run was terminated on:  17:53:43  22Sep2021

   JOB DONE.