     Program PWSCF v.6.7GPU starts on 23Sep2021 at 22: 2:56

     R & G space division:  proc/nbgrp/npool/nimage =       8
     Reading input from /storage/home/hcoda1/3/ntian30/research/carbon/CxH_vib/H2O_calc/ads_slab/CH3NHHO_a/out_0030/pw.inp
Warning: card &CELL ignored
Warning: card   CELL_DYNAMICS='IPI', ignored
Warning: card / ignored

     Current dimensions of program PWSCF are:
     Max number of different atomic species (ntypx) = 10
     Max number of k-points (npk) =  40000
     Max angular momentum in pseudopotentials (lmaxx) =  3
     Presently no symmetry can be used with electric field

     Message from routine cell_base_init:
     DEPRECATED: use true lattice parameter, not A to a.u. conversion factor

     IMPORTANT: XC functional enforced from input :
     Exchange-correlation= BEEF-VDW
                           (   1   4  43  14   2   0   0)
     Any further DFT definition will be discarded
     Please, verify this is what you really want

  @ DRIVER MODE: Connecting to
 qe_1139763_2947309.sched-torque.pace.gatech.edu7dty_rzq_scratch
  using UNIX socket
  @ DRIVER MODE: Message from server: STATUS
  @ DRIVER MODE: Message from server: INIT
  @ DRIVER MODE: Receiving replica           0          -1
  @ DRIVER MODE: Receiving encoded integer          25
  @ DRIVER MODE:  SCF:  T  FORCE:  T  STRESS:  F  VC:  F  ENSEMBLE:  F
  @ DRIVER MODE:  SCF:  T  FORCE:  T  STRESS:  F  VC:  F  ENSEMBLE:  F

     Using Slab Decomposition

     bravais-lattice index     =            0
     lattice parameter (alat)  =       1.8897  a.u.
     unit-cell volume          =    6658.9804 (a.u.)^3
     number of atoms/cell      =           55
     number of atomic types    =            5
     number of electrons       =       398.00
     number of Kohn-Sham states=          209
     kinetic-energy cutoff     =      29.3995  Ry
     charge density cutoff     =     293.9946  Ry
     scf convergence threshold =      7.3E-08
     mixing beta               =       0.0500
     number of iterations used =            8  plain     mixing
     Exchange-correlation= BEEF-VDW
                           (   1   4  43  14   2   0   0)

     celldm(1)=   1.889726  celldm(2)=   0.000000  celldm(3)=   0.000000
     celldm(4)=   0.000000  celldm(5)=   0.000000  celldm(6)=   0.000000

     crystal axes: (cart. coord. in units of alat)
               a(1) = (   6.579727   0.000000   0.000000 )
               a(2) = (  -0.000775   5.961596   0.000000 )
               a(3) = (   0.000000   0.000000  25.155947 )

     reciprocal axes: (cart. coord. in units 2 pi/alat)
               b(1) = (  0.151982  0.000020  0.000000 )
               b(2) = (  0.000000  0.167740  0.000000 )
               b(3) = (  0.000000  0.000000  0.039752 )

     PseudoPot. # 1 for Ti read from file:
     /storage/coda1/p-amedford6/0/shared/rich_project_chbe-medford/medford-share/data/pseudos_module/espresso/nninc/pbe/van/Ti.UPF
     MD5 check sum: 8e4df49b7f0d34bbd5052bf3f5ea0213
     Pseudo is Ultrasoft, Zval = 12.0
     Generated by new atomic code, or converted to UPF format
     Using radial grid of  851 points,  6 beta functions with:
                l(1) =   0
                l(2) =   0
                l(3) =   1
                l(4) =   1
                l(5) =   2
                l(6) =   2
     Q(r) pseudized with  8 coefficients,  rinner =    1.000   1.000   1.000
                                                       1.000   1.000

     PseudoPot. # 2 for O  read from file:
     /storage/coda1/p-amedford6/0/shared/rich_project_chbe-medford/medford-share/data/pseudos_module/espresso/nninc/pbe/van/O.UPF
     MD5 check sum: 78c19812648e8988a0fe644b0f25305e
     Pseudo is Ultrasoft, Zval =  6.0
     Generated by new atomic code, or converted to UPF format
     Using radial grid of  737 points,  4 beta functions with:
                l(1) =   0
                l(2) =   0
                l(3) =   1
                l(4) =   1
     Q(r) pseudized with  8 coefficients,  rinner =    0.800   0.800   0.800

     PseudoPot. # 3 for H  read from file:
     /storage/coda1/p-amedford6/0/shared/rich_project_chbe-medford/medford-share/data/pseudos_module/espresso/nninc/pbe/van/H.UPF
     MD5 check sum: b5ee9d7bfd3a09ee7748110bda690ff7
     Pseudo is Ultrasoft, Zval =  1.0
     Generated by new atomic code, or converted to UPF format
     Using radial grid of  615 points,  1 beta functions with:
                l(1) =   0
     Q(r) pseudized with  8 coefficients,  rinner =    0.800

     PseudoPot. # 4 for N  read from file:
     /storage/coda1/p-amedford6/0/shared/rich_project_chbe-medford/medford-share/data/pseudos_module/espresso/nninc/pbe/van/N.UPF
     MD5 check sum: 90d10febe142ad51ac9d5be1deb811c4
     Pseudo is Ultrasoft, Zval =  5.0
     Generated by new atomic code, or converted to UPF format
     Using radial grid of  729 points,  4 beta functions with:
                l(1) =   0
                l(2) =   0
                l(3) =   1
                l(4) =   1
     Q(r) pseudized with  8 coefficients,  rinner =    0.800   0.800   0.800

     PseudoPot. # 5 for C  read from file:
     /storage/coda1/p-amedford6/0/shared/rich_project_chbe-medford/medford-share/data/pseudos_module/espresso/nninc/pbe/van/C.UPF
     MD5 check sum: 1a69bf6b8db32088f5b2163dbdb77a27
     Pseudo is Ultrasoft, Zval =  4.0
     Generated by new atomic code, or converted to UPF format
     Using radial grid of  721 points,  4 beta functions with:
                l(1) =   0
                l(2) =   0
                l(3) =   1
                l(4) =   1
     Q(r) pseudized with  8 coefficients,  rinner =    0.800   0.800   0.800

     atomic species   valence    mass     pseudopotential
        Ti1           12.00    47.86700     Ti( 1.00)
        O1             6.00    15.99900     O ( 1.00)
        H1             1.00     1.00800     H ( 1.00)
        N1             5.00    14.00700     N ( 1.00)
        C1             4.00    12.01100     C ( 1.00)

     No symmetry found

   Cartesian axes

     site n.     atom                  positions (alat units)
         1           Ti1 tau(   1) = (   0.0004258   2.9801865   6.0000000  )
         2           Ti1 tau(   2) = (   3.2906075   1.4906267   6.0002472  )
         3           O1  tau(   3) = (   0.0006271   0.0005054   7.9858123  )
         4           O1  tau(   4) = (   3.2906025   0.0005020   7.3038282  )
         5           O1  tau(   5) = (   4.5942328   1.4918067   9.2879030  )
         6           O1  tau(   6) = (   1.9868534   1.4903216   9.2879459  )
         7           Ti1 tau(   7) = (   3.2907910   2.8959150   9.1758416  )
         8           Ti1 tau(   8) = (   0.0015273   1.4827037   9.2680791  )
         9           O1  tau(   9) = (   3.2831040   5.9360571  11.2641146  )
        10           O1  tau(  10) = (   0.0116148   5.9584955  10.6183126  )
        11           O1  tau(  11) = (   1.2851963   1.4867209  12.6255510  )
        12           O1  tau(  12) = (   5.2924406   1.4772461  12.6192171  )
        13           Ti1 tau(  13) = (   0.0036382   2.8404764  12.7021481  )
        14           Ti1 tau(  14) = (   3.2814461   1.2926050  12.6442039  )
        15           O1  tau(  15) = (   6.5789252   5.9354829  14.6389027  )
        16           O1  tau(  16) = (   3.2852549   0.0163589  13.8648689  )
        17           O1  tau(  17) = (   4.5445832   1.5164849  16.0197972  )
        18           O1  tau(  18) = (   2.0258823   1.4930055  16.0750729  )
        19           Ti1 tau(  19) = (   3.3156224   2.9699746  15.6194889  )
        20           Ti1 tau(  20) = (   0.0515760   1.3234122  16.0730098  )
        21           O1  tau(  21) = (   3.2904802   0.0005063   4.7018136  )
        22           O1  tau(  22) = (   6.5454194   5.9222349  17.1870725  )
        23           O1  tau(  23) = (   1.3043587   1.4918075   6.0039043  )
        24           O1  tau(  24) = (   5.2767064   1.4903225   6.0039473  )
        25           Ti1 tau(  25) = (   0.0000382   5.9609847   6.0000000  )
        26           Ti1 tau(  26) = (   3.2902200   4.4714249   6.0002472  )
        27           O1  tau(  27) = (   0.0002396   2.9813036   7.9858123  )
        28           O1  tau(  28) = (   3.2902150   2.9813002   7.3038282  )
        29           O1  tau(  29) = (   4.5938453   4.4726049   9.2879030  )
        30           O1  tau(  30) = (   1.9864658   4.4711199   9.2879459  )
        31           Ti1 tau(  31) = (   3.2891106   5.8743827   9.1763621  )
        32           Ti1 tau(  32) = (   0.0006254   4.4649316   9.2693709  )
        33           O1  tau(  33) = (   3.2861177   3.0127509  11.2320142  )
        34           O1  tau(  34) = (   0.0092240   2.9805883  10.6323155  )
        35           O1  tau(  35) = (   1.2872320   4.4646868  12.6147789  )
        36           O1  tau(  36) = (   5.2799320   4.4658550  12.6114028  )
        37           Ti1 tau(  37) = (   6.5510365   5.8261734  12.6423015  )
        38           Ti1 tau(  38) = (   3.2652589   4.3917841  12.4002916  )
        39           O1  tau(  39) = (   0.0003569   2.9920414  14.6539809  )
        40           O1  tau(  40) = (   3.2835110   2.9651371  13.8409569  )
        41           O1  tau(  41) = (   4.5245492   4.4030193  16.0142317  )
        42           O1  tau(  42) = (   2.0132503   4.4096711  16.0494848  )
        43           Ti1 tau(  43) = (   3.3389516   5.9588577  16.2858146  )
        44           Ti1 tau(  44) = (   0.0865397   4.4271626  15.8895714  )
        45           O1  tau(  45) = (   3.2900926   2.9813045   4.7018136  )
        46           O1  tau(  46) = (   1.3039711   4.4726057   6.0039043  )
        47           O1  tau(  47) = (   5.2763189   4.4711207   6.0039473  )
        48           H1  tau(  48) = (   5.5649379   3.0085428  17.7754687  )
        49           N1  tau(  49) = (   6.5266086   2.9804045  17.4451690  )
        50           C1  tau(  50) = (   0.8252436   3.0135910  18.6253707  )
        51           H1  tau(  51) = (   0.7415300   3.9712607  19.1474969  )
        52           H1  tau(  52) = (   0.5789590   2.2014881  19.3261603  )
        53           H1  tau(  53) = (   1.8636945   2.8847911  18.3311598  )
        54           O1  tau(  54) = (   3.4430348   5.9447220  18.1074838  )
        55           H1  tau(  55) = (   4.3135669   5.8364121  18.5244127  )

     number of k points=    10  Fermi-Dirac smearing, width (Ry)=  0.0073
                       cart. coord. in units 2pi/alat
        k(    1) = (   0.0000000   0.0000000   0.0000000), wk =   0.1250000
        k(    2) = (   0.0000000   0.0419351   0.0000000), wk =   0.2500000
        k(    3) = (   0.0000000  -0.0838702   0.0000000), wk =   0.1250000
        k(    4) = (   0.0379955   0.0000049   0.0000000), wk =   0.2500000
        k(    5) = (   0.0379955   0.0419400   0.0000000), wk =   0.2500000
        k(    6) = (   0.0379955  -0.0838652   0.0000000), wk =   0.2500000
        k(    7) = (   0.0379955  -0.0419301   0.0000000), wk =   0.2500000
        k(    8) = (  -0.0759910  -0.0000099   0.0000000), wk =   0.1250000
        k(    9) = (  -0.0759910   0.0419252   0.0000000), wk =   0.2500000
        k(   10) = (  -0.0759910  -0.0838800   0.0000000), wk =   0.1250000

     Initial potential from superposition of free atoms

     starting charge  381.99915, renormalised to  398.00000

     negative rho (up, down):  1.686E-02 0.000E+00

     %%%%%%%%%%%%%%%%%%%%%%%%%%%%%%%%%%%%%%%%%%%%%%%%%%%%%%%%%%%%%%%%%%%%%%%%
     %                                                                      %
     % You are using vdW-DF, which was implemented by the Thonhauser group. %
     % Please cite the following two papers that made this development      %
     % possible and the two reviews that describe the various versions:     %
     %                                                                      %
     %   T. Thonhauser et al., PRL 115, 136402 (2015).                      %
     %   T. Thonhauser et al., PRB 76, 125112 (2007).                       %
     %   K. Berland et al., Rep. Prog. Phys. 78, 066501 (2015).             %
     %   D.C. Langreth et al., J. Phys.: Condens. Matter 21, 084203 (2009). %
     %                                                                      %
     %                                                                      %
     % If you are calculating the stress with vdW-DF, please also cite:     %
     %                                                                      %
     %   R. Sabatini et al., J. Phys.: Condens. Matter 24, 424209 (2012).   %
     %                                                                      %
     %%%%%%%%%%%%%%%%%%%%%%%%%%%%%%%%%%%%%%%%%%%%%%%%%%%%%%%%%%%%%%%%%%%%%%%%

     Adding external electric field

     Computed dipole along edir(3) :
        Dipole               -8.7637 Ry au,        -22.2752 Debye
        Dipole field         -0.0165 Ry au,

        Potential amp.        1.5331 Ry
        Total length         46.3494 bohr

     Starting wfcs are  301 atomic wfcs
  @ DRIVER MODE: Message from server: STATUS
  @ DRIVER MODE: Message from server: POSDATA
  @ DRIVER MODE: Reading and sharing cell
  @ DRIVER MODE: Reading and sharing positions
  @ DRIVER MODE: Received positions

     Self-consistent Calculation

     iteration #  1     ecut=    29.40 Ry     beta= 0.05
     Davidson diagonalization with overlap
     c_bands:  2 eigenvalues not converged
     c_bands:  1 eigenvalues not converged
     c_bands:  1 eigenvalues not converged
     c_bands:  2 eigenvalues not converged
     ethr =  1.00E-05,  avg # of iterations = 18.0

[...]

     total energy              =   -2565.27160893 Ry
     estimated scf accuracy    <    4294.47697533 Ry

     iteration #  2     ecut=    29.40 Ry     beta= 0.05
     Davidson diagonalization with overlap
     ethr =  1.00E-02,  avg # of iterations = 22.6

[...]

     iteration # 36     ecut=    29.40 Ry     beta= 0.05
     Davidson diagonalization with overlap
     c_bands:  1 eigenvalues not converged
     ethr =  4.01E-07,  avg # of iterations =  7.4

[...]

     total energy              =   -2954.01285793 Ry
     estimated scf accuracy    <       0.00000015 Ry

     iteration # 77     ecut=    29.40 Ry     beta= 0.05
     Davidson diagonalization with overlap
     ethr =  3.79E-11,  avg # of iterations =  5.1

     negative rho (up, down):  1.729E-02 0.000E+00

     Adding external electric field

     Computed dipole along edir(3) :
        Dipole                0.2154 Ry au,          0.5476 Debye
        Dipole field          0.0004 Ry au,

        Potential amp.       -0.0377 Ry
        Total length         46.3494 bohr

     End of self-consistent calculation

          k = 0.0000 0.0000 0.0000 ( 18029 PWs)   bands (ev):

   -56.9297 -56.8961 -56.0290 -55.9941 -55.7937 -55.7257 -55.6387 -55.4812
   -55.4473 -55.4078 -55.3953 -55.3298 -55.3240 -55.2797 -55.1334 -55.0565
   -33.3488 -33.2016 -33.1736 -33.1082 -33.0179 -32.9759 -32.5118 -32.2693
   -32.2498 -32.2238 -32.1714 -32.1664 -32.1408 -32.0294 -32.0095 -31.9624
   -31.9456 -31.9303 -31.9137 -31.8909 -31.8889 -31.8673 -31.8603 -31.8290
   -31.8283 -31.8038 -31.7592 -31.7190 -31.6855 -31.6779 -31.6191 -31.6084
   -31.6050 -31.5888 -31.5767 -31.5478 -31.5277 -31.5217 -31.5080 -31.5014
   -31.4933 -31.4431 -31.3990 -31.3755 -31.3370 -31.3119 -31.3056 -31.2392
   -17.0360 -16.4906 -16.4455 -16.2475 -16.1449 -16.1249 -16.0876 -16.0383
   -15.8385 -15.7888 -15.7511 -15.6851 -15.5878 -15.4314 -15.3345 -15.1613
   -15.1117 -15.0803 -15.0625 -15.0565 -15.0504 -15.0378 -14.9829 -14.9269
   -14.8866 -14.8035 -14.7491 -14.6386 -14.4125 -14.3824 -13.9785 -13.8715
   -13.8068  -8.4814  -4.6097  -4.1055  -3.9704  -3.9396  -3.7805  -3.6271
    -3.5026  -3.4494  -3.4243  -3.3153  -3.2985  -3.2889  -3.1993  -3.0701
    -2.9984  -2.9880  -2.9169  -2.8967  -2.8732  -2.8544  -2.6968  -2.6629
    -2.5704  -2.5180  -2.4968  -2.4159  -2.4066  -2.3462  -2.2944  -2.2850
    -2.2625  -2.2036  -2.2000  -2.1285  -2.1013  -2.0259  -2.0010  -1.9691
    -1.9455  -1.8749  -1.7988  -1.7642  -1.6088  -1.5726  -1.5402  -1.5048
    -1.4881  -1.4076  -1.3364  -1.2548  -1.2208  -1.1535  -1.1052  -1.0652
    -1.0524  -0.9375  -0.9125  -0.8552  -0.7916  -0.7751  -0.7684  -0.7217
    -0.6085  -0.5299  -0.5195  -0.4979  -0.4356  -0.4154  -0.3780  -0.3533
    -0.2770  -0.2605  -0.1522  -0.0795  -0.0483  -0.0230   0.0777   0.1567
     0.1781   0.2203   0.2624   0.3058   0.3349   0.3786   0.4465   0.4944
     0.5174   0.5404   0.5693   0.6652   0.7160   0.7526   0.8086   0.8241
     0.8887   0.9593   0.9865   1.0754   1.1196   1.4853   1.6377   2.3637
     2.5343   2.8103   2.9835   3.2993   3.3494   3.3653   3.3668   3.6528
     3.7718

[...]

          k = 0.0380-0.0419 0.0000 ( 17876 PWs)   bands (ev):

[...]

          k =-0.0760-0.0000 0.0000 ( 17886 PWs)   bands (ev):

[...]

          k =-0.0760-0.0839 0.0000 ( 17948 PWs)   bands (ev):

   -56.9135 -56.9121 -56.0162 -56.0067 -55.7891 -55.7302 -55.6379 -55.4647
   -55.4636 -55.4037 -55.3959 -55.3335 -55.3227 -55.2785 -55.1348 -55.0576
   -33.1880 -33.1867 -33.1667 -33.1654 -33.0622 -33.0611 -32.3359 -32.3277
   -32.2112 -32.2015 -32.2006 -32.1948 -32.0926 -32.0469 -32.0226 -32.0083
   -31.9572 -31.9563 -31.9104 -31.8782 -31.8667 -31.8173 -31.8165 -31.7741
   -31.7356 -31.7031 -31.6848 -31.6831 -31.6792 -31.6754 -31.6460 -31.6449
   -31.6348 -31.6300 -31.6088 -31.5982 -31.5753 -31.5666 -31.5361 -31.5252
   -31.5163 -31.4843 -31.4387 -31.4006 -31.3751 -31.3415 -31.3139 -31.2667
   -16.4323 -16.3967 -16.3947 -16.3476 -16.3459 -16.0912 -16.0866 -15.8408
   -15.8089 -15.6876 -15.5346 -15.5053 -15.4679 -15.4183 -15.3723 -15.3021
   -15.2837 -15.2429 -15.2095 -15.1538 -15.1283 -15.0503 -15.0162 -14.9572
   -14.9213 -14.8323 -14.7856 -14.7794 -14.5585 -14.5426 -13.9760 -13.9755
   -13.8236  -8.4864  -4.0718  -3.9926  -3.4698  -3.4647  -3.4438  -3.4345
    -3.2200  -3.2144  -3.0468  -3.0037  -2.9843  -2.9434  -2.9272  -2.8216
    -2.8155  -2.7920  -2.7508  -2.7456  -2.7372  -2.7193  -2.6721  -2.6636
    -2.6231  -2.4861  -2.4714  -2.4518  -2.3931  -2.3292  -2.2985  -2.2469
    -2.2197  -2.2060  -2.1791  -2.1715  -2.1662  -2.1369  -2.1094  -1.9531
    -1.9116  -1.8097  -1.7772  -1.7520  -1.7308  -1.6760  -1.6725  -1.6427
    -1.6197  -1.5877  -1.5274  -1.4940  -1.4525  -1.3269  -1.3061  -1.2669
    -1.2493  -1.1905  -1.0936  -1.0048  -0.9917  -0.9487  -0.9294  -0.8832
    -0.8691  -0.8401  -0.7609  -0.7035  -0.5964  -0.5663  -0.5542  -0.5316
    -0.5015  -0.4592  -0.4111  -0.3433  -0.3278  -0.2088  -0.1398  -0.0936
    -0.0283   0.0381   0.0778   0.1178   0.1704   0.2662   0.2855   0.3599
     0.3740   0.4941   0.6028   0.6207   0.7739   0.8061   0.8747   0.9155
     0.9203   0.9307   0.9484   0.9597   1.0124   1.0885   1.5867   2.9552
     2.9582   3.0154   3.0212   3.3311   3.3321   3.4420   3.4438   3.7591
     3.7690

     the Fermi energy is     2.0644 ev

!    total energy              =   -2954.01287058 Ry
     estimated scf accuracy    <       0.00000004 Ry
     smearing contrib. (-TS)   =      -0.00173936 Ry
     internal energy E=F+TS    =   -2954.01113122 Ry

     The total energy is F=E-TS. E is the sum of the following terms:
     one-electron contribution =  -24213.51772876 Ry
     hartree contribution      =   12196.84046450 Ry
     xc contribution           =    -488.74468095 Ry
     ewald contribution        =    9551.41072641 Ry
     electric field correction =       0.00008758 Ry

     convergence has been achieved in  77 iterations

     Forces acting on atoms (cartesian axes, Ry/au):

     atom    1 type  1   force =     0.00017556   -0.00052676    0.12564941
     atom    2 type  1   force =     0.00000345    0.00026182   -0.15444960
     atom    3 type  2   force =     0.00002199   -0.00022272   -0.06671135
     atom    4 type  2   force =    -0.00002005    0.00008354    0.01673222
     atom    5 type  2   force =    -0.00391660   -0.00229197   -0.01290726
     atom    6 type  2   force =     0.00531156   -0.00149647   -0.01431692
     atom    7 type  1   force =    -0.00049326   -0.00698634    0.05721001
     atom    8 type  1   force =     0.00071702    0.00722966    0.09828374
     atom    9 type  2   force =     0.00002772    0.00007966   -0.00007352
     atom   10 type  2   force =    -0.00290101    0.00059211   -0.06190536
     atom   11 type  2   force =    -0.00002603   -0.00005821   -0.00000829
     atom   12 type  2   force =    -0.00006026    0.00015681    0.00016540
     atom   13 type  1   force =     0.00010490    0.00016566   -0.00011602
     atom   14 type  1   force =     0.00000746   -0.00007393    0.00010695
     atom   15 type  2   force =    -0.00002064    0.00000231    0.00000054
     atom   16 type  2   force =     0.00005779    0.00014561   -0.00018861
     atom   17 type  2   force =     0.00000153    0.00012976    0.00018646
     atom   18 type  2   force =    -0.00001312    0.00028429   -0.00004344
     atom   19 type  1   force =    -0.00011251   -0.00001635    0.00010910
     atom   20 type  1   force =     0.00025651    0.00008710    0.00023101
     atom   21 type  2   force =     0.00006940    0.00021781    0.09783477
     atom   22 type  2   force =     0.00036580   -0.00003134   -0.00005390
     atom   23 type  2   force =    -0.08272617    0.00009085   -0.03302023
     atom   24 type  2   force =     0.08268459    0.00050689   -0.03306916
     atom   25 type  1   force =     0.00010151   -0.00059722    0.12549689
     atom   26 type  1   force =     0.00000746   -0.00169426   -0.15486155
     atom   27 type  2   force =     0.00008733   -0.00076861   -0.06514747
     atom   28 type  2   force =     0.00004918    0.00188517    0.01158640
     atom   29 type  2   force =    -0.00251893    0.00468334   -0.01585020
     atom   30 type  2   force =     0.00368743    0.00501978   -0.01727798
     atom   31 type  1   force =    -0.00029387    0.00180162    0.04009537
     atom   32 type  1   force =     0.00091461   -0.01042158    0.09793856
     atom   33 type  2   force =    -0.00004375   -0.00002298    0.00012614
     atom   34 type  2   force =    -0.00230028    0.00078023   -0.07399935
     atom   35 type  2   force =     0.00011175    0.00003085    0.00002797
     atom   36 type  2   force =    -0.00009509   -0.00007417   -0.00002746
     atom   37 type  1   force =     0.00035282    0.00006000    0.00007874
     atom   38 type  1   force =     0.00011984   -0.00005902   -0.00028728
     atom   39 type  2   force =     0.00016024   -0.00009501   -0.00005720
     atom   40 type  2   force =     0.00001658    0.00005073   -0.00012933
     atom   41 type  2   force =     0.00002171    0.00014121    0.00011297
     atom   42 type  2   force =    -0.00004004    0.00001466    0.00010476
     atom   43 type  1   force =     0.00018818   -0.00015007   -0.00001459
     atom   44 type  1   force =     0.00032116    0.00025300    0.00019248
     atom   45 type  2   force =     0.00004302    0.00004598    0.09761754
     atom   46 type  2   force =    -0.08278720    0.00005130   -0.03303578
     atom   47 type  2   force =     0.08271405    0.00048362   -0.03305412
     atom   48 type  3   force =    -0.00019602    0.00007402    0.00005531
     atom   49 type  4   force =     0.00019967   -0.00051889    0.00110389
     atom   50 type  5   force =    -0.00161823   -0.00465098    0.00520966
     atom   51 type  3   force =     0.00002374    0.00045772   -0.00017371
     atom   52 type  3   force =     0.00113484    0.00508146   -0.00576496
     atom   53 type  3   force =     0.00009958    0.00000664    0.00031825
     atom   54 type  2   force =     0.00038219   -0.00063392    0.00084498
     atom   55 type  3   force =    -0.00035908    0.00043563   -0.00087488

     Total force =     0.417327     Total SCF correction =     0.000726
  @ DRIVER MODE: Message from server: STATUS
  @ DRIVER MODE: Message from server: GETFORCE
  @ DRIVER MODE: Returning v,forces,stress,ensemble

     Writing output data file ./calc.save/
  @ DRIVER MODE: Message from server: EXIT
  @ DRIVE MODE: Exiting

     General routines

     Parallel routines

   This run was terminated on:  22:26:52  23Sep2021

   JOB DONE.