     Program PWSCF v.6.7GPU starts on 23Sep2021 at 23:27:30

     R & G space division:  proc/nbgrp/npool/nimage =       8
     Reading input from /storage/home/hcoda1/3/ntian30/research/carbon/CxH_vib/H2O_calc/ads_slab/CH2NNHHHO_a/out_0029/pw.inp
Warning: card &CELL ignored
Warning: card   CELL_DYNAMICS='IPI', ignored
Warning: card / ignored

     Current dimensions of program PWSCF are:
     Max number of different atomic species (ntypx) = 10
     Max number of k-points (npk) =  40000
     Max angular momentum in pseudopotentials (lmaxx) =  3
     Presently no symmetry can be used with electric field

     Message from routine cell_base_init:
     DEPRECATED: use true lattice parameter, not A to a.u. conversion factor

     IMPORTANT: XC functional enforced from input :
     Exchange-correlation= BEEF-VDW
                           (   1   4  43  14   2   0   0)
     Any further DFT definition will be discarded
     Please, verify this is what you really want

  @ DRIVER MODE: Connecting to
 qe_1139763_2947314.sched-torque.pace.gatech.edu6oe9jcvz_scratch
  using UNIX socket
  @ DRIVER MODE: Message from server: STATUS
  @ DRIVER MODE: Message from server: INIT
  @ DRIVER MODE: Receiving replica           0          -1
  @ DRIVER MODE: Receiving encoded integer          25
  @ DRIVER MODE:  SCF:  T  FORCE:  T  STRESS:  F  VC:  F  ENSEMBLE:  F
  @ DRIVER MODE:  SCF:  T  FORCE:  T  STRESS:  F  VC:  F  ENSEMBLE:  F

     Using Slab Decomposition

     bravais-lattice index     =            0
     lattice parameter (alat)  =       1.8897  a.u.
     unit-cell volume          =    6658.9804 (a.u.)^3
     number of atoms/cell      =           56
     number of atomic types    =            5
     number of electrons       =       403.00
     number of Kohn-Sham states=          211
     kinetic-energy cutoff     =      29.3995  Ry
     charge density cutoff     =     293.9946  Ry
     scf convergence threshold =      7.3E-08
     mixing beta               =       0.0500
     number of iterations used =            8  plain     mixing
     Exchange-correlation= BEEF-VDW
                           (   1   4  43  14   2   0   0)

     celldm(1)=   1.889726  celldm(2)=   0.000000  celldm(3)=   0.000000
     celldm(4)=   0.000000  celldm(5)=   0.000000  celldm(6)=   0.000000

     crystal axes: (cart. coord. in units of alat)
               a(1) = (   6.579727   0.000000   0.000000 )
               a(2) = (  -0.000775   5.961596   0.000000 )
               a(3) = (   0.000000   0.000000  25.155947 )

     reciprocal axes: (cart. coord. in units 2 pi/alat)
               b(1) = (  0.151982  0.000020  0.000000 )
               b(2) = (  0.000000  0.167740  0.000000 )
               b(3) = (  0.000000  0.000000  0.039752 )

     PseudoPot. # 1 for Ti read from file:
     /storage/coda1/p-amedford6/0/shared/rich_project_chbe-medford/medford-share/data/pseudos_module/espresso/nninc/pbe/van/Ti.UPF
     MD5 check sum: 8e4df49b7f0d34bbd5052bf3f5ea0213
     Pseudo is Ultrasoft, Zval = 12.0
     Generated by new atomic code, or converted to UPF format
     Using radial grid of  851 points,  6 beta functions with:
                l(1) =   0
                l(2) =   0
                l(3) =   1
                l(4) =   1
                l(5) =   2
                l(6) =   2
     Q(r) pseudized with  8 coefficients,  rinner =    1.000   1.000   1.000
                                                       1.000   1.000

     PseudoPot. # 2 for O  read from file:
     /storage/coda1/p-amedford6/0/shared/rich_project_chbe-medford/medford-share/data/pseudos_module/espresso/nninc/pbe/van/O.UPF
     MD5 check sum: 78c19812648e8988a0fe644b0f25305e
     Pseudo is Ultrasoft, Zval =  6.0
     Generated by new atomic code, or converted to UPF format
     Using radial grid of  737 points,  4 beta functions with:
                l(1) =   0
                l(2) =   0
                l(3) =   1
                l(4) =   1
     Q(r) pseudized with  8 coefficients,  rinner =    0.800   0.800   0.800

     PseudoPot. # 3 for N  read from file:
     /storage/coda1/p-amedford6/0/shared/rich_project_chbe-medford/medford-share/data/pseudos_module/espresso/nninc/pbe/van/N.UPF
     MD5 check sum: 90d10febe142ad51ac9d5be1deb811c4
     Pseudo is Ultrasoft, Zval =  5.0
     Generated by new atomic code, or converted to UPF format
     Using radial grid of  729 points,  4 beta functions with:
                l(1) =   0
                l(2) =   0
                l(3) =   1
                l(4) =   1
     Q(r) pseudized with  8 coefficients,  rinner =    0.800   0.800   0.800

     PseudoPot. # 4 for C  read from file:
     /storage/coda1/p-amedford6/0/shared/rich_project_chbe-medford/medford-share/data/pseudos_module/espresso/nninc/pbe/van/C.UPF
     MD5 check sum: 1a69bf6b8db32088f5b2163dbdb77a27
     Pseudo is Ultrasoft, Zval =  4.0
     Generated by new atomic code, or converted to UPF format
     Using radial grid of  721 points,  4 beta functions with:
                l(1) =   0
                l(2) =   0
                l(3) =   1
                l(4) =   1
     Q(r) pseudized with  8 coefficients,  rinner =    0.800   0.800   0.800

     PseudoPot. # 5 for H  read from file:
     /storage/coda1/p-amedford6/0/shared/rich_project_chbe-medford/medford-share/data/pseudos_module/espresso/nninc/pbe/van/H.UPF
     MD5 check sum: b5ee9d7bfd3a09ee7748110bda690ff7
     Pseudo is Ultrasoft, Zval =  1.0
     Generated by new atomic code, or converted to UPF format
     Using radial grid of  615 points,  1 beta functions with:
                l(1) =   0
     Q(r) pseudized with  8 coefficients,  rinner =    0.800

     atomic species   valence    mass     pseudopotential
        Ti1           12.00    47.86700     Ti( 1.00)
        O1             6.00    15.99900     O ( 1.00)
        N1             5.00    14.00700     N ( 1.00)
        C1             4.00    12.01100     C ( 1.00)
        H1             1.00     1.00800     H ( 1.00)

     No symmetry found

   Cartesian axes

     site n.     atom                  positions (alat units)
         1           Ti1 tau(   1) = (   0.0004258   2.9801865   6.0000000  )
         2           Ti1 tau(   2) = (   3.2906075   1.4906267   6.0002472  )
         3           O1  tau(   3) = (   0.0006271   0.0005054   7.9858123  )
         4           O1  tau(   4) = (   3.2906025   0.0005020   7.3038282  )
         5           O1  tau(   5) = (   4.5942328   1.4918067   9.2879030  )
         6           O1  tau(   6) = (   1.9868534   1.4903216   9.2879459  )
         7           Ti1 tau(   7) = (   3.2907910   2.8959150   9.1758416  )
         8           Ti1 tau(   8) = (   0.0015273   1.4827037   9.2680791  )
         9           O1  tau(   9) = (   3.2834828   5.9254549  11.3560997  )
        10           O1  tau(  10) = (   0.0116148   5.9584955  10.6183126  )
        11           O1  tau(  11) = (   1.2632982   1.4794151  12.6467768  )
        12           O1  tau(  12) = (   5.2979234   1.4912170  12.6376735  )
        13           Ti1 tau(  13) = (   6.5593102   2.9584919  12.5255918  )
        14           Ti1 tau(  14) = (   3.2941082   1.2876829  12.7086691  )
        15           O1  tau(  15) = (   6.5459232   0.0848410  14.6672212  )
        16           O1  tau(  16) = (   3.2899079   0.0686032  13.9983899  )
        17           O1  tau(  17) = (   4.5347701   1.5447734  16.1667714  )
        18           O1  tau(  18) = (   1.9898569   1.5359154  16.1924900  )
        19           Ti1 tau(  19) = (   3.2532585   2.9792413  15.6887139  )
        20           Ti1 tau(  20) = (   6.5162390   1.4193964  16.0443711  )
        21           O1  tau(  21) = (   3.2904802   0.0005063   4.7018136  )
        22           O1  tau(  22) = (   6.5314393   5.8470953  17.1670503  )
        23           O1  tau(  23) = (   1.3043587   1.4918075   6.0039043  )
        24           O1  tau(  24) = (   5.2767064   1.4903225   6.0039473  )
        25           Ti1 tau(  25) = (   0.0000382   5.9609847   6.0000000  )
        26           Ti1 tau(  26) = (   3.2902200   4.4714249   6.0002472  )
        27           O1  tau(  27) = (   0.0002396   2.9813036   7.9858123  )
        28           O1  tau(  28) = (   3.2902150   2.9813002   7.3038282  )
        29           O1  tau(  29) = (   4.5938453   4.4726049   9.2879030  )
        30           O1  tau(  30) = (   1.9864658   4.4711199   9.2879459  )
        31           Ti1 tau(  31) = (   3.2891106   5.8743827   9.1763621  )
        32           Ti1 tau(  32) = (   0.0006254   4.4649316   9.2693709  )
        33           O1  tau(  33) = (   3.2801501   3.0037454  11.3162440  )
        34           O1  tau(  34) = (   0.0092240   2.9805883  10.6323155  )
        35           O1  tau(  35) = (   1.2628463   4.4620516  12.6871769  )
        36           O1  tau(  36) = (   5.2965349   4.4479299  12.6783795  )
        37           Ti1 tau(  37) = (   0.0245004   5.9521619  12.5031165  )
        38           Ti1 tau(  38) = (   3.2934334   4.3725749  12.4478892  )
        39           O1  tau(  39) = (   0.0012172   2.9324930  14.9038371  )
        40           O1  tau(  40) = (   3.2612729   2.9642313  13.9201381  )
        41           O1  tau(  41) = (   4.5459169   4.3864222  16.0774642  )
        42           O1  tau(  42) = (   2.0085495   4.4473877  16.1057765  )
        43           Ti1 tau(  43) = (   3.2275989   5.9528725  16.3079466  )
        44           Ti1 tau(  44) = (   6.5418721   4.6299905  15.7990834  )
        45           O1  tau(  45) = (   3.2900926   2.9813045   4.7018136  )
        46           O1  tau(  46) = (   1.3039711   4.4726057   6.0039043  )
        47           O1  tau(  47) = (   5.2763189   4.4711207   6.0039473  )
        48           N1  tau(  48) = (   6.5153795   2.7269917  18.1720481  )
        49           C1  tau(  49) = (   0.9714328   2.6352729  18.9176740  )
        50           H1  tau(  50) = (   0.9613011   2.9697384  19.9541300  )
        51           H1  tau(  51) = (   1.8619620   2.1844435  18.5121220  )
        52           N1  tau(  52) = (   5.3313596   3.1722530  18.7297816  )
        53           H1  tau(  53) = (   5.4931776   3.7097374  19.5894643  )
        54           H1  tau(  54) = (   4.8256156   3.7472006  18.0707398  )
        55           O1  tau(  55) = (   3.3867674   5.8992794  18.1610867  )
        56           H1  tau(  56) = (   4.0349165   0.5560778  18.5374839  )

     number of k points=    10  Fermi-Dirac smearing, width (Ry)=  0.0073
                       cart. coord. in units 2pi/alat
        k(    1) = (   0.0000000   0.0000000   0.0000000), wk =   0.1250000
        k(    2) = (   0.0000000   0.0419351   0.0000000), wk =   0.2500000
        k(    3) = (   0.0000000  -0.0838702   0.0000000), wk =   0.1250000
        k(    4) = (   0.0379955   0.0000049   0.0000000), wk =   0.2500000
        k(    5) = (   0.0379955   0.0419400   0.0000000), wk =   0.2500000
        k(    6) = (   0.0379955  -0.0838652   0.0000000), wk =   0.2500000
        k(    7) = (   0.0379955  -0.0419301   0.0000000), wk =   0.2500000
        k(    8) = (  -0.0759910  -0.0000099   0.0000000), wk =   0.1250000
        k(    9) = (  -0.0759910   0.0419252   0.0000000), wk =   0.2500000
        k(   10) = (  -0.0759910  -0.0838800   0.0000000), wk =   0.1250000

     Initial potential from superposition of free atoms

     starting charge  386.99914, renormalised to  403.00000

     negative rho (up, down):  1.547E-02 0.000E+00

     %%%%%%%%%%%%%%%%%%%%%%%%%%%%%%%%%%%%%%%%%%%%%%%%%%%%%%%%%%%%%%%%%%%%%%%%
     %                                                                      %
     % You are using vdW-DF, which was implemented by the Thonhauser group. %
     % Please cite the following two papers that made this development      %
     % possible and the two reviews that describe the various versions:     %
     %                                                                      %
     %   T. Thonhauser et al., PRL 115, 136402 (2015).                      %
     %   T. Thonhauser et al., PRB 76, 125112 (2007).                       %
     %   K. Berland et al., Rep. Prog. Phys. 78, 066501 (2015).             %
     %   D.C. Langreth et al., J. Phys.: Condens. Matter 21, 084203 (2009). %
     %                                                                      %
     %                                                                      %
     % If you are calculating the stress with vdW-DF, please also cite:     %
     %                                                                      %
     %   R. Sabatini et al., J. Phys.: Condens. Matter 24, 424209 (2012).   %
     %                                                                      %
     %%%%%%%%%%%%%%%%%%%%%%%%%%%%%%%%%%%%%%%%%%%%%%%%%%%%%%%%%%%%%%%%%%%%%%%%

     Adding external electric field

     Computed dipole along edir(3) :
        Dipole              -13.0189 Ry au,        -33.0908 Debye
        Dipole field         -0.0246 Ry au,

        Potential amp.        2.2775 Ry
        Total length         46.3494 bohr

     Starting wfcs are  305 atomic wfcs
  @ DRIVER MODE: Message from server: STATUS
  @ DRIVER MODE: Message from server: POSDATA
  @ DRIVER MODE: Reading and sharing cell
  @ DRIVER MODE: Reading and sharing positions
  @ DRIVER MODE: Received positions

     Self-consistent Calculation

     iteration #  1     ecut=    29.40 Ry     beta= 0.05
     Davidson diagonalization with overlap
     c_bands:  3 eigenvalues not converged
     c_bands:  4 eigenvalues not converged
     c_bands:  3 eigenvalues not converged
     c_bands:  5 eigenvalues not converged
     c_bands:  5 eigenvalues not converged
     c_bands:  2 eigenvalues not converged
     c_bands:  3 eigenvalues not converged
     ethr =  1.00E-05,  avg # of iterations = 25.0

[...]

     total energy              =   -2311.55807612 Ry
     estimated scf accuracy    <    7504.30637722 Ry

     iteration #  2     ecut=    29.40 Ry     beta= 0.05
     Davidson diagonalization with overlap
     ethr =  1.00E-02,  avg # of iterations = 24.3

[...]

     iteration # 69     ecut=    29.40 Ry     beta= 0.05
     Davidson diagonalization with overlap
     c_bands:  1 eigenvalues not converged
     ethr =  1.53E-09,  avg # of iterations = 14.6

[...]

     total energy              =   -2974.00136094 Ry
     estimated scf accuracy    <       0.00000009 Ry

     iteration # 77     ecut=    29.40 Ry     beta= 0.05
     Davidson diagonalization with overlap
     ethr =  2.23E-11,  avg # of iterations =  8.6

     negative rho (up, down):  1.590E-02 0.000E+00

     Adding external electric field

     Computed dipole along edir(3) :
        Dipole                1.0903 Ry au,          2.7714 Debye
        Dipole field          0.0021 Ry au,

        Potential amp.       -0.1907 Ry
        Total length         46.3494 bohr

     End of self-consistent calculation

          k = 0.0000 0.0000 0.0000 ( 18029 PWs)   bands (ev):

   -55.5952 -55.5291 -55.4950 -55.3782 -55.3719 -55.3556 -55.3419 -55.3293
   -55.3217 -55.2937 -55.2462 -55.1465 -55.1308 -55.0542 -54.4972 -54.4632
   -32.0134 -31.9322 -31.8960 -31.8635 -31.8585 -31.8244 -31.8199 -31.8068
   -31.7787 -31.7747 -31.7561 -31.6815 -31.6554 -31.6473 -31.6354 -31.6318
   -31.6202 -31.6101 -31.5865 -31.5864 -31.5800 -31.5522 -31.5417 -31.5367
   -31.5187 -31.5144 -31.5099 -31.4957 -31.4860 -31.4833 -31.4752 -31.4660
   -31.4659 -31.4425 -31.4204 -31.4015 -31.3432 -31.3354 -31.3025 -31.2923
   -31.2729 -31.2605 -30.9028 -30.8174 -30.7949 -30.7204 -30.6341 -30.5222
   -18.4154 -16.4402 -16.1659 -15.9988 -15.7863 -15.7062 -15.6676 -15.4744
   -15.3821 -15.3206 -15.0918 -15.0687 -15.0633 -15.0380 -15.0281 -15.0122
   -14.9953 -14.9558 -14.9470 -14.9385 -14.9148 -14.9002 -14.8682 -14.8163
   -14.7740 -14.7572 -14.6625 -14.5940 -14.5474 -14.3127 -14.2146 -13.5069
   -12.9955 -12.8793  -8.5652  -6.2929  -5.8542  -4.0504  -3.8601  -3.5277
    -3.4322  -3.4110  -3.3509  -3.2869  -3.0457  -2.9883  -2.8867  -2.8383
    -2.7601  -2.6453  -2.5972  -2.5257  -2.4544  -2.4452  -2.3979  -2.3691
    -2.3071  -2.2937  -2.2583  -2.2519  -2.1806  -2.1610  -2.0601  -2.0479
    -2.0338  -1.8987  -1.8856  -1.8427  -1.8349  -1.8347  -1.7959  -1.7772
    -1.7616  -1.7450  -1.6401  -1.6012  -1.5807  -1.5087  -1.4757  -1.1601
    -1.1279  -1.0771  -1.0655  -1.0146  -0.9626  -0.9393  -0.9170  -0.8527
    -0.8147  -0.7649  -0.7309  -0.6993  -0.6176  -0.5815  -0.5396  -0.4565
    -0.3822  -0.3078  -0.3023  -0.2577  -0.2298  -0.2039  -0.1053  -0.0802
    -0.0666   0.0327   0.0529   0.1283   0.1687   0.2117   0.2506   0.2982
     0.3632   0.3811   0.4063   0.4423   0.4498   0.5049   0.5254   0.5841
     0.6370   0.6522   0.7501   0.8079   0.8221   0.8409   0.9499   1.0268
     1.1470   1.1549   1.2559   1.4815   1.5295   1.5734   1.7228   2.0957
     2.1407   3.5576   3.7063   3.7230   3.7667   3.8141   3.8983   4.0444
     4.1069   4.2442   4.2491

[...]

          k = 0.0380-0.0419 0.0000 ( 17876 PWs)   bands (ev):

[...]

          k =-0.0760-0.0000 0.0000 ( 17886 PWs)   bands (ev):

[...]

          k =-0.0760-0.0839 0.0000 ( 17948 PWs)   bands (ev):

   -55.5945 -55.5121 -55.5118 -55.3706 -55.3649 -55.3549 -55.3387 -55.3382
   -55.3300 -55.2868 -55.2532 -55.1435 -55.1320 -55.0571 -54.4805 -54.4797
   -31.8778 -31.8288 -31.8287 -31.8266 -31.8157 -31.8055 -31.8052 -31.7992
   -31.7312 -31.6839 -31.6750 -31.6646 -31.6596 -31.6322 -31.6319 -31.6303
   -31.6282 -31.6139 -31.6112 -31.5964 -31.5842 -31.5750 -31.5651 -31.5545
   -31.5458 -31.5417 -31.5328 -31.5322 -31.5168 -31.5114 -31.5088 -31.5049
   -31.5045 -31.4764 -31.4725 -31.4143 -31.3954 -31.3719 -31.3458 -31.3391
   -31.3090 -31.2645 -30.8079 -30.8073 -30.7163 -30.7151 -30.6776 -30.6769
   -18.4124 -16.4248 -15.7470 -15.6216 -15.4961 -15.4918 -15.3711 -15.2937
   -15.2764 -15.2475 -15.2356 -15.2016 -15.1839 -15.1479 -15.1165 -15.0855
   -15.0454 -15.0245 -15.0111 -14.9719 -14.9611 -14.9441 -14.9345 -14.9115
   -14.8700 -14.8346 -14.8237 -14.6801 -14.6252 -14.5788 -14.4393 -13.5159
   -12.9813 -12.9809  -8.5406  -6.2619  -5.8734  -3.9962  -3.9409  -2.9996
    -2.9215  -2.8176  -2.7124  -2.6173  -2.5635  -2.5278  -2.4903  -2.4458
    -2.4235  -2.3734  -2.3324  -2.3123  -2.3039  -2.2713  -2.2623  -2.2469
    -2.2272  -2.2124  -2.1971  -2.1869  -2.1587  -2.1415  -2.1408  -2.1069
    -2.0956  -2.0680  -2.0600  -2.0076  -1.9104  -1.8815  -1.7884  -1.6877
    -1.6801  -1.6669  -1.6429  -1.6050  -1.5939  -1.5678  -1.5319  -1.4705
    -1.4618  -1.2997  -1.2471  -1.2150  -1.1421  -1.0863  -1.0555  -1.0283
    -0.9850  -0.9602  -0.8869  -0.8576  -0.7600  -0.7061  -0.6802  -0.6176
    -0.5445  -0.4799  -0.4709  -0.4647  -0.4379  -0.4148  -0.3897  -0.3597
    -0.3346  -0.2639  -0.2264  -0.2077  -0.1983  -0.1427  -0.0971   0.0057
     0.1320   0.2412   0.2574   0.2880   0.3268   0.4776   0.5216   0.5832
     0.6306   0.6618   0.6923   0.7856   0.7969   0.8799   0.9053   0.9428
     0.9879   1.0126   1.0450   1.0744   1.0833   1.8929   1.9002   1.9610
     1.9613   3.7755   4.0537   4.0788   4.0869   4.1051   4.1249   4.1400
     4.1597   4.2294   4.2365

     the Fermi energy is     3.5930 ev

!    total energy              =   -2974.00137289 Ry
     estimated scf accuracy    <       0.00000004 Ry
     smearing contrib. (-TS)   =      -0.01962780 Ry
     internal energy E=F+TS    =   -2973.98174509 Ry

     The total energy is F=E-TS. E is the sum of the following terms:
     one-electron contribution =  -23474.47955272 Ry
     hartree contribution      =   11832.66442314 Ry
     xc contribution           =    -494.06696375 Ry
     ewald contribution        =    9161.89810477 Ry
     electric field correction =       0.00224347 Ry

     convergence has been achieved in  77 iterations

     Forces acting on atoms (cartesian axes, Ry/au):

     atom    1 type  1   force =     0.00012322   -0.00018594    0.09457178
     atom    2 type  1   force =    -0.00003074    0.00034001   -0.17509546
     atom    3 type  2   force =    -0.00002543   -0.00002585   -0.02133828
     atom    4 type  2   force =     0.00001391   -0.00189399    0.05324403
     atom    5 type  2   force =    -0.00694747   -0.00239472    0.00356904
     atom    6 type  2   force =     0.00805815   -0.00193080    0.00204717
     atom    7 type  1   force =    -0.00069681   -0.00277173    0.01005162
     atom    8 type  1   force =     0.00061408    0.00276558    0.00501367
     atom    9 type  2   force =     0.00003216   -0.00045576    0.00022851
     atom   10 type  2   force =    -0.00253825   -0.00140264   -0.01078952
     atom   11 type  2   force =     0.00127928   -0.00017153    0.00054327
     atom   12 type  2   force =    -0.00081418   -0.00022379    0.00065301
     atom   13 type  1   force =    -0.00095028   -0.00095411    0.00044998
     atom   14 type  1   force =     0.00031513    0.00032827    0.00008617
     atom   15 type  2   force =     0.00012347    0.00022561   -0.00042023
     atom   16 type  2   force =    -0.00046406    0.00019976    0.00010574
     atom   17 type  2   force =    -0.00015064    0.00026682    0.00014819
     atom   18 type  2   force =     0.00102657   -0.00021729   -0.00031812
     atom   19 type  1   force =     0.00115665    0.00065447   -0.00001949
     atom   20 type  1   force =    -0.00058395    0.00009808   -0.00004747
     atom   21 type  2   force =     0.00006492    0.00009721    0.10309066
     atom   22 type  2   force =     0.00057123    0.00071370    0.00056107
     atom   23 type  2   force =    -0.07212295   -0.00013589   -0.02733744
     atom   24 type  2   force =     0.07200794    0.00029688   -0.02733507
     atom   25 type  1   force =     0.00001878   -0.00014442    0.09405584
     atom   26 type  1   force =    -0.00015791   -0.00108384   -0.17521880
     atom   27 type  2   force =     0.00012118   -0.00024644   -0.02013106
     atom   28 type  2   force =    -0.00000415   -0.00026791    0.04932031
     atom   29 type  2   force =    -0.00563930    0.00192421    0.00158560
     atom   30 type  2   force =     0.00666707    0.00249501   -0.00001482
     atom   31 type  1   force =    -0.00072121    0.00677660   -0.00107058
     atom   32 type  1   force =     0.00049924   -0.00385686    0.00432034
     atom   33 type  2   force =     0.00016231   -0.00011057   -0.00081096
     atom   34 type  2   force =    -0.00187394    0.00169871   -0.01047359
     atom   35 type  2   force =     0.00116806    0.00028664   -0.00017360
     atom   36 type  2   force =    -0.00055821    0.00042831   -0.00026300
     atom   37 type  1   force =    -0.00063607    0.00045276   -0.00026974
     atom   38 type  1   force =     0.00056315    0.00013756    0.00011445
     atom   39 type  2   force =     0.00031973   -0.00039749    0.00039967
     atom   40 type  2   force =     0.00020145    0.00013074   -0.00036654
     atom   41 type  2   force =    -0.00001880   -0.00003084   -0.00123708
     atom   42 type  2   force =     0.00035988   -0.00032670    0.00039940
     atom   43 type  1   force =     0.00013184   -0.00073953    0.00021325
     atom   44 type  1   force =    -0.00046490   -0.00010850    0.00001028
     atom   45 type  2   force =     0.00007563   -0.00006587    0.10287478
     atom   46 type  2   force =    -0.07215952   -0.00002701   -0.02733299
     atom   47 type  2   force =     0.07207965    0.00040747   -0.02737307
     atom   48 type  3   force =     0.00222374   -0.00084826   -0.00524741
     atom   49 type  4   force =    -0.00053713   -0.00021090    0.00037157
     atom   50 type  5   force =    -0.00022906   -0.00015247   -0.00002414
     atom   51 type  5   force =    -0.00048956   -0.00002544    0.00007520
     atom   52 type  3   force =     0.00573005    0.00148390    0.02370874
     atom   53 type  5   force =    -0.00312307   -0.00672059   -0.00996281
     atom   54 type  5   force =    -0.00398606    0.00561162   -0.00910786
     atom   55 type  2   force =    -0.00012026    0.00083742    0.00021717
     atom   56 type  5   force =     0.00033544   -0.00052967   -0.00025138

     Total force =     0.363184     Total SCF correction =     0.000434
  @ DRIVER MODE: Message from server: STATUS
  @ DRIVER MODE: Message from server: GETFORCE
  @ DRIVER MODE: Returning v,forces,stress,ensemble

     Writing output data file ./calc.save/
  @ DRIVER MODE: Message from server: EXIT
  @ DRIVE MODE: Exiting

     General routines

     Parallel routines

   This run was terminated on:  23:55: 5  23Sep2021

   JOB DONE.