     Program PWSCF v.6.7GPU starts on 14Sep2021 at 20: 4:42

     R & G space division:  proc/nbgrp/npool/nimage =      10
     Reading input from /storage/home/hcoda1/3/ntian30/research/carbon/CxH_vib/CH2_calc/ads_slab/CH2ON2_b/out_0019/pw.inp
Warning: card &CELL ignored
Warning: card   CELL_DYNAMICS='IPI', ignored
Warning: card / ignored

     Current dimensions of program PWSCF are:
     Max number of different atomic species (ntypx) = 10
     Max number of k-points (npk) =  40000
     Max angular momentum in pseudopotentials (lmaxx) =  3
     Presently no symmetry can be used with electric field

     Message from routine cell_base_init:
     DEPRECATED: use true lattice parameter, not A to a.u. conversion factor

     IMPORTANT: XC functional enforced from input :
     Exchange-correlation= BEEF-VDW
                           (   1   4  43  14   2   0   0)
     Any further DFT definition will be discarded
     Please, verify this is what you really want

  @ DRIVER MODE: Connecting to
 qe_1139763_2840441.sched-torque.pace.gatech.edu_vn7v1xk_scratch
  using UNIX socket
  @ DRIVER MODE: Message from server: STATUS
  @ DRIVER MODE: Message from server: INIT
  @ DRIVER MODE: Receiving replica           0          -1
  @ DRIVER MODE: Receiving encoded integer          25
  @ DRIVER MODE:  SCF:  T  FORCE:  T  STRESS:  F  VC:  F  ENSEMBLE:  F
  @ DRIVER MODE:  SCF:  T  FORCE:  T  STRESS:  F  VC:  F  ENSEMBLE:  F

     Using Slab Decomposition

     bravais-lattice index     =            0
     lattice parameter (alat)  =       1.8897  a.u.
     unit-cell volume          =    6658.9804 (a.u.)^3
     number of atoms/cell      =           53
     number of atomic types    =            5
     number of electrons       =       400.00
     number of Kohn-Sham states=          210
     kinetic-energy cutoff     =      29.3995  Ry
     charge density cutoff     =     293.9946  Ry
     scf convergence threshold =      7.3E-08
     mixing beta               =       0.0500
     number of iterations used =            8  plain     mixing
     Exchange-correlation= BEEF-VDW
                           (   1   4  43  14   2   0   0)

     celldm(1)=   1.889726  celldm(2)=   0.000000  celldm(3)=   0.000000
     celldm(4)=   0.000000  celldm(5)=   0.000000  celldm(6)=   0.000000

     crystal axes: (cart. coord. in units of alat)
               a(1) = (   6.579727   0.000000   0.000000 )
               a(2) = (  -0.000775   5.961596   0.000000 )
               a(3) = (   0.000000   0.000000  25.155947 )

     reciprocal axes: (cart. coord. in units 2 pi/alat)
               b(1) = (  0.151982  0.000020  0.000000 )
               b(2) = (  0.000000  0.167740  0.000000 )
               b(3) = (  0.000000  0.000000  0.039752 )

     PseudoPot. # 1 for C  read from file:
     /storage/coda1/p-amedford6/0/shared/rich_project_chbe-medford/medford-share/data/pseudos_module/espresso/nninc/pbe/van/C.UPF
     MD5 check sum: 1a69bf6b8db32088f5b2163dbdb77a27
     Pseudo is Ultrasoft, Zval =  4.0
     Generated by new atomic code, or converted to UPF format
     Using radial grid of  721 points,  4 beta functions with:
                l(1) =   0
                l(2) =   0
                l(3) =   1
                l(4) =   1
     Q(r) pseudized with  8 coefficients,  rinner =    0.800   0.800   0.800

     PseudoPot. # 2 for H  read from file:
     /storage/coda1/p-amedford6/0/shared/rich_project_chbe-medford/medford-share/data/pseudos_module/espresso/nninc/pbe/van/H.UPF
     MD5 check sum: b5ee9d7bfd3a09ee7748110bda690ff7
     Pseudo is Ultrasoft, Zval =  1.0
     Generated by new atomic code, or converted to UPF format
     Using radial grid of  615 points,  1 beta functions with:
                l(1) =   0
     Q(r) pseudized with  8 coefficients,  rinner =    0.800

     PseudoPot. # 3 for O  read from file:
     /storage/coda1/p-amedford6/0/shared/rich_project_chbe-medford/medford-share/data/pseudos_module/espresso/nninc/pbe/van/O.UPF
     MD5 check sum: 78c19812648e8988a0fe644b0f25305e
     Pseudo is Ultrasoft, Zval =  6.0
     Generated by new atomic code, or converted to UPF format
     Using radial grid of  737 points,  4 beta functions with:
                l(1) =   0
                l(2) =   0
                l(3) =   1
                l(4) =   1
     Q(r) pseudized with  8 coefficients,  rinner =    0.800   0.800   0.800

     PseudoPot. # 4 for Ti read from file:
     /storage/coda1/p-amedford6/0/shared/rich_project_chbe-medford/medford-share/data/pseudos_module/espresso/nninc/pbe/van/Ti.UPF
     MD5 check sum: 8e4df49b7f0d34bbd5052bf3f5ea0213
     Pseudo is Ultrasoft, Zval = 12.0
     Generated by new atomic code, or converted to UPF format
     Using radial grid of  851 points,  6 beta functions with:
                l(1) =   0
                l(2) =   0
                l(3) =   1
                l(4) =   1
                l(5) =   2
                l(6) =   2
     Q(r) pseudized with  8 coefficients,  rinner =    1.000   1.000   1.000
                                                       1.000   1.000

     PseudoPot. # 5 for N  read from file:
     /storage/coda1/p-amedford6/0/shared/rich_project_chbe-medford/medford-share/data/pseudos_module/espresso/nninc/pbe/van/N.UPF
     MD5 check sum: 90d10febe142ad51ac9d5be1deb811c4
     Pseudo is Ultrasoft, Zval =  5.0
     Generated by new atomic code, or converted to UPF format
     Using radial grid of  729 points,  4 beta functions with:
                l(1) =   0
                l(2) =   0
                l(3) =   1
                l(4) =   1
     Q(r) pseudized with  8 coefficients,  rinner =    0.800   0.800   0.800

     atomic species   valence    mass     pseudopotential
        C1             4.00    12.01100     C ( 1.00)
        H1             1.00     1.00800     H ( 1.00)
        O1             6.00    15.99900     O ( 1.00)
        Ti1           12.00    47.86700     Ti( 1.00)
        N1             5.00    14.00700     N ( 1.00)

     No symmetry found

   Cartesian axes

     site n.     atom                  positions (alat units)
         1           C1  tau(   1) = (   6.4247902   2.9910588  18.6917704  )
         2           H1  tau(   2) = (   6.3980358   3.9338040  19.2291268  )
         3           H1  tau(   3) = (   6.3671137   2.0386567  19.2103458  )
         4           O1  tau(   4) = (   3.2904802   0.0005063   4.7018136  )
         5           O1  tau(   5) = (   3.2900926   2.9813045   4.7018136  )
         6           O1  tau(   6) = (   1.3043587   1.4918075   6.0039043  )
         7           O1  tau(   7) = (   1.3039711   4.4726057   6.0039043  )
         8           O1  tau(   8) = (   5.2767064   1.4903225   6.0039473  )
         9           O1  tau(   9) = (   5.2763189   4.4711207   6.0039473  )
        10           O1  tau(  10) = (   3.2906025   0.0005020   7.3038282  )
        11           O1  tau(  11) = (   3.2902150   2.9813002   7.3038282  )
        12           O1  tau(  12) = (   0.0006271   0.0005054   7.9858123  )
        13           O1  tau(  13) = (   0.0002396   2.9813036   7.9858123  )
        14           O1  tau(  14) = (   4.5942328   1.4918067   9.2879030  )
        15           O1  tau(  15) = (   4.5938453   4.4726049   9.2879030  )
        16           O1  tau(  16) = (   1.9868534   1.4903216   9.2879459  )
        17           O1  tau(  17) = (   1.9864658   4.4711199   9.2879459  )
        18           O1  tau(  18) = (   0.0058113   2.9878523  10.5832334  )
        19           O1  tau(  19) = (   0.0062988   0.0093020  10.6005518  )
        20           O1  tau(  20) = (   3.2955317   2.9954032  11.3404818  )
        21           O1  tau(  21) = (   3.2944299   0.0136787  11.3445968  )
        22           O1  tau(  22) = (   5.2904553   1.5027675  12.6317203  )
        23           O1  tau(  23) = (   5.2914467   4.4836083  12.6349631  )
        24           O1  tau(  24) = (   1.2933861   1.5040032  12.6362007  )
        25           O1  tau(  25) = (   1.2922507   4.4849626  12.6395598  )
        26           O1  tau(  26) = (   3.2955364   2.9961609  13.9180299  )
        27           O1  tau(  27) = (   3.2969677   0.0155663  13.9438287  )
        28           O1  tau(  28) = (   0.0016464   0.0229801  14.6780835  )
        29           O1  tau(  29) = (   0.0078505   2.9966620  14.7218711  )
        30           O1  tau(  30) = (   4.5417949   4.4807699  16.1031406  )
        31           O1  tau(  31) = (   4.5422182   1.5234006  16.1020929  )
        32           O1  tau(  32) = (   2.0382733   4.4802786  16.1011463  )
        33           O1  tau(  33) = (   2.0385641   1.5240134  16.0993588  )
        34           O1  tau(  34) = (   6.5794991   0.0244991  17.1995468  )
        35           O1  tau(  35) = (   6.5588415   3.0026814  17.4289308  )
        36           Ti1 tau(  36) = (   0.0004258   2.9801865   6.0000000  )
        37           Ti1 tau(  37) = (   0.0000382   5.9609847   6.0000000  )
        38           Ti1 tau(  38) = (   3.2906075   1.4906267   6.0002472  )
        39           Ti1 tau(  39) = (   3.2902200   4.4714249   6.0002472  )
        40           Ti1 tau(  40) = (   3.2947477   0.0499856   9.1537742  )
        41           Ti1 tau(  41) = (   3.3215383   3.0289251   9.1580241  )
        42           Ti1 tau(  42) = (   0.0276872   4.5181110   9.2597866  )
        43           Ti1 tau(  43) = (   0.0223396   1.5961087   9.3523429  )
        44           Ti1 tau(  44) = (   3.3278215   4.4891914  12.4850086  )
        45           Ti1 tau(  45) = (   3.3277968   1.5111787  12.4828596  )
        46           Ti1 tau(  46) = (   0.0250534   0.0277200  12.4935153  )
        47           Ti1 tau(  47) = (   0.0290128   3.0118426  12.7617797  )
        48           Ti1 tau(  48) = (   3.2948489   3.0033751  15.7103116  )
        49           Ti1 tau(  49) = (   3.2995243   0.0226186  15.7353524  )
        50           Ti1 tau(  50) = (   0.0095488   1.4190105  15.9501391  )
        51           Ti1 tau(  51) = (   0.0017608   4.6113996  15.9785021  )
        52           N1  tau(  52) = (   3.7826193   3.0501191  20.3090129  )
        53           N1  tau(  53) = (   2.7364546   2.9530354  19.9655958  )

     number of k points=    10  Fermi-Dirac smearing, width (Ry)=  0.0073
                       cart. coord. in units 2pi/alat
        k(    1) = (   0.0000000   0.0000000   0.0000000), wk =   0.1250000
        k(    2) = (   0.0000000   0.0419351   0.0000000), wk =   0.2500000
        k(    3) = (   0.0000000  -0.0838702   0.0000000), wk =   0.1250000
        k(    4) = (   0.0379955   0.0000049   0.0000000), wk =   0.2500000
        k(    5) = (   0.0379955   0.0419400   0.0000000), wk =   0.2500000
        k(    6) = (   0.0379955  -0.0838652   0.0000000), wk =   0.2500000
        k(    7) = (   0.0379955  -0.0419301   0.0000000), wk =   0.2500000
        k(    8) = (  -0.0759910  -0.0000099   0.0000000), wk =   0.1250000
        k(    9) = (  -0.0759910   0.0419252   0.0000000), wk =   0.2500000
        k(   10) = (  -0.0759910  -0.0838800   0.0000000), wk =   0.1250000

     Initial potential from superposition of free atoms

     starting charge  383.99917, renormalised to  400.00000

     negative rho (up, down):  1.498E-02 0.000E+00

     %%%%%%%%%%%%%%%%%%%%%%%%%%%%%%%%%%%%%%%%%%%%%%%%%%%%%%%%%%%%%%%%%%%%%%%%
     %                                                                      %
     % You are using vdW-DF, which was implemented by the Thonhauser group. %
     % Please cite the following two papers that made this development      %
     % possible and the two reviews that describe the various versions:     %
     %                                                                      %
     %   T. Thonhauser et al., PRL 115, 136402 (2015).                      %
     %   T. Thonhauser et al., PRB 76, 125112 (2007).                       %
     %   K. Berland et al., Rep. Prog. Phys. 78, 066501 (2015).             %
     %   D.C. Langreth et al., J. Phys.: Condens. Matter 21, 084203 (2009). %
     %                                                                      %
     %                                                                      %
     % If you are calculating the stress with vdW-DF, please also cite:     %
     %                                                                      %
     %   R. Sabatini et al., J. Phys.: Condens. Matter 24, 424209 (2012).   %
     %                                                                      %
     %%%%%%%%%%%%%%%%%%%%%%%%%%%%%%%%%%%%%%%%%%%%%%%%%%%%%%%%%%%%%%%%%%%%%%%%

     Adding external electric field

     Computed dipole along edir(3) :
        Dipole              -12.3567 Ry au,        -31.4077 Debye
        Dipole field         -0.0233 Ry au,

        Potential amp.        2.1616 Ry
        Total length         46.3494 bohr

     Starting wfcs are  302 atomic wfcs
  @ DRIVER MODE: Message from server: STATUS
  @ DRIVER MODE: Message from server: POSDATA
  @ DRIVER MODE: Reading and sharing cell
  @ DRIVER MODE: Reading and sharing positions
  @ DRIVER MODE: Received positions

     Self-consistent Calculation

     iteration #  1     ecut=    29.40 Ry     beta= 0.05
     Davidson diagonalization with overlap
     c_bands:  2 eigenvalues not converged
     c_bands:  2 eigenvalues not converged
     c_bands:  2 eigenvalues not converged
     c_bands:  2 eigenvalues not converged
     c_bands:  4 eigenvalues not converged
     c_bands:  2 eigenvalues not converged
     c_bands:  5 eigenvalues not converged
     c_bands:  1 eigenvalues not converged
     c_bands:  3 eigenvalues not converged
     ethr =  1.00E-05,  avg # of iterations = 23.3

[...]

     total energy              =   -2430.19220682 Ry
     estimated scf accuracy    <    6093.26478511 Ry

     iteration #  2     ecut=    29.40 Ry     beta= 0.05
     Davidson diagonalization with overlap
     ethr =  1.00E-02,  avg # of iterations = 22.0

[...]

     iteration # 74     ecut=    29.40 Ry     beta= 0.05
     Davidson diagonalization with overlap
     ethr =  8.61E-11,  avg # of iterations = 13.8

[...]

     total energy              =   -2970.35122804 Ry
     estimated scf accuracy    <       0.00000029 Ry

     iteration # 75     ecut=    29.40 Ry     beta= 0.05
     Davidson diagonalization with overlap
     c_bands:  1 eigenvalues not converged
     c_bands:  1 eigenvalues not converged
     ethr =  7.30E-11,  avg # of iterations = 13.9

     negative rho (up, down):  1.508E-02 0.000E+00

     Adding external electric field

     Computed dipole along edir(3) :
        Dipole                0.9968 Ry au,          2.5335 Debye
        Dipole field          0.0019 Ry au,

        Potential amp.       -0.1744 Ry
        Total length         46.3494 bohr

     End of self-consistent calculation

          k = 0.0000 0.0000 0.0000 ( 18029 PWs)   bands (ev):

   -55.5219 -55.5128 -55.4848 -55.4764 -55.4177 -55.4005 -55.3754 -55.3118
   -55.3056 -55.2964 -55.2932 -55.2600 -55.2415 -55.2163 -54.5473 -54.5132
   -32.0837 -31.9948 -31.8955 -31.8859 -31.8315 -31.8273 -31.8200 -31.8003
   -31.7725 -31.7564 -31.7540 -31.7290 -31.7051 -31.6948 -31.6799 -31.6618
   -31.6467 -31.6464 -31.6368 -31.6166 -31.5969 -31.5928 -31.5843 -31.5789
   -31.5745 -31.5476 -31.5467 -31.5252 -31.5195 -31.5185 -31.4971 -31.4752
   -31.4694 -31.4468 -31.4379 -31.4376 -31.4298 -31.4254 -31.4034 -31.3991
   -31.3938 -31.3860 -30.9572 -30.8597 -30.8375 -30.7740 -30.6879 -30.5765
   -21.4041 -19.7412 -16.3056 -16.0050 -15.8634 -15.7330 -15.6763 -15.5651
   -15.4081 -15.3486 -15.2515 -15.2023 -15.1517 -15.1199 -15.1105 -15.0948
   -15.0707 -15.0550 -15.0519 -14.9843 -14.9733 -14.9371 -14.9238 -14.9234
   -14.8260 -14.7766 -14.7113 -14.6521 -14.5982 -14.5447 -14.5201 -13.0475
   -12.9292  -9.1230  -6.6664  -5.3885  -5.3866  -4.5581  -4.5476  -3.6546
    -3.4762  -3.4335  -3.4270  -3.3715  -3.3617  -3.2636  -3.1448  -3.1089
    -2.8239  -2.7348  -2.7017  -2.6879  -2.6796  -2.5505  -2.4897  -2.3730
    -2.3652  -2.3517  -2.3507  -2.3417  -2.2974  -2.2947  -2.2511  -2.2190
    -2.1339  -2.0735  -1.9640  -1.9528  -1.9275  -1.8653  -1.8319  -1.8097
    -1.8069  -1.7610  -1.7589  -1.7557  -1.7113  -1.6236  -1.5194  -1.4781
    -1.3825  -1.3486  -1.2369  -1.1049  -1.0269  -0.9869  -0.9344  -0.8837
    -0.8775  -0.8540  -0.8431  -0.8214  -0.8058  -0.6903  -0.5756  -0.5732
    -0.4727  -0.4195  -0.3930  -0.3826  -0.2825  -0.2639  -0.2570  -0.1785
    -0.0224  -0.0187  -0.0056   0.1135   0.1413   0.1582   0.2083   0.2300
     0.2711   0.2950   0.3492   0.4053   0.4143   0.4637   0.4722   0.4938
     0.5990   0.6579   0.6634   0.7221   0.7662   0.9517   0.9663   1.1065
     1.1651   1.3811   1.4778   1.5285   1.6468   2.0649   2.1240   3.6384
     3.6737   3.6946   3.7430   3.7755   3.8077   3.8737   4.0804   4.0979
     4.1002   4.1274

[...]

          k = 0.0380-0.0419 0.0000 ( 17876 PWs)   bands (ev):

[...]

          k =-0.0760-0.0000 0.0000 ( 17886 PWs)   bands (ev):

[...]

          k =-0.0760-0.0839 0.0000 ( 17948 PWs)   bands (ev):

   -55.5106 -55.4960 -55.4958 -55.4932 -55.4099 -55.3969 -55.3831 -55.3151
   -55.3015 -55.2903 -55.2771 -55.2766 -55.2476 -55.2197 -54.5306 -54.5297
   -31.8864 -31.8835 -31.8187 -31.8051 -31.8029 -31.8004 -31.7911 -31.7804
   -31.7687 -31.7434 -31.7271 -31.7145 -31.7019 -31.6625 -31.6507 -31.6445
   -31.6394 -31.6343 -31.6287 -31.6249 -31.6132 -31.6070 -31.6043 -31.6011
   -31.5975 -31.5956 -31.5776 -31.5717 -31.5432 -31.5339 -31.5295 -31.5159
   -31.5038 -31.4950 -31.4895 -31.4826 -31.4805 -31.4758 -31.4589 -31.4380
   -31.4274 -31.4138 -30.8507 -30.8495 -30.7705 -30.7697 -30.7314 -30.7305
   -21.4038 -19.7340 -15.7367 -15.7065 -15.6072 -15.4733 -15.4627 -15.4216
   -15.3806 -15.3221 -15.2643 -15.2609 -15.2201 -15.2062 -15.1870 -15.1514
   -15.1194 -15.0750 -15.0620 -15.0569 -15.0450 -14.9902 -14.9836 -14.9438
   -14.9254 -14.9184 -14.8742 -14.8667 -14.7921 -14.7524 -14.7294 -13.0317
   -13.0291  -9.1356  -6.6500  -5.3649  -5.3182  -4.5629  -4.5573  -3.5711
    -3.1697  -3.0262  -2.9901  -2.8310  -2.6953  -2.6845  -2.6298  -2.5397
    -2.5061  -2.4625  -2.4108  -2.3964  -2.3734  -2.3689  -2.3588  -2.3548
    -2.3473  -2.2963  -2.2775  -2.2413  -2.1855  -2.1788  -2.1663  -2.1595
    -2.1162  -2.1007  -2.0929  -2.0867  -2.0808  -2.0081  -1.9499  -1.8720
    -1.7818  -1.7390  -1.7206  -1.6832  -1.6473  -1.6123  -1.5907  -1.5729
    -1.4612  -1.4334  -1.2904  -1.2666  -1.2496  -1.2384  -1.1976  -1.1938
    -1.0609  -0.9837  -0.9727  -0.9501  -0.8945  -0.8613  -0.8173  -0.7913
    -0.7032  -0.6683  -0.6262  -0.5769  -0.4966  -0.4868  -0.4348  -0.4194
    -0.3375  -0.3237  -0.2925  -0.2897  -0.2236  -0.1781  -0.1041  -0.0972
    -0.0713   0.0354   0.0908   0.1050   0.2874   0.4617   0.4742   0.4855
     0.5968   0.6080   0.6530   0.7279   0.7381   0.8225   0.8781   0.9754
     0.9947   1.0043   1.0834   1.8368   1.8378   1.9274   1.9389   3.6352
     3.8543   3.8865   3.9062   3.9589   4.1154   4.1202   4.1334   4.1462
     4.2586   4.2768

     the Fermi energy is     3.6269 ev

!    total energy              =   -2970.35123939 Ry
     estimated scf accuracy    <       0.00000007 Ry
     smearing contrib. (-TS)   =      -0.03416936 Ry
     internal energy E=F+TS    =   -2970.31707002 Ry

     The total energy is F=E-TS. E is the sum of the following terms:
     one-electron contribution =  -23485.56799774 Ry
     hartree contribution      =   11835.41887746 Ry
     xc contribution           =    -491.50777499 Ry
     ewald contribution        =    9171.33795034 Ry
     electric field correction =       0.00187491 Ry

     convergence has been achieved in  75 iterations

     Forces acting on atoms (cartesian axes, Ry/au):

     atom    1 type  1   force =    -0.00024868    0.00007013   -0.00009762
     atom    2 type  2   force =    -0.00049571    0.00079893    0.00026267
     atom    3 type  2   force =     0.00026776   -0.00058324   -0.00028205
     atom    4 type  3   force =    -0.00006923    0.00001760    0.10420282
     atom    5 type  3   force =    -0.00005561   -0.00001310    0.10426721
     atom    6 type  3   force =    -0.06903342    0.00076198   -0.02906722
     atom    7 type  3   force =    -0.06858118   -0.00136332   -0.02907301
     atom    8 type  3   force =     0.06870551    0.00128992   -0.02914024
     atom    9 type  3   force =     0.06836000   -0.00098543   -0.02914668
     atom   10 type  3   force =     0.00017131    0.00038894    0.04600964
     atom   11 type  3   force =     0.00059071    0.00071899    0.04718385
     atom   12 type  3   force =     0.00031175   -0.00529130   -0.03190030
     atom   13 type  3   force =     0.00036546    0.00311581   -0.02588407
     atom   14 type  3   force =    -0.01814708   -0.00007737    0.00388219
     atom   15 type  3   force =    -0.01656062    0.00120480    0.00342482
     atom   16 type  3   force =     0.01841321   -0.00125863    0.00385264
     atom   17 type  3   force =     0.01756853    0.00141822    0.00328967
     atom   18 type  3   force =     0.00001933    0.00030566    0.00040257
     atom   19 type  3   force =     0.00003201   -0.00012131    0.00013318
     atom   20 type  3   force =    -0.00004636    0.00028266    0.00034011
     atom   21 type  3   force =    -0.00007074   -0.00029877   -0.00038568
     atom   22 type  3   force =     0.00037312    0.00030008    0.00028157
     atom   23 type  3   force =     0.00030383   -0.00026011    0.00032643
     atom   24 type  3   force =    -0.00037641    0.00035552    0.00017144
     atom   25 type  3   force =    -0.00030415   -0.00030185    0.00009445
     atom   26 type  3   force =    -0.00006470    0.00013160    0.00032180
     atom   27 type  3   force =    -0.00002610   -0.00008265    0.00019391
     atom   28 type  3   force =    -0.00051918   -0.00001808   -0.00019588
     atom   29 type  3   force =    -0.00022769    0.00019911   -0.00053961
     atom   30 type  3   force =     0.00043993   -0.00043684    0.00028544
     atom   31 type  3   force =    -0.00020693    0.00048748    0.00023800
     atom   32 type  3   force =     0.00106131   -0.00052001    0.00005339
     atom   33 type  3   force =     0.00096165    0.00058541    0.00014613
     atom   34 type  3   force =    -0.00057122    0.00001666    0.00085870
     atom   35 type  3   force =    -0.00068763   -0.00058525   -0.00024438
     atom   36 type  4   force =    -0.00024973   -0.00177002    0.10175345
     atom   37 type  4   force =    -0.00006996    0.00134874    0.11449367
     atom   38 type  4   force =    -0.00032489    0.00053422   -0.18033197
     atom   39 type  4   force =    -0.00020542   -0.00040282   -0.18062717
     atom   40 type  4   force =     0.00026290    0.00082370   -0.00110378
     atom   41 type  4   force =     0.00020812   -0.00077641   -0.00089062
     atom   42 type  4   force =    -0.00020887    0.00086739   -0.00019008
     atom   43 type  4   force =    -0.00015395   -0.00019835    0.00002409
     atom   44 type  4   force =    -0.00010936   -0.00008186    0.00031253
     atom   45 type  4   force =     0.00008145    0.00007474    0.00038728
     atom   46 type  4   force =    -0.00009741    0.00049339   -0.00012351
     atom   47 type  4   force =    -0.00019193   -0.00044123    0.00043826
     atom   48 type  4   force =    -0.00282677   -0.00003420    0.00087989
     atom   49 type  4   force =    -0.00283215    0.00005774    0.00024383
     atom   50 type  4   force =     0.00085236    0.00034132   -0.00024485
     atom   51 type  4   force =     0.00339693   -0.00051605   -0.00053322
     atom   52 type  5   force =     0.00110078    0.00041581    0.00133750
     atom   53 type  5   force =    -0.00028486   -0.00098839   -0.00009121

     Total force =     0.374203     Total SCF correction =     0.000726
  @ DRIVER MODE: Message from server: STATUS
  @ DRIVER MODE: Message from server: GETFORCE
  @ DRIVER MODE: Returning v,forces,stress,ensemble

     Writing output data file ./calc.save/
  @ DRIVER MODE: Message from server: EXIT
  @ DRIVE MODE: Exiting

     General routines

     Parallel routines

   This run was terminated on:  20:25: 1  14Sep2021

   JOB DONE.