     Program PWSCF v.6.7GPU starts on 16Sep2021 at  3:24:54

     R & G space division:  proc/nbgrp/npool/nimage =      10
     Reading input from /storage/home/hcoda1/3/ntian30/research/carbon/CxH_vib/H2O_calc/ads_slab/CH3N2H2O_c/out_0037/pw.inp
Warning: card &CELL ignored
Warning: card   CELL_DYNAMICS='IPI', ignored
Warning: card / ignored

     Current dimensions of program PWSCF are:
     Max number of different atomic species (ntypx) = 10
     Max number of k-points (npk) =  40000
     Max angular momentum in pseudopotentials (lmaxx) =  3
     Presently no symmetry can be used with electric field

     Message from routine cell_base_init:
     DEPRECATED: use true lattice parameter, not A to a.u. conversion factor

     IMPORTANT: XC functional enforced from input :
     Exchange-correlation= BEEF-VDW
                           (   1   4  43  14   2   0   0)
     Any further DFT definition will be discarded
     Please, verify this is what you really want

  @ DRIVER MODE: Connecting to
 qe_1139763_2852616.sched-torque.pace.gatech.edu095v0h86_scratch
  using UNIX socket
  @ DRIVER MODE: Message from server: STATUS
  @ DRIVER MODE: Message from server: INIT
  @ DRIVER MODE: Receiving replica           0          -1
  @ DRIVER MODE: Receiving encoded integer          25
  @ DRIVER MODE:  SCF:  T  FORCE:  T  STRESS:  F  VC:  F  ENSEMBLE:  F
  @ DRIVER MODE:  SCF:  T  FORCE:  T  STRESS:  F  VC:  F  ENSEMBLE:  F

     Using Slab Decomposition

     bravais-lattice index     =            0
     lattice parameter (alat)  =       1.8897  a.u.
     unit-cell volume          =    6658.9804 (a.u.)^3
     number of atoms/cell      =           56
     number of atomic types    =            5
     number of electrons       =       403.00
     number of Kohn-Sham states=          211
     kinetic-energy cutoff     =      29.3995  Ry
     charge density cutoff     =     293.9946  Ry
     scf convergence threshold =      7.3E-08
     mixing beta               =       0.0500
     number of iterations used =            8  plain     mixing
     Exchange-correlation= BEEF-VDW
                           (   1   4  43  14   2   0   0)

     celldm(1)=   1.889726  celldm(2)=   0.000000  celldm(3)=   0.000000
     celldm(4)=   0.000000  celldm(5)=   0.000000  celldm(6)=   0.000000

     crystal axes: (cart. coord. in units of alat)
               a(1) = (   6.579727   0.000000   0.000000 )
               a(2) = (  -0.000775   5.961596   0.000000 )
               a(3) = (   0.000000   0.000000  25.155947 )

     reciprocal axes: (cart. coord. in units 2 pi/alat)
               b(1) = (  0.151982  0.000020  0.000000 )
               b(2) = (  0.000000  0.167740  0.000000 )
               b(3) = (  0.000000  0.000000  0.039752 )

     PseudoPot. # 1 for Ti read from file:
     /storage/coda1/p-amedford6/0/shared/rich_project_chbe-medford/medford-share/data/pseudos_module/espresso/nninc/pbe/van/Ti.UPF
     MD5 check sum: 8e4df49b7f0d34bbd5052bf3f5ea0213
     Pseudo is Ultrasoft, Zval = 12.0
     Generated by new atomic code, or converted to UPF format
     Using radial grid of  851 points,  6 beta functions with:
                l(1) =   0
                l(2) =   0
                l(3) =   1
                l(4) =   1
                l(5) =   2
                l(6) =   2
     Q(r) pseudized with  8 coefficients,  rinner =    1.000   1.000   1.000
                                                       1.000   1.000

     PseudoPot. # 2 for O  read from file:
     /storage/coda1/p-amedford6/0/shared/rich_project_chbe-medford/medford-share/data/pseudos_module/espresso/nninc/pbe/van/O.UPF
     MD5 check sum: 78c19812648e8988a0fe644b0f25305e
     Pseudo is Ultrasoft, Zval =  6.0
     Generated by new atomic code, or converted to UPF format
     Using radial grid of  737 points,  4 beta functions with:
                l(1) =   0
                l(2) =   0
                l(3) =   1
                l(4) =   1
     Q(r) pseudized with  8 coefficients,  rinner =    0.800   0.800   0.800

     PseudoPot. # 3 for N  read from file:
     /storage/coda1/p-amedford6/0/shared/rich_project_chbe-medford/medford-share/data/pseudos_module/espresso/nninc/pbe/van/N.UPF
     MD5 check sum: 90d10febe142ad51ac9d5be1deb811c4
     Pseudo is Ultrasoft, Zval =  5.0
     Generated by new atomic code, or converted to UPF format
     Using radial grid of  729 points,  4 beta functions with:
                l(1) =   0
                l(2) =   0
                l(3) =   1
                l(4) =   1
     Q(r) pseudized with  8 coefficients,  rinner =    0.800   0.800   0.800

     PseudoPot. # 4 for C  read from file:
     /storage/coda1/p-amedford6/0/shared/rich_project_chbe-medford/medford-share/data/pseudos_module/espresso/nninc/pbe/van/C.UPF
     MD5 check sum: 1a69bf6b8db32088f5b2163dbdb77a27
     Pseudo is Ultrasoft, Zval =  4.0
     Generated by new atomic code, or converted to UPF format
     Using radial grid of  721 points,  4 beta functions with:
                l(1) =   0
                l(2) =   0
                l(3) =   1
                l(4) =   1
     Q(r) pseudized with  8 coefficients,  rinner =    0.800   0.800   0.800

     PseudoPot. # 5 for H  read from file:
     /storage/coda1/p-amedford6/0/shared/rich_project_chbe-medford/medford-share/data/pseudos_module/espresso/nninc/pbe/van/H.UPF
     MD5 check sum: b5ee9d7bfd3a09ee7748110bda690ff7
     Pseudo is Ultrasoft, Zval =  1.0
     Generated by new atomic code, or converted to UPF format
     Using radial grid of  615 points,  1 beta functions with:
                l(1) =   0
     Q(r) pseudized with  8 coefficients,  rinner =    0.800

     atomic species   valence    mass     pseudopotential
        Ti1           12.00    47.86700     Ti( 1.00)
        O1             6.00    15.99900     O ( 1.00)
        N1             5.00    14.00700     N ( 1.00)
        C1             4.00    12.01100     C ( 1.00)
        H1             1.00     1.00800     H ( 1.00)

     No symmetry found

   Cartesian axes

     site n.     atom                  positions (alat units)
         1           Ti1 tau(   1) = (   0.0004258   2.9801865   6.0000000  )
         2           Ti1 tau(   2) = (   3.2906075   1.4906267   6.0002472  )
         3           O1  tau(   3) = (   0.0006271   0.0005054   7.9858123  )
         4           O1  tau(   4) = (   3.2906025   0.0005020   7.3038282  )
         5           O1  tau(   5) = (   4.5942328   1.4918067   9.2879030  )
         6           O1  tau(   6) = (   1.9868534   1.4903216   9.2879459  )
         7           Ti1 tau(   7) = (   3.2907910   2.8959150   9.1758416  )
         8           Ti1 tau(   8) = (   0.0015273   1.4827037   9.2680791  )
         9           O1  tau(   9) = (   3.2828550   5.9398922  11.3444325  )
        10           O1  tau(  10) = (   0.0116148   5.9584955  10.6183126  )
        11           O1  tau(  11) = (   1.2785533   1.4626539  12.6279770  )
        12           O1  tau(  12) = (   5.2704455   1.4657548  12.6160130  )
        13           Ti1 tau(  13) = (   0.0600808   2.9393476  12.6134163  )
        14           Ti1 tau(  14) = (   3.3737088   1.4602624  12.5010433  )
        15           O1  tau(  15) = (   6.5684750   5.9323085  14.6353932  )
        16           O1  tau(  16) = (   3.2849856   5.9366180  13.9618146  )
        17           O1  tau(  17) = (   4.5362432   1.5114280  16.0576559  )
        18           O1  tau(  18) = (   2.0240554   1.5008084  16.0383298  )
        19           Ti1 tau(  19) = (   3.2703657   2.9522362  15.6888820  )
        20           Ti1 tau(  20) = (   6.5391562   1.4934284  15.8005638  )
        21           O1  tau(  21) = (   3.2904802   0.0005063   4.7018136  )
        22           O1  tau(  22) = (   6.5583345   5.9570231  17.1947061  )
        23           O1  tau(  23) = (   1.3043587   1.4918075   6.0039043  )
        24           O1  tau(  24) = (   5.2767064   1.4903225   6.0039473  )
        25           Ti1 tau(  25) = (   0.0000382   5.9609847   6.0000000  )
        26           Ti1 tau(  26) = (   3.2902200   4.4714249   6.0002472  )
        27           O1  tau(  27) = (   0.0002396   2.9813036   7.9858123  )
        28           O1  tau(  28) = (   3.2902150   2.9813002   7.3038282  )
        29           O1  tau(  29) = (   4.5938453   4.4726049   9.2879030  )
        30           O1  tau(  30) = (   1.9864658   4.4711199   9.2879459  )
        31           Ti1 tau(  31) = (   3.2891106   5.8743827   9.1763621  )
        32           Ti1 tau(  32) = (   0.0006254   4.4649316   9.2693709  )
        33           O1  tau(  33) = (   3.2888364   2.9620848  11.3424199  )
        34           O1  tau(  34) = (   0.0092240   2.9805883  10.6323155  )
        35           O1  tau(  35) = (   1.2785924   4.4508711  12.6313046  )
        36           O1  tau(  36) = (   5.2742027   4.4576360  12.6186982  )
        37           Ti1 tau(  37) = (   0.0560446   5.9134488  12.5469576  )
        38           Ti1 tau(  38) = (   3.3742563   4.4530221  12.5021653  )
        39           O1  tau(  39) = (   6.5655761   2.9369947  14.6516633  )
        40           O1  tau(  40) = (   3.2805149   2.9594171  13.8967751  )
        41           O1  tau(  41) = (   4.5308665   4.4203993  16.0704334  )
        42           O1  tau(  42) = (   2.0169005   4.4237906  16.0574931  )
        43           Ti1 tau(  43) = (   3.2493829   5.9208236  15.8028744  )
        44           Ti1 tau(  44) = (   6.5423592   4.6318136  16.0678394  )
        45           O1  tau(  45) = (   3.2900926   2.9813045   4.7018136  )
        46           O1  tau(  46) = (   1.3039711   4.4726057   6.0039043  )
        47           O1  tau(  47) = (   5.2763189   4.4711207   6.0039473  )
        48           N1  tau(  48) = (   0.1516996   2.6368831  18.6397825  )
        49           N1  tau(  49) = (   0.0343947   2.8734663  17.4441277  )
        50           C1  tau(  50) = (   0.1908864   3.7705318  19.5986308  )
        51           H1  tau(  51) = (   6.5333492   4.7333814  19.1494580  )
        52           H1  tau(  52) = (   6.0816938   3.5230213  20.4074400  )
        53           H1  tau(  53) = (   1.1988782   3.7880179  20.0220438  )
        54           O1  tau(  54) = (   3.2342500   5.9498283  18.2024067  )
        55           H1  tau(  55) = (   4.0366425   0.4867780  18.4672138  )
        56           H1  tau(  56) = (   2.4709518   0.5160301  18.4623371  )

     number of k points=    10  Fermi-Dirac smearing, width (Ry)=  0.0073
                       cart. coord. in units 2pi/alat
        k(    1) = (   0.0000000   0.0000000   0.0000000), wk =   0.1250000
        k(    2) = (   0.0000000   0.0419351   0.0000000), wk =   0.2500000
        k(    3) = (   0.0000000  -0.0838702   0.0000000), wk =   0.1250000
        k(    4) = (   0.0379955   0.0000049   0.0000000), wk =   0.2500000
        k(    5) = (   0.0379955   0.0419400   0.0000000), wk =   0.2500000
        k(    6) = (   0.0379955  -0.0838652   0.0000000), wk =   0.2500000
        k(    7) = (   0.0379955  -0.0419301   0.0000000), wk =   0.2500000
        k(    8) = (  -0.0759910  -0.0000099   0.0000000), wk =   0.1250000
        k(    9) = (  -0.0759910   0.0419252   0.0000000), wk =   0.2500000
        k(   10) = (  -0.0759910  -0.0838800   0.0000000), wk =   0.1250000

     Initial potential from superposition of free atoms

     starting charge  386.99914, renormalised to  403.00000

     negative rho (up, down):  1.444E-02 0.000E+00

     %%%%%%%%%%%%%%%%%%%%%%%%%%%%%%%%%%%%%%%%%%%%%%%%%%%%%%%%%%%%%%%%%%%%%%%%
     %                                                                      %
     % You are using vdW-DF, which was implemented by the Thonhauser group. %
     % Please cite the following two papers that made this development      %
     % possible and the two reviews that describe the various versions:     %
     %                                                                      %
     %   T. Thonhauser et al., PRL 115, 136402 (2015).                      %
     %   T. Thonhauser et al., PRB 76, 125112 (2007).                       %
     %   K. Berland et al., Rep. Prog. Phys. 78, 066501 (2015).             %
     %   D.C. Langreth et al., J. Phys.: Condens. Matter 21, 084203 (2009). %
     %                                                                      %
     %                                                                      %
     % If you are calculating the stress with vdW-DF, please also cite:     %
     %                                                                      %
     %   R. Sabatini et al., J. Phys.: Condens. Matter 24, 424209 (2012).   %
     %                                                                      %
     %%%%%%%%%%%%%%%%%%%%%%%%%%%%%%%%%%%%%%%%%%%%%%%%%%%%%%%%%%%%%%%%%%%%%%%%

     Adding external electric field

     Computed dipole along edir(3) :
        Dipole              -13.2286 Ry au,        -33.6236 Debye
        Dipole field         -0.0250 Ry au,

        Potential amp.        2.3141 Ry
        Total length         46.3494 bohr

     Starting wfcs are  305 atomic wfcs
  @ DRIVER MODE: Message from server: STATUS
  @ DRIVER MODE: Message from server: POSDATA
  @ DRIVER MODE: Reading and sharing cell
  @ DRIVER MODE: Reading and sharing positions
  @ DRIVER MODE: Received positions

     Self-consistent Calculation

     iteration #  1     ecut=    29.40 Ry     beta= 0.05
     Davidson diagonalization with overlap
     c_bands:  4 eigenvalues not converged
     c_bands:  2 eigenvalues not converged
     c_bands:  4 eigenvalues not converged
     c_bands:  1 eigenvalues not converged
     c_bands:  1 eigenvalues not converged
     c_bands:  1 eigenvalues not converged
     c_bands:  4 eigenvalues not converged
     c_bands:  1 eigenvalues not converged
     c_bands:  1 eigenvalues not converged
     ethr =  1.00E-05,  avg # of iterations = 29.8

[...]

     total energy              =   -2367.54120173 Ry
     estimated scf accuracy    <    6916.37786737 Ry

     iteration #  2     ecut=    29.40 Ry     beta= 0.05
     Davidson diagonalization with overlap
     ethr =  1.00E-02,  avg # of iterations = 22.9

[...]

     iteration # 66     ecut=    29.40 Ry     beta= 0.05
     Davidson diagonalization with overlap
     c_bands:  1 eigenvalues not converged
     ethr =  1.39E-10,  avg # of iterations = 11.7

[...]

     total energy              =   -2974.00284585 Ry
     estimated scf accuracy    <       0.00000009 Ry

     iteration # 73     ecut=    29.40 Ry     beta= 0.05
     Davidson diagonalization with overlap
     ethr =  2.13E-11,  avg # of iterations =  6.4

     negative rho (up, down):  1.457E-02 0.000E+00

     Adding external electric field

     Computed dipole along edir(3) :
        Dipole                0.9245 Ry au,          2.3497 Debye
        Dipole field          0.0017 Ry au,

        Potential amp.       -0.1617 Ry
        Total length         46.3494 bohr

     End of self-consistent calculation

          k = 0.0000 0.0000 0.0000 ( 18029 PWs)   bands (ev):

   -55.6019 -55.5678 -55.5614 -55.5540 -55.5253 -55.4356 -55.4122 -55.3953
   -55.3782 -55.3774 -55.3495 -55.3436 -55.0015 -54.8726 -54.5808 -54.5468
   -32.1036 -32.0844 -31.9531 -31.9356 -31.9109 -31.8947 -31.8671 -31.8646
   -31.8449 -31.7979 -31.7908 -31.7765 -31.7542 -31.7400 -31.7241 -31.7183
   -31.7062 -31.6939 -31.6885 -31.6591 -31.6524 -31.6400 -31.6049 -31.6007
   -31.5902 -31.5879 -31.5842 -31.5764 -31.5524 -31.5490 -31.5472 -31.5421
   -31.5302 -31.5288 -31.5191 -31.5108 -31.4892 -31.2709 -31.2003 -31.1300
   -31.1095 -31.0791 -30.9879 -30.8994 -30.8770 -30.8046 -30.7181 -30.6071
   -18.9015 -18.3023 -16.3014 -16.0683 -15.8429 -15.7512 -15.7101 -15.5036
   -15.4030 -15.3271 -15.2094 -15.1453 -15.1370 -15.1180 -15.1066 -15.1020
   -15.0429 -15.0392 -15.0374 -15.0233 -14.9980 -14.9503 -14.9355 -14.9314
   -14.8364 -14.7639 -14.7395 -14.7224 -14.6798 -14.6546 -14.2030 -13.0831
   -12.9666 -11.3163  -6.8641  -6.6898  -4.2051  -3.8563  -3.8265  -3.6758
    -3.5467  -3.5066  -3.4358  -3.3639  -3.2330  -3.2083  -3.0357  -2.8359
    -2.7759  -2.7471  -2.7013  -2.6301  -2.5152  -2.4592  -2.4084  -2.4059
    -2.3860  -2.3805  -2.3562  -2.3378  -2.2401  -2.2203  -2.1505  -2.1350
    -2.0854  -1.9856  -1.9559  -1.9144  -1.9054  -1.8773  -1.8639  -1.8503
    -1.8272  -1.8030  -1.7624  -1.6945  -1.6181  -1.5813  -1.5033  -1.4494
    -1.4082  -1.3482  -1.2123  -1.1373  -1.0893  -1.0568  -1.0471  -1.0287
    -0.9946  -0.9775  -0.8664  -0.7543  -0.7384  -0.6735  -0.6109  -0.5279
    -0.4947  -0.4335  -0.3691  -0.3514  -0.3462  -0.3101  -0.2682  -0.2218
    -0.0843  -0.0293   0.0047   0.0123   0.0739   0.1154   0.1467   0.2289
     0.2441   0.2836   0.3270   0.3581   0.3692   0.3793   0.4003   0.4310
     0.4356   0.6253   0.6684   0.7130   0.7476   0.7857   0.9318   0.9505
     1.0574   1.1628   1.3681   1.4414   1.5407   1.6335   2.0128   2.0586
     2.7603   3.5322   3.6197   3.6646   3.7020   3.7781   3.7889   3.9874
     4.0024   4.0415   4.1170

[...]

          k = 0.0380-0.0419 0.0000 ( 17876 PWs)   bands (ev):

[...]

          k =-0.0760-0.0000 0.0000 ( 17886 PWs)   bands (ev):

[...]

          k =-0.0760-0.0839 0.0000 ( 17948 PWs)   bands (ev):

   -55.5853 -55.5843 -55.5529 -55.5444 -55.5417 -55.4258 -55.4051 -55.3958
   -55.3940 -55.3624 -55.3588 -55.3509 -54.9994 -54.8746 -54.5638 -54.5636
   -31.9173 -31.9009 -31.8999 -31.8993 -31.8805 -31.8796 -31.8401 -31.8314
   -31.8045 -31.7835 -31.7718 -31.7635 -31.7587 -31.7149 -31.7115 -31.7086
   -31.7065 -31.7049 -31.7039 -31.6997 -31.6973 -31.6965 -31.6565 -31.6444
   -31.6235 -31.6172 -31.6102 -31.5955 -31.5950 -31.5922 -31.5861 -31.5772
   -31.5734 -31.5639 -31.5634 -31.5544 -31.4215 -31.2729 -31.2189 -31.1633
   -31.1318 -31.1061 -30.8898 -30.8896 -30.8008 -30.8006 -30.7615 -30.7614
   -18.9005 -18.2986 -15.7556 -15.6512 -15.5543 -15.5187 -15.4624 -15.4028
   -15.3882 -15.3067 -15.2830 -15.2794 -15.2187 -15.1965 -15.1619 -15.1492
   -15.1280 -15.1145 -15.1110 -15.0547 -15.0484 -15.0389 -15.0322 -15.0289
   -14.9622 -14.9196 -14.9160 -14.9115 -14.7870 -14.6615 -14.3825 -13.0685
   -13.0683 -11.3137  -6.8902  -6.6705  -4.1309  -3.8811  -3.7956  -3.2611
    -3.0384  -2.8361  -2.8075  -2.7130  -2.6978  -2.6678  -2.5354  -2.4956
    -2.4559  -2.4415  -2.4184  -2.4174  -2.4045  -2.3980  -2.3808  -2.3570
    -2.3291  -2.3036  -2.2738  -2.2657  -2.2536  -2.2352  -2.2220  -2.2048
    -2.2021  -2.1578  -2.1365  -2.1273  -2.0445  -1.9904  -1.8273  -1.7850
    -1.7404  -1.7309  -1.7060  -1.7006  -1.6681  -1.6542  -1.6019  -1.5904
    -1.4782  -1.3611  -1.3223  -1.2991  -1.2891  -1.2706  -1.1994  -1.0986
    -1.0735  -0.9991  -0.9947  -0.8917  -0.8765  -0.7968  -0.7863  -0.7618
    -0.7062  -0.6697  -0.6504  -0.5664  -0.5608  -0.5385  -0.4965  -0.4661
    -0.4089  -0.3526  -0.3232  -0.3134  -0.2762  -0.2517  -0.2109  -0.1604
    -0.0979  -0.0598   0.0353   0.1382   0.2221   0.3584   0.4687   0.4960
     0.5707   0.6075   0.6817   0.7113   0.7184   0.7796   0.7924   0.8816
     0.9389   0.9517   0.9876   1.1064   1.8048   1.8062   1.8782   1.8785
     2.7853   3.7571   3.8666   3.9094   3.9302   4.0055   4.0467   4.0665
     4.0691   4.1052   4.2302

     the Fermi energy is     3.5315 ev

!    total energy              =   -2974.00286301 Ry
     estimated scf accuracy    <       0.00000002 Ry
     smearing contrib. (-TS)   =      -0.02181185 Ry
     internal energy E=F+TS    =   -2973.98105116 Ry

     The total energy is F=E-TS. E is the sum of the following terms:
     one-electron contribution =  -23851.72896628 Ry
     hartree contribution      =   12020.45064985 Ry
     xc contribution           =    -494.03785236 Ry
     ewald contribution        =    9351.33350486 Ry
     electric field correction =       0.00161277 Ry

     convergence has been achieved in  73 iterations

     Forces acting on atoms (cartesian axes, Ry/au):

     atom    1 type  1   force =     0.00016764   -0.00020638    0.09634887
     atom    2 type  1   force =    -0.00018249   -0.00044335   -0.17541632
     atom    3 type  2   force =     0.00001765   -0.00014439   -0.02469971
     atom    4 type  2   force =     0.00005413   -0.00161993    0.05343810
     atom    5 type  2   force =    -0.01198654   -0.00148079    0.00369319
     atom    6 type  2   force =     0.01344035   -0.00064007    0.00222984
     atom    7 type  1   force =    -0.00108819    0.00055381   -0.00699229
     atom    8 type  1   force =     0.00064605    0.00917778    0.02675648
     atom    9 type  2   force =     0.00017666    0.00020297   -0.00046423
     atom   10 type  2   force =    -0.00157656   -0.00030150   -0.01789889
     atom   11 type  2   force =     0.00090821    0.00090282   -0.00000353
     atom   12 type  2   force =    -0.00061079    0.00059939   -0.00003415
     atom   13 type  1   force =    -0.00027694    0.00024641   -0.00035736
     atom   14 type  1   force =     0.00025259    0.00026873    0.00004321
     atom   15 type  2   force =     0.00007158    0.00019643   -0.00028514
     atom   16 type  2   force =     0.00000633    0.00020853    0.00081973
     atom   17 type  2   force =     0.00098667   -0.00011041    0.00032856
     atom   18 type  2   force =    -0.00138377    0.00009682   -0.00022753
     atom   19 type  1   force =    -0.00025998    0.00131223   -0.00009703
     atom   20 type  1   force =    -0.00012277   -0.00012785   -0.00014365
     atom   21 type  2   force =     0.00009864    0.00001640    0.10321667
     atom   22 type  2   force =    -0.00024590    0.00031642    0.00054608
     atom   23 type  2   force =    -0.07145740   -0.00008820   -0.02777611
     atom   24 type  2   force =     0.07144468    0.00036014   -0.02777168
     atom   25 type  1   force =     0.00001298   -0.00032286    0.09608103
     atom   26 type  1   force =    -0.00030754   -0.00044995   -0.17577498
     atom   27 type  2   force =     0.00008687   -0.00025282   -0.02368784
     atom   28 type  2   force =     0.00011974   -0.00130033    0.05284378
     atom   29 type  2   force =    -0.01225884    0.00021200    0.00357014
     atom   30 type  2   force =     0.01359729    0.00042613    0.00207037
     atom   31 type  1   force =    -0.00117635    0.00349289   -0.01018333
     atom   32 type  1   force =     0.00082674   -0.01099565    0.02705195
     atom   33 type  2   force =     0.00010195    0.00000071    0.00058804
     atom   34 type  2   force =    -0.00116153   -0.00123296   -0.02346273
     atom   35 type  2   force =     0.00082863   -0.00052518   -0.00011324
     atom   36 type  2   force =    -0.00059083   -0.00018259   -0.00013973
     atom   37 type  1   force =    -0.00056475    0.00019944   -0.00042532
     atom   38 type  1   force =     0.00027571   -0.00025139    0.00010035
     atom   39 type  2   force =     0.00008630    0.00045928    0.00010145
     atom   40 type  2   force =     0.00021317    0.00015230   -0.00054788
     atom   41 type  2   force =     0.00076701    0.00083393    0.00055351
     atom   42 type  2   force =    -0.00091132    0.00054923    0.00001047
     atom   43 type  1   force =    -0.00040681   -0.00092705   -0.00085340
     atom   44 type  1   force =    -0.00012686    0.00109088    0.00034993
     atom   45 type  2   force =     0.00008714   -0.00002649    0.10321304
     atom   46 type  2   force =    -0.07146097   -0.00002029   -0.02778472
     atom   47 type  2   force =     0.07144527    0.00039441   -0.02778326
     atom   48 type  3   force =     0.00016528   -0.00151844   -0.00047152
     atom   49 type  3   force =     0.00005907   -0.00020286    0.00028172
     atom   50 type  4   force =     0.00022795    0.00120515    0.00074402
     atom   51 type  5   force =     0.00012544   -0.00063657   -0.00097316
     atom   52 type  5   force =     0.00021921   -0.00006601   -0.00031997
     atom   53 type  5   force =     0.00002932   -0.00018739   -0.00048632
     atom   54 type  2   force =     0.02736788   -0.00075606   -0.00031721
     atom   55 type  5   force =    -0.01310033   -0.00784960   -0.00409174
     atom   56 type  5   force =    -0.01365672    0.00939213    0.00460342

     Total force =     0.369511     Total SCF correction =     0.000289
  @ DRIVER MODE: Message from server: STATUS
  @ DRIVER MODE: Message from server: GETFORCE
  @ DRIVER MODE: Returning v,forces,stress,ensemble

     Writing output data file ./calc.save/
  @ DRIVER MODE: Message from server: EXIT
  @ DRIVE MODE: Exiting

     General routines

     Parallel routines

   This run was terminated on:   3:45:41  16Sep2021

   JOB DONE.