     Program PWSCF v.6.7GPU starts on  9Sep2021 at  5:28: 6

     R & G space division:  proc/nbgrp/npool/nimage =      10
     Reading input from /storage/home/hcoda1/3/ntian30/research/carbon/CxH_vib/CH3_calc/ads_slab/CH3N_a/out_0030/pw.inp
Warning: card &CELL ignored
Warning: card   CELL_DYNAMICS='IPI', ignored
Warning: card / ignored

     Current dimensions of program PWSCF are:
     Max number of different atomic species (ntypx) = 10
     Max number of k-points (npk) =  40000
     Max angular momentum in pseudopotentials (lmaxx) =  3
     Presently no symmetry can be used with electric field

     Message from routine cell_base_init:
     DEPRECATED: use true lattice parameter, not A to a.u. conversion factor

     IMPORTANT: XC functional enforced from input :
     Exchange-correlation= BEEF-VDW
                           (   1   4  43  14   2   0   0)
     Any further DFT definition will be discarded
     Please, verify this is what you really want

  @ DRIVER MODE: Connecting to
 qe_1139763_2767403.sched-torque.pace.gatech.eduy867y8_l_scratch
  using UNIX socket
  @ DRIVER MODE: Message from server: STATUS
  @ DRIVER MODE: Message from server: INIT
  @ DRIVER MODE: Receiving replica           0          -1
  @ DRIVER MODE: Receiving encoded integer          25
  @ DRIVER MODE:  SCF:  T  FORCE:  T  STRESS:  F  VC:  F  ENSEMBLE:  F
  @ DRIVER MODE:  SCF:  T  FORCE:  T  STRESS:  F  VC:  F  ENSEMBLE:  F

     Using Slab Decomposition

     bravais-lattice index     =            0
     lattice parameter (alat)  =       1.8897  a.u.
     unit-cell volume          =    6658.9804 (a.u.)^3
     number of atoms/cell      =           52
     number of atomic types    =            5
     number of electrons       =       390.00
     number of Kohn-Sham states=          205
     kinetic-energy cutoff     =      29.3995  Ry
     charge density cutoff     =     293.9946  Ry
     scf convergence threshold =      7.3E-08
     mixing beta               =       0.0500
     number of iterations used =            8  plain     mixing
     Exchange-correlation= BEEF-VDW
                           (   1   4  43  14   2   0   0)

     celldm(1)=   1.889726  celldm(2)=   0.000000  celldm(3)=   0.000000
     celldm(4)=   0.000000  celldm(5)=   0.000000  celldm(6)=   0.000000

     crystal axes: (cart. coord. in units of alat)
               a(1) = (   6.579727   0.000000   0.000000 )
               a(2) = (  -0.000775   5.961596   0.000000 )
               a(3) = (   0.000000   0.000000  25.155947 )

     reciprocal axes: (cart. coord. in units 2 pi/alat)
               b(1) = (  0.151982  0.000020  0.000000 )
               b(2) = (  0.000000  0.167740  0.000000 )
               b(3) = (  0.000000  0.000000  0.039752 )

     PseudoPot. # 1 for Ti read from file:
     /storage/coda1/p-amedford6/0/shared/rich_project_chbe-medford/medford-share/data/pseudos_module/espresso/nninc/pbe/van/Ti.UPF
     MD5 check sum: 8e4df49b7f0d34bbd5052bf3f5ea0213
     Pseudo is Ultrasoft, Zval = 12.0
     Generated by new atomic code, or converted to UPF format
     Using radial grid of  851 points,  6 beta functions with:
                l(1) =   0
                l(2) =   0
                l(3) =   1
                l(4) =   1
                l(5) =   2
                l(6) =   2
     Q(r) pseudized with  8 coefficients,  rinner =    1.000   1.000   1.000
                                                       1.000   1.000

     PseudoPot. # 2 for O  read from file:
     /storage/coda1/p-amedford6/0/shared/rich_project_chbe-medford/medford-share/data/pseudos_module/espresso/nninc/pbe/van/O.UPF
     MD5 check sum: 78c19812648e8988a0fe644b0f25305e
     Pseudo is Ultrasoft, Zval =  6.0
     Generated by new atomic code, or converted to UPF format
     Using radial grid of  737 points,  4 beta functions with:
                l(1) =   0
                l(2) =   0
                l(3) =   1
                l(4) =   1
     Q(r) pseudized with  8 coefficients,  rinner =    0.800   0.800   0.800

     PseudoPot. # 3 for N  read from file:
     /storage/coda1/p-amedford6/0/shared/rich_project_chbe-medford/medford-share/data/pseudos_module/espresso/nninc/pbe/van/N.UPF
     MD5 check sum: 90d10febe142ad51ac9d5be1deb811c4
     Pseudo is Ultrasoft, Zval =  5.0
     Generated by new atomic code, or converted to UPF format
     Using radial grid of  729 points,  4 beta functions with:
                l(1) =   0
                l(2) =   0
                l(3) =   1
                l(4) =   1
     Q(r) pseudized with  8 coefficients,  rinner =    0.800   0.800   0.800

     PseudoPot. # 4 for C  read from file:
     /storage/coda1/p-amedford6/0/shared/rich_project_chbe-medford/medford-share/data/pseudos_module/espresso/nninc/pbe/van/C.UPF
     MD5 check sum: 1a69bf6b8db32088f5b2163dbdb77a27
     Pseudo is Ultrasoft, Zval =  4.0
     Generated by new atomic code, or converted to UPF format
     Using radial grid of  721 points,  4 beta functions with:
                l(1) =   0
                l(2) =   0
                l(3) =   1
                l(4) =   1
     Q(r) pseudized with  8 coefficients,  rinner =    0.800   0.800   0.800

     PseudoPot. # 5 for H  read from file:
     /storage/coda1/p-amedford6/0/shared/rich_project_chbe-medford/medford-share/data/pseudos_module/espresso/nninc/pbe/van/H.UPF
     MD5 check sum: b5ee9d7bfd3a09ee7748110bda690ff7
     Pseudo is Ultrasoft, Zval =  1.0
     Generated by new atomic code, or converted to UPF format
     Using radial grid of  615 points,  1 beta functions with:
                l(1) =   0
     Q(r) pseudized with  8 coefficients,  rinner =    0.800

     atomic species   valence    mass     pseudopotential
        Ti1           12.00    47.86700     Ti( 1.00)
        O1             6.00    15.99900     O ( 1.00)
        N1             5.00    14.00700     N ( 1.00)
        C1             4.00    12.01100     C ( 1.00)
        H1             1.00     1.00800     H ( 1.00)

     No symmetry found

   Cartesian axes

     site n.     atom                  positions (alat units)
         1           Ti1 tau(   1) = (   0.0004258   2.9801865   6.0000000  )
         2           Ti1 tau(   2) = (   3.2906075   1.4906267   6.0002472  )
         3           O1  tau(   3) = (   0.0006271   0.0005054   7.9858123  )
         4           O1  tau(   4) = (   3.2906025   0.0005020   7.3038282  )
         5           O1  tau(   5) = (   4.5942328   1.4918067   9.2879030  )
         6           O1  tau(   6) = (   1.9868534   1.4903216   9.2879459  )
         7           Ti1 tau(   7) = (   3.2907910   2.8959150   9.1758416  )
         8           Ti1 tau(   8) = (   0.0015273   1.4827037   9.2680791  )
         9           O1  tau(   9) = (   3.3018735   5.9614316  11.2970789  )
        10           O1  tau(  10) = (   0.0116148   5.9584955  10.6183126  )
        11           O1  tau(  11) = (   1.3353665   1.4968727  12.6140821  )
        12           O1  tau(  12) = (   5.3123320   1.5002621  12.6324210  )
        13           Ti1 tau(  13) = (   6.4913169   2.9877414  12.7576577  )
        14           Ti1 tau(  14) = (   3.1819880   1.4874128  12.4666476  )
        15           O1  tau(  15) = (   0.0325390   5.9514364  14.5942808  )
        16           O1  tau(  16) = (   3.3157460   0.0104736  13.8786857  )
        17           O1  tau(  17) = (   4.5538541   1.5308062  16.0536203  )
        18           O1  tau(  18) = (   2.1012647   1.5271178  16.0466835  )
        19           Ti1 tau(  19) = (   3.3239613   3.0121693  15.6870930  )
        20           Ti1 tau(  20) = (   0.0188375   1.6096557  16.0875739  )
        21           O1  tau(  21) = (   3.2904802   0.0005063   4.7018136  )
        22           O1  tau(  22) = (   0.0443345   0.0604659  17.2041813  )
        23           O1  tau(  23) = (   1.3043587   1.4918075   6.0039043  )
        24           O1  tau(  24) = (   5.2767064   1.4903225   6.0039473  )
        25           Ti1 tau(  25) = (   0.0000382   5.9609847   6.0000000  )
        26           Ti1 tau(  26) = (   3.2902200   4.4714249   6.0002472  )
        27           O1  tau(  27) = (   0.0002396   2.9813036   7.9858123  )
        28           O1  tau(  28) = (   3.2902150   2.9813002   7.3038282  )
        29           O1  tau(  29) = (   4.5938453   4.4726049   9.2879030  )
        30           O1  tau(  30) = (   1.9864658   4.4711199   9.2879459  )
        31           Ti1 tau(  31) = (   3.2891106   5.8743827   9.1763621  )
        32           Ti1 tau(  32) = (   0.0006254   4.4649316   9.2693709  )
        33           O1  tau(  33) = (   3.3028429   2.9834257  11.2952420  )
        34           O1  tau(  34) = (   0.0092240   2.9805883  10.6323155  )
        35           O1  tau(  35) = (   1.3370139   4.4664586  12.6123119  )
        36           O1  tau(  36) = (   5.3107101   4.4655690  12.6333123  )
        37           Ti1 tau(  37) = (   6.5188704   0.0058144  12.7695920  )
        38           Ti1 tau(  38) = (   3.1805296   4.4670443  12.4671176  )
        39           O1  tau(  39) = (   0.0099197   2.9765079  14.6559069  )
        40           O1  tau(  40) = (   3.3143426   2.9928857  13.8797190  )
        41           O1  tau(  41) = (   4.5573730   4.5089470  16.0521860  )
        42           O1  tau(  42) = (   2.1018054   4.5121927  16.0508938  )
        43           Ti1 tau(  43) = (   3.3145791   0.0316975  15.6896801  )
        44           Ti1 tau(  44) = (   0.0207397   4.5876961  16.1385408  )
        45           O1  tau(  45) = (   3.2900926   2.9813045   4.7018136  )
        46           O1  tau(  46) = (   1.3039711   4.4726057   6.0039043  )
        47           O1  tau(  47) = (   5.2763189   4.4711207   6.0039473  )
        48           N1  tau(  48) = (   0.0936308   3.0233000  17.3257847  )
        49           C1  tau(  49) = (   0.4281149   3.0137428  18.7308649  )
        50           H1  tau(  50) = (   0.7292188   4.0033843  19.0862330  )
        51           H1  tau(  51) = (   6.1445545   2.6862439  19.3232575  )
        52           H1  tau(  52) = (   1.2401080   2.3040860  18.9432505  )

     number of k points=    10  Fermi-Dirac smearing, width (Ry)=  0.0073
                       cart. coord. in units 2pi/alat
        k(    1) = (   0.0000000   0.0000000   0.0000000), wk =   0.1250000
        k(    2) = (   0.0000000   0.0419351   0.0000000), wk =   0.2500000
        k(    3) = (   0.0000000  -0.0838702   0.0000000), wk =   0.1250000
        k(    4) = (   0.0379955   0.0000049   0.0000000), wk =   0.2500000
        k(    5) = (   0.0379955   0.0419400   0.0000000), wk =   0.2500000
        k(    6) = (   0.0379955  -0.0838652   0.0000000), wk =   0.2500000
        k(    7) = (   0.0379955  -0.0419301   0.0000000), wk =   0.2500000
        k(    8) = (  -0.0759910  -0.0000099   0.0000000), wk =   0.1250000
        k(    9) = (  -0.0759910   0.0419252   0.0000000), wk =   0.2500000
        k(   10) = (  -0.0759910  -0.0838800   0.0000000), wk =   0.1250000

     Initial potential from superposition of free atoms

     starting charge  373.99917, renormalised to  390.00000

     negative rho (up, down):  1.729E-02 0.000E+00

     %%%%%%%%%%%%%%%%%%%%%%%%%%%%%%%%%%%%%%%%%%%%%%%%%%%%%%%%%%%%%%%%%%%%%%%%
     %                                                                      %
     % You are using vdW-DF, which was implemented by the Thonhauser group. %
     % Please cite the following two papers that made this development      %
     % possible and the two reviews that describe the various versions:     %
     %                                                                      %
     %   T. Thonhauser et al., PRL 115, 136402 (2015).                      %
     %   T. Thonhauser et al., PRB 76, 125112 (2007).                       %
     %   K. Berland et al., Rep. Prog. Phys. 78, 066501 (2015).             %
     %   D.C. Langreth et al., J. Phys.: Condens. Matter 21, 084203 (2009). %
     %                                                                      %
     %                                                                      %
     % If you are calculating the stress with vdW-DF, please also cite:     %
     %                                                                      %
     %   R. Sabatini et al., J. Phys.: Condens. Matter 24, 424209 (2012).   %
     %                                                                      %
     %%%%%%%%%%%%%%%%%%%%%%%%%%%%%%%%%%%%%%%%%%%%%%%%%%%%%%%%%%%%%%%%%%%%%%%%

     Adding external electric field

     Computed dipole along edir(3) :
        Dipole               -4.6280 Ry au,        -11.7632 Debye
        Dipole field         -0.0087 Ry au,

        Potential amp.        0.8096 Ry
        Total length         46.3494 bohr

     Starting wfcs are  295 atomic wfcs
  @ DRIVER MODE: Message from server: STATUS
  @ DRIVER MODE: Message from server: POSDATA
  @ DRIVER MODE: Reading and sharing cell
  @ DRIVER MODE: Reading and sharing positions
  @ DRIVER MODE: Received positions

     Self-consistent Calculation

     iteration #  1     ecut=    29.40 Ry     beta= 0.05
     Davidson diagonalization with overlap
     c_bands:  4 eigenvalues not converged
     c_bands:  2 eigenvalues not converged
     c_bands:  3 eigenvalues not converged
     c_bands:  4 eigenvalues not converged
     c_bands:  4 eigenvalues not converged
     c_bands:  2 eigenvalues not converged
     c_bands:  2 eigenvalues not converged
     c_bands:  2 eigenvalues not converged
     ethr =  1.00E-05,  avg # of iterations = 19.7

[...]

     total energy              =   -2877.43782219 Ry
     estimated scf accuracy    <     481.08628128 Ry

     iteration #  2     ecut=    29.40 Ry     beta= 0.05
     Davidson diagonalization with overlap
     ethr =  1.00E-02,  avg # of iterations = 13.6

[...]

     iteration # 30     ecut=    29.40 Ry     beta= 0.05
     Davidson diagonalization with overlap
     c_bands:  2 eigenvalues not converged
     c_bands:  1 eigenvalues not converged
     ethr =  7.93E-07,  avg # of iterations = 12.9

[...]

     total energy              =   -2919.13174389 Ry
     estimated scf accuracy    <       0.00000010 Ry

     iteration # 48     ecut=    29.40 Ry     beta= 0.05
     Davidson diagonalization with overlap
     ethr =  2.50E-11,  avg # of iterations =  5.0

     negative rho (up, down):  1.786E-02 0.000E+00

     Adding external electric field

     Computed dipole along edir(3) :
        Dipole                0.2599 Ry au,          0.6606 Debye
        Dipole field          0.0005 Ry au,

        Potential amp.       -0.0455 Ry
        Total length         46.3494 bohr

     End of self-consistent calculation

          k = 0.0000 0.0000 0.0000 ( 18029 PWs)   bands (ev):

   -56.8882 -56.8546 -56.0103 -55.9984 -55.9753 -55.9655 -55.8631 -55.8244
   -55.6465 -55.6112 -55.5525 -55.5493 -55.5186 -55.4401 -54.9690 -54.9219
   -33.3161 -33.1629 -33.1348 -33.0642 -32.9731 -32.9421 -32.4811 -32.4749
   -32.4037 -32.2944 -32.2479 -32.2240 -32.2055 -32.1843 -32.1507 -32.1463
   -32.1421 -32.1394 -32.1137 -32.1108 -32.0997 -32.0702 -32.0438 -32.0302
   -32.0170 -31.9972 -31.9901 -31.9666 -31.9448 -31.8911 -31.8779 -31.8669
   -31.7907 -31.7853 -31.7636 -31.7243 -31.7131 -31.6801 -31.6693 -31.6444
   -31.6257 -31.5691 -31.4989 -31.2196 -31.1941 -31.1732 -31.1427 -31.0277
   -17.0525 -16.6172 -16.3866 -16.2508 -16.1837 -16.1290 -16.0853 -15.9605
   -15.8879 -15.8833 -15.8428 -15.8104 -15.7397 -15.6016 -15.5031 -15.4454
   -15.4017 -15.2828 -15.2243 -15.1904 -15.1842 -15.1457 -15.1303 -14.9337
   -14.9072 -14.8192 -14.7990 -14.6725 -14.4403 -14.0513 -13.9412 -13.0775
    -7.8147  -4.6180  -4.1135  -3.8722  -3.7895  -3.6811  -3.6685  -3.5878
    -3.4690  -3.4222  -3.3757  -3.2596  -3.2560  -3.1099  -3.0973  -3.0638
    -3.0614  -3.0235  -2.9614  -2.9439  -2.8990  -2.8935  -2.8862  -2.7321
    -2.6333  -2.5659  -2.5393  -2.5261  -2.4958  -2.4237  -2.3938  -2.3849
    -2.3810  -2.2752  -2.1306  -2.1280  -2.0969  -2.0549  -2.0528  -2.0121
    -2.0010  -1.8774  -1.7859  -1.6776  -1.6672  -1.6298  -1.5684  -1.5618
    -1.4654  -1.3896  -1.3197  -1.3016  -1.1921  -1.1484  -1.1249  -1.0348
    -0.9736  -0.9363  -0.9130  -0.8969  -0.7929  -0.7776  -0.7702  -0.6766
    -0.6644  -0.6212  -0.5282  -0.5050  -0.4990  -0.4172  -0.4101  -0.3046
    -0.2768  -0.2318  -0.1991  -0.0941  -0.0735   0.0243   0.0613   0.0803
     0.2016   0.2190   0.2793   0.3518   0.4170   0.4336   0.4690   0.4998
     0.5159   0.5942   0.7065   0.7132   0.8176   0.8504   1.0215   1.0604
     1.3450   1.3535   2.0452   2.3863   2.5458   2.8442   3.0334   3.1468
     3.3611   3.3767   3.3820   3.5545   3.6059

[...]

          k = 0.0380-0.0419 0.0000 ( 17876 PWs)   bands (ev):

[...]

          k =-0.0760-0.0000 0.0000 ( 17886 PWs)   bands (ev):

[...]

          k =-0.0760-0.0839 0.0000 ( 17948 PWs)   bands (ev):

   -56.8715 -56.8712 -55.9951 -55.9893 -55.9827 -55.9821 -55.8515 -55.8357
   -55.6318 -55.6258 -55.5464 -55.5356 -55.5355 -55.4428 -54.9611 -54.9298
   -33.1487 -33.1485 -33.1330 -33.1328 -33.0172 -33.0169 -32.3109 -32.3086
   -32.2994 -32.2928 -32.2396 -32.2362 -32.1976 -32.1937 -32.1925 -32.1883
   -32.1846 -32.1817 -32.1796 -32.1779 -32.1019 -32.0893 -32.0507 -32.0385
   -31.9822 -31.9736 -31.9140 -31.9081 -31.8800 -31.8799 -31.8744 -31.8304
   -31.8286 -31.7994 -31.7626 -31.7611 -31.7610 -31.7221 -31.7220 -31.7200
   -31.6856 -31.6461 -31.3638 -31.2862 -31.1908 -31.1636 -31.1513 -31.1099
   -16.4012 -16.3992 -16.3664 -16.3661 -16.0973 -16.0937 -16.0474 -16.0440
   -15.8724 -15.8652 -15.6606 -15.6517 -15.6445 -15.6417 -15.5140 -15.5083
   -15.4449 -15.4306 -15.3423 -15.3400 -15.2773 -15.2712 -15.2324 -15.2127
   -14.9029 -14.8852 -14.7733 -14.7478 -14.5838 -14.0447 -14.0447 -13.0939
    -7.8055  -3.4996  -3.4988  -3.4353  -3.4344  -3.3097  -3.3039  -3.2309
    -3.2301  -3.1285  -3.1247  -3.0726  -2.9955  -2.9855  -2.9826  -2.9717
    -2.9497  -2.8307  -2.8283  -2.8175  -2.8013  -2.7453  -2.7431  -2.7311
    -2.6537  -2.6389  -2.6048  -2.5665  -2.4576  -2.4442  -2.4311  -2.3993
    -2.3442  -2.3300  -2.3168  -2.2752  -2.2496  -2.1633  -2.1097  -2.0556
    -1.9399  -1.9368  -1.9283  -1.9127  -1.7616  -1.7198  -1.6919  -1.6850
    -1.6767  -1.6328  -1.5348  -1.5281  -1.3935  -1.3930  -1.3129  -1.2341
    -1.2164  -1.1862  -1.0564  -1.0158  -0.9795  -0.9712  -0.9438  -0.9241
    -0.9005  -0.8631  -0.7218  -0.7087  -0.6717  -0.6366  -0.6317  -0.5753
    -0.5183  -0.4385  -0.3621  -0.3611  -0.3063  -0.2341  -0.1738  -0.0925
    -0.0789  -0.0744   0.2059   0.2855   0.3780   0.4544   0.5229   0.5762
     0.6112   0.6761   0.7145   0.8474   0.8520   0.8697   0.8700   0.9324
     0.9340   1.3356   1.9346   2.9592   2.9595   3.0264   3.0268   3.3504
     3.3563   3.4644   3.4739   3.5854   3.5877

     the Fermi energy is     2.2251 ev

!    total energy              =   -2919.13187723 Ry
     estimated scf accuracy    <       0.00000006 Ry
     smearing contrib. (-TS)   =      -0.00481408 Ry
     internal energy E=F+TS    =   -2919.12706315 Ry

     The total energy is F=E-TS. E is the sum of the following terms:
     one-electron contribution =  -24568.88404545 Ry
     hartree contribution      =   12368.65904801 Ry
     xc contribution           =    -479.89841916 Ry
     ewald contribution        =    9760.99622600 Ry
     electric field correction =       0.00012746 Ry

     convergence has been achieved in  48 iterations

     Forces acting on atoms (cartesian axes, Ry/au):

     atom    1 type  1   force =     0.00006566   -0.00051639    0.12430659
     atom    2 type  1   force =    -0.00008899   -0.00054168   -0.16062768
     atom    3 type  2   force =     0.00021988   -0.00024243   -0.06810919
     atom    4 type  2   force =    -0.00000204   -0.00032271    0.02756869
     atom    5 type  2   force =    -0.01622765    0.00174831   -0.00936782
     atom    6 type  2   force =     0.01828113    0.00228877   -0.00892281
     atom    7 type  1   force =     0.00111961   -0.00380943    0.02203032
     atom    8 type  1   force =    -0.00061550   -0.00325312    0.11122554
     atom    9 type  2   force =    -0.00011108    0.00138940   -0.00034692
     atom   10 type  2   force =    -0.00191283    0.00178486   -0.07349788
     atom   11 type  2   force =     0.00081269    0.00006371    0.00005394
     atom   12 type  2   force =    -0.00062690    0.00020722    0.00015907
     atom   13 type  1   force =     0.00005950    0.00022016   -0.00042792
     atom   14 type  1   force =    -0.00102712   -0.00024588   -0.00046171
     atom   15 type  2   force =     0.00000308   -0.00029031    0.00009587
     atom   16 type  2   force =    -0.00006524    0.00106438    0.00074036
     atom   17 type  2   force =     0.00011515    0.00013759   -0.00047485
     atom   18 type  2   force =     0.00007659    0.00017668   -0.00012880
     atom   19 type  1   force =     0.00010376    0.00000666   -0.00065223
     atom   20 type  1   force =     0.00038812   -0.00111090    0.00017245
     atom   21 type  2   force =     0.00004084   -0.00006712    0.09973689
     atom   22 type  2   force =     0.00015435   -0.00056340   -0.00018302
     atom   23 type  2   force =    -0.07920662   -0.00005282   -0.03245040
     atom   24 type  2   force =     0.07907075    0.00038288   -0.03247047
     atom   25 type  1   force =     0.00005419   -0.00050205    0.12376571
     atom   26 type  1   force =    -0.00009491   -0.00050659   -0.16064885
     atom   27 type  2   force =     0.00032705   -0.00048017   -0.06716181
     atom   28 type  2   force =     0.00002459   -0.00014366    0.02725392
     atom   29 type  2   force =    -0.01662705    0.00135219   -0.00957222
     atom   30 type  2   force =     0.01856631    0.00165827   -0.00913933
     atom   31 type  1   force =     0.00109836   -0.00128843    0.02159338
     atom   32 type  1   force =    -0.00052101    0.00068980    0.11187868
     atom   33 type  2   force =    -0.00034341   -0.00115400    0.00015904
     atom   34 type  2   force =    -0.00156927    0.00135736   -0.07243015
     atom   35 type  2   force =    -0.00178697   -0.00020188    0.00027096
     atom   36 type  2   force =     0.00071723   -0.00042770   -0.00004480
     atom   37 type  1   force =     0.00072949   -0.00033415    0.00070465
     atom   38 type  1   force =    -0.00017799    0.00052500    0.00021883
     atom   39 type  2   force =     0.00016156   -0.00032210   -0.00032741
     atom   40 type  2   force =     0.00009893   -0.00017229    0.00032486
     atom   41 type  2   force =     0.00003984    0.00045387   -0.00014932
     atom   42 type  2   force =     0.00027205    0.00055935   -0.00005481
     atom   43 type  1   force =     0.00035255    0.00018139   -0.00029856
     atom   44 type  1   force =    -0.00023927    0.00017122    0.00007728
     atom   45 type  2   force =     0.00002645   -0.00007185    0.09973969
     atom   46 type  2   force =    -0.07921599   -0.00000303   -0.03244656
     atom   47 type  2   force =     0.07908086    0.00041995   -0.03247161
     atom   48 type  3   force =     0.00086527   -0.00156684    0.00028355
     atom   49 type  4   force =     0.00043473   -0.00092855    0.00251747
     atom   50 type  5   force =    -0.00096704    0.00023626    0.00007329
     atom   51 type  5   force =    -0.00025932    0.00055795    0.00008216
     atom   52 type  5   force =    -0.00167437    0.00148624   -0.00216604

     Total force =     0.424666     Total SCF correction =     0.000721
  @ DRIVER MODE: Message from server: STATUS
  @ DRIVER MODE: Message from server: GETFORCE
  @ DRIVER MODE: Returning v,forces,stress,ensemble

     Writing output data file ./calc.save/
  @ DRIVER MODE: Message from server: EXIT
  @ DRIVE MODE: Exiting

     General routines

     Parallel routines

   This run was terminated on:   5:39:53   9Sep2021

   JOB DONE.