     Program PWSCF v.6.7GPU starts on 16Sep2021 at 10:40:33

     R & G space division:  proc/nbgrp/npool/nimage =      10
     Reading input from /storage/home/hcoda1/3/ntian30/research/carbon/CxH_vib/H2O_calc/ads_slab/CH3NNH3H2O_a/out_0054/pw.inp
Warning: card &CELL ignored
Warning: card   CELL_DYNAMICS='IPI', ignored
Warning: card / ignored

     Current dimensions of program PWSCF are:
     Max number of different atomic species (ntypx) = 10
     Max number of k-points (npk) =  40000
     Max angular momentum in pseudopotentials (lmaxx) =  3
     Presently no symmetry can be used with electric field

     Message from routine cell_base_init:
     DEPRECATED: use true lattice parameter, not A to a.u. conversion factor

     IMPORTANT: XC functional enforced from input :
     Exchange-correlation= BEEF-VDW
                           (   1   4  43  14   2   0   0)
     Any further DFT definition will be discarded
     Please, verify this is what you really want

  @ DRIVER MODE: Connecting to
 qe_1139763_2852621.sched-torque.pace.gatech.edu22e7nx7z_scratch
  using UNIX socket
  @ DRIVER MODE: Message from server: STATUS
  @ DRIVER MODE: Message from server: INIT
  @ DRIVER MODE: Receiving replica           0          -1
  @ DRIVER MODE: Receiving encoded integer          25
  @ DRIVER MODE:  SCF:  T  FORCE:  T  STRESS:  F  VC:  F  ENSEMBLE:  F
  @ DRIVER MODE:  SCF:  T  FORCE:  T  STRESS:  F  VC:  F  ENSEMBLE:  F

     Using Slab Decomposition

     bravais-lattice index     =            0
     lattice parameter (alat)  =       1.8897  a.u.
     unit-cell volume          =    6658.9804 (a.u.)^3
     number of atoms/cell      =           59
     number of atomic types    =            5
     number of electrons       =       406.00
     number of Kohn-Sham states=          213
     kinetic-energy cutoff     =      29.3995  Ry
     charge density cutoff     =     293.9946  Ry
     scf convergence threshold =      7.3E-08
     mixing beta               =       0.0500
     number of iterations used =            8  plain     mixing
     Exchange-correlation= BEEF-VDW
                           (   1   4  43  14   2   0   0)

     celldm(1)=   1.889726  celldm(2)=   0.000000  celldm(3)=   0.000000
     celldm(4)=   0.000000  celldm(5)=   0.000000  celldm(6)=   0.000000

     crystal axes: (cart. coord. in units of alat)
               a(1) = (   6.579727   0.000000   0.000000 )
               a(2) = (  -0.000775   5.961596   0.000000 )
               a(3) = (   0.000000   0.000000  25.155947 )

     reciprocal axes: (cart. coord. in units 2 pi/alat)
               b(1) = (  0.151982  0.000020  0.000000 )
               b(2) = (  0.000000  0.167740  0.000000 )
               b(3) = (  0.000000  0.000000  0.039752 )

     PseudoPot. # 1 for Ti read from file:
     /storage/coda1/p-amedford6/0/shared/rich_project_chbe-medford/medford-share/data/pseudos_module/espresso/nninc/pbe/van/Ti.UPF
     MD5 check sum: 8e4df49b7f0d34bbd5052bf3f5ea0213
     Pseudo is Ultrasoft, Zval = 12.0
     Generated by new atomic code, or converted to UPF format
     Using radial grid of  851 points,  6 beta functions with:
                l(1) =   0
                l(2) =   0
                l(3) =   1
                l(4) =   1
                l(5) =   2
                l(6) =   2
     Q(r) pseudized with  8 coefficients,  rinner =    1.000   1.000   1.000
                                                       1.000   1.000

     PseudoPot. # 2 for O  read from file:
     /storage/coda1/p-amedford6/0/shared/rich_project_chbe-medford/medford-share/data/pseudos_module/espresso/nninc/pbe/van/O.UPF
     MD5 check sum: 78c19812648e8988a0fe644b0f25305e
     Pseudo is Ultrasoft, Zval =  6.0
     Generated by new atomic code, or converted to UPF format
     Using radial grid of  737 points,  4 beta functions with:
                l(1) =   0
                l(2) =   0
                l(3) =   1
                l(4) =   1
     Q(r) pseudized with  8 coefficients,  rinner =    0.800   0.800   0.800

     PseudoPot. # 3 for N  read from file:
     /storage/coda1/p-amedford6/0/shared/rich_project_chbe-medford/medford-share/data/pseudos_module/espresso/nninc/pbe/van/N.UPF
     MD5 check sum: 90d10febe142ad51ac9d5be1deb811c4
     Pseudo is Ultrasoft, Zval =  5.0
     Generated by new atomic code, or converted to UPF format
     Using radial grid of  729 points,  4 beta functions with:
                l(1) =   0
                l(2) =   0
                l(3) =   1
                l(4) =   1
     Q(r) pseudized with  8 coefficients,  rinner =    0.800   0.800   0.800

     PseudoPot. # 4 for C  read from file:
     /storage/coda1/p-amedford6/0/shared/rich_project_chbe-medford/medford-share/data/pseudos_module/espresso/nninc/pbe/van/C.UPF
     MD5 check sum: 1a69bf6b8db32088f5b2163dbdb77a27
     Pseudo is Ultrasoft, Zval =  4.0
     Generated by new atomic code, or converted to UPF format
     Using radial grid of  721 points,  4 beta functions with:
                l(1) =   0
                l(2) =   0
                l(3) =   1
                l(4) =   1
     Q(r) pseudized with  8 coefficients,  rinner =    0.800   0.800   0.800

     PseudoPot. # 5 for H  read from file:
     /storage/coda1/p-amedford6/0/shared/rich_project_chbe-medford/medford-share/data/pseudos_module/espresso/nninc/pbe/van/H.UPF
     MD5 check sum: b5ee9d7bfd3a09ee7748110bda690ff7
     Pseudo is Ultrasoft, Zval =  1.0
     Generated by new atomic code, or converted to UPF format
     Using radial grid of  615 points,  1 beta functions with:
                l(1) =   0
     Q(r) pseudized with  8 coefficients,  rinner =    0.800

     atomic species   valence    mass     pseudopotential
        Ti1           12.00    47.86700     Ti( 1.00)
        O1             6.00    15.99900     O ( 1.00)
        N1             5.00    14.00700     N ( 1.00)
        C1             4.00    12.01100     C ( 1.00)
        H1             1.00     1.00800     H ( 1.00)

     No symmetry found

   Cartesian axes

     site n.     atom                  positions (alat units)
         1           Ti1 tau(   1) = (   0.0004258   2.9801865   6.0000000  )
         2           Ti1 tau(   2) = (   3.2906075   1.4906267   6.0002472  )
         3           O1  tau(   3) = (   0.0006271   0.0005054   7.9858123  )
         4           O1  tau(   4) = (   3.2906025   0.0005020   7.3038282  )
         5           O1  tau(   5) = (   4.5942328   1.4918067   9.2879030  )
         6           O1  tau(   6) = (   1.9868534   1.4903216   9.2879459  )
         7           Ti1 tau(   7) = (   3.2907910   2.8959150   9.1758416  )
         8           Ti1 tau(   8) = (   0.0015273   1.4827037   9.2680791  )
         9           O1  tau(   9) = (   3.2954490   0.0159868  11.2922163  )
        10           O1  tau(  10) = (   0.0116148   5.9584955  10.6183126  )
        11           O1  tau(  11) = (   1.3242731   1.5050266  12.6143764  )
        12           O1  tau(  12) = (   5.3073597   1.5103589  12.6267567  )
        13           Ti1 tau(  13) = (   6.4831477   3.0011104  12.7364612  )
        14           Ti1 tau(  14) = (   3.1751638   1.4975352  12.4748964  )
        15           O1  tau(  15) = (   0.0212859   5.9607631  14.5987152  )
        16           O1  tau(  16) = (   3.3058086   0.0238703  13.8910224  )
        17           O1  tau(  17) = (   4.5539421   1.5574750  15.9960573  )
        18           O1  tau(  18) = (   2.0731809   1.5597727  15.9888445  )
        19           Ti1 tau(  19) = (   3.3176354   3.0289328  15.6523405  )
        20           Ti1 tau(  20) = (   0.0198791   1.6227889  16.0606591  )
        21           O1  tau(  21) = (   3.2904802   0.0005063   4.7018136  )
        22           O1  tau(  22) = (   0.0290054   0.0533443  17.2129705  )
        23           O1  tau(  23) = (   1.3043587   1.4918075   6.0039043  )
        24           O1  tau(  24) = (   5.2767064   1.4903225   6.0039473  )
        25           Ti1 tau(  25) = (   0.0000382   5.9609847   6.0000000  )
        26           Ti1 tau(  26) = (   3.2902200   4.4714249   6.0002472  )
        27           O1  tau(  27) = (   0.0002396   2.9813036   7.9858123  )
        28           O1  tau(  28) = (   3.2902150   2.9813002   7.3038282  )
        29           O1  tau(  29) = (   4.5938453   4.4726049   9.2879030  )
        30           O1  tau(  30) = (   1.9864658   4.4711199   9.2879459  )
        31           Ti1 tau(  31) = (   3.2891106   5.8743827   9.1763621  )
        32           Ti1 tau(  32) = (   0.0006254   4.4649316   9.2693709  )
        33           O1  tau(  33) = (   3.2918316   2.9938763  11.2915017  )
        34           O1  tau(  34) = (   0.0092240   2.9805883  10.6323155  )
        35           O1  tau(  35) = (   1.3226278   4.4784642  12.6110361  )
        36           O1  tau(  36) = (   5.3078083   4.4770455  12.6250823  )
        37           Ti1 tau(  37) = (   6.5141033   0.0190828  12.7620745  )
        38           Ti1 tau(  38) = (   3.1722404   4.4939287  12.4712879  )
        39           O1  tau(  39) = (   0.0035410   2.9850241  14.6487316  )
        40           O1  tau(  40) = (   3.3118331   3.0109266  13.8519036  )
        41           O1  tau(  41) = (   4.5522870   4.5059159  16.0259181  )
        42           O1  tau(  42) = (   2.0778134   4.5048723  16.0185459  )
        43           Ti1 tau(  43) = (   3.3116469   0.0596163  15.7453941  )
        44           Ti1 tau(  44) = (   0.0183239   4.5967015  16.1059876  )
        45           O1  tau(  45) = (   3.2900926   2.9813045   4.7018136  )
        46           O1  tau(  46) = (   1.3039711   4.4726057   6.0039043  )
        47           O1  tau(  47) = (   5.2763189   4.4711207   6.0039473  )
        48           N1  tau(  48) = (   0.0600715   3.0265251  17.3188267  )
        49           N1  tau(  49) = (   6.2826239   2.5295367  22.6224490  )
        50           C1  tau(  50) = (   0.2859397   3.0149959  18.7399364  )
        51           H1  tau(  51) = (   0.1411154   4.0060466  19.1894648  )
        52           H1  tau(  52) = (   6.1913215   2.3105648  19.2421896  )
        53           H1  tau(  53) = (   1.3125146   2.6868920  18.9691123  )
        54           H1  tau(  54) = (   6.1000088   3.2491606  23.3142794  )
        55           H1  tau(  55) = (   0.1456284   1.7586669  23.1118534  )
        56           H1  tau(  56) = (   0.3974265   2.9048463  21.9956970  )
        57           O1  tau(  57) = (   3.2908421   0.1144680  18.1630233  )
        58           H1  tau(  58) = (   4.0679411   5.5688996  18.4486002  )
        59           H1  tau(  59) = (   2.5060966   5.5711546  18.4327789  )

     number of k points=    10  Fermi-Dirac smearing, width (Ry)=  0.0073
                       cart. coord. in units 2pi/alat
        k(    1) = (   0.0000000   0.0000000   0.0000000), wk =   0.1250000
        k(    2) = (   0.0000000   0.0419351   0.0000000), wk =   0.2500000
        k(    3) = (   0.0000000  -0.0838702   0.0000000), wk =   0.1250000
        k(    4) = (   0.0379955   0.0000049   0.0000000), wk =   0.2500000
        k(    5) = (   0.0379955   0.0419400   0.0000000), wk =   0.2500000
        k(    6) = (   0.0379955  -0.0838652   0.0000000), wk =   0.2500000
        k(    7) = (   0.0379955  -0.0419301   0.0000000), wk =   0.2500000
        k(    8) = (  -0.0759910  -0.0000099   0.0000000), wk =   0.1250000
        k(    9) = (  -0.0759910   0.0419252   0.0000000), wk =   0.2500000
        k(   10) = (  -0.0759910  -0.0838800   0.0000000), wk =   0.1250000

     Initial potential from superposition of free atoms

     starting charge  389.99912, renormalised to  406.00000

     negative rho (up, down):  6.915E-03 0.000E+00

     %%%%%%%%%%%%%%%%%%%%%%%%%%%%%%%%%%%%%%%%%%%%%%%%%%%%%%%%%%%%%%%%%%%%%%%%
     %                                                                      %
     % You are using vdW-DF, which was implemented by the Thonhauser group. %
     % Please cite the following two papers that made this development      %
     % possible and the two reviews that describe the various versions:     %
     %                                                                      %
     %   T. Thonhauser et al., PRL 115, 136402 (2015).                      %
     %   T. Thonhauser et al., PRB 76, 125112 (2007).                       %
     %   K. Berland et al., Rep. Prog. Phys. 78, 066501 (2015).             %
     %   D.C. Langreth et al., J. Phys.: Condens. Matter 21, 084203 (2009). %
     %                                                                      %
     %                                                                      %
     % If you are calculating the stress with vdW-DF, please also cite:     %
     %                                                                      %
     %   R. Sabatini et al., J. Phys.: Condens. Matter 24, 424209 (2012).   %
     %                                                                      %
     %%%%%%%%%%%%%%%%%%%%%%%%%%%%%%%%%%%%%%%%%%%%%%%%%%%%%%%%%%%%%%%%%%%%%%%%

     Adding external electric field

     Computed dipole along edir(3) :
        Dipole              -16.2343 Ry au,        -41.2636 Debye
        Dipole field         -0.0306 Ry au,

        Potential amp.        2.8400 Ry
        Total length         46.3494 bohr

     Starting wfcs are  308 atomic wfcs
  @ DRIVER MODE: Message from server: STATUS
  @ DRIVER MODE: Message from server: POSDATA
  @ DRIVER MODE: Reading and sharing cell
  @ DRIVER MODE: Reading and sharing positions
  @ DRIVER MODE: Received positions

     Self-consistent Calculation

     iteration #  1     ecut=    29.40 Ry     beta= 0.05
     Davidson diagonalization with overlap
     c_bands:  2 eigenvalues not converged
     c_bands:  3 eigenvalues not converged
     c_bands:  5 eigenvalues not converged
     c_bands:  3 eigenvalues not converged
     c_bands:  3 eigenvalues not converged
     c_bands:  3 eigenvalues not converged
     c_bands:  1 eigenvalues not converged
     c_bands:  5 eigenvalues not converged
     c_bands:  3 eigenvalues not converged
     ethr =  1.00E-05,  avg # of iterations = 20.6

[...]

     total energy              =   -2253.44778218 Ry
     estimated scf accuracy    <    8263.02309401 Ry

     iteration #  2     ecut=    29.40 Ry     beta= 0.05
     Davidson diagonalization with overlap
     ethr =  1.00E-02,  avg # of iterations = 27.4

[...]

     iteration # 42     ecut=    29.40 Ry     beta= 0.05
     Davidson diagonalization with overlap
     c_bands:  1 eigenvalues not converged
     c_bands:  2 eigenvalues not converged
     c_bands:  1 eigenvalues not converged
     c_bands:  1 eigenvalues not converged
     ethr =  7.52E-07,  avg # of iterations = 15.5

[...]

     total energy              =   -2977.74426878 Ry
     estimated scf accuracy    <       0.00000009 Ry

     iteration # 63     ecut=    29.40 Ry     beta= 0.05
     Davidson diagonalization with overlap
     ethr =  2.14E-11,  avg # of iterations =  4.5

     negative rho (up, down):  8.791E-03 0.000E+00

     Adding external electric field

     Computed dipole along edir(3) :
        Dipole                0.7691 Ry au,          1.9549 Debye
        Dipole field          0.0015 Ry au,

        Potential amp.       -0.1345 Ry
        Total length         46.3494 bohr

     End of self-consistent calculation

          k = 0.0000 0.0000 0.0000 ( 18029 PWs)   bands (ev):

   -56.2599 -56.2263 -55.3771 -55.3431 -55.3349 -55.2999 -55.1521 -55.1168
   -55.0303 -54.9097 -54.8914 -54.8900 -54.8758 -54.8050 -54.3890 -54.3394
   -32.6867 -32.5343 -32.5061 -32.4362 -32.3453 -32.3128 -31.8448 -31.8171
   -31.6874 -31.6429 -31.5941 -31.5762 -31.5460 -31.5369 -31.5078 -31.5028
   -31.4843 -31.4779 -31.4558 -31.4413 -31.4281 -31.3788 -31.3685 -31.3298
   -31.3173 -31.3007 -31.2920 -31.2783 -31.2544 -31.2536 -31.2493 -31.2251
   -31.1303 -31.1197 -31.0798 -31.0693 -31.0419 -31.0366 -31.0277 -31.0092
   -30.9785 -30.9257 -30.9037 -30.6326 -30.6104 -30.5793 -30.5585 -30.4496
   -18.4449 -16.4158 -15.9496 -15.7063 -15.6167 -15.5335 -15.4947 -15.4506
   -15.2986 -15.2312 -15.2085 -15.2081 -15.1374 -14.9892 -14.9421 -14.8441
   -14.7504 -14.6155 -14.5985 -14.5653 -14.5475 -14.5145 -14.5074 -14.4558
   -14.2924 -14.2567 -14.2086 -14.1456 -14.0748 -14.0602 -13.8352 -13.4082
   -13.2985 -12.6417  -7.4473  -6.2352  -4.1145  -4.1062  -3.9831  -3.4493
    -3.1800  -3.1523  -3.0238  -3.0191  -2.9738  -2.8338  -2.8259  -2.7523
    -2.7286  -2.6914  -2.6151  -2.5818  -2.5331  -2.4436  -2.4309  -2.4110
    -2.3975  -2.3819  -2.2603  -2.2188  -2.1666  -2.0629  -1.9548  -1.9117
    -1.8847  -1.8408  -1.8027  -1.7556  -1.7435  -1.7286  -1.7220  -1.6109
    -1.4966  -1.4638  -1.4488  -1.4027  -1.3845  -1.3756  -1.3537  -1.2685
    -1.1591  -1.0654  -0.9982  -0.9860  -0.9184  -0.9105  -0.8513  -0.7356
    -0.6747  -0.6703  -0.6542  -0.5506  -0.5239  -0.4526  -0.3898  -0.3317
    -0.2771  -0.2144  -0.1642  -0.1416  -0.1287  -0.0297   0.0419   0.0652
     0.1164   0.1258   0.1346   0.1555   0.2520   0.2878   0.3616   0.4061
     0.4424   0.4866   0.5696   0.6198   0.6876   0.7374   0.7603   0.8218
     0.8753   0.9308   1.0261   1.0575   1.0801   1.0884   1.1119   1.1721
     1.1860   1.2621   1.3452   1.3604   1.4329   1.5013   1.6619   1.7011
     1.9512   2.0225   2.6490   3.0171   3.1785   3.4736   3.6635   3.8009
     3.9964   4.0068   4.0138   4.2400   4.2635

[...]

          k = 0.0380-0.0419 0.0000 ( 17876 PWs)   bands (ev):

[...]

          k =-0.0760-0.0000 0.0000 ( 17886 PWs)   bands (ev):

[...]

          k =-0.0760-0.0839 0.0000 ( 17948 PWs)   bands (ev):

   -56.2433 -56.2428 -55.3621 -55.3577 -55.3223 -55.3126 -55.1355 -55.1332
   -55.0280 -54.8928 -54.8926 -54.8921 -54.8878 -54.8085 -54.3819 -54.3464
   -32.5202 -32.5198 -32.5037 -32.5034 -32.3894 -32.3890 -31.6685 -31.6627
   -31.6529 -31.6454 -31.5691 -31.5540 -31.5521 -31.5478 -31.5415 -31.5400
   -31.5343 -31.5256 -31.4935 -31.4771 -31.3810 -31.3789 -31.3453 -31.3395
   -31.3205 -31.2843 -31.2459 -31.2382 -31.2380 -31.2375 -31.2129 -31.1909
   -31.1480 -31.1175 -31.1173 -31.1139 -31.0911 -31.0784 -31.0783 -31.0636
   -31.0467 -31.0113 -30.7644 -30.7017 -30.6082 -30.5839 -30.5664 -30.5201
   -18.4440 -15.7664 -15.7644 -15.7293 -15.7285 -15.4616 -15.4583 -15.3648
   -15.3596 -15.2251 -15.1081 -15.0066 -14.9938 -14.9583 -14.9311 -14.8192
   -14.7984 -14.7892 -14.7790 -14.6675 -14.6474 -14.6021 -14.5908 -14.5746
   -14.5644 -14.2705 -14.2574 -14.1544 -14.1306 -14.0741 -13.9884 -13.4021
   -13.4020 -12.6603  -7.4410  -6.2277  -4.1243  -4.1081  -2.8629  -2.8557
    -2.8198  -2.8012  -2.8003  -2.7413  -2.6360  -2.5963  -2.5945  -2.5931
    -2.5121  -2.4447  -2.4368  -2.3653  -2.3325  -2.3132  -2.2551  -2.2443
    -2.1790  -2.1527  -2.1445  -2.1279  -2.1044  -2.1031  -2.0070  -1.9444
    -1.8925  -1.8891  -1.8217  -1.8037  -1.7397  -1.7188  -1.7073  -1.6756
    -1.6340  -1.6111  -1.5794  -1.5455  -1.5046  -1.4450  -1.2783  -1.2692
    -1.2599  -1.2383  -1.1132  -1.1065  -1.0751  -1.0450  -1.0393  -0.9655
    -0.9157  -0.8806  -0.8233  -0.7396  -0.7171  -0.6153  -0.5642  -0.5180
    -0.4619  -0.3557  -0.3382  -0.3276  -0.3182  -0.2880  -0.2217  -0.1925
    -0.1769  -0.0563  -0.0368   0.0163   0.0374   0.0937   0.1200   0.1843
     0.2115   0.2831   0.2949   0.3339   0.4080   0.4892   0.5235   0.5716
     0.5762   0.8524   0.9262   1.0453   1.0587   1.1241   1.1827   1.2542
     1.3138   1.3462   1.3730   1.4962   1.5005   1.5097   1.5103   1.5817
     1.5868   1.9288   2.5262   3.5930   3.5933   3.6599   3.6606   3.9812
     3.9874   4.0945   4.1047   4.2656   4.2806

     the Fermi energy is     2.8451 ev

!    total energy              =   -2977.74431072 Ry
     estimated scf accuracy    <       0.00000003 Ry
     smearing contrib. (-TS)   =      -0.00445585 Ry
     internal energy E=F+TS    =   -2977.73985487 Ry

     The total energy is F=E-TS. E is the sum of the following terms:
     one-electron contribution =  -22875.85199432 Ry
     hartree contribution      =   11535.65163595 Ry
     xc contribution           =    -496.33253480 Ry
     ewald contribution        =    8858.79192194 Ry
     electric field correction =       0.00111637 Ry

     convergence has been achieved in  63 iterations

     Forces acting on atoms (cartesian axes, Ry/au):

     atom    1 type  1   force =    -0.00003630   -0.00046894    0.12452342
     atom    2 type  1   force =    -0.00008295   -0.00048632   -0.15980108
     atom    3 type  2   force =     0.00019092   -0.00024364   -0.06790742
     atom    4 type  2   force =    -0.00000641   -0.00011731    0.02620694
     atom    5 type  2   force =    -0.01448420    0.00182017   -0.00989426
     atom    6 type  2   force =     0.01626381    0.00224394   -0.01024250
     atom    7 type  1   force =     0.00071705   -0.00386898    0.02890554
     atom    8 type  1   force =    -0.00034701   -0.00439985    0.10954190
     atom    9 type  2   force =     0.00024031   -0.00029371   -0.00050773
     atom   10 type  2   force =    -0.00231592    0.00256689   -0.07335001
     atom   11 type  2   force =    -0.00002540   -0.00033711    0.00000346
     atom   12 type  2   force =    -0.00015399   -0.00082712    0.00002555
     atom   13 type  1   force =     0.00106328   -0.00040621    0.00011786
     atom   14 type  1   force =    -0.00064518    0.00064573   -0.00011016
     atom   15 type  2   force =    -0.00029228   -0.00039178   -0.00074931
     atom   16 type  2   force =    -0.00001420   -0.00011296    0.00068127
     atom   17 type  2   force =     0.00015086   -0.00091221   -0.00020294
     atom   18 type  2   force =     0.00050691   -0.00052683    0.00012580
     atom   19 type  1   force =    -0.00114233   -0.00009595   -0.00097516
     atom   20 type  1   force =     0.00081270   -0.00013475   -0.00046795
     atom   21 type  2   force =     0.00004652   -0.00003892    0.09941648
     atom   22 type  2   force =     0.00002576   -0.00023692   -0.00038942
     atom   23 type  2   force =    -0.07967792   -0.00005736   -0.03250229
     atom   24 type  2   force =     0.07952097    0.00038091   -0.03255380
     atom   25 type  1   force =    -0.00001156   -0.00057087    0.12417146
     atom   26 type  1   force =    -0.00008244   -0.00061594   -0.15994138
     atom   27 type  2   force =     0.00029999   -0.00036360   -0.06696178
     atom   28 type  2   force =    -0.00002029    0.00014923    0.02512481
     atom   29 type  2   force =    -0.01510604    0.00192894   -0.00983415
     atom   30 type  2   force =     0.01678319    0.00242833   -0.01014872
     atom   31 type  1   force =     0.00074201   -0.00074590    0.02407705
     atom   32 type  1   force =    -0.00027344    0.00204343    0.11017255
     atom   33 type  2   force =     0.00007861    0.00029290    0.00059014
     atom   34 type  2   force =    -0.00193730    0.00200025   -0.07166379
     atom   35 type  2   force =    -0.00001864    0.00034286   -0.00000977
     atom   36 type  2   force =    -0.00053249    0.00061027   -0.00005218
     atom   37 type  1   force =     0.00119438    0.00042926    0.00030292
     atom   38 type  1   force =    -0.00054495   -0.00088834   -0.00021818
     atom   39 type  2   force =    -0.00027680   -0.00014476    0.00088657
     atom   40 type  2   force =     0.00017873   -0.00012913    0.00024365
     atom   41 type  2   force =     0.00102830    0.00016069    0.00016876
     atom   42 type  2   force =    -0.00048752   -0.00023031    0.00054086
     atom   43 type  1   force =    -0.00159643    0.00001353   -0.00034802
     atom   44 type  1   force =     0.00091753   -0.00013764   -0.00041301
     atom   45 type  2   force =     0.00002188   -0.00004642    0.09937729
     atom   46 type  2   force =    -0.07969069    0.00000429   -0.03251566
     atom   47 type  2   force =     0.07954518    0.00043707   -0.03254459
     atom   48 type  3   force =    -0.00087192   -0.00076485   -0.00045073
     atom   49 type  3   force =    -0.00619258   -0.00351551    0.00785109
     atom   50 type  4   force =    -0.00025206   -0.00010308    0.00006367
     atom   51 type  5   force =    -0.00020817    0.00037147    0.00027993
     atom   52 type  5   force =    -0.00004991   -0.00052778    0.00073904
     atom   53 type  5   force =     0.00050361   -0.00014576    0.00020401
     atom   54 type  5   force =    -0.00066467   -0.00069339    0.00008647
     atom   55 type  5   force =    -0.00051666    0.00007717    0.00018844
     atom   56 type  5   force =     0.00740981    0.00409159   -0.00951071
     atom   57 type  2   force =     0.00159286   -0.00049644   -0.00032647
     atom   58 type  5   force =    -0.00047596    0.00090580    0.00001589
     atom   59 type  5   force =    -0.00080055    0.00013187   -0.00003966

     Total force =     0.423835     Total SCF correction =     0.000247
  @ DRIVER MODE: Message from server: STATUS
  @ DRIVER MODE: Message from server: GETFORCE
  @ DRIVER MODE: Returning v,forces,stress,ensemble

     Writing output data file ./calc.save/
  @ DRIVER MODE: Message from server: EXIT
  @ DRIVE MODE: Exiting

     General routines

     Parallel routines

   This run was terminated on:  10:58:53  16Sep2021

   JOB DONE.