     Program PWSCF v.6.7GPU starts on 22Sep2021 at 22:27:44

     R & G space division:  proc/nbgrp/npool/nimage =      10
     Reading input from /storage/home/hcoda1/3/ntian30/research/carbon/CxH_vib/H2O_calc/ads_slab/CH2NHO_a/out_0020/pw.inp
Warning: card &CELL ignored
Warning: card   CELL_DYNAMICS='IPI', ignored
Warning: card / ignored

     Current dimensions of program PWSCF are:
     Max number of different atomic species (ntypx) = 10
     Max number of k-points (npk) =  40000
     Max angular momentum in pseudopotentials (lmaxx) =  3
     Presently no symmetry can be used with electric field

     Message from routine cell_base_init:
     DEPRECATED: use true lattice parameter, not A to a.u. conversion factor

     IMPORTANT: XC functional enforced from input :
     Exchange-correlation= BEEF-VDW
                           (   1   4  43  14   2   0   0)
     Any further DFT definition will be discarded
     Please, verify this is what you really want

  @ DRIVER MODE: Connecting to
 qe_1139763_2937321.sched-torque.pace.gatech.edu_q92rw6a_scratch
  using UNIX socket
  @ DRIVER MODE: Message from server: STATUS
  @ DRIVER MODE: Message from server: INIT
  @ DRIVER MODE: Receiving replica           0          -1
  @ DRIVER MODE: Receiving encoded integer          25
  @ DRIVER MODE:  SCF:  T  FORCE:  T  STRESS:  F  VC:  F  ENSEMBLE:  F
  @ DRIVER MODE:  SCF:  T  FORCE:  T  STRESS:  F  VC:  F  ENSEMBLE:  F

     Using Slab Decomposition

     bravais-lattice index     =            0
     lattice parameter (alat)  =       1.8897  a.u.
     unit-cell volume          =    6658.9804 (a.u.)^3
     number of atoms/cell      =           53
     number of atomic types    =            5
     number of electrons       =       396.00
     number of Kohn-Sham states=          208
     kinetic-energy cutoff     =      29.3995  Ry
     charge density cutoff     =     293.9946  Ry
     scf convergence threshold =      7.3E-08
     mixing beta               =       0.0500
     number of iterations used =            8  plain     mixing
     Exchange-correlation= BEEF-VDW
                           (   1   4  43  14   2   0   0)

     celldm(1)=   1.889726  celldm(2)=   0.000000  celldm(3)=   0.000000
     celldm(4)=   0.000000  celldm(5)=   0.000000  celldm(6)=   0.000000

     crystal axes: (cart. coord. in units of alat)
               a(1) = (   6.579727   0.000000   0.000000 )
               a(2) = (  -0.000775   5.961596   0.000000 )
               a(3) = (   0.000000   0.000000  25.155947 )

     reciprocal axes: (cart. coord. in units 2 pi/alat)
               b(1) = (  0.151982  0.000020  0.000000 )
               b(2) = (  0.000000  0.167740  0.000000 )
               b(3) = (  0.000000  0.000000  0.039752 )

     PseudoPot. # 1 for Ti read from file:
     /storage/coda1/p-amedford6/0/shared/rich_project_chbe-medford/medford-share/data/pseudos_module/espresso/nninc/pbe/van/Ti.UPF
     MD5 check sum: 8e4df49b7f0d34bbd5052bf3f5ea0213
     Pseudo is Ultrasoft, Zval = 12.0
     Generated by new atomic code, or converted to UPF format
     Using radial grid of  851 points,  6 beta functions with:
                l(1) =   0
                l(2) =   0
                l(3) =   1
                l(4) =   1
                l(5) =   2
                l(6) =   2
     Q(r) pseudized with  8 coefficients,  rinner =    1.000   1.000   1.000
                                                       1.000   1.000

     PseudoPot. # 2 for O  read from file:
     /storage/coda1/p-amedford6/0/shared/rich_project_chbe-medford/medford-share/data/pseudos_module/espresso/nninc/pbe/van/O.UPF
     MD5 check sum: 78c19812648e8988a0fe644b0f25305e
     Pseudo is Ultrasoft, Zval =  6.0
     Generated by new atomic code, or converted to UPF format
     Using radial grid of  737 points,  4 beta functions with:
                l(1) =   0
                l(2) =   0
                l(3) =   1
                l(4) =   1
     Q(r) pseudized with  8 coefficients,  rinner =    0.800   0.800   0.800

     PseudoPot. # 3 for N  read from file:
     /storage/coda1/p-amedford6/0/shared/rich_project_chbe-medford/medford-share/data/pseudos_module/espresso/nninc/pbe/van/N.UPF
     MD5 check sum: 90d10febe142ad51ac9d5be1deb811c4
     Pseudo is Ultrasoft, Zval =  5.0
     Generated by new atomic code, or converted to UPF format
     Using radial grid of  729 points,  4 beta functions with:
                l(1) =   0
                l(2) =   0
                l(3) =   1
                l(4) =   1
     Q(r) pseudized with  8 coefficients,  rinner =    0.800   0.800   0.800

     PseudoPot. # 4 for C  read from file:
     /storage/coda1/p-amedford6/0/shared/rich_project_chbe-medford/medford-share/data/pseudos_module/espresso/nninc/pbe/van/C.UPF
     MD5 check sum: 1a69bf6b8db32088f5b2163dbdb77a27
     Pseudo is Ultrasoft, Zval =  4.0
     Generated by new atomic code, or converted to UPF format
     Using radial grid of  721 points,  4 beta functions with:
                l(1) =   0
                l(2) =   0
                l(3) =   1
                l(4) =   1
     Q(r) pseudized with  8 coefficients,  rinner =    0.800   0.800   0.800

     PseudoPot. # 5 for H  read from file:
     /storage/coda1/p-amedford6/0/shared/rich_project_chbe-medford/medford-share/data/pseudos_module/espresso/nninc/pbe/van/H.UPF
     MD5 check sum: b5ee9d7bfd3a09ee7748110bda690ff7
     Pseudo is Ultrasoft, Zval =  1.0
     Generated by new atomic code, or converted to UPF format
     Using radial grid of  615 points,  1 beta functions with:
                l(1) =   0
     Q(r) pseudized with  8 coefficients,  rinner =    0.800

     atomic species   valence    mass     pseudopotential
        Ti1           12.00    47.86700     Ti( 1.00)
        O1             6.00    15.99900     O ( 1.00)
        N1             5.00    14.00700     N ( 1.00)
        C1             4.00    12.01100     C ( 1.00)
        H1             1.00     1.00800     H ( 1.00)

     No symmetry found

   Cartesian axes

     site n.     atom                  positions (alat units)
         1           Ti1 tau(   1) = (   0.0004258   2.9801865   6.0000000  )
         2           Ti1 tau(   2) = (   3.2906075   1.4906267   6.0002472  )
         3           O1  tau(   3) = (   0.0006271   0.0005054   7.9858123  )
         4           O1  tau(   4) = (   3.2906025   0.0005020   7.3038282  )
         5           O1  tau(   5) = (   4.5942328   1.4918067   9.2879030  )
         6           O1  tau(   6) = (   1.9868534   1.4903216   9.2879459  )
         7           Ti1 tau(   7) = (   3.2907910   2.8959150   9.1758416  )
         8           Ti1 tau(   8) = (   0.0015273   1.4827037   9.2680791  )
         9           O1  tau(   9) = (   3.3049783   5.9490022  11.2668993  )
        10           O1  tau(  10) = (   0.0116148   5.9584955  10.6183126  )
        11           O1  tau(  11) = (   1.3054562   1.4902858  12.6165390  )
        12           O1  tau(  12) = (   5.3128925   1.4966897  12.6222362  )
        13           Ti1 tau(  13) = (   0.0227526   2.8513963  12.7011302  )
        14           Ti1 tau(  14) = (   3.3146314   1.3157910  12.6511296  )
        15           O1  tau(  15) = (   0.0292331   0.0037381  14.6451560  )
        16           O1  tau(  16) = (   3.3105559   0.0332628  13.8611824  )
        17           O1  tau(  17) = (   4.5798417   1.5533887  16.0574704  )
        18           O1  tau(  18) = (   2.0659959   1.5620864  16.0379710  )
        19           Ti1 tau(  19) = (   3.3199680   3.0150018  15.6455324  )
        20           Ti1 tau(  20) = (   6.5662113   1.5085715  15.8767718  )
        21           O1  tau(  21) = (   3.2904802   0.0005063   4.7018136  )
        22           O1  tau(  22) = (   0.0336757   0.0283057  17.1922241  )
        23           O1  tau(  23) = (   1.3043587   1.4918075   6.0039043  )
        24           O1  tau(  24) = (   5.2767064   1.4903225   6.0039473  )
        25           Ti1 tau(  25) = (   0.0000382   5.9609847   6.0000000  )
        26           Ti1 tau(  26) = (   3.2902200   4.4714249   6.0002472  )
        27           O1  tau(  27) = (   0.0002396   2.9813036   7.9858123  )
        28           O1  tau(  28) = (   3.2902150   2.9813002   7.3038282  )
        29           O1  tau(  29) = (   4.5938453   4.4726049   9.2879030  )
        30           O1  tau(  30) = (   1.9864658   4.4711199   9.2879459  )
        31           Ti1 tau(  31) = (   3.2891106   5.8743827   9.1763621  )
        32           Ti1 tau(  32) = (   0.0006254   4.4649316   9.2693709  )
        33           O1  tau(  33) = (   3.3044035   3.0314990  11.2389097  )
        34           O1  tau(  34) = (   0.0092240   2.9805883  10.6323155  )
        35           O1  tau(  35) = (   1.3090660   4.4724101  12.6204063  )
        36           O1  tau(  36) = (   5.3093727   4.4739031  12.6240458  )
        37           Ti1 tau(  37) = (   0.0315986   5.8296340  12.6341251  )
        38           Ti1 tau(  38) = (   3.3217628   4.4127071  12.4104736  )
        39           O1  tau(  39) = (   0.0286309   2.9529265  14.6620113  )
        40           O1  tau(  40) = (   3.3111648   2.9942334  13.8608864  )
        41           O1  tau(  41) = (   4.5850423   4.4544105  16.0703757  )
        42           O1  tau(  42) = (   2.0817017   4.4739285  16.0881885  )
        43           Ti1 tau(  43) = (   3.2564312   0.0343949  16.3346327  )
        44           Ti1 tau(  44) = (   6.5491996   4.6347227  16.0815441  )
        45           O1  tau(  45) = (   3.2900926   2.9813045   4.7018136  )
        46           O1  tau(  46) = (   1.3039711   4.4726057   6.0039043  )
        47           O1  tau(  47) = (   5.2763189   4.4711207   6.0039473  )
        48           N1  tau(  48) = (   0.0476609   2.9608057  17.4046342  )
        49           C1  tau(  49) = (   0.0744360   2.8714357  18.6596517  )
        50           H1  tau(  50) = (   0.0810575   3.7616739  19.3027278  )
        51           H1  tau(  51) = (   0.0972865   1.8968143  19.1621030  )
        52           O1  tau(  52) = (   3.2917830   0.0572188  18.1605702  )
        53           H1  tau(  53) = (   2.8914424   5.3141097  18.6896264  )

     number of k points=    10  Fermi-Dirac smearing, width (Ry)=  0.0073
                       cart. coord. in units 2pi/alat
        k(    1) = (   0.0000000   0.0000000   0.0000000), wk =   0.1250000
        k(    2) = (   0.0000000   0.0419351   0.0000000), wk =   0.2500000
        k(    3) = (   0.0000000  -0.0838702   0.0000000), wk =   0.1250000
        k(    4) = (   0.0379955   0.0000049   0.0000000), wk =   0.2500000
        k(    5) = (   0.0379955   0.0419400   0.0000000), wk =   0.2500000
        k(    6) = (   0.0379955  -0.0838652   0.0000000), wk =   0.2500000
        k(    7) = (   0.0379955  -0.0419301   0.0000000), wk =   0.2500000
        k(    8) = (  -0.0759910  -0.0000099   0.0000000), wk =   0.1250000
        k(    9) = (  -0.0759910   0.0419252   0.0000000), wk =   0.2500000
        k(   10) = (  -0.0759910  -0.0838800   0.0000000), wk =   0.1250000

     Initial potential from superposition of free atoms

     starting charge  379.99917, renormalised to  396.00000

     negative rho (up, down):  1.694E-02 0.000E+00

     %%%%%%%%%%%%%%%%%%%%%%%%%%%%%%%%%%%%%%%%%%%%%%%%%%%%%%%%%%%%%%%%%%%%%%%%
     %                                                                      %
     % You are using vdW-DF, which was implemented by the Thonhauser group. %
     % Please cite the following two papers that made this development      %
     % possible and the two reviews that describe the various versions:     %
     %                                                                      %
     %   T. Thonhauser et al., PRL 115, 136402 (2015).                      %
     %   T. Thonhauser et al., PRB 76, 125112 (2007).                       %
     %   K. Berland et al., Rep. Prog. Phys. 78, 066501 (2015).             %
     %   D.C. Langreth et al., J. Phys.: Condens. Matter 21, 084203 (2009). %
     %                                                                      %
     %                                                                      %
     % If you are calculating the stress with vdW-DF, please also cite:     %
     %                                                                      %
     %   R. Sabatini et al., J. Phys.: Condens. Matter 24, 424209 (2012).   %
     %                                                                      %
     %%%%%%%%%%%%%%%%%%%%%%%%%%%%%%%%%%%%%%%%%%%%%%%%%%%%%%%%%%%%%%%%%%%%%%%%

     Adding external electric field

     Computed dipole along edir(3) :
        Dipole               -7.7051 Ry au,        -19.5845 Debye
        Dipole field         -0.0145 Ry au,

        Potential amp.        1.3479 Ry
        Total length         46.3494 bohr

     Starting wfcs are  299 atomic wfcs
  @ DRIVER MODE: Message from server: STATUS
  @ DRIVER MODE: Message from server: POSDATA
  @ DRIVER MODE: Reading and sharing cell
  @ DRIVER MODE: Reading and sharing positions
  @ DRIVER MODE: Received positions

     Self-consistent Calculation

     iteration #  1     ecut=    29.40 Ry     beta= 0.05
     Davidson diagonalization with overlap
     c_bands:  1 eigenvalues not converged
     c_bands:  4 eigenvalues not converged
     c_bands:  2 eigenvalues not converged
     c_bands:  3 eigenvalues not converged
     c_bands:  2 eigenvalues not converged
     c_bands:  3 eigenvalues not converged
     c_bands:  2 eigenvalues not converged
     ethr =  1.00E-05,  avg # of iterations = 19.5

[...]

     total energy              =   -2658.46510438 Ry
     estimated scf accuracy    <    3232.60021602 Ry

[...]

     iteration #  3     ecut=    29.40 Ry     beta= 0.05
     Davidson diagonalization with overlap
     ethr =  1.00E-02,  avg # of iterations = 14.6

[...]

     iteration # 72     ecut=    29.40 Ry     beta= 0.05
     Davidson diagonalization with overlap
     c_bands:  1 eigenvalues not converged
     ethr =  3.29E-08,  avg # of iterations =  6.0

[...]

     total energy              =   -2951.50544209 Ry
     estimated scf accuracy    <       0.00000010 Ry

     iteration # 88     ecut=    29.40 Ry     beta= 0.05
     Davidson diagonalization with overlap
     ethr =  2.62E-11,  avg # of iterations =  4.6

     negative rho (up, down):  1.700E-02 0.000E+00

     Adding external electric field

     Computed dipole along edir(3) :
        Dipole                0.3627 Ry au,          0.9218 Debye
        Dipole field          0.0007 Ry au,

        Potential amp.       -0.0634 Ry
        Total length         46.3494 bohr

     End of self-consistent calculation

          k = 0.0000 0.0000 0.0000 ( 18029 PWs)   bands (ev):

   -56.8874 -56.8538 -56.0106 -55.9747 -55.7624 -55.6985 -55.5444 -55.4458
   -55.4119 -55.3928 -55.3296 -55.3059 -55.2769 -55.2584 -55.0758 -55.0133
   -33.3074 -33.1607 -33.1326 -33.0648 -32.9745 -32.9343 -32.4937 -32.2400
   -32.2311 -32.2027 -32.1508 -32.1484 -32.1218 -31.9955 -31.9804 -31.9314
   -31.9028 -31.8930 -31.8703 -31.8620 -31.8251 -31.7926 -31.7925 -31.7681
   -31.7648 -31.7601 -31.7185 -31.6910 -31.6597 -31.6505 -31.5943 -31.5699
   -31.5467 -31.5291 -31.5250 -31.5201 -31.5027 -31.4821 -31.4746 -31.4686
   -31.4583 -31.4283 -31.3385 -31.3171 -31.2823 -31.2760 -31.2538 -31.2153
   -16.9992 -16.4621 -16.4518 -16.2090 -16.1014 -16.0865 -16.0592 -15.9850
   -15.8000 -15.7290 -15.7014 -15.6508 -15.5266 -15.4034 -15.3068 -15.1596
   -15.0757 -15.0304 -15.0291 -15.0121 -14.9761 -14.9620 -14.9401 -14.8772
   -14.8570 -14.7861 -14.6483 -14.6096 -14.6025 -14.3332 -14.3242 -13.9432
   -13.8361  -7.2035  -4.5715  -4.1479  -3.9722  -3.9322  -3.7669  -3.5948
    -3.5822  -3.4442  -3.4106  -3.2692  -3.2649  -3.2507  -3.1658  -3.1508
    -3.0306  -2.9637  -2.9492  -2.8481  -2.8072  -2.6554  -2.6174  -2.5272
    -2.4746  -2.4537  -2.3909  -2.3415  -2.3148  -2.2907  -2.2655  -2.2093
    -2.1892  -2.1550  -2.0896  -2.0530  -1.9667  -1.9289  -1.9180  -1.9120
    -1.7981  -1.7714  -1.7310  -1.5916  -1.5329  -1.5145  -1.4920  -1.4395
    -1.3803  -1.3565  -1.3063  -1.2057  -1.1286  -1.1135  -1.0465  -1.0293
    -1.0162  -0.8921  -0.8378  -0.7449  -0.7358  -0.7197  -0.6530  -0.5946
    -0.5568  -0.4725  -0.3973  -0.3880  -0.3743  -0.3382  -0.3140  -0.2569
    -0.1468  -0.1044  -0.0569   0.0163   0.0384   0.1265   0.2210   0.2557
     0.2694   0.3137   0.3425   0.3636   0.4214   0.4852   0.4988   0.5677
     0.5757   0.5798   0.6655   0.7562   0.7940   0.8450   0.8691   0.8801
     1.0022   1.0884   1.1125   1.1577   1.5266   1.7504   2.4036   2.5730
     2.8491   3.0036   3.3269   3.3898   3.4029   3.4061   3.6735   3.8027

[...]

          k = 0.0380-0.0419 0.0000 ( 17876 PWs)   bands (ev):

[...]

          k =-0.0760-0.0000 0.0000 ( 17886 PWs)   bands (ev):

[...]

          k =-0.0760-0.0839 0.0000 ( 17948 PWs)   bands (ev):

   -56.8712 -56.8699 -55.9989 -55.9862 -55.7575 -55.7033 -55.5436 -55.4295
   -55.4281 -55.3892 -55.3302 -55.3093 -55.2756 -55.2573 -55.0771 -55.0143
   -33.1471 -33.1457 -33.1253 -33.1239 -33.0187 -33.0177 -32.3192 -32.3083
   -32.1935 -32.1811 -32.1806 -32.1724 -32.0631 -32.0202 -31.9887 -31.9775
   -31.9306 -31.9260 -31.8389 -31.7908 -31.7817 -31.7806 -31.7469 -31.7199
   -31.6991 -31.6513 -31.6498 -31.6496 -31.6470 -31.6363 -31.6157 -31.6111
   -31.6098 -31.6086 -31.5864 -31.5455 -31.5377 -31.5179 -31.5062 -31.4844
   -31.4769 -31.4261 -31.4244 -31.3474 -31.3402 -31.2863 -31.2559 -31.2352
   -16.4459 -16.3620 -16.3598 -16.3095 -16.3080 -16.0591 -16.0542 -15.8035
   -15.7725 -15.5883 -15.5115 -15.4794 -15.4294 -15.3884 -15.3537 -15.2520
   -15.2391 -15.1420 -15.1136 -15.1041 -15.0568 -15.0132 -14.9702 -14.9405
   -14.9013 -14.8107 -14.7515 -14.7160 -14.6129 -14.5165 -14.4673 -13.9406
   -13.9400  -7.1986  -4.1467  -3.9636  -3.4307  -3.4259  -3.4159  -3.4077
    -3.3527  -3.1839  -3.1761  -2.9905  -2.9629  -2.9604  -2.8895  -2.8831
    -2.7762  -2.7109  -2.7051  -2.7041  -2.6695  -2.6423  -2.6361  -2.5792
    -2.4721  -2.4210  -2.3963  -2.3744  -2.3453  -2.3169  -2.2630  -2.1735
    -2.1658  -2.1563  -2.1261  -2.1060  -2.0806  -2.0754  -1.9371  -1.8359
    -1.7643  -1.7155  -1.7056  -1.6905  -1.6638  -1.6282  -1.5976  -1.5841
    -1.5381  -1.4792  -1.4539  -1.3982  -1.3491  -1.3009  -1.2191  -1.1581
    -1.0904  -1.0694  -0.9368  -0.9213  -0.9019  -0.8634  -0.8300  -0.8205
    -0.7455  -0.6718  -0.6131  -0.5975  -0.5368  -0.5137  -0.4792  -0.4409
    -0.4317  -0.3765  -0.3544  -0.3056  -0.2908  -0.1699  -0.0867   0.0354
     0.0670   0.0850   0.1431   0.1751   0.3122   0.3214   0.3717   0.4860
     0.5226   0.6646   0.6819   0.7842   0.8336   0.8959   0.9523   0.9560
     0.9565   0.9826   1.0166   1.0376   1.1139   1.6882   2.9938   2.9966
     3.0537   3.0594   3.3661   3.3702   3.4747   3.4804   3.7847   3.7913

     the Fermi energy is     2.1412 ev

!    total energy              =   -2951.50544594 Ry
     estimated scf accuracy    <       0.00000004 Ry
     smearing contrib. (-TS)   =      -0.00232651 Ry
     internal energy E=F+TS    =   -2951.50311943 Ry

     The total energy is F=E-TS. E is the sum of the following terms:
     one-electron contribution =  -24181.76531524 Ry
     hartree contribution      =   12180.37364250 Ry
     xc contribution           =    -487.03820675 Ry
     ewald contribution        =    9536.92651185 Ry
     electric field correction =       0.00024822 Ry

     convergence has been achieved in  88 iterations

     Forces acting on atoms (cartesian axes, Ry/au):

     atom    1 type  1   force =     0.00001039   -0.00050894    0.12457888
     atom    2 type  1   force =    -0.00009532    0.00035201   -0.15489399
     atom    3 type  2   force =     0.00004538   -0.00012486   -0.06536910
     atom    4 type  2   force =     0.00007334    0.00023425    0.01706831
     atom    5 type  2   force =    -0.00338342   -0.00145148   -0.01347714
     atom    6 type  2   force =     0.00542322   -0.00094312   -0.01319241
     atom    7 type  1   force =     0.00030332   -0.00647638    0.05889414
     atom    8 type  1   force =     0.00011399    0.00855294    0.09585847
     atom    9 type  2   force =     0.00026743   -0.00010521    0.00025395
     atom   10 type  2   force =    -0.00166709    0.00093196   -0.05964292
     atom   11 type  2   force =     0.00079799   -0.00033853   -0.00034545
     atom   12 type  2   force =    -0.00102867   -0.00073417   -0.00009298
     atom   13 type  1   force =    -0.00020040   -0.00074745    0.00007703
     atom   14 type  1   force =     0.00003703   -0.00064812   -0.00012937
     atom   15 type  2   force =     0.00007492   -0.00025247   -0.00011242
     atom   16 type  2   force =    -0.00008951    0.00001350   -0.00042693
     atom   17 type  2   force =     0.00026430   -0.00011997   -0.00014926
     atom   18 type  2   force =    -0.00035863   -0.00021246   -0.00017439
     atom   19 type  1   force =    -0.00016961   -0.00138070    0.00013545
     atom   20 type  1   force =    -0.00013479   -0.00006414   -0.00018435
     atom   21 type  2   force =     0.00002329    0.00021860    0.09783330
     atom   22 type  2   force =    -0.00026410   -0.00036929    0.00019717
     atom   23 type  2   force =    -0.08253508    0.00005374   -0.03293808
     atom   24 type  2   force =     0.08241993    0.00049485   -0.03299222
     atom   25 type  1   force =     0.00002677   -0.00058098    0.12480579
     atom   26 type  1   force =    -0.00019640   -0.00146701   -0.15526597
     atom   27 type  2   force =     0.00011624   -0.00079625   -0.06368389
     atom   28 type  2   force =     0.00005572    0.00199359    0.01252564
     atom   29 type  2   force =    -0.00155924    0.00507769   -0.01679535
     atom   30 type  2   force =     0.00370548    0.00540067   -0.01640650
     atom   31 type  1   force =     0.00000684    0.00178257    0.04178348
     atom   32 type  1   force =     0.00011711   -0.01183516    0.09592133
     atom   33 type  2   force =     0.00001430   -0.00022483   -0.00028385
     atom   34 type  2   force =    -0.00105193    0.00154209   -0.07415485
     atom   35 type  2   force =    -0.00040584    0.00017781    0.00008088
     atom   36 type  2   force =     0.00111803    0.00044157    0.00015670
     atom   37 type  1   force =    -0.00030170    0.00060110    0.00027949
     atom   38 type  1   force =     0.00020266   -0.00054388    0.00002895
     atom   39 type  2   force =     0.00017031    0.00025037    0.00010163
     atom   40 type  2   force =    -0.00005041   -0.00049884   -0.00061616
     atom   41 type  2   force =     0.00048164    0.00012039   -0.00026010
     atom   42 type  2   force =    -0.00083220   -0.00011319    0.00008575
     atom   43 type  1   force =     0.00003568    0.00105989   -0.00064354
     atom   44 type  1   force =    -0.00009342    0.00004771   -0.00048666
     atom   45 type  2   force =     0.00003868    0.00001895    0.09766687
     atom   46 type  2   force =    -0.08258486    0.00001349   -0.03294872
     atom   47 type  2   force =     0.08246176    0.00044389   -0.03299898
     atom   48 type  3   force =    -0.00062310   -0.00010512    0.00019058
     atom   49 type  4   force =     0.00158429   -0.00021584    0.00021647
     atom   50 type  5   force =    -0.00055204   -0.00000523   -0.00011802
     atom   51 type  5   force =    -0.00088987    0.00017900    0.00004173
     atom   52 type  2   force =     0.00012283    0.00055879    0.00009717
     atom   53 type  5   force =    -0.00104526    0.00030221   -0.00009557

     Total force =     0.415489     Total SCF correction =     0.000458
  @ DRIVER MODE: Message from server: STATUS
  @ DRIVER MODE: Message from server: GETFORCE
  @ DRIVER MODE: Returning v,forces,stress,ensemble

     Writing output data file ./calc.save/
  @ DRIVER MODE: Message from server: EXIT
  @ DRIVE MODE: Exiting

     General routines

     Parallel routines

   This run was terminated on:  22:50:15  22Sep2021

   JOB DONE.