     Program PWSCF v.6.7GPU starts on 10Sep2021 at 11:45:19

     R & G space division:  proc/nbgrp/npool/nimage =      10
     Reading input from /storage/home/hcoda1/3/ntian30/research/carbon/CxH_vib/CH3_calc/ads_slab/CH3N2H2O_g/out_0044/pw.inp
Warning: card &CELL ignored
Warning: card   CELL_DYNAMICS='IPI', ignored
Warning: card / ignored

     Current dimensions of program PWSCF are:
     Max number of different atomic species (ntypx) = 10
     Max number of k-points (npk) =  40000
     Max angular momentum in pseudopotentials (lmaxx) =  3
     Presently no symmetry can be used with electric field

     Message from routine cell_base_init:
     DEPRECATED: use true lattice parameter, not A to a.u. conversion factor

     IMPORTANT: XC functional enforced from input :
     Exchange-correlation= BEEF-VDW
                           (   1   4  43  14   2   0   0)
     Any further DFT definition will be discarded
     Please, verify this is what you really want

  @ DRIVER MODE: Connecting to
 qe_1139763_2779714.sched-torque.pace.gatech.edux6helnjr_scratch
  using UNIX socket
  @ DRIVER MODE: Message from server: STATUS
  @ DRIVER MODE: Message from server: INIT
  @ DRIVER MODE: Receiving replica           0          -1
  @ DRIVER MODE: Receiving encoded integer          25
  @ DRIVER MODE:  SCF:  T  FORCE:  T  STRESS:  F  VC:  F  ENSEMBLE:  F
  @ DRIVER MODE:  SCF:  T  FORCE:  T  STRESS:  F  VC:  F  ENSEMBLE:  F

     Using Slab Decomposition

     bravais-lattice index     =            0
     lattice parameter (alat)  =       1.8897  a.u.
     unit-cell volume          =    6658.9804 (a.u.)^3
     number of atoms/cell      =           56
     number of atomic types    =            5
     number of electrons       =       403.00
     number of Kohn-Sham states=          211
     kinetic-energy cutoff     =      29.3995  Ry
     charge density cutoff     =     293.9946  Ry
     scf convergence threshold =      7.3E-08
     mixing beta               =       0.0500
     number of iterations used =            8  plain     mixing
     Exchange-correlation= BEEF-VDW
                           (   1   4  43  14   2   0   0)

     celldm(1)=   1.889726  celldm(2)=   0.000000  celldm(3)=   0.000000
     celldm(4)=   0.000000  celldm(5)=   0.000000  celldm(6)=   0.000000

     crystal axes: (cart. coord. in units of alat)
               a(1) = (   6.579727   0.000000   0.000000 )
               a(2) = (  -0.000775   5.961596   0.000000 )
               a(3) = (   0.000000   0.000000  25.155947 )

     reciprocal axes: (cart. coord. in units 2 pi/alat)
               b(1) = (  0.151982  0.000020  0.000000 )
               b(2) = (  0.000000  0.167740  0.000000 )
               b(3) = (  0.000000  0.000000  0.039752 )

     PseudoPot. # 1 for Ti read from file:
     /storage/coda1/p-amedford6/0/shared/rich_project_chbe-medford/medford-share/data/pseudos_module/espresso/nninc/pbe/van/Ti.UPF
     MD5 check sum: 8e4df49b7f0d34bbd5052bf3f5ea0213
     Pseudo is Ultrasoft, Zval = 12.0
     Generated by new atomic code, or converted to UPF format
     Using radial grid of  851 points,  6 beta functions with:
                l(1) =   0
                l(2) =   0
                l(3) =   1
                l(4) =   1
                l(5) =   2
                l(6) =   2
     Q(r) pseudized with  8 coefficients,  rinner =    1.000   1.000   1.000
                                                       1.000   1.000

     PseudoPot. # 2 for O  read from file:
     /storage/coda1/p-amedford6/0/shared/rich_project_chbe-medford/medford-share/data/pseudos_module/espresso/nninc/pbe/van/O.UPF
     MD5 check sum: 78c19812648e8988a0fe644b0f25305e
     Pseudo is Ultrasoft, Zval =  6.0
     Generated by new atomic code, or converted to UPF format
     Using radial grid of  737 points,  4 beta functions with:
                l(1) =   0
                l(2) =   0
                l(3) =   1
                l(4) =   1
     Q(r) pseudized with  8 coefficients,  rinner =    0.800   0.800   0.800

     PseudoPot. # 3 for N  read from file:
     /storage/coda1/p-amedford6/0/shared/rich_project_chbe-medford/medford-share/data/pseudos_module/espresso/nninc/pbe/van/N.UPF
     MD5 check sum: 90d10febe142ad51ac9d5be1deb811c4
     Pseudo is Ultrasoft, Zval =  5.0
     Generated by new atomic code, or converted to UPF format
     Using radial grid of  729 points,  4 beta functions with:
                l(1) =   0
                l(2) =   0
                l(3) =   1
                l(4) =   1
     Q(r) pseudized with  8 coefficients,  rinner =    0.800   0.800   0.800

     PseudoPot. # 4 for C  read from file:
     /storage/coda1/p-amedford6/0/shared/rich_project_chbe-medford/medford-share/data/pseudos_module/espresso/nninc/pbe/van/C.UPF
     MD5 check sum: 1a69bf6b8db32088f5b2163dbdb77a27
     Pseudo is Ultrasoft, Zval =  4.0
     Generated by new atomic code, or converted to UPF format
     Using radial grid of  721 points,  4 beta functions with:
                l(1) =   0
                l(2) =   0
                l(3) =   1
                l(4) =   1
     Q(r) pseudized with  8 coefficients,  rinner =    0.800   0.800   0.800

     PseudoPot. # 5 for H  read from file:
     /storage/coda1/p-amedford6/0/shared/rich_project_chbe-medford/medford-share/data/pseudos_module/espresso/nninc/pbe/van/H.UPF
     MD5 check sum: b5ee9d7bfd3a09ee7748110bda690ff7
     Pseudo is Ultrasoft, Zval =  1.0
     Generated by new atomic code, or converted to UPF format
     Using radial grid of  615 points,  1 beta functions with:
                l(1) =   0
     Q(r) pseudized with  8 coefficients,  rinner =    0.800

     atomic species   valence    mass     pseudopotential
        Ti1           12.00    47.86700     Ti( 1.00)
        O1             6.00    15.99900     O ( 1.00)
        N1             5.00    14.00700     N ( 1.00)
        C1             4.00    12.01100     C ( 1.00)
        H1             1.00     1.00800     H ( 1.00)

     No symmetry found

   Cartesian axes

     site n.     atom                  positions (alat units)
         1           Ti1 tau(   1) = (   0.0004258   2.9801865   6.0000000  )
         2           Ti1 tau(   2) = (   3.2906075   1.4906267   6.0002472  )
         3           O1  tau(   3) = (   0.0006271   0.0005054   7.9858123  )
         4           O1  tau(   4) = (   3.2906025   0.0005020   7.3038282  )
         5           O1  tau(   5) = (   4.5942328   1.4918067   9.2879030  )
         6           O1  tau(   6) = (   1.9868534   1.4903216   9.2879459  )
         7           Ti1 tau(   7) = (   3.2907910   2.8959150   9.1758416  )
         8           Ti1 tau(   8) = (   0.0015273   1.4827037   9.2680791  )
         9           O1  tau(   9) = (   3.3002115   5.9463602  11.3460011  )
        10           O1  tau(  10) = (   0.0116148   5.9584955  10.6183126  )
        11           O1  tau(  11) = (   1.3192008   1.4768417  12.6238339  )
        12           O1  tau(  12) = (   5.3062067   1.4698383  12.6193417  )
        13           Ti1 tau(  13) = (   6.5330844   2.9444840  12.6148558  )
        14           Ti1 tau(  14) = (   3.2222230   1.4676475  12.5013840  )
        15           O1  tau(  15) = (   0.0064324   5.9471174  14.6352917  )
        16           O1  tau(  16) = (   3.3028336   5.9445487  13.9678148  )
        17           O1  tau(  17) = (   4.5628415   1.5226527  16.0793330  )
        18           O1  tau(  18) = (   2.0474444   1.5206590  16.0184434  )
        19           Ti1 tau(  19) = (   3.3141275   2.9607752  15.6908890  )
        20           Ti1 tau(  20) = (   6.5660065   1.5097775  15.7997320  )
        21           O1  tau(  21) = (   3.2904802   0.0005063   4.7018136  )
        22           O1  tau(  22) = (   0.0269361   0.0086655  17.1987262  )
        23           O1  tau(  23) = (   1.3043587   1.4918075   6.0039043  )
        24           O1  tau(  24) = (   5.2767064   1.4903225   6.0039473  )
        25           Ti1 tau(  25) = (   0.0000382   5.9609847   6.0000000  )
        26           Ti1 tau(  26) = (   3.2902200   4.4714249   6.0002472  )
        27           O1  tau(  27) = (   0.0002396   2.9813036   7.9858123  )
        28           O1  tau(  28) = (   3.2902150   2.9813002   7.3038282  )
        29           O1  tau(  29) = (   4.5938453   4.4726049   9.2879030  )
        30           O1  tau(  30) = (   1.9864658   4.4711199   9.2879459  )
        31           Ti1 tau(  31) = (   3.2891106   5.8743827   9.1763621  )
        32           Ti1 tau(  32) = (   0.0006254   4.4649316   9.2693709  )
        33           O1  tau(  33) = (   3.2944391   2.9688829  11.3444728  )
        34           O1  tau(  34) = (   0.0092240   2.9805883  10.6323155  )
        35           O1  tau(  35) = (   1.3142520   4.4635248  12.6275686  )
        36           O1  tau(  36) = (   5.3078217   4.4601700  12.6226734  )
        37           Ti1 tau(  37) = (   6.5374036   5.9186568  12.5467527  )
        38           Ti1 tau(  38) = (   3.2213306   4.4595164  12.5065882  )
        39           O1  tau(  39) = (   6.5756885   2.9534048  14.6511233  )
        40           O1  tau(  40) = (   3.3206316   2.9687378  13.8980937  )
        41           O1  tau(  41) = (   4.5543359   4.4428353  16.0905846  )
        42           O1  tau(  42) = (   2.0427057   4.4323087  16.0570365  )
        43           Ti1 tau(  43) = (   3.2570595   5.9269474  15.8069103  )
        44           Ti1 tau(  44) = (   6.5609319   4.6488967  16.0725391  )
        45           O1  tau(  45) = (   3.2900926   2.9813045   4.7018136  )
        46           O1  tau(  46) = (   1.3039711   4.4726057   6.0039043  )
        47           O1  tau(  47) = (   5.2763189   4.4711207   6.0039473  )
        48           N1  tau(  48) = (   0.2492319   2.6641403  18.6309932  )
        49           N1  tau(  49) = (   0.0782707   2.8835230  17.4382120  )
        50           C1  tau(  50) = (   0.2622466   3.8234900  19.5663878  )
        51           H1  tau(  51) = (   6.1755609   4.6233469  19.2444151  )
        52           H1  tau(  52) = (   6.5754044   3.4477461  20.5519103  )
        53           H1  tau(  53) = (   1.2857956   4.2073973  19.6006198  )
        54           O1  tau(  54) = (   3.1761146   0.0362278  18.2233714  )
        55           H1  tau(  55) = (   3.9197821   0.6076051  18.5038283  )
        56           H1  tau(  56) = (   2.3516031   0.5117379  18.4309238  )

     number of k points=    10  Fermi-Dirac smearing, width (Ry)=  0.0073
                       cart. coord. in units 2pi/alat
        k(    1) = (   0.0000000   0.0000000   0.0000000), wk =   0.1250000
        k(    2) = (   0.0000000   0.0419351   0.0000000), wk =   0.2500000
        k(    3) = (   0.0000000  -0.0838702   0.0000000), wk =   0.1250000
        k(    4) = (   0.0379955   0.0000049   0.0000000), wk =   0.2500000
        k(    5) = (   0.0379955   0.0419400   0.0000000), wk =   0.2500000
        k(    6) = (   0.0379955  -0.0838652   0.0000000), wk =   0.2500000
        k(    7) = (   0.0379955  -0.0419301   0.0000000), wk =   0.2500000
        k(    8) = (  -0.0759910  -0.0000099   0.0000000), wk =   0.1250000
        k(    9) = (  -0.0759910   0.0419252   0.0000000), wk =   0.2500000
        k(   10) = (  -0.0759910  -0.0838800   0.0000000), wk =   0.1250000

     Initial potential from superposition of free atoms

     starting charge  386.99914, renormalised to  403.00000

     negative rho (up, down):  1.449E-02 0.000E+00

     %%%%%%%%%%%%%%%%%%%%%%%%%%%%%%%%%%%%%%%%%%%%%%%%%%%%%%%%%%%%%%%%%%%%%%%%
     %                                                                      %
     % You are using vdW-DF, which was implemented by the Thonhauser group. %
     % Please cite the following two papers that made this development      %
     % possible and the two reviews that describe the various versions:     %
     %                                                                      %
     %   T. Thonhauser et al., PRL 115, 136402 (2015).                      %
     %   T. Thonhauser et al., PRB 76, 125112 (2007).                       %
     %   K. Berland et al., Rep. Prog. Phys. 78, 066501 (2015).             %
     %   D.C. Langreth et al., J. Phys.: Condens. Matter 21, 084203 (2009). %
     %                                                                      %
     %                                                                      %
     % If you are calculating the stress with vdW-DF, please also cite:     %
     %                                                                      %
     %   R. Sabatini et al., J. Phys.: Condens. Matter 24, 424209 (2012).   %
     %                                                                      %
     %%%%%%%%%%%%%%%%%%%%%%%%%%%%%%%%%%%%%%%%%%%%%%%%%%%%%%%%%%%%%%%%%%%%%%%%

     Adding external electric field

     Computed dipole along edir(3) :
        Dipole              -13.2089 Ry au,        -33.5737 Debye
        Dipole field         -0.0249 Ry au,

        Potential amp.        2.3107 Ry
        Total length         46.3494 bohr

     Starting wfcs are  305 atomic wfcs
  @ DRIVER MODE: Message from server: STATUS
  @ DRIVER MODE: Message from server: POSDATA
  @ DRIVER MODE: Reading and sharing cell
  @ DRIVER MODE: Reading and sharing positions
  @ DRIVER MODE: Received positions

     Self-consistent Calculation

     iteration #  1     ecut=    29.40 Ry     beta= 0.05
     Davidson diagonalization with overlap
     c_bands:  4 eigenvalues not converged
     c_bands:  2 eigenvalues not converged
     c_bands:  2 eigenvalues not converged
     c_bands:  5 eigenvalues not converged
     c_bands:  1 eigenvalues not converged
     c_bands:  1 eigenvalues not converged
     c_bands:  4 eigenvalues not converged
     c_bands:  1 eigenvalues not converged
     c_bands:  1 eigenvalues not converged
     ethr =  1.00E-05,  avg # of iterations = 28.0

[...]

     total energy              =   -2367.56190894 Ry
     estimated scf accuracy    <    6916.34764967 Ry

     iteration #  2     ecut=    29.40 Ry     beta= 0.05
     Davidson diagonalization with overlap
     ethr =  1.00E-02,  avg # of iterations = 23.0

[...]

     iteration # 63     ecut=    29.40 Ry     beta= 0.05
     Davidson diagonalization with overlap
     c_bands:  1 eigenvalues not converged
     ethr =  9.29E-10,  avg # of iterations = 16.3

[...]

     total energy              =   -2974.00261971 Ry
     estimated scf accuracy    <       0.00000016 Ry

     iteration # 70     ecut=    29.40 Ry     beta= 0.05
     Davidson diagonalization with overlap
     ethr =  4.07E-11,  avg # of iterations =  7.9

     negative rho (up, down):  1.476E-02 0.000E+00

     Adding external electric field

     Computed dipole along edir(3) :
        Dipole                0.8897 Ry au,          2.2614 Debye
        Dipole field          0.0017 Ry au,

        Potential amp.       -0.1556 Ry
        Total length         46.3494 bohr

     End of self-consistent calculation

          k = 0.0000 0.0000 0.0000 ( 18029 PWs)   bands (ev):

   -55.6196 -55.5856 -55.5775 -55.5606 -55.5408 -55.4478 -55.4296 -55.4086
   -55.3956 -55.3946 -55.3661 -55.3608 -55.0037 -54.8641 -54.5983 -54.5643
   -32.1196 -32.1020 -31.9623 -31.9452 -31.9284 -31.9125 -31.8841 -31.8782
   -31.8626 -31.8086 -31.8024 -31.7843 -31.7720 -31.7558 -31.7398 -31.7308
   -31.7239 -31.7110 -31.7050 -31.6769 -31.6680 -31.6505 -31.6219 -31.6179
   -31.6020 -31.5994 -31.5989 -31.5936 -31.5695 -31.5648 -31.5619 -31.5569
   -31.5472 -31.5426 -31.5362 -31.5098 -31.5063 -31.2737 -31.1996 -31.1244
   -31.1072 -31.0729 -31.0056 -30.9170 -30.8946 -30.8222 -30.7357 -30.6248
   -18.8136 -18.3062 -16.3115 -16.0832 -15.8534 -15.7658 -15.7170 -15.5174
   -15.4155 -15.3433 -15.2205 -15.1580 -15.1458 -15.1317 -15.1130 -15.1106
   -15.0584 -15.0514 -15.0474 -15.0398 -15.0063 -14.9659 -14.9509 -14.9407
   -14.8467 -14.7732 -14.7561 -14.7321 -14.6867 -14.6702 -14.1981 -13.1007
   -12.9843 -11.2549  -6.8722  -6.6168  -4.2005  -3.8413  -3.7975  -3.6839
    -3.5567  -3.5237  -3.4407  -3.3677  -3.2309  -3.1858  -3.0289  -2.8472
    -2.7865  -2.7598  -2.7075  -2.6397  -2.5271  -2.4678  -2.4235  -2.4160
    -2.3990  -2.3913  -2.3674  -2.3549  -2.2532  -2.2319  -2.1537  -2.1495
    -2.0979  -1.9808  -1.9658  -1.9320  -1.9185  -1.8954  -1.8736  -1.8530
    -1.8427  -1.8187  -1.7676  -1.6989  -1.6317  -1.5949  -1.5065  -1.4401
    -1.3977  -1.3493  -1.2295  -1.1358  -1.1002  -1.0609  -1.0531  -1.0400
    -1.0116  -0.9936  -0.8808  -0.7669  -0.7500  -0.6847  -0.6247  -0.5436
    -0.5159  -0.4370  -0.3834  -0.3649  -0.3614  -0.3151  -0.2860  -0.2253
    -0.0930  -0.0413  -0.0072   0.0016   0.0607   0.1044   0.1327   0.2201
     0.2265   0.2717   0.3098   0.3422   0.3554   0.3706   0.3891   0.4186
     0.4334   0.6249   0.6610   0.7000   0.7378   0.7804   0.9190   0.9429
     1.0415   1.1506   1.3500   1.4237   1.5286   1.6159   1.9952   2.0410
     2.7444   3.5156   3.6029   3.6478   3.6767   3.7605   3.7746   3.9703
     3.9863   4.0249   4.0945

[...]

          k = 0.0380-0.0419 0.0000 ( 17876 PWs)   bands (ev):

[...]

          k =-0.0760-0.0000 0.0000 ( 17886 PWs)   bands (ev):

[...]

          k =-0.0760-0.0839 0.0000 ( 17948 PWs)   bands (ev):

   -55.6030 -55.6020 -55.5633 -55.5590 -55.5547 -55.4374 -55.4191 -55.4134
   -55.4112 -55.3794 -55.3762 -55.3676 -55.0017 -54.8660 -54.5814 -54.5811
   -31.9332 -31.9176 -31.9170 -31.9170 -31.8984 -31.8975 -31.8476 -31.8414
   -31.8204 -31.7952 -31.7831 -31.7739 -31.7698 -31.7320 -31.7271 -31.7257
   -31.7226 -31.7216 -31.7189 -31.7164 -31.7139 -31.7080 -31.6718 -31.6546
   -31.6360 -31.6319 -31.6245 -31.6124 -31.6122 -31.6091 -31.6035 -31.5941
   -31.5906 -31.5799 -31.5790 -31.5705 -31.4209 -31.2755 -31.2159 -31.1629
   -31.1256 -31.0995 -30.9073 -30.9072 -30.8185 -30.8182 -30.7790 -30.7789
   -18.8124 -18.3026 -15.7699 -15.6595 -15.5691 -15.5350 -15.4773 -15.4083
   -15.4004 -15.3137 -15.2978 -15.2947 -15.2288 -15.2083 -15.1708 -15.1641
   -15.1414 -15.1255 -15.1190 -15.0695 -15.0575 -15.0547 -15.0479 -15.0429
   -14.9669 -14.9364 -14.9325 -14.9236 -14.7958 -14.6714 -14.3699 -13.0862
   -13.0860 -11.2525  -6.8987  -6.5946  -4.1264  -3.8725  -3.7603  -3.1952
    -3.0523  -2.8353  -2.8201  -2.7238  -2.7124  -2.6776  -2.5471  -2.5062
    -2.4652  -2.4489  -2.4300  -2.4286  -2.4111  -2.4055  -2.3846  -2.3587
    -2.3346  -2.3144  -2.2852  -2.2820  -2.2691  -2.2560  -2.2329  -2.2207
    -2.2044  -2.1738  -2.1477  -2.1315  -2.0638  -1.9926  -1.8324  -1.7938
    -1.7550  -1.7485  -1.7315  -1.7005  -1.6856  -1.6676  -1.6208  -1.5849
    -1.5001  -1.3569  -1.3379  -1.3140  -1.2905  -1.2830  -1.2107  -1.1021
    -1.0826  -1.0122  -1.0038  -0.8973  -0.8881  -0.8041  -0.7960  -0.7855
    -0.7106  -0.6829  -0.6688  -0.5802  -0.5781  -0.5542  -0.5042  -0.4774
    -0.4126  -0.3704  -0.3395  -0.3365  -0.2905  -0.2683  -0.2243  -0.1569
    -0.1042  -0.0677   0.0283   0.1325   0.2325   0.3484   0.4635   0.4775
     0.5595   0.5929   0.6777   0.6935   0.7018   0.7741   0.7790   0.8774
     0.9225   0.9370   0.9775   1.1002   1.7870   1.7884   1.8605   1.8608
     2.7688   3.7332   3.8532   3.8953   3.9131   3.9873   4.0300   4.0494
     4.0518   4.0859   4.1920

     the Fermi energy is     3.5145 ev

!    total energy              =   -2974.00264733 Ry
     estimated scf accuracy    <       0.00000005 Ry
     smearing contrib. (-TS)   =      -0.02182326 Ry
     internal energy E=F+TS    =   -2973.98082407 Ry

     The total energy is F=E-TS. E is the sum of the following terms:
     one-electron contribution =  -23847.90830591 Ry
     hartree contribution      =   12018.37334284 Ry
     xc contribution           =    -494.02209608 Ry
     ewald contribution        =    9349.57474131 Ry
     electric field correction =       0.00149377 Ry

     convergence has been achieved in  70 iterations

     Forces acting on atoms (cartesian axes, Ry/au):

     atom    1 type  1   force =     0.00003683   -0.00022968    0.09645960
     atom    2 type  1   force =     0.00005557   -0.00043987   -0.17546181
     atom    3 type  2   force =     0.00011634   -0.00009391   -0.02475535
     atom    4 type  2   force =     0.00004355   -0.00157659    0.05348311
     atom    5 type  2   force =    -0.01196707   -0.00100688    0.00308992
     atom    6 type  2   force =     0.01371173   -0.00064885    0.00292837
     atom    7 type  1   force =     0.00074700    0.00069115   -0.00681004
     atom    8 type  1   force =     0.00021881    0.00948232    0.02714592
     atom    9 type  2   force =    -0.00014630   -0.00006359   -0.00005993
     atom   10 type  2   force =    -0.00204781    0.00049349   -0.01820386
     atom   11 type  2   force =    -0.00056915    0.00032942    0.00011689
     atom   12 type  2   force =     0.00067881    0.00012707    0.00030828
     atom   13 type  1   force =    -0.00016027   -0.00009742   -0.00015575
     atom   14 type  1   force =    -0.00040867   -0.00015789    0.00025248
     atom   15 type  2   force =     0.00002934   -0.00060676    0.00070616
     atom   16 type  2   force =    -0.00025504   -0.00006874   -0.00041944
     atom   17 type  2   force =    -0.00017247    0.00017955   -0.00030118
     atom   18 type  2   force =    -0.00001576    0.00020497   -0.00032688
     atom   19 type  1   force =    -0.00035458    0.00015389    0.00002965
     atom   20 type  1   force =    -0.00042296    0.00003726    0.00031218
     atom   21 type  2   force =     0.00008548    0.00001435    0.10325398
     atom   22 type  2   force =     0.00009624    0.00046701    0.00015983
     atom   23 type  2   force =    -0.07144477   -0.00009017   -0.02775974
     atom   24 type  2   force =     0.07140704    0.00036332   -0.02783067
     atom   25 type  1   force =     0.00017759   -0.00034560    0.09613258
     atom   26 type  1   force =     0.00000970   -0.00037541   -0.17578924
     atom   27 type  2   force =     0.00021103   -0.00020898   -0.02375002
     atom   28 type  2   force =     0.00002613   -0.00128238    0.05294805
     atom   29 type  2   force =    -0.01221094    0.00023958    0.00291752
     atom   30 type  2   force =     0.01387502    0.00081832    0.00273663
     atom   31 type  1   force =     0.00041869    0.00343651   -0.00984140
     atom   32 type  1   force =     0.00036433   -0.01131699    0.02755371
     atom   33 type  2   force =     0.00010203    0.00014465   -0.00000164
     atom   34 type  2   force =    -0.00188342   -0.00045827   -0.02414710
     atom   35 type  2   force =     0.00041966    0.00002964   -0.00027434
     atom   36 type  2   force =    -0.00030509   -0.00006467    0.00007220
     atom   37 type  1   force =    -0.00031180   -0.00013147    0.00007762
     atom   38 type  1   force =    -0.00079027    0.00013771   -0.00049929
     atom   39 type  2   force =     0.00009132   -0.00030823   -0.00020459
     atom   40 type  2   force =     0.00020140    0.00034145    0.00044740
     atom   41 type  2   force =     0.00027045    0.00010746   -0.00031067
     atom   42 type  2   force =    -0.00045491   -0.00009069   -0.00034623
     atom   43 type  1   force =     0.00025716    0.00081404    0.00051826
     atom   44 type  1   force =    -0.00008897    0.00103000   -0.00071213
     atom   45 type  2   force =     0.00008619   -0.00002606    0.10324406
     atom   46 type  2   force =    -0.07144365   -0.00002555   -0.02776959
     atom   47 type  2   force =     0.07140304    0.00040114   -0.02782717
     atom   48 type  3   force =    -0.00046105    0.00008109   -0.00149429
     atom   49 type  3   force =    -0.00008641   -0.00040554    0.00130513
     atom   50 type  4   force =     0.00015957    0.00053465    0.00037416
     atom   51 type  5   force =     0.00112610   -0.00074731   -0.00029240
     atom   52 type  5   force =    -0.00011267    0.00013320   -0.00016774
     atom   53 type  5   force =    -0.00004224   -0.00067110    0.00014891
     atom   54 type  2   force =     0.01124060    0.00699683    0.00235980
     atom   55 type  5   force =    -0.01208728   -0.00757591   -0.00377530
     atom   56 type  5   force =     0.00057679    0.00132446    0.00020540

     Total force =     0.368533     Total SCF correction =     0.000578
  @ DRIVER MODE: Message from server: STATUS
  @ DRIVER MODE: Message from server: GETFORCE
  @ DRIVER MODE: Returning v,forces,stress,ensemble

     Writing output data file ./calc.save/
  @ DRIVER MODE: Message from server: EXIT
  @ DRIVE MODE: Exiting

     General routines

     Parallel routines

   This run was terminated on:  12: 5:10  10Sep2021

   JOB DONE.