     Program PWSCF v.6.7GPU starts on 24Sep2021 at 17:56:58

     R & G space division:  proc/nbgrp/npool/nimage =       8
     Reading input from /storage/home/hcoda1/3/ntian30/research/carbon/CxH_vib/H2O_calc/ads_slab/CH3NHNH2HO_a/out_0060/pw.inp
Warning: card &CELL ignored
Warning: card   CELL_DYNAMICS='IPI', ignored
Warning: card / ignored

     Current dimensions of program PWSCF are:
     Max number of different atomic species (ntypx) = 10
     Max number of k-points (npk) =  40000
     Max angular momentum in pseudopotentials (lmaxx) =  3
     Presently no symmetry can be used with electric field

     Message from routine cell_base_init:
     DEPRECATED: use true lattice parameter, not A to a.u. conversion factor

     IMPORTANT: XC functional enforced from input :
     Exchange-correlation= BEEF-VDW
                           (   1   4  43  14   2   0   0)
     Any further DFT definition will be discarded
     Please, verify this is what you really want

  @ DRIVER MODE: Connecting to
 qe_1139763_2947307.sched-torque.pace.gatech.eduttvjsok8_scratch
  using UNIX socket
  @ DRIVER MODE: Message from server: STATUS
  @ DRIVER MODE: Message from server: INIT
  @ DRIVER MODE: Receiving replica           0          -1
  @ DRIVER MODE: Receiving encoded integer          25
  @ DRIVER MODE:  SCF:  T  FORCE:  T  STRESS:  F  VC:  F  ENSEMBLE:  F
  @ DRIVER MODE:  SCF:  T  FORCE:  T  STRESS:  F  VC:  F  ENSEMBLE:  F

     Using Slab Decomposition

     bravais-lattice index     =            0
     lattice parameter (alat)  =       1.8897  a.u.
     unit-cell volume          =    6658.9804 (a.u.)^3
     number of atoms/cell      =           58
     number of atomic types    =            5
     number of electrons       =       405.00
     number of Kohn-Sham states=          212
     kinetic-energy cutoff     =      29.3995  Ry
     charge density cutoff     =     293.9946  Ry
     scf convergence threshold =      7.3E-08
     mixing beta               =       0.0500
     number of iterations used =            8  plain     mixing
     Exchange-correlation= BEEF-VDW
                           (   1   4  43  14   2   0   0)

     celldm(1)=   1.889726  celldm(2)=   0.000000  celldm(3)=   0.000000
     celldm(4)=   0.000000  celldm(5)=   0.000000  celldm(6)=   0.000000

     crystal axes: (cart. coord. in units of alat)
               a(1) = (   6.579727   0.000000   0.000000 )
               a(2) = (  -0.000775   5.961596   0.000000 )
               a(3) = (   0.000000   0.000000  25.155947 )

     reciprocal axes: (cart. coord. in units 2 pi/alat)
               b(1) = (  0.151982  0.000020  0.000000 )
               b(2) = (  0.000000  0.167740  0.000000 )
               b(3) = (  0.000000  0.000000  0.039752 )

     PseudoPot. # 1 for Ti read from file:
     /storage/coda1/p-amedford6/0/shared/rich_project_chbe-medford/medford-share/data/pseudos_module/espresso/nninc/pbe/van/Ti.UPF
     MD5 check sum: 8e4df49b7f0d34bbd5052bf3f5ea0213
     Pseudo is Ultrasoft, Zval = 12.0
     Generated by new atomic code, or converted to UPF format
     Using radial grid of  851 points,  6 beta functions with:
                l(1) =   0
                l(2) =   0
                l(3) =   1
                l(4) =   1
                l(5) =   2
                l(6) =   2
     Q(r) pseudized with  8 coefficients,  rinner =    1.000   1.000   1.000
                                                       1.000   1.000

     PseudoPot. # 2 for O  read from file:
     /storage/coda1/p-amedford6/0/shared/rich_project_chbe-medford/medford-share/data/pseudos_module/espresso/nninc/pbe/van/O.UPF
     MD5 check sum: 78c19812648e8988a0fe644b0f25305e
     Pseudo is Ultrasoft, Zval =  6.0
     Generated by new atomic code, or converted to UPF format
     Using radial grid of  737 points,  4 beta functions with:
                l(1) =   0
                l(2) =   0
                l(3) =   1
                l(4) =   1
     Q(r) pseudized with  8 coefficients,  rinner =    0.800   0.800   0.800

     PseudoPot. # 3 for N  read from file:
     /storage/coda1/p-amedford6/0/shared/rich_project_chbe-medford/medford-share/data/pseudos_module/espresso/nninc/pbe/van/N.UPF
     MD5 check sum: 90d10febe142ad51ac9d5be1deb811c4
     Pseudo is Ultrasoft, Zval =  5.0
     Generated by new atomic code, or converted to UPF format
     Using radial grid of  729 points,  4 beta functions with:
                l(1) =   0
                l(2) =   0
                l(3) =   1
                l(4) =   1
     Q(r) pseudized with  8 coefficients,  rinner =    0.800   0.800   0.800

     PseudoPot. # 4 for C  read from file:
     /storage/coda1/p-amedford6/0/shared/rich_project_chbe-medford/medford-share/data/pseudos_module/espresso/nninc/pbe/van/C.UPF
     MD5 check sum: 1a69bf6b8db32088f5b2163dbdb77a27
     Pseudo is Ultrasoft, Zval =  4.0
     Generated by new atomic code, or converted to UPF format
     Using radial grid of  721 points,  4 beta functions with:
                l(1) =   0
                l(2) =   0
                l(3) =   1
                l(4) =   1
     Q(r) pseudized with  8 coefficients,  rinner =    0.800   0.800   0.800

     PseudoPot. # 5 for H  read from file:
     /storage/coda1/p-amedford6/0/shared/rich_project_chbe-medford/medford-share/data/pseudos_module/espresso/nninc/pbe/van/H.UPF
     MD5 check sum: b5ee9d7bfd3a09ee7748110bda690ff7
     Pseudo is Ultrasoft, Zval =  1.0
     Generated by new atomic code, or converted to UPF format
     Using radial grid of  615 points,  1 beta functions with:
                l(1) =   0
     Q(r) pseudized with  8 coefficients,  rinner =    0.800

     atomic species   valence    mass     pseudopotential
        Ti1           12.00    47.86700     Ti( 1.00)
        O1             6.00    15.99900     O ( 1.00)
        N1             5.00    14.00700     N ( 1.00)
        C1             4.00    12.01100     C ( 1.00)
        H1             1.00     1.00800     H ( 1.00)

     No symmetry found

   Cartesian axes

     site n.     atom                  positions (alat units)
         1           Ti1 tau(   1) = (   0.0004258   2.9801865   6.0000000  )
         2           Ti1 tau(   2) = (   3.2906075   1.4906267   6.0002472  )
         3           O1  tau(   3) = (   0.0006271   0.0005054   7.9858123  )
         4           O1  tau(   4) = (   3.2906025   0.0005020   7.3038282  )
         5           O1  tau(   5) = (   4.5942328   1.4918067   9.2879030  )
         6           O1  tau(   6) = (   1.9868534   1.4903216   9.2879459  )
         7           Ti1 tau(   7) = (   3.2907910   2.8959150   9.1758416  )
         8           Ti1 tau(   8) = (   0.0015273   1.4827037   9.2680791  )
         9           O1  tau(   9) = (   3.3003128   0.0493987  11.3625472  )
        10           O1  tau(  10) = (   0.0116148   5.9584955  10.6183126  )
        11           O1  tau(  11) = (   1.2863924   1.5188706  12.6959087  )
        12           O1  tau(  12) = (   5.3173592   1.5183023  12.6957539  )
        13           Ti1 tau(  13) = (   0.0130489   2.9571150  12.5182267  )
        14           Ti1 tau(  14) = (   3.3124343   1.5987737  12.4587140  )
        15           O1  tau(  15) = (   0.0455642   5.8537743  14.6515032  )
        16           O1  tau(  16) = (   3.3135256   5.8999501  14.0036581  )
        17           O1  tau(  17) = (   4.5824137   1.5787328  16.0473457  )
        18           O1  tau(  18) = (   2.0456054   1.5356268  16.0652349  )
        19           Ti1 tau(  19) = (   3.2855744   2.9948502  15.7047272  )
        20           Ti1 tau(  20) = (   0.0729980   1.3194477  15.7501807  )
        21           O1  tau(  21) = (   3.2904802   0.0005063   4.7018136  )
        22           O1  tau(  22) = (   6.5643345   0.1786488  17.1561759  )
        23           O1  tau(  23) = (   1.3043587   1.4918075   6.0039043  )
        24           O1  tau(  24) = (   5.2767064   1.4903225   6.0039473  )
        25           Ti1 tau(  25) = (   0.0000382   5.9609847   6.0000000  )
        26           Ti1 tau(  26) = (   3.2902200   4.4714249   6.0002472  )
        27           O1  tau(  27) = (   0.0002396   2.9813036   7.9858123  )
        28           O1  tau(  28) = (   3.2902150   2.9813002   7.3038282  )
        29           O1  tau(  29) = (   4.5938453   4.4726049   9.2879030  )
        30           O1  tau(  30) = (   1.9864658   4.4711199   9.2879459  )
        31           Ti1 tau(  31) = (   3.2891106   5.8743827   9.1763621  )
        32           Ti1 tau(  32) = (   0.0006254   4.4649316   9.2693709  )
        33           O1  tau(  33) = (   3.3044115   2.9646987  11.3227374  )
        34           O1  tau(  34) = (   0.0092240   2.9805883  10.6323155  )
        35           O1  tau(  35) = (   1.2889249   4.4812606  12.6373974  )
        36           O1  tau(  36) = (   5.3198440   4.4849614  12.6453916  )
        37           Ti1 tau(  37) = (   0.0274371   5.9167426  12.5032498  )
        38           Ti1 tau(  38) = (   3.3124303   4.6827448  12.7121475  )
        39           O1  tau(  39) = (   0.0064664   3.0605765  14.9143048  )
        40           O1  tau(  40) = (   3.2921723   3.0190953  13.9337278  )
        41           O1  tau(  41) = (   4.5343043   4.4484976  16.2223827  )
        42           O1  tau(  42) = (   2.0055671   4.4324605  16.2273083  )
        43           Ti1 tau(  43) = (   3.3963104   0.0511244  16.3072024  )
        44           Ti1 tau(  44) = (   0.1011521   4.5293608  16.0606835  )
        45           O1  tau(  45) = (   3.2900926   2.9813045   4.7018136  )
        46           O1  tau(  46) = (   1.3039711   4.4726057   6.0039043  )
        47           O1  tau(  47) = (   5.2763189   4.4711207   6.0039473  )
        48           N1  tau(  48) = (   0.7799224   3.1460235  19.0808133  )
        49           N1  tau(  49) = (   6.3029119   3.3142126  18.0946246  )
        50           C1  tau(  50) = (   0.9829876   4.3811599  19.8296872  )
        51           H1  tau(  51) = (   0.0599524   4.7630682  20.2995108  )
        52           H1  tau(  52) = (   1.7087173   4.1728717  20.6153690  )
        53           H1  tau(  53) = (   1.3778604   5.1510331  19.1745456  )
        54           H1  tau(  54) = (   0.4845774   2.4057476  19.7140978  )
        55           H1  tau(  55) = (   5.5451363   3.8924421  18.4761980  )
        56           H1  tau(  56) = (   5.8791802   2.3931312  17.9634808  )
        57           O1  tau(  57) = (   3.3895457   0.1916509  18.1799706  )
        58           H1  tau(  58) = (   3.8128180   5.4341384  18.6581559  )

     number of k points=    10  Fermi-Dirac smearing, width (Ry)=  0.0073
                       cart. coord. in units 2pi/alat
        k(    1) = (   0.0000000   0.0000000   0.0000000), wk =   0.1250000
        k(    2) = (   0.0000000   0.0419351   0.0000000), wk =   0.2500000
        k(    3) = (   0.0000000  -0.0838702   0.0000000), wk =   0.1250000
        k(    4) = (   0.0379955   0.0000049   0.0000000), wk =   0.2500000
        k(    5) = (   0.0379955   0.0419400   0.0000000), wk =   0.2500000
        k(    6) = (   0.0379955  -0.0838652   0.0000000), wk =   0.2500000
        k(    7) = (   0.0379955  -0.0419301   0.0000000), wk =   0.2500000
        k(    8) = (  -0.0759910  -0.0000099   0.0000000), wk =   0.1250000
        k(    9) = (  -0.0759910   0.0419252   0.0000000), wk =   0.2500000
        k(   10) = (  -0.0759910  -0.0838800   0.0000000), wk =   0.1250000

     Initial potential from superposition of free atoms

     starting charge  388.99913, renormalised to  405.00000

     negative rho (up, down):  1.368E-02 0.000E+00

     %%%%%%%%%%%%%%%%%%%%%%%%%%%%%%%%%%%%%%%%%%%%%%%%%%%%%%%%%%%%%%%%%%%%%%%%
     %                                                                      %
     % You are using vdW-DF, which was implemented by the Thonhauser group. %
     % Please cite the following two papers that made this development      %
     % possible and the two reviews that describe the various versions:     %
     %                                                                      %
     %   T. Thonhauser et al., PRL 115, 136402 (2015).                      %
     %   T. Thonhauser et al., PRB 76, 125112 (2007).                       %
     %   K. Berland et al., Rep. Prog. Phys. 78, 066501 (2015).             %
     %   D.C. Langreth et al., J. Phys.: Condens. Matter 21, 084203 (2009). %
     %                                                                      %
     %                                                                      %
     % If you are calculating the stress with vdW-DF, please also cite:     %
     %                                                                      %
     %   R. Sabatini et al., J. Phys.: Condens. Matter 24, 424209 (2012).   %
     %                                                                      %
     %%%%%%%%%%%%%%%%%%%%%%%%%%%%%%%%%%%%%%%%%%%%%%%%%%%%%%%%%%%%%%%%%%%%%%%%

     Adding external electric field

     Computed dipole along edir(3) :
        Dipole              -14.8170 Ry au,        -37.6612 Debye
        Dipole field         -0.0280 Ry au,

        Potential amp.        2.5920 Ry
        Total length         46.3494 bohr

     Starting wfcs are  307 atomic wfcs
  @ DRIVER MODE: Message from server: STATUS
  @ DRIVER MODE: Message from server: POSDATA
  @ DRIVER MODE: Reading and sharing cell
  @ DRIVER MODE: Reading and sharing positions
  @ DRIVER MODE: Received positions

     Self-consistent Calculation

     iteration #  1     ecut=    29.40 Ry     beta= 0.05
     Davidson diagonalization with overlap
     c_bands:  4 eigenvalues not converged
     c_bands:  4 eigenvalues not converged
     c_bands:  5 eigenvalues not converged
     c_bands:  2 eigenvalues not converged
     c_bands:  3 eigenvalues not converged
     c_bands:  3 eigenvalues not converged
     c_bands:  2 eigenvalues not converged
     ethr =  1.00E-05,  avg # of iterations = 22.9

[...]

     total energy              =   -2202.97421707 Ry
     estimated scf accuracy    <    8804.32545826 Ry

     iteration #  2     ecut=    29.40 Ry     beta= 0.05
     Davidson diagonalization with overlap
     ethr =  1.00E-02,  avg # of iterations = 30.7

[...]

     iteration # 39     ecut=    29.40 Ry     beta= 0.05
     Davidson diagonalization with overlap
     c_bands:  1 eigenvalues not converged
     c_bands:  1 eigenvalues not converged
     c_bands:  2 eigenvalues not converged
     c_bands:  1 eigenvalues not converged
     ethr =  1.34E-06,  avg # of iterations = 17.6

[...]

     total energy              =   -2976.46391488 Ry
     estimated scf accuracy    <       0.00000011 Ry

     iteration # 60     ecut=    29.40 Ry     beta= 0.05
     Davidson diagonalization with overlap
     ethr =  2.31E-11,  avg # of iterations = 10.8

     negative rho (up, down):  1.441E-02 0.000E+00

     Adding external electric field

     Computed dipole along edir(3) :
        Dipole                1.2111 Ry au,          3.0782 Debye
        Dipole field          0.0023 Ry au,

        Potential amp.       -0.2119 Ry
        Total length         46.3494 bohr

     End of self-consistent calculation

          k = 0.0000 0.0000 0.0000 ( 18029 PWs)   bands (ev):

   -55.4604 -55.3687 -55.3346 -55.2277 -55.2264 -55.1995 -55.1967 -55.1896
   -55.1654 -55.1423 -55.0992 -54.9977 -54.9458 -54.9067 -54.3434 -54.3094
   -31.8539 -31.8058 -31.7306 -31.7164 -31.7022 -31.6896 -31.6631 -31.6596
   -31.6284 -31.6149 -31.6084 -31.5212 -31.5068 -31.4984 -31.4793 -31.4758
   -31.4719 -31.4603 -31.4597 -31.4323 -31.4262 -31.4048 -31.3975 -31.3876
   -31.3818 -31.3667 -31.3658 -31.3338 -31.3305 -31.3269 -31.3261 -31.3204
   -31.3121 -31.2940 -31.2705 -31.2516 -31.1867 -31.1619 -31.1539 -31.1413
   -31.1248 -31.1157 -30.7494 -30.6630 -30.6406 -30.5669 -30.4805 -30.3688
   -17.7315 -16.3600 -16.0227 -15.8584 -15.6438 -15.5511 -15.5242 -15.3254
   -15.2307 -15.1725 -14.9686 -14.9429 -14.9066 -14.8926 -14.8848 -14.8637
   -14.8602 -14.8087 -14.7932 -14.7833 -14.7798 -14.7496 -14.7224 -14.6831
   -14.6224 -14.6102 -14.5073 -14.4518 -14.4119 -14.1718 -14.1455 -13.1638
   -12.8423 -12.7259  -9.4228  -6.4344  -5.7305  -4.2551  -3.8918  -3.3807
    -3.2795  -3.2680  -3.2093  -3.1436  -2.9649  -2.8963  -2.7881  -2.7514
    -2.6121  -2.5963  -2.5040  -2.4546  -2.3816  -2.3358  -2.2947  -2.2584
    -2.2314  -2.1752  -2.1541  -2.1268  -2.1161  -2.0441  -2.0258  -1.9334
    -1.9033  -1.8882  -1.7713  -1.7364  -1.7026  -1.6892  -1.6807  -1.6701
    -1.6283  -1.6204  -1.6090  -1.5632  -1.4648  -1.4578  -1.4399  -1.3508
    -1.2497  -1.0002  -0.9723  -0.9210  -0.9076  -0.8320  -0.7935  -0.7620
    -0.7251  -0.6540  -0.6335  -0.6191  -0.5516  -0.4834  -0.4303  -0.3828
    -0.3469  -0.2364  -0.1843  -0.1431  -0.1098  -0.0718  -0.0096   0.0306
     0.0563   0.0968   0.1853   0.2557   0.2802   0.3010   0.3470   0.3869
     0.4225   0.4637   0.5341   0.5558   0.5659   0.6053   0.6154   0.6349
     0.7311   0.7488   0.8088   0.8384   0.9232   0.9545   0.9989   1.1710
     1.2421   1.2958   1.3773   1.4875   1.6282   1.6828   1.7077   1.8767
     2.2500   2.2954   3.7151   3.8624   3.8787   3.9559   3.9732   4.0374
     4.2040   4.2613   4.4007   4.4091

[...]

          k = 0.0380-0.0419 0.0000 ( 17876 PWs)   bands (ev):

[...]

          k =-0.0760-0.0000 0.0000 ( 17886 PWs)   bands (ev):

[...]

          k =-0.0760-0.0839 0.0000 ( 17948 PWs)   bands (ev):

   -55.4596 -55.3517 -55.3515 -55.2257 -55.2155 -55.2011 -55.1974 -55.1837
   -55.1808 -55.1342 -55.1073 -54.9946 -54.9469 -54.9097 -54.3263 -54.3263
   -31.7446 -31.6811 -31.6692 -31.6691 -31.6660 -31.6524 -31.6452 -31.6449
   -31.5875 -31.5429 -31.5214 -31.5106 -31.5053 -31.4987 -31.4773 -31.4716
   -31.4711 -31.4668 -31.4615 -31.4487 -31.4407 -31.4375 -31.4281 -31.4020
   -31.3964 -31.3958 -31.3879 -31.3800 -31.3610 -31.3562 -31.3528 -31.3525
   -31.3475 -31.3294 -31.3280 -31.2639 -31.2471 -31.2152 -31.1910 -31.1643
   -31.1618 -31.1206 -30.6533 -30.6533 -30.5625 -30.5621 -30.5239 -30.5237
   -17.7274 -16.3497 -15.6017 -15.4587 -15.3503 -15.3398 -15.2162 -15.1486
   -15.1389 -15.1052 -15.0824 -15.0599 -15.0412 -15.0270 -14.9709 -14.9326
   -14.9011 -14.8738 -14.8692 -14.8263 -14.8165 -14.8052 -14.7874 -14.7758
   -14.7207 -14.6844 -14.6747 -14.6142 -14.4773 -14.4507 -14.3024 -13.1652
   -12.8278 -12.8276  -9.4418  -6.4188  -5.7364  -4.2401  -3.8813  -2.9491
    -2.8107  -2.6699  -2.5908  -2.5741  -2.4608  -2.4338  -2.3786  -2.3277
    -2.3038  -2.2823  -2.2292  -2.2203  -2.1739  -2.1584  -2.1338  -2.1183
    -2.1031  -2.0962  -2.0684  -2.0530  -2.0427  -2.0266  -2.0024  -1.9914
    -1.9731  -1.9444  -1.9244  -1.9153  -1.8794  -1.8384  -1.7748  -1.6644
    -1.5909  -1.5770  -1.5386  -1.5139  -1.4980  -1.4568  -1.4443  -1.4032
    -1.3855  -1.3170  -1.1572  -1.1329  -1.1191  -0.9795  -0.9712  -0.9418
    -0.8692  -0.8268  -0.8055  -0.7460  -0.7105  -0.6684  -0.6006  -0.5563
    -0.4895  -0.4309  -0.3368  -0.3287  -0.3138  -0.2907  -0.2761  -0.2683
    -0.2335  -0.1986  -0.1260  -0.0768  -0.0709  -0.0645  -0.0098   0.0704
     0.1193   0.2332   0.3793   0.3835   0.4505   0.4557   0.6516   0.6656
     0.7365   0.7791   0.8049   0.8321   0.9272   0.9438   0.9831   1.0674
     1.1278   1.1572   1.1782   1.1833   1.2359   1.4731   2.0450   2.0529
     2.1157   2.1158   3.9562   4.1891   4.2297   4.2426   4.2622   4.2873
     4.3018   4.3156   4.3819   4.4051

     the Fermi energy is     3.7523 ev

!    total energy              =   -2976.46396514 Ry
     estimated scf accuracy    <       0.00000007 Ry
     smearing contrib. (-TS)   =      -0.01956206 Ry
     internal energy E=F+TS    =   -2976.44440308 Ry

     The total energy is F=E-TS. E is the sum of the following terms:
     one-electron contribution =  -23033.93099597 Ry
     hartree contribution      =   11614.58949132 Ry
     xc contribution           =    -495.72434106 Ry
     ewald contribution        =    8938.61867482 Ry
     electric field correction =       0.00276781 Ry

     convergence has been achieved in  60 iterations

     Forces acting on atoms (cartesian axes, Ry/au):

     atom    1 type  1   force =     0.00015645   -0.00021770    0.09415625
     atom    2 type  1   force =    -0.00010213    0.00018619   -0.17537547
     atom    3 type  2   force =     0.00005409   -0.00049459   -0.02102957
     atom    4 type  2   force =    -0.00002498   -0.00093548    0.05424596
     atom    5 type  2   force =    -0.00488853   -0.00215923    0.00106753
     atom    6 type  2   force =     0.00671058   -0.00138562    0.00108405
     atom    7 type  1   force =     0.00005690    0.00332000    0.00864473
     atom    8 type  1   force =    -0.00010025    0.00119937    0.00269651
     atom    9 type  2   force =    -0.00022008   -0.00032288   -0.00056465
     atom   10 type  2   force =    -0.00112101    0.00429392   -0.01027276
     atom   11 type  2   force =    -0.00006094   -0.00055116   -0.00012581
     atom   12 type  2   force =     0.00059994   -0.00031705   -0.00028594
     atom   13 type  1   force =    -0.00143174    0.00018880   -0.00049901
     atom   14 type  1   force =     0.00071174    0.00024319   -0.00048413
     atom   15 type  2   force =     0.00012141    0.00002076   -0.00011137
     atom   16 type  2   force =    -0.00008678   -0.00061676    0.00003970
     atom   17 type  2   force =    -0.00075530    0.00029196    0.00022742
     atom   18 type  2   force =    -0.00046438    0.00006745   -0.00009773
     atom   19 type  1   force =     0.00029327   -0.00088449    0.00089646
     atom   20 type  1   force =    -0.00069566   -0.00022649    0.00091037
     atom   21 type  2   force =     0.00003713   -0.00000852    0.10319363
     atom   22 type  2   force =    -0.00008330    0.00006626   -0.00001338
     atom   23 type  2   force =    -0.07199023   -0.00019947   -0.02726689
     atom   24 type  2   force =     0.07186785    0.00025787   -0.02733742
     atom   25 type  1   force =     0.00006876   -0.00017474    0.09388712
     atom   26 type  1   force =    -0.00012202   -0.00137103   -0.17551932
     atom   27 type  2   force =     0.00011029   -0.00005366   -0.01984239
     atom   28 type  2   force =     0.00006459   -0.00105122    0.04979282
     atom   29 type  2   force =    -0.00747108    0.00209572    0.00339207
     atom   30 type  2   force =     0.00907368    0.00223609    0.00330907
     atom   31 type  1   force =     0.00019704    0.00152343    0.00004243
     atom   32 type  1   force =    -0.00008449   -0.00227700    0.00301592
     atom   33 type  2   force =    -0.00017729   -0.00029405   -0.00001241
     atom   34 type  2   force =    -0.00117207   -0.00218111   -0.00965864
     atom   35 type  2   force =     0.00066329    0.00005207   -0.00024231
     atom   36 type  2   force =     0.00034782    0.00011342   -0.00036682
     atom   37 type  1   force =    -0.00096463    0.00026570    0.00043628
     atom   38 type  1   force =     0.00096417   -0.00037061    0.00009779
     atom   39 type  2   force =    -0.00019009   -0.00052260   -0.00003790
     atom   40 type  2   force =    -0.00019204   -0.00018832   -0.00021309
     atom   41 type  2   force =    -0.00003897    0.00008879   -0.00004769
     atom   42 type  2   force =    -0.00042383    0.00024667   -0.00015200
     atom   43 type  1   force =     0.00028815    0.00135060    0.00602873
     atom   44 type  1   force =    -0.00035873    0.00083210    0.00062398
     atom   45 type  2   force =     0.00002590    0.00003435    0.10301477
     atom   46 type  2   force =    -0.07193861   -0.00008141   -0.02722116
     atom   47 type  2   force =     0.07182846    0.00035250   -0.02730363
     atom   48 type  3   force =     0.00006359   -0.00102915   -0.00081937
     atom   49 type  3   force =    -0.00037854   -0.00018122   -0.00057088
     atom   50 type  4   force =    -0.00004090   -0.00002714    0.00023224
     atom   51 type  5   force =    -0.00103852   -0.00024418    0.00048211
     atom   52 type  5   force =     0.00057663   -0.00006490    0.00031998
     atom   53 type  5   force =    -0.00012051    0.00061779   -0.00039853
     atom   54 type  5   force =     0.00063199   -0.00027158   -0.00002787
     atom   55 type  5   force =     0.00051495   -0.00059743    0.00009876
     atom   56 type  5   force =     0.00061351   -0.00000461    0.00006191
     atom   57 type  2   force =    -0.00364049    0.00611381   -0.01167489
     atom   58 type  5   force =     0.00373595   -0.00675340    0.00557440

     Total force =     0.362417     Total SCF correction =     0.000842
  @ DRIVER MODE: Message from server: STATUS
  @ DRIVER MODE: Message from server: GETFORCE
  @ DRIVER MODE: Returning v,forces,stress,ensemble

     Writing output data file ./calc.save/
  @ DRIVER MODE: Message from server: EXIT
  @ DRIVE MODE: Exiting

     General routines

     Parallel routines

   This run was terminated on:  18:28:14  24Sep2021

   JOB DONE.