     Program PWSCF v.6.7GPU starts on 14Sep2021 at 21:52: 0

     R & G space division:  proc/nbgrp/npool/nimage =      10
     Reading input from /storage/home/hcoda1/3/ntian30/research/carbon/CxH_vib/CH2_calc/ads_slab/CH2OHN2_a/out_0024/pw.inp
Warning: card &CELL ignored
Warning: card   CELL_DYNAMICS='IPI', ignored
Warning: card / ignored

     Current dimensions of program PWSCF are:
     Max number of different atomic species (ntypx) = 10
     Max number of k-points (npk) =  40000
     Max angular momentum in pseudopotentials (lmaxx) =  3
     Presently no symmetry can be used with electric field

     Message from routine cell_base_init:
     DEPRECATED: use true lattice parameter, not A to a.u. conversion factor

     IMPORTANT: XC functional enforced from input :
     Exchange-correlation= BEEF-VDW
                           (   1   4  43  14   2   0   0)
     Any further DFT definition will be discarded
     Please, verify this is what you really want

  @ DRIVER MODE: Connecting to
 qe_1139763_2840440.sched-torque.pace.gatech.edui14utwde_scratch
  using UNIX socket
  @ DRIVER MODE: Message from server: STATUS
  @ DRIVER MODE: Message from server: INIT
  @ DRIVER MODE: Receiving replica           0          -1
  @ DRIVER MODE: Receiving encoded integer          25
  @ DRIVER MODE:  SCF:  T  FORCE:  T  STRESS:  F  VC:  F  ENSEMBLE:  F
  @ DRIVER MODE:  SCF:  T  FORCE:  T  STRESS:  F  VC:  F  ENSEMBLE:  F

     Using Slab Decomposition

     bravais-lattice index     =            0
     lattice parameter (alat)  =       1.8897  a.u.
     unit-cell volume          =    6658.9804 (a.u.)^3
     number of atoms/cell      =           54
     number of atomic types    =            5
     number of electrons       =       401.00
     number of Kohn-Sham states=          210
     kinetic-energy cutoff     =      29.3995  Ry
     charge density cutoff     =     293.9946  Ry
     scf convergence threshold =      7.3E-08
     mixing beta               =       0.0500
     number of iterations used =            8  plain     mixing
     Exchange-correlation= BEEF-VDW
                           (   1   4  43  14   2   0   0)

     celldm(1)=   1.889726  celldm(2)=   0.000000  celldm(3)=   0.000000
     celldm(4)=   0.000000  celldm(5)=   0.000000  celldm(6)=   0.000000

     crystal axes: (cart. coord. in units of alat)
               a(1) = (   6.579727   0.000000   0.000000 )
               a(2) = (  -0.000775   5.961596   0.000000 )
               a(3) = (   0.000000   0.000000  25.155947 )

     reciprocal axes: (cart. coord. in units 2 pi/alat)
               b(1) = (  0.151982  0.000020  0.000000 )
               b(2) = (  0.000000  0.167740  0.000000 )
               b(3) = (  0.000000  0.000000  0.039752 )

     PseudoPot. # 1 for C  read from file:
     /storage/coda1/p-amedford6/0/shared/rich_project_chbe-medford/medford-share/data/pseudos_module/espresso/nninc/pbe/van/C.UPF
     MD5 check sum: 1a69bf6b8db32088f5b2163dbdb77a27
     Pseudo is Ultrasoft, Zval =  4.0
     Generated by new atomic code, or converted to UPF format
     Using radial grid of  721 points,  4 beta functions with:
                l(1) =   0
                l(2) =   0
                l(3) =   1
                l(4) =   1
     Q(r) pseudized with  8 coefficients,  rinner =    0.800   0.800   0.800

     PseudoPot. # 2 for H  read from file:
     /storage/coda1/p-amedford6/0/shared/rich_project_chbe-medford/medford-share/data/pseudos_module/espresso/nninc/pbe/van/H.UPF
     MD5 check sum: b5ee9d7bfd3a09ee7748110bda690ff7
     Pseudo is Ultrasoft, Zval =  1.0
     Generated by new atomic code, or converted to UPF format
     Using radial grid of  615 points,  1 beta functions with:
                l(1) =   0
     Q(r) pseudized with  8 coefficients,  rinner =    0.800

     PseudoPot. # 3 for O  read from file:
     /storage/coda1/p-amedford6/0/shared/rich_project_chbe-medford/medford-share/data/pseudos_module/espresso/nninc/pbe/van/O.UPF
     MD5 check sum: 78c19812648e8988a0fe644b0f25305e
     Pseudo is Ultrasoft, Zval =  6.0
     Generated by new atomic code, or converted to UPF format
     Using radial grid of  737 points,  4 beta functions with:
                l(1) =   0
                l(2) =   0
                l(3) =   1
                l(4) =   1
     Q(r) pseudized with  8 coefficients,  rinner =    0.800   0.800   0.800

     PseudoPot. # 4 for Ti read from file:
     /storage/coda1/p-amedford6/0/shared/rich_project_chbe-medford/medford-share/data/pseudos_module/espresso/nninc/pbe/van/Ti.UPF
     MD5 check sum: 8e4df49b7f0d34bbd5052bf3f5ea0213
     Pseudo is Ultrasoft, Zval = 12.0
     Generated by new atomic code, or converted to UPF format
     Using radial grid of  851 points,  6 beta functions with:
                l(1) =   0
                l(2) =   0
                l(3) =   1
                l(4) =   1
                l(5) =   2
                l(6) =   2
     Q(r) pseudized with  8 coefficients,  rinner =    1.000   1.000   1.000
                                                       1.000   1.000

     PseudoPot. # 5 for N  read from file:
     /storage/coda1/p-amedford6/0/shared/rich_project_chbe-medford/medford-share/data/pseudos_module/espresso/nninc/pbe/van/N.UPF
     MD5 check sum: 90d10febe142ad51ac9d5be1deb811c4
     Pseudo is Ultrasoft, Zval =  5.0
     Generated by new atomic code, or converted to UPF format
     Using radial grid of  729 points,  4 beta functions with:
                l(1) =   0
                l(2) =   0
                l(3) =   1
                l(4) =   1
     Q(r) pseudized with  8 coefficients,  rinner =    0.800   0.800   0.800

     atomic species   valence    mass     pseudopotential
        C1             4.00    12.01100     C ( 1.00)
        H1             1.00     1.00800     H ( 1.00)
        O1             6.00    15.99900     O ( 1.00)
        Ti1           12.00    47.86700     Ti( 1.00)
        N1             5.00    14.00700     N ( 1.00)

     No symmetry found

   Cartesian axes

     site n.     atom                  positions (alat units)
         1           C1  tau(   1) = (   5.1764158   1.5385028  19.8564928  )
         2           H1  tau(   2) = (   4.2418317   1.4168958  19.3325039  )
         3           H1  tau(   3) = (   6.1328006   2.9100337  18.2018079  )
         4           H1  tau(   4) = (   6.0297582   0.9181690  19.6386741  )
         5           O1  tau(   5) = (   0.0006271   0.0005054   7.9858123  )
         6           O1  tau(   6) = (   3.2906025   0.0005020   7.3038282  )
         7           O1  tau(   7) = (   4.5942328   1.4918067   9.2879030  )
         8           O1  tau(   8) = (   1.9868534   1.4903216   9.2879459  )
         9           O1  tau(   9) = (   3.2696825   0.0177092  11.3460806  )
        10           O1  tau(  10) = (   6.5743896   0.0111799  10.6115589  )
        11           O1  tau(  11) = (   1.2770957   1.5070501  12.6511825  )
        12           O1  tau(  12) = (   5.2749141   1.5057152  12.6378801  )
        13           O1  tau(  13) = (   6.5263050   0.0247340  14.7317399  )
        14           O1  tau(  14) = (   3.2747511   0.0213673  13.9312909  )
        15           O1  tau(  15) = (   4.4933390   1.5239927  16.1070736  )
        16           O1  tau(  16) = (   2.0026543   1.5217075  16.0711130  )
        17           O1  tau(  17) = (   3.2904802   0.0005063   4.7018136  )
        18           O1  tau(  18) = (   6.5469758   0.0421337  17.2556835  )
        19           O1  tau(  19) = (   1.3043587   1.4918075   6.0039043  )
        20           O1  tau(  20) = (   5.2767064   1.4903225   6.0039473  )
        21           O1  tau(  21) = (   0.0002396   2.9813036   7.9858123  )
        22           O1  tau(  22) = (   3.2902150   2.9813002   7.3038282  )
        23           O1  tau(  23) = (   4.5938453   4.4726049   9.2879030  )
        24           O1  tau(  24) = (   1.9864658   4.4711199   9.2879459  )
        25           O1  tau(  25) = (   3.2722311   3.0011533  11.3472759  )
        26           O1  tau(  26) = (   6.5787409   2.9955660  10.5677177  )
        27           O1  tau(  27) = (   1.2755865   4.4883074  12.6550720  )
        28           O1  tau(  28) = (   5.2773609   4.4903743  12.6413705  )
        29           O1  tau(  29) = (   6.5451067   2.9841024  14.7029789  )
        30           O1  tau(  30) = (   3.2773495   3.0062142  13.9304278  )
        31           O1  tau(  31) = (   4.4941242   4.5002890  16.1165364  )
        32           O1  tau(  32) = (   2.0016379   4.5015838  16.0818063  )
        33           O1  tau(  33) = (   3.2900926   2.9813045   4.7018136  )
        34           O1  tau(  34) = (   1.3039711   4.4726057   6.0039043  )
        35           O1  tau(  35) = (   5.2763189   4.4711207   6.0039473  )
        36           O1  tau(  36) = (   6.5536212   3.0044252  17.3297899  )
        37           Ti1 tau(  37) = (   0.0004258   2.9801865   6.0000000  )
        38           Ti1 tau(  38) = (   3.2906075   1.4906267   6.0002472  )
        39           Ti1 tau(  39) = (   3.3348906   3.0327224   9.1579215  )
        40           Ti1 tau(  40) = (   0.0203972   1.6099837   9.3624797  )
        41           Ti1 tau(  41) = (   6.5380572   3.0081639  12.8251979  )
        42           Ti1 tau(  42) = (   3.2225065   1.5141752  12.4854623  )
        43           Ti1 tau(  43) = (   3.2525775   3.0161725  15.7233172  )
        44           Ti1 tau(  44) = (   6.5465844   1.4469101  15.9770741  )
        45           Ti1 tau(  45) = (   0.0000382   5.9609847   6.0000000  )
        46           Ti1 tau(  46) = (   3.2902200   4.4714249   6.0002472  )
        47           Ti1 tau(  47) = (   3.2831171   0.0558662   9.1532617  )
        48           Ti1 tau(  48) = (   0.0294011   4.5318189   9.2743274  )
        49           Ti1 tau(  49) = (   6.5160019   0.0223579  12.5245727  )
        50           Ti1 tau(  50) = (   3.2207252   4.4944464  12.4919313  )
        51           Ti1 tau(  51) = (   3.2545639   0.0336594  15.7321480  )
        52           Ti1 tau(  52) = (   6.5427997   4.6104004  16.1309301  )
        53           N1  tau(  53) = (   5.0796009   2.6163306  22.0446247  )
        54           N1  tau(  54) = (   5.1188049   2.0915644  21.0330699  )

     number of k points=    10  Fermi-Dirac smearing, width (Ry)=  0.0073
                       cart. coord. in units 2pi/alat
        k(    1) = (   0.0000000   0.0000000   0.0000000), wk =   0.1250000
        k(    2) = (   0.0000000   0.0419351   0.0000000), wk =   0.2500000
        k(    3) = (   0.0000000  -0.0838702   0.0000000), wk =   0.1250000
        k(    4) = (   0.0379955   0.0000049   0.0000000), wk =   0.2500000
        k(    5) = (   0.0379955   0.0419400   0.0000000), wk =   0.2500000
        k(    6) = (   0.0379955  -0.0838652   0.0000000), wk =   0.2500000
        k(    7) = (   0.0379955  -0.0419301   0.0000000), wk =   0.2500000
        k(    8) = (  -0.0759910  -0.0000099   0.0000000), wk =   0.1250000
        k(    9) = (  -0.0759910   0.0419252   0.0000000), wk =   0.2500000
        k(   10) = (  -0.0759910  -0.0838800   0.0000000), wk =   0.1250000

     Initial potential from superposition of free atoms

     starting charge  384.99916, renormalised to  401.00000

     negative rho (up, down):  1.198E-02 0.000E+00

     %%%%%%%%%%%%%%%%%%%%%%%%%%%%%%%%%%%%%%%%%%%%%%%%%%%%%%%%%%%%%%%%%%%%%%%%
     %                                                                      %
     % You are using vdW-DF, which was implemented by the Thonhauser group. %
     % Please cite the following two papers that made this development      %
     % possible and the two reviews that describe the various versions:     %
     %                                                                      %
     %   T. Thonhauser et al., PRL 115, 136402 (2015).                      %
     %   T. Thonhauser et al., PRB 76, 125112 (2007).                       %
     %   K. Berland et al., Rep. Prog. Phys. 78, 066501 (2015).             %
     %   D.C. Langreth et al., J. Phys.: Condens. Matter 21, 084203 (2009). %
     %                                                                      %
     %                                                                      %
     % If you are calculating the stress with vdW-DF, please also cite:     %
     %                                                                      %
     %   R. Sabatini et al., J. Phys.: Condens. Matter 24, 424209 (2012).   %
     %                                                                      %
     %%%%%%%%%%%%%%%%%%%%%%%%%%%%%%%%%%%%%%%%%%%%%%%%%%%%%%%%%%%%%%%%%%%%%%%%

     Adding external electric field

     Computed dipole along edir(3) :
        Dipole              -14.0859 Ry au,        -35.8029 Debye
        Dipole field         -0.0266 Ry au,

        Potential amp.        2.4641 Ry
        Total length         46.3494 bohr

     Starting wfcs are  303 atomic wfcs
  @ DRIVER MODE: Message from server: STATUS
  @ DRIVER MODE: Message from server: POSDATA
  @ DRIVER MODE: Reading and sharing cell
  @ DRIVER MODE: Reading and sharing positions
  @ DRIVER MODE: Received positions

     Self-consistent Calculation

     iteration #  1     ecut=    29.40 Ry     beta= 0.05
     Davidson diagonalization with overlap
     c_bands:  5 eigenvalues not converged
     c_bands:  4 eigenvalues not converged
     c_bands:  5 eigenvalues not converged
     c_bands:  2 eigenvalues not converged
     c_bands:  4 eigenvalues not converged
     c_bands:  1 eigenvalues not converged
     c_bands:  4 eigenvalues not converged
     c_bands:  4 eigenvalues not converged
     c_bands:  4 eigenvalues not converged
     c_bands:  5 eigenvalues not converged
     ethr =  1.00E-05,  avg # of iterations = 22.0

[...]

     total energy              =   -2409.62014813 Ry
     estimated scf accuracy    <    6386.52058054 Ry

     iteration #  2     ecut=    29.40 Ry     beta= 0.05
     Davidson diagonalization with overlap
     ethr =  1.00E-02,  avg # of iterations = 24.0

[...]

     iteration # 91     ecut=    29.40 Ry     beta= 0.05
     Davidson diagonalization with overlap
     c_bands:  1 eigenvalues not converged
     ethr =  4.33E-11,  avg # of iterations = 14.1

[...]

     total energy              =   -2971.53799476 Ry
     estimated scf accuracy    <       0.00000009 Ry

     iteration #105     ecut=    29.40 Ry     beta= 0.05
     Davidson diagonalization with overlap
     ethr =  2.14E-11,  avg # of iterations =  8.4

     negative rho (up, down):  1.326E-02 0.000E+00

     Adding external electric field

     Computed dipole along edir(3) :
        Dipole                0.4465 Ry au,          1.1350 Debye
        Dipole field          0.0008 Ry au,

        Potential amp.       -0.0781 Ry
        Total length         46.3494 bohr

     End of self-consistent calculation

          k = 0.0000 0.0000 0.0000 ( 18029 PWs)   bands (ev):

   -55.7596 -55.7435 -55.7225 -55.7072 -55.6690 -55.6460 -55.6258 -55.5910
   -55.5867 -55.5775 -55.5324 -55.5089 -55.4753 -55.4091 -54.7697 -54.7356
   -32.3067 -32.2266 -32.1963 -32.1076 -32.0858 -32.0582 -32.0514 -32.0278
   -31.9887 -31.9847 -31.9712 -31.9606 -31.9551 -31.9243 -31.9200 -31.9185
   -31.9165 -31.8864 -31.8806 -31.8556 -31.8488 -31.8248 -31.8247 -31.8222
   -31.8017 -31.7950 -31.7798 -31.7724 -31.7692 -31.7636 -31.7628 -31.7484
   -31.7371 -31.7330 -31.7313 -31.6963 -31.6886 -31.6539 -31.6312 -31.6152
   -31.5979 -31.5949 -31.1793 -31.0826 -31.0602 -30.9960 -30.9100 -30.7987
   -20.7521 -17.0010 -16.4886 -16.2001 -16.0422 -15.9043 -15.8764 -15.7628
   -15.5828 -15.4526 -15.4307 -15.3576 -15.3247 -15.3175 -15.2925 -15.2808
   -15.2785 -15.2621 -15.2141 -15.1882 -15.1743 -15.1600 -15.1333 -15.0819
   -15.0343 -14.9710 -14.9148 -14.8753 -14.8598 -14.7561 -14.7378 -13.9552
   -13.2699 -13.1517  -6.5586  -5.5995  -4.9843  -4.5289  -3.8517  -3.6847
    -3.6727  -3.6455  -3.5608  -3.5229  -3.3081  -3.3027  -3.0037  -2.9258
    -2.8898  -2.8885  -2.8777  -2.7030  -2.6481  -2.5976  -2.5835  -2.5688
    -2.5652  -2.5454  -2.5307  -2.5025  -2.4895  -2.4660  -2.4561  -2.3203
    -2.2893  -2.1642  -2.1518  -2.1387  -2.0859  -2.0587  -2.0275  -2.0169
    -2.0051  -1.9775  -1.9594  -1.9238  -1.8390  -1.8162  -1.6901  -1.5807
    -1.5404  -1.4547  -1.3126  -1.2394  -1.2169  -1.1837  -1.1583  -1.1438
    -1.0959  -1.0695  -1.0258  -0.9548  -0.9517  -0.8475  -0.7645  -0.7246
    -0.6589  -0.6389  -0.6046  -0.5039  -0.4807  -0.4688  -0.3020  -0.2396
    -0.2272  -0.2212  -0.0910  -0.0484  -0.0168  -0.0033   0.0242   0.0548
     0.1015   0.1429   0.2033   0.2276   0.2391   0.2508   0.2695   0.2966
     0.4133   0.4306   0.4400   0.5575   0.5770   0.7651   0.7695   0.8915
     0.9909   1.1592   1.2551   1.3267   1.4261   1.7111   1.8438   1.9041
     3.4304   3.4624   3.4923   3.5078   3.5815   3.7041   3.8097   3.8705
     3.8893   3.9143

[...]

          k = 0.0380-0.0419 0.0000 ( 17876 PWs)   bands (ev):

[...]

          k =-0.0760-0.0000 0.0000 ( 17886 PWs)   bands (ev):

[...]

          k =-0.0760-0.0839 0.0000 ( 17948 PWs)   bands (ev):

   -55.7485 -55.7335 -55.7264 -55.7241 -55.6655 -55.6413 -55.6113 -55.6055
   -55.5915 -55.5808 -55.5297 -55.4930 -55.4914 -55.4115 -54.7531 -54.7520
   -32.1106 -32.1065 -32.0962 -32.0506 -32.0406 -32.0350 -32.0179 -32.0168
   -32.0058 -31.9728 -31.9490 -31.9399 -31.9378 -31.9078 -31.9010 -31.8981
   -31.8781 -31.8761 -31.8748 -31.8651 -31.8632 -31.8561 -31.8494 -31.8426
   -31.8419 -31.8166 -31.8122 -31.8118 -31.8086 -31.8007 -31.7992 -31.7796
   -31.7744 -31.7528 -31.7493 -31.7434 -31.7280 -31.7114 -31.6982 -31.6911
   -31.6395 -31.6043 -31.0735 -31.0722 -30.9927 -30.9918 -30.9535 -30.9526
   -20.7519 -16.9357 -15.9346 -15.9092 -15.6854 -15.6756 -15.6648 -15.6045
   -15.5237 -15.5010 -15.4800 -15.4746 -15.4269 -15.4143 -15.3998 -15.3423
   -15.2999 -15.2794 -15.2610 -15.2590 -15.2054 -15.2006 -15.1585 -15.1343
   -15.1188 -15.1098 -15.0845 -15.0803 -15.0479 -14.9802 -14.9114 -13.9551
   -13.2541 -13.2518  -6.5528  -5.6018  -4.9231  -4.5274  -3.5225  -3.2259
    -3.1947  -2.9519  -2.8981  -2.8854  -2.8081  -2.7395  -2.6795  -2.6382
    -2.6177  -2.6057  -2.5928  -2.5844  -2.5793  -2.5744  -2.5584  -2.5427
    -2.5225  -2.5066  -2.4493  -2.4312  -2.4130  -2.3877  -2.3795  -2.3683
    -2.3320  -2.3118  -2.3019  -2.2830  -2.2800  -2.2164  -2.0540  -2.0082
    -1.9244  -1.8981  -1.8877  -1.8425  -1.8210  -1.8038  -1.7894  -1.7412
    -1.7252  -1.5527  -1.4851  -1.4675  -1.4503  -1.4193  -1.3579  -1.2720
    -1.2398  -1.1687  -1.1621  -1.1205  -1.0595  -0.9883  -0.9522  -0.9219
    -0.8646  -0.8283  -0.7699  -0.7350  -0.7166  -0.7076  -0.6563  -0.6004
    -0.5617  -0.5006  -0.4747  -0.4120  -0.3724  -0.3357  -0.2805  -0.2535
    -0.2198  -0.1078   0.0026   0.1323   0.1930   0.2716   0.2863   0.3115
     0.3305   0.4475   0.4818   0.5185   0.5529   0.6409   0.6953   0.7649
     0.7844   0.8130   0.8698   1.6156   1.6168   1.7059   1.7144   1.7167
     3.6223   3.6657   3.6848   3.7329   3.8887   3.8936   3.9122   3.9202
     3.9734   4.0511

     the Fermi energy is     3.3961 ev

!    total energy              =   -2971.53799538 Ry
     estimated scf accuracy    <       0.00000007 Ry
     smearing contrib. (-TS)   =      -0.02329963 Ry
     internal energy E=F+TS    =   -2971.51469575 Ry

     The total energy is F=E-TS. E is the sum of the following terms:
     one-electron contribution =  -22746.54768769 Ry
     hartree contribution      =   11464.40072938 Ry
     xc contribution           =    -492.32692610 Ry
     ewald contribution        =    8802.95881238 Ry
     electric field correction =       0.00037629 Ry

     convergence has been achieved in 105 iterations

     Forces acting on atoms (cartesian axes, Ry/au):

     atom    1 type  1   force =    -0.00063345    0.00093581    0.00077043
     atom    2 type  2   force =    -0.00045903    0.00085350   -0.00059984
     atom    3 type  2   force =    -0.00141694   -0.00069849   -0.00060326
     atom    4 type  2   force =     0.00082222   -0.00050165   -0.00029355
     atom    5 type  3   force =     0.00034123   -0.00680536   -0.03340565
     atom    6 type  3   force =    -0.00002214    0.00054528    0.04530352
     atom    7 type  3   force =    -0.02046352    0.00052888    0.00448542
     atom    8 type  3   force =     0.01814029   -0.00160334    0.00412340
     atom    9 type  3   force =     0.00012805    0.00000662   -0.00034256
     atom   10 type  3   force =    -0.00004600   -0.00005198    0.00015624
     atom   11 type  3   force =    -0.00004845    0.00005173   -0.00039419
     atom   12 type  3   force =     0.00078589    0.00025612   -0.00023329
     atom   13 type  3   force =     0.00031823   -0.00021222    0.00014160
     atom   14 type  3   force =     0.00026988    0.00022806    0.00567979
     atom   15 type  3   force =     0.00002379    0.00002167    0.00123945
     atom   16 type  3   force =     0.00002955    0.00006650    0.00094261
     atom   17 type  3   force =     0.00003593    0.00005779    0.10417325
     atom   18 type  3   force =    -0.00010590    0.00011016    0.00090216
     atom   19 type  3   force =    -0.06902077    0.00070065   -0.02968979
     atom   20 type  3   force =     0.06879545    0.00126593   -0.02968409
     atom   21 type  3   force =     0.00038479    0.00378791   -0.02833959
     atom   22 type  3   force =     0.00085389    0.00084345    0.04700227
     atom   23 type  3   force =    -0.01797797    0.00140637    0.00372746
     atom   24 type  3   force =     0.01766976    0.00227038    0.00326239
     atom   25 type  3   force =    -0.00012370   -0.00019075   -0.00013454
     atom   26 type  3   force =     0.00016825   -0.00004149    0.00035899
     atom   27 type  3   force =    -0.00053379   -0.00029946    0.00017194
     atom   28 type  3   force =     0.00028589   -0.00034740    0.00050758
     atom   29 type  3   force =     0.00008591   -0.00057087    0.00045008
     atom   30 type  3   force =    -0.00019484   -0.00034735    0.00095137
     atom   31 type  3   force =    -0.00006850   -0.00025907    0.00090911
     atom   32 type  3   force =    -0.00033730   -0.00036533    0.00049169
     atom   33 type  3   force =     0.00004216    0.00003290    0.10425859
     atom   34 type  3   force =    -0.06860321   -0.00136231   -0.02973028
     atom   35 type  3   force =     0.06848232   -0.00098871   -0.02970583
     atom   36 type  3   force =     0.00112406    0.00048755    0.00033915
     atom   37 type  4   force =    -0.00001981   -0.00158863    0.10635393
     atom   38 type  4   force =    -0.00016734    0.00072380   -0.17962843
     atom   39 type  4   force =    -0.00037588    0.00007498   -0.00003407
     atom   40 type  4   force =     0.00000414    0.00008298   -0.00003879
     atom   41 type  4   force =    -0.00005657    0.00055393   -0.00085319
     atom   42 type  4   force =    -0.00014865   -0.00152821    0.00143204
     atom   43 type  4   force =    -0.00020616   -0.00024348   -0.00164013
     atom   44 type  4   force =     0.00054641    0.00050713   -0.00098772
     atom   45 type  4   force =    -0.00001291    0.00120352    0.11835457
     atom   46 type  4   force =     0.00000734   -0.00032696   -0.17988926
     atom   47 type  4   force =     0.00035144    0.00006955   -0.00013100
     atom   48 type  4   force =    -0.00003421    0.00024021   -0.00030918
     atom   49 type  4   force =     0.00053389    0.00059290   -0.00007598
     atom   50 type  4   force =     0.00012133    0.00167375    0.00041725
     atom   51 type  4   force =     0.00044934   -0.00082427   -0.01008486
     atom   52 type  4   force =     0.00088008   -0.00098411   -0.00000943
     atom   53 type  5   force =     0.00068092    0.00130122    0.00003751
     atom   54 type  5   force =    -0.00128541   -0.00133978   -0.00010527

     Total force =     0.376790     Total SCF correction =     0.000907
  @ DRIVER MODE: Message from server: STATUS
  @ DRIVER MODE: Message from server: GETFORCE
  @ DRIVER MODE: Returning v,forces,stress,ensemble

     Writing output data file ./calc.save/
  @ DRIVER MODE: Message from server: EXIT
  @ DRIVE MODE: Exiting

     General routines

     Parallel routines

   This run was terminated on:  22:18:49  14Sep2021

   JOB DONE.