     Program PWSCF v.6.7GPU starts on 23Sep2021 at 20:56:38

     R & G space division:  proc/nbgrp/npool/nimage =       8
     Reading input from /storage/home/hcoda1/3/ntian30/research/carbon/CxH_vib/H2O_calc/ads_slab/CH2ON2HO_b/out_0023/pw.inp
Warning: card &CELL ignored
Warning: card   CELL_DYNAMICS='IPI', ignored
Warning: card / ignored

     Current dimensions of program PWSCF are:
     Max number of different atomic species (ntypx) = 10
     Max number of k-points (npk) =  40000
     Max angular momentum in pseudopotentials (lmaxx) =  3
     Presently no symmetry can be used with electric field

     Message from routine cell_base_init:
     DEPRECATED: use true lattice parameter, not A to a.u. conversion factor

     IMPORTANT: XC functional enforced from input :
     Exchange-correlation= BEEF-VDW
                           (   1   4  43  14   2   0   0)
     Any further DFT definition will be discarded
     Please, verify this is what you really want

  @ DRIVER MODE: Connecting to
 qe_1139763_2947315.sched-torque.pace.gatech.edu9poff592_scratch
  using UNIX socket
  @ DRIVER MODE: Message from server: STATUS
  @ DRIVER MODE: Message from server: INIT
  @ DRIVER MODE: Receiving replica           0          -1
  @ DRIVER MODE: Receiving encoded integer          25
  @ DRIVER MODE:  SCF:  T  FORCE:  T  STRESS:  F  VC:  F  ENSEMBLE:  F
  @ DRIVER MODE:  SCF:  T  FORCE:  T  STRESS:  F  VC:  F  ENSEMBLE:  F

     Using Slab Decomposition

     bravais-lattice index     =            0
     lattice parameter (alat)  =       1.8897  a.u.
     unit-cell volume          =    6658.9804 (a.u.)^3
     number of atoms/cell      =           55
     number of atomic types    =            5
     number of electrons       =       407.00
     number of Kohn-Sham states=          213
     kinetic-energy cutoff     =      29.3995  Ry
     charge density cutoff     =     293.9946  Ry
     scf convergence threshold =      7.3E-08
     mixing beta               =       0.0500
     number of iterations used =            8  plain     mixing
     Exchange-correlation= BEEF-VDW
                           (   1   4  43  14   2   0   0)

     celldm(1)=   1.889726  celldm(2)=   0.000000  celldm(3)=   0.000000
     celldm(4)=   0.000000  celldm(5)=   0.000000  celldm(6)=   0.000000

     crystal axes: (cart. coord. in units of alat)
               a(1) = (   6.579727   0.000000   0.000000 )
               a(2) = (  -0.000775   5.961596   0.000000 )
               a(3) = (   0.000000   0.000000  25.155947 )

     reciprocal axes: (cart. coord. in units 2 pi/alat)
               b(1) = (  0.151982  0.000020  0.000000 )
               b(2) = (  0.000000  0.167740  0.000000 )
               b(3) = (  0.000000  0.000000  0.039752 )

     PseudoPot. # 1 for C  read from file:
     /storage/coda1/p-amedford6/0/shared/rich_project_chbe-medford/medford-share/data/pseudos_module/espresso/nninc/pbe/van/C.UPF
     MD5 check sum: 1a69bf6b8db32088f5b2163dbdb77a27
     Pseudo is Ultrasoft, Zval =  4.0
     Generated by new atomic code, or converted to UPF format
     Using radial grid of  721 points,  4 beta functions with:
                l(1) =   0
                l(2) =   0
                l(3) =   1
                l(4) =   1
     Q(r) pseudized with  8 coefficients,  rinner =    0.800   0.800   0.800

     PseudoPot. # 2 for H  read from file:
     /storage/coda1/p-amedford6/0/shared/rich_project_chbe-medford/medford-share/data/pseudos_module/espresso/nninc/pbe/van/H.UPF
     MD5 check sum: b5ee9d7bfd3a09ee7748110bda690ff7
     Pseudo is Ultrasoft, Zval =  1.0
     Generated by new atomic code, or converted to UPF format
     Using radial grid of  615 points,  1 beta functions with:
                l(1) =   0
     Q(r) pseudized with  8 coefficients,  rinner =    0.800

     PseudoPot. # 3 for O  read from file:
     /storage/coda1/p-amedford6/0/shared/rich_project_chbe-medford/medford-share/data/pseudos_module/espresso/nninc/pbe/van/O.UPF
     MD5 check sum: 78c19812648e8988a0fe644b0f25305e
     Pseudo is Ultrasoft, Zval =  6.0
     Generated by new atomic code, or converted to UPF format
     Using radial grid of  737 points,  4 beta functions with:
                l(1) =   0
                l(2) =   0
                l(3) =   1
                l(4) =   1
     Q(r) pseudized with  8 coefficients,  rinner =    0.800   0.800   0.800

     PseudoPot. # 4 for Ti read from file:
     /storage/coda1/p-amedford6/0/shared/rich_project_chbe-medford/medford-share/data/pseudos_module/espresso/nninc/pbe/van/Ti.UPF
     MD5 check sum: 8e4df49b7f0d34bbd5052bf3f5ea0213
     Pseudo is Ultrasoft, Zval = 12.0
     Generated by new atomic code, or converted to UPF format
     Using radial grid of  851 points,  6 beta functions with:
                l(1) =   0
                l(2) =   0
                l(3) =   1
                l(4) =   1
                l(5) =   2
                l(6) =   2
     Q(r) pseudized with  8 coefficients,  rinner =    1.000   1.000   1.000
                                                       1.000   1.000

     PseudoPot. # 5 for N  read from file:
     /storage/coda1/p-amedford6/0/shared/rich_project_chbe-medford/medford-share/data/pseudos_module/espresso/nninc/pbe/van/N.UPF
     MD5 check sum: 90d10febe142ad51ac9d5be1deb811c4
     Pseudo is Ultrasoft, Zval =  5.0
     Generated by new atomic code, or converted to UPF format
     Using radial grid of  729 points,  4 beta functions with:
                l(1) =   0
                l(2) =   0
                l(3) =   1
                l(4) =   1
     Q(r) pseudized with  8 coefficients,  rinner =    0.800   0.800   0.800

     atomic species   valence    mass     pseudopotential
        C1             4.00    12.01100     C ( 1.00)
        H1             1.00     1.00800     H ( 1.00)
        O1             6.00    15.99900     O ( 1.00)
        Ti1           12.00    47.86700     Ti( 1.00)
        N1             5.00    14.00700     N ( 1.00)

     No symmetry found

   Cartesian axes

     site n.     atom                  positions (alat units)
         1           C1  tau(   1) = (   6.3959394   2.9948767  18.7016815  )
         2           H1  tau(   2) = (   6.3118651   3.9496324  19.2181435  )
         3           H1  tau(   3) = (   6.2946090   2.0524817  19.2375006  )
         4           O1  tau(   4) = (   3.2904802   0.0005063   4.7018136  )
         5           O1  tau(   5) = (   3.2900926   2.9813045   4.7018136  )
         6           O1  tau(   6) = (   1.3043587   1.4918075   6.0039043  )
         7           O1  tau(   7) = (   1.3039711   4.4726057   6.0039043  )
         8           O1  tau(   8) = (   5.2767064   1.4903225   6.0039473  )
         9           O1  tau(   9) = (   5.2763189   4.4711207   6.0039473  )
        10           O1  tau(  10) = (   3.2906025   0.0005020   7.3038282  )
        11           O1  tau(  11) = (   3.2902150   2.9813002   7.3038282  )
        12           O1  tau(  12) = (   0.0006271   0.0005054   7.9858123  )
        13           O1  tau(  13) = (   0.0002396   2.9813036   7.9858123  )
        14           O1  tau(  14) = (   4.5942328   1.4918067   9.2879030  )
        15           O1  tau(  15) = (   4.5938453   4.4726049   9.2879030  )
        16           O1  tau(  16) = (   1.9868534   1.4903216   9.2879459  )
        17           O1  tau(  17) = (   1.9864658   4.4711199   9.2879459  )
        18           O1  tau(  18) = (   0.0129981   2.9922367  10.5657274  )
        19           O1  tau(  19) = (   0.0144279   0.0091559  10.5889743  )
        20           O1  tau(  20) = (   3.3117767   2.9674386  11.3102582  )
        21           O1  tau(  21) = (   3.3129298   0.0243810  11.3450129  )
        22           O1  tau(  22) = (   5.3345884   1.4970258  12.6342112  )
        23           O1  tau(  23) = (   5.3394917   4.4808886  12.6396439  )
        24           O1  tau(  24) = (   1.3039726   1.5040805  12.6380785  )
        25           O1  tau(  25) = (   1.3005587   4.4728597  12.6427203  )
        26           O1  tau(  26) = (   3.3397831   2.9746101  13.9049785  )
        27           O1  tau(  27) = (   3.3223070   5.9049495  13.9699414  )
        28           O1  tau(  28) = (   0.0408547   5.9558716  14.6791314  )
        29           O1  tau(  29) = (   0.0240783   2.9814708  14.7219997  )
        30           O1  tau(  30) = (   4.6055448   4.4181431  16.1204950  )
        31           O1  tau(  31) = (   4.6084482   1.5084077  16.0967128  )
        32           O1  tau(  32) = (   2.0524258   4.3896087  16.0537013  )
        33           O1  tau(  33) = (   2.0565100   1.5382275  16.0573534  )
        34           O1  tau(  34) = (   0.0881354   5.9599038  17.1931241  )
        35           O1  tau(  35) = (   0.0264254   2.9794292  17.4619454  )
        36           Ti1 tau(  36) = (   0.0004258   2.9801865   6.0000000  )
        37           Ti1 tau(  37) = (   0.0000382   5.9609847   6.0000000  )
        38           Ti1 tau(  38) = (   3.2906075   1.4906267   6.0002472  )
        39           Ti1 tau(  39) = (   3.2902200   4.4714249   6.0002472  )
        40           Ti1 tau(  40) = (   3.3176177   0.0844252   9.1703869  )
        41           Ti1 tau(  41) = (   3.3271239   3.0668301   9.1994626  )
        42           Ti1 tau(  42) = (   0.0459265   4.5214211   9.2633915  )
        43           Ti1 tau(  43) = (   0.0410032   1.6055327   9.3499854  )
        44           Ti1 tau(  44) = (   3.3214603   4.6642404  12.6916750  )
        45           Ti1 tau(  45) = (   3.3199143   1.5801738  12.4350604  )
        46           Ti1 tau(  46) = (   0.0219714   0.0386744  12.4748393  )
        47           Ti1 tau(  47) = (   0.0368166   3.0234317  12.7766128  )
        48           Ti1 tau(  48) = (   3.3281430   2.9430002  15.6816790  )
        49           Ti1 tau(  49) = (   3.4175200   5.9218210  16.2589141  )
        50           Ti1 tau(  50) = (   0.0864224   1.3736379  15.9343534  )
        51           Ti1 tau(  51) = (   0.1056494   4.5744356  15.9364672  )
        52           N1  tau(  52) = (   3.6299987   3.2157240  20.3374172  )
        53           N1  tau(  53) = (   2.7220030   2.6454082  20.0695964  )
        54           O1  tau(  54) = (   3.1925635   5.9265077  18.0938652  )
        55           H1  tau(  55) = (   2.2801939   0.0950383  18.3989923  )

     number of k points=    10  Fermi-Dirac smearing, width (Ry)=  0.0073
                       cart. coord. in units 2pi/alat
        k(    1) = (   0.0000000   0.0000000   0.0000000), wk =   0.1250000
        k(    2) = (   0.0000000   0.0419351   0.0000000), wk =   0.2500000
        k(    3) = (   0.0000000  -0.0838702   0.0000000), wk =   0.1250000
        k(    4) = (   0.0379955   0.0000049   0.0000000), wk =   0.2500000
        k(    5) = (   0.0379955   0.0419400   0.0000000), wk =   0.2500000
        k(    6) = (   0.0379955  -0.0838652   0.0000000), wk =   0.2500000
        k(    7) = (   0.0379955  -0.0419301   0.0000000), wk =   0.2500000
        k(    8) = (  -0.0759910  -0.0000099   0.0000000), wk =   0.1250000
        k(    9) = (  -0.0759910   0.0419252   0.0000000), wk =   0.2500000
        k(   10) = (  -0.0759910  -0.0838800   0.0000000), wk =   0.1250000

     Initial potential from superposition of free atoms

     starting charge  390.99916, renormalised to  407.00000

     negative rho (up, down):  1.489E-02 0.000E+00

     %%%%%%%%%%%%%%%%%%%%%%%%%%%%%%%%%%%%%%%%%%%%%%%%%%%%%%%%%%%%%%%%%%%%%%%%
     %                                                                      %
     % You are using vdW-DF, which was implemented by the Thonhauser group. %
     % Please cite the following two papers that made this development      %
     % possible and the two reviews that describe the various versions:     %
     %                                                                      %
     %   T. Thonhauser et al., PRL 115, 136402 (2015).                      %
     %   T. Thonhauser et al., PRB 76, 125112 (2007).                       %
     %   K. Berland et al., Rep. Prog. Phys. 78, 066501 (2015).             %
     %   D.C. Langreth et al., J. Phys.: Condens. Matter 21, 084203 (2009). %
     %                                                                      %
     %                                                                      %
     % If you are calculating the stress with vdW-DF, please also cite:     %
     %                                                                      %
     %   R. Sabatini et al., J. Phys.: Condens. Matter 24, 424209 (2012).   %
     %                                                                      %
     %%%%%%%%%%%%%%%%%%%%%%%%%%%%%%%%%%%%%%%%%%%%%%%%%%%%%%%%%%%%%%%%%%%%%%%%

     Adding external electric field

     Computed dipole along edir(3) :
        Dipole              -15.3890 Ry au,        -39.1151 Debye
        Dipole field         -0.0290 Ry au,

        Potential amp.        2.6921 Ry
        Total length         46.3494 bohr

     Starting wfcs are  307 atomic wfcs
  @ DRIVER MODE: Message from server: STATUS
  @ DRIVER MODE: Message from server: POSDATA
  @ DRIVER MODE: Reading and sharing cell
  @ DRIVER MODE: Reading and sharing positions
  @ DRIVER MODE: Received positions

     Self-consistent Calculation

     iteration #  1     ecut=    29.40 Ry     beta= 0.05
     Davidson diagonalization with overlap
     c_bands:  1 eigenvalues not converged
     c_bands:  5 eigenvalues not converged
     c_bands:  1 eigenvalues not converged
     c_bands:  3 eigenvalues not converged
     ethr =  1.00E-05,  avg # of iterations = 33.2

[...]

     total energy              =   -2231.66657673 Ry
     estimated scf accuracy    <    8833.22042248 Ry

     iteration #  2     ecut=    29.40 Ry     beta= 0.05
     Davidson diagonalization with overlap
     ethr =  1.00E-02,  avg # of iterations = 28.2

[...]

     iteration # 41     ecut=    29.40 Ry     beta= 0.05
     Davidson diagonalization with overlap
     c_bands:  2 eigenvalues not converged
     c_bands:  1 eigenvalues not converged
     ethr =  9.22E-08,  avg # of iterations = 14.0

[...]

     total energy              =   -3003.97505694 Ry
     estimated scf accuracy    <       0.00000008 Ry

     iteration # 65     ecut=    29.40 Ry     beta= 0.05
     Davidson diagonalization with overlap
     ethr =  2.02E-11,  avg # of iterations = 10.8

     negative rho (up, down):  1.524E-02 0.000E+00

     Adding external electric field

     Computed dipole along edir(3) :
        Dipole                0.9025 Ry au,          2.2940 Debye
        Dipole field          0.0017 Ry au,

        Potential amp.       -0.1579 Ry
        Total length         46.3494 bohr

     End of self-consistent calculation

          k = 0.0000 0.0000 0.0000 ( 18029 PWs)   bands (ev):

   -55.6579 -55.6153 -55.5420 -55.4638 -55.4282 -55.4125 -55.3981 -55.3618
   -55.3058 -55.2727 -55.2671 -55.2346 -55.1949 -55.1038 -54.5076 -54.4736
   -32.1098 -32.0125 -31.9524 -31.9332 -31.9121 -31.8712 -31.8646 -31.8210
   -31.8160 -31.7609 -31.7546 -31.7454 -31.7328 -31.7308 -31.7209 -31.7063
   -31.6823 -31.6765 -31.6404 -31.6223 -31.6107 -31.6044 -31.5982 -31.5975
   -31.5599 -31.5587 -31.5142 -31.5104 -31.5071 -31.4968 -31.4954 -31.4879
   -31.4650 -31.4608 -31.4339 -31.4323 -31.4290 -31.3876 -31.3841 -31.3506
   -31.3117 -31.3093 -30.9104 -30.8337 -30.8104 -30.7273 -30.6413 -30.5300
   -21.1348 -20.0414 -16.3297 -16.1599 -15.9915 -15.8019 -15.7051 -15.6477
   -15.4375 -15.3891 -15.3037 -15.1427 -15.1130 -15.0783 -15.0499 -15.0297
   -15.0224 -14.9932 -14.9851 -14.9464 -14.9216 -14.9185 -14.8778 -14.8091
   -14.7629 -14.7545 -14.7076 -14.6444 -14.6105 -14.5895 -14.5354 -14.3488
   -13.0084 -12.8945  -9.2679  -6.4058  -5.5805  -5.5461  -4.2958  -4.2779
    -3.8987  -3.5480  -3.5147  -3.4703  -3.3881  -3.3616  -3.2372  -3.0716
    -3.0570  -2.8933  -2.7633  -2.7002  -2.6556  -2.6205  -2.5048  -2.4582
    -2.4309  -2.3931  -2.3595  -2.3331  -2.2945  -2.2789  -2.2474  -2.1994
    -2.1704  -2.0784  -2.0750  -2.0318  -1.9510  -1.9151  -1.9062  -1.9038
    -1.8860  -1.8362  -1.7951  -1.7508  -1.7229  -1.6749  -1.5670  -1.5471
    -1.5419  -1.4748  -1.2291  -1.0924  -1.0675  -0.9890  -0.9585  -0.9371
    -0.9017  -0.8935  -0.8823  -0.8452  -0.8140  -0.7038  -0.6350  -0.5736
    -0.5660  -0.5465  -0.4941  -0.4029  -0.3351  -0.3054  -0.2614  -0.2482
    -0.1770  -0.1639  -0.0819  -0.0484   0.0213   0.1232   0.1683   0.1958
     0.2187   0.2343   0.2803   0.3353   0.3919   0.4242   0.4308   0.4641
     0.5314   0.5559   0.5676   0.5963   0.6820   0.7571   0.7675   0.8268
     0.9170   0.9395   1.0312   1.1656   1.2352   1.4879   1.5145   1.5928
     1.7285   2.0767   2.1224   3.5561   3.6350   3.6646   3.7455   3.8105
     3.8345   3.9190   4.0052   4.0887   4.1241

[...]

          k = 0.0380-0.0419 0.0000 ( 17876 PWs)   bands (ev):

[...]

          k =-0.0760-0.0000 0.0000 ( 17886 PWs)   bands (ev):

[...]

          k =-0.0760-0.0839 0.0000 ( 17948 PWs)   bands (ev):

   -55.6495 -55.6236 -55.5410 -55.4529 -55.4390 -55.4056 -55.3957 -55.3686
   -55.3065 -55.2701 -55.2611 -55.2454 -55.1918 -55.1068 -54.4912 -54.4899
   -31.9469 -31.9358 -31.9239 -31.9137 -31.9065 -31.8115 -31.7949 -31.7758
   -31.7690 -31.7576 -31.7572 -31.7508 -31.7410 -31.6996 -31.6972 -31.6755
   -31.6656 -31.6586 -31.6437 -31.6337 -31.6251 -31.6214 -31.6104 -31.5936
   -31.5896 -31.5878 -31.5731 -31.5613 -31.5532 -31.5434 -31.5036 -31.4986
   -31.4934 -31.4753 -31.4705 -31.4673 -31.4537 -31.4503 -31.4206 -31.3905
   -31.3541 -31.3127 -30.8239 -30.8226 -30.7247 -30.7229 -30.6846 -30.6832
   -21.1345 -20.0358 -16.2995 -15.6912 -15.6144 -15.4673 -15.4504 -15.3890
   -15.3685 -15.2800 -15.2377 -15.2267 -15.1994 -15.1809 -15.1562 -15.1365
   -15.0990 -15.0770 -15.0293 -15.0266 -14.9736 -14.9706 -14.9627 -14.9366
   -14.8873 -14.8234 -14.8205 -14.8084 -14.7595 -14.7501 -14.6550 -14.4835
   -12.9981 -12.9957  -9.2764  -6.4027  -5.5686  -5.5020  -4.3033  -4.2783
    -3.8572  -3.6168  -3.0471  -2.9114  -2.8302  -2.6883  -2.6013  -2.5470
    -2.5358  -2.5101  -2.4764  -2.3979  -2.3859  -2.3357  -2.3300  -2.3209
    -2.3099  -2.2907  -2.2493  -2.2245  -2.2098  -2.1996  -2.1743  -2.1499
    -2.1357  -2.1239  -2.1159  -2.1040  -2.0941  -2.0482  -1.9855  -1.9203
    -1.8807  -1.8656  -1.7217  -1.7148  -1.6441  -1.6266  -1.6161  -1.5916
    -1.5838  -1.5055  -1.4554  -1.3190  -1.2942  -1.2495  -1.2002  -1.1519
    -1.0680  -1.0613  -1.0296  -0.9801  -0.9574  -0.9272  -0.9122  -0.8149
    -0.7391  -0.6944  -0.6555  -0.5452  -0.5246  -0.5112  -0.4486  -0.4235
    -0.4147  -0.4008  -0.3544  -0.2857  -0.2365  -0.2146  -0.1788  -0.1679
    -0.1033  -0.0605   0.0197   0.0784   0.1669   0.1866   0.2904   0.3670
     0.4133   0.5277   0.5826   0.6138   0.6458   0.7137   0.7708   0.7859
     0.8764   0.9330   0.9530   1.0237   1.0533   1.0922   1.1283   1.8854
     1.8983   1.9316   1.9438   3.5076   4.0430   4.0533   4.0664   4.0891
     4.1123   4.1324   4.2098   4.2496   4.2661

     the Fermi energy is     3.4976 ev

!    total energy              =   -3003.97508378 Ry
     estimated scf accuracy    <       0.00000007 Ry
     smearing contrib. (-TS)   =      -0.01906688 Ry
     internal energy E=F+TS    =   -3003.95601690 Ry

     The total energy is F=E-TS. E is the sum of the following terms:
     one-electron contribution =  -23051.53947983 Ry
     hartree contribution      =   11622.85620415 Ry
     xc contribution           =    -499.46664235 Ry
     ewald contribution        =    8924.19236395 Ry
     electric field correction =       0.00153718 Ry

     convergence has been achieved in  65 iterations

     Forces acting on atoms (cartesian axes, Ry/au):

     atom    1 type  1   force =    -0.00004353    0.00010275   -0.00110559
     atom    2 type  2   force =    -0.00044988    0.00004605   -0.00024969
     atom    3 type  2   force =    -0.00053693   -0.00003443   -0.00021130
     atom    4 type  3   force =    -0.00006454    0.00011773    0.10179157
     atom    5 type  3   force =    -0.00006325    0.00014467    0.10146026
     atom    6 type  3   force =    -0.07457160    0.00082045   -0.03019476
     atom    7 type  3   force =    -0.07404381   -0.00148035   -0.03018481
     atom    8 type  3   force =     0.07425463    0.00138076   -0.03024828
     atom    9 type  3   force =     0.07389719   -0.00107930   -0.03029226
     atom   10 type  3   force =     0.00082167    0.00107807    0.04843824
     atom   11 type  3   force =     0.00087902    0.00076103    0.05019688
     atom   12 type  3   force =     0.00040827   -0.00628908   -0.03711186
     atom   13 type  3   force =     0.00063911    0.00421728   -0.03085015
     atom   14 type  3   force =    -0.01076862   -0.00219895    0.00096575
     atom   15 type  3   force =    -0.01065769    0.00460668    0.00177021
     atom   16 type  3   force =     0.01298952   -0.00502563    0.00206352
     atom   17 type  3   force =     0.01236435    0.00212341    0.00237727
     atom   18 type  3   force =    -0.00037219    0.00009591    0.00043076
     atom   19 type  3   force =    -0.00020457    0.00030228    0.00046377
     atom   20 type  3   force =     0.00003161   -0.00079944    0.00023189
     atom   21 type  3   force =    -0.00022298   -0.00041379    0.00014907
     atom   22 type  3   force =     0.00036590   -0.00041047    0.00015201
     atom   23 type  3   force =     0.00014840    0.00030266    0.00081599
     atom   24 type  3   force =    -0.00058942   -0.00028588   -0.00015235
     atom   25 type  3   force =    -0.00023001    0.00038056    0.00036973
     atom   26 type  3   force =    -0.00039708   -0.00024694   -0.00049019
     atom   27 type  3   force =    -0.00011340    0.00012394    0.00000763
     atom   28 type  3   force =     0.00040394    0.00056751   -0.00271676
     atom   29 type  3   force =    -0.00017544    0.00008960   -0.00036079
     atom   30 type  3   force =    -0.00033361   -0.00010930   -0.00096850
     atom   31 type  3   force =    -0.00044091    0.00017333   -0.00052804
     atom   32 type  3   force =    -0.00040309    0.00033712   -0.00059740
     atom   33 type  3   force =    -0.00042397   -0.00003759   -0.00025141
     atom   34 type  3   force =    -0.00066611   -0.00037081   -0.00355364
     atom   35 type  3   force =    -0.00050503   -0.00026172    0.00137380
     atom   36 type  4   force =    -0.00034214   -0.00160462    0.10363867
     atom   37 type  4   force =    -0.00010647    0.00149932    0.11777826
     atom   38 type  4   force =    -0.00038569    0.00607023   -0.16918304
     atom   39 type  4   force =    -0.00011752   -0.00503089   -0.16944097
     atom   40 type  4   force =     0.00030322    0.00005428   -0.00072321
     atom   41 type  4   force =     0.00002334   -0.00018384   -0.00040240
     atom   42 type  4   force =    -0.00017020    0.00078294   -0.00025473
     atom   43 type  4   force =    -0.00020076   -0.00053890   -0.00026122
     atom   44 type  4   force =    -0.00008886   -0.00025735    0.00021955
     atom   45 type  4   force =     0.00005470   -0.00011868   -0.00115662
     atom   46 type  4   force =    -0.00035504    0.00047986   -0.00045120
     atom   47 type  4   force =    -0.00079457    0.00042307   -0.00147734
     atom   48 type  4   force =     0.00047720   -0.00020668    0.00036146
     atom   49 type  4   force =     0.00071186    0.00003793    0.00007915
     atom   50 type  4   force =     0.00047713   -0.00096967    0.00405686
     atom   51 type  4   force =     0.00028453    0.00005077    0.00485205
     atom   52 type  5   force =    -0.00127910   -0.00097257   -0.00062825
     atom   53 type  5   force =     0.00077109    0.00092916    0.00024020
     atom   54 type  3   force =    -0.00103852    0.00090169   -0.00007260
     atom   55 type  2   force =     0.00084989   -0.00007417   -0.00016518

     Total force =     0.369206     Total SCF correction =     0.000786
  @ DRIVER MODE: Message from server: STATUS
  @ DRIVER MODE: Message from server: GETFORCE
  @ DRIVER MODE: Returning v,forces,stress,ensemble

     Writing output data file ./calc.save/
  @ DRIVER MODE: Message from server: EXIT
  @ DRIVE MODE: Exiting

     General routines

     Parallel routines

   This run was terminated on:  21:22: 5  23Sep2021

   JOB DONE.