     Program PWSCF v.6.7GPU starts on 15Sep2021 at 19:31:51

     R & G space division:  proc/nbgrp/npool/nimage =      10
     Reading input from /storage/home/hcoda1/3/ntian30/research/carbon/CxH_vib/H2O_calc/ads_slab/CH3NHNHH2O_a/out_0012/pw.inp
Warning: card &CELL ignored
Warning: card   CELL_DYNAMICS='IPI', ignored
Warning: card / ignored

     Current dimensions of program PWSCF are:
     Max number of different atomic species (ntypx) = 10
     Max number of k-points (npk) =  40000
     Max angular momentum in pseudopotentials (lmaxx) =  3
     Presently no symmetry can be used with electric field

     Message from routine cell_base_init:
     DEPRECATED: use true lattice parameter, not A to a.u. conversion factor

     IMPORTANT: XC functional enforced from input :
     Exchange-correlation= BEEF-VDW
                           (   1   4  43  14   2   0   0)
     Any further DFT definition will be discarded
     Please, verify this is what you really want

  @ DRIVER MODE: Connecting to
 qe_1139763_2852620.sched-torque.pace.gatech.edun8y1zaf1_scratch
  using UNIX socket
  @ DRIVER MODE: Message from server: STATUS
  @ DRIVER MODE: Message from server: INIT
  @ DRIVER MODE: Receiving replica           0          -1
  @ DRIVER MODE: Receiving encoded integer          25
  @ DRIVER MODE:  SCF:  T  FORCE:  T  STRESS:  F  VC:  F  ENSEMBLE:  F
  @ DRIVER MODE:  SCF:  T  FORCE:  T  STRESS:  F  VC:  F  ENSEMBLE:  F

     Using Slab Decomposition

     bravais-lattice index     =            0
     lattice parameter (alat)  =       1.8897  a.u.
     unit-cell volume          =    6658.9804 (a.u.)^3
     number of atoms/cell      =           58
     number of atomic types    =            5
     number of electrons       =       405.00
     number of Kohn-Sham states=          212
     kinetic-energy cutoff     =      29.3995  Ry
     charge density cutoff     =     293.9946  Ry
     scf convergence threshold =      7.3E-08
     mixing beta               =       0.0500
     number of iterations used =            8  plain     mixing
     Exchange-correlation= BEEF-VDW
                           (   1   4  43  14   2   0   0)

     celldm(1)=   1.889726  celldm(2)=   0.000000  celldm(3)=   0.000000
     celldm(4)=   0.000000  celldm(5)=   0.000000  celldm(6)=   0.000000

     crystal axes: (cart. coord. in units of alat)
               a(1) = (   6.579727   0.000000   0.000000 )
               a(2) = (  -0.000775   5.961596   0.000000 )
               a(3) = (   0.000000   0.000000  25.155947 )

     reciprocal axes: (cart. coord. in units 2 pi/alat)
               b(1) = (  0.151982  0.000020  0.000000 )
               b(2) = (  0.000000  0.167740  0.000000 )
               b(3) = (  0.000000  0.000000  0.039752 )

     PseudoPot. # 1 for Ti read from file:
     /storage/coda1/p-amedford6/0/shared/rich_project_chbe-medford/medford-share/data/pseudos_module/espresso/nninc/pbe/van/Ti.UPF
     MD5 check sum: 8e4df49b7f0d34bbd5052bf3f5ea0213
     Pseudo is Ultrasoft, Zval = 12.0
     Generated by new atomic code, or converted to UPF format
     Using radial grid of  851 points,  6 beta functions with:
                l(1) =   0
                l(2) =   0
                l(3) =   1
                l(4) =   1
                l(5) =   2
                l(6) =   2
     Q(r) pseudized with  8 coefficients,  rinner =    1.000   1.000   1.000
                                                       1.000   1.000

     PseudoPot. # 2 for O  read from file:
     /storage/coda1/p-amedford6/0/shared/rich_project_chbe-medford/medford-share/data/pseudos_module/espresso/nninc/pbe/van/O.UPF
     MD5 check sum: 78c19812648e8988a0fe644b0f25305e
     Pseudo is Ultrasoft, Zval =  6.0
     Generated by new atomic code, or converted to UPF format
     Using radial grid of  737 points,  4 beta functions with:
                l(1) =   0
                l(2) =   0
                l(3) =   1
                l(4) =   1
     Q(r) pseudized with  8 coefficients,  rinner =    0.800   0.800   0.800

     PseudoPot. # 3 for N  read from file:
     /storage/coda1/p-amedford6/0/shared/rich_project_chbe-medford/medford-share/data/pseudos_module/espresso/nninc/pbe/van/N.UPF
     MD5 check sum: 90d10febe142ad51ac9d5be1deb811c4
     Pseudo is Ultrasoft, Zval =  5.0
     Generated by new atomic code, or converted to UPF format
     Using radial grid of  729 points,  4 beta functions with:
                l(1) =   0
                l(2) =   0
                l(3) =   1
                l(4) =   1
     Q(r) pseudized with  8 coefficients,  rinner =    0.800   0.800   0.800

     PseudoPot. # 4 for C  read from file:
     /storage/coda1/p-amedford6/0/shared/rich_project_chbe-medford/medford-share/data/pseudos_module/espresso/nninc/pbe/van/C.UPF
     MD5 check sum: 1a69bf6b8db32088f5b2163dbdb77a27
     Pseudo is Ultrasoft, Zval =  4.0
     Generated by new atomic code, or converted to UPF format
     Using radial grid of  721 points,  4 beta functions with:
                l(1) =   0
                l(2) =   0
                l(3) =   1
                l(4) =   1
     Q(r) pseudized with  8 coefficients,  rinner =    0.800   0.800   0.800

     PseudoPot. # 5 for H  read from file:
     /storage/coda1/p-amedford6/0/shared/rich_project_chbe-medford/medford-share/data/pseudos_module/espresso/nninc/pbe/van/H.UPF
     MD5 check sum: b5ee9d7bfd3a09ee7748110bda690ff7
     Pseudo is Ultrasoft, Zval =  1.0
     Generated by new atomic code, or converted to UPF format
     Using radial grid of  615 points,  1 beta functions with:
                l(1) =   0
     Q(r) pseudized with  8 coefficients,  rinner =    0.800

     atomic species   valence    mass     pseudopotential
        Ti1           12.00    47.86700     Ti( 1.00)
        O1             6.00    15.99900     O ( 1.00)
        N1             5.00    14.00700     N ( 1.00)
        C1             4.00    12.01100     C ( 1.00)
        H1             1.00     1.00800     H ( 1.00)

     No symmetry found

   Cartesian axes

     site n.     atom                  positions (alat units)
         1           Ti1 tau(   1) = (   0.0004258   2.9801865   6.0000000  )
         2           Ti1 tau(   2) = (   3.2906075   1.4906267   6.0002472  )
         3           O1  tau(   3) = (   0.0006271   0.0005054   7.9858123  )
         4           O1  tau(   4) = (   3.2906025   0.0005020   7.3038282  )
         5           O1  tau(   5) = (   4.5942328   1.4918067   9.2879030  )
         6           O1  tau(   6) = (   1.9868534   1.4903216   9.2879459  )
         7           Ti1 tau(   7) = (   3.2907910   2.8959150   9.1758416  )
         8           Ti1 tau(   8) = (   0.0015273   1.4827037   9.2680791  )
         9           O1  tau(   9) = (   3.2925356   5.9605122  11.3387169  )
        10           O1  tau(  10) = (   0.0116148   5.9584955  10.6183126  )
        11           O1  tau(  11) = (   1.2897729   1.4809555  12.6268520  )
        12           O1  tau(  12) = (   5.2791511   1.4810064  12.6173870  )
        13           Ti1 tau(  13) = (   0.0595640   3.0140846  12.5912772  )
        14           Ti1 tau(  14) = (   3.3761946   1.4800080  12.4968112  )
        15           O1  tau(  15) = (   6.5629824   0.0009262  14.6613707  )
        16           O1  tau(  16) = (   3.3123588   5.9604043  13.9421911  )
        17           O1  tau(  17) = (   4.5376415   1.5680301  16.0260299  )
        18           O1  tau(  18) = (   2.0142527   1.4857506  15.9764776  )
        19           Ti1 tau(  19) = (   3.2467940   3.0138708  15.6952036  )
        20           Ti1 tau(  20) = (   6.5376764   1.5432071  15.7832198  )
        21           O1  tau(  21) = (   3.2904802   0.0005063   4.7018136  )
        22           O1  tau(  22) = (   6.4898080   0.0110182  17.2547379  )
        23           O1  tau(  23) = (   1.3043587   1.4918075   6.0039043  )
        24           O1  tau(  24) = (   5.2767064   1.4903225   6.0039473  )
        25           Ti1 tau(  25) = (   0.0000382   5.9609847   6.0000000  )
        26           Ti1 tau(  26) = (   3.2902200   4.4714249   6.0002472  )
        27           O1  tau(  27) = (   0.0002396   2.9813036   7.9858123  )
        28           O1  tau(  28) = (   3.2902150   2.9813002   7.3038282  )
        29           O1  tau(  29) = (   4.5938453   4.4726049   9.2879030  )
        30           O1  tau(  30) = (   1.9864658   4.4711199   9.2879459  )
        31           Ti1 tau(  31) = (   3.2891106   5.8743827   9.1763621  )
        32           Ti1 tau(  32) = (   0.0006254   4.4649316   9.2693709  )
        33           O1  tau(  33) = (   3.2967638   2.9790471  11.3409087  )
        34           O1  tau(  34) = (   0.0092240   2.9805883  10.6323155  )
        35           O1  tau(  35) = (   1.2869154   4.4778632  12.6304858  )
        36           O1  tau(  36) = (   5.2845859   4.4648683  12.6187650  )
        37           Ti1 tau(  37) = (   0.0627082   0.0241251  12.5486904  )
        38           Ti1 tau(  38) = (   3.3788516   4.4738568  12.4976958  )
        39           O1  tau(  39) = (   6.5772583   2.9562949  14.6416036  )
        40           O1  tau(  40) = (   3.2725681   2.9944745  13.9013672  )
        41           O1  tau(  41) = (   4.5452577   4.4055011  16.0651929  )
        42           O1  tau(  42) = (   2.0228361   4.5129635  16.0417754  )
        43           Ti1 tau(  43) = (   3.2583029   0.0391736  15.7773877  )
        44           Ti1 tau(  44) = (   6.5476622   4.6515957  16.1089089  )
        45           O1  tau(  45) = (   3.2900926   2.9813045   4.7018136  )
        46           O1  tau(  46) = (   1.3039711   4.4726057   6.0039043  )
        47           O1  tau(  47) = (   5.2763189   4.4711207   6.0039473  )
        48           N1  tau(  48) = (   1.2275869   2.8250850  18.3327965  )
        49           N1  tau(  49) = (   0.1007212   2.9268546  17.4524539  )
        50           C1  tau(  50) = (   0.9834745   3.5098297  19.5973225  )
        51           H1  tau(  51) = (   0.0800711   3.1483545  20.1177682  )
        52           H1  tau(  52) = (   1.8428167   3.3484677  20.2521386  )
        53           H1  tau(  53) = (   0.8645268   4.5787652  19.4145101  )
        54           H1  tau(  54) = (   1.4038961   1.8348574  18.5000659  )
        55           H1  tau(  55) = (   5.8167727   2.7947134  17.9807349  )
        56           O1  tau(  56) = (   3.6251350   0.0523402  18.1652986  )
        57           H1  tau(  57) = (   4.6063402   0.0342754  18.1216558  )
        58           H1  tau(  58) = (   3.3562690   5.1322054  18.4688733  )

     number of k points=    10  Fermi-Dirac smearing, width (Ry)=  0.0073
                       cart. coord. in units 2pi/alat
        k(    1) = (   0.0000000   0.0000000   0.0000000), wk =   0.1250000
        k(    2) = (   0.0000000   0.0419351   0.0000000), wk =   0.2500000
        k(    3) = (   0.0000000  -0.0838702   0.0000000), wk =   0.1250000
        k(    4) = (   0.0379955   0.0000049   0.0000000), wk =   0.2500000
        k(    5) = (   0.0379955   0.0419400   0.0000000), wk =   0.2500000
        k(    6) = (   0.0379955  -0.0838652   0.0000000), wk =   0.2500000
        k(    7) = (   0.0379955  -0.0419301   0.0000000), wk =   0.2500000
        k(    8) = (  -0.0759910  -0.0000099   0.0000000), wk =   0.1250000
        k(    9) = (  -0.0759910   0.0419252   0.0000000), wk =   0.2500000
        k(   10) = (  -0.0759910  -0.0838800   0.0000000), wk =   0.1250000

     Initial potential from superposition of free atoms

     starting charge  388.99913, renormalised to  405.00000

     negative rho (up, down):  1.444E-02 0.000E+00

     %%%%%%%%%%%%%%%%%%%%%%%%%%%%%%%%%%%%%%%%%%%%%%%%%%%%%%%%%%%%%%%%%%%%%%%%
     %                                                                      %
     % You are using vdW-DF, which was implemented by the Thonhauser group. %
     % Please cite the following two papers that made this development      %
     % possible and the two reviews that describe the various versions:     %
     %                                                                      %
     %   T. Thonhauser et al., PRL 115, 136402 (2015).                      %
     %   T. Thonhauser et al., PRB 76, 125112 (2007).                       %
     %   K. Berland et al., Rep. Prog. Phys. 78, 066501 (2015).             %
     %   D.C. Langreth et al., J. Phys.: Condens. Matter 21, 084203 (2009). %
     %                                                                      %
     %                                                                      %
     % If you are calculating the stress with vdW-DF, please also cite:     %
     %                                                                      %
     %   R. Sabatini et al., J. Phys.: Condens. Matter 24, 424209 (2012).   %
     %                                                                      %
     %%%%%%%%%%%%%%%%%%%%%%%%%%%%%%%%%%%%%%%%%%%%%%%%%%%%%%%%%%%%%%%%%%%%%%%%

     Adding external electric field

     Computed dipole along edir(3) :
        Dipole              -14.1540 Ry au,        -35.9758 Debye
        Dipole field         -0.0267 Ry au,

        Potential amp.        2.4760 Ry
        Total length         46.3494 bohr

     Starting wfcs are  307 atomic wfcs
  @ DRIVER MODE: Message from server: STATUS
  @ DRIVER MODE: Message from server: POSDATA
  @ DRIVER MODE: Reading and sharing cell
  @ DRIVER MODE: Reading and sharing positions
  @ DRIVER MODE: Received positions

     Self-consistent Calculation

     iteration #  1     ecut=    29.40 Ry     beta= 0.05
     Davidson diagonalization with overlap
     c_bands:  1 eigenvalues not converged
     c_bands:  1 eigenvalues not converged
     c_bands:  1 eigenvalues not converged
     c_bands:  3 eigenvalues not converged
     c_bands:  2 eigenvalues not converged
     ethr =  1.00E-05,  avg # of iterations = 31.6

[...]

     total energy              =   -2232.37288877 Ry
     estimated scf accuracy    <    8445.04098353 Ry

     iteration #  2     ecut=    29.40 Ry     beta= 0.05
     Davidson diagonalization with overlap
     ethr =  1.00E-02,  avg # of iterations = 29.3

[...]

     iteration # 70     ecut=    29.40 Ry     beta= 0.05
     Davidson diagonalization with overlap
     c_bands:  2 eigenvalues not converged
     ethr =  7.06E-11,  avg # of iterations = 10.2

[...]

     total energy              =   -2976.50541534 Ry
     estimated scf accuracy    <       0.00000009 Ry

     iteration # 73     ecut=    29.40 Ry     beta= 0.05
     Davidson diagonalization with overlap
     ethr =  2.22E-11,  avg # of iterations =  5.2

     negative rho (up, down):  1.504E-02 0.000E+00

     Adding external electric field

     Computed dipole along edir(3) :
        Dipole                0.9813 Ry au,          2.4941 Debye
        Dipole field          0.0019 Ry au,

        Potential amp.       -0.1717 Ry
        Total length         46.3494 bohr

     End of self-consistent calculation

          k = 0.0000 0.0000 0.0000 ( 18029 PWs)   bands (ev):

   -55.5142 -55.4838 -55.4801 -55.4502 -55.4477 -55.3626 -55.3316 -55.3297
   -55.3275 -55.2976 -55.2961 -55.2624 -55.0551 -54.8893 -54.4969 -54.4629
   -32.0281 -31.9979 -31.8864 -31.8638 -31.8297 -31.8067 -31.7882 -31.7864
   -31.7586 -31.7154 -31.7036 -31.6841 -31.6809 -31.6664 -31.6608 -31.6390
   -31.6198 -31.6142 -31.6133 -31.5811 -31.5712 -31.5625 -31.5364 -31.5242
   -31.5217 -31.5199 -31.5170 -31.5112 -31.4957 -31.4879 -31.4848 -31.4753
   -31.4725 -31.4611 -31.4495 -31.4406 -31.4084 -31.3111 -31.2644 -31.1529
   -31.1441 -31.0796 -30.9042 -30.8154 -30.7930 -30.7209 -30.6343 -30.5233
   -18.7221 -16.6016 -16.2250 -15.9873 -15.7659 -15.6716 -15.6294 -15.4324
   -15.3380 -15.2533 -15.1331 -15.0819 -15.0561 -15.0485 -15.0349 -15.0106
   -14.9753 -14.9691 -14.9660 -14.9419 -14.9226 -14.8712 -14.8653 -14.8583
   -14.7654 -14.7009 -14.6662 -14.6529 -14.6434 -14.5776 -14.2039 -12.9989
   -12.8824 -11.6313  -8.8732  -6.4602  -5.1886  -4.2863  -3.6940  -3.5986
    -3.4708  -3.4228  -3.3731  -3.3459  -3.1544  -3.0954  -2.9448  -2.7749
    -2.7015  -2.6630  -2.6299  -2.5875  -2.5571  -2.4367  -2.4119  -2.3356
    -2.3226  -2.3115  -2.2796  -2.2699  -2.2548  -2.2335  -2.1607  -2.1518
    -2.0660  -1.9556  -1.9043  -1.8893  -1.8707  -1.8293  -1.7915  -1.7784
    -1.7653  -1.7470  -1.7338  -1.6960  -1.5807  -1.5296  -1.4480  -1.3693
    -1.2994  -1.2053  -1.1352  -1.1055  -1.0385  -1.0130  -0.9542  -0.9299
    -0.9116  -0.9090  -0.7922  -0.6842  -0.6655  -0.5948  -0.5352  -0.4581
    -0.4130  -0.3877  -0.3193  -0.2867  -0.2757  -0.2624  -0.2362  -0.2207
    -0.1608  -0.0180   0.0592   0.0777   0.1366   0.1777   0.2284   0.2539
     0.2820   0.3316   0.3608   0.4011   0.4505   0.4544   0.4663   0.4905
     0.5046   0.6640   0.7193   0.7516   0.7779   0.8265   0.9392   0.9818
     1.1356   1.2086   1.2773   1.4518   1.5257   1.6064   1.7173   2.0809
     2.0971   2.1429   3.6115   3.7039   3.7449   3.7661   3.8534   3.8557
     4.0665   4.1115   4.1195   4.1858

[...]

          k = 0.0380-0.0419 0.0000 ( 17876 PWs)   bands (ev):

[...]

          k =-0.0760-0.0000 0.0000 ( 17886 PWs)   bands (ev):

[...]

          k =-0.0760-0.0839 0.0000 ( 17948 PWs)   bands (ev):

   -55.4975 -55.4967 -55.4678 -55.4635 -55.4476 -55.3484 -55.3417 -55.3321
   -55.3146 -55.3141 -55.2804 -55.2783 -55.0536 -54.8907 -54.4798 -54.4798
   -31.8416 -31.8248 -31.8135 -31.8129 -31.7924 -31.7917 -31.7517 -31.7442
   -31.7363 -31.7085 -31.6974 -31.6781 -31.6625 -31.6608 -31.6354 -31.6333
   -31.6310 -31.6289 -31.6209 -31.6196 -31.6174 -31.6161 -31.6156 -31.5642
   -31.5558 -31.5495 -31.5416 -31.5307 -31.5163 -31.5152 -31.5107 -31.5062
   -31.4959 -31.4933 -31.4884 -31.4865 -31.4157 -31.3139 -31.2597 -31.2140
   -31.1553 -31.1068 -30.8057 -30.8056 -30.7170 -30.7169 -30.6776 -30.6776
   -18.7207 -16.5803 -15.6613 -15.5902 -15.4743 -15.4452 -15.3855 -15.3354
   -15.3183 -15.2490 -15.2125 -15.2000 -15.1482 -15.1456 -15.0977 -15.0739
   -15.0471 -15.0434 -15.0283 -14.9857 -14.9748 -14.9595 -14.9555 -14.9519
   -14.8752 -14.8388 -14.8348 -14.8306 -14.7610 -14.6278 -14.3522 -12.9842
   -12.9841 -11.6380  -8.8820  -6.4561  -5.1918  -4.2806  -3.6349  -3.0825
    -2.9466  -2.7879  -2.7234  -2.6424  -2.6416  -2.5992  -2.4715  -2.4483
    -2.4100  -2.3824  -2.3520  -2.3428  -2.3336  -2.3268  -2.3168  -2.3034
    -2.2906  -2.2512  -2.2056  -2.1899  -2.1815  -2.1768  -2.1621  -2.1476
    -2.1334  -2.1307  -2.0954  -2.0658  -2.0382  -2.0041  -1.9485  -1.7482
    -1.7201  -1.6994  -1.6616  -1.6601  -1.6480  -1.6150  -1.5757  -1.5667
    -1.4933  -1.4068  -1.3173  -1.2399  -1.2070  -1.1943  -1.1253  -1.0393
    -0.9981  -0.9593  -0.9220  -0.8615  -0.8033  -0.7646  -0.7276  -0.6464
    -0.6257  -0.6176  -0.5560  -0.5399  -0.4799  -0.4717  -0.3932  -0.3502
    -0.3158  -0.2684  -0.2409  -0.2350  -0.2166  -0.1821  -0.1735  -0.1195
    -0.0029   0.0072   0.0300   0.1299   0.2172   0.4569   0.5148   0.5465
     0.6268   0.6893   0.7527   0.7732   0.7945   0.7980   0.8334   0.8948
     1.0089   1.0178   1.0566   1.1447   1.1808   1.8890   1.8898   1.9627
     1.9628   2.0825   3.9237   3.9500   3.9758   4.0116   4.1122   4.1294
     4.1518   4.1538   4.2676   4.2894

     the Fermi energy is     3.6168 ev

!    total energy              =   -2976.50543209 Ry
     estimated scf accuracy    <       0.00000006 Ry
     smearing contrib. (-TS)   =      -0.02132360 Ry
     internal energy E=F+TS    =   -2976.48410849 Ry

     The total energy is F=E-TS. E is the sum of the following terms:
     one-electron contribution =  -23889.73968038 Ry
     hartree contribution      =   12041.36119279 Ry
     xc contribution           =    -495.75957033 Ry
     ewald contribution        =    9367.65213236 Ry
     electric field correction =       0.00181707 Ry

     convergence has been achieved in  73 iterations

     Forces acting on atoms (cartesian axes, Ry/au):

     atom    1 type  1   force =     0.00015687   -0.00027327    0.09582634
     atom    2 type  1   force =    -0.00023462   -0.00063098   -0.17569856
     atom    3 type  2   force =     0.00006311   -0.00014544   -0.02383555
     atom    4 type  2   force =     0.00006422   -0.00154086    0.05352489
     atom    5 type  2   force =    -0.01127268   -0.00076195    0.00356890
     atom    6 type  2   force =     0.01297285    0.00005761    0.00269435
     atom    7 type  1   force =    -0.00096917    0.00065658   -0.00791811
     atom    8 type  1   force =     0.00042957    0.00624866    0.02297884
     atom    9 type  2   force =    -0.00005607   -0.00030860   -0.00095593
     atom   10 type  2   force =    -0.00136486    0.00128358   -0.01510734
     atom   11 type  2   force =    -0.00031420    0.00024691   -0.00022966
     atom   12 type  2   force =    -0.00020082    0.00022895   -0.00032627
     atom   13 type  1   force =     0.00073099   -0.00046428    0.00020650
     atom   14 type  1   force =    -0.00020338    0.00042036    0.00149783
     atom   15 type  2   force =    -0.00001605    0.00022841    0.00049394
     atom   16 type  2   force =     0.00026482    0.00005820    0.00008994
     atom   17 type  2   force =     0.00078529   -0.00016651    0.00038870
     atom   18 type  2   force =     0.00002557   -0.00038255    0.00047240
     atom   19 type  1   force =    -0.00125765    0.00022920    0.00066046
     atom   20 type  1   force =     0.00084869    0.00057925    0.00152750
     atom   21 type  2   force =     0.00008692   -0.00008804    0.10321221
     atom   22 type  2   force =    -0.00067353   -0.00045826   -0.00091959
     atom   23 type  2   force =    -0.07141695   -0.00018632   -0.02768476
     atom   24 type  2   force =     0.07138382    0.00027532   -0.02768842
     atom   25 type  1   force =     0.00002233   -0.00031135    0.09554541
     atom   26 type  1   force =    -0.00018396   -0.00031312   -0.17596451
     atom   27 type  2   force =     0.00009765   -0.00012152   -0.02293778
     atom   28 type  2   force =     0.00011417   -0.00127258    0.05317622
     atom   29 type  2   force =    -0.01152055    0.00015105    0.00362992
     atom   30 type  2   force =     0.01316892    0.00046273    0.00272029
     atom   31 type  1   force =    -0.00101432    0.00373603   -0.01103194
     atom   32 type  1   force =     0.00051088   -0.00741016    0.02338216
     atom   33 type  2   force =    -0.00023857    0.00031296   -0.00032445
     atom   34 type  2   force =    -0.00033229    0.00025080   -0.02182310
     atom   35 type  2   force =     0.00010249    0.00030702   -0.00036333
     atom   36 type  2   force =    -0.00036106    0.00030637   -0.00028986
     atom   37 type  1   force =     0.00038241    0.00057406   -0.00034152
     atom   38 type  1   force =    -0.00023735   -0.00042596    0.00136076
     atom   39 type  2   force =    -0.00003503   -0.00026348    0.00084430
     atom   40 type  2   force =     0.00031755    0.00008743   -0.00085937
     atom   41 type  2   force =     0.00123430    0.00044718    0.00013798
     atom   42 type  2   force =    -0.00072747    0.00025122    0.00002502
     atom   43 type  1   force =    -0.00096925   -0.00109741    0.00001248
     atom   44 type  1   force =     0.00082769   -0.00036888    0.00105194
     atom   45 type  2   force =     0.00008668   -0.00010069    0.10321483
     atom   46 type  2   force =    -0.07142993   -0.00013504   -0.02766685
     atom   47 type  2   force =     0.07142717    0.00029946   -0.02769926
     atom   48 type  3   force =     0.00013749   -0.00119080    0.00383332
     atom   49 type  3   force =     0.00184067    0.00215236   -0.01577043
     atom   50 type  4   force =     0.00131535    0.00024163    0.00135196
     atom   51 type  5   force =     0.00019719    0.00063598   -0.00008237
     atom   52 type  5   force =    -0.00048717   -0.00009942    0.00028170
     atom   53 type  5   force =     0.00033905   -0.00044463    0.00023785
     atom   54 type  5   force =     0.00081566   -0.00005450    0.00060182
     atom   55 type  5   force =    -0.00524309   -0.00140388    0.00643563
     atom   56 type  2   force =    -0.00073184   -0.00009578   -0.00014424
     atom   57 type  5   force =     0.00076319   -0.00005366    0.00002771
     atom   58 type  5   force =    -0.00002169   -0.00015940    0.00064911

     Total force =     0.367159     Total SCF correction =     0.000683
  @ DRIVER MODE: Message from server: STATUS
  @ DRIVER MODE: Message from server: GETFORCE
  @ DRIVER MODE: Returning v,forces,stress,ensemble

     Writing output data file ./calc.save/
  @ DRIVER MODE: Message from server: EXIT
  @ DRIVE MODE: Exiting

     General routines

     Parallel routines

   This run was terminated on:  19:52:36  15Sep2021

   JOB DONE.