     Program PWSCF v.6.7GPU starts on  2Aug2021 at 19:51:52

     R & G space division:  proc/nbgrp/npool/nimage =      16
     Reading input from /storage/home/hcoda1/3/ntian30/research/carbon/02Aug_vib_paired/ads_slab/CH3NNHH_a/out_0025/pw.inp
Warning: card &CELL ignored
Warning: card   CELL_DYNAMICS='IPI', ignored
Warning: card / ignored

     Current dimensions of program PWSCF are:
     Max number of different atomic species (ntypx) = 10
     Max number of k-points (npk) =  40000
     Max angular momentum in pseudopotentials (lmaxx) =  3
     Presently no symmetry can be used with electric field

     Message from routine cell_base_init:
     DEPRECATED: use true lattice parameter, not A to a.u. conversion factor

     IMPORTANT: XC functional enforced from input :
     Exchange-correlation= BEEF-VDW
                           (   1   4  43  14   2   0   0)
     Any further DFT definition will be discarded
     Please, verify this is what you really want

  @ DRIVER MODE: Connecting to
 qe_1139763_2482543.sched-torque.pace.gatech.edu2rgkdnm4_scratch
  using UNIX socket
  @ DRIVER MODE: Message from server: STATUS
  @ DRIVER MODE: Message from server: INIT
  @ DRIVER MODE: Receiving replica           0          -1
  @ DRIVER MODE: Receiving encoded integer          25
  @ DRIVER MODE:  SCF:  T  FORCE:  T  STRESS:  F  VC:  F  ENSEMBLE:  F
  @ DRIVER MODE:  SCF:  T  FORCE:  T  STRESS:  F  VC:  F  ENSEMBLE:  F

     Using Slab Decomposition

     bravais-lattice index     =            0
     lattice parameter (alat)  =       1.8897  a.u.
     unit-cell volume          =    6658.9804 (a.u.)^3
     number of atoms/cell      =           55
     number of atomic types    =            5
     number of electrons       =       397.00
     number of Kohn-Sham states=          208
     kinetic-energy cutoff     =      29.3995  Ry
     charge density cutoff     =     293.9946  Ry
     scf convergence threshold =      7.3E-08
     mixing beta               =       0.0500
     number of iterations used =            8  plain     mixing
     Exchange-correlation= BEEF-VDW
                           (   1   4  43  14   2   0   0)

     celldm(1)=   1.889726  celldm(2)=   0.000000  celldm(3)=   0.000000
     celldm(4)=   0.000000  celldm(5)=   0.000000  celldm(6)=   0.000000

     crystal axes: (cart. coord. in units of alat)
               a(1) = (   6.579727   0.000000   0.000000 )
               a(2) = (  -0.000775   5.961596   0.000000 )
               a(3) = (   0.000000   0.000000  25.155947 )

     reciprocal axes: (cart. coord. in units 2 pi/alat)
               b(1) = (  0.151982  0.000020  0.000000 )
               b(2) = (  0.000000  0.167740  0.000000 )
               b(3) = (  0.000000  0.000000  0.039752 )

     PseudoPot. # 1 for Ti read from file:
     /storage/coda1/p-amedford6/0/shared/rich_project_chbe-medford/medford-share/data/pseudos_module/espresso/nninc/pbe/van/Ti.UPF
     MD5 check sum: 8e4df49b7f0d34bbd5052bf3f5ea0213
     Pseudo is Ultrasoft, Zval = 12.0
     Generated by new atomic code, or converted to UPF format
     Using radial grid of  851 points,  6 beta functions with:
                l(1) =   0
                l(2) =   0
                l(3) =   1
                l(4) =   1
                l(5) =   2
                l(6) =   2
     Q(r) pseudized with  8 coefficients,  rinner =    1.000   1.000   1.000
                                                       1.000   1.000

     PseudoPot. # 2 for O  read from file:
     /storage/coda1/p-amedford6/0/shared/rich_project_chbe-medford/medford-share/data/pseudos_module/espresso/nninc/pbe/van/O.UPF
     MD5 check sum: 78c19812648e8988a0fe644b0f25305e
     Pseudo is Ultrasoft, Zval =  6.0
     Generated by new atomic code, or converted to UPF format
     Using radial grid of  737 points,  4 beta functions with:
                l(1) =   0
                l(2) =   0
                l(3) =   1
                l(4) =   1
     Q(r) pseudized with  8 coefficients,  rinner =    0.800   0.800   0.800

     PseudoPot. # 3 for N  read from file:
     /storage/coda1/p-amedford6/0/shared/rich_project_chbe-medford/medford-share/data/pseudos_module/espresso/nninc/pbe/van/N.UPF
     MD5 check sum: 90d10febe142ad51ac9d5be1deb811c4
     Pseudo is Ultrasoft, Zval =  5.0
     Generated by new atomic code, or converted to UPF format
     Using radial grid of  729 points,  4 beta functions with:
                l(1) =   0
                l(2) =   0
                l(3) =   1
                l(4) =   1
     Q(r) pseudized with  8 coefficients,  rinner =    0.800   0.800   0.800

     PseudoPot. # 4 for C  read from file:
     /storage/coda1/p-amedford6/0/shared/rich_project_chbe-medford/medford-share/data/pseudos_module/espresso/nninc/pbe/van/C.UPF
     MD5 check sum: 1a69bf6b8db32088f5b2163dbdb77a27
     Pseudo is Ultrasoft, Zval =  4.0
     Generated by new atomic code, or converted to UPF format
     Using radial grid of  721 points,  4 beta functions with:
                l(1) =   0
                l(2) =   0
                l(3) =   1
                l(4) =   1
     Q(r) pseudized with  8 coefficients,  rinner =    0.800   0.800   0.800

     PseudoPot. # 5 for H  read from file:
     /storage/coda1/p-amedford6/0/shared/rich_project_chbe-medford/medford-share/data/pseudos_module/espresso/nninc/pbe/van/H.UPF
     MD5 check sum: b5ee9d7bfd3a09ee7748110bda690ff7
     Pseudo is Ultrasoft, Zval =  1.0
     Generated by new atomic code, or converted to UPF format
     Using radial grid of  615 points,  1 beta functions with:
                l(1) =   0
     Q(r) pseudized with  8 coefficients,  rinner =    0.800

     atomic species   valence    mass     pseudopotential
        Ti1           12.00    47.86700     Ti( 1.00)
        O1             6.00    15.99900     O ( 1.00)
        N1             5.00    14.00700     N ( 1.00)
        C1             4.00    12.01100     C ( 1.00)
        H1             1.00     1.00800     H ( 1.00)

     No symmetry found

   Cartesian axes

     site n.     atom                  positions (alat units)
         1           Ti1 tau(   1) = (   0.0004258   2.9801865   6.0000000  )
         2           Ti1 tau(   2) = (   3.2906075   1.4906267   6.0002472  )
         3           O1  tau(   3) = (   0.0006271   0.0005054   7.9858123  )
         4           O1  tau(   4) = (   3.2906025   0.0005020   7.3038282  )
         5           O1  tau(   5) = (   4.5942328   1.4918067   9.2879030  )
         6           O1  tau(   6) = (   1.9868534   1.4903216   9.2879459  )
         7           Ti1 tau(   7) = (   3.2907910   2.8959150   9.1758416  )
         8           Ti1 tau(   8) = (   0.0015273   1.4827037   9.2680791  )
         9           O1  tau(   9) = (   3.3049802   0.0007868  11.3057318  )
        10           O1  tau(  10) = (   0.0116148   5.9584955  10.6183126  )
        11           O1  tau(  11) = (   1.3244024   1.4905818  12.6109357  )
        12           O1  tau(  12) = (   5.3168099   1.4893704  12.6271843  )
        13           Ti1 tau(  13) = (   6.5373159   3.0114403  12.6515439  )
        14           Ti1 tau(  14) = (   3.2156784   1.4952808  12.4541107  )
        15           O1  tau(  15) = (   0.0550716   5.9579553  14.6769760  )
        16           O1  tau(  16) = (   3.3119233   0.0240268  13.8744051  )
        17           O1  tau(  17) = (   4.5754650   1.5399768  16.1198157  )
        18           O1  tau(  18) = (   2.0928293   1.5118261  15.9950610  )
        19           Ti1 tau(  19) = (   3.3312717   3.0210965  15.6459898  )
        20           Ti1 tau(  20) = (   0.0837956   1.4057146  15.8023643  )
        21           O1  tau(  21) = (   3.2904802   0.0005063   4.7018136  )
        22           O1  tau(  22) = (   0.0662678   0.0194342  17.2484716  )
        23           O1  tau(  23) = (   1.3043587   1.4918075   6.0039043  )
        24           O1  tau(  24) = (   5.2767064   1.4903225   6.0039473  )
        25           Ti1 tau(  25) = (   0.0000382   5.9609847   6.0000000  )
        26           Ti1 tau(  26) = (   3.2902200   4.4714249   6.0002472  )
        27           O1  tau(  27) = (   0.0002396   2.9813036   7.9858123  )
        28           O1  tau(  28) = (   3.2902150   2.9813002   7.3038282  )
        29           O1  tau(  29) = (   4.5938453   4.4726049   9.2879030  )
        30           O1  tau(  30) = (   1.9864658   4.4711199   9.2879459  )
        31           Ti1 tau(  31) = (   3.2891106   5.8743827   9.1763621  )
        32           Ti1 tau(  32) = (   0.0006254   4.4649316   9.2693709  )
        33           O1  tau(  33) = (   3.3066024   2.9928613  11.3071500  )
        34           O1  tau(  34) = (   0.0092240   2.9805883  10.6323155  )
        35           O1  tau(  35) = (   1.3207996   4.4694119  12.6241097  )
        36           O1  tau(  36) = (   5.3140488   4.4801720  12.6365454  )
        37           Ti1 tau(  37) = (   6.5381296   0.0208815  12.5444857  )
        38           Ti1 tau(  38) = (   3.2183512   4.4801350  12.4586296  )
        39           O1  tau(  39) = (   0.0202472   2.9427232  14.7250097  )
        40           O1  tau(  40) = (   3.3152672   2.9848540  13.8607131  )
        41           O1  tau(  41) = (   4.5737023   4.5140360  15.9163038  )
        42           O1  tau(  42) = (   2.1295162   4.4918226  16.0779194  )
        43           Ti1 tau(  43) = (   3.3279662   0.0229233  15.6733299  )
        44           Ti1 tau(  44) = (   6.5520288   4.5036137  16.2892914  )
        45           O1  tau(  45) = (   3.2900926   2.9813045   4.7018136  )
        46           O1  tau(  46) = (   1.3039711   4.4726057   6.0039043  )
        47           O1  tau(  47) = (   5.2763189   4.4711207   6.0039473  )
        48           N1  tau(  48) = (   0.3708600   2.9881754  17.6030774  )
        49           C1  tau(  49) = (   1.3543844   2.7351176  18.6431602  )
        50           H1  tau(  50) = (   1.5086739   3.6319226  19.2591966  )
        51           H1  tau(  51) = (   1.0320479   1.9069190  19.2840631  )
        52           H1  tau(  52) = (   2.2919873   2.4496563  18.1994378  )
        53           N1  tau(  53) = (   5.7269228   3.4566738  18.1314761  )
        54           H1  tau(  54) = (   5.8315057   4.0292447  18.9662490  )
        55           H1  tau(  55) = (   5.0361168   2.7172796  18.2515220  )

     number of k points=    10  Fermi-Dirac smearing, width (Ry)=  0.0073
                       cart. coord. in units 2pi/alat
        k(    1) = (   0.0000000   0.0000000   0.0000000), wk =   0.1250000
        k(    2) = (   0.0000000   0.0419351   0.0000000), wk =   0.2500000
        k(    3) = (   0.0000000  -0.0838702   0.0000000), wk =   0.1250000
        k(    4) = (   0.0379955   0.0000049   0.0000000), wk =   0.2500000
        k(    5) = (   0.0379955   0.0419400   0.0000000), wk =   0.2500000
        k(    6) = (   0.0379955  -0.0838652   0.0000000), wk =   0.2500000
        k(    7) = (   0.0379955  -0.0419301   0.0000000), wk =   0.2500000
        k(    8) = (  -0.0759910  -0.0000099   0.0000000), wk =   0.1250000
        k(    9) = (  -0.0759910   0.0419252   0.0000000), wk =   0.2500000
        k(   10) = (  -0.0759910  -0.0838800   0.0000000), wk =   0.1250000

     Initial potential from superposition of free atoms

     starting charge  380.99914, renormalised to  397.00000

     negative rho (up, down):  1.665E-02 0.000E+00

     %%%%%%%%%%%%%%%%%%%%%%%%%%%%%%%%%%%%%%%%%%%%%%%%%%%%%%%%%%%%%%%%%%%%%%%%
     %                                                                      %
     % You are using vdW-DF, which was implemented by the Thonhauser group. %
     % Please cite the following two papers that made this development      %
     % possible and the two reviews that describe the various versions:     %
     %                                                                      %
     %   T. Thonhauser et al., PRL 115, 136402 (2015).                      %
     %   T. Thonhauser et al., PRB 76, 125112 (2007).                       %
     %   K. Berland et al., Rep. Prog. Phys. 78, 066501 (2015).             %
     %   D.C. Langreth et al., J. Phys.: Condens. Matter 21, 084203 (2009). %
     %                                                                      %
     %                                                                      %
     % If you are calculating the stress with vdW-DF, please also cite:     %
     %                                                                      %
     %   R. Sabatini et al., J. Phys.: Condens. Matter 24, 424209 (2012).   %
     %                                                                      %
     %%%%%%%%%%%%%%%%%%%%%%%%%%%%%%%%%%%%%%%%%%%%%%%%%%%%%%%%%%%%%%%%%%%%%%%%

     Adding external electric field

     Computed dipole along edir(3) :
        Dipole               -9.2540 Ry au,        -23.5213 Debye
        Dipole field         -0.0175 Ry au,

        Potential amp.        1.6188 Ry
        Total length         46.3494 bohr

     Starting wfcs are  301 atomic wfcs
  @ DRIVER MODE: Message from server: STATUS
  @ DRIVER MODE: Message from server: POSDATA
  @ DRIVER MODE: Reading and sharing cell
  @ DRIVER MODE: Reading and sharing positions
  @ DRIVER MODE: Received positions

     Self-consistent Calculation

     iteration #  1     ecut=    29.40 Ry     beta= 0.05
     Davidson diagonalization with overlap
     c_bands:  1 eigenvalues not converged
     c_bands:  2 eigenvalues not converged
     c_bands:  1 eigenvalues not converged
     c_bands:  2 eigenvalues not converged
     c_bands:  2 eigenvalues not converged
     c_bands:  1 eigenvalues not converged
     c_bands:  2 eigenvalues not converged
     c_bands:  2 eigenvalues not converged
     c_bands:  4 eigenvalues not converged
     ethr =  1.00E-05,  avg # of iterations = 19.7

[...]

     total energy              =   -2525.58156969 Ry
     estimated scf accuracy    <    4612.64146931 Ry

     iteration #  2     ecut=    29.40 Ry     beta= 0.05
     Davidson diagonalization with overlap
     ethr =  1.00E-02,  avg # of iterations = 23.0

[...]

     iteration # 62     ecut=    29.40 Ry     beta= 0.05
     Davidson diagonalization with overlap
     c_bands:  1 eigenvalues not converged
     ethr =  2.51E-11,  avg # of iterations = 10.9

[...]

     total energy              =   -2941.63738160 Ry
     estimated scf accuracy    <       0.00000008 Ry

     iteration # 63     ecut=    29.40 Ry     beta= 0.05
     Davidson diagonalization with overlap
     ethr =  2.12E-11,  avg # of iterations =  2.0

     negative rho (up, down):  1.675E-02 0.000E+00

     Adding external electric field

     Computed dipole along edir(3) :
        Dipole                1.1486 Ry au,          2.9195 Debye
        Dipole field          0.0022 Ry au,

        Potential amp.       -0.2009 Ry
        Total length         46.3494 bohr

     End of self-consistent calculation

          k = 0.0000 0.0000 0.0000 ( 18029 PWs)   bands (ev):

   -55.5724 -55.5694 -55.5356 -55.5354 -55.4588 -55.4226 -55.4209 -55.3874
   -55.3701 -55.3360 -55.3251 -55.2912 -55.0318 -54.8868 -54.5359 -54.5018
   -32.1352 -32.0506 -31.9561 -31.8919 -31.8868 -31.8721 -31.8620 -31.8177
   -31.8101 -31.8038 -31.7834 -31.7584 -31.7544 -31.7250 -31.7217 -31.7143
   -31.6726 -31.6596 -31.6567 -31.6477 -31.6469 -31.6268 -31.6106 -31.5950
   -31.5681 -31.5673 -31.5656 -31.5577 -31.5554 -31.5289 -31.5053 -31.5042
   -31.4982 -31.4918 -31.4796 -31.4734 -31.4387 -31.3080 -31.2568 -31.1580
   -31.1396 -31.0476 -30.9423 -30.8556 -30.8331 -30.7593 -30.6729 -30.5615
   -17.5910 -16.3612 -16.0479 -15.8369 -15.7257 -15.7212 -15.6373 -15.4162
   -15.2962 -15.2806 -15.1645 -15.1596 -15.1006 -15.0603 -15.0538 -15.0484
   -15.0134 -15.0013 -14.9826 -14.9525 -14.9141 -14.8965 -14.8765 -14.7703
   -14.7084 -14.6984 -14.6828 -14.6159 -14.5720 -14.2075 -13.0378 -12.9216
   -12.5501  -9.2163  -6.3491  -5.0954  -4.2120  -3.7395  -3.5484  -3.4726
    -3.4381  -3.3780  -3.3610  -3.1824  -3.1744  -2.7964  -2.7755  -2.7564
    -2.7348  -2.7321  -2.4643  -2.4112  -2.3950  -2.3925  -2.3751  -2.3571
    -2.3360  -2.3256  -2.2968  -2.2921  -2.1550  -2.1104  -2.0315  -2.0011
    -1.9917  -1.8776  -1.8544  -1.8329  -1.8219  -1.8077  -1.7795  -1.7714
    -1.7513  -1.6422  -1.5335  -1.4605  -1.4155  -1.3604  -1.3464  -1.1616
    -1.1110  -1.0520  -1.0270  -1.0020  -0.9870  -0.9533  -0.8791  -0.8551
    -0.7135  -0.6759  -0.6221  -0.5960  -0.5653  -0.5091  -0.4744  -0.4465
    -0.3500  -0.3374  -0.3255  -0.3127  -0.2532  -0.0649  -0.0175   0.0006
     0.0162   0.1163   0.1560   0.1790   0.2157   0.2715   0.2974   0.3640
     0.3942   0.4139   0.4236   0.4475   0.4700   0.6016   0.6298   0.6594
     0.7182   0.7721   0.8492   0.9611   1.0469   1.0999   1.2010   1.4195
     1.4867   1.5704   1.6804   1.7035   2.0562   2.1012   3.5656   3.6561
     3.6943   3.7081   3.8150   3.8668   4.0146   4.0244   4.0671   4.0959

[...]

          k = 0.0380-0.0419 0.0000 ( 17876 PWs)   bands (ev):

[...]

          k =-0.0760-0.0000 0.0000 ( 17886 PWs)   bands (ev):

[...]

          k =-0.0760-0.0839 0.0000 ( 17948 PWs)   bands (ev):

   -55.5572 -55.5529 -55.5518 -55.5506 -55.4480 -55.4316 -55.4075 -55.4024
   -55.3545 -55.3511 -55.3098 -55.3066 -55.0303 -54.8881 -54.5189 -54.5187
   -31.9401 -31.9313 -31.8663 -31.8656 -31.8479 -31.8470 -31.8423 -31.8271
   -31.8002 -31.7865 -31.7671 -31.7484 -31.7202 -31.7116 -31.7065 -31.6816
   -31.6793 -31.6726 -31.6713 -31.6670 -31.6639 -31.6512 -31.6480 -31.6438
   -31.6247 -31.6127 -31.6025 -31.6006 -31.5519 -31.5497 -31.5427 -31.5409
   -31.5338 -31.5302 -31.5252 -31.5236 -31.4134 -31.3202 -31.2586 -31.2192
   -31.1452 -31.0595 -30.8459 -30.8458 -30.7552 -30.7550 -30.7162 -30.7161
   -17.5791 -15.8188 -15.7832 -15.5255 -15.5181 -15.5163 -15.4746 -15.3520
   -15.3035 -15.2769 -15.2653 -15.2463 -15.2401 -15.1352 -15.1225 -15.1053
   -15.0954 -15.0696 -15.0259 -15.0201 -15.0128 -15.0025 -14.9908 -14.9265
   -14.8714 -14.8676 -14.7590 -14.6646 -14.5218 -14.4377 -13.0236 -13.0233
   -12.5694  -9.1772  -6.3086  -5.1244  -4.1488  -3.4321  -3.1200  -3.0760
    -2.7875  -2.7682  -2.7544  -2.6382  -2.5183  -2.5091  -2.4843  -2.4617
    -2.4284  -2.4143  -2.4065  -2.3977  -2.3789  -2.3601  -2.3491  -2.3108
    -2.2415  -2.2344  -2.2263  -2.2166  -2.2000  -2.1760  -2.1663  -2.1379
    -2.1137  -2.0810  -2.0219  -1.9902  -1.8399  -1.7933  -1.7413  -1.6951
    -1.6868  -1.6573  -1.6237  -1.6161  -1.5088  -1.4945  -1.4585  -1.3285
    -1.2673  -1.2592  -1.2268  -1.1413  -1.1013  -0.9727  -0.9592  -0.9234
    -0.8701  -0.8585  -0.8212  -0.7838  -0.7316  -0.6801  -0.6359  -0.6118
    -0.5955  -0.5231  -0.5224  -0.4770  -0.4189  -0.3513  -0.3256  -0.3179
    -0.2867  -0.2426  -0.1968  -0.1317  -0.0571  -0.0361  -0.0213   0.0765
     0.1528   0.3690   0.4144   0.5162   0.5359   0.5613   0.6242   0.6728
     0.7426   0.7566   0.7859   0.8598   0.8818   0.9726   0.9831   0.9996
     1.1781   1.6349   1.8522   1.8531   1.9209   1.9214   3.8597   3.8732
     3.8994   3.9234   4.0849   4.0887   4.1009   4.1036   4.2244   4.2543

     the Fermi energy is     3.5644 ev

!    total energy              =   -2941.63741336 Ry
     estimated scf accuracy    <       0.00000004 Ry
     smearing contrib. (-TS)   =      -0.02170780 Ry
     internal energy E=F+TS    =   -2941.61570556 Ry

     The total energy is F=E-TS. E is the sum of the following terms:
     one-electron contribution =  -24405.38471407 Ry
     hartree contribution      =   12294.64786085 Ry
     xc contribution           =    -486.95116144 Ry
     ewald contribution        =    9656.06981928 Ry
     electric field correction =       0.00248981 Ry

     convergence has been achieved in  63 iterations

     Forces acting on atoms (cartesian axes, Ry/au):

     atom    1 type  1   force =     0.00002483   -0.00018469    0.09683494
     atom    2 type  1   force =     0.00010571   -0.00067030   -0.17456507
     atom    3 type  2   force =     0.00020158   -0.00005156   -0.02507200
     atom    4 type  2   force =     0.00001493   -0.00122577    0.05109401
     atom    5 type  2   force =    -0.01108905   -0.00078959    0.00212723
     atom    6 type  2   force =     0.01303511   -0.00029264    0.00280333
     atom    7 type  1   force =     0.00114417    0.00020351   -0.01336726
     atom    8 type  1   force =    -0.00018146    0.01541145    0.02795658
     atom    9 type  2   force =    -0.00011330    0.00045084    0.00001097
     atom   10 type  2   force =    -0.00221577    0.00097685   -0.01128092
     atom   11 type  2   force =     0.00029316   -0.00011713    0.00017413
     atom   12 type  2   force =    -0.00026532   -0.00012325    0.00040000
     atom   13 type  1   force =    -0.00008454   -0.00027665    0.00012101
     atom   14 type  1   force =     0.00012024    0.00012686   -0.00004686
     atom   15 type  2   force =     0.00011338   -0.00053495   -0.00035806
     atom   16 type  2   force =    -0.00044428    0.00017300    0.00030152
     atom   17 type  2   force =    -0.00021153   -0.00003818   -0.00008728
     atom   18 type  2   force =    -0.00036039    0.00004476    0.00031088
     atom   19 type  1   force =     0.00005135    0.00039410   -0.00034278
     atom   20 type  1   force =    -0.00036944    0.00000741    0.00022613
     atom   21 type  2   force =     0.00005036   -0.00009680    0.10300147
     atom   22 type  2   force =    -0.00073466   -0.00036348    0.00037503
     atom   23 type  2   force =    -0.07180570   -0.00022264   -0.02779575
     atom   24 type  2   force =     0.07177613    0.00023253   -0.02785366
     atom   25 type  1   force =     0.00004273   -0.00022964    0.09637033
     atom   26 type  1   force =    -0.00000841   -0.00030303   -0.17483001
     atom   27 type  2   force =     0.00020327   -0.00025579   -0.02391416
     atom   28 type  2   force =     0.00007631   -0.00096213    0.05132016
     atom   29 type  2   force =    -0.01108720    0.00095477    0.00148858
     atom   30 type  2   force =     0.01288743    0.00119480    0.00211883
     atom   31 type  1   force =     0.00115400    0.00257807   -0.01567828
     atom   32 type  1   force =    -0.00001724   -0.01667480    0.02887655
     atom   33 type  2   force =    -0.00017712   -0.00045123    0.00043455
     atom   34 type  2   force =    -0.00258213    0.00114340   -0.01891597
     atom   35 type  2   force =    -0.00010952   -0.00011071    0.00004303
     atom   36 type  2   force =    -0.00003790   -0.00018758    0.00022920
     atom   37 type  1   force =    -0.00024189   -0.00016576    0.00050397
     atom   38 type  1   force =     0.00010064   -0.00053829    0.00034821
     atom   39 type  2   force =     0.00005407    0.00046883    0.00018835
     atom   40 type  2   force =    -0.00032248   -0.00013484   -0.00068077
     atom   41 type  2   force =     0.00013173    0.00002599    0.00002583
     atom   42 type  2   force =    -0.00014489    0.00016756    0.00023718
     atom   43 type  1   force =     0.00011022   -0.00049729   -0.00080826
     atom   44 type  1   force =    -0.00056420    0.00126708   -0.00021804
     atom   45 type  2   force =     0.00006398   -0.00011316    0.10299914
     atom   46 type  2   force =    -0.07182391   -0.00016640   -0.02781442
     atom   47 type  2   force =     0.07178153    0.00021959   -0.02785991
     atom   48 type  3   force =    -0.00107975   -0.00101055    0.00025960
     atom   49 type  4   force =    -0.00919966    0.00319977    0.00414993
     atom   50 type  5   force =     0.00027913   -0.00016010    0.00029230
     atom   51 type  5   force =    -0.00117500   -0.00055079    0.00012690
     atom   52 type  5   force =     0.01172654   -0.00292465   -0.00412709
     atom   53 type  3   force =     0.00024483    0.00054627    0.00050174
     atom   54 type  5   force =     0.00063839   -0.00024951    0.00111111
     atom   55 type  5   force =     0.00002100    0.00088641   -0.00174617

     Total force =     0.367489     Total SCF correction =     0.000678
  @ DRIVER MODE: Message from server: STATUS
  @ DRIVER MODE: Message from server: GETFORCE
  @ DRIVER MODE: Returning v,forces,stress,ensemble

     Writing output data file ./calc.save/
  @ DRIVER MODE: Message from server: EXIT
  @ DRIVE MODE: Exiting

     General routines

     Parallel routines

   This run was terminated on:  20: 5:28   2Aug2021

   JOB DONE.