     Program PWSCF v.6.7GPU starts on  2Aug2021 at 22:13: 6

     R & G space division:  proc/nbgrp/npool/nimage =      16
     Reading input from /storage/home/hcoda1/3/ntian30/research/carbon/02Aug_vib_paired/ads_slab/CH3NN_a/out_0032/pw.inp
Warning: card &CELL ignored
Warning: card   CELL_DYNAMICS='IPI', ignored
Warning: card / ignored

     Current dimensions of program PWSCF are:
     Max number of different atomic species (ntypx) = 10
     Max number of k-points (npk) =  40000
     Max angular momentum in pseudopotentials (lmaxx) =  3
     Presently no symmetry can be used with electric field

     Message from routine cell_base_init:
     DEPRECATED: use true lattice parameter, not A to a.u. conversion factor

     IMPORTANT: XC functional enforced from input :
     Exchange-correlation= BEEF-VDW
                           (   1   4  43  14   2   0   0)
     Any further DFT definition will be discarded
     Please, verify this is what you really want

  @ DRIVER MODE: Connecting to
 qe_1139763_2482546.sched-torque.pace.gatech.edugu6vm462_scratch
  using UNIX socket
  @ DRIVER MODE: Message from server: STATUS
  @ DRIVER MODE: Message from server: INIT
  @ DRIVER MODE: Receiving replica           0          -1
  @ DRIVER MODE: Receiving encoded integer          25
  @ DRIVER MODE:  SCF:  T  FORCE:  T  STRESS:  F  VC:  F  ENSEMBLE:  F
  @ DRIVER MODE:  SCF:  T  FORCE:  T  STRESS:  F  VC:  F  ENSEMBLE:  F

     Using Slab Decomposition

     bravais-lattice index     =            0
     lattice parameter (alat)  =       1.8897  a.u.
     unit-cell volume          =    6658.9804 (a.u.)^3
     number of atoms/cell      =           53
     number of atomic types    =            5
     number of electrons       =       395.00
     number of Kohn-Sham states=          207
     kinetic-energy cutoff     =      29.3995  Ry
     charge density cutoff     =     293.9946  Ry
     scf convergence threshold =      7.3E-08
     mixing beta               =       0.0500
     number of iterations used =            8  plain     mixing
     Exchange-correlation= BEEF-VDW
                           (   1   4  43  14   2   0   0)

     celldm(1)=   1.889726  celldm(2)=   0.000000  celldm(3)=   0.000000
     celldm(4)=   0.000000  celldm(5)=   0.000000  celldm(6)=   0.000000

     crystal axes: (cart. coord. in units of alat)
               a(1) = (   6.579727   0.000000   0.000000 )
               a(2) = (  -0.000775   5.961596   0.000000 )
               a(3) = (   0.000000   0.000000  25.155947 )

     reciprocal axes: (cart. coord. in units 2 pi/alat)
               b(1) = (  0.151982  0.000020  0.000000 )
               b(2) = (  0.000000  0.167740  0.000000 )
               b(3) = (  0.000000  0.000000  0.039752 )

     PseudoPot. # 1 for Ti read from file:
     /storage/coda1/p-amedford6/0/shared/rich_project_chbe-medford/medford-share/data/pseudos_module/espresso/nninc/pbe/van/Ti.UPF
     MD5 check sum: 8e4df49b7f0d34bbd5052bf3f5ea0213
     Pseudo is Ultrasoft, Zval = 12.0
     Generated by new atomic code, or converted to UPF format
     Using radial grid of  851 points,  6 beta functions with:
                l(1) =   0
                l(2) =   0
                l(3) =   1
                l(4) =   1
                l(5) =   2
                l(6) =   2
     Q(r) pseudized with  8 coefficients,  rinner =    1.000   1.000   1.000
                                                       1.000   1.000

     PseudoPot. # 2 for O  read from file:
     /storage/coda1/p-amedford6/0/shared/rich_project_chbe-medford/medford-share/data/pseudos_module/espresso/nninc/pbe/van/O.UPF
     MD5 check sum: 78c19812648e8988a0fe644b0f25305e
     Pseudo is Ultrasoft, Zval =  6.0
     Generated by new atomic code, or converted to UPF format
     Using radial grid of  737 points,  4 beta functions with:
                l(1) =   0
                l(2) =   0
                l(3) =   1
                l(4) =   1
     Q(r) pseudized with  8 coefficients,  rinner =    0.800   0.800   0.800

     PseudoPot. # 3 for N  read from file:
     /storage/coda1/p-amedford6/0/shared/rich_project_chbe-medford/medford-share/data/pseudos_module/espresso/nninc/pbe/van/N.UPF
     MD5 check sum: 90d10febe142ad51ac9d5be1deb811c4
     Pseudo is Ultrasoft, Zval =  5.0
     Generated by new atomic code, or converted to UPF format
     Using radial grid of  729 points,  4 beta functions with:
                l(1) =   0
                l(2) =   0
                l(3) =   1
                l(4) =   1
     Q(r) pseudized with  8 coefficients,  rinner =    0.800   0.800   0.800

     PseudoPot. # 4 for C  read from file:
     /storage/coda1/p-amedford6/0/shared/rich_project_chbe-medford/medford-share/data/pseudos_module/espresso/nninc/pbe/van/C.UPF
     MD5 check sum: 1a69bf6b8db32088f5b2163dbdb77a27
     Pseudo is Ultrasoft, Zval =  4.0
     Generated by new atomic code, or converted to UPF format
     Using radial grid of  721 points,  4 beta functions with:
                l(1) =   0
                l(2) =   0
                l(3) =   1
                l(4) =   1
     Q(r) pseudized with  8 coefficients,  rinner =    0.800   0.800   0.800

     PseudoPot. # 5 for H  read from file:
     /storage/coda1/p-amedford6/0/shared/rich_project_chbe-medford/medford-share/data/pseudos_module/espresso/nninc/pbe/van/H.UPF
     MD5 check sum: b5ee9d7bfd3a09ee7748110bda690ff7
     Pseudo is Ultrasoft, Zval =  1.0
     Generated by new atomic code, or converted to UPF format
     Using radial grid of  615 points,  1 beta functions with:
                l(1) =   0
     Q(r) pseudized with  8 coefficients,  rinner =    0.800

     atomic species   valence    mass     pseudopotential
        Ti1           12.00    47.86700     Ti( 1.00)
        O1             6.00    15.99900     O ( 1.00)
        N1             5.00    14.00700     N ( 1.00)
        C1             4.00    12.01100     C ( 1.00)
        H1             1.00     1.00800     H ( 1.00)

     No symmetry found

   Cartesian axes

     site n.     atom                  positions (alat units)
         1           Ti1 tau(   1) = (   0.0004258   2.9801865   6.0000000  )
         2           Ti1 tau(   2) = (   3.2906075   1.4906267   6.0002472  )
         3           O1  tau(   3) = (   0.0006271   0.0005054   7.9858123  )
         4           O1  tau(   4) = (   3.2906025   0.0005020   7.3038282  )
         5           O1  tau(   5) = (   4.5942328   1.4918067   9.2879030  )
         6           O1  tau(   6) = (   1.9868534   1.4903216   9.2879459  )
         7           Ti1 tau(   7) = (   3.2907910   2.8959150   9.1758416  )
         8           Ti1 tau(   8) = (   0.0015273   1.4827037   9.2680791  )
         9           O1  tau(   9) = (   3.2935944   5.9504131  11.3331737  )
        10           O1  tau(  10) = (   0.0116148   5.9584955  10.6183126  )
        11           O1  tau(  11) = (   1.3139784   1.4900993  12.6222913  )
        12           O1  tau(  12) = (   5.2991156   1.4868386  12.6236412  )
        13           Ti1 tau(  13) = (   6.5257823   2.9641578  12.6501544  )
        14           Ti1 tau(  14) = (   3.2087869   1.4768241  12.4812772  )
        15           O1  tau(  15) = (   0.0069532   0.0155221  14.6013729  )
        16           O1  tau(  16) = (   3.2989757   5.9447163  13.9218705  )
        17           O1  tau(  17) = (   4.5399408   1.4684032  16.0509043  )
        18           O1  tau(  18) = (   2.0534050   1.4785924  16.0487376  )
        19           Ti1 tau(  19) = (   3.3071538   2.9600697  15.7031993  )
        20           Ti1 tau(  20) = (   0.0179100   1.3679571  15.8029155  )
        21           O1  tau(  21) = (   3.2904802   0.0005063   4.7018136  )
        22           O1  tau(  22) = (   0.0297737   0.0076327  17.1327444  )
        23           O1  tau(  23) = (   1.3043587   1.4918075   6.0039043  )
        24           O1  tau(  24) = (   5.2767064   1.4903225   6.0039473  )
        25           Ti1 tau(  25) = (   0.0000382   5.9609847   6.0000000  )
        26           Ti1 tau(  26) = (   3.2902200   4.4714249   6.0002472  )
        27           O1  tau(  27) = (   0.0002396   2.9813036   7.9858123  )
        28           O1  tau(  28) = (   3.2902150   2.9813002   7.3038282  )
        29           O1  tau(  29) = (   4.5938453   4.4726049   9.2879030  )
        30           O1  tau(  30) = (   1.9864658   4.4711199   9.2879459  )
        31           Ti1 tau(  31) = (   3.2891106   5.8743827   9.1763621  )
        32           Ti1 tau(  32) = (   0.0006254   4.4649316   9.2693709  )
        33           O1  tau(  33) = (   3.2925666   2.9731923  11.3325550  )
        34           O1  tau(  34) = (   0.0092240   2.9805883  10.6323155  )
        35           O1  tau(  35) = (   1.3076969   4.4692784  12.6256357  )
        36           O1  tau(  36) = (   5.2992390   4.4652990  12.6273021  )
        37           Ti1 tau(  37) = (   6.5214685   5.9362284  12.5385417  )
        38           Ti1 tau(  38) = (   3.2054519   4.4560432  12.4842663  )
        39           O1  tau(  39) = (   0.0022752   2.9713357  14.7092999  )
        40           O1  tau(  40) = (   3.3007181   2.9764241  13.9083417  )
        41           O1  tau(  41) = (   4.5485645   4.4411382  16.0917119  )
        42           O1  tau(  42) = (   2.0537992   4.4371030  16.0853891  )
        43           Ti1 tau(  43) = (   3.2976414   5.9412218  15.7196561  )
        44           Ti1 tau(  44) = (   0.0123595   4.4653852  16.1631357  )
        45           O1  tau(  45) = (   3.2900926   2.9813045   4.7018136  )
        46           O1  tau(  46) = (   1.3039711   4.4726057   6.0039043  )
        47           O1  tau(  47) = (   5.2763189   4.4711207   6.0039473  )
        48           N1  tau(  48) = (   0.6591532   2.9890904  22.3781942  )
        49           C1  tau(  49) = (   6.5648715   3.0365617  17.8347222  )
        50           H1  tau(  50) = (   6.0219261   3.7962297  18.4082231  )
        51           H1  tau(  51) = (   6.0207922   2.1139738  18.0322221  )
        52           H1  tau(  52) = (   0.9815245   2.9432023  18.2699478  )
        53           N1  tau(  53) = (   6.2095506   3.0156182  22.7499213  )

     number of k points=    10  Fermi-Dirac smearing, width (Ry)=  0.0073
                       cart. coord. in units 2pi/alat
        k(    1) = (   0.0000000   0.0000000   0.0000000), wk =   0.1250000
        k(    2) = (   0.0000000   0.0419351   0.0000000), wk =   0.2500000
        k(    3) = (   0.0000000  -0.0838702   0.0000000), wk =   0.1250000
        k(    4) = (   0.0379955   0.0000049   0.0000000), wk =   0.2500000
        k(    5) = (   0.0379955   0.0419400   0.0000000), wk =   0.2500000
        k(    6) = (   0.0379955  -0.0838652   0.0000000), wk =   0.2500000
        k(    7) = (   0.0379955  -0.0419301   0.0000000), wk =   0.2500000
        k(    8) = (  -0.0759910  -0.0000099   0.0000000), wk =   0.1250000
        k(    9) = (  -0.0759910   0.0419252   0.0000000), wk =   0.2500000
        k(   10) = (  -0.0759910  -0.0838800   0.0000000), wk =   0.1250000

     Initial potential from superposition of free atoms

     starting charge  378.99916, renormalised to  395.00000

     negative rho (up, down):  1.030E-02 0.000E+00

     %%%%%%%%%%%%%%%%%%%%%%%%%%%%%%%%%%%%%%%%%%%%%%%%%%%%%%%%%%%%%%%%%%%%%%%%
     %                                                                      %
     % You are using vdW-DF, which was implemented by the Thonhauser group. %
     % Please cite the following two papers that made this development      %
     % possible and the two reviews that describe the various versions:     %
     %                                                                      %
     %   T. Thonhauser et al., PRL 115, 136402 (2015).                      %
     %   T. Thonhauser et al., PRB 76, 125112 (2007).                       %
     %   K. Berland et al., Rep. Prog. Phys. 78, 066501 (2015).             %
     %   D.C. Langreth et al., J. Phys.: Condens. Matter 21, 084203 (2009). %
     %                                                                      %
     %                                                                      %
     % If you are calculating the stress with vdW-DF, please also cite:     %
     %                                                                      %
     %   R. Sabatini et al., J. Phys.: Condens. Matter 24, 424209 (2012).   %
     %                                                                      %
     %%%%%%%%%%%%%%%%%%%%%%%%%%%%%%%%%%%%%%%%%%%%%%%%%%%%%%%%%%%%%%%%%%%%%%%%

     Adding external electric field

     Computed dipole along edir(3) :
        Dipole              -11.4336 Ry au,        -29.0614 Debye
        Dipole field         -0.0216 Ry au,

        Potential amp.        2.0001 Ry
        Total length         46.3494 bohr

     Starting wfcs are  299 atomic wfcs
  @ DRIVER MODE: Message from server: STATUS
  @ DRIVER MODE: Message from server: POSDATA
  @ DRIVER MODE: Reading and sharing cell
  @ DRIVER MODE: Reading and sharing positions
  @ DRIVER MODE: Received positions

     Self-consistent Calculation

     iteration #  1     ecut=    29.40 Ry     beta= 0.05
     Davidson diagonalization with overlap
     c_bands:  1 eigenvalues not converged
     c_bands:  1 eigenvalues not converged
     c_bands:  1 eigenvalues not converged
     c_bands:  3 eigenvalues not converged
     c_bands:  3 eigenvalues not converged
     c_bands:  1 eigenvalues not converged
     c_bands:  1 eigenvalues not converged
     ethr =  1.00E-05,  avg # of iterations = 19.0

[...]

     total energy              =   -2599.69855574 Ry
     estimated scf accuracy    <    3804.88184133 Ry

     iteration #  2     ecut=    29.40 Ry     beta= 0.05
     Davidson diagonalization with overlap
     ethr =  1.00E-02,  avg # of iterations = 22.4

[...]

     iteration # 38     ecut=    29.40 Ry     beta= 0.05
     Davidson diagonalization with overlap
     c_bands:  1 eigenvalues not converged
     c_bands:  2 eigenvalues not converged
     c_bands:  3 eigenvalues not converged
     c_bands:  1 eigenvalues not converged
     ethr =  8.96E-07,  avg # of iterations = 16.7

[...]

     total energy              =   -2939.19558129 Ry
     estimated scf accuracy    <       0.00000015 Ry

     iteration # 61     ecut=    29.40 Ry     beta= 0.05
     Davidson diagonalization with overlap
     ethr =  2.68E-11,  avg # of iterations =  2.2

     negative rho (up, down):  1.222E-02 0.000E+00

     Adding external electric field

     Computed dipole along edir(3) :
        Dipole                0.4047 Ry au,          1.0285 Debye
        Dipole field          0.0008 Ry au,

        Potential amp.       -0.0708 Ry
        Total length         46.3494 bohr

     End of self-consistent calculation

          k = 0.0000 0.0000 0.0000 ( 18029 PWs)   bands (ev):

   -56.0206 -56.0096 -55.9865 -55.9737 -55.9031 -55.8785 -55.8574 -55.8353
   -55.8264 -55.7930 -55.7924 -55.7592 -55.5775 -55.4530 -54.9976 -54.9636
   -32.5652 -32.5027 -32.3741 -32.3566 -32.3264 -32.3257 -32.3135 -32.2834
   -32.2626 -32.2391 -32.2330 -32.2206 -32.1906 -32.1726 -32.1617 -32.1499
   -32.1341 -32.1246 -32.1084 -32.0824 -32.0794 -32.0776 -32.0399 -32.0318
   -32.0286 -32.0239 -32.0143 -32.0102 -31.9953 -31.9930 -31.9876 -31.9676
   -31.9669 -31.9605 -31.9457 -31.9299 -31.9047 -31.8620 -31.7910 -31.7359
   -31.6693 -31.5577 -31.4047 -31.3164 -31.2939 -31.2214 -31.1349 -31.0239
   -20.7770 -16.7670 -16.4959 -16.2728 -16.1742 -16.1484 -16.0315 -15.8635
   -15.7392 -15.6950 -15.5948 -15.5797 -15.5563 -15.5258 -15.5135 -15.5041
   -15.4689 -15.4615 -15.4441 -15.4322 -15.3812 -15.3635 -15.3536 -15.2422
   -15.1966 -15.1550 -15.1389 -15.0751 -15.0263 -14.6399 -13.5002 -13.3838
    -9.0869  -5.7294  -4.1392  -3.9788  -3.9264  -3.8826  -3.8522  -3.8334
    -3.8305  -3.6358  -3.5720  -3.2652  -3.2079  -3.1918  -3.1740  -3.1460
    -2.9865  -2.9203  -2.8557  -2.8331  -2.8272  -2.7987  -2.7906  -2.7771
    -2.7404  -2.7014  -2.6787  -2.6327  -2.5798  -2.5108  -2.5030  -2.4366
    -2.4138  -2.3346  -2.3152  -2.2901  -2.2618  -2.2479  -2.2386  -2.2172
    -2.1995  -2.1791  -1.9907  -1.9612  -1.8942  -1.8092  -1.8041  -1.6274
    -1.5276  -1.4983  -1.4734  -1.4466  -1.4120  -1.3968  -1.3193  -1.2085
    -1.1759  -1.1378  -1.0759  -1.0255  -0.9942  -0.8944  -0.8712  -0.7824
    -0.7811  -0.7566  -0.7026  -0.6100  -0.5060  -0.4759  -0.4584  -0.4113
    -0.3759  -0.3125  -0.2953  -0.2341  -0.1689  -0.1577  -0.0824  -0.0558
    -0.0511  -0.0267  -0.0156   0.0291   0.0434   0.1645   0.1875   0.2732
     0.3177   0.4133   0.5343   0.6388   0.6755   0.7349   0.9499   1.0243
     1.1238   1.1660   1.2166   1.5956   1.6412   3.1188   3.2020   3.2500
     3.2575   3.3510   3.3645   3.5668   3.5933   3.6241   3.6626

[...]

          k = 0.0380-0.0419 0.0000 ( 17876 PWs)   bands (ev):

[...]

          k =-0.0760-0.0000 0.0000 ( 17886 PWs)   bands (ev):

[...]

          k =-0.0760-0.0839 0.0000 ( 17948 PWs)   bands (ev):

   -56.0042 -56.0028 -55.9921 -55.9910 -55.8952 -55.8702 -55.8651 -55.8436
   -55.8103 -55.8081 -55.7780 -55.7744 -55.5755 -55.4548 -54.9806 -54.9804
   -32.3691 -32.3678 -32.3184 -32.3176 -32.2994 -32.2984 -32.2838 -32.2751
   -32.2276 -32.2131 -32.2106 -32.2059 -32.1695 -32.1527 -32.1499 -32.1391
   -32.1312 -32.1236 -32.1222 -32.1220 -32.1159 -32.1123 -32.0948 -32.0870
   -32.0626 -32.0600 -32.0555 -32.0304 -32.0107 -32.0094 -32.0079 -32.0061
   -31.9920 -31.9901 -31.9871 -31.9820 -31.9413 -31.8470 -31.7930 -31.7386
   -31.7096 -31.6078 -31.3067 -31.3066 -31.2176 -31.2174 -31.1782 -31.1782
   -20.7768 -16.2017 -16.1811 -15.9780 -15.9352 -15.9296 -15.9248 -15.8213
   -15.7179 -15.7156 -15.7139 -15.6437 -15.6189 -15.6078 -15.5587 -15.5559
   -15.5449 -15.5334 -15.5282 -15.4820 -15.4747 -15.4573 -15.4486 -15.3833
   -15.3365 -15.3320 -15.3104 -15.1212 -15.0004 -14.9228 -13.4858 -13.4855
    -9.0997  -5.7326  -3.8372  -3.8328  -3.4930  -3.4688  -3.2365  -3.1807
    -3.1682  -3.0946  -2.9520  -2.9162  -2.9100  -2.8974  -2.8637  -2.8520
    -2.8365  -2.8281  -2.8176  -2.7908  -2.7669  -2.7337  -2.7280  -2.7044
    -2.6892  -2.6716  -2.6475  -2.6381  -2.6195  -2.5940  -2.5809  -2.5595
    -2.5495  -2.5242  -2.4945  -2.3532  -2.2542  -2.2172  -2.1572  -2.1494
    -2.1277  -2.0960  -2.0820  -2.0648  -2.0606  -2.0063  -1.8481  -1.7410
    -1.7253  -1.6883  -1.6397  -1.6192  -1.5652  -1.4305  -1.4036  -1.3772
    -1.3149  -1.3028  -1.2562  -1.2338  -1.2207  -1.1397  -1.1226  -1.0616
    -1.0000  -0.9808  -0.9771  -0.9207  -0.8611  -0.7907  -0.7805  -0.7375
    -0.7001  -0.6493  -0.6303  -0.5957  -0.5266  -0.4902  -0.3706  -0.3216
    -0.0923  -0.0398   0.0264   0.0729   0.1312   0.1786   0.1827   0.2977
     0.3001   0.3146   0.4132   0.4183   0.5068   0.5241   0.5471   0.7369
     1.2637   1.3881   1.3889   1.4607   1.4612   3.3938   3.4120   3.4412
     3.4832   3.6193   3.6286   3.6473   3.6487   3.7750   3.7960

     the Fermi energy is     3.1147 ev

!    total energy              =   -2939.19561784 Ry
     estimated scf accuracy    <       0.00000007 Ry
     smearing contrib. (-TS)   =      -0.02186801 Ry
     internal energy E=F+TS    =   -2939.17374984 Ry

     The total energy is F=E-TS. E is the sum of the following terms:
     one-electron contribution =  -23189.81428711 Ry
     hartree contribution      =   11680.17036209 Ry
     xc contribution           =    -484.92769800 Ry
     ewald contribution        =    9055.39756417 Ry
     electric field correction =       0.00030902 Ry

     convergence has been achieved in  61 iterations

     Forces acting on atoms (cartesian axes, Ry/au):

     atom    1 type  1   force =    -0.00000623   -0.00019478    0.09687998
     atom    2 type  1   force =    -0.00000948   -0.00055624   -0.17524868
     atom    3 type  2   force =     0.00010045   -0.00001522   -0.02520251
     atom    4 type  2   force =    -0.00003078   -0.00141206    0.05281368
     atom    5 type  2   force =    -0.01239816   -0.00103287    0.00323712
     atom    6 type  2   force =     0.01389053   -0.00053136    0.00283462
     atom    7 type  1   force =     0.00060268    0.00045099   -0.01145592
     atom    8 type  1   force =     0.00025373    0.01541094    0.02921813
     atom    9 type  2   force =    -0.00019436    0.00078427    0.00004498
     atom   10 type  2   force =    -0.00283476    0.00140731   -0.01827400
     atom   11 type  2   force =     0.00081262    0.00002374   -0.00002249
     atom   12 type  2   force =    -0.00061480   -0.00016344   -0.00010492
     atom   13 type  1   force =     0.00059890   -0.00030743   -0.00001213
     atom   14 type  1   force =    -0.00039956    0.00028763   -0.00008854
     atom   15 type  2   force =     0.00016106   -0.00014178    0.00072995
     atom   16 type  2   force =    -0.00015003    0.00008412    0.00046978
     atom   17 type  2   force =     0.00027041   -0.00060926   -0.00019368
     atom   18 type  2   force =    -0.00002741   -0.00063625    0.00008550
     atom   19 type  1   force =    -0.00007598   -0.00143020   -0.00029482
     atom   20 type  1   force =     0.00005565    0.00027490   -0.00005612
     atom   21 type  2   force =     0.00002874    0.00005352    0.10327562
     atom   22 type  2   force =    -0.00021238    0.00042864    0.00000603
     atom   23 type  2   force =    -0.07154062   -0.00009904   -0.02770509
     atom   24 type  2   force =     0.07141464    0.00038994   -0.02776582
     atom   25 type  1   force =     0.00005304   -0.00026195    0.09667488
     atom   26 type  1   force =     0.00003168   -0.00012315   -0.17542019
     atom   27 type  2   force =     0.00013125   -0.00012226   -0.02393758
     atom   28 type  2   force =    -0.00000507   -0.00118797    0.05300043
     atom   29 type  2   force =    -0.01259094    0.00056099    0.00299574
     atom   30 type  2   force =     0.01394763    0.00101975    0.00262258
     atom   31 type  1   force =     0.00052571    0.00341302   -0.01252814
     atom   32 type  1   force =     0.00028221   -0.01699282    0.02992185
     atom   33 type  2   force =    -0.00024520   -0.00052502   -0.00051429
     atom   34 type  2   force =    -0.00265483    0.00030799   -0.02243186
     atom   35 type  2   force =    -0.00005361   -0.00016693    0.00001914
     atom   36 type  2   force =     0.00001543   -0.00002123    0.00005343
     atom   37 type  1   force =     0.00028161   -0.00037704   -0.00056061
     atom   38 type  1   force =    -0.00022956    0.00040666    0.00022237
     atom   39 type  2   force =     0.00002513   -0.00039399    0.00033653
     atom   40 type  2   force =     0.00032557   -0.00051027   -0.00000488
     atom   41 type  2   force =    -0.00035878    0.00013681    0.00003337
     atom   42 type  2   force =     0.00050964    0.00030658   -0.00009273
     atom   43 type  1   force =    -0.00024006    0.00068872    0.00002657
     atom   44 type  1   force =     0.00030162   -0.00049662   -0.00015726
     atom   45 type  2   force =     0.00002610    0.00002400    0.10325622
     atom   46 type  2   force =    -0.07153663   -0.00000578   -0.02770002
     atom   47 type  2   force =     0.07138646    0.00039910   -0.02775870
     atom   48 type  3   force =     0.05305714   -0.00120918   -0.01987665
     atom   49 type  4   force =     0.00141609   -0.00039785   -0.00119654
     atom   50 type  5   force =    -0.00053120    0.00117852    0.00027110
     atom   51 type  5   force =    -0.00007230   -0.00046601    0.00041437
     atom   52 type  5   force =    -0.00021475    0.00070904    0.00005274
     atom   53 type  3   force =    -0.05327823    0.00164084    0.01910745

     Total force =     0.377444     Total SCF correction =     0.000742
  @ DRIVER MODE: Message from server: STATUS
  @ DRIVER MODE: Message from server: GETFORCE
  @ DRIVER MODE: Returning v,forces,stress,ensemble

     Writing output data file ./calc.save/
  @ DRIVER MODE: Message from server: EXIT
  @ DRIVE MODE: Exiting

     General routines

     Parallel routines

   This run was terminated on:  22:27:20   2Aug2021

   JOB DONE.