     Program PWSCF v.6.7GPU starts on 23Sep2021 at  7:43:23

     R & G space division:  proc/nbgrp/npool/nimage =      10
     Reading input from /storage/home/hcoda1/3/ntian30/research/carbon/CxH_vib/H2O_calc/ads_slab/CH2NHNHO_a/out_0048/pw.inp
Warning: card &CELL ignored
Warning: card   CELL_DYNAMICS='IPI', ignored
Warning: card / ignored

     Current dimensions of program PWSCF are:
     Max number of different atomic species (ntypx) = 10
     Max number of k-points (npk) =  40000
     Max angular momentum in pseudopotentials (lmaxx) =  3
     Presently no symmetry can be used with electric field

     Message from routine cell_base_init:
     DEPRECATED: use true lattice parameter, not A to a.u. conversion factor

     IMPORTANT: XC functional enforced from input :
     Exchange-correlation= BEEF-VDW
                           (   1   4  43  14   2   0   0)
     Any further DFT definition will be discarded
     Please, verify this is what you really want

  @ DRIVER MODE: Connecting to
 qe_1139763_2937322.sched-torque.pace.gatech.edu5fburdp8_scratch
  using UNIX socket
  @ DRIVER MODE: Message from server: STATUS
  @ DRIVER MODE: Message from server: INIT
  @ DRIVER MODE: Receiving replica           0          -1
  @ DRIVER MODE: Receiving encoded integer          25
  @ DRIVER MODE:  SCF:  T  FORCE:  T  STRESS:  F  VC:  F  ENSEMBLE:  F
  @ DRIVER MODE:  SCF:  T  FORCE:  T  STRESS:  F  VC:  F  ENSEMBLE:  F

     Using Slab Decomposition

     bravais-lattice index     =            0
     lattice parameter (alat)  =       1.8897  a.u.
     unit-cell volume          =    6658.9804 (a.u.)^3
     number of atoms/cell      =           55
     number of atomic types    =            5
     number of electrons       =       402.00
     number of Kohn-Sham states=          211
     kinetic-energy cutoff     =      29.3995  Ry
     charge density cutoff     =     293.9946  Ry
     scf convergence threshold =      7.3E-08
     mixing beta               =       0.0500
     number of iterations used =            8  plain     mixing
     Exchange-correlation= BEEF-VDW
                           (   1   4  43  14   2   0   0)

     celldm(1)=   1.889726  celldm(2)=   0.000000  celldm(3)=   0.000000
     celldm(4)=   0.000000  celldm(5)=   0.000000  celldm(6)=   0.000000

     crystal axes: (cart. coord. in units of alat)
               a(1) = (   6.579727   0.000000   0.000000 )
               a(2) = (  -0.000775   5.961596   0.000000 )
               a(3) = (   0.000000   0.000000  25.155947 )

     reciprocal axes: (cart. coord. in units 2 pi/alat)
               b(1) = (  0.151982  0.000020  0.000000 )
               b(2) = (  0.000000  0.167740  0.000000 )
               b(3) = (  0.000000  0.000000  0.039752 )

     PseudoPot. # 1 for Ti read from file:
     /storage/coda1/p-amedford6/0/shared/rich_project_chbe-medford/medford-share/data/pseudos_module/espresso/nninc/pbe/van/Ti.UPF
     MD5 check sum: 8e4df49b7f0d34bbd5052bf3f5ea0213
     Pseudo is Ultrasoft, Zval = 12.0
     Generated by new atomic code, or converted to UPF format
     Using radial grid of  851 points,  6 beta functions with:
                l(1) =   0
                l(2) =   0
                l(3) =   1
                l(4) =   1
                l(5) =   2
                l(6) =   2
     Q(r) pseudized with  8 coefficients,  rinner =    1.000   1.000   1.000
                                                       1.000   1.000

     PseudoPot. # 2 for O  read from file:
     /storage/coda1/p-amedford6/0/shared/rich_project_chbe-medford/medford-share/data/pseudos_module/espresso/nninc/pbe/van/O.UPF
     MD5 check sum: 78c19812648e8988a0fe644b0f25305e
     Pseudo is Ultrasoft, Zval =  6.0
     Generated by new atomic code, or converted to UPF format
     Using radial grid of  737 points,  4 beta functions with:
                l(1) =   0
                l(2) =   0
                l(3) =   1
                l(4) =   1
     Q(r) pseudized with  8 coefficients,  rinner =    0.800   0.800   0.800

     PseudoPot. # 3 for N  read from file:
     /storage/coda1/p-amedford6/0/shared/rich_project_chbe-medford/medford-share/data/pseudos_module/espresso/nninc/pbe/van/N.UPF
     MD5 check sum: 90d10febe142ad51ac9d5be1deb811c4
     Pseudo is Ultrasoft, Zval =  5.0
     Generated by new atomic code, or converted to UPF format
     Using radial grid of  729 points,  4 beta functions with:
                l(1) =   0
                l(2) =   0
                l(3) =   1
                l(4) =   1
     Q(r) pseudized with  8 coefficients,  rinner =    0.800   0.800   0.800

     PseudoPot. # 4 for C  read from file:
     /storage/coda1/p-amedford6/0/shared/rich_project_chbe-medford/medford-share/data/pseudos_module/espresso/nninc/pbe/van/C.UPF
     MD5 check sum: 1a69bf6b8db32088f5b2163dbdb77a27
     Pseudo is Ultrasoft, Zval =  4.0
     Generated by new atomic code, or converted to UPF format
     Using radial grid of  721 points,  4 beta functions with:
                l(1) =   0
                l(2) =   0
                l(3) =   1
                l(4) =   1
     Q(r) pseudized with  8 coefficients,  rinner =    0.800   0.800   0.800

     PseudoPot. # 5 for H  read from file:
     /storage/coda1/p-amedford6/0/shared/rich_project_chbe-medford/medford-share/data/pseudos_module/espresso/nninc/pbe/van/H.UPF
     MD5 check sum: b5ee9d7bfd3a09ee7748110bda690ff7
     Pseudo is Ultrasoft, Zval =  1.0
     Generated by new atomic code, or converted to UPF format
     Using radial grid of  615 points,  1 beta functions with:
                l(1) =   0
     Q(r) pseudized with  8 coefficients,  rinner =    0.800

     atomic species   valence    mass     pseudopotential
        Ti1           12.00    47.86700     Ti( 1.00)
        O1             6.00    15.99900     O ( 1.00)
        N1             5.00    14.00700     N ( 1.00)
        C1             4.00    12.01100     C ( 1.00)
        H1             1.00     1.00800     H ( 1.00)

     No symmetry found

   Cartesian axes

     site n.     atom                  positions (alat units)
         1           Ti1 tau(   1) = (   0.0004258   2.9801865   6.0000000  )
         2           Ti1 tau(   2) = (   3.2906075   1.4906267   6.0002472  )
         3           O1  tau(   3) = (   0.0006271   0.0005054   7.9858123  )
         4           O1  tau(   4) = (   3.2906025   0.0005020   7.3038282  )
         5           O1  tau(   5) = (   4.5942328   1.4918067   9.2879030  )
         6           O1  tau(   6) = (   1.9868534   1.4903216   9.2879459  )
         7           Ti1 tau(   7) = (   3.2907910   2.8959150   9.1758416  )
         8           Ti1 tau(   8) = (   0.0015273   1.4827037   9.2680791  )
         9           O1  tau(   9) = (   3.2865774   0.0244666  11.2672233  )
        10           O1  tau(  10) = (   0.0116148   5.9584955  10.6183126  )
        11           O1  tau(  11) = (   1.2851059   1.4881214  12.6284388  )
        12           O1  tau(  12) = (   5.2821296   1.4859116  12.6239949  )
        13           Ti1 tau(  13) = (   6.5757640   3.1226837  12.6583379  )
        14           Ti1 tau(  14) = (   3.2808560   1.5553189  12.4169499  )
        15           O1  tau(  15) = (   6.5631415   0.0020138  14.6662933  )
        16           O1  tau(  16) = (   3.2768600   5.9282172  13.8639556  )
        17           O1  tau(  17) = (   4.5247100   1.5609280  15.9911388  )
        18           O1  tau(  18) = (   2.0319249   1.5505618  16.0334288  )
        19           Ti1 tau(  19) = (   3.2655126   3.0139642  15.6417618  )
        20           Ti1 tau(  20) = (   6.4701730   1.5779936  15.7979382  )
        21           O1  tau(  21) = (   3.2904802   0.0005063   4.7018136  )
        22           O1  tau(  22) = (   6.5470303   0.0764028  17.2486596  )
        23           O1  tau(  23) = (   1.3043587   1.4918075   6.0039043  )
        24           O1  tau(  24) = (   5.2767064   1.4903225   6.0039473  )
        25           Ti1 tau(  25) = (   0.0000382   5.9609847   6.0000000  )
        26           Ti1 tau(  26) = (   3.2902200   4.4714249   6.0002472  )
        27           O1  tau(  27) = (   0.0002396   2.9813036   7.9858123  )
        28           O1  tau(  28) = (   3.2902150   2.9813002   7.3038282  )
        29           O1  tau(  29) = (   4.5938453   4.4726049   9.2879030  )
        30           O1  tau(  30) = (   1.9864658   4.4711199   9.2879459  )
        31           Ti1 tau(  31) = (   3.2891106   5.8743827   9.1763621  )
        32           Ti1 tau(  32) = (   0.0006254   4.4649316   9.2693709  )
        33           O1  tau(  33) = (   3.2856154   2.9374191  11.2445503  )
        34           O1  tau(  34) = (   0.0092240   2.9805883  10.6323155  )
        35           O1  tau(  35) = (   1.2776263   4.4762221  12.6158080  )
        36           O1  tau(  36) = (   5.2889682   4.4773653  12.6103441  )
        37           Ti1 tau(  37) = (   6.5721904   0.1276321  12.6579576  )
        38           Ti1 tau(  38) = (   3.2825792   4.6513186  12.6446142  )
        39           O1  tau(  39) = (   6.5601178   2.9984380  14.6401328  )
        40           O1  tau(  40) = (   3.2784952   3.0022753  13.8540846  )
        41           O1  tau(  41) = (   4.5130724   4.4679886  16.1105769  )
        42           O1  tau(  42) = (   2.0068779   4.4712703  16.0772645  )
        43           Ti1 tau(  43) = (   3.1879138   0.0422448  16.2953621  )
        44           Ti1 tau(  44) = (   6.5239028   4.6756254  16.1574449  )
        45           O1  tau(  45) = (   3.2900926   2.9813045   4.7018136  )
        46           O1  tau(  46) = (   1.3039711   4.4726057   6.0039043  )
        47           O1  tau(  47) = (   5.2763189   4.4711207   6.0039473  )
        48           N1  tau(  48) = (   0.1470516   2.5879757  18.5611170  )
        49           N1  tau(  49) = (   6.5778558   2.9357776  17.3215245  )
        50           C1  tau(  50) = (   0.2601206   3.3452726  19.6311682  )
        51           H1  tau(  51) = (   0.3627438   2.8498571  20.5812141  )
        52           H1  tau(  52) = (   0.2464683   4.4174571  19.5160682  )
        53           H1  tau(  53) = (   0.1772712   1.5612145  18.6921905  )
        54           O1  tau(  54) = (   3.2326362   0.0923429  18.1472848  )
        55           H1  tau(  55) = (   3.6209404   5.2806276  18.5911828  )

     number of k points=    10  Fermi-Dirac smearing, width (Ry)=  0.0073
                       cart. coord. in units 2pi/alat
        k(    1) = (   0.0000000   0.0000000   0.0000000), wk =   0.1250000
        k(    2) = (   0.0000000   0.0419351   0.0000000), wk =   0.2500000
        k(    3) = (   0.0000000  -0.0838702   0.0000000), wk =   0.1250000
        k(    4) = (   0.0379955   0.0000049   0.0000000), wk =   0.2500000
        k(    5) = (   0.0379955   0.0419400   0.0000000), wk =   0.2500000
        k(    6) = (   0.0379955  -0.0838652   0.0000000), wk =   0.2500000
        k(    7) = (   0.0379955  -0.0419301   0.0000000), wk =   0.2500000
        k(    8) = (  -0.0759910  -0.0000099   0.0000000), wk =   0.1250000
        k(    9) = (  -0.0759910   0.0419252   0.0000000), wk =   0.2500000
        k(   10) = (  -0.0759910  -0.0838800   0.0000000), wk =   0.1250000

     Initial potential from superposition of free atoms

     starting charge  385.99915, renormalised to  402.00000

     negative rho (up, down):  1.462E-02 0.000E+00

     %%%%%%%%%%%%%%%%%%%%%%%%%%%%%%%%%%%%%%%%%%%%%%%%%%%%%%%%%%%%%%%%%%%%%%%%
     %                                                                      %
     % You are using vdW-DF, which was implemented by the Thonhauser group. %
     % Please cite the following two papers that made this development      %
     % possible and the two reviews that describe the various versions:     %
     %                                                                      %
     %   T. Thonhauser et al., PRL 115, 136402 (2015).                      %
     %   T. Thonhauser et al., PRB 76, 125112 (2007).                       %
     %   K. Berland et al., Rep. Prog. Phys. 78, 066501 (2015).             %
     %   D.C. Langreth et al., J. Phys.: Condens. Matter 21, 084203 (2009). %
     %                                                                      %
     %                                                                      %
     % If you are calculating the stress with vdW-DF, please also cite:     %
     %                                                                      %
     %   R. Sabatini et al., J. Phys.: Condens. Matter 24, 424209 (2012).   %
     %                                                                      %
     %%%%%%%%%%%%%%%%%%%%%%%%%%%%%%%%%%%%%%%%%%%%%%%%%%%%%%%%%%%%%%%%%%%%%%%%

     Adding external electric field

     Computed dipole along edir(3) :
        Dipole              -11.6298 Ry au,        -29.5601 Debye
        Dipole field         -0.0219 Ry au,

        Potential amp.        2.0345 Ry
        Total length         46.3494 bohr

     Starting wfcs are  304 atomic wfcs
  @ DRIVER MODE: Message from server: STATUS
  @ DRIVER MODE: Message from server: POSDATA
  @ DRIVER MODE: Reading and sharing cell
  @ DRIVER MODE: Reading and sharing positions
  @ DRIVER MODE: Received positions

     Self-consistent Calculation

     iteration #  1     ecut=    29.40 Ry     beta= 0.05
     Davidson diagonalization with overlap
     c_bands:  3 eigenvalues not converged
     c_bands:  2 eigenvalues not converged
     c_bands:  3 eigenvalues not converged
     c_bands:  4 eigenvalues not converged
     c_bands:  1 eigenvalues not converged
     c_bands:  4 eigenvalues not converged
     c_bands:  5 eigenvalues not converged
     c_bands:  5 eigenvalues not converged
     c_bands:  5 eigenvalues not converged
     ethr =  1.00E-05,  avg # of iterations = 23.9

[...]

     total energy              =   -2412.17155047 Ry
     estimated scf accuracy    <    6293.22011076 Ry

     iteration #  2     ecut=    29.40 Ry     beta= 0.05
     Davidson diagonalization with overlap
     ethr =  1.00E-02,  avg # of iterations = 23.2

[...]

     iteration # 44     ecut=    29.40 Ry     beta= 0.05
     Davidson diagonalization with overlap
     c_bands:  1 eigenvalues not converged
     ethr =  5.00E-07,  avg # of iterations = 11.3

[...]

     total energy              =   -2972.74109296 Ry
     estimated scf accuracy    <       0.00000009 Ry

     iteration # 67     ecut=    29.40 Ry     beta= 0.05
     Davidson diagonalization with overlap
     ethr =  2.23E-11,  avg # of iterations =  5.0

     negative rho (up, down):  1.521E-02 0.000E+00

     Adding external electric field

     Computed dipole along edir(3) :
        Dipole                0.6683 Ry au,          1.6987 Debye
        Dipole field          0.0013 Ry au,

        Potential amp.       -0.1169 Ry
        Total length         46.3494 bohr

     End of self-consistent calculation

          k = 0.0000 0.0000 0.0000 ( 18029 PWs)   bands (ev):

   -56.4987 -56.4651 -55.6991 -55.6650 -55.4400 -55.3836 -55.1377 -55.1057
   -55.0870 -55.0532 -55.0324 -54.9814 -54.9772 -54.7853 -54.7525 -54.6401
   -32.9224 -32.7763 -32.7483 -32.6725 -32.5819 -32.5489 -32.1824 -31.9211
   -31.9203 -31.8904 -31.8391 -31.8346 -31.8149 -31.6692 -31.6611 -31.6140
   -31.5900 -31.5862 -31.5443 -31.5116 -31.4735 -31.4591 -31.4319 -31.4076
   -31.3712 -31.3701 -31.3664 -31.3551 -31.3036 -31.2938 -31.2709 -31.2477
   -31.2293 -31.2136 -31.2121 -31.2005 -31.1812 -31.1705 -31.1550 -31.1004
   -31.0452 -31.0247 -30.9955 -30.9836 -30.9682 -30.9169 -30.8550 -30.8307
   -18.6481 -16.6333 -16.1265 -16.0472 -15.8358 -15.7734 -15.7177 -15.7136
   -15.6677 -15.4270 -15.3892 -15.3553 -15.3123 -15.2155 -15.0854 -14.9887
   -14.7971 -14.7429 -14.7409 -14.7110 -14.6861 -14.6537 -14.6278 -14.5969
   -14.5921 -14.5593 -14.5043 -14.3324 -14.2662 -14.0576 -14.0428 -13.5849
   -13.4770 -12.4093  -8.5608  -6.0044  -4.5873  -4.1995  -3.6350  -3.6061
    -3.4286  -3.3419  -3.2479  -3.1659  -3.0689  -3.0401  -2.9607  -2.9208
    -2.9044  -2.8375  -2.8159  -2.6533  -2.6269  -2.6082  -2.5195  -2.4914
    -2.3289  -2.3046  -2.2225  -2.1494  -2.1294  -2.0723  -2.0595  -1.9992
    -1.9472  -1.9301  -1.8640  -1.8579  -1.8429  -1.7299  -1.7151  -1.6787
    -1.6309  -1.5702  -1.5590  -1.5056  -1.4210  -1.4076  -1.2742  -1.1908
    -1.1467  -1.1416  -1.1054  -1.0628  -1.0156  -0.8817  -0.8713  -0.7613
    -0.7415  -0.7397  -0.6720  -0.5753  -0.5539  -0.5213  -0.4448  -0.4095
    -0.3661  -0.3143  -0.2614  -0.1390  -0.1315  -0.1150  -0.0707  -0.0285
    -0.0134   0.0617   0.1524   0.1691   0.2749   0.2922   0.3388   0.4327
     0.5128   0.5230   0.5433   0.6045   0.6467   0.6809   0.7555   0.7744
     0.8150   0.8278   0.8763   0.9345   0.9623   1.0630   1.1100   1.1293
     1.1633   1.2107   1.2898   1.3736   1.4694   1.5111   1.5423   1.8132
     2.3287   2.7841   2.9468   3.2243   3.3358   3.6466   3.7713   3.7722
     3.7827   3.9863   4.1352

[...]

          k = 0.0380-0.0419 0.0000 ( 17876 PWs)   bands (ev):

[...]

          k =-0.0760-0.0000 0.0000 ( 17886 PWs)   bands (ev):

[...]

          k =-0.0760-0.0839 0.0000 ( 17948 PWs)   bands (ev):

   -56.4821 -56.4816 -55.6850 -55.6789 -55.4343 -55.3892 -55.1365 -55.1013
   -55.0702 -55.0698 -55.0366 -54.9804 -54.9779 -54.7866 -54.7503 -54.6422
   -32.7623 -32.7618 -32.7397 -32.7392 -32.6260 -32.6255 -32.0049 -32.0001
   -31.8798 -31.8743 -31.8693 -31.8594 -31.7416 -31.7067 -31.6626 -31.6557
   -31.6156 -31.6118 -31.4428 -31.4335 -31.4207 -31.4205 -31.3809 -31.3757
   -31.3600 -31.3522 -31.3392 -31.3200 -31.2985 -31.2919 -31.2911 -31.2730
   -31.2535 -31.2533 -31.2520 -31.2380 -31.2197 -31.1848 -31.1773 -31.1474
   -31.1327 -31.0490 -31.0047 -30.9996 -30.9847 -30.9468 -30.8697 -30.8571
   -18.6445 -16.0367 -16.0024 -15.9997 -15.9394 -15.9377 -15.7049 -15.7010
   -15.4651 -15.4369 -15.2785 -15.1855 -15.1677 -15.1058 -15.0677 -15.0156
   -14.9611 -14.9320 -14.8212 -14.7836 -14.7523 -14.7148 -14.6876 -14.6678
   -14.6079 -14.5715 -14.5471 -14.4483 -14.4248 -14.1901 -14.1813 -13.5812
   -13.5809 -12.4141  -8.5634  -5.9993  -4.5441  -3.6570  -3.3331  -3.0697
    -3.0655  -3.0599  -3.0549  -3.0125  -2.8156  -2.8121  -2.6588  -2.6254
    -2.6136  -2.5882  -2.5573  -2.4537  -2.3773  -2.3606  -2.3590  -2.3549
    -2.3057  -2.2976  -2.2463  -2.1680  -2.1050  -2.0962  -2.0623  -2.0008
    -1.9416  -1.8932  -1.8887  -1.8509  -1.8278  -1.7965  -1.7773  -1.7553
    -1.7106  -1.6272  -1.5034  -1.4277  -1.3963  -1.3791  -1.3410  -1.2939
    -1.2810  -1.2690  -1.2173  -1.2025  -1.1381  -1.1085  -1.0677  -0.9717
    -0.9117  -0.8805  -0.8561  -0.7514  -0.7119  -0.6374  -0.5927  -0.5580
    -0.5222  -0.4991  -0.4376  -0.4259  -0.3436  -0.2760  -0.2482  -0.1934
    -0.1798  -0.1675  -0.1500  -0.1043   0.0006   0.0159   0.0496   0.1479
     0.2127   0.2842   0.3032   0.3938   0.4229   0.4932   0.6086   0.6475
     0.7162   0.7806   0.8540   0.9388   0.9873   1.0325   1.1382   1.2229
     1.2381   1.2854   1.3123   1.3172   1.3185   1.3714   1.3916   1.5198
     2.1651   3.3675   3.3692   3.4261   3.4308   3.7305   3.7358   3.8418
     3.8453   4.0954   4.1166

     the Fermi energy is     2.5951 ev

!    total energy              =   -2972.74111904 Ry
     estimated scf accuracy    <       0.00000004 Ry
     smearing contrib. (-TS)   =      -0.00419092 Ry
     internal energy E=F+TS    =   -2972.73692811 Ry

     The total energy is F=E-TS. E is the sum of the following terms:
     one-electron contribution =  -23699.50206032 Ry
     hartree contribution      =   11945.07423963 Ry
     xc contribution           =    -493.11756177 Ry
     ewald contribution        =    9274.80761148 Ry
     electric field correction =       0.00084286 Ry

     convergence has been achieved in  67 iterations

     Forces acting on atoms (cartesian axes, Ry/au):

     atom    1 type  1   force =     0.00016497   -0.00043148    0.12200561
     atom    2 type  1   force =    -0.00003931    0.00028431   -0.15636502
     atom    3 type  2   force =     0.00004740   -0.00048233   -0.06054451
     atom    4 type  2   force =     0.00005168    0.00071505    0.01971781
     atom    5 type  2   force =    -0.00084629   -0.00259939   -0.01520266
     atom    6 type  2   force =     0.00219939   -0.00198372   -0.01656109
     atom    7 type  1   force =    -0.00030082   -0.00090659    0.05415546
     atom    8 type  1   force =     0.00082074    0.00107944    0.09007848
     atom    9 type  2   force =    -0.00035851   -0.00028153    0.00005543
     atom   10 type  2   force =    -0.00296118    0.00316443   -0.05931873
     atom   11 type  2   force =    -0.00026440    0.00018603    0.00004154
     atom   12 type  2   force =    -0.00021828    0.00013710   -0.00038820
     atom   13 type  1   force =    -0.00052640    0.00039912    0.00036910
     atom   14 type  1   force =     0.00006673    0.00144195   -0.00108296
     atom   15 type  2   force =    -0.00001633   -0.00064300   -0.00147623
     atom   16 type  2   force =     0.00011315    0.00069506    0.00056067
     atom   17 type  2   force =    -0.00081146   -0.00043700   -0.00010514
     atom   18 type  2   force =     0.00038773    0.00015601   -0.00032979
     atom   19 type  1   force =     0.00007045    0.00131990   -0.00002219
     atom   20 type  1   force =     0.00009640    0.00041472    0.00030194
     atom   21 type  2   force =     0.00009262   -0.00002752    0.09827435
     atom   22 type  2   force =     0.00037210   -0.00045910    0.00028024
     atom   23 type  2   force =    -0.08163916   -0.00004938   -0.03247819
     atom   24 type  2   force =     0.08162500    0.00036750   -0.03250939
     atom   25 type  1   force =     0.00002753   -0.00029408    0.12169234
     atom   26 type  1   force =     0.00003258   -0.00154841   -0.15639579
     atom   27 type  2   force =     0.00012925    0.00020915   -0.05950780
     atom   28 type  2   force =     0.00005489    0.00039009    0.01458251
     atom   29 type  2   force =    -0.00455541    0.00218000   -0.01163397
     atom   30 type  2   force =     0.00588788    0.00262615   -0.01294144
     atom   31 type  1   force =    -0.00043967   -0.00213963    0.04015456
     atom   32 type  1   force =     0.00078849   -0.00225325    0.09110047
     atom   33 type  2   force =    -0.00012444    0.00038403    0.00006904
     atom   34 type  2   force =    -0.00234980    0.00049188   -0.06883538
     atom   35 type  2   force =    -0.00023202    0.00005942    0.00025807
     atom   36 type  2   force =     0.00060942   -0.00026680    0.00002005
     atom   37 type  1   force =    -0.00002866    0.00021257   -0.00068804
     atom   38 type  1   force =     0.00013570    0.00101506   -0.00046537
     atom   39 type  2   force =    -0.00048655   -0.00121228    0.00039734
     atom   40 type  2   force =    -0.00001613    0.00044561   -0.00017647
     atom   41 type  2   force =     0.00083096   -0.00046895   -0.00012989
     atom   42 type  2   force =    -0.00061169   -0.00068796   -0.00074802
     atom   43 type  1   force =     0.00004557   -0.00170018    0.00060330
     atom   44 type  1   force =    -0.00018962   -0.00062368    0.00051603
     atom   45 type  2   force =     0.00009535    0.00008413    0.09807688
     atom   46 type  2   force =    -0.08159228   -0.00002848   -0.03247204
     atom   47 type  2   force =     0.08157955    0.00041235   -0.03249014
     atom   48 type  3   force =     0.00017985    0.00011937    0.00018910
     atom   49 type  3   force =    -0.00020137   -0.00147460    0.00045270
     atom   50 type  4   force =     0.00033672    0.00006964   -0.00001273
     atom   51 type  5   force =     0.00070862    0.00033140   -0.00060421
     atom   52 type  5   force =     0.00055282   -0.00101905   -0.00011110
     atom   53 type  5   force =     0.00002983    0.00128734    0.00005420
     atom   54 type  2   force =     0.00284811   -0.00559850    0.00333062
     atom   55 type  5   force =    -0.00217170    0.00693809   -0.00374137

     Total force =     0.408468     Total SCF correction =     0.000472
  @ DRIVER MODE: Message from server: STATUS
  @ DRIVER MODE: Message from server: GETFORCE
  @ DRIVER MODE: Returning v,forces,stress,ensemble

     Writing output data file ./calc.save/
  @ DRIVER MODE: Message from server: EXIT
  @ DRIVE MODE: Exiting

     General routines

     Parallel routines

   This run was terminated on:   8: 1:27  23Sep2021

   JOB DONE.