     Program PWSCF v.6.7GPU starts on  9Sep2021 at 10:16:51

     R & G space division:  proc/nbgrp/npool/nimage =      10
     Reading input from /storage/home/hcoda1/3/ntian30/research/carbon/CxH_vib/CH3_calc/ads_slab/CH3NNHHH_a/out_0037/pw.inp
Warning: card &CELL ignored
Warning: card   CELL_DYNAMICS='IPI', ignored
Warning: card / ignored

     Current dimensions of program PWSCF are:
     Max number of different atomic species (ntypx) = 10
     Max number of k-points (npk) =  40000
     Max angular momentum in pseudopotentials (lmaxx) =  3
     Presently no symmetry can be used with electric field

     Message from routine cell_base_init:
     DEPRECATED: use true lattice parameter, not A to a.u. conversion factor

     IMPORTANT: XC functional enforced from input :
     Exchange-correlation= BEEF-VDW
                           (   1   4  43  14   2   0   0)
     Any further DFT definition will be discarded
     Please, verify this is what you really want

  @ DRIVER MODE: Connecting to
 qe_1139763_2767399.sched-torque.pace.gatech.edu9niciiyk_scratch
  using UNIX socket
  @ DRIVER MODE: Message from server: STATUS
  @ DRIVER MODE: Message from server: INIT
  @ DRIVER MODE: Receiving replica           0          -1
  @ DRIVER MODE: Receiving encoded integer          25
  @ DRIVER MODE:  SCF:  T  FORCE:  T  STRESS:  F  VC:  F  ENSEMBLE:  F
  @ DRIVER MODE:  SCF:  T  FORCE:  T  STRESS:  F  VC:  F  ENSEMBLE:  F

     Using Slab Decomposition

     bravais-lattice index     =            0
     lattice parameter (alat)  =       1.8897  a.u.
     unit-cell volume          =    6658.9804 (a.u.)^3
     number of atoms/cell      =           56
     number of atomic types    =            5
     number of electrons       =       398.00
     number of Kohn-Sham states=          209
     kinetic-energy cutoff     =      29.3995  Ry
     charge density cutoff     =     293.9946  Ry
     scf convergence threshold =      7.3E-08
     mixing beta               =       0.0500
     number of iterations used =            8  plain     mixing
     Exchange-correlation= BEEF-VDW
                           (   1   4  43  14   2   0   0)

     celldm(1)=   1.889726  celldm(2)=   0.000000  celldm(3)=   0.000000
     celldm(4)=   0.000000  celldm(5)=   0.000000  celldm(6)=   0.000000

     crystal axes: (cart. coord. in units of alat)
               a(1) = (   6.579727   0.000000   0.000000 )
               a(2) = (  -0.000775   5.961596   0.000000 )
               a(3) = (   0.000000   0.000000  25.155947 )

     reciprocal axes: (cart. coord. in units 2 pi/alat)
               b(1) = (  0.151982  0.000020  0.000000 )
               b(2) = (  0.000000  0.167740  0.000000 )
               b(3) = (  0.000000  0.000000  0.039752 )

     PseudoPot. # 1 for Ti read from file:
     /storage/coda1/p-amedford6/0/shared/rich_project_chbe-medford/medford-share/data/pseudos_module/espresso/nninc/pbe/van/Ti.UPF
     MD5 check sum: 8e4df49b7f0d34bbd5052bf3f5ea0213
     Pseudo is Ultrasoft, Zval = 12.0
     Generated by new atomic code, or converted to UPF format
     Using radial grid of  851 points,  6 beta functions with:
                l(1) =   0
                l(2) =   0
                l(3) =   1
                l(4) =   1
                l(5) =   2
                l(6) =   2
     Q(r) pseudized with  8 coefficients,  rinner =    1.000   1.000   1.000
                                                       1.000   1.000

     PseudoPot. # 2 for O  read from file:
     /storage/coda1/p-amedford6/0/shared/rich_project_chbe-medford/medford-share/data/pseudos_module/espresso/nninc/pbe/van/O.UPF
     MD5 check sum: 78c19812648e8988a0fe644b0f25305e
     Pseudo is Ultrasoft, Zval =  6.0
     Generated by new atomic code, or converted to UPF format
     Using radial grid of  737 points,  4 beta functions with:
                l(1) =   0
                l(2) =   0
                l(3) =   1
                l(4) =   1
     Q(r) pseudized with  8 coefficients,  rinner =    0.800   0.800   0.800

     PseudoPot. # 3 for N  read from file:
     /storage/coda1/p-amedford6/0/shared/rich_project_chbe-medford/medford-share/data/pseudos_module/espresso/nninc/pbe/van/N.UPF
     MD5 check sum: 90d10febe142ad51ac9d5be1deb811c4
     Pseudo is Ultrasoft, Zval =  5.0
     Generated by new atomic code, or converted to UPF format
     Using radial grid of  729 points,  4 beta functions with:
                l(1) =   0
                l(2) =   0
                l(3) =   1
                l(4) =   1
     Q(r) pseudized with  8 coefficients,  rinner =    0.800   0.800   0.800

     PseudoPot. # 4 for C  read from file:
     /storage/coda1/p-amedford6/0/shared/rich_project_chbe-medford/medford-share/data/pseudos_module/espresso/nninc/pbe/van/C.UPF
     MD5 check sum: 1a69bf6b8db32088f5b2163dbdb77a27
     Pseudo is Ultrasoft, Zval =  4.0
     Generated by new atomic code, or converted to UPF format
     Using radial grid of  721 points,  4 beta functions with:
                l(1) =   0
                l(2) =   0
                l(3) =   1
                l(4) =   1
     Q(r) pseudized with  8 coefficients,  rinner =    0.800   0.800   0.800

     PseudoPot. # 5 for H  read from file:
     /storage/coda1/p-amedford6/0/shared/rich_project_chbe-medford/medford-share/data/pseudos_module/espresso/nninc/pbe/van/H.UPF
     MD5 check sum: b5ee9d7bfd3a09ee7748110bda690ff7
     Pseudo is Ultrasoft, Zval =  1.0
     Generated by new atomic code, or converted to UPF format
     Using radial grid of  615 points,  1 beta functions with:
                l(1) =   0
     Q(r) pseudized with  8 coefficients,  rinner =    0.800

     atomic species   valence    mass     pseudopotential
        Ti1           12.00    47.86700     Ti( 1.00)
        O1             6.00    15.99900     O ( 1.00)
        N1             5.00    14.00700     N ( 1.00)
        C1             4.00    12.01100     C ( 1.00)
        H1             1.00     1.00800     H ( 1.00)

     No symmetry found

   Cartesian axes

     site n.     atom                  positions (alat units)
         1           Ti1 tau(   1) = (   0.0004258   2.9801865   6.0000000  )
         2           Ti1 tau(   2) = (   3.2906075   1.4906267   6.0002472  )
         3           O1  tau(   3) = (   0.0006271   0.0005054   7.9858123  )
         4           O1  tau(   4) = (   3.2906025   0.0005020   7.3038282  )
         5           O1  tau(   5) = (   4.5942328   1.4918067   9.2879030  )
         6           O1  tau(   6) = (   1.9868534   1.4903216   9.2879459  )
         7           Ti1 tau(   7) = (   3.2907910   2.8959150   9.1758416  )
         8           Ti1 tau(   8) = (   0.0015273   1.4827037   9.2680791  )
         9           O1  tau(   9) = (   3.3120675   0.0079458  11.3762204  )
        10           O1  tau(  10) = (   0.0116148   5.9584955  10.6183126  )
        11           O1  tau(  11) = (   1.3148726   1.5133626  12.6447579  )
        12           O1  tau(  12) = (   5.3140862   1.5122126  12.6508301  )
        13           Ti1 tau(  13) = (   0.0289753   2.9995974  12.5105963  )
        14           Ti1 tau(  14) = (   3.3300932   1.5144954  12.5190352  )
        15           O1  tau(  15) = (   0.0303621   0.0967028  14.6836000  )
        16           O1  tau(  16) = (   3.3188409   0.0235386  14.0025835  )
        17           O1  tau(  17) = (   4.5661268   1.5053193  16.2317874  )
        18           O1  tau(  18) = (   2.0488868   1.5039614  16.2002260  )
        19           Ti1 tau(  19) = (   3.3211226   2.9745325  15.7560014  )
        20           Ti1 tau(  20) = (   0.0641794   1.4487855  16.0607878  )
        21           O1  tau(  21) = (   3.2904802   0.0005063   4.7018136  )
        22           O1  tau(  22) = (   0.0207051   5.8381987  17.2232637  )
        23           O1  tau(  23) = (   1.3043587   1.4918075   6.0039043  )
        24           O1  tau(  24) = (   5.2767064   1.4903225   6.0039473  )
        25           Ti1 tau(  25) = (   0.0000382   5.9609847   6.0000000  )
        26           Ti1 tau(  26) = (   3.2902200   4.4714249   6.0002472  )
        27           O1  tau(  27) = (   0.0002396   2.9813036   7.9858123  )
        28           O1  tau(  28) = (   3.2902150   2.9813002   7.3038282  )
        29           O1  tau(  29) = (   4.5938453   4.4726049   9.2879030  )
        30           O1  tau(  30) = (   1.9864658   4.4711199   9.2879459  )
        31           Ti1 tau(  31) = (   3.2891106   5.8743827   9.1763621  )
        32           Ti1 tau(  32) = (   0.0006254   4.4649316   9.2693709  )
        33           O1  tau(  33) = (   3.3137607   3.0039157  11.3695003  )
        34           O1  tau(  34) = (   0.0092240   2.9805883  10.6323155  )
        35           O1  tau(  35) = (   1.3103219   4.4840529  12.6837359  )
        36           O1  tau(  36) = (   5.3166572   4.4842854  12.6901167  )
        37           Ti1 tau(  37) = (   0.0376818   0.0300362  12.4998423  )
        38           Ti1 tau(  38) = (   3.3279277   4.4933691  12.5326681  )
        39           O1  tau(  39) = (   0.0236785   2.9473731  14.9547601  )
        40           O1  tau(  40) = (   3.3158584   2.9778716  13.9675922  )
        41           O1  tau(  41) = (   4.5769684   4.4551829  16.1482216  )
        42           O1  tau(  42) = (   2.0574928   4.4544973  16.1629196  )
        43           Ti1 tau(  43) = (   3.3270828   0.0048838  15.7999907  )
        44           Ti1 tau(  44) = (   0.0216784   4.6657176  15.8371636  )
        45           O1  tau(  45) = (   3.2900926   2.9813045   4.7018136  )
        46           O1  tau(  46) = (   1.3039711   4.4726057   6.0039043  )
        47           O1  tau(  47) = (   5.2763189   4.4711207   6.0039473  )
        48           N1  tau(  48) = (   1.0300599   3.1028741  18.8625222  )
        49           N1  tau(  49) = (   6.4529598   2.6395754  18.1308714  )
        50           C1  tau(  50) = (   0.6566364   3.8075245  20.0867497  )
        51           H1  tau(  51) = (   6.5334193   4.6337433  19.9095685  )
        52           H1  tau(  52) = (   0.2127083   3.1054723  20.7945791  )
        53           H1  tau(  53) = (   1.5644534   4.2160081  20.5287796  )
        54           H1  tau(  54) = (   5.6812064   3.3271340  18.1715891  )
        55           H1  tau(  55) = (   6.1153184   1.7991689  18.5966666  )
        56           H1  tau(  56) = (   1.4989484   3.7555826  18.2384742  )

     number of k points=    10  Fermi-Dirac smearing, width (Ry)=  0.0073
                       cart. coord. in units 2pi/alat
        k(    1) = (   0.0000000   0.0000000   0.0000000), wk =   0.1250000
        k(    2) = (   0.0000000   0.0419351   0.0000000), wk =   0.2500000
        k(    3) = (   0.0000000  -0.0838702   0.0000000), wk =   0.1250000
        k(    4) = (   0.0379955   0.0000049   0.0000000), wk =   0.2500000
        k(    5) = (   0.0379955   0.0419400   0.0000000), wk =   0.2500000
        k(    6) = (   0.0379955  -0.0838652   0.0000000), wk =   0.2500000
        k(    7) = (   0.0379955  -0.0419301   0.0000000), wk =   0.2500000
        k(    8) = (  -0.0759910  -0.0000099   0.0000000), wk =   0.1250000
        k(    9) = (  -0.0759910   0.0419252   0.0000000), wk =   0.2500000
        k(   10) = (  -0.0759910  -0.0838800   0.0000000), wk =   0.1250000

     Initial potential from superposition of free atoms

     starting charge  381.99914, renormalised to  398.00000

     negative rho (up, down):  1.340E-02 0.000E+00

     %%%%%%%%%%%%%%%%%%%%%%%%%%%%%%%%%%%%%%%%%%%%%%%%%%%%%%%%%%%%%%%%%%%%%%%%
     %                                                                      %
     % You are using vdW-DF, which was implemented by the Thonhauser group. %
     % Please cite the following two papers that made this development      %
     % possible and the two reviews that describe the various versions:     %
     %                                                                      %
     %   T. Thonhauser et al., PRL 115, 136402 (2015).                      %
     %   T. Thonhauser et al., PRB 76, 125112 (2007).                       %
     %   K. Berland et al., Rep. Prog. Phys. 78, 066501 (2015).             %
     %   D.C. Langreth et al., J. Phys.: Condens. Matter 21, 084203 (2009). %
     %                                                                      %
     %                                                                      %
     % If you are calculating the stress with vdW-DF, please also cite:     %
     %                                                                      %
     %   R. Sabatini et al., J. Phys.: Condens. Matter 24, 424209 (2012).   %
     %                                                                      %
     %%%%%%%%%%%%%%%%%%%%%%%%%%%%%%%%%%%%%%%%%%%%%%%%%%%%%%%%%%%%%%%%%%%%%%%%

     Adding external electric field

     Computed dipole along edir(3) :
        Dipole              -11.7464 Ry au,        -29.8564 Debye
        Dipole field         -0.0222 Ry au,

        Potential amp.        2.0549 Ry
        Total length         46.3494 bohr

     Starting wfcs are  302 atomic wfcs
  @ DRIVER MODE: Message from server: STATUS
  @ DRIVER MODE: Message from server: POSDATA
  @ DRIVER MODE: Reading and sharing cell
  @ DRIVER MODE: Reading and sharing positions
  @ DRIVER MODE: Received positions

     Self-consistent Calculation

     iteration #  1     ecut=    29.40 Ry     beta= 0.05
     Davidson diagonalization with overlap
     c_bands:  1 eigenvalues not converged
     c_bands:  1 eigenvalues not converged
     c_bands:  1 eigenvalues not converged
     c_bands:  3 eigenvalues not converged
     c_bands:  3 eigenvalues not converged
     c_bands:  3 eigenvalues not converged
     c_bands:  3 eigenvalues not converged
     c_bands:  2 eigenvalues not converged
     ethr =  1.00E-05,  avg # of iterations = 21.6

[...]

     total energy              =   -2428.10531759 Ry
     estimated scf accuracy    <    5789.73932284 Ry

     iteration #  2     ecut=    29.40 Ry     beta= 0.05
     Davidson diagonalization with overlap
     ethr =  1.00E-02,  avg # of iterations = 22.3

[...]

     iteration # 77     ecut=    29.40 Ry     beta= 0.05
     Davidson diagonalization with overlap
     c_bands:  2 eigenvalues not converged
     c_bands:  1 eigenvalues not converged
     ethr =  7.23E-11,  avg # of iterations = 13.8

[...]

     total energy              =   -2942.85969306 Ry
     estimated scf accuracy    <       0.00000024 Ry

     iteration # 78     ecut=    29.40 Ry     beta= 0.05
     Davidson diagonalization with overlap
     ethr =  6.00E-11,  avg # of iterations =  9.0

     negative rho (up, down):  1.464E-02 0.000E+00

     Adding external electric field

     Computed dipole along edir(3) :
        Dipole                1.2232 Ry au,          3.1089 Debye
        Dipole field          0.0023 Ry au,

        Potential amp.       -0.2140 Ry
        Total length         46.3494 bohr

     End of self-consistent calculation

          k = 0.0000 0.0000 0.0000 ( 18029 PWs)   bands (ev):

   -55.3482 -55.3112 -55.3002 -55.2691 -55.2661 -55.2321 -55.2249 -55.1896
   -55.1685 -55.1446 -55.1340 -55.1321 -55.0984 -55.0261 -54.3300 -54.2960
   -31.9166 -31.8008 -31.7927 -31.7135 -31.6639 -31.6578 -31.6511 -31.6377
   -31.5895 -31.5889 -31.5577 -31.5523 -31.5453 -31.5292 -31.5181 -31.5105
   -31.5034 -31.4882 -31.4856 -31.4657 -31.4528 -31.4450 -31.4181 -31.4141
   -31.4030 -31.4005 -31.3994 -31.3712 -31.3574 -31.3555 -31.3505 -31.3310
   -31.3278 -31.3195 -31.3185 -31.3162 -31.2822 -31.2681 -31.2604 -31.2434
   -31.2325 -31.2078 -30.7395 -30.6451 -30.6231 -30.5557 -30.4690 -30.3582
   -17.7853 -16.1844 -15.9168 -15.7768 -15.6670 -15.5479 -15.4294 -15.4100
   -15.2779 -15.1950 -15.0749 -15.0519 -15.0256 -15.0068 -14.9941 -14.9793
   -14.8937 -14.8876 -14.8703 -14.8428 -14.8365 -14.7938 -14.7864 -14.7468
   -14.7254 -14.7238 -14.5955 -14.5078 -14.4359 -14.1992 -13.1664 -12.8327
   -12.7153  -9.7309  -6.3371  -5.3876  -4.8856  -3.5362  -3.4940  -3.3682
    -3.2779  -3.2630  -3.2411  -3.1050  -2.9517  -2.7816  -2.7694  -2.7551
    -2.6382  -2.5605  -2.5543  -2.5295  -2.3780  -2.3565  -2.3054  -2.2401
    -2.2123  -2.1644  -2.1534  -2.1322  -2.1128  -2.0929  -2.0846  -1.9703
    -1.9198  -1.8271  -1.7712  -1.7440  -1.7083  -1.6804  -1.6652  -1.6380
    -1.6298  -1.5874  -1.5605  -1.5386  -1.4873  -1.3753  -1.2665  -1.2362
    -1.1389  -0.9867  -0.9524  -0.9406  -0.9293  -0.8527  -0.8356  -0.7874
    -0.7343  -0.7265  -0.6957  -0.5850  -0.5265  -0.4615  -0.3949  -0.3829
    -0.3364  -0.2747  -0.1620  -0.1381  -0.1155  -0.0902   0.0031   0.0427
     0.0876   0.1625   0.1818   0.1954   0.3022   0.3101   0.3899   0.4020
     0.4479   0.5342   0.5685   0.5908   0.5946   0.6082   0.6382   0.7053
     0.7295   0.7558   0.8309   0.9546   1.0202   1.1869   1.2499   1.2635
     1.5932   1.5974   1.6926   1.8764   2.2688   2.3170   3.7492   3.8187
     3.8937   3.9003   3.9122   3.9860   4.2232   4.2394   4.2519   4.2581
     4.2928

[...]

          k = 0.0380-0.0419 0.0000 ( 17876 PWs)   bands (ev):

[...]

          k =-0.0760-0.0000 0.0000 ( 17886 PWs)   bands (ev):

[...]

          k =-0.0760-0.0839 0.0000 ( 17948 PWs)   bands (ev):

   -55.3339 -55.3252 -55.2832 -55.2830 -55.2676 -55.2287 -55.2113 -55.2032
   -55.1529 -55.1490 -55.1479 -55.1156 -55.1151 -55.0273 -54.3130 -54.3129
   -31.7238 -31.7209 -31.7173 -31.6337 -31.6079 -31.6077 -31.6052 -31.5747
   -31.5746 -31.5565 -31.5492 -31.5467 -31.5407 -31.5107 -31.5039 -31.4858
   -31.4855 -31.4815 -31.4783 -31.4729 -31.4698 -31.4691 -31.4319 -31.4270
   -31.4249 -31.4200 -31.4159 -31.4046 -31.4029 -31.4027 -31.3961 -31.3865
   -31.3822 -31.3660 -31.3624 -31.3467 -31.3458 -31.3364 -31.2964 -31.2962
   -31.2857 -31.2372 -30.6358 -30.6357 -30.5520 -30.5519 -30.5124 -30.5123
   -17.7805 -15.7077 -15.5958 -15.5497 -15.3764 -15.3541 -15.3316 -15.3169
   -15.1889 -15.1706 -15.1425 -15.1161 -15.0911 -15.0635 -15.0522 -15.0473
   -14.9649 -14.9530 -14.9455 -14.9294 -14.8614 -14.8585 -14.8542 -14.8483
   -14.7975 -14.7950 -14.7143 -14.7012 -14.6997 -14.5013 -13.1674 -12.8168
   -12.8168  -9.7273  -6.3249  -5.3873  -4.8912  -3.4658  -2.8644  -2.8289
    -2.8055  -2.7853  -2.5920  -2.5539  -2.5169  -2.5045  -2.4053  -2.3632
    -2.3456  -2.3383  -2.2678  -2.2644  -2.2336  -2.2036  -2.1826  -2.1655
    -2.1517  -2.1298  -2.1051  -2.0757  -2.0696  -2.0544  -2.0004  -1.9976
    -1.9817  -1.9600  -1.9424  -1.9215  -1.9048  -1.8482  -1.7260  -1.7158
    -1.6617  -1.5553  -1.5508  -1.4705  -1.4653  -1.4213  -1.3936  -1.3814
    -1.3540  -1.1742  -1.1207  -1.0943  -1.0868  -1.0743  -0.9662  -0.9323
    -0.8741  -0.8586  -0.8324  -0.7346  -0.6840  -0.6797  -0.5978  -0.5666
    -0.5271  -0.4858  -0.3847  -0.3551  -0.3353  -0.3061  -0.3027  -0.2492
    -0.2438  -0.1671  -0.1192  -0.0832  -0.0688  -0.0377   0.1619   0.1713
     0.1896   0.3365   0.3597   0.4994   0.5434   0.5854   0.6461   0.6977
     0.7638   0.8044   0.9313   0.9591   0.9599   1.0299   1.0494   1.0526
     1.1083   1.1102   2.0490   2.0497   2.1369   2.1372   3.8922   3.9967
     4.0116   4.0570   4.1666   4.2410   4.2638   4.2907   4.3336   4.3364
     4.4010

     the Fermi energy is     3.8120 ev

!    total energy              =   -2942.85970407 Ry
     estimated scf accuracy    <       0.00000006 Ry
     smearing contrib. (-TS)   =      -0.03701321 Ry
     internal energy E=F+TS    =   -2942.82269086 Ry

     The total energy is F=E-TS. E is the sum of the following terms:
     one-electron contribution =  -23389.38911789 Ry
     hartree contribution      =   11787.24143104 Ry
     xc contribution           =    -487.74999699 Ry
     ewald contribution        =    9147.07216965 Ry
     electric field correction =       0.00282333 Ry

     convergence has been achieved in  78 iterations

     Forces acting on atoms (cartesian axes, Ry/au):

     atom    1 type  1   force =     0.00000279   -0.00026439    0.09308011
     atom    2 type  1   force =    -0.00014823   -0.00043158   -0.17827458
     atom    3 type  2   force =     0.00007443   -0.00009653   -0.02025661
     atom    4 type  2   force =     0.00001635   -0.00187003    0.05883655
     atom    5 type  2   force =    -0.01019089   -0.00054499    0.00773865
     atom    6 type  2   force =     0.01224323    0.00007362    0.00819910
     atom    7 type  1   force =     0.00038751    0.00328191   -0.01424474
     atom    8 type  1   force =    -0.00045589    0.00046515   -0.00455273
     atom    9 type  2   force =    -0.00002657   -0.00061749   -0.00036991
     atom   10 type  2   force =    -0.00059626    0.00089839   -0.00141753
     atom   11 type  2   force =    -0.00038166   -0.00011723    0.00023335
     atom   12 type  2   force =     0.00007319   -0.00006451    0.00004099
     atom   13 type  1   force =     0.00005233   -0.00032054    0.00018015
     atom   14 type  1   force =    -0.00036675    0.00013928    0.00040888
     atom   15 type  2   force =    -0.00016038    0.00080591    0.00022950
     atom   16 type  2   force =    -0.00008700   -0.00018656    0.00032427
     atom   17 type  2   force =    -0.00045934    0.00005541    0.00043589
     atom   18 type  2   force =     0.00014654   -0.00019525   -0.00007256
     atom   19 type  1   force =     0.00031477    0.00025999    0.00083180
     atom   20 type  1   force =    -0.00063341   -0.00067268    0.00037029
     atom   21 type  2   force =     0.00000231   -0.00010491    0.10392593
     atom   22 type  2   force =    -0.00017269    0.00006600   -0.00068756
     atom   23 type  2   force =    -0.07035865   -0.00023068   -0.02686661
     atom   24 type  2   force =     0.07025473    0.00019755   -0.02694629
     atom   25 type  1   force =     0.00002065   -0.00026011    0.09274692
     atom   26 type  1   force =    -0.00012078   -0.00044776   -0.17830710
     atom   27 type  2   force =     0.00013884   -0.00032277   -0.01928049
     atom   28 type  2   force =     0.00008156   -0.00155023    0.05823095
     atom   29 type  2   force =    -0.01019292   -0.00033158    0.00695886
     atom   30 type  2   force =     0.01214158   -0.00008943    0.00749267
     atom   31 type  1   force =     0.00040143    0.00495821   -0.01538344
     atom   32 type  1   force =    -0.00037625   -0.00033866   -0.00466188
     atom   33 type  2   force =    -0.00021981   -0.00047805    0.00016138
     atom   34 type  2   force =    -0.00014054    0.00365368   -0.00059833
     atom   35 type  2   force =     0.00002711   -0.00056435    0.00031947
     atom   36 type  2   force =    -0.00018374   -0.00053213   -0.00003067
     atom   37 type  1   force =    -0.00025724   -0.00049383    0.00049252
     atom   38 type  1   force =    -0.00019565   -0.00090734    0.00044348
     atom   39 type  2   force =    -0.00047619   -0.00053474    0.00049603
     atom   40 type  2   force =     0.00001462   -0.00048800   -0.00042079
     atom   41 type  2   force =    -0.00083628   -0.00011668   -0.00011365
     atom   42 type  2   force =     0.00031662   -0.00026663   -0.00028712
     atom   43 type  1   force =     0.00003884   -0.00029649   -0.00007682
     atom   44 type  1   force =    -0.00008570   -0.00070315    0.00087178
     atom   45 type  2   force =     0.00000946   -0.00014366    0.10390484
     atom   46 type  2   force =    -0.07041625   -0.00017957   -0.02688709
     atom   47 type  2   force =     0.07028082    0.00026243   -0.02695875
     atom   48 type  3   force =    -0.00061852    0.00207631   -0.00061985
     atom   49 type  3   force =    -0.00761621    0.00673301   -0.00007982
     atom   50 type  4   force =    -0.00172839   -0.00001807    0.00011929
     atom   51 type  5   force =    -0.00051527    0.00000667    0.00000909
     atom   52 type  5   force =     0.00028467   -0.00011732    0.00032027
     atom   53 type  5   force =     0.00104275    0.00024314    0.00094982
     atom   54 type  5   force =     0.00872190   -0.00637367   -0.00055733
     atom   55 type  5   force =     0.00088344   -0.00206033   -0.00023813
     atom   56 type  5   force =     0.00004497   -0.00084477   -0.00016247

     Total force =     0.366444     Total SCF correction =     0.000560
  @ DRIVER MODE: Message from server: STATUS
  @ DRIVER MODE: Message from server: GETFORCE
  @ DRIVER MODE: Returning v,forces,stress,ensemble

     Writing output data file ./calc.save/
  @ DRIVER MODE: Message from server: EXIT
  @ DRIVE MODE: Exiting

     General routines

     Parallel routines

   This run was terminated on:  10:37:50   9Sep2021

   JOB DONE.