     Program PWSCF v.6.7GPU starts on 16Sep2021 at  2:58:48

     R & G space division:  proc/nbgrp/npool/nimage =      10
     Reading input from /storage/home/hcoda1/3/ntian30/research/carbon/CxH_vib/H2O_calc/ads_slab/CH3NHH2O_a/out_0036/pw.inp
Warning: card &CELL ignored
Warning: card   CELL_DYNAMICS='IPI', ignored
Warning: card / ignored

     Current dimensions of program PWSCF are:
     Max number of different atomic species (ntypx) = 10
     Max number of k-points (npk) =  40000
     Max angular momentum in pseudopotentials (lmaxx) =  3
     Presently no symmetry can be used with electric field

     Message from routine cell_base_init:
     DEPRECATED: use true lattice parameter, not A to a.u. conversion factor

     IMPORTANT: XC functional enforced from input :
     Exchange-correlation= BEEF-VDW
                           (   1   4  43  14   2   0   0)
     Any further DFT definition will be discarded
     Please, verify this is what you really want

  @ DRIVER MODE: Connecting to
 qe_1139763_2852633.sched-torque.pace.gatech.eduq6kw1wd7_scratch
  using UNIX socket
  @ DRIVER MODE: Message from server: STATUS
  @ DRIVER MODE: Message from server: INIT
  @ DRIVER MODE: Receiving replica           0          -1
  @ DRIVER MODE: Receiving encoded integer          25
  @ DRIVER MODE:  SCF:  T  FORCE:  T  STRESS:  F  VC:  F  ENSEMBLE:  F
  @ DRIVER MODE:  SCF:  T  FORCE:  T  STRESS:  F  VC:  F  ENSEMBLE:  F

     Using Slab Decomposition

     bravais-lattice index     =            0
     lattice parameter (alat)  =       1.8897  a.u.
     unit-cell volume          =    6658.9804 (a.u.)^3
     number of atoms/cell      =           56
     number of atomic types    =            5
     number of electrons       =       399.00
     number of Kohn-Sham states=          209
     kinetic-energy cutoff     =      29.3995  Ry
     charge density cutoff     =     293.9946  Ry
     scf convergence threshold =      7.3E-08
     mixing beta               =       0.0500
     number of iterations used =            8  plain     mixing
     Exchange-correlation= BEEF-VDW
                           (   1   4  43  14   2   0   0)

     celldm(1)=   1.889726  celldm(2)=   0.000000  celldm(3)=   0.000000
     celldm(4)=   0.000000  celldm(5)=   0.000000  celldm(6)=   0.000000

     crystal axes: (cart. coord. in units of alat)
               a(1) = (   6.579727   0.000000   0.000000 )
               a(2) = (  -0.000775   5.961596   0.000000 )
               a(3) = (   0.000000   0.000000  25.155947 )

     reciprocal axes: (cart. coord. in units 2 pi/alat)
               b(1) = (  0.151982  0.000020  0.000000 )
               b(2) = (  0.000000  0.167740  0.000000 )
               b(3) = (  0.000000  0.000000  0.039752 )

     PseudoPot. # 1 for Ti read from file:
     /storage/coda1/p-amedford6/0/shared/rich_project_chbe-medford/medford-share/data/pseudos_module/espresso/nninc/pbe/van/Ti.UPF
     MD5 check sum: 8e4df49b7f0d34bbd5052bf3f5ea0213
     Pseudo is Ultrasoft, Zval = 12.0
     Generated by new atomic code, or converted to UPF format
     Using radial grid of  851 points,  6 beta functions with:
                l(1) =   0
                l(2) =   0
                l(3) =   1
                l(4) =   1
                l(5) =   2
                l(6) =   2
     Q(r) pseudized with  8 coefficients,  rinner =    1.000   1.000   1.000
                                                       1.000   1.000

     PseudoPot. # 2 for O  read from file:
     /storage/coda1/p-amedford6/0/shared/rich_project_chbe-medford/medford-share/data/pseudos_module/espresso/nninc/pbe/van/O.UPF
     MD5 check sum: 78c19812648e8988a0fe644b0f25305e
     Pseudo is Ultrasoft, Zval =  6.0
     Generated by new atomic code, or converted to UPF format
     Using radial grid of  737 points,  4 beta functions with:
                l(1) =   0
                l(2) =   0
                l(3) =   1
                l(4) =   1
     Q(r) pseudized with  8 coefficients,  rinner =    0.800   0.800   0.800

     PseudoPot. # 3 for H  read from file:
     /storage/coda1/p-amedford6/0/shared/rich_project_chbe-medford/medford-share/data/pseudos_module/espresso/nninc/pbe/van/H.UPF
     MD5 check sum: b5ee9d7bfd3a09ee7748110bda690ff7
     Pseudo is Ultrasoft, Zval =  1.0
     Generated by new atomic code, or converted to UPF format
     Using radial grid of  615 points,  1 beta functions with:
                l(1) =   0
     Q(r) pseudized with  8 coefficients,  rinner =    0.800

     PseudoPot. # 4 for N  read from file:
     /storage/coda1/p-amedford6/0/shared/rich_project_chbe-medford/medford-share/data/pseudos_module/espresso/nninc/pbe/van/N.UPF
     MD5 check sum: 90d10febe142ad51ac9d5be1deb811c4
     Pseudo is Ultrasoft, Zval =  5.0
     Generated by new atomic code, or converted to UPF format
     Using radial grid of  729 points,  4 beta functions with:
                l(1) =   0
                l(2) =   0
                l(3) =   1
                l(4) =   1
     Q(r) pseudized with  8 coefficients,  rinner =    0.800   0.800   0.800

     PseudoPot. # 5 for C  read from file:
     /storage/coda1/p-amedford6/0/shared/rich_project_chbe-medford/medford-share/data/pseudos_module/espresso/nninc/pbe/van/C.UPF
     MD5 check sum: 1a69bf6b8db32088f5b2163dbdb77a27
     Pseudo is Ultrasoft, Zval =  4.0
     Generated by new atomic code, or converted to UPF format
     Using radial grid of  721 points,  4 beta functions with:
                l(1) =   0
                l(2) =   0
                l(3) =   1
                l(4) =   1
     Q(r) pseudized with  8 coefficients,  rinner =    0.800   0.800   0.800

     atomic species   valence    mass     pseudopotential
        Ti1           12.00    47.86700     Ti( 1.00)
        O1             6.00    15.99900     O ( 1.00)
        H1             1.00     1.00800     H ( 1.00)
        N1             5.00    14.00700     N ( 1.00)
        C1             4.00    12.01100     C ( 1.00)

     No symmetry found

   Cartesian axes

     site n.     atom                  positions (alat units)
         1           Ti1 tau(   1) = (   0.0004258   2.9801865   6.0000000  )
         2           Ti1 tau(   2) = (   3.2906075   1.4906267   6.0002472  )
         3           O1  tau(   3) = (   0.0006271   0.0005054   7.9858123  )
         4           O1  tau(   4) = (   3.2906025   0.0005020   7.3038282  )
         5           O1  tau(   5) = (   4.5942328   1.4918067   9.2879030  )
         6           O1  tau(   6) = (   1.9868534   1.4903216   9.2879459  )
         7           Ti1 tau(   7) = (   3.2907910   2.8959150   9.1758416  )
         8           Ti1 tau(   8) = (   0.0015273   1.4827037   9.2680791  )
         9           O1  tau(   9) = (   3.2896571   0.0076959  11.3233140  )
        10           O1  tau(  10) = (   0.0116148   5.9584955  10.6183126  )
        11           O1  tau(  11) = (   1.3168077   1.5009220  12.6157425  )
        12           O1  tau(  12) = (   5.2956243   1.4929856  12.6075824  )
        13           Ti1 tau(  13) = (   6.5239244   2.9540340  12.6210794  )
        14           Ti1 tau(  14) = (   3.2085880   1.4976218  12.4699624  )
        15           O1  tau(  15) = (   6.5712616   0.0419518  14.6436513  )
        16           O1  tau(  16) = (   3.3111435   0.0202601  13.9161875  )
        17           O1  tau(  17) = (   4.5291760   1.5523016  16.0784362  )
        18           O1  tau(  18) = (   2.0445308   1.5488630  16.0432715  )
        19           Ti1 tau(  19) = (   3.3059752   3.0257308  15.6838679  )
        20           Ti1 tau(  20) = (   0.0592185   1.5662548  15.8694889  )
        21           O1  tau(  21) = (   3.2904802   0.0005063   4.7018136  )
        22           O1  tau(  22) = (   0.0264932   0.0561689  17.2024660  )
        23           O1  tau(  23) = (   1.3043587   1.4918075   6.0039043  )
        24           O1  tau(  24) = (   5.2767064   1.4903225   6.0039473  )
        25           Ti1 tau(  25) = (   0.0000382   5.9609847   6.0000000  )
        26           Ti1 tau(  26) = (   3.2902200   4.4714249   6.0002472  )
        27           O1  tau(  27) = (   0.0002396   2.9813036   7.9858123  )
        28           O1  tau(  28) = (   3.2902150   2.9813002   7.3038282  )
        29           O1  tau(  29) = (   4.5938453   4.4726049   9.2879030  )
        30           O1  tau(  30) = (   1.9864658   4.4711199   9.2879459  )
        31           Ti1 tau(  31) = (   3.2891106   5.8743827   9.1763621  )
        32           Ti1 tau(  32) = (   0.0006254   4.4649316   9.2693709  )
        33           O1  tau(  33) = (   3.2898653   2.9926188  11.3210358  )
        34           O1  tau(  34) = (   0.0092240   2.9805883  10.6323155  )
        35           O1  tau(  35) = (   1.3106253   4.4883450  12.6271249  )
        36           O1  tau(  36) = (   5.2968722   4.4793810  12.6200386  )
        37           Ti1 tau(  37) = (   6.5212985   5.9329073  12.5685303  )
        38           Ti1 tau(  38) = (   3.2059443   4.4781599  12.4721232  )
        39           O1  tau(  39) = (   6.5764971   2.9600267  14.6431433  )
        40           O1  tau(  40) = (   3.3056941   3.0038382  13.8936370  )
        41           O1  tau(  41) = (   4.5394310   4.5052612  16.0827012  )
        42           O1  tau(  42) = (   2.0570581   4.5113261  16.0718816  )
        43           Ti1 tau(  43) = (   3.3383738   0.0382055  15.7109988  )
        44           Ti1 tau(  44) = (   0.0469139   4.6840235  16.0886640  )
        45           O1  tau(  45) = (   3.2900926   2.9813045   4.7018136  )
        46           O1  tau(  46) = (   1.3039711   4.4726057   6.0039043  )
        47           O1  tau(  47) = (   5.2763189   4.4711207   6.0039473  )
        48           H1  tau(  48) = (   5.6101632   2.9904038  17.7880820  )
        49           N1  tau(  49) = (   6.5649722   3.0046358  17.4438072  )
        50           C1  tau(  50) = (   0.8874553   2.9889031  18.6120612  )
        51           H1  tau(  51) = (   1.3591778   3.9628686  18.7739097  )
        52           H1  tau(  52) = (   0.3310755   2.7322232  19.5165709  )
        53           H1  tau(  53) = (   1.6717793   2.2402645  18.5014768  )
        54           O1  tau(  54) = (   3.2567199   5.9268012  21.6217354  )
        55           H1  tau(  55) = (   4.0245811   5.9269051  22.2091127  )
        56           H1  tau(  56) = (   2.4887544   5.9269923  22.2092946  )

     number of k points=    10  Fermi-Dirac smearing, width (Ry)=  0.0073
                       cart. coord. in units 2pi/alat
        k(    1) = (   0.0000000   0.0000000   0.0000000), wk =   0.1250000
        k(    2) = (   0.0000000   0.0419351   0.0000000), wk =   0.2500000
        k(    3) = (   0.0000000  -0.0838702   0.0000000), wk =   0.1250000
        k(    4) = (   0.0379955   0.0000049   0.0000000), wk =   0.2500000
        k(    5) = (   0.0379955   0.0419400   0.0000000), wk =   0.2500000
        k(    6) = (   0.0379955  -0.0838652   0.0000000), wk =   0.2500000
        k(    7) = (   0.0379955  -0.0419301   0.0000000), wk =   0.2500000
        k(    8) = (  -0.0759910  -0.0000099   0.0000000), wk =   0.1250000
        k(    9) = (  -0.0759910   0.0419252   0.0000000), wk =   0.2500000
        k(   10) = (  -0.0759910  -0.0838800   0.0000000), wk =   0.1250000

     Initial potential from superposition of free atoms

     starting charge  382.99914, renormalised to  399.00000

     negative rho (up, down):  9.625E-03 0.000E+00

     %%%%%%%%%%%%%%%%%%%%%%%%%%%%%%%%%%%%%%%%%%%%%%%%%%%%%%%%%%%%%%%%%%%%%%%%
     %                                                                      %
     % You are using vdW-DF, which was implemented by the Thonhauser group. %
     % Please cite the following two papers that made this development      %
     % possible and the two reviews that describe the various versions:     %
     %                                                                      %
     %   T. Thonhauser et al., PRL 115, 136402 (2015).                      %
     %   T. Thonhauser et al., PRB 76, 125112 (2007).                       %
     %   K. Berland et al., Rep. Prog. Phys. 78, 066501 (2015).             %
     %   D.C. Langreth et al., J. Phys.: Condens. Matter 21, 084203 (2009). %
     %                                                                      %
     %                                                                      %
     % If you are calculating the stress with vdW-DF, please also cite:     %
     %                                                                      %
     %   R. Sabatini et al., J. Phys.: Condens. Matter 24, 424209 (2012).   %
     %                                                                      %
     %%%%%%%%%%%%%%%%%%%%%%%%%%%%%%%%%%%%%%%%%%%%%%%%%%%%%%%%%%%%%%%%%%%%%%%%

     Adding external electric field

     Computed dipole along edir(3) :
        Dipole              -12.5501 Ry au,        -31.8992 Debye
        Dipole field         -0.0237 Ry au,

        Potential amp.        2.1955 Ry
        Total length         46.3494 bohr

     Starting wfcs are  302 atomic wfcs
  @ DRIVER MODE: Message from server: STATUS
  @ DRIVER MODE: Message from server: POSDATA
  @ DRIVER MODE: Reading and sharing cell
  @ DRIVER MODE: Reading and sharing positions
  @ DRIVER MODE: Received positions

     Self-consistent Calculation

     iteration #  1     ecut=    29.40 Ry     beta= 0.05
     Davidson diagonalization with overlap
     c_bands:  2 eigenvalues not converged
     c_bands:  2 eigenvalues not converged
     c_bands:  4 eigenvalues not converged
     c_bands:  3 eigenvalues not converged
     c_bands:  3 eigenvalues not converged
     c_bands:  3 eigenvalues not converged
     c_bands:  5 eigenvalues not converged
     c_bands:  4 eigenvalues not converged
     c_bands:  5 eigenvalues not converged
     ethr =  1.00E-05,  avg # of iterations = 22.0

[...]

     total energy              =   -2445.25473876 Ry
     estimated scf accuracy    <    5721.90769839 Ry

     iteration #  2     ecut=    29.40 Ry     beta= 0.05
     Davidson diagonalization with overlap
     ethr =  1.00E-02,  avg # of iterations = 22.3

[...]

     iteration # 61     ecut=    29.40 Ry     beta= 0.05
     Davidson diagonalization with overlap
     ethr =  8.49E-11,  avg # of iterations = 10.1

[...]

     total energy              =   -2955.21563122 Ry
     estimated scf accuracy    <       0.00000011 Ry

     iteration # 62     ecut=    29.40 Ry     beta= 0.05
     Davidson diagonalization with overlap
     c_bands:  1 eigenvalues not converged
     ethr =  2.70E-11,  avg # of iterations =  9.8

     negative rho (up, down):  1.110E-02 0.000E+00

     Adding external electric field

     Computed dipole along edir(3) :
        Dipole                1.3279 Ry au,          3.3751 Debye
        Dipole field          0.0025 Ry au,

        Potential amp.       -0.2323 Ry
        Total length         46.3494 bohr

     End of self-consistent calculation

          k = 0.0000 0.0000 0.0000 ( 18029 PWs)   bands (ev):

   -55.4957 -55.4872 -55.4617 -55.4512 -55.4062 -55.3373 -55.3342 -55.3002
   -55.2995 -55.2663 -55.2585 -55.2248 -55.0714 -54.7890 -54.4675 -54.4334
   -32.0455 -31.9771 -31.8509 -31.8359 -31.8152 -31.7996 -31.7889 -31.7496
   -31.7371 -31.7370 -31.7104 -31.7027 -31.6696 -31.6479 -31.6396 -31.6364
   -31.6293 -31.5990 -31.5777 -31.5529 -31.5455 -31.5409 -31.5251 -31.5042
   -31.4946 -31.4900 -31.4863 -31.4781 -31.4616 -31.4588 -31.4537 -31.4495
   -31.4359 -31.4304 -31.4119 -31.4072 -31.3712 -31.3353 -31.2409 -31.0630
   -31.0570 -30.9877 -30.8743 -30.7867 -30.7642 -30.6911 -30.6046 -30.4936
   -18.5818 -16.2541 -15.9723 -15.7923 -15.6497 -15.6175 -15.5295 -15.3316
   -15.2060 -15.1907 -15.0864 -15.0542 -15.0296 -15.0229 -14.9945 -14.9910
   -14.9357 -14.9286 -14.9195 -14.9065 -14.8477 -14.8237 -14.7832 -14.6922
   -14.6681 -14.6526 -14.6251 -14.5428 -14.5372 -14.0944 -13.6312 -12.9700
   -12.8537  -8.4812  -6.3850  -3.9110  -3.6246  -3.4507  -3.4127  -3.3978
    -3.3474  -3.0970  -3.0793  -2.8455  -2.7162  -2.6956  -2.6800  -2.6671
    -2.6495  -2.6310  -2.4161  -2.3939  -2.3262  -2.3102  -2.2883  -2.2800
    -2.2739  -2.2643  -2.2605  -2.2160  -2.1604  -2.0462  -2.0290  -1.9228
    -1.8791  -1.8540  -1.8048  -1.7605  -1.7544  -1.7441  -1.7248  -1.7132
    -1.6905  -1.6729  -1.5376  -1.4750  -1.3430  -1.2967  -1.2891  -1.0952
    -1.0572  -0.9648  -0.9383  -0.9217  -0.9136  -0.8814  -0.7997  -0.7081
    -0.6541  -0.6420  -0.5881  -0.5091  -0.4954  -0.4002  -0.3861  -0.3808
    -0.3255  -0.2644  -0.2545  -0.2456  -0.2007  -0.1313  -0.0571   0.0190
     0.0713   0.0926   0.1191   0.1981   0.2272   0.3222   0.3431   0.3878
     0.3949   0.4412   0.4833   0.4920   0.4976   0.5134   0.5327   0.6807
     0.7885   0.8442   0.8769   0.8880   1.0453   1.0812   1.1690   1.2560
     1.4817   1.5544   1.6488   1.7476   1.8012   2.1251   2.1705   3.6475
     3.7265   3.7803   3.7894   3.8850   3.8923   4.0972   4.1062   4.1172
     4.1892

[...]

          k = 0.0380-0.0419 0.0000 ( 17876 PWs)   bands (ev):

[...]

          k =-0.0760-0.0000 0.0000 ( 17886 PWs)   bands (ev):

[...]

          k =-0.0760-0.0839 0.0000 ( 17948 PWs)   bands (ev):

   -55.4791 -55.4782 -55.4693 -55.4689 -55.4016 -55.3418 -55.3189 -55.3147
   -55.2840 -55.2821 -55.2420 -55.2414 -55.0704 -54.7899 -54.4505 -54.4503
   -31.8498 -31.8480 -31.7927 -31.7920 -31.7829 -31.7747 -31.7737 -31.7585
   -31.6992 -31.6970 -31.6904 -31.6867 -31.6655 -31.6329 -31.6162 -31.6129
   -31.6046 -31.6006 -31.5985 -31.5977 -31.5951 -31.5824 -31.5801 -31.5475
   -31.5374 -31.5361 -31.5113 -31.4971 -31.4803 -31.4799 -31.4746 -31.4742
   -31.4574 -31.4570 -31.4567 -31.4529 -31.4037 -31.3380 -31.2361 -31.1259
   -31.0593 -31.0127 -30.7770 -30.7768 -30.6872 -30.6870 -30.6479 -30.6478
   -18.5817 -15.7053 -15.6730 -15.4347 -15.4288 -15.4189 -15.4042 -15.2625
   -15.2078 -15.1992 -15.1923 -15.1664 -15.1450 -15.0927 -15.0658 -15.0281
   -15.0223 -15.0168 -15.0140 -14.9520 -14.9461 -14.9249 -14.9175 -14.8036
   -14.8008 -14.7996 -14.7279 -14.6586 -14.5231 -14.2630 -13.6527 -12.9557
   -12.9554  -8.4849  -6.3866  -3.9224  -2.9989  -2.9613  -2.8162  -2.7208
    -2.6756  -2.6617  -2.6446  -2.5665  -2.4133  -2.4057  -2.3897  -2.3728
    -2.3582  -2.3210  -2.3144  -2.3019  -2.2895  -2.2821  -2.2638  -2.2279
    -2.1892  -2.1615  -2.1537  -2.1442  -2.1195  -2.1073  -2.0813  -2.0764
    -2.0420  -2.0339  -2.0174  -1.9935  -1.7382  -1.7136  -1.6948  -1.6244
    -1.6172  -1.5848  -1.5763  -1.5567  -1.5435  -1.4912  -1.3918  -1.2257
    -1.1924  -1.1843  -1.1651  -1.1000  -1.0790  -0.9297  -0.9026  -0.8834
    -0.8458  -0.7964  -0.7643  -0.7253  -0.6894  -0.6537  -0.5915  -0.5837
    -0.5036  -0.4548  -0.4538  -0.4284  -0.4192  -0.3576  -0.2784  -0.2600
    -0.2489  -0.2074  -0.1942  -0.1131  -0.0905   0.0074   0.0218   0.0878
     0.1205   0.1908   0.3864   0.4895   0.5487   0.5741   0.6275   0.7228
     0.7765   0.7908   0.8248   0.8300   0.8910   0.9323   1.0466   1.0536
     1.1213   1.2234   1.7472   1.9188   1.9196   1.9902   1.9904   3.9085
     3.9150   3.9660   3.9947   4.1473   4.1519   4.1747   4.1758   4.2961
     4.3142

     the Fermi energy is     3.6404 ev

!    total energy              =   -2955.21566222 Ry
     estimated scf accuracy    <       0.00000006 Ry
     smearing contrib. (-TS)   =      -0.02205226 Ry
     internal energy E=F+TS    =   -2955.19360997 Ry

     The total energy is F=E-TS. E is the sum of the following terms:
     one-electron contribution =  -23379.47304023 Ry
     hartree contribution      =   11781.63764329 Ry
     xc contribution           =    -489.67952767 Ry
     ewald contribution        =    9132.31798725 Ry
     electric field correction =       0.00332740 Ry

     convergence has been achieved in  62 iterations

     Forces acting on atoms (cartesian axes, Ry/au):

     atom    1 type  1   force =     0.00012965   -0.00019874    0.09687166
     atom    2 type  1   force =     0.00003735   -0.00046171   -0.17496676
     atom    3 type  2   force =     0.00013015    0.00001697   -0.02538849
     atom    4 type  2   force =    -0.00003083   -0.00126856    0.05224084
     atom    5 type  2   force =    -0.01215613    0.00000355    0.00288422
     atom    6 type  2   force =     0.01360402    0.00054597    0.00225792
     atom    7 type  1   force =     0.00059620    0.00032212   -0.01254546
     atom    8 type  1   force =     0.00044898    0.00706825    0.03083383
     atom    9 type  2   force =     0.00032373    0.00016401    0.00044131
     atom   10 type  2   force =    -0.00271510    0.00207513   -0.01689913
     atom   11 type  2   force =     0.00016760   -0.00036167    0.00013448
     atom   12 type  2   force =     0.00007491   -0.00035849    0.00023504
     atom   13 type  1   force =    -0.00019418    0.00036094   -0.00002723
     atom   14 type  1   force =    -0.00012359    0.00033064   -0.00035198
     atom   15 type  2   force =    -0.00002938   -0.00031386   -0.00003651
     atom   16 type  2   force =     0.00014593    0.00037990    0.00128995
     atom   17 type  2   force =    -0.00026528   -0.00035918    0.00028759
     atom   18 type  2   force =     0.00037515   -0.00034365    0.00002095
     atom   19 type  1   force =     0.00015517   -0.00044129    0.00046059
     atom   20 type  1   force =    -0.00036994    0.00021024    0.00033838
     atom   21 type  2   force =     0.00006028   -0.00002088    0.10303052
     atom   22 type  2   force =     0.00016734   -0.00082170    0.00027331
     atom   23 type  2   force =    -0.07165228   -0.00016121   -0.02782610
     atom   24 type  2   force =     0.07155004    0.00033848   -0.02788363
     atom   25 type  1   force =     0.00008534   -0.00016820    0.09666131
     atom   26 type  1   force =     0.00009506   -0.00024430   -0.17508549
     atom   27 type  2   force =     0.00011955   -0.00011043   -0.02444927
     atom   28 type  2   force =     0.00003979   -0.00101398    0.05207521
     atom   29 type  2   force =    -0.01235012    0.00066794    0.00265292
     atom   30 type  2   force =     0.01366916    0.00105556    0.00203397
     atom   31 type  1   force =     0.00049120    0.00307030   -0.01335762
     atom   32 type  1   force =     0.00031195   -0.00927397    0.03126135
     atom   33 type  2   force =    -0.00012632    0.00015935    0.00077903
     atom   34 type  2   force =    -0.00202574    0.00178978   -0.02552305
     atom   35 type  2   force =     0.00025611    0.00019000    0.00036347
     atom   36 type  2   force =     0.00022723    0.00010199    0.00034940
     atom   37 type  1   force =    -0.00025875   -0.00064080    0.00014738
     atom   38 type  1   force =    -0.00008574    0.00003264   -0.00021531
     atom   39 type  2   force =     0.00004808   -0.00079871    0.00030070
     atom   40 type  2   force =     0.00024588    0.00003226   -0.00010162
     atom   41 type  2   force =    -0.00037579    0.00008686   -0.00003232
     atom   42 type  2   force =     0.00037944   -0.00010976   -0.00032451
     atom   43 type  1   force =    -0.00036675    0.00054422   -0.00070118
     atom   44 type  1   force =    -0.00041552   -0.00056296    0.00120343
     atom   45 type  2   force =     0.00003940   -0.00004702    0.10306755
     atom   46 type  2   force =    -0.07164393   -0.00005405   -0.02782143
     atom   47 type  2   force =     0.07156397    0.00036405   -0.02789310
     atom   48 type  3   force =     0.00039182   -0.00050193    0.00020539
     atom   49 type  4   force =     0.00079755   -0.00099118   -0.00017180
     atom   50 type  5   force =    -0.00133642    0.00083447    0.00274963
     atom   51 type  3   force =    -0.00058780   -0.00033553    0.00040613
     atom   52 type  3   force =    -0.00021425    0.00002377   -0.00059787
     atom   53 type  3   force =     0.00110542   -0.00074325   -0.00221507
     atom   54 type  2   force =    -0.00067648   -0.00006328   -0.00024678
     atom   55 type  3   force =    -0.00057802   -0.00001788   -0.00044513
     atom   56 type  3   force =     0.00074488    0.00001880   -0.00075058

     Total force =     0.368280     Total SCF correction =     0.000633
  @ DRIVER MODE: Message from server: STATUS
  @ DRIVER MODE: Message from server: GETFORCE
  @ DRIVER MODE: Returning v,forces,stress,ensemble

     Writing output data file ./calc.save/
  @ DRIVER MODE: Message from server: EXIT
  @ DRIVE MODE: Exiting

     General routines

     Parallel routines

   This run was terminated on:   3:15:57  16Sep2021

   JOB DONE.