     Program PWSCF v.6.7GPU starts on  9Sep2021 at  0:27:19

     R & G space division:  proc/nbgrp/npool/nimage =      10
     Reading input from /storage/home/hcoda1/3/ntian30/research/carbon/CxH_vib/CH2_calc/ads_slab/CH2N2H_a/out_0009/pw.inp
Warning: card &CELL ignored
Warning: card   CELL_DYNAMICS='IPI', ignored
Warning: card / ignored

     Current dimensions of program PWSCF are:
     Max number of different atomic species (ntypx) = 10
     Max number of k-points (npk) =  40000
     Max angular momentum in pseudopotentials (lmaxx) =  3
     Presently no symmetry can be used with electric field

     Message from routine cell_base_init:
     DEPRECATED: use true lattice parameter, not A to a.u. conversion factor

     IMPORTANT: XC functional enforced from input :
     Exchange-correlation= BEEF-VDW
                           (   1   4  43  14   2   0   0)
     Any further DFT definition will be discarded
     Please, verify this is what you really want

  @ DRIVER MODE: Connecting to
 qe_1139763_2767385.sched-torque.pace.gatech.edu44zvgf1__scratch
  using UNIX socket
  @ DRIVER MODE: Message from server: STATUS
  @ DRIVER MODE: Message from server: INIT
  @ DRIVER MODE: Receiving replica           0          -1
  @ DRIVER MODE: Receiving encoded integer          25
  @ DRIVER MODE:  SCF:  T  FORCE:  T  STRESS:  F  VC:  F  ENSEMBLE:  F
  @ DRIVER MODE:  SCF:  T  FORCE:  T  STRESS:  F  VC:  F  ENSEMBLE:  F

     Using Slab Decomposition

     bravais-lattice index     =            0
     lattice parameter (alat)  =       1.8897  a.u.
     unit-cell volume          =    6658.9804 (a.u.)^3
     number of atoms/cell      =           53
     number of atomic types    =            5
     number of electrons       =       395.00
     number of Kohn-Sham states=          207
     kinetic-energy cutoff     =      29.3995  Ry
     charge density cutoff     =     293.9946  Ry
     scf convergence threshold =      7.3E-08
     mixing beta               =       0.0500
     number of iterations used =            8  plain     mixing
     Exchange-correlation= BEEF-VDW
                           (   1   4  43  14   2   0   0)

     celldm(1)=   1.889726  celldm(2)=   0.000000  celldm(3)=   0.000000
     celldm(4)=   0.000000  celldm(5)=   0.000000  celldm(6)=   0.000000

     crystal axes: (cart. coord. in units of alat)
               a(1) = (   6.579727   0.000000   0.000000 )
               a(2) = (  -0.000775   5.961596   0.000000 )
               a(3) = (   0.000000   0.000000  25.155947 )

     reciprocal axes: (cart. coord. in units 2 pi/alat)
               b(1) = (  0.151982  0.000020  0.000000 )
               b(2) = (  0.000000  0.167740  0.000000 )
               b(3) = (  0.000000  0.000000  0.039752 )

     PseudoPot. # 1 for Ti read from file:
     /storage/coda1/p-amedford6/0/shared/rich_project_chbe-medford/medford-share/data/pseudos_module/espresso/nninc/pbe/van/Ti.UPF
     MD5 check sum: 8e4df49b7f0d34bbd5052bf3f5ea0213
     Pseudo is Ultrasoft, Zval = 12.0
     Generated by new atomic code, or converted to UPF format
     Using radial grid of  851 points,  6 beta functions with:
                l(1) =   0
                l(2) =   0
                l(3) =   1
                l(4) =   1
                l(5) =   2
                l(6) =   2
     Q(r) pseudized with  8 coefficients,  rinner =    1.000   1.000   1.000
                                                       1.000   1.000

     PseudoPot. # 2 for O  read from file:
     /storage/coda1/p-amedford6/0/shared/rich_project_chbe-medford/medford-share/data/pseudos_module/espresso/nninc/pbe/van/O.UPF
     MD5 check sum: 78c19812648e8988a0fe644b0f25305e
     Pseudo is Ultrasoft, Zval =  6.0
     Generated by new atomic code, or converted to UPF format
     Using radial grid of  737 points,  4 beta functions with:
                l(1) =   0
                l(2) =   0
                l(3) =   1
                l(4) =   1
     Q(r) pseudized with  8 coefficients,  rinner =    0.800   0.800   0.800

     PseudoPot. # 3 for N  read from file:
     /storage/coda1/p-amedford6/0/shared/rich_project_chbe-medford/medford-share/data/pseudos_module/espresso/nninc/pbe/van/N.UPF
     MD5 check sum: 90d10febe142ad51ac9d5be1deb811c4
     Pseudo is Ultrasoft, Zval =  5.0
     Generated by new atomic code, or converted to UPF format
     Using radial grid of  729 points,  4 beta functions with:
                l(1) =   0
                l(2) =   0
                l(3) =   1
                l(4) =   1
     Q(r) pseudized with  8 coefficients,  rinner =    0.800   0.800   0.800

     PseudoPot. # 4 for C  read from file:
     /storage/coda1/p-amedford6/0/shared/rich_project_chbe-medford/medford-share/data/pseudos_module/espresso/nninc/pbe/van/C.UPF
     MD5 check sum: 1a69bf6b8db32088f5b2163dbdb77a27
     Pseudo is Ultrasoft, Zval =  4.0
     Generated by new atomic code, or converted to UPF format
     Using radial grid of  721 points,  4 beta functions with:
                l(1) =   0
                l(2) =   0
                l(3) =   1
                l(4) =   1
     Q(r) pseudized with  8 coefficients,  rinner =    0.800   0.800   0.800

     PseudoPot. # 5 for H  read from file:
     /storage/coda1/p-amedford6/0/shared/rich_project_chbe-medford/medford-share/data/pseudos_module/espresso/nninc/pbe/van/H.UPF
     MD5 check sum: b5ee9d7bfd3a09ee7748110bda690ff7
     Pseudo is Ultrasoft, Zval =  1.0
     Generated by new atomic code, or converted to UPF format
     Using radial grid of  615 points,  1 beta functions with:
                l(1) =   0
     Q(r) pseudized with  8 coefficients,  rinner =    0.800

     atomic species   valence    mass     pseudopotential
        Ti1           12.00    47.86700     Ti( 1.00)
        O1             6.00    15.99900     O ( 1.00)
        N1             5.00    14.00700     N ( 1.00)
        C1             4.00    12.01100     C ( 1.00)
        H1             1.00     1.00800     H ( 1.00)

     No symmetry found

   Cartesian axes

     site n.     atom                  positions (alat units)
         1           Ti1 tau(   1) = (   0.0004258   2.9801865   6.0000000  )
         2           Ti1 tau(   2) = (   3.2906075   1.4906267   6.0002472  )
         3           O1  tau(   3) = (   0.0006271   0.0005054   7.9858123  )
         4           O1  tau(   4) = (   3.2906025   0.0005020   7.3038282  )
         5           O1  tau(   5) = (   4.5942328   1.4918067   9.2879030  )
         6           O1  tau(   6) = (   1.9868534   1.4903216   9.2879459  )
         7           Ti1 tau(   7) = (   3.2907910   2.8959150   9.1758416  )
         8           Ti1 tau(   8) = (   0.0015273   1.4827037   9.2680791  )
         9           O1  tau(   9) = (   3.3007851   0.0027079  11.3193151  )
        10           O1  tau(  10) = (   0.0116148   5.9584955  10.6183126  )
        11           O1  tau(  11) = (   1.3147357   1.5019762  12.6210215  )
        12           O1  tau(  12) = (   5.3120411   1.4917641  12.6342566  )
        13           Ti1 tau(  13) = (   6.5359925   2.9538565  12.6086018  )
        14           Ti1 tau(  14) = (   3.2189980   1.4905645  12.4770757  )
        15           O1  tau(  15) = (   0.0426301   5.9606301  14.6312846  )
        16           O1  tau(  16) = (   3.3149351   0.0098317  13.8848037  )
        17           O1  tau(  17) = (   4.5523768   1.5206755  16.0744300  )
        18           O1  tau(  18) = (   2.0715852   1.4807026  15.9918588  )
        19           Ti1 tau(  19) = (   3.2935730   2.9941335  15.6827836  )
        20           Ti1 tau(  20) = (   0.0200723   1.3023755  15.9747514  )
        21           O1  tau(  21) = (   3.2904802   0.0005063   4.7018136  )
        22           O1  tau(  22) = (   6.5179923   0.0002674  17.1556216  )
        23           O1  tau(  23) = (   1.3043587   1.4918075   6.0039043  )
        24           O1  tau(  24) = (   5.2767064   1.4903225   6.0039473  )
        25           Ti1 tau(  25) = (   0.0000382   5.9609847   6.0000000  )
        26           Ti1 tau(  26) = (   3.2902200   4.4714249   6.0002472  )
        27           O1  tau(  27) = (   0.0002396   2.9813036   7.9858123  )
        28           O1  tau(  28) = (   3.2902150   2.9813002   7.3038282  )
        29           O1  tau(  29) = (   4.5938453   4.4726049   9.2879030  )
        30           O1  tau(  30) = (   1.9864658   4.4711199   9.2879459  )
        31           Ti1 tau(  31) = (   3.2891106   5.8743827   9.1763621  )
        32           Ti1 tau(  32) = (   0.0006254   4.4649316   9.2693709  )
        33           O1  tau(  33) = (   3.3053585   2.9833221  11.3185053  )
        34           O1  tau(  34) = (   0.0092240   2.9805883  10.6323155  )
        35           O1  tau(  35) = (   1.3157767   4.4721532  12.6203727  )
        36           O1  tau(  36) = (   5.3104355   4.4689601  12.6331991  )
        37           Ti1 tau(  37) = (   6.5385524   5.9338372  12.5465384  )
        38           Ti1 tau(  38) = (   3.2200853   4.4710709  12.4725482  )
        39           O1  tau(  39) = (   0.0068575   2.9964749  14.7765288  )
        40           O1  tau(  40) = (   3.3021705   2.9848394  13.8818356  )
        41           O1  tau(  41) = (   4.5334443   4.4765196  15.9883447  )
        42           O1  tau(  42) = (   2.0816803   4.4801587  16.0471567  )
        43           Ti1 tau(  43) = (   3.3155128   0.0116264  15.6901768  )
        44           Ti1 tau(  44) = (   6.5575601   4.4671909  15.9479714  )
        45           O1  tau(  45) = (   3.2900926   2.9813045   4.7018136  )
        46           O1  tau(  46) = (   1.3039711   4.4726057   6.0039043  )
        47           O1  tau(  47) = (   5.2763189   4.4711207   6.0039473  )
        48           N1  tau(  48) = (   0.4270260   2.3853988  17.9668900  )
        49           C1  tau(  49) = (   0.9469377   1.9240014  19.0583692  )
        50           H1  tau(  50) = (   1.0789317   2.5769861  19.9249762  )
        51           H1  tau(  51) = (   1.2326487   0.8959138  19.0941702  )
        52           N1  tau(  52) = (   0.0025679   3.6232397  17.7996529  )
        53           H1  tau(  53) = (   0.1020252   4.2324666  18.6151602  )

     number of k points=    10  Fermi-Dirac smearing, width (Ry)=  0.0073
                       cart. coord. in units 2pi/alat
        k(    1) = (   0.0000000   0.0000000   0.0000000), wk =   0.1250000
        k(    2) = (   0.0000000   0.0419351   0.0000000), wk =   0.2500000
        k(    3) = (   0.0000000  -0.0838702   0.0000000), wk =   0.1250000
        k(    4) = (   0.0379955   0.0000049   0.0000000), wk =   0.2500000
        k(    5) = (   0.0379955   0.0419400   0.0000000), wk =   0.2500000
        k(    6) = (   0.0379955  -0.0838652   0.0000000), wk =   0.2500000
        k(    7) = (   0.0379955  -0.0419301   0.0000000), wk =   0.2500000
        k(    8) = (  -0.0759910  -0.0000099   0.0000000), wk =   0.1250000
        k(    9) = (  -0.0759910   0.0419252   0.0000000), wk =   0.2500000
        k(   10) = (  -0.0759910  -0.0838800   0.0000000), wk =   0.1250000

     Initial potential from superposition of free atoms

     starting charge  378.99916, renormalised to  395.00000

     negative rho (up, down):  1.649E-02 0.000E+00

     %%%%%%%%%%%%%%%%%%%%%%%%%%%%%%%%%%%%%%%%%%%%%%%%%%%%%%%%%%%%%%%%%%%%%%%%
     %                                                                      %
     % You are using vdW-DF, which was implemented by the Thonhauser group. %
     % Please cite the following two papers that made this development      %
     % possible and the two reviews that describe the various versions:     %
     %                                                                      %
     %   T. Thonhauser et al., PRL 115, 136402 (2015).                      %
     %   T. Thonhauser et al., PRB 76, 125112 (2007).                       %
     %   K. Berland et al., Rep. Prog. Phys. 78, 066501 (2015).             %
     %   D.C. Langreth et al., J. Phys.: Condens. Matter 21, 084203 (2009). %
     %                                                                      %
     %                                                                      %
     % If you are calculating the stress with vdW-DF, please also cite:     %
     %                                                                      %
     %   R. Sabatini et al., J. Phys.: Condens. Matter 24, 424209 (2012).   %
     %                                                                      %
     %%%%%%%%%%%%%%%%%%%%%%%%%%%%%%%%%%%%%%%%%%%%%%%%%%%%%%%%%%%%%%%%%%%%%%%%

     Adding external electric field

     Computed dipole along edir(3) :
        Dipole               -8.3970 Ry au,        -21.3430 Debye
        Dipole field         -0.0158 Ry au,

        Potential amp.        1.4689 Ry
        Total length         46.3494 bohr

     Starting wfcs are  299 atomic wfcs
  @ DRIVER MODE: Message from server: STATUS
  @ DRIVER MODE: Message from server: POSDATA
  @ DRIVER MODE: Reading and sharing cell
  @ DRIVER MODE: Reading and sharing positions
  @ DRIVER MODE: Received positions

     Self-consistent Calculation

     iteration #  1     ecut=    29.40 Ry     beta= 0.05
     Davidson diagonalization with overlap
     c_bands:  2 eigenvalues not converged
     c_bands:  1 eigenvalues not converged
     c_bands:  2 eigenvalues not converged
     c_bands:  3 eigenvalues not converged
     c_bands:  3 eigenvalues not converged
     c_bands:  2 eigenvalues not converged
     c_bands:  1 eigenvalues not converged
     ethr =  1.00E-05,  avg # of iterations = 19.3

[...]

     total energy              =   -2613.94504301 Ry
     estimated scf accuracy    <    3601.32817568 Ry

[...]

     iteration #  3     ecut=    29.40 Ry     beta= 0.05
     Davidson diagonalization with overlap
     ethr =  1.00E-02,  avg # of iterations = 14.6

[...]

     iteration # 46     ecut=    29.40 Ry     beta= 0.05
     Davidson diagonalization with overlap
     c_bands:  1 eigenvalues not converged
     ethr =  5.01E-07,  avg # of iterations =  9.8

[...]

     total energy              =   -2939.13515250 Ry
     estimated scf accuracy    <       0.00000010 Ry

     iteration # 67     ecut=    29.40 Ry     beta= 0.05
     Davidson diagonalization with overlap
     ethr =  2.54E-11,  avg # of iterations =  8.0

     negative rho (up, down):  1.680E-02 0.000E+00

     Adding external electric field

     Computed dipole along edir(3) :
        Dipole                0.7834 Ry au,          1.9913 Debye
        Dipole field          0.0015 Ry au,

        Potential amp.       -0.1371 Ry
        Total length         46.3494 bohr

     End of self-consistent calculation

          k = 0.0000 0.0000 0.0000 ( 18029 PWs)   bands (ev):

   -55.8548 -55.8536 -55.8207 -55.8175 -55.7479 -55.7048 -55.6674 -55.6654
   -55.6325 -55.6314 -55.6265 -55.5929 -55.1926 -55.1464 -54.8302 -54.7962
   -32.4077 -32.3376 -32.2435 -32.1653 -32.1514 -32.1469 -32.1335 -32.1184
   -32.0978 -32.0846 -32.0317 -32.0141 -32.0071 -32.0053 -31.9956 -31.9918
   -31.9595 -31.9476 -31.9416 -31.9390 -31.9120 -31.9100 -31.8938 -31.8916
   -31.8608 -31.8567 -31.8544 -31.8532 -31.8281 -31.8136 -31.8056 -31.7954
   -31.7835 -31.7811 -31.7735 -31.7400 -31.7339 -31.4560 -31.4203 -31.3918
   -31.3407 -31.3049 -31.2369 -31.1493 -31.1269 -31.0541 -30.9676 -30.8561
   -17.8924 -16.6140 -16.3339 -16.0785 -16.0033 -15.9994 -15.8659 -15.7030
   -15.5902 -15.5233 -15.4430 -15.4132 -15.3911 -15.3555 -15.3492 -15.3116
   -15.3027 -15.2775 -15.2737 -15.2115 -15.2083 -15.2007 -15.1909 -15.1067
   -15.0491 -14.9976 -14.9898 -14.9165 -14.8828 -14.3548 -13.3320 -13.2156
   -12.1571  -7.8761  -5.3550  -4.5468  -3.9908  -3.8315  -3.7616  -3.7274
    -3.6518  -3.4910  -3.4122  -3.1290  -3.0802  -3.0258  -3.0164  -2.9800
    -2.9307  -2.7828  -2.7054  -2.6790  -2.6634  -2.6411  -2.6261  -2.6140
    -2.5972  -2.5786  -2.4979  -2.4166  -2.3728  -2.2956  -2.2820  -2.2465
    -2.1670  -2.1664  -2.1272  -2.1062  -2.0878  -2.0718  -2.0636  -2.0482
    -1.9097  -1.8534  -1.8367  -1.6599  -1.6466  -1.5905  -1.4658  -1.4578
    -1.3407  -1.3257  -1.2852  -1.2474  -1.1752  -1.1531  -1.0415  -1.0004
    -0.9383  -0.8925  -0.8771  -0.8007  -0.7358  -0.6968  -0.6833  -0.6193
    -0.6125  -0.5995  -0.4634  -0.3875  -0.3350  -0.2789  -0.2565  -0.2008
    -0.1612  -0.1180  -0.0300  -0.0034   0.0082   0.0671   0.0882   0.1138
     0.1254   0.1451   0.1740   0.2294   0.3476   0.3793   0.4556   0.4698
     0.5308   0.6644   0.8026   0.8697   0.9221   1.0261   1.1232   1.1927
     1.2657   1.3850   1.7628   1.8083   2.1362   3.2650   3.3670   3.3999
     3.4108   3.5139   3.6624   3.7241   3.7393   3.7808   3.8147

[...]

          k = 0.0380-0.0419 0.0000 ( 17876 PWs)   bands (ev):

[...]

          k =-0.0760-0.0000 0.0000 ( 17886 PWs)   bands (ev):

[...]

          k =-0.0760-0.0839 0.0000 ( 17948 PWs)   bands (ev):

   -55.8379 -55.8374 -55.8360 -55.8349 -55.7393 -55.7133 -55.6506 -55.6491
   -55.6486 -55.6477 -55.6104 -55.6092 -55.1848 -55.1541 -54.8132 -54.8131
   -32.2099 -32.2083 -32.1531 -32.1527 -32.1325 -32.1321 -32.0985 -32.0955
   -32.0863 -32.0696 -32.0043 -32.0014 -31.9960 -31.9940 -31.9721 -31.9644
   -31.9575 -31.9570 -31.9518 -31.9506 -31.9487 -31.9375 -31.9318 -31.9245
   -31.9125 -31.9076 -31.8629 -31.8529 -31.8505 -31.8497 -31.8413 -31.8405
   -31.8275 -31.8268 -31.8262 -31.8249 -31.6860 -31.4516 -31.4185 -31.4147
   -31.3950 -31.3420 -31.1397 -31.1395 -31.0498 -31.0497 -31.0109 -31.0108
   -17.8786 -16.0292 -16.0264 -15.8186 -15.7797 -15.7606 -15.7548 -15.6649
   -15.5793 -15.5456 -15.5426 -15.4563 -15.4296 -15.4135 -15.3973 -15.3919
   -15.3830 -15.3535 -15.3183 -15.3108 -15.2967 -15.2911 -15.2793 -15.2223
   -15.1709 -15.1667 -15.1442 -15.0722 -14.8337 -14.6950 -13.3175 -13.3174
   -12.1177  -7.8158  -5.4020  -4.6071  -3.3238  -3.3142  -3.0677  -3.0248
    -3.0194  -2.9887  -2.9525  -2.7919  -2.7793  -2.7602  -2.7521  -2.7074
    -2.6838  -2.6635  -2.6439  -2.6389  -2.6098  -2.5838  -2.5687  -2.5316
    -2.5249  -2.5157  -2.4841  -2.4735  -2.4283  -2.4215  -2.4009  -2.3733
    -2.3645  -2.3322  -2.1796  -2.1093  -2.0811  -1.9964  -1.9895  -1.9519
    -1.9297  -1.9079  -1.9045  -1.8708  -1.8335  -1.6967  -1.6139  -1.5524
    -1.5437  -1.4593  -1.4318  -1.3697  -1.2802  -1.2548  -1.2338  -1.1621
    -1.0859  -1.0483  -0.9976  -0.9838  -0.9165  -0.9069  -0.8502  -0.8130
    -0.8111  -0.7341  -0.7031  -0.6574  -0.6202  -0.6033  -0.5800  -0.5534
    -0.5379  -0.5148  -0.4409  -0.3549  -0.3033  -0.2420  -0.1495  -0.0189
     0.1001   0.2129   0.2348   0.2785   0.3324   0.3668   0.4592   0.4630
     0.5264   0.5495   0.5911   0.6692   0.6799   0.7044   0.8154   0.8526
     1.5572   1.5576   1.6282   1.6283   2.0768   3.5879   3.6167   3.6358
     3.6674   3.7971   3.8031   3.8136   3.8142   3.9491   3.9526

     the Fermi energy is     3.2749 ev

!    total energy              =   -2939.13519048 Ry
     estimated scf accuracy    <       0.00000007 Ry
     smearing contrib. (-TS)   =      -0.02098926 Ry
     internal energy E=F+TS    =   -2939.11420122 Ry

     The total energy is F=E-TS. E is the sum of the following terms:
     one-electron contribution =  -24492.23861322 Ry
     hartree contribution      =   12334.05357040 Ry
     xc contribution           =    -485.36833155 Ry
     ewald contribution        =    9704.43801485 Ry
     electric field correction =       0.00115830 Ry

     convergence has been achieved in  67 iterations

     Forces acting on atoms (cartesian axes, Ry/au):

     atom    1 type  1   force =     0.00007838   -0.00024499    0.09637303
     atom    2 type  1   force =     0.00005540   -0.00057003   -0.17516164
     atom    3 type  2   force =     0.00015078   -0.00012952   -0.02408562
     atom    4 type  2   force =    -0.00000352   -0.00124577    0.05220966
     atom    5 type  2   force =    -0.01056183   -0.00047886    0.00250438
     atom    6 type  2   force =     0.01238074    0.00022092    0.00287710
     atom    7 type  1   force =     0.00098153    0.00027019   -0.01174224
     atom    8 type  1   force =    -0.00013998    0.00775177    0.02264059
     atom    9 type  2   force =    -0.00019442   -0.00015232   -0.00029267
     atom   10 type  2   force =    -0.00262104    0.00115085   -0.01268922
     atom   11 type  2   force =     0.00005759   -0.00012363    0.00005020
     atom   12 type  2   force =     0.00009739    0.00018605   -0.00038974
     atom   13 type  1   force =     0.00043880   -0.00034237    0.00022409
     atom   14 type  1   force =     0.00015624    0.00032013   -0.00014738
     atom   15 type  2   force =    -0.00020931   -0.00009069   -0.00003438
     atom   16 type  2   force =     0.00012022   -0.00022127    0.00035565
     atom   17 type  2   force =     0.00046474   -0.00002712    0.00034840
     atom   18 type  2   force =     0.00075378   -0.00021344    0.00020763
     atom   19 type  1   force =    -0.00121252   -0.00012970    0.00022189
     atom   20 type  1   force =     0.00027979   -0.00003940   -0.00029237
     atom   21 type  2   force =     0.00005018    0.00000763    0.10310220
     atom   22 type  2   force =     0.00012159   -0.00054944   -0.00003138
     atom   23 type  2   force =    -0.07160784   -0.00014870   -0.02765830
     atom   24 type  2   force =     0.07155157    0.00034815   -0.02771857
     atom   25 type  1   force =     0.00015331   -0.00023277    0.09589780
     atom   26 type  1   force =     0.00009791   -0.00040998   -0.17542655
     atom   27 type  2   force =     0.00017733   -0.00021547   -0.02291710
     atom   28 type  2   force =     0.00006398   -0.00101497    0.05217073
     atom   29 type  2   force =    -0.01086089    0.00048030    0.00242609
     atom   30 type  2   force =     0.01255788    0.00064036    0.00277376
     atom   31 type  1   force =     0.00087144    0.00348558   -0.01292804
     atom   32 type  1   force =     0.00003183   -0.00925256    0.02307537
     atom   33 type  2   force =    -0.00047960    0.00013513    0.00020838
     atom   34 type  2   force =    -0.00302553    0.00022847   -0.01290730
     atom   35 type  2   force =     0.00008588    0.00008300   -0.00008777
     atom   36 type  2   force =     0.00010327    0.00033223   -0.00040057
     atom   37 type  1   force =     0.00033985    0.00036467    0.00009858
     atom   38 type  1   force =     0.00002039   -0.00042932    0.00014953
     atom   39 type  2   force =     0.00014178    0.00048090    0.00052729
     atom   40 type  2   force =     0.00036052    0.00014166   -0.00037836
     atom   41 type  2   force =     0.00054239    0.00000637    0.00034313
     atom   42 type  2   force =     0.00086553    0.00004747    0.00052980
     atom   43 type  1   force =    -0.00158244   -0.00026995   -0.00036282
     atom   44 type  1   force =     0.00071542   -0.00006915   -0.00119537
     atom   45 type  2   force =     0.00005831   -0.00004336    0.10307203
     atom   46 type  2   force =    -0.07163691   -0.00007093   -0.02767098
     atom   47 type  2   force =     0.07157866    0.00032593   -0.02773957
     atom   48 type  3   force =     0.00129516   -0.00631048    0.00231063
     atom   49 type  4   force =    -0.00690039    0.02520404   -0.00047315
     atom   50 type  5   force =    -0.00128784   -0.00511270   -0.00384470
     atom   51 type  5   force =     0.00342498   -0.01292832   -0.00007476
     atom   52 type  3   force =     0.00124435   -0.00124886    0.00092498
     atom   53 type  5   force =    -0.00014482    0.00010426    0.00102764

     Total force =     0.367035     Total SCF correction =     0.000573
  @ DRIVER MODE: Message from server: STATUS
  @ DRIVER MODE: Message from server: GETFORCE
  @ DRIVER MODE: Returning v,forces,stress,ensemble

     Writing output data file ./calc.save/
  @ DRIVER MODE: Message from server: EXIT
  @ DRIVE MODE: Exiting

     General routines

     Parallel routines

   This run was terminated on:   0:44: 5   9Sep2021

   JOB DONE.