     Program PWSCF v.6.7GPU starts on 15Sep2021 at 19:38: 4

     R & G space division:  proc/nbgrp/npool/nimage =      10
     Reading input from /storage/home/hcoda1/3/ntian30/research/carbon/CxH_vib/H2O_calc/ads_slab/CHN2HH2O_a/out_0013/pw.inp
Warning: card &CELL ignored
Warning: card   CELL_DYNAMICS='IPI', ignored
Warning: card / ignored

     Current dimensions of program PWSCF are:
     Max number of different atomic species (ntypx) = 10
     Max number of k-points (npk) =  40000
     Max angular momentum in pseudopotentials (lmaxx) =  3
     Presently no symmetry can be used with electric field

     Message from routine cell_base_init:
     DEPRECATED: use true lattice parameter, not A to a.u. conversion factor

     IMPORTANT: XC functional enforced from input :
     Exchange-correlation= BEEF-VDW
                           (   1   4  43  14   2   0   0)
     Any further DFT definition will be discarded
     Please, verify this is what you really want

  @ DRIVER MODE: Connecting to
 qe_1139763_2852626.sched-torque.pace.gatech.edux_99rbgv_scratch
  using UNIX socket
  @ DRIVER MODE: Message from server: STATUS
  @ DRIVER MODE: Message from server: INIT
  @ DRIVER MODE: Receiving replica           0          -1
  @ DRIVER MODE: Receiving encoded integer          25
  @ DRIVER MODE:  SCF:  T  FORCE:  T  STRESS:  F  VC:  F  ENSEMBLE:  F
  @ DRIVER MODE:  SCF:  T  FORCE:  T  STRESS:  F  VC:  F  ENSEMBLE:  F

     Using Slab Decomposition

     bravais-lattice index     =            0
     lattice parameter (alat)  =       1.8897  a.u.
     unit-cell volume          =    6658.9804 (a.u.)^3
     number of atoms/cell      =           55
     number of atomic types    =            5
     number of electrons       =       402.00
     number of Kohn-Sham states=          211
     kinetic-energy cutoff     =      29.3995  Ry
     charge density cutoff     =     293.9946  Ry
     scf convergence threshold =      7.3E-08
     mixing beta               =       0.0500
     number of iterations used =            8  plain     mixing
     Exchange-correlation= BEEF-VDW
                           (   1   4  43  14   2   0   0)

     celldm(1)=   1.889726  celldm(2)=   0.000000  celldm(3)=   0.000000
     celldm(4)=   0.000000  celldm(5)=   0.000000  celldm(6)=   0.000000

     crystal axes: (cart. coord. in units of alat)
               a(1) = (   6.579727   0.000000   0.000000 )
               a(2) = (  -0.000775   5.961596   0.000000 )
               a(3) = (   0.000000   0.000000  25.155947 )

     reciprocal axes: (cart. coord. in units 2 pi/alat)
               b(1) = (  0.151982  0.000020  0.000000 )
               b(2) = (  0.000000  0.167740  0.000000 )
               b(3) = (  0.000000  0.000000  0.039752 )

     PseudoPot. # 1 for Ti read from file:
     /storage/coda1/p-amedford6/0/shared/rich_project_chbe-medford/medford-share/data/pseudos_module/espresso/nninc/pbe/van/Ti.UPF
     MD5 check sum: 8e4df49b7f0d34bbd5052bf3f5ea0213
     Pseudo is Ultrasoft, Zval = 12.0
     Generated by new atomic code, or converted to UPF format
     Using radial grid of  851 points,  6 beta functions with:
                l(1) =   0
                l(2) =   0
                l(3) =   1
                l(4) =   1
                l(5) =   2
                l(6) =   2
     Q(r) pseudized with  8 coefficients,  rinner =    1.000   1.000   1.000
                                                       1.000   1.000

     PseudoPot. # 2 for O  read from file:
     /storage/coda1/p-amedford6/0/shared/rich_project_chbe-medford/medford-share/data/pseudos_module/espresso/nninc/pbe/van/O.UPF
     MD5 check sum: 78c19812648e8988a0fe644b0f25305e
     Pseudo is Ultrasoft, Zval =  6.0
     Generated by new atomic code, or converted to UPF format
     Using radial grid of  737 points,  4 beta functions with:
                l(1) =   0
                l(2) =   0
                l(3) =   1
                l(4) =   1
     Q(r) pseudized with  8 coefficients,  rinner =    0.800   0.800   0.800

     PseudoPot. # 3 for N  read from file:
     /storage/coda1/p-amedford6/0/shared/rich_project_chbe-medford/medford-share/data/pseudos_module/espresso/nninc/pbe/van/N.UPF
     MD5 check sum: 90d10febe142ad51ac9d5be1deb811c4
     Pseudo is Ultrasoft, Zval =  5.0
     Generated by new atomic code, or converted to UPF format
     Using radial grid of  729 points,  4 beta functions with:
                l(1) =   0
                l(2) =   0
                l(3) =   1
                l(4) =   1
     Q(r) pseudized with  8 coefficients,  rinner =    0.800   0.800   0.800

     PseudoPot. # 4 for C  read from file:
     /storage/coda1/p-amedford6/0/shared/rich_project_chbe-medford/medford-share/data/pseudos_module/espresso/nninc/pbe/van/C.UPF
     MD5 check sum: 1a69bf6b8db32088f5b2163dbdb77a27
     Pseudo is Ultrasoft, Zval =  4.0
     Generated by new atomic code, or converted to UPF format
     Using radial grid of  721 points,  4 beta functions with:
                l(1) =   0
                l(2) =   0
                l(3) =   1
                l(4) =   1
     Q(r) pseudized with  8 coefficients,  rinner =    0.800   0.800   0.800

     PseudoPot. # 5 for H  read from file:
     /storage/coda1/p-amedford6/0/shared/rich_project_chbe-medford/medford-share/data/pseudos_module/espresso/nninc/pbe/van/H.UPF
     MD5 check sum: b5ee9d7bfd3a09ee7748110bda690ff7
     Pseudo is Ultrasoft, Zval =  1.0
     Generated by new atomic code, or converted to UPF format
     Using radial grid of  615 points,  1 beta functions with:
                l(1) =   0
     Q(r) pseudized with  8 coefficients,  rinner =    0.800

     atomic species   valence    mass     pseudopotential
        Ti1           12.00    47.86700     Ti( 1.00)
        O1             6.00    15.99900     O ( 1.00)
        N1             5.00    14.00700     N ( 1.00)
        C1             4.00    12.01100     C ( 1.00)
        H1             1.00     1.00800     H ( 1.00)

     No symmetry found

   Cartesian axes

     site n.     atom                  positions (alat units)
         1           Ti1 tau(   1) = (   0.0004258   2.9801865   6.0000000  )
         2           Ti1 tau(   2) = (   3.2906075   1.4906267   6.0002472  )
         3           O1  tau(   3) = (   0.0006271   0.0005054   7.9858123  )
         4           O1  tau(   4) = (   3.2906025   0.0005020   7.3038282  )
         5           O1  tau(   5) = (   4.5942328   1.4918067   9.2879030  )
         6           O1  tau(   6) = (   1.9868534   1.4903216   9.2879459  )
         7           Ti1 tau(   7) = (   3.2907910   2.8959150   9.1758416  )
         8           Ti1 tau(   8) = (   0.0015273   1.4827037   9.2680791  )
         9           O1  tau(   9) = (   3.2768631   0.0039008  11.3091060  )
        10           O1  tau(  10) = (   0.0116148   5.9584955  10.6183126  )
        11           O1  tau(  11) = (   1.2710838   1.4709840  12.6395574  )
        12           O1  tau(  12) = (   5.2772223   1.5075092  12.6020671  )
        13           Ti1 tau(  13) = (   0.0276258   2.9086511  12.7028215  )
        14           Ti1 tau(  14) = (   3.3492493   1.4375301  12.4845766  )
        15           O1  tau(  15) = (   6.5006329   5.9509897  14.6081112  )
        16           O1  tau(  16) = (   3.3450391   0.0041935  13.9069437  )
        17           O1  tau(  17) = (   4.5555219   1.5659029  16.0522165  )
        18           O1  tau(  18) = (   1.9836904   1.4119734  15.8927236  )
        19           Ti1 tau(  19) = (   3.2827818   2.9316656  15.8555152  )
        20           Ti1 tau(  20) = (   6.5629331   1.3437128  15.9803530  )
        21           O1  tau(  21) = (   3.2904802   0.0005063   4.7018136  )
        22           O1  tau(  22) = (   6.5074089   5.9525318  17.1494500  )
        23           O1  tau(  23) = (   1.3043587   1.4918075   6.0039043  )
        24           O1  tau(  24) = (   5.2767064   1.4903225   6.0039473  )
        25           Ti1 tau(  25) = (   0.0000382   5.9609847   6.0000000  )
        26           Ti1 tau(  26) = (   3.2902200   4.4714249   6.0002472  )
        27           O1  tau(  27) = (   0.0002396   2.9813036   7.9858123  )
        28           O1  tau(  28) = (   3.2902150   2.9813002   7.3038282  )
        29           O1  tau(  29) = (   4.5938453   4.4726049   9.2879030  )
        30           O1  tau(  30) = (   1.9864658   4.4711199   9.2879459  )
        31           Ti1 tau(  31) = (   3.2891106   5.8743827   9.1763621  )
        32           Ti1 tau(  32) = (   0.0006254   4.4649316   9.2693709  )
        33           O1  tau(  33) = (   3.2854303   2.9668816  11.2996989  )
        34           O1  tau(  34) = (   0.0092240   2.9805883  10.6323155  )
        35           O1  tau(  35) = (   1.2743094   4.4851408  12.6236879  )
        36           O1  tau(  36) = (   5.2782958   4.4707264  12.5946799  )
        37           Ti1 tau(  37) = (   0.0481499   5.8920156  12.5607908  )
        38           Ti1 tau(  38) = (   3.3544845   4.3749597  12.5572158  )
        39           O1  tau(  39) = (   6.5410016   3.0017514  14.6365314  )
        40           O1  tau(  40) = (   3.2441134   3.0029108  13.8718978  )
        41           O1  tau(  41) = (   4.5385932   4.4028810  16.0550583  )
        42           O1  tau(  42) = (   1.9619458   4.5383001  15.8611175  )
        43           Ti1 tau(  43) = (   3.2178196   5.9097812  15.7399460  )
        44           Ti1 tau(  44) = (   6.5330930   4.4908980  15.8705378  )
        45           O1  tau(  45) = (   3.2900926   2.9813045   4.7018136  )
        46           O1  tau(  46) = (   1.3039711   4.4726057   6.0039043  )
        47           O1  tau(  47) = (   5.2763189   4.4711207   6.0039473  )
        48           N1  tau(  48) = (   1.2867840   3.0293760  18.3347772  )
        49           C1  tau(  49) = (   2.5003166   3.0326976  17.9707196  )
        50           H1  tau(  50) = (   3.1953588   3.1791635  18.8000936  )
        51           N1  tau(  51) = (   0.2138509   2.9871109  17.4421441  )
        52           H1  tau(  52) = (   5.9621615   2.9869774  18.0311354  )
        53           O1  tau(  53) = (   3.4290693   5.9360351  18.0748810  )
        54           H1  tau(  54) = (   4.3780305   0.1327944  18.2306609  )
        55           H1  tau(  55) = (   2.9458904   0.7245148  18.4607207  )

     number of k points=    10  Fermi-Dirac smearing, width (Ry)=  0.0073
                       cart. coord. in units 2pi/alat
        k(    1) = (   0.0000000   0.0000000   0.0000000), wk =   0.1250000
        k(    2) = (   0.0000000   0.0419351   0.0000000), wk =   0.2500000
        k(    3) = (   0.0000000  -0.0838702   0.0000000), wk =   0.1250000
        k(    4) = (   0.0379955   0.0000049   0.0000000), wk =   0.2500000
        k(    5) = (   0.0379955   0.0419400   0.0000000), wk =   0.2500000
        k(    6) = (   0.0379955  -0.0838652   0.0000000), wk =   0.2500000
        k(    7) = (   0.0379955  -0.0419301   0.0000000), wk =   0.2500000
        k(    8) = (  -0.0759910  -0.0000099   0.0000000), wk =   0.1250000
        k(    9) = (  -0.0759910   0.0419252   0.0000000), wk =   0.2500000
        k(   10) = (  -0.0759910  -0.0838800   0.0000000), wk =   0.1250000

     Initial potential from superposition of free atoms

     starting charge  385.99915, renormalised to  402.00000

     negative rho (up, down):  1.831E-02 0.000E+00

     %%%%%%%%%%%%%%%%%%%%%%%%%%%%%%%%%%%%%%%%%%%%%%%%%%%%%%%%%%%%%%%%%%%%%%%%
     %                                                                      %
     % You are using vdW-DF, which was implemented by the Thonhauser group. %
     % Please cite the following two papers that made this development      %
     % possible and the two reviews that describe the various versions:     %
     %                                                                      %
     %   T. Thonhauser et al., PRL 115, 136402 (2015).                      %
     %   T. Thonhauser et al., PRB 76, 125112 (2007).                       %
     %   K. Berland et al., Rep. Prog. Phys. 78, 066501 (2015).             %
     %   D.C. Langreth et al., J. Phys.: Condens. Matter 21, 084203 (2009). %
     %                                                                      %
     %                                                                      %
     % If you are calculating the stress with vdW-DF, please also cite:     %
     %                                                                      %
     %   R. Sabatini et al., J. Phys.: Condens. Matter 24, 424209 (2012).   %
     %                                                                      %
     %%%%%%%%%%%%%%%%%%%%%%%%%%%%%%%%%%%%%%%%%%%%%%%%%%%%%%%%%%%%%%%%%%%%%%%%

     Adding external electric field

     Computed dipole along edir(3) :
        Dipole              -11.0899 Ry au,        -28.1877 Debye
        Dipole field         -0.0209 Ry au,

        Potential amp.        1.9400 Ry
        Total length         46.3494 bohr

     Starting wfcs are  304 atomic wfcs
  @ DRIVER MODE: Message from server: STATUS
  @ DRIVER MODE: Message from server: POSDATA
  @ DRIVER MODE: Reading and sharing cell
  @ DRIVER MODE: Reading and sharing positions
  @ DRIVER MODE: Received positions

     Self-consistent Calculation

     iteration #  1     ecut=    29.40 Ry     beta= 0.05
     Davidson diagonalization with overlap
     c_bands:  1 eigenvalues not converged
     c_bands:  3 eigenvalues not converged
     c_bands:  4 eigenvalues not converged
     c_bands:  1 eigenvalues not converged
     c_bands:  2 eigenvalues not converged
     c_bands:  1 eigenvalues not converged
     c_bands:  1 eigenvalues not converged
     ethr =  1.00E-05,  avg # of iterations = 29.6

[...]

     total energy              =   -2403.80508722 Ry
     estimated scf accuracy    <    6374.30058349 Ry

     iteration #  2     ecut=    29.40 Ry     beta= 0.05
     Davidson diagonalization with overlap
     ethr =  1.00E-02,  avg # of iterations = 26.3

[...]

     iteration # 40     ecut=    29.40 Ry     beta= 0.05
     Davidson diagonalization with overlap
     c_bands:  1 eigenvalues not converged
     ethr =  1.05E-07,  avg # of iterations =  8.5

[...]

     total energy              =   -2972.69107197 Ry
     estimated scf accuracy    <       0.00000020 Ry

     iteration # 60     ecut=    29.40 Ry     beta= 0.05
     Davidson diagonalization with overlap
     ethr =  5.01E-11,  avg # of iterations =  5.8

     negative rho (up, down):  1.794E-02 0.000E+00

     Adding external electric field

     Computed dipole along edir(3) :
        Dipole                0.3616 Ry au,          0.9191 Debye
        Dipole field          0.0007 Ry au,

        Potential amp.       -0.0633 Ry
        Total length         46.3494 bohr

     End of self-consistent calculation

          k = 0.0000 0.0000 0.0000 ( 18029 PWs)   bands (ev):

   -56.3440 -56.3102 -55.9417 -55.9079 -55.7534 -55.7169 -55.5609 -55.5553
   -55.5477 -55.5244 -55.5143 -55.4503 -55.2521 -55.2400 -55.1473 -55.1134
   -32.7975 -32.6366 -32.6097 -32.5022 -32.4213 -32.4168 -32.4093 -32.2422
   -32.1591 -32.1549 -32.0964 -32.0837 -32.0687 -32.0445 -32.0385 -31.9778
   -31.9760 -31.9677 -31.9344 -31.9106 -31.9079 -31.8672 -31.8516 -31.8427
   -31.8176 -31.7802 -31.7594 -31.7323 -31.7293 -31.7101 -31.7081 -31.7051
   -31.6887 -31.6701 -31.6531 -31.6378 -31.5509 -31.5459 -31.5122 -31.4976
   -31.4781 -31.4688 -31.4546 -31.4396 -31.3641 -31.3335 -31.2792 -31.1675
   -18.7446 -16.9357 -16.6607 -16.3483 -16.1457 -15.9632 -15.8987 -15.8414
   -15.7891 -15.6683 -15.6051 -15.5776 -15.5054 -15.4005 -15.3815 -15.3527
   -15.3028 -15.2843 -15.2678 -15.2383 -15.1850 -15.1502 -15.1332 -15.0574
   -15.0360 -15.0251 -14.8989 -14.8322 -14.8086 -14.7729 -14.5198 -13.6459
   -13.5329 -12.2828  -6.7403  -6.5274  -4.1625  -4.0792  -3.9068  -3.7693
    -3.6674  -3.6188  -3.4620  -3.4109  -3.3660  -3.2643  -3.1205  -3.0889
    -3.0165  -2.9659  -2.9223  -2.8645  -2.8047  -2.7604  -2.7182  -2.6347
    -2.6297  -2.6175  -2.5994  -2.5820  -2.5635  -2.4475  -2.3556  -2.3376
    -2.3150  -2.2724  -2.2533  -2.2406  -2.1909  -2.1608  -2.0774  -2.0681
    -2.0206  -1.9628  -1.9154  -1.8081  -1.7959  -1.7207  -1.7037  -1.6624
    -1.5297  -1.4061  -1.3758  -1.3220  -1.3102  -1.2249  -1.2055  -1.1769
    -1.0792  -1.0675  -1.0233  -1.0012  -0.8774  -0.8519  -0.8040  -0.7954
    -0.7666  -0.6697  -0.6315  -0.5207  -0.4756  -0.4307  -0.4213  -0.3465
    -0.3183  -0.2742  -0.2234  -0.1705  -0.1683  -0.1404  -0.0572  -0.0159
     0.0300   0.0786   0.1142   0.2020   0.2559   0.2929   0.3077   0.3956
     0.4379   0.4533   0.5186   0.5871   0.6386   0.7052   0.7485   0.8625
     0.8765   0.8938   0.9768   1.0985   1.4088   1.4295   1.4698   1.6627
     2.6470   2.8794   3.0002   3.1646   3.3096   3.3594   3.6304   3.6849
     3.7268   3.7597   3.8342

[...]

          k = 0.0380-0.0419 0.0000 ( 17876 PWs)   bands (ev):

[...]

          k =-0.0760-0.0000 0.0000 ( 17886 PWs)   bands (ev):

[...]

          k =-0.0760-0.0839 0.0000 ( 17948 PWs)   bands (ev):

   -56.3276 -56.3264 -55.9265 -55.9229 -55.7419 -55.7282 -55.5549 -55.5451
   -55.5385 -55.5335 -55.5293 -55.4488 -55.2533 -55.2410 -55.1303 -55.1303
   -32.6227 -32.6214 -32.6137 -32.6130 -32.4546 -32.4533 -32.2421 -32.2381
   -32.1318 -32.1284 -32.1189 -32.1117 -32.0422 -32.0321 -31.9700 -31.9601
   -31.9506 -31.9479 -31.8984 -31.8874 -31.8672 -31.8651 -31.8584 -31.8268
   -31.8121 -31.7811 -31.7748 -31.7585 -31.7556 -31.7474 -31.7463 -31.7311
   -31.7261 -31.7161 -31.7043 -31.6346 -31.6084 -31.5552 -31.5249 -31.5096
   -31.4733 -31.4675 -31.4675 -31.3602 -31.3601 -31.3349 -31.3218 -31.3217
   -18.7422 -16.9141 -16.0651 -16.0527 -15.9349 -15.9300 -15.7513 -15.7330
   -15.6987 -15.6732 -15.6359 -15.5498 -15.4852 -15.4778 -15.4710 -15.4068
   -15.3618 -15.3530 -15.3339 -15.3057 -15.2789 -15.2528 -15.1614 -15.1355
   -15.1313 -15.1018 -15.0206 -15.0079 -14.9473 -14.8112 -14.7380 -13.6360
   -13.6355 -12.3040  -6.7202  -6.4516  -3.9895  -3.8283  -3.2354  -3.1852
    -3.1758  -3.0664  -3.0402  -2.9650  -2.8683  -2.8508  -2.8368  -2.8028
    -2.7783  -2.7699  -2.7532  -2.7079  -2.6612  -2.6393  -2.6234  -2.6149
    -2.6099  -2.5949  -2.5655  -2.5373  -2.4787  -2.4692  -2.4356  -2.4179
    -2.3890  -2.3123  -2.3043  -2.2903  -2.2885  -2.2313  -2.1328  -2.1178
    -2.1089  -2.0657  -1.9997  -1.9309  -1.8424  -1.8006  -1.7343  -1.6786
    -1.6226  -1.5946  -1.5814  -1.4827  -1.4236  -1.4126  -1.3661  -1.3127
    -1.2342  -1.1978  -1.1603  -1.1493  -1.1369  -1.0950  -1.0440  -0.9850
    -0.8698  -0.8457  -0.8356  -0.7732  -0.7688  -0.7586  -0.6482  -0.6177
    -0.5674  -0.5420  -0.5226  -0.4843  -0.4553  -0.3809  -0.2889  -0.2426
    -0.1141  -0.0976  -0.0441   0.0027   0.0149   0.1072   0.1941   0.2181
     0.3573   0.3716   0.4042   0.5373   0.6065   0.6579   0.6752   0.7979
     0.8172   0.8529   1.0194   1.2629   1.2673   1.2861   1.2873   1.6128
     2.6231   3.4186   3.4209   3.4508   3.4529   3.6630   3.6766   3.7548
     3.7932   3.8851   3.9071

     the Fermi energy is     2.8206 ev

!    total energy              =   -2972.69113048 Ry
     estimated scf accuracy    <       0.00000006 Ry
     smearing contrib. (-TS)   =      -0.01344244 Ry
     internal energy E=F+TS    =   -2972.67768803 Ry

     The total energy is F=E-TS. E is the sum of the following terms:
     one-electron contribution =  -24586.79208311 Ry
     hartree contribution      =   12385.41197529 Ry
     xc contribution           =    -493.17922782 Ry
     ewald contribution        =    9721.88140086 Ry
     electric field correction =       0.00024674 Ry

     convergence has been achieved in  60 iterations

     Forces acting on atoms (cartesian axes, Ry/au):

     atom    1 type  1   force =    -0.00000853   -0.00028468    0.10606698
     atom    2 type  1   force =    -0.00022136   -0.00076484   -0.16694882
     atom    3 type  2   force =    -0.00002436   -0.00013629   -0.03891873
     atom    4 type  2   force =    -0.00009910   -0.00037552    0.03646442
     atom    5 type  2   force =    -0.00755381   -0.00012716   -0.00577691
     atom    6 type  2   force =     0.00856741    0.00078165   -0.00746351
     atom    7 type  1   force =    -0.00079825   -0.00145432    0.01977464
     atom    8 type  1   force =     0.00110714    0.01828111    0.06314679
     atom    9 type  2   force =    -0.00008235   -0.00019923    0.00032051
     atom   10 type  2   force =    -0.00265166    0.00203342   -0.04766234
     atom   11 type  2   force =    -0.00024302   -0.00000879    0.00010688
     atom   12 type  2   force =     0.00037982   -0.00012866    0.00007387
     atom   13 type  1   force =     0.00006045   -0.00010757   -0.00033637
     atom   14 type  1   force =    -0.00048046    0.00000455    0.00007961
     atom   15 type  2   force =     0.00026788    0.00010014   -0.00035222
     atom   16 type  2   force =    -0.00012136   -0.00029153    0.00055177
     atom   17 type  2   force =     0.00002375   -0.00020982    0.00033383
     atom   18 type  2   force =     0.00016452    0.00009023   -0.00028702
     atom   19 type  1   force =     0.00008436    0.00004462    0.00134019
     atom   20 type  1   force =     0.00020248    0.00030561    0.00005746
     atom   21 type  2   force =     0.00004745   -0.00001990    0.10089325
     atom   22 type  2   force =     0.00030256    0.00025028    0.00053932
     atom   23 type  2   force =    -0.07581696   -0.00011432   -0.02988343
     atom   24 type  2   force =     0.07570611    0.00033905   -0.02989292
     atom   25 type  1   force =     0.00020298   -0.00055993    0.10643403
     atom   26 type  1   force =    -0.00006789   -0.00026250   -0.16738662
     atom   27 type  2   force =    -0.00006171   -0.00032102   -0.03757388
     atom   28 type  2   force =     0.00007066   -0.00045765    0.03691930
     atom   29 type  2   force =    -0.00852482    0.00126210   -0.00517084
     atom   30 type  2   force =     0.00948053    0.00122379   -0.00688677
     atom   31 type  1   force =    -0.00129842   -0.00008058    0.02610345
     atom   32 type  1   force =     0.00115681   -0.02137959    0.06372502
     atom   33 type  2   force =    -0.00002515    0.00024617   -0.00005727
     atom   34 type  2   force =    -0.00008510    0.00090985   -0.05945520
     atom   35 type  2   force =    -0.00009169    0.00008998   -0.00013994
     atom   36 type  2   force =    -0.00010927    0.00036719   -0.00015836
     atom   37 type  1   force =     0.00001918   -0.00032567    0.00010087
     atom   38 type  1   force =    -0.00042042   -0.00008518   -0.00010705
     atom   39 type  2   force =    -0.00021164    0.00037390    0.00045020
     atom   40 type  2   force =     0.00047886    0.00013833   -0.00041910
     atom   41 type  2   force =    -0.00009514    0.00034624   -0.00012979
     atom   42 type  2   force =     0.00050311    0.00019591    0.00005859
     atom   43 type  1   force =    -0.00042508   -0.00001776   -0.00006391
     atom   44 type  1   force =     0.00039495   -0.00003644   -0.00025557
     atom   45 type  2   force =     0.00002376   -0.00000315    0.10092950
     atom   46 type  2   force =    -0.07582808   -0.00010759   -0.02983763
     atom   47 type  2   force =     0.07569592    0.00031937   -0.02987435
     atom   48 type  3   force =    -0.00150333    0.00012589   -0.00077462
     atom   49 type  4   force =    -0.00352187    0.00011286   -0.00318918
     atom   50 type  5   force =     0.00576379   -0.00036742    0.00470048
     atom   51 type  3   force =     0.00003098    0.00006274   -0.00033155
     atom   52 type  5   force =    -0.00005047    0.00027203    0.00021076
     atom   53 type  2   force =    -0.00054978   -0.00001189   -0.00085853
     atom   54 type  5   force =    -0.00025807    0.00011445    0.00043700
     atom   55 type  5   force =     0.00049364   -0.00015243    0.00037370

     Total force =     0.383760     Total SCF correction =     0.000700
  @ DRIVER MODE: Message from server: STATUS
  @ DRIVER MODE: Message from server: GETFORCE
  @ DRIVER MODE: Returning v,forces,stress,ensemble

     Writing output data file ./calc.save/
  @ DRIVER MODE: Message from server: EXIT
  @ DRIVE MODE: Exiting

     General routines

     Parallel routines

   This run was terminated on:  19:54:32  15Sep2021

   JOB DONE.