     Program PWSCF v.6.7GPU starts on 10Sep2021 at  1:33:50

     R & G space division:  proc/nbgrp/npool/nimage =      10
     Reading input from /storage/home/hcoda1/3/ntian30/research/carbon/CxH_vib/CH3_calc/ads_slab/CH3N2H2O_g/out_0016/pw.inp
Warning: card &CELL ignored
Warning: card   CELL_DYNAMICS='IPI', ignored
Warning: card / ignored

     Current dimensions of program PWSCF are:
     Max number of different atomic species (ntypx) = 10
     Max number of k-points (npk) =  40000
     Max angular momentum in pseudopotentials (lmaxx) =  3
     Presently no symmetry can be used with electric field

     Message from routine cell_base_init:
     DEPRECATED: use true lattice parameter, not A to a.u. conversion factor

     IMPORTANT: XC functional enforced from input :
     Exchange-correlation= BEEF-VDW
                           (   1   4  43  14   2   0   0)
     Any further DFT definition will be discarded
     Please, verify this is what you really want

  @ DRIVER MODE: Connecting to
 qe_1139763_2779714.sched-torque.pace.gatech.edulvabzc24_scratch
  using UNIX socket
  @ DRIVER MODE: Message from server: STATUS
  @ DRIVER MODE: Message from server: INIT
  @ DRIVER MODE: Receiving replica           0          -1
  @ DRIVER MODE: Receiving encoded integer          25
  @ DRIVER MODE:  SCF:  T  FORCE:  T  STRESS:  F  VC:  F  ENSEMBLE:  F
  @ DRIVER MODE:  SCF:  T  FORCE:  T  STRESS:  F  VC:  F  ENSEMBLE:  F

     Using Slab Decomposition

     bravais-lattice index     =            0
     lattice parameter (alat)  =       1.8897  a.u.
     unit-cell volume          =    6658.9804 (a.u.)^3
     number of atoms/cell      =           56
     number of atomic types    =            5
     number of electrons       =       403.00
     number of Kohn-Sham states=          211
     kinetic-energy cutoff     =      29.3995  Ry
     charge density cutoff     =     293.9946  Ry
     scf convergence threshold =      7.3E-08
     mixing beta               =       0.0500
     number of iterations used =            8  plain     mixing
     Exchange-correlation= BEEF-VDW
                           (   1   4  43  14   2   0   0)

     celldm(1)=   1.889726  celldm(2)=   0.000000  celldm(3)=   0.000000
     celldm(4)=   0.000000  celldm(5)=   0.000000  celldm(6)=   0.000000

     crystal axes: (cart. coord. in units of alat)
               a(1) = (   6.579727   0.000000   0.000000 )
               a(2) = (  -0.000775   5.961596   0.000000 )
               a(3) = (   0.000000   0.000000  25.155947 )

     reciprocal axes: (cart. coord. in units 2 pi/alat)
               b(1) = (  0.151982  0.000020  0.000000 )
               b(2) = (  0.000000  0.167740  0.000000 )
               b(3) = (  0.000000  0.000000  0.039752 )

     PseudoPot. # 1 for Ti read from file:
     /storage/coda1/p-amedford6/0/shared/rich_project_chbe-medford/medford-share/data/pseudos_module/espresso/nninc/pbe/van/Ti.UPF
     MD5 check sum: 8e4df49b7f0d34bbd5052bf3f5ea0213
     Pseudo is Ultrasoft, Zval = 12.0
     Generated by new atomic code, or converted to UPF format
     Using radial grid of  851 points,  6 beta functions with:
                l(1) =   0
                l(2) =   0
                l(3) =   1
                l(4) =   1
                l(5) =   2
                l(6) =   2
     Q(r) pseudized with  8 coefficients,  rinner =    1.000   1.000   1.000
                                                       1.000   1.000

     PseudoPot. # 2 for O  read from file:
     /storage/coda1/p-amedford6/0/shared/rich_project_chbe-medford/medford-share/data/pseudos_module/espresso/nninc/pbe/van/O.UPF
     MD5 check sum: 78c19812648e8988a0fe644b0f25305e
     Pseudo is Ultrasoft, Zval =  6.0
     Generated by new atomic code, or converted to UPF format
     Using radial grid of  737 points,  4 beta functions with:
                l(1) =   0
                l(2) =   0
                l(3) =   1
                l(4) =   1
     Q(r) pseudized with  8 coefficients,  rinner =    0.800   0.800   0.800

     PseudoPot. # 3 for N  read from file:
     /storage/coda1/p-amedford6/0/shared/rich_project_chbe-medford/medford-share/data/pseudos_module/espresso/nninc/pbe/van/N.UPF
     MD5 check sum: 90d10febe142ad51ac9d5be1deb811c4
     Pseudo is Ultrasoft, Zval =  5.0
     Generated by new atomic code, or converted to UPF format
     Using radial grid of  729 points,  4 beta functions with:
                l(1) =   0
                l(2) =   0
                l(3) =   1
                l(4) =   1
     Q(r) pseudized with  8 coefficients,  rinner =    0.800   0.800   0.800

     PseudoPot. # 4 for C  read from file:
     /storage/coda1/p-amedford6/0/shared/rich_project_chbe-medford/medford-share/data/pseudos_module/espresso/nninc/pbe/van/C.UPF
     MD5 check sum: 1a69bf6b8db32088f5b2163dbdb77a27
     Pseudo is Ultrasoft, Zval =  4.0
     Generated by new atomic code, or converted to UPF format
     Using radial grid of  721 points,  4 beta functions with:
                l(1) =   0
                l(2) =   0
                l(3) =   1
                l(4) =   1
     Q(r) pseudized with  8 coefficients,  rinner =    0.800   0.800   0.800

     PseudoPot. # 5 for H  read from file:
     /storage/coda1/p-amedford6/0/shared/rich_project_chbe-medford/medford-share/data/pseudos_module/espresso/nninc/pbe/van/H.UPF
     MD5 check sum: b5ee9d7bfd3a09ee7748110bda690ff7
     Pseudo is Ultrasoft, Zval =  1.0
     Generated by new atomic code, or converted to UPF format
     Using radial grid of  615 points,  1 beta functions with:
                l(1) =   0
     Q(r) pseudized with  8 coefficients,  rinner =    0.800

     atomic species   valence    mass     pseudopotential
        Ti1           12.00    47.86700     Ti( 1.00)
        O1             6.00    15.99900     O ( 1.00)
        N1             5.00    14.00700     N ( 1.00)
        C1             4.00    12.01100     C ( 1.00)
        H1             1.00     1.00800     H ( 1.00)

     No symmetry found

   Cartesian axes

     site n.     atom                  positions (alat units)
         1           Ti1 tau(   1) = (   0.0004258   2.9801865   6.0000000  )
         2           Ti1 tau(   2) = (   3.2906075   1.4906267   6.0002472  )
         3           O1  tau(   3) = (   0.0006271   0.0005054   7.9858123  )
         4           O1  tau(   4) = (   3.2906025   0.0005020   7.3038282  )
         5           O1  tau(   5) = (   4.5942328   1.4918067   9.2879030  )
         6           O1  tau(   6) = (   1.9868534   1.4903216   9.2879459  )
         7           Ti1 tau(   7) = (   3.2907910   2.8959150   9.1758416  )
         8           Ti1 tau(   8) = (   0.0015273   1.4827037   9.2680791  )
         9           O1  tau(   9) = (   3.3002115   5.9463602  11.3460011  )
        10           O1  tau(  10) = (   0.0116148   5.9584955  10.6183126  )
        11           O1  tau(  11) = (   1.3192008   1.4768417  12.6238339  )
        12           O1  tau(  12) = (   5.3062067   1.4698383  12.6193417  )
        13           Ti1 tau(  13) = (   6.5330844   2.9444840  12.6148558  )
        14           Ti1 tau(  14) = (   3.2222230   1.4676475  12.5013840  )
        15           O1  tau(  15) = (   0.0064324   5.9471174  14.6352917  )
        16           O1  tau(  16) = (   3.3028336   5.9445487  13.9678148  )
        17           O1  tau(  17) = (   4.5628415   1.5226527  16.0793330  )
        18           O1  tau(  18) = (   2.0474444   1.5206590  16.0184434  )
        19           Ti1 tau(  19) = (   3.3141275   2.9607752  15.6908890  )
        20           Ti1 tau(  20) = (   6.5660065   1.5097775  15.7997320  )
        21           O1  tau(  21) = (   3.2904802   0.0005063   4.7018136  )
        22           O1  tau(  22) = (   0.0269361   0.0086655  17.1987262  )
        23           O1  tau(  23) = (   1.3043587   1.4918075   6.0039043  )
        24           O1  tau(  24) = (   5.2767064   1.4903225   6.0039473  )
        25           Ti1 tau(  25) = (   0.0000382   5.9609847   6.0000000  )
        26           Ti1 tau(  26) = (   3.2902200   4.4714249   6.0002472  )
        27           O1  tau(  27) = (   0.0002396   2.9813036   7.9858123  )
        28           O1  tau(  28) = (   3.2902150   2.9813002   7.3038282  )
        29           O1  tau(  29) = (   4.5938453   4.4726049   9.2879030  )
        30           O1  tau(  30) = (   1.9864658   4.4711199   9.2879459  )
        31           Ti1 tau(  31) = (   3.2891106   5.8743827   9.1763621  )
        32           Ti1 tau(  32) = (   0.0006254   4.4649316   9.2693709  )
        33           O1  tau(  33) = (   3.2944391   2.9688829  11.3444728  )
        34           O1  tau(  34) = (   0.0092240   2.9805883  10.6323155  )
        35           O1  tau(  35) = (   1.3142520   4.4635248  12.6275686  )
        36           O1  tau(  36) = (   5.3078217   4.4601700  12.6226734  )
        37           Ti1 tau(  37) = (   6.5374036   5.9186568  12.5467527  )
        38           Ti1 tau(  38) = (   3.2213306   4.4595164  12.5065882  )
        39           O1  tau(  39) = (   6.5756885   2.9534048  14.6511233  )
        40           O1  tau(  40) = (   3.3206316   2.9687378  13.8980937  )
        41           O1  tau(  41) = (   4.5543359   4.4428353  16.0905846  )
        42           O1  tau(  42) = (   2.0427057   4.4323087  16.0570365  )
        43           Ti1 tau(  43) = (   3.2570595   5.9269474  15.8069103  )
        44           Ti1 tau(  44) = (   6.5609319   4.6488967  16.0725391  )
        45           O1  tau(  45) = (   3.2900926   2.9813045   4.7018136  )
        46           O1  tau(  46) = (   1.3039711   4.4726057   6.0039043  )
        47           O1  tau(  47) = (   5.2763189   4.4711207   6.0039473  )
        48           N1  tau(  48) = (   0.2492319   2.6641403  18.6309932  )
        49           N1  tau(  49) = (   0.0782707   2.8835230  17.4382120  )
        50           C1  tau(  50) = (   0.2622466   3.8334900  19.5663878  )
        51           H1  tau(  51) = (   6.1755609   4.6233469  19.2444151  )
        52           H1  tau(  52) = (   6.5754044   3.4477461  20.5519103  )
        53           H1  tau(  53) = (   1.2857956   4.2073973  19.6006198  )
        54           O1  tau(  54) = (   3.1761146   0.0362278  18.2233714  )
        55           H1  tau(  55) = (   3.9097821   0.6076051  18.5038283  )
        56           H1  tau(  56) = (   2.3516031   0.5117379  18.4309238  )

     number of k points=    10  Fermi-Dirac smearing, width (Ry)=  0.0073
                       cart. coord. in units 2pi/alat
        k(    1) = (   0.0000000   0.0000000   0.0000000), wk =   0.1250000
        k(    2) = (   0.0000000   0.0419351   0.0000000), wk =   0.2500000
        k(    3) = (   0.0000000  -0.0838702   0.0000000), wk =   0.1250000
        k(    4) = (   0.0379955   0.0000049   0.0000000), wk =   0.2500000
        k(    5) = (   0.0379955   0.0419400   0.0000000), wk =   0.2500000
        k(    6) = (   0.0379955  -0.0838652   0.0000000), wk =   0.2500000
        k(    7) = (   0.0379955  -0.0419301   0.0000000), wk =   0.2500000
        k(    8) = (  -0.0759910  -0.0000099   0.0000000), wk =   0.1250000
        k(    9) = (  -0.0759910   0.0419252   0.0000000), wk =   0.2500000
        k(   10) = (  -0.0759910  -0.0838800   0.0000000), wk =   0.1250000

     Initial potential from superposition of free atoms

     starting charge  386.99914, renormalised to  403.00000

     negative rho (up, down):  1.449E-02 0.000E+00

     %%%%%%%%%%%%%%%%%%%%%%%%%%%%%%%%%%%%%%%%%%%%%%%%%%%%%%%%%%%%%%%%%%%%%%%%
     %                                                                      %
     % You are using vdW-DF, which was implemented by the Thonhauser group. %
     % Please cite the following two papers that made this development      %
     % possible and the two reviews that describe the various versions:     %
     %                                                                      %
     %   T. Thonhauser et al., PRL 115, 136402 (2015).                      %
     %   T. Thonhauser et al., PRB 76, 125112 (2007).                       %
     %   K. Berland et al., Rep. Prog. Phys. 78, 066501 (2015).             %
     %   D.C. Langreth et al., J. Phys.: Condens. Matter 21, 084203 (2009). %
     %                                                                      %
     %                                                                      %
     % If you are calculating the stress with vdW-DF, please also cite:     %
     %                                                                      %
     %   R. Sabatini et al., J. Phys.: Condens. Matter 24, 424209 (2012).   %
     %                                                                      %
     %%%%%%%%%%%%%%%%%%%%%%%%%%%%%%%%%%%%%%%%%%%%%%%%%%%%%%%%%%%%%%%%%%%%%%%%

     Adding external electric field

     Computed dipole along edir(3) :
        Dipole              -13.2089 Ry au,        -33.5737 Debye
        Dipole field         -0.0249 Ry au,

        Potential amp.        2.3107 Ry
        Total length         46.3494 bohr

     Starting wfcs are  305 atomic wfcs
  @ DRIVER MODE: Message from server: STATUS
  @ DRIVER MODE: Message from server: POSDATA
  @ DRIVER MODE: Reading and sharing cell
  @ DRIVER MODE: Reading and sharing positions
  @ DRIVER MODE: Received positions

     Self-consistent Calculation

     iteration #  1     ecut=    29.40 Ry     beta= 0.05
     Davidson diagonalization with overlap
     c_bands:  4 eigenvalues not converged
     c_bands:  2 eigenvalues not converged
     c_bands:  2 eigenvalues not converged
     c_bands:  5 eigenvalues not converged
     c_bands:  1 eigenvalues not converged
     c_bands:  1 eigenvalues not converged
     c_bands:  4 eigenvalues not converged
     c_bands:  1 eigenvalues not converged
     c_bands:  1 eigenvalues not converged
     ethr =  1.00E-05,  avg # of iterations = 28.0

[...]

     total energy              =   -2367.55650645 Ry
     estimated scf accuracy    <    6916.23402421 Ry

     iteration #  2     ecut=    29.40 Ry     beta= 0.05
     Davidson diagonalization with overlap
     ethr =  1.00E-02,  avg # of iterations = 22.7

[...]

     iteration # 78     ecut=    29.40 Ry     beta= 0.05
     Davidson diagonalization with overlap
     ethr =  3.75E-11,  avg # of iterations =  8.6

[...]

     total energy              =   -2974.00260724 Ry
     estimated scf accuracy    <       0.00000017 Ry

     iteration # 80     ecut=    29.40 Ry     beta= 0.05
     Davidson diagonalization with overlap
     c_bands:  1 eigenvalues not converged
     ethr =  2.51E-11,  avg # of iterations = 10.3

     negative rho (up, down):  1.475E-02 0.000E+00

     Adding external electric field

     Computed dipole along edir(3) :
        Dipole                0.8873 Ry au,          2.2552 Debye
        Dipole field          0.0017 Ry au,

        Potential amp.       -0.1552 Ry
        Total length         46.3494 bohr

     End of self-consistent calculation

          k = 0.0000 0.0000 0.0000 ( 18029 PWs)   bands (ev):

   -55.6215 -55.5874 -55.5796 -55.5628 -55.5429 -55.4498 -55.4314 -55.4106
   -55.3975 -55.3966 -55.3684 -55.3629 -55.0064 -54.8667 -54.6003 -54.5663
   -32.1217 -32.1039 -31.9644 -31.9473 -31.9302 -31.9143 -31.8861 -31.8804
   -31.8644 -31.8108 -31.8046 -31.7864 -31.7737 -31.7579 -31.7421 -31.7329
   -31.7258 -31.7129 -31.7071 -31.6787 -31.6699 -31.6526 -31.6239 -31.6197
   -31.6041 -31.6014 -31.6009 -31.5955 -31.5714 -31.5671 -31.5638 -31.5590
   -31.5492 -31.5448 -31.5380 -31.5124 -31.5083 -31.2765 -31.2024 -31.1269
   -31.1097 -31.0757 -31.0074 -30.9189 -30.8965 -30.8242 -30.7377 -30.6266
   -18.8652 -18.2930 -16.3135 -16.0851 -15.8555 -15.7677 -15.7191 -15.5195
   -15.4175 -15.3452 -15.2225 -15.1597 -15.1479 -15.1335 -15.1153 -15.1129
   -15.0603 -15.0535 -15.0495 -15.0416 -15.0084 -14.9678 -14.9529 -14.9426
   -14.8488 -14.7753 -14.7579 -14.7342 -14.6887 -14.6721 -14.1997 -13.1028
   -12.9863 -11.2219  -6.8654  -6.6397  -4.1848  -3.8454  -3.7736  -3.6861
    -3.5587  -3.5255  -3.4437  -3.3704  -3.2336  -3.2005  -3.0389  -2.8490
    -2.7886  -2.7623  -2.7097  -2.6429  -2.5291  -2.4696  -2.4253  -2.4181
    -2.4010  -2.3946  -2.3696  -2.3569  -2.2557  -2.2340  -2.1578  -2.1528
    -2.1003  -1.9831  -1.9681  -1.9337  -1.9215  -1.8974  -1.8762  -1.8552
    -1.8447  -1.8206  -1.7708  -1.7033  -1.6366  -1.5972  -1.5138  -1.4485
    -1.4019  -1.3540  -1.2315  -1.1388  -1.1040  -1.0632  -1.0562  -1.0432
    -1.0135  -0.9961  -0.8827  -0.7690  -0.7525  -0.6870  -0.6268  -0.5456
    -0.5190  -0.4392  -0.3853  -0.3669  -0.3633  -0.3176  -0.2892  -0.2285
    -0.0950  -0.0437  -0.0096  -0.0007   0.0585   0.1022   0.1307   0.2182
     0.2241   0.2696   0.3078   0.3402   0.3535   0.3685   0.3871   0.4165
     0.4313   0.6228   0.6591   0.6978   0.7358   0.7784   0.9170   0.9409
     1.0395   1.1486   1.3480   1.4217   1.5266   1.6139   1.9932   2.0390
     2.7422   3.5138   3.6009   3.6459   3.6748   3.7586   3.7725   3.9686
     3.9847   4.0229   4.0929

[...]

          k = 0.0380-0.0419 0.0000 ( 17876 PWs)   bands (ev):

[...]

          k =-0.0760-0.0000 0.0000 ( 17886 PWs)   bands (ev):

[...]

          k =-0.0760-0.0839 0.0000 ( 17948 PWs)   bands (ev):

   -55.6048 -55.6039 -55.5654 -55.5612 -55.5569 -55.4395 -55.4211 -55.4150
   -55.4132 -55.3815 -55.3782 -55.3698 -55.0045 -54.8685 -54.5833 -54.5831
   -31.9353 -31.9195 -31.9192 -31.9189 -31.9002 -31.8992 -31.8498 -31.8436
   -31.8226 -31.7974 -31.7852 -31.7760 -31.7720 -31.7338 -31.7293 -31.7276
   -31.7244 -31.7235 -31.7210 -31.7184 -31.7159 -31.7101 -31.6741 -31.6567
   -31.6381 -31.6338 -31.6264 -31.6144 -31.6140 -31.6111 -31.6055 -31.5961
   -31.5927 -31.5818 -31.5810 -31.5728 -31.4235 -31.2783 -31.2184 -31.1656
   -31.1281 -31.1022 -30.9093 -30.9091 -30.8203 -30.8201 -30.7810 -30.7809
   -18.8641 -18.2893 -15.7720 -15.6615 -15.5710 -15.5368 -15.4792 -15.4105
   -15.4024 -15.3158 -15.2996 -15.2966 -15.2310 -15.2104 -15.1730 -15.1660
   -15.1433 -15.1276 -15.1210 -15.0714 -15.0596 -15.0566 -15.0497 -15.0449
   -14.9691 -14.9382 -14.9343 -14.9257 -14.7979 -14.6735 -14.3714 -13.0882
   -13.0880 -11.2195  -6.8935  -6.6161  -4.1102  -3.8758  -3.7356  -3.2176
    -3.0544  -2.8408  -2.8221  -2.7262  -2.7143  -2.6797  -2.5492  -2.5082
    -2.4677  -2.4511  -2.4319  -2.4305  -2.4133  -2.4078  -2.3880  -2.3631
    -2.3374  -2.3167  -2.2875  -2.2839  -2.2710  -2.2581  -2.2351  -2.2226
    -2.2064  -2.1758  -2.1500  -2.1340  -2.0674  -1.9965  -1.8345  -1.7962
    -1.7569  -1.7506  -1.7339  -1.7033  -1.6874  -1.6697  -1.6229  -1.5871
    -1.5124  -1.3619  -1.3406  -1.3181  -1.2981  -1.2857  -1.2128  -1.1044
    -1.0852  -1.0144  -1.0061  -0.8996  -0.8912  -0.8063  -0.7977  -0.7888
    -0.7130  -0.6858  -0.6710  -0.5820  -0.5800  -0.5569  -0.5066  -0.4803
    -0.4149  -0.3724  -0.3417  -0.3384  -0.2924  -0.2702  -0.2262  -0.1608
    -0.1067  -0.0703   0.0261   0.1305   0.2310   0.3463   0.4614   0.4754
     0.5574   0.5909   0.6757   0.6916   0.6999   0.7720   0.7769   0.8755
     0.9206   0.9351   0.9755   1.0982   1.7850   1.7864   1.8586   1.8589
     2.7669   3.7321   3.8511   3.8932   3.9111   3.9856   4.0280   4.0475
     4.0499   4.0843   4.1900

     the Fermi energy is     3.5126 ev

!    total energy              =   -2974.00261467 Ry
     estimated scf accuracy    <       0.00000004 Ry
     smearing contrib. (-TS)   =      -0.02182100 Ry
     internal energy E=F+TS    =   -2973.98079366 Ry

     The total energy is F=E-TS. E is the sum of the following terms:
     one-electron contribution =  -23847.86694158 Ry
     hartree contribution      =   12018.33070105 Ry
     xc contribution           =    -494.02883408 Ry
     ewald contribution        =    9349.58279531 Ry
     electric field correction =       0.00148564 Ry

     convergence has been achieved in  80 iterations

     Forces acting on atoms (cartesian axes, Ry/au):

     atom    1 type  1   force =     0.00003302   -0.00023623    0.09647028
     atom    2 type  1   force =     0.00005735   -0.00043499   -0.17543493
     atom    3 type  2   force =     0.00011443   -0.00009713   -0.02475223
     atom    4 type  2   force =     0.00004261   -0.00157847    0.05349711
     atom    5 type  2   force =    -0.01197124   -0.00100535    0.00309453
     atom    6 type  2   force =     0.01371298   -0.00064765    0.00293327
     atom    7 type  1   force =     0.00074228    0.00067799   -0.00683168
     atom    8 type  1   force =     0.00021855    0.00948654    0.02714170
     atom    9 type  2   force =    -0.00014472   -0.00006070   -0.00005997
     atom   10 type  2   force =    -0.00204966    0.00048193   -0.01818873
     atom   11 type  2   force =    -0.00058466    0.00032640    0.00012461
     atom   12 type  2   force =     0.00068819    0.00012826    0.00031777
     atom   13 type  1   force =    -0.00014978   -0.00009386   -0.00019648
     atom   14 type  1   force =    -0.00039775   -0.00014744    0.00023263
     atom   15 type  2   force =     0.00003008   -0.00062033    0.00075248
     atom   16 type  2   force =    -0.00025894   -0.00007282   -0.00035418
     atom   17 type  2   force =    -0.00022209    0.00017435   -0.00029574
     atom   18 type  2   force =    -0.00001880    0.00020222   -0.00028116
     atom   19 type  1   force =    -0.00032092    0.00015808   -0.00009442
     atom   20 type  1   force =    -0.00047427   -0.00006136    0.00023900
     atom   21 type  2   force =     0.00008190    0.00001528    0.10324206
     atom   22 type  2   force =     0.00012281    0.00032712    0.00002301
     atom   23 type  2   force =    -0.07145566   -0.00008859   -0.02772750
     atom   24 type  2   force =     0.07141200    0.00036447   -0.02780018
     atom   25 type  1   force =     0.00017830   -0.00033349    0.09613758
     atom   26 type  1   force =     0.00000711   -0.00038064   -0.17575934
     atom   27 type  2   force =     0.00021016   -0.00020343   -0.02374513
     atom   28 type  2   force =     0.00002537   -0.00128150    0.05296161
     atom   29 type  2   force =    -0.01220826    0.00023994    0.00292279
     atom   30 type  2   force =     0.01387137    0.00081903    0.00274227
     atom   31 type  1   force =     0.00042002    0.00343513   -0.00985477
     atom   32 type  1   force =     0.00036142   -0.01131557    0.02755472
     atom   33 type  2   force =     0.00010149    0.00014531   -0.00000187
     atom   34 type  2   force =    -0.00188203   -0.00044962   -0.02414055
     atom   35 type  2   force =     0.00040252    0.00003071   -0.00026803
     atom   36 type  2   force =    -0.00029565   -0.00006111    0.00008208
     atom   37 type  1   force =    -0.00030340   -0.00013494    0.00004393
     atom   38 type  1   force =    -0.00078840    0.00012783   -0.00051872
     atom   39 type  2   force =     0.00009552   -0.00033050   -0.00019381
     atom   40 type  2   force =     0.00020222    0.00034314    0.00047959
     atom   41 type  2   force =     0.00026637    0.00009935   -0.00028696
     atom   42 type  2   force =    -0.00044113   -0.00008176   -0.00032924
     atom   43 type  1   force =     0.00030100    0.00080395    0.00033731
     atom   44 type  1   force =    -0.00009285    0.00115278   -0.00085904
     atom   45 type  2   force =     0.00008425   -0.00002632    0.10323086
     atom   46 type  2   force =    -0.07146355   -0.00002543   -0.02774023
     atom   47 type  2   force =     0.07142106    0.00040089   -0.02779830
     atom   48 type  3   force =    -0.00057998    0.00484362   -0.00096466
     atom   49 type  3   force =    -0.00001103   -0.00090843    0.00219673
     atom   50 type  4   force =     0.00107928   -0.01610680    0.00467141
     atom   51 type  5   force =    -0.00339843    0.00597581   -0.00261404
     atom   52 type  5   force =     0.00057828    0.00328432   -0.00339619
     atom   53 type  5   force =     0.00293343    0.00196430    0.00017065
     atom   54 type  2   force =     0.00018690    0.00059519   -0.00079870
     atom   55 type  5   force =    -0.00009226   -0.00007273   -0.00002770
     atom   56 type  5   force =    -0.00037678    0.00025325   -0.00028551

     Total force =     0.368501     Total SCF correction =     0.000715
  @ DRIVER MODE: Message from server: STATUS
  @ DRIVER MODE: Message from server: GETFORCE
  @ DRIVER MODE: Returning v,forces,stress,ensemble

     Writing output data file ./calc.save/
  @ DRIVER MODE: Message from server: EXIT
  @ DRIVE MODE: Exiting

     General routines

     Parallel routines

   This run was terminated on:   1:55:31  10Sep2021

   JOB DONE.