     Program PWSCF v.6.7GPU starts on 27Sep2021 at  2:21: 9

     R & G space division:  proc/nbgrp/npool/nimage =       8
     Reading input from /storage/home/hcoda1/3/ntian30/research/carbon/CxH_vib/H2O_calc/ads_slab/CH2NHNHHO_b/out_0036/pw.inp
Warning: card &CELL ignored
Warning: card   CELL_DYNAMICS='IPI', ignored
Warning: card / ignored

     Current dimensions of program PWSCF are:
     Max number of different atomic species (ntypx) = 10
     Max number of k-points (npk) =  40000
     Max angular momentum in pseudopotentials (lmaxx) =  3
     Presently no symmetry can be used with electric field

     Message from routine cell_base_init:
     DEPRECATED: use true lattice parameter, not A to a.u. conversion factor

     IMPORTANT: XC functional enforced from input :
     Exchange-correlation= BEEF-VDW
                           (   1   4  43  14   2   0   0)
     Any further DFT definition will be discarded
     Please, verify this is what you really want

  @ DRIVER MODE: Connecting to
 qe_1139763_2971671.sched-torque.pace.gatech.edu28sssya3_scratch
  using UNIX socket
  @ DRIVER MODE: Message from server: STATUS
  @ DRIVER MODE: Message from server: INIT
  @ DRIVER MODE: Receiving replica           0          -1
  @ DRIVER MODE: Receiving encoded integer          25
  @ DRIVER MODE:  SCF:  T  FORCE:  T  STRESS:  F  VC:  F  ENSEMBLE:  F
  @ DRIVER MODE:  SCF:  T  FORCE:  T  STRESS:  F  VC:  F  ENSEMBLE:  F

     Using Slab Decomposition

     bravais-lattice index     =            0
     lattice parameter (alat)  =       1.8897  a.u.
     unit-cell volume          =    6658.9804 (a.u.)^3
     number of atoms/cell      =           56
     number of atomic types    =            5
     number of electrons       =       403.00
     number of Kohn-Sham states=          211
     kinetic-energy cutoff     =      29.3995  Ry
     charge density cutoff     =     293.9946  Ry
     scf convergence threshold =      7.3E-08
     mixing beta               =       0.0500
     number of iterations used =            8  plain     mixing
     Exchange-correlation= BEEF-VDW
                           (   1   4  43  14   2   0   0)

     celldm(1)=   1.889726  celldm(2)=   0.000000  celldm(3)=   0.000000
     celldm(4)=   0.000000  celldm(5)=   0.000000  celldm(6)=   0.000000

     crystal axes: (cart. coord. in units of alat)
               a(1) = (   6.579727   0.000000   0.000000 )
               a(2) = (  -0.000775   5.961596   0.000000 )
               a(3) = (   0.000000   0.000000  25.155947 )

     reciprocal axes: (cart. coord. in units 2 pi/alat)
               b(1) = (  0.151982  0.000020  0.000000 )
               b(2) = (  0.000000  0.167740  0.000000 )
               b(3) = (  0.000000  0.000000  0.039752 )

     PseudoPot. # 1 for Ti read from file:
     /storage/coda1/p-amedford6/0/shared/rich_project_chbe-medford/medford-share/data/pseudos_module/espresso/nninc/pbe/van/Ti.UPF
     MD5 check sum: 8e4df49b7f0d34bbd5052bf3f5ea0213
     Pseudo is Ultrasoft, Zval = 12.0
     Generated by new atomic code, or converted to UPF format
     Using radial grid of  851 points,  6 beta functions with:
                l(1) =   0
                l(2) =   0
                l(3) =   1
                l(4) =   1
                l(5) =   2
                l(6) =   2
     Q(r) pseudized with  8 coefficients,  rinner =    1.000   1.000   1.000
                                                       1.000   1.000

     PseudoPot. # 2 for O  read from file:
     /storage/coda1/p-amedford6/0/shared/rich_project_chbe-medford/medford-share/data/pseudos_module/espresso/nninc/pbe/van/O.UPF
     MD5 check sum: 78c19812648e8988a0fe644b0f25305e
     Pseudo is Ultrasoft, Zval =  6.0
     Generated by new atomic code, or converted to UPF format
     Using radial grid of  737 points,  4 beta functions with:
                l(1) =   0
                l(2) =   0
                l(3) =   1
                l(4) =   1
     Q(r) pseudized with  8 coefficients,  rinner =    0.800   0.800   0.800

     PseudoPot. # 3 for N  read from file:
     /storage/coda1/p-amedford6/0/shared/rich_project_chbe-medford/medford-share/data/pseudos_module/espresso/nninc/pbe/van/N.UPF
     MD5 check sum: 90d10febe142ad51ac9d5be1deb811c4
     Pseudo is Ultrasoft, Zval =  5.0
     Generated by new atomic code, or converted to UPF format
     Using radial grid of  729 points,  4 beta functions with:
                l(1) =   0
                l(2) =   0
                l(3) =   1
                l(4) =   1
     Q(r) pseudized with  8 coefficients,  rinner =    0.800   0.800   0.800

     PseudoPot. # 4 for C  read from file:
     /storage/coda1/p-amedford6/0/shared/rich_project_chbe-medford/medford-share/data/pseudos_module/espresso/nninc/pbe/van/C.UPF
     MD5 check sum: 1a69bf6b8db32088f5b2163dbdb77a27
     Pseudo is Ultrasoft, Zval =  4.0
     Generated by new atomic code, or converted to UPF format
     Using radial grid of  721 points,  4 beta functions with:
                l(1) =   0
                l(2) =   0
                l(3) =   1
                l(4) =   1
     Q(r) pseudized with  8 coefficients,  rinner =    0.800   0.800   0.800

     PseudoPot. # 5 for H  read from file:
     /storage/coda1/p-amedford6/0/shared/rich_project_chbe-medford/medford-share/data/pseudos_module/espresso/nninc/pbe/van/H.UPF
     MD5 check sum: b5ee9d7bfd3a09ee7748110bda690ff7
     Pseudo is Ultrasoft, Zval =  1.0
     Generated by new atomic code, or converted to UPF format
     Using radial grid of  615 points,  1 beta functions with:
                l(1) =   0
     Q(r) pseudized with  8 coefficients,  rinner =    0.800

     atomic species   valence    mass     pseudopotential
        Ti1           12.00    47.86700     Ti( 1.00)
        O1             6.00    15.99900     O ( 1.00)
        N1             5.00    14.00700     N ( 1.00)
        C1             4.00    12.01100     C ( 1.00)
        H1             1.00     1.00800     H ( 1.00)

     No symmetry found

   Cartesian axes

     site n.     atom                  positions (alat units)
         1           Ti1 tau(   1) = (   0.0004258   2.9801865   6.0000000  )
         2           Ti1 tau(   2) = (   3.2906075   1.4906267   6.0002472  )
         3           O1  tau(   3) = (   0.0006271   0.0005054   7.9858123  )
         4           O1  tau(   4) = (   3.2906025   0.0005020   7.3038282  )
         5           O1  tau(   5) = (   4.5942328   1.4918067   9.2879030  )
         6           O1  tau(   6) = (   1.9868534   1.4903216   9.2879459  )
         7           Ti1 tau(   7) = (   3.2907910   2.8959150   9.1758416  )
         8           Ti1 tau(   8) = (   0.0015273   1.4827037   9.2680791  )
         9           O1  tau(   9) = (   3.2987294   5.9443783  11.3578989  )
        10           O1  tau(  10) = (   0.0116148   5.9584955  10.6183126  )
        11           O1  tau(  11) = (   1.2795512   1.4821507  12.6386044  )
        12           O1  tau(  12) = (   5.2980455   1.5005163  12.6536529  )
        13           Ti1 tau(  13) = (   6.5652885   2.9238251  12.5528928  )
        14           Ti1 tau(  14) = (   3.2988635   1.2998061  12.7048432  )
        15           O1  tau(  15) = (   0.0127057   0.0339484  14.6761273  )
        16           O1  tau(  16) = (   3.2875936   0.0940603  14.0290633  )
        17           O1  tau(  17) = (   4.5650748   1.6033894  16.0357995  )
        18           O1  tau(  18) = (   2.0190796   1.5896112  16.2175902  )
        19           Ti1 tau(  19) = (   3.3013862   3.0422678  15.6649453  )
        20           Ti1 tau(  20) = (   6.4815444   1.5191555  15.8288377  )
        21           O1  tau(  21) = (   3.2904802   0.0005063   4.7018136  )
        22           O1  tau(  22) = (   6.5172723   5.9480513  17.2191950  )
        23           O1  tau(  23) = (   1.3043587   1.4918075   6.0039043  )
        24           O1  tau(  24) = (   5.2767064   1.4903225   6.0039473  )
        25           Ti1 tau(  25) = (   0.0000382   5.9609847   6.0000000  )
        26           Ti1 tau(  26) = (   3.2902200   4.4714249   6.0002472  )
        27           O1  tau(  27) = (   0.0002396   2.9813036   7.9858123  )
        28           O1  tau(  28) = (   3.2902150   2.9813002   7.3038282  )
        29           O1  tau(  29) = (   4.5938453   4.4726049   9.2879030  )
        30           O1  tau(  30) = (   1.9864658   4.4711199   9.2879459  )
        31           Ti1 tau(  31) = (   3.2891106   5.8743827   9.1763621  )
        32           Ti1 tau(  32) = (   0.0006254   4.4649316   9.2693709  )
        33           O1  tau(  33) = (   3.2945946   2.9940555  11.3077331  )
        34           O1  tau(  34) = (   0.0092240   2.9805883  10.6323155  )
        35           O1  tau(  35) = (   1.2876619   4.4781899  12.6403949  )
        36           O1  tau(  36) = (   5.3010724   4.4646845  12.6541769  )
        37           Ti1 tau(  37) = (   0.0424196   5.9023569  12.5123361  )
        38           Ti1 tau(  38) = (   3.3119368   4.3729351  12.4217702  )
        39           O1  tau(  39) = (   0.0401333   2.9740317  14.7512036  )
        40           O1  tau(  40) = (   3.2576645   3.0028392  13.8982547  )
        41           O1  tau(  41) = (   4.5666544   4.4234537  16.0705803  )
        42           O1  tau(  42) = (   2.0215446   4.4756893  16.1430302  )
        43           Ti1 tau(  43) = (   3.2259990   0.0392177  16.2341362  )
        44           Ti1 tau(  44) = (   6.5723990   4.6710500  15.9980081  )
        45           O1  tau(  45) = (   3.2900926   2.9813045   4.7018136  )
        46           O1  tau(  46) = (   1.3039711   4.4726057   6.0039043  )
        47           O1  tau(  47) = (   5.2763189   4.4711207   6.0039473  )
        48           N1  tau(  48) = (   0.9334729   2.5913682  18.4753943  )
        49           N1  tau(  49) = (   6.5156687   2.9055835  17.6419879  )
        50           C1  tau(  50) = (   1.0224037   2.6952286  19.7617917  )
        51           H1  tau(  51) = (   1.9166829   2.3177709  20.2270220  )
        52           H1  tau(  52) = (   0.2162702   3.1370440  20.3260263  )
        53           H1  tau(  53) = (   1.6995924   2.1399843  17.9526691  )
        54           H1  tau(  54) = (   5.6785098   3.1284051  18.1783837  )
        55           O1  tau(  55) = (   3.5318048   0.0910060  18.0897867  )
        56           H1  tau(  56) = (   4.4897960   0.0680733  18.2655997  )

     number of k points=    10  Fermi-Dirac smearing, width (Ry)=  0.0073
                       cart. coord. in units 2pi/alat
        k(    1) = (   0.0000000   0.0000000   0.0000000), wk =   0.1250000
        k(    2) = (   0.0000000   0.0419351   0.0000000), wk =   0.2500000
        k(    3) = (   0.0000000  -0.0838702   0.0000000), wk =   0.1250000
        k(    4) = (   0.0379955   0.0000049   0.0000000), wk =   0.2500000
        k(    5) = (   0.0379955   0.0419400   0.0000000), wk =   0.2500000
        k(    6) = (   0.0379955  -0.0838652   0.0000000), wk =   0.2500000
        k(    7) = (   0.0379955  -0.0419301   0.0000000), wk =   0.2500000
        k(    8) = (  -0.0759910  -0.0000099   0.0000000), wk =   0.1250000
        k(    9) = (  -0.0759910   0.0419252   0.0000000), wk =   0.2500000
        k(   10) = (  -0.0759910  -0.0838800   0.0000000), wk =   0.1250000

     Initial potential from superposition of free atoms

     starting charge  386.99914, renormalised to  403.00000

     negative rho (up, down):  1.427E-02 0.000E+00

     %%%%%%%%%%%%%%%%%%%%%%%%%%%%%%%%%%%%%%%%%%%%%%%%%%%%%%%%%%%%%%%%%%%%%%%%
     %                                                                      %
     % You are using vdW-DF, which was implemented by the Thonhauser group. %
     % Please cite the following two papers that made this development      %
     % possible and the two reviews that describe the various versions:     %
     %                                                                      %
     %   T. Thonhauser et al., PRL 115, 136402 (2015).                      %
     %   T. Thonhauser et al., PRB 76, 125112 (2007).                       %
     %   K. Berland et al., Rep. Prog. Phys. 78, 066501 (2015).             %
     %   D.C. Langreth et al., J. Phys.: Condens. Matter 21, 084203 (2009). %
     %                                                                      %
     %                                                                      %
     % If you are calculating the stress with vdW-DF, please also cite:     %
     %                                                                      %
     %   R. Sabatini et al., J. Phys.: Condens. Matter 24, 424209 (2012).   %
     %                                                                      %
     %%%%%%%%%%%%%%%%%%%%%%%%%%%%%%%%%%%%%%%%%%%%%%%%%%%%%%%%%%%%%%%%%%%%%%%%

     Adding external electric field

     Computed dipole along edir(3) :
        Dipole              -12.9691 Ry au,        -32.9641 Debye
        Dipole field         -0.0245 Ry au,

        Potential amp.        2.2687 Ry
        Total length         46.3494 bohr

     Starting wfcs are  305 atomic wfcs
  @ DRIVER MODE: Message from server: STATUS
  @ DRIVER MODE: Message from server: POSDATA
  @ DRIVER MODE: Reading and sharing cell
  @ DRIVER MODE: Reading and sharing positions
  @ DRIVER MODE: Received positions

     Self-consistent Calculation

     iteration #  1     ecut=    29.40 Ry     beta= 0.05
     Davidson diagonalization with overlap
     c_bands:  4 eigenvalues not converged
     c_bands:  4 eigenvalues not converged
     c_bands:  3 eigenvalues not converged
     c_bands:  1 eigenvalues not converged
     c_bands:  5 eigenvalues not converged
     c_bands:  3 eigenvalues not converged
     c_bands:  2 eigenvalues not converged
     ethr =  1.00E-05,  avg # of iterations = 24.0

[...]

     total energy              =   -2352.67327894 Ry
     estimated scf accuracy    <    7059.66351007 Ry

     iteration #  2     ecut=    29.40 Ry     beta= 0.05
     Davidson diagonalization with overlap
     ethr =  1.00E-02,  avg # of iterations = 22.1

[...]

     iteration # 72     ecut=    29.40 Ry     beta= 0.05
     Davidson diagonalization with overlap
     c_bands:  1 eigenvalues not converged
     c_bands:  1 eigenvalues not converged
     ethr =  3.78E-11,  avg # of iterations = 17.0

[...]

     total energy              =   -2973.99839107 Ry
     estimated scf accuracy    <       0.00000027 Ry

     iteration # 74     ecut=    29.40 Ry     beta= 0.05
     Davidson diagonalization with overlap
     ethr =  3.78E-11,  avg # of iterations = 11.4

     negative rho (up, down):  1.505E-02 0.000E+00

     Adding external electric field

     Computed dipole along edir(3) :
        Dipole                1.3515 Ry au,          3.4351 Debye
        Dipole field          0.0026 Ry au,

        Potential amp.       -0.2364 Ry
        Total length         46.3494 bohr

     End of self-consistent calculation

          k = 0.0000 0.0000 0.0000 ( 18029 PWs)   bands (ev):

   -55.4220 -55.3262 -55.2921 -55.1477 -55.1440 -55.1315 -55.1123 -55.1099
   -55.0841 -55.0542 -55.0340 -54.9560 -54.9533 -54.9091 -54.2897 -54.2557
   -31.8091 -31.7438 -31.6786 -31.6476 -31.6360 -31.6255 -31.6179 -31.5963
   -31.5713 -31.5696 -31.5674 -31.4813 -31.4787 -31.4312 -31.4186 -31.4037
   -31.3975 -31.3837 -31.3601 -31.3452 -31.3385 -31.3370 -31.3282 -31.3148
   -31.3020 -31.2900 -31.2770 -31.2749 -31.2744 -31.2626 -31.2589 -31.2483
   -31.2327 -31.2296 -31.2253 -31.1900 -31.1774 -31.1494 -31.1375 -31.1271
   -31.1150 -31.1107 -30.6953 -30.6101 -30.5876 -30.5129 -30.4265 -30.3147
   -19.6271 -16.1791 -15.9480 -15.7953 -15.6125 -15.4900 -15.4319 -15.2192
   -15.1510 -15.0804 -14.9946 -14.9342 -14.8571 -14.8430 -14.8178 -14.8025
   -14.7782 -14.7401 -14.7391 -14.7341 -14.6916 -14.6826 -14.6551 -14.6049
   -14.5996 -14.5774 -14.4552 -14.3820 -14.3357 -14.2012 -14.0818 -13.9619
   -12.7886 -12.6724 -10.1853  -7.0251  -6.7008  -4.2841  -4.0270  -3.6417
    -3.3293  -3.2522  -3.2213  -3.1804  -3.0564  -2.8751  -2.7582  -2.6846
    -2.5812  -2.4572  -2.4397  -2.3388  -2.3142  -2.2466  -2.2112  -2.1706
    -2.1504  -2.1266  -2.1043  -2.1006  -1.9888  -1.9846  -1.8592  -1.8414
    -1.7927  -1.7337  -1.6839  -1.6385  -1.6268  -1.6083  -1.5929  -1.5841
    -1.5535  -1.5399  -1.5166  -1.4638  -1.4031  -1.3557  -1.3188  -1.2056
    -1.0161  -0.9188  -0.8642  -0.8248  -0.7921  -0.7433  -0.7160  -0.7086
    -0.6783  -0.6401  -0.5074  -0.4996  -0.4531  -0.3776  -0.3377  -0.3159
    -0.1910  -0.1781  -0.1054  -0.0490  -0.0456  -0.0350   0.0594   0.1177
     0.1455   0.1750   0.2258   0.2820   0.3558   0.3851   0.4181   0.4768
     0.5378   0.5663   0.6256   0.6450   0.6567   0.7386   0.7597   0.7845
     0.8063   0.8776   0.9243   0.9610   1.0008   1.0897   1.1194   1.1675
     1.2061   1.3610   1.4159   1.6849   1.7363   1.8007   1.9301   2.3027
     2.3476   3.7754   3.9112   3.9310   3.9349   4.0316   4.1352   4.2480
     4.2970   4.3270   4.3777

[...]

          k = 0.0380-0.0419 0.0000 ( 17876 PWs)   bands (ev):

[...]

          k =-0.0760-0.0000 0.0000 ( 17886 PWs)   bands (ev):

[...]

          k =-0.0760-0.0839 0.0000 ( 17948 PWs)   bands (ev):

   -55.4213 -55.3095 -55.3087 -55.1326 -55.1321 -55.1299 -55.1282 -55.1226
   -55.0776 -55.0513 -55.0405 -54.9561 -54.9494 -54.9156 -54.2732 -54.2722
   -31.6775 -31.6705 -31.6271 -31.6247 -31.6242 -31.6037 -31.6029 -31.5433
   -31.5043 -31.4584 -31.4508 -31.4503 -31.4438 -31.4417 -31.4294 -31.4284
   -31.4200 -31.3980 -31.3761 -31.3674 -31.3564 -31.3412 -31.3400 -31.3297
   -31.3278 -31.3187 -31.3077 -31.3009 -31.2975 -31.2957 -31.2946 -31.2837
   -31.2724 -31.2626 -31.2562 -31.2482 -31.2192 -31.2081 -31.1812 -31.1580
   -31.1422 -31.1154 -30.6007 -30.6000 -30.5088 -30.5076 -30.4701 -30.4694
   -19.6252 -16.1421 -15.4831 -15.4148 -15.2667 -15.2575 -15.1859 -15.1448
   -15.1362 -15.0850 -15.0787 -15.0123 -14.9880 -14.9790 -14.9396 -14.8886
   -14.8384 -14.8085 -14.8031 -14.7552 -14.7449 -14.7337 -14.6973 -14.6773
   -14.6288 -14.6253 -14.6100 -14.5298 -14.4748 -14.3161 -14.3011 -13.9755
   -12.7746 -12.7740 -10.1884  -7.0207  -6.6983  -4.2747  -4.0158  -3.5951
    -2.6905  -2.6876  -2.6252  -2.4699  -2.4251  -2.3251  -2.3141  -2.2555
    -2.2417  -2.1927  -2.1731  -2.1611  -2.1249  -2.1051  -2.1019  -2.0749
    -2.0556  -2.0441  -2.0195  -1.9838  -1.9814  -1.9511  -1.9427  -1.9256
    -1.9052  -1.8837  -1.8643  -1.8588  -1.8067  -1.7732  -1.6154  -1.5957
    -1.4593  -1.4562  -1.4425  -1.4211  -1.3871  -1.3755  -1.3361  -1.3023
    -1.2324  -1.1880  -1.0937  -1.0586  -0.9527  -0.9244  -0.8544  -0.8054
    -0.7670  -0.7441  -0.7330  -0.7030  -0.6305  -0.5551  -0.5095  -0.4687
    -0.3687  -0.2929  -0.2686  -0.2641  -0.2566  -0.2234  -0.1535  -0.1521
    -0.1110  -0.0944  -0.0130  -0.0025   0.0117   0.0309   0.1658   0.1956
     0.2945   0.3581   0.4088   0.4619   0.4944   0.5448   0.6604   0.7903
     0.8427   0.8683   0.8815   0.9429   0.9921   1.0072   1.0544   1.1265
     1.1971   1.2463   1.2658   1.2894   1.3406   2.0992   2.1079   2.1676
     2.1680   4.0383   4.1364   4.2528   4.2883   4.3041   4.3232   4.3407
     4.3655   4.4102   4.4539

     the Fermi energy is     3.8008 ev

!    total energy              =   -2973.99841005 Ry
     estimated scf accuracy    <       0.00000005 Ry
     smearing contrib. (-TS)   =      -0.02052814 Ry
     internal energy E=F+TS    =   -2973.97788191 Ry

     The total energy is F=E-TS. E is the sum of the following terms:
     one-electron contribution =  -23634.99802647 Ry
     hartree contribution      =   11914.40822164 Ry
     xc contribution           =    -494.12113057 Ry
     ewald contribution        =    9240.72960674 Ry
     electric field correction =       0.00344675 Ry

     convergence has been achieved in  74 iterations

     Forces acting on atoms (cartesian axes, Ry/au):

     atom    1 type  1   force =    -0.00005898   -0.00028750    0.09518451
     atom    2 type  1   force =    -0.00011091    0.00042700   -0.17498191
     atom    3 type  2   force =     0.00000866   -0.00027924   -0.02251746
     atom    4 type  2   force =     0.00005353   -0.00195843    0.05332081
     atom    5 type  2   force =    -0.00768027   -0.00252441    0.00194464
     atom    6 type  2   force =     0.00927275   -0.00208243    0.00146658
     atom    7 type  1   force =    -0.00022491   -0.00467615    0.00731717
     atom    8 type  1   force =     0.00013936    0.00537808    0.01282059
     atom    9 type  2   force =    -0.00010826   -0.00003858    0.00019735
     atom   10 type  2   force =    -0.00275588    0.00061166   -0.01382308
     atom   11 type  2   force =    -0.00017294    0.00022645   -0.00003124
     atom   12 type  2   force =     0.00015971   -0.00002623    0.00022841
     atom   13 type  1   force =     0.00025038    0.00017359    0.00033947
     atom   14 type  1   force =     0.00001403   -0.00002446    0.00025469
     atom   15 type  2   force =     0.00033953   -0.00008883    0.00009315
     atom   16 type  2   force =    -0.00034907   -0.00008838   -0.00002286
     atom   17 type  2   force =     0.00031149   -0.00027990   -0.00001968
     atom   18 type  2   force =     0.00039787   -0.00028755   -0.00027953
     atom   19 type  1   force =    -0.00002074   -0.00032978    0.00009174
     atom   20 type  1   force =     0.00044495   -0.00010344   -0.00001609
     atom   21 type  2   force =     0.00005676    0.00003643    0.10301941
     atom   22 type  2   force =     0.00005027    0.00009275   -0.00005465
     atom   23 type  2   force =    -0.07218336   -0.00020329   -0.02749148
     atom   24 type  2   force =     0.07208902    0.00020885   -0.02756069
     atom   25 type  1   force =     0.00011053   -0.00024401    0.09492013
     atom   26 type  1   force =    -0.00022778   -0.00136376   -0.17520214
     atom   27 type  2   force =     0.00015785   -0.00013264   -0.02135393
     atom   28 type  2   force =     0.00004830   -0.00025569    0.04866253
     atom   29 type  2   force =    -0.00694264    0.00261476    0.00143939
     atom   30 type  2   force =     0.00852647    0.00313680    0.00086450
     atom   31 type  1   force =    -0.00010080    0.00787891   -0.00301959
     atom   32 type  1   force =     0.00038647   -0.00770915    0.01220167
     atom   33 type  2   force =     0.00008541   -0.00003341   -0.00015829
     atom   34 type  2   force =    -0.00195891    0.00048641   -0.01639004
     atom   35 type  2   force =    -0.00014192    0.00003101   -0.00001465
     atom   36 type  2   force =    -0.00003853    0.00031683   -0.00002574
     atom   37 type  1   force =    -0.00013605    0.00017570    0.00006649
     atom   38 type  1   force =    -0.00009013    0.00004800    0.00019505
     atom   39 type  2   force =    -0.00007963   -0.00026793    0.00001042
     atom   40 type  2   force =     0.00012872    0.00001131    0.00011578
     atom   41 type  2   force =     0.00014073   -0.00010119   -0.00000114
     atom   42 type  2   force =     0.00026155   -0.00008322   -0.00004996
     atom   43 type  1   force =    -0.00057428    0.00041507   -0.00043183
     atom   44 type  1   force =     0.00027261   -0.00001846   -0.00016650
     atom   45 type  2   force =     0.00008504   -0.00014030    0.10281238
     atom   46 type  2   force =    -0.07218002   -0.00008876   -0.02753931
     atom   47 type  2   force =     0.07210679    0.00036898   -0.02756446
     atom   48 type  3   force =    -0.00406052    0.00243737    0.00457150
     atom   49 type  3   force =     0.00128170   -0.00035296   -0.00059223
     atom   50 type  4   force =    -0.00089983    0.00076086    0.00094129
     atom   51 type  5   force =     0.00021542    0.00020556    0.00034504
     atom   52 type  5   force =    -0.00046761   -0.00014932    0.00023637
     atom   53 type  5   force =     0.00410113   -0.00213842   -0.00498284
     atom   54 type  5   force =     0.00024187    0.00005245    0.00008207
     atom   55 type  2   force =    -0.00058015   -0.00008157    0.00040109
     atom   56 type  5   force =     0.00040521    0.00034454    0.00014713

     Total force =     0.363344     Total SCF correction =     0.000752
  @ DRIVER MODE: Message from server: STATUS
  @ DRIVER MODE: Message from server: GETFORCE
  @ DRIVER MODE: Returning v,forces,stress,ensemble

     Writing output data file ./calc.save/
  @ DRIVER MODE: Message from server: EXIT
  @ DRIVE MODE: Exiting

     General routines

     Parallel routines

   This run was terminated on:   2:48:31  27Sep2021

   JOB DONE.