     Program PWSCF v.6.7GPU starts on  9Sep2021 at  7:18: 9

     R & G space division:  proc/nbgrp/npool/nimage =      10
     Reading input from /storage/home/hcoda1/3/ntian30/research/carbon/CxH_vib/CH3_calc/ads_slab/CH3N2_c/out_0030/pw.inp
Warning: card &CELL ignored
Warning: card   CELL_DYNAMICS='IPI', ignored
Warning: card / ignored

     Current dimensions of program PWSCF are:
     Max number of different atomic species (ntypx) = 10
     Max number of k-points (npk) =  40000
     Max angular momentum in pseudopotentials (lmaxx) =  3
     Presently no symmetry can be used with electric field

     Message from routine cell_base_init:
     DEPRECATED: use true lattice parameter, not A to a.u. conversion factor

     IMPORTANT: XC functional enforced from input :
     Exchange-correlation= BEEF-VDW
                           (   1   4  43  14   2   0   0)
     Any further DFT definition will be discarded
     Please, verify this is what you really want

  @ DRIVER MODE: Connecting to
 qe_1139763_2767397.sched-torque.pace.gatech.edu93mgkdh9_scratch
  using UNIX socket
  @ DRIVER MODE: Message from server: STATUS
  @ DRIVER MODE: Message from server: INIT
  @ DRIVER MODE: Receiving replica           0          -1
  @ DRIVER MODE: Receiving encoded integer          25
  @ DRIVER MODE:  SCF:  T  FORCE:  T  STRESS:  F  VC:  F  ENSEMBLE:  F
  @ DRIVER MODE:  SCF:  T  FORCE:  T  STRESS:  F  VC:  F  ENSEMBLE:  F

     Using Slab Decomposition

     bravais-lattice index     =            0
     lattice parameter (alat)  =       1.8897  a.u.
     unit-cell volume          =    6658.9804 (a.u.)^3
     number of atoms/cell      =           53
     number of atomic types    =            5
     number of electrons       =       395.00
     number of Kohn-Sham states=          207
     kinetic-energy cutoff     =      29.3995  Ry
     charge density cutoff     =     293.9946  Ry
     scf convergence threshold =      7.3E-08
     mixing beta               =       0.0500
     number of iterations used =            8  plain     mixing
     Exchange-correlation= BEEF-VDW
                           (   1   4  43  14   2   0   0)

     celldm(1)=   1.889726  celldm(2)=   0.000000  celldm(3)=   0.000000
     celldm(4)=   0.000000  celldm(5)=   0.000000  celldm(6)=   0.000000

     crystal axes: (cart. coord. in units of alat)
               a(1) = (   6.579727   0.000000   0.000000 )
               a(2) = (  -0.000775   5.961596   0.000000 )
               a(3) = (   0.000000   0.000000  25.155947 )

     reciprocal axes: (cart. coord. in units 2 pi/alat)
               b(1) = (  0.151982  0.000020  0.000000 )
               b(2) = (  0.000000  0.167740  0.000000 )
               b(3) = (  0.000000  0.000000  0.039752 )

     PseudoPot. # 1 for Ti read from file:
     /storage/coda1/p-amedford6/0/shared/rich_project_chbe-medford/medford-share/data/pseudos_module/espresso/nninc/pbe/van/Ti.UPF
     MD5 check sum: 8e4df49b7f0d34bbd5052bf3f5ea0213
     Pseudo is Ultrasoft, Zval = 12.0
     Generated by new atomic code, or converted to UPF format
     Using radial grid of  851 points,  6 beta functions with:
                l(1) =   0
                l(2) =   0
                l(3) =   1
                l(4) =   1
                l(5) =   2
                l(6) =   2
     Q(r) pseudized with  8 coefficients,  rinner =    1.000   1.000   1.000
                                                       1.000   1.000

     PseudoPot. # 2 for O  read from file:
     /storage/coda1/p-amedford6/0/shared/rich_project_chbe-medford/medford-share/data/pseudos_module/espresso/nninc/pbe/van/O.UPF
     MD5 check sum: 78c19812648e8988a0fe644b0f25305e
     Pseudo is Ultrasoft, Zval =  6.0
     Generated by new atomic code, or converted to UPF format
     Using radial grid of  737 points,  4 beta functions with:
                l(1) =   0
                l(2) =   0
                l(3) =   1
                l(4) =   1
     Q(r) pseudized with  8 coefficients,  rinner =    0.800   0.800   0.800

     PseudoPot. # 3 for N  read from file:
     /storage/coda1/p-amedford6/0/shared/rich_project_chbe-medford/medford-share/data/pseudos_module/espresso/nninc/pbe/van/N.UPF
     MD5 check sum: 90d10febe142ad51ac9d5be1deb811c4
     Pseudo is Ultrasoft, Zval =  5.0
     Generated by new atomic code, or converted to UPF format
     Using radial grid of  729 points,  4 beta functions with:
                l(1) =   0
                l(2) =   0
                l(3) =   1
                l(4) =   1
     Q(r) pseudized with  8 coefficients,  rinner =    0.800   0.800   0.800

     PseudoPot. # 4 for C  read from file:
     /storage/coda1/p-amedford6/0/shared/rich_project_chbe-medford/medford-share/data/pseudos_module/espresso/nninc/pbe/van/C.UPF
     MD5 check sum: 1a69bf6b8db32088f5b2163dbdb77a27
     Pseudo is Ultrasoft, Zval =  4.0
     Generated by new atomic code, or converted to UPF format
     Using radial grid of  721 points,  4 beta functions with:
                l(1) =   0
                l(2) =   0
                l(3) =   1
                l(4) =   1
     Q(r) pseudized with  8 coefficients,  rinner =    0.800   0.800   0.800

     PseudoPot. # 5 for H  read from file:
     /storage/coda1/p-amedford6/0/shared/rich_project_chbe-medford/medford-share/data/pseudos_module/espresso/nninc/pbe/van/H.UPF
     MD5 check sum: b5ee9d7bfd3a09ee7748110bda690ff7
     Pseudo is Ultrasoft, Zval =  1.0
     Generated by new atomic code, or converted to UPF format
     Using radial grid of  615 points,  1 beta functions with:
                l(1) =   0
     Q(r) pseudized with  8 coefficients,  rinner =    0.800

     atomic species   valence    mass     pseudopotential
        Ti1           12.00    47.86700     Ti( 1.00)
        O1             6.00    15.99900     O ( 1.00)
        N1             5.00    14.00700     N ( 1.00)
        C1             4.00    12.01100     C ( 1.00)
        H1             1.00     1.00800     H ( 1.00)

     No symmetry found

   Cartesian axes

     site n.     atom                  positions (alat units)
         1           Ti1 tau(   1) = (   0.0004258   2.9801865   6.0000000  )
         2           Ti1 tau(   2) = (   3.2906075   1.4906267   6.0002472  )
         3           O1  tau(   3) = (   0.0006271   0.0005054   7.9858123  )
         4           O1  tau(   4) = (   3.2906025   0.0005020   7.3038282  )
         5           O1  tau(   5) = (   4.5942328   1.4918067   9.2879030  )
         6           O1  tau(   6) = (   1.9868534   1.4903216   9.2879459  )
         7           Ti1 tau(   7) = (   3.2907910   2.8959150   9.1758416  )
         8           Ti1 tau(   8) = (   0.0015273   1.4827037   9.2680791  )
         9           O1  tau(   9) = (   3.2868105   5.9447858  11.3346005  )
        10           O1  tau(  10) = (   0.0116148   5.9584955  10.6183126  )
        11           O1  tau(  11) = (   1.2897616   1.4699164  12.6258314  )
        12           O1  tau(  12) = (   5.2713851   1.4716199  12.6109895  )
        13           Ti1 tau(  13) = (   0.0629619   2.9460495  12.6207869  )
        14           Ti1 tau(  14) = (   3.3778125   1.4702366  12.4807322  )
        15           O1  tau(  15) = (   6.5741670   5.9392046  14.6271830  )
        16           O1  tau(  16) = (   3.2925211   5.9405975  13.9303826  )
        17           O1  tau(  17) = (   4.5331425   1.4971777  16.0590535  )
        18           O1  tau(  18) = (   2.0416154   1.4974824  16.0477615  )
        19           Ti1 tau(  19) = (   3.2901388   2.9722967  15.7036181  )
        20           Ti1 tau(  20) = (   6.5714728   1.5019933  15.8140906  )
        21           O1  tau(  21) = (   3.2904802   0.0005063   4.7018136  )
        22           O1  tau(  22) = (   6.5775371   0.0159386  17.1814867  )
        23           O1  tau(  23) = (   1.3043587   1.4918075   6.0039043  )
        24           O1  tau(  24) = (   5.2767064   1.4903225   6.0039473  )
        25           Ti1 tau(  25) = (   0.0000382   5.9609847   6.0000000  )
        26           Ti1 tau(  26) = (   3.2902200   4.4714249   6.0002472  )
        27           O1  tau(  27) = (   0.0002396   2.9813036   7.9858123  )
        28           O1  tau(  28) = (   3.2902150   2.9813002   7.3038282  )
        29           O1  tau(  29) = (   4.5938453   4.4726049   9.2879030  )
        30           O1  tau(  30) = (   1.9864658   4.4711199   9.2879459  )
        31           Ti1 tau(  31) = (   3.2891106   5.8743827   9.1763621  )
        32           Ti1 tau(  32) = (   0.0006254   4.4649316   9.2693709  )
        33           O1  tau(  33) = (   3.2909631   2.9655588  11.3316111  )
        34           O1  tau(  34) = (   0.0092240   2.9805883  10.6323155  )
        35           O1  tau(  35) = (   1.2884032   4.4536117  12.6269208  )
        36           O1  tau(  36) = (   5.2752684   4.4605011  12.6109535  )
        37           Ti1 tau(  37) = (   0.0626277   5.9200555  12.5524633  )
        38           Ti1 tau(  38) = (   3.3797810   4.4486816  12.4846537  )
        39           O1  tau(  39) = (   6.5720240   2.9440667  14.6479771  )
        40           O1  tau(  40) = (   3.2941106   2.9728877  13.9057494  )
        41           O1  tau(  41) = (   4.5311790   4.4530262  16.1020043  )
        42           O1  tau(  42) = (   2.0427069   4.4534008  16.0946336  )
        43           Ti1 tau(  43) = (   3.2818950   5.9508925  15.7274921  )
        44           Ti1 tau(  44) = (   6.5750914   4.6476268  16.0792144  )
        45           O1  tau(  45) = (   3.2900926   2.9813045   4.7018136  )
        46           O1  tau(  46) = (   1.3039711   4.4726057   6.0039043  )
        47           O1  tau(  47) = (   5.2763189   4.4711207   6.0039473  )
        48           N1  tau(  48) = (   0.0795740   2.6614725  18.6386781  )
        49           N1  tau(  49) = (   0.0132033   2.8794178  17.4383708  )
        50           C1  tau(  50) = (   0.1510961   3.8031638  19.5808395  )
        51           H1  tau(  51) = (   6.4701351   4.7592986  19.1328852  )
        52           H1  tau(  52) = (   6.0910372   3.5604803  20.4366230  )
        53           H1  tau(  53) = (   1.1812797   3.8285794  19.9476819  )

     number of k points=    10  Fermi-Dirac smearing, width (Ry)=  0.0073
                       cart. coord. in units 2pi/alat
        k(    1) = (   0.0000000   0.0000000   0.0000000), wk =   0.1250000
        k(    2) = (   0.0000000   0.0419351   0.0000000), wk =   0.2500000
        k(    3) = (   0.0000000  -0.0838702   0.0000000), wk =   0.1250000
        k(    4) = (   0.0379955   0.0000049   0.0000000), wk =   0.2500000
        k(    5) = (   0.0379955   0.0419400   0.0000000), wk =   0.2500000
        k(    6) = (   0.0379955  -0.0838652   0.0000000), wk =   0.2500000
        k(    7) = (   0.0379955  -0.0419301   0.0000000), wk =   0.2500000
        k(    8) = (  -0.0759910  -0.0000099   0.0000000), wk =   0.1250000
        k(    9) = (  -0.0759910   0.0419252   0.0000000), wk =   0.2500000
        k(   10) = (  -0.0759910  -0.0838800   0.0000000), wk =   0.1250000

     Initial potential from superposition of free atoms

     starting charge  378.99916, renormalised to  395.00000

     negative rho (up, down):  1.505E-02 0.000E+00

     %%%%%%%%%%%%%%%%%%%%%%%%%%%%%%%%%%%%%%%%%%%%%%%%%%%%%%%%%%%%%%%%%%%%%%%%
     %                                                                      %
     % You are using vdW-DF, which was implemented by the Thonhauser group. %
     % Please cite the following two papers that made this development      %
     % possible and the two reviews that describe the various versions:     %
     %                                                                      %
     %   T. Thonhauser et al., PRL 115, 136402 (2015).                      %
     %   T. Thonhauser et al., PRB 76, 125112 (2007).                       %
     %   K. Berland et al., Rep. Prog. Phys. 78, 066501 (2015).             %
     %   D.C. Langreth et al., J. Phys.: Condens. Matter 21, 084203 (2009). %
     %                                                                      %
     %                                                                      %
     % If you are calculating the stress with vdW-DF, please also cite:     %
     %                                                                      %
     %   R. Sabatini et al., J. Phys.: Condens. Matter 24, 424209 (2012).   %
     %                                                                      %
     %%%%%%%%%%%%%%%%%%%%%%%%%%%%%%%%%%%%%%%%%%%%%%%%%%%%%%%%%%%%%%%%%%%%%%%%

     Adding external electric field

     Computed dipole along edir(3) :
        Dipole               -8.8503 Ry au,        -22.4951 Debye
        Dipole field         -0.0167 Ry au,

        Potential amp.        1.5482 Ry
        Total length         46.3494 bohr

     Starting wfcs are  299 atomic wfcs
  @ DRIVER MODE: Message from server: STATUS
  @ DRIVER MODE: Message from server: POSDATA
  @ DRIVER MODE: Reading and sharing cell
  @ DRIVER MODE: Reading and sharing positions
  @ DRIVER MODE: Received positions

     Self-consistent Calculation

     iteration #  1     ecut=    29.40 Ry     beta= 0.05
     Davidson diagonalization with overlap
     c_bands:  1 eigenvalues not converged
     c_bands:  2 eigenvalues not converged
     c_bands:  1 eigenvalues not converged
     c_bands:  3 eigenvalues not converged
     c_bands:  3 eigenvalues not converged
     c_bands:  1 eigenvalues not converged
     ethr =  1.00E-05,  avg # of iterations = 18.9

[...]

     total energy              =   -2605.41741788 Ry
     estimated scf accuracy    <    3701.95132832 Ry

     iteration #  2     ecut=    29.40 Ry     beta= 0.05
     Davidson diagonalization with overlap
     ethr =  1.00E-02,  avg # of iterations = 22.4

[...]

     iteration # 74     ecut=    29.40 Ry     beta= 0.05
     Davidson diagonalization with overlap
     c_bands:  1 eigenvalues not converged
     ethr =  9.40E-11,  avg # of iterations = 10.8

[...]

     total energy              =   -2939.15473972 Ry
     estimated scf accuracy    <       0.00000013 Ry

     iteration # 78     ecut=    29.40 Ry     beta= 0.05
     Davidson diagonalization with overlap
     ethr =  2.50E-11,  avg # of iterations =  9.7

     negative rho (up, down):  1.564E-02 0.000E+00

     Adding external electric field

     Computed dipole along edir(3) :
        Dipole                0.7071 Ry au,          1.7971 Debye
        Dipole field          0.0013 Ry au,

        Potential amp.       -0.1237 Ry
        Total length         46.3494 bohr

     End of self-consistent calculation

          k = 0.0000 0.0000 0.0000 ( 18029 PWs)   bands (ev):

   -55.8948 -55.8802 -55.8607 -55.8443 -55.7953 -55.7300 -55.7040 -55.7035
   -55.6934 -55.6695 -55.6691 -55.6355 -55.2861 -55.0951 -54.8722 -54.8382
   -32.4344 -32.3769 -32.2300 -32.2275 -32.2021 -32.1989 -32.1879 -32.1597
   -32.1374 -32.1241 -32.1024 -32.0665 -32.0609 -32.0470 -32.0335 -32.0200
   -32.0174 -31.9988 -31.9852 -31.9520 -31.9440 -31.9397 -31.8991 -31.8936
   -31.8914 -31.8879 -31.8797 -31.8750 -31.8711 -31.8439 -31.8436 -31.8343
   -31.8330 -31.8220 -31.8100 -31.7813 -31.7778 -31.5662 -31.4595 -31.3573
   -31.3553 -31.3109 -31.2794 -31.1909 -31.1685 -31.0961 -31.0095 -30.8986
   -18.4508 -16.6327 -16.3679 -16.1390 -16.0453 -16.0131 -15.8950 -15.7326
   -15.6150 -15.5602 -15.4628 -15.4433 -15.4301 -15.3984 -15.3800 -15.3747
   -15.3408 -15.3369 -15.3180 -15.3029 -15.2548 -15.2312 -15.2092 -15.1098
   -15.0637 -15.0297 -15.0145 -14.9516 -14.9464 -14.4418 -13.3749 -13.2585
   -11.3498  -6.9265  -4.3484  -4.0026  -3.8896  -3.8475  -3.8464  -3.8002
    -3.7438  -3.6241  -3.4989  -3.4367  -3.1259  -3.0780  -3.0621  -3.0449
    -3.0071  -2.7998  -2.7484  -2.7082  -2.6834  -2.6764  -2.6654  -2.6578
    -2.6461  -2.6076  -2.5053  -2.4359  -2.4274  -2.3433  -2.2934  -2.2700
    -2.2068  -2.1869  -2.1651  -2.1421  -2.1308  -2.1097  -2.0897  -2.0786
    -1.9730  -1.8828  -1.7497  -1.6943  -1.6714  -1.6521  -1.6447  -1.5026
    -1.3698  -1.3376  -1.3282  -1.3198  -1.2864  -1.2745  -1.1917  -1.0628
    -1.0519  -1.0120  -0.9598  -0.9018  -0.8768  -0.7749  -0.7380  -0.6612
    -0.6561  -0.6391  -0.5862  -0.5338  -0.3761  -0.3343  -0.3082  -0.2862
    -0.2616  -0.1910  -0.1693  -0.0531  -0.0356  -0.0180   0.0422   0.0654
     0.0784   0.0883   0.1060   0.1241   0.1416   0.3088   0.3811   0.4333
     0.4569   0.5148   0.6398   0.7088   0.7637   0.8642   1.0753   1.1496
     1.2422   1.3416   1.7210   1.7667   2.6486   3.2445   3.3252   3.3740
     3.3888   3.4857   3.5197   3.6963   3.6973   3.7258   3.7957

[...]

          k = 0.0380-0.0419 0.0000 ( 17876 PWs)   bands (ev):

[...]

          k =-0.0760-0.0000 0.0000 ( 17886 PWs)   bands (ev):

[...]

          k =-0.0760-0.0839 0.0000 ( 17948 PWs)   bands (ev):

   -55.8782 -55.8771 -55.8624 -55.8619 -55.7919 -55.7180 -55.7073 -55.7054
   -55.6874 -55.6851 -55.6531 -55.6518 -55.2846 -55.0964 -54.8552 -54.8550
   -32.2390 -32.2371 -32.1926 -32.1917 -32.1738 -32.1727 -32.1693 -32.1341
   -32.0885 -32.0855 -32.0793 -32.0789 -32.0421 -32.0128 -32.0051 -32.0044
   -31.9980 -31.9978 -31.9973 -31.9967 -31.9928 -31.9918 -31.9893 -31.9378
   -31.9239 -31.9119 -31.9107 -31.8995 -31.8867 -31.8862 -31.8839 -31.8829
   -31.8675 -31.8668 -31.8570 -31.8543 -31.6946 -31.5679 -31.4677 -31.4145
   -31.3571 -31.3364 -31.1813 -31.1811 -31.0922 -31.0921 -31.0529 -31.0528
   -18.4466 -16.0685 -16.0425 -15.8425 -15.8094 -15.8053 -15.7909 -15.6821
   -15.5973 -15.5901 -15.5873 -15.5209 -15.4909 -15.4751 -15.4344 -15.4218
   -15.4145 -15.4029 -15.3925 -15.3556 -15.3483 -15.3309 -15.3235 -15.2394
   -15.2116 -15.2075 -15.1817 -15.0637 -14.9325 -14.6180 -13.3604 -13.3602
   -11.3476  -6.9382  -4.2581  -3.8926  -3.8259  -3.3579  -3.3291  -3.0889
    -3.0502  -3.0364  -2.9832  -2.8215  -2.7912  -2.7655  -2.7539  -2.7223
    -2.7170  -2.7050  -2.6998  -2.6798  -2.6385  -2.6162  -2.5985  -2.5818
    -2.5626  -2.5486  -2.5322  -2.5157  -2.5063  -2.4668  -2.4433  -2.4318
    -2.4131  -2.4014  -2.2448  -2.1220  -2.0876  -2.0332  -2.0230  -2.0013
    -1.9612  -1.9573  -1.9456  -1.8813  -1.8068  -1.6520  -1.6086  -1.5940
    -1.5752  -1.5571  -1.5002  -1.4598  -1.3730  -1.2982  -1.2748  -1.2703
    -1.2019  -1.1147  -1.1066  -1.0599  -1.0170  -1.0072  -0.9528  -0.8879
    -0.8572  -0.8530  -0.8008  -0.7314  -0.7135  -0.6632  -0.6564  -0.6120
    -0.5569  -0.5484  -0.5278  -0.4868  -0.4050  -0.3813  -0.2428  -0.1630
    -0.0405   0.0738   0.1681   0.1824   0.2624   0.3144   0.3981   0.4158
     0.4262   0.4353   0.4785   0.5618   0.6372   0.6519   0.6978   0.8188
     1.5133   1.5141   1.5863   1.5866   2.7056   3.4916   3.5362   3.5783
     3.6105   3.7169   3.7493   3.7730   3.7742   3.8022   3.9155

     the Fermi energy is     3.2397 ev

!    total energy              =   -2939.15474828 Ry
     estimated scf accuracy    <       0.00000004 Ry
     smearing contrib. (-TS)   =      -0.02244781 Ry
     internal energy E=F+TS    =   -2939.13230047 Ry

     The total energy is F=E-TS. E is the sum of the following terms:
     one-electron contribution =  -24175.76561492 Ry
     hartree contribution      =   12175.12370329 Ry
     xc contribution           =    -485.17876374 Ry
     ewald contribution        =    9546.68743149 Ry
     electric field correction =       0.00094342 Ry

     convergence has been achieved in  78 iterations

     Forces acting on atoms (cartesian axes, Ry/au):

     atom    1 type  1   force =     0.00011681   -0.00024663    0.09664728
     atom    2 type  1   force =    -0.00012498   -0.00049688   -0.17524903
     atom    3 type  2   force =     0.00000263   -0.00010115   -0.02500106
     atom    4 type  2   force =     0.00005188   -0.00150172    0.05302335
     atom    5 type  2   force =    -0.01218300   -0.00109022    0.00360777
     atom    6 type  2   force =     0.01373134   -0.00028342    0.00227981
     atom    7 type  1   force =    -0.00117098    0.00036508   -0.01150126
     atom    8 type  1   force =     0.00056073    0.00941397    0.02851097
     atom    9 type  2   force =     0.00019648    0.00053201   -0.00014861
     atom   10 type  2   force =    -0.00114805    0.00027959   -0.01822132
     atom   11 type  2   force =    -0.00012073   -0.00000036   -0.00013671
     atom   12 type  2   force =     0.00013356    0.00021269    0.00018090
     atom   13 type  1   force =     0.00009115   -0.00029493    0.00014561
     atom   14 type  1   force =     0.00021437    0.00016637    0.00020636
     atom   15 type  2   force =     0.00022161   -0.00005335   -0.00011582
     atom   16 type  2   force =    -0.00033148    0.00033858    0.00036831
     atom   17 type  2   force =    -0.00014190    0.00041543   -0.00014919
     atom   18 type  2   force =     0.00013204    0.00015821    0.00022008
     atom   19 type  1   force =    -0.00007787    0.00015244    0.00009389
     atom   20 type  1   force =    -0.00057558   -0.00024541    0.00022527
     atom   21 type  2   force =     0.00008769    0.00001573    0.10324522
     atom   22 type  2   force =    -0.00019568    0.00026323    0.00080556
     atom   23 type  2   force =    -0.07144688   -0.00007827   -0.02770559
     atom   24 type  2   force =     0.07141320    0.00034327   -0.02771293
     atom   25 type  1   force =     0.00007263   -0.00022241    0.09638001
     atom   26 type  1   force =    -0.00022703   -0.00026316   -0.17565492
     atom   27 type  2   force =     0.00007002   -0.00024884   -0.02399287
     atom   28 type  2   force =     0.00009662   -0.00126323    0.05289455
     atom   29 type  2   force =    -0.01242369    0.00003905    0.00351991
     atom   30 type  2   force =     0.01388742    0.00032840    0.00216419
     atom   31 type  1   force =    -0.00113200    0.00332826   -0.01191715
     atom   32 type  1   force =     0.00065506   -0.01115856    0.02910893
     atom   33 type  2   force =     0.00010781   -0.00020132   -0.00040419
     atom   34 type  2   force =    -0.00089521   -0.00093296   -0.02482294
     atom   35 type  2   force =    -0.00039113    0.00027094    0.00001900
     atom   36 type  2   force =     0.00072317    0.00029385    0.00033900
     atom   37 type  1   force =    -0.00000850   -0.00022823    0.00004671
     atom   38 type  1   force =    -0.00002064    0.00010492   -0.00000318
     atom   39 type  2   force =     0.00032925    0.00034306   -0.00044391
     atom   40 type  2   force =    -0.00030636    0.00010245    0.00015491
     atom   41 type  2   force =    -0.00043756    0.00052950    0.00011806
     atom   42 type  2   force =     0.00002281    0.00045221    0.00042400
     atom   43 type  1   force =    -0.00005070    0.00038012    0.00043182
     atom   44 type  1   force =    -0.00042808    0.00023019    0.00074510
     atom   45 type  2   force =     0.00008203   -0.00002984    0.10325481
     atom   46 type  2   force =    -0.07147262   -0.00003089   -0.02771856
     atom   47 type  2   force =     0.07144061    0.00039552   -0.02774681
     atom   48 type  3   force =     0.00001392   -0.00102030    0.00054502
     atom   49 type  3   force =     0.00057121    0.00041693   -0.00022838
     atom   50 type  4   force =    -0.00267326   -0.00138802    0.00677637
     atom   51 type  5   force =    -0.00011922    0.00068152   -0.00016814
     atom   52 type  5   force =     0.00361039    0.00091100   -0.00709939
     atom   53 type  5   force =    -0.00053331   -0.00008440   -0.00034082

     Total force =     0.368491     Total SCF correction =     0.000496
  @ DRIVER MODE: Message from server: STATUS
  @ DRIVER MODE: Message from server: GETFORCE
  @ DRIVER MODE: Returning v,forces,stress,ensemble

     Writing output data file ./calc.save/
  @ DRIVER MODE: Message from server: EXIT
  @ DRIVE MODE: Exiting

     General routines

     Parallel routines

   This run was terminated on:   7:37:47   9Sep2021

   JOB DONE.