     Program PWSCF v.6.7GPU starts on 26Sep2021 at 23: 9:57

     R & G space division:  proc/nbgrp/npool/nimage =       8
     Reading input from /storage/home/hcoda1/3/ntian30/research/carbon/CxH_vib/CH_calc/ads_slab/CHONHNH_a/out_0021/pw.inp
Warning: card &CELL ignored
Warning: card   CELL_DYNAMICS='IPI', ignored
Warning: card / ignored

     Current dimensions of program PWSCF are:
     Max number of different atomic species (ntypx) = 10
     Max number of k-points (npk) =  40000
     Max angular momentum in pseudopotentials (lmaxx) =  3
     Presently no symmetry can be used with electric field

     Message from routine cell_base_init:
     DEPRECATED: use true lattice parameter, not A to a.u. conversion factor

     IMPORTANT: XC functional enforced from input :
     Exchange-correlation= BEEF-VDW
                           (   1   4  43  14   2   0   0)
     Any further DFT definition will be discarded
     Please, verify this is what you really want

  @ DRIVER MODE: Connecting to
 qe_1139763_2982671.sched-torque.pace.gatech.edus0erf_9h_scratch
  using UNIX socket
  @ DRIVER MODE: Message from server: STATUS
  @ DRIVER MODE: Message from server: INIT
  @ DRIVER MODE: Receiving replica           0          -1
  @ DRIVER MODE: Receiving encoded integer          25
  @ DRIVER MODE:  SCF:  T  FORCE:  T  STRESS:  F  VC:  F  ENSEMBLE:  F
  @ DRIVER MODE:  SCF:  T  FORCE:  T  STRESS:  F  VC:  F  ENSEMBLE:  F

     Using Slab Decomposition

     bravais-lattice index     =            0
     lattice parameter (alat)  =       1.8897  a.u.
     unit-cell volume          =    6658.9804 (a.u.)^3
     number of atoms/cell      =           54
     number of atomic types    =            5
     number of electrons       =       401.00
     number of Kohn-Sham states=          210
     kinetic-energy cutoff     =      29.3995  Ry
     charge density cutoff     =     293.9946  Ry
     scf convergence threshold =      7.3E-08
     mixing beta               =       0.0500
     number of iterations used =            8  plain     mixing
     Exchange-correlation= BEEF-VDW
                           (   1   4  43  14   2   0   0)

     celldm(1)=   1.889726  celldm(2)=   0.000000  celldm(3)=   0.000000
     celldm(4)=   0.000000  celldm(5)=   0.000000  celldm(6)=   0.000000

     crystal axes: (cart. coord. in units of alat)
               a(1) = (   6.579727   0.000000   0.000000 )
               a(2) = (  -0.000775   5.961596   0.000000 )
               a(3) = (   0.000000   0.000000  25.155947 )

     reciprocal axes: (cart. coord. in units 2 pi/alat)
               b(1) = (  0.151982  0.000020  0.000000 )
               b(2) = (  0.000000  0.167740  0.000000 )
               b(3) = (  0.000000  0.000000  0.039752 )

     PseudoPot. # 1 for O  read from file:
     /storage/coda1/p-amedford6/0/shared/rich_project_chbe-medford/medford-share/data/pseudos_module/espresso/nninc/pbe/van/O.UPF
     MD5 check sum: 78c19812648e8988a0fe644b0f25305e
     Pseudo is Ultrasoft, Zval =  6.0
     Generated by new atomic code, or converted to UPF format
     Using radial grid of  737 points,  4 beta functions with:
                l(1) =   0
                l(2) =   0
                l(3) =   1
                l(4) =   1
     Q(r) pseudized with  8 coefficients,  rinner =    0.800   0.800   0.800

     PseudoPot. # 2 for Ti read from file:
     /storage/coda1/p-amedford6/0/shared/rich_project_chbe-medford/medford-share/data/pseudos_module/espresso/nninc/pbe/van/Ti.UPF
     MD5 check sum: 8e4df49b7f0d34bbd5052bf3f5ea0213
     Pseudo is Ultrasoft, Zval = 12.0
     Generated by new atomic code, or converted to UPF format
     Using radial grid of  851 points,  6 beta functions with:
                l(1) =   0
                l(2) =   0
                l(3) =   1
                l(4) =   1
                l(5) =   2
                l(6) =   2
     Q(r) pseudized with  8 coefficients,  rinner =    1.000   1.000   1.000
                                                       1.000   1.000

     PseudoPot. # 3 for N  read from file:
     /storage/coda1/p-amedford6/0/shared/rich_project_chbe-medford/medford-share/data/pseudos_module/espresso/nninc/pbe/van/N.UPF
     MD5 check sum: 90d10febe142ad51ac9d5be1deb811c4
     Pseudo is Ultrasoft, Zval =  5.0
     Generated by new atomic code, or converted to UPF format
     Using radial grid of  729 points,  4 beta functions with:
                l(1) =   0
                l(2) =   0
                l(3) =   1
                l(4) =   1
     Q(r) pseudized with  8 coefficients,  rinner =    0.800   0.800   0.800

     PseudoPot. # 4 for C  read from file:
     /storage/coda1/p-amedford6/0/shared/rich_project_chbe-medford/medford-share/data/pseudos_module/espresso/nninc/pbe/van/C.UPF
     MD5 check sum: 1a69bf6b8db32088f5b2163dbdb77a27
     Pseudo is Ultrasoft, Zval =  4.0
     Generated by new atomic code, or converted to UPF format
     Using radial grid of  721 points,  4 beta functions with:
                l(1) =   0
                l(2) =   0
                l(3) =   1
                l(4) =   1
     Q(r) pseudized with  8 coefficients,  rinner =    0.800   0.800   0.800

     PseudoPot. # 5 for H  read from file:
     /storage/coda1/p-amedford6/0/shared/rich_project_chbe-medford/medford-share/data/pseudos_module/espresso/nninc/pbe/van/H.UPF
     MD5 check sum: b5ee9d7bfd3a09ee7748110bda690ff7
     Pseudo is Ultrasoft, Zval =  1.0
     Generated by new atomic code, or converted to UPF format
     Using radial grid of  615 points,  1 beta functions with:
                l(1) =   0
     Q(r) pseudized with  8 coefficients,  rinner =    0.800

     atomic species   valence    mass     pseudopotential
        O1             6.00    15.99900     O ( 1.00)
        Ti1           12.00    47.86700     Ti( 1.00)
        N1             5.00    14.00700     N ( 1.00)
        C1             4.00    12.01100     C ( 1.00)
        H1             1.00     1.00800     H ( 1.00)

     No symmetry found

   Cartesian axes

     site n.     atom                  positions (alat units)
         1           O1  tau(   1) = (   3.2904802   0.0005063   4.7018136  )
         2           O1  tau(   2) = (   3.2900926   2.9813045   4.7018136  )
         3           Ti1 tau(   3) = (   0.0004258   2.9801865   6.0000000  )
         4           Ti1 tau(   4) = (   0.0000382   5.9609847   6.0000000  )
         5           Ti1 tau(   5) = (   3.2906075   1.4906267   6.0002472  )
         6           Ti1 tau(   6) = (   3.2902200   4.4714249   6.0002472  )
         7           O1  tau(   7) = (   1.3043587   1.4918075   6.0039043  )
         8           O1  tau(   8) = (   1.3039711   4.4726057   6.0039043  )
         9           O1  tau(   9) = (   5.2767064   1.4903225   6.0039473  )
        10           O1  tau(  10) = (   5.2763189   4.4711207   6.0039473  )
        11           O1  tau(  11) = (   3.2906025   0.0005020   7.3038282  )
        12           O1  tau(  12) = (   3.2902150   2.9813002   7.3038282  )
        13           O1  tau(  13) = (   0.0006271   0.0005054   7.9858123  )
        14           O1  tau(  14) = (   0.0002396   2.9813036   7.9858123  )
        15           Ti1 tau(  15) = (   3.2907910   2.8959150   9.1758416  )
        16           Ti1 tau(  16) = (   3.2891106   5.8743827   9.1763621  )
        17           Ti1 tau(  17) = (   0.0015273   1.4827037   9.2680791  )
        18           Ti1 tau(  18) = (   0.0006254   4.4649316   9.2693709  )
        19           O1  tau(  19) = (   4.5942328   1.4918067   9.2879030  )
        20           O1  tau(  20) = (   4.5938453   4.4726049   9.2879030  )
        21           O1  tau(  21) = (   1.9868534   1.4903216   9.2879459  )
        22           O1  tau(  22) = (   1.9864658   4.4711199   9.2879459  )
        23           O1  tau(  23) = (   0.0116148   5.9584955  10.6183126  )
        24           O1  tau(  24) = (   0.0092240   2.9805883  10.6323155  )
        25           O1  tau(  25) = (   3.2531556   2.9620241  11.3322950  )
        26           O1  tau(  26) = (   3.2474763   5.9435521  11.3438280  )
        27           Ti1 tau(  27) = (   3.3237694   4.3814390  12.5572636  )
        28           Ti1 tau(  28) = (   0.0094504   0.0092305  12.5172013  )
        29           Ti1 tau(  29) = (   3.3224445   1.4452456  12.4745429  )
        30           Ti1 tau(  30) = (   0.0090234   2.9988230  12.5821063  )
        31           O1  tau(  31) = (   5.2496676   1.4726344  12.6006421  )
        32           O1  tau(  32) = (   5.2531746   4.4496067  12.6010712  )
        33           O1  tau(  33) = (   1.2410339   1.4659728  12.6671891  )
        34           O1  tau(  34) = (   1.2387123   4.4686174  12.6665250  )
        35           O1  tau(  35) = (   3.3067986   5.9564546  13.9007842  )
        36           O1  tau(  36) = (   3.2420318   3.0005841  13.9279729  )
        37           O1  tau(  37) = (   6.4209026   5.9439257  14.7021623  )
        38           O1  tau(  38) = (   6.4587925   2.9577525  14.6988961  )
        39           Ti1 tau(  39) = (   3.2423495   0.0283394  15.6829305  )
        40           Ti1 tau(  40) = (   6.4236859   1.5154006  15.7784978  )
        41           Ti1 tau(  41) = (   3.0799157   3.0146384  15.8599260  )
        42           O1  tau(  42) = (   1.9357555   1.4358950  15.9107064  )
        43           O1  tau(  43) = (   1.9271111   4.5447382  15.9660097  )
        44           Ti1 tau(  44) = (   6.4519450   4.6669281  16.1370820  )
        45           O1  tau(  45) = (   4.4443926   1.5071054  16.1134243  )
        46           O1  tau(  46) = (   4.4397279   4.4733020  16.1527106  )
        47           O1  tau(  47) = (   6.5167551   0.0277669  17.2715591  )
        48           N1  tau(  48) = (   0.3759035   2.6095042  18.6336219  )
        49           C1  tau(  49) = (   2.8136782   2.9081565  18.1516972  )
        50           H1  tau(  50) = (   0.1656462   1.5987175  18.7006542  )
        51           N1  tau(  51) = (   1.8163940   2.6552851  18.9293397  )
        52           H1  tau(  52) = (   3.7261332   2.9868749  18.7514029  )
        53           H1  tau(  53) = (   1.8928842   2.5952305  19.9427491  )
        54           O1  tau(  54) = (   0.0982553   2.9165792  17.3165359  )

     number of k points=    10  Fermi-Dirac smearing, width (Ry)=  0.0073
                       cart. coord. in units 2pi/alat
        k(    1) = (   0.0000000   0.0000000   0.0000000), wk =   0.1250000
        k(    2) = (   0.0000000   0.0419351   0.0000000), wk =   0.2500000
        k(    3) = (   0.0000000  -0.0838702   0.0000000), wk =   0.1250000
        k(    4) = (   0.0379955   0.0000049   0.0000000), wk =   0.2500000
        k(    5) = (   0.0379955   0.0419400   0.0000000), wk =   0.2500000
        k(    6) = (   0.0379955  -0.0838652   0.0000000), wk =   0.2500000
        k(    7) = (   0.0379955  -0.0419301   0.0000000), wk =   0.2500000
        k(    8) = (  -0.0759910  -0.0000099   0.0000000), wk =   0.1250000
        k(    9) = (  -0.0759910   0.0419252   0.0000000), wk =   0.2500000
        k(   10) = (  -0.0759910  -0.0838800   0.0000000), wk =   0.1250000

     Initial potential from superposition of free atoms

     starting charge  384.99916, renormalised to  401.00000

     negative rho (up, down):  1.631E-02 0.000E+00

     %%%%%%%%%%%%%%%%%%%%%%%%%%%%%%%%%%%%%%%%%%%%%%%%%%%%%%%%%%%%%%%%%%%%%%%%
     %                                                                      %
     % You are using vdW-DF, which was implemented by the Thonhauser group. %
     % Please cite the following two papers that made this development      %
     % possible and the two reviews that describe the various versions:     %
     %                                                                      %
     %   T. Thonhauser et al., PRL 115, 136402 (2015).                      %
     %   T. Thonhauser et al., PRB 76, 125112 (2007).                       %
     %   K. Berland et al., Rep. Prog. Phys. 78, 066501 (2015).             %
     %   D.C. Langreth et al., J. Phys.: Condens. Matter 21, 084203 (2009). %
     %                                                                      %
     %                                                                      %
     % If you are calculating the stress with vdW-DF, please also cite:     %
     %                                                                      %
     %   R. Sabatini et al., J. Phys.: Condens. Matter 24, 424209 (2012).   %
     %                                                                      %
     %%%%%%%%%%%%%%%%%%%%%%%%%%%%%%%%%%%%%%%%%%%%%%%%%%%%%%%%%%%%%%%%%%%%%%%%

     Adding external electric field

     Computed dipole along edir(3) :
        Dipole              -11.6315 Ry au,        -29.5642 Debye
        Dipole field         -0.0220 Ry au,

        Potential amp.        2.0347 Ry
        Total length         46.3494 bohr

     Starting wfcs are  303 atomic wfcs
  @ DRIVER MODE: Message from server: STATUS
  @ DRIVER MODE: Message from server: POSDATA
  @ DRIVER MODE: Reading and sharing cell
  @ DRIVER MODE: Reading and sharing positions
  @ DRIVER MODE: Received positions

     Self-consistent Calculation

     iteration #  1     ecut=    29.40 Ry     beta= 0.05
     Davidson diagonalization with overlap
     c_bands:  3 eigenvalues not converged
     c_bands:  3 eigenvalues not converged
     c_bands:  4 eigenvalues not converged
     c_bands:  4 eigenvalues not converged
     c_bands:  3 eigenvalues not converged
     c_bands:  1 eigenvalues not converged
     c_bands:  3 eigenvalues not converged
     ethr =  1.00E-05,  avg # of iterations = 24.0

[...]

     total energy              =   -2394.24473454 Ry
     estimated scf accuracy    <    6495.76349667 Ry

     iteration #  2     ecut=    29.40 Ry     beta= 0.05
     Davidson diagonalization with overlap
     ethr =  1.00E-02,  avg # of iterations = 25.1

[...]

     iteration # 51     ecut=    29.40 Ry     beta= 0.05
     Davidson diagonalization with overlap
     c_bands:  2 eigenvalues not converged
     c_bands:  1 eigenvalues not converged
     ethr =  1.30E-07,  avg # of iterations = 17.8

[...]

     total energy              =   -2971.36032667 Ry
     estimated scf accuracy    <       0.00000009 Ry

     iteration # 70     ecut=    29.40 Ry     beta= 0.05
     Davidson diagonalization with overlap
     ethr =  2.14E-11,  avg # of iterations = 10.8

     negative rho (up, down):  1.695E-02 0.000E+00

     Adding external electric field

     Computed dipole along edir(3) :
        Dipole                1.3750 Ry au,          3.4948 Debye
        Dipole field          0.0026 Ry au,

        Potential amp.       -0.2405 Ry
        Total length         46.3494 bohr

     End of self-consistent calculation

          k = 0.0000 0.0000 0.0000 ( 18029 PWs)   bands (ev):

   -55.3643 -55.3302 -55.2846 -55.2405 -55.2336 -55.2244 -55.1970 -55.1853
   -55.1513 -55.1434 -55.1301 -55.1082 -55.0346 -54.9948 -54.3437 -54.3097
   -31.8488 -31.8092 -31.7331 -31.6856 -31.6796 -31.6560 -31.6337 -31.6095
   -31.5998 -31.5694 -31.5415 -31.5167 -31.5025 -31.4961 -31.4706 -31.4675
   -31.4635 -31.4496 -31.4379 -31.4215 -31.4032 -31.3996 -31.3940 -31.3824
   -31.3788 -31.3780 -31.3740 -31.3651 -31.3419 -31.3416 -31.3347 -31.3252
   -31.3229 -31.3158 -31.2978 -31.2944 -31.2864 -31.2563 -31.2356 -31.2242
   -31.2092 -31.1794 -30.7505 -30.6628 -30.6403 -30.5677 -30.4812 -30.3698
   -20.1991 -17.3399 -16.0551 -15.8431 -15.6383 -15.5300 -15.4816 -15.2492
   -15.1319 -15.1018 -15.0150 -14.9443 -14.9280 -14.9043 -14.8928 -14.8745
   -14.8157 -14.8027 -14.7917 -14.7887 -14.7602 -14.7393 -14.7162 -14.7036
   -14.5826 -14.5691 -14.5398 -14.5083 -14.4860 -14.4253 -14.1663 -12.8449
   -12.7339 -12.7284  -9.0546  -7.2188  -5.7196  -4.9597  -3.4275  -3.3143
    -3.2836  -3.2710  -3.1849  -3.1450  -3.0226  -2.8064  -2.6586  -2.5581
    -2.5329  -2.4534  -2.3822  -2.3575  -2.3159  -2.2602  -2.2062  -2.1601
    -2.1351  -2.1108  -2.1029  -2.0971  -2.0030  -1.9846  -1.9442  -1.8920
    -1.8573  -1.7609  -1.7438  -1.6870  -1.6793  -1.6378  -1.6275  -1.6182
    -1.6091  -1.5910  -1.5075  -1.4916  -1.4438  -1.3675  -1.1764  -1.1242
    -1.0259  -0.9725  -0.8690  -0.8444  -0.8024  -0.7726  -0.7656  -0.7574
    -0.7104  -0.6167  -0.5745  -0.5222  -0.4611  -0.3832  -0.3139  -0.2739
    -0.1635  -0.1500  -0.1235  -0.1156  -0.0834   0.0589   0.1174   0.1678
     0.1918   0.2293   0.2958   0.3563   0.3702   0.4165   0.4401   0.5056
     0.5421   0.5616   0.5816   0.6091   0.6228   0.6519   0.6672   0.7166
     0.8416   0.8526   0.9004   0.9435   1.0043   1.1208   1.1282   1.2889
     1.3740   1.5539   1.6178   1.6799   1.7418   1.8715   2.2497   2.2953
     3.7414   3.8563   3.8884   3.9166   4.0001   4.0399   4.2097   4.2749
     4.2977   4.3355

[...]

          k = 0.0380-0.0419 0.0000 ( 17876 PWs)   bands (ev):

[...]

          k =-0.0760-0.0000 0.0000 ( 17886 PWs)   bands (ev):

[...]

          k =-0.0760-0.0839 0.0000 ( 17948 PWs)   bands (ev):

   -55.3474 -55.3470 -55.2787 -55.2320 -55.2310 -55.2299 -55.2055 -55.1684
   -55.1678 -55.1327 -55.1311 -55.1206 -55.0268 -55.0025 -54.3267 -54.3266
   -31.6642 -31.6639 -31.6505 -31.6416 -31.6413 -31.5914 -31.5690 -31.5493
   -31.5424 -31.5261 -31.5057 -31.4959 -31.4929 -31.4863 -31.4797 -31.4729
   -31.4669 -31.4667 -31.4641 -31.4604 -31.4565 -31.4403 -31.4381 -31.4312
   -31.4224 -31.4166 -31.4048 -31.3842 -31.3721 -31.3701 -31.3580 -31.3472
   -31.3471 -31.3442 -31.3416 -31.3414 -31.3383 -31.3316 -31.2631 -31.2495
   -31.2313 -31.2109 -30.6531 -30.6530 -30.5634 -30.5632 -30.5245 -30.5244
   -20.1941 -17.3372 -15.4867 -15.3746 -15.3709 -15.3043 -15.2500 -15.1786
   -15.1289 -15.0986 -15.0592 -15.0411 -15.0145 -14.9731 -14.9329 -14.9218
   -14.8970 -14.8881 -14.8667 -14.8229 -14.8142 -14.8060 -14.7998 -14.7732
   -14.7328 -14.7061 -14.6845 -14.6799 -14.6503 -14.5127 -14.3661 -12.8303
   -12.8302 -12.7385  -9.0478  -7.1610  -5.7305  -4.9810  -3.3195  -2.7518
    -2.6608  -2.5748  -2.5042  -2.4320  -2.3919  -2.3709  -2.3127  -2.3075
    -2.2768  -2.2183  -2.1992  -2.1835  -2.1679  -2.1374  -2.1296  -2.1073
    -2.0966  -2.0893  -2.0486  -2.0460  -2.0210  -2.0188  -1.9928  -1.9859
    -1.9562  -1.9276  -1.9067  -1.8679  -1.8229  -1.7228  -1.6378  -1.5666
    -1.5128  -1.5017  -1.4922  -1.4376  -1.4204  -1.3886  -1.3608  -1.3250
    -1.1908  -1.0525  -1.0422  -1.0074  -0.9424  -0.9108  -0.8728  -0.8505
    -0.7755  -0.7586  -0.7255  -0.6979  -0.6272  -0.5373  -0.4926  -0.4514
    -0.4212  -0.3658  -0.3385  -0.3188  -0.3018  -0.2876  -0.2524  -0.1849
    -0.1422  -0.1185  -0.0862  -0.0601  -0.0380  -0.0120   0.1590   0.1769
     0.2755   0.3436   0.4019   0.5374   0.6387   0.6773   0.7195   0.7789
     0.8461   0.8982   0.9321   0.9491   0.9674   1.0318   1.0878   1.1539
     1.1696   1.2022   1.2806   1.4406   2.0435   2.0459   2.1154   2.1156
     4.1124   4.1610   4.1855   4.1958   4.2631   4.2876   4.3046   4.3081
     4.4128   4.4291

     the Fermi energy is     3.7616 ev

!    total energy              =   -2971.36034442 Ry
     estimated scf accuracy    <       0.00000006 Ry
     smearing contrib. (-TS)   =      -0.02057503 Ry
     internal energy E=F+TS    =   -2971.33976940 Ry

     The total energy is F=E-TS. E is the sum of the following terms:
     one-electron contribution =  -24168.77144847 Ry
     hartree contribution      =   12180.02229788 Ry
     xc contribution           =    -492.42791341 Ry
     ewald contribution        =    9509.83372691 Ry
     electric field correction =       0.00356770 Ry

     convergence has been achieved in  70 iterations

     Forces acting on atoms (cartesian axes, Ry/au):

     atom    1 type  1   force =     0.00007292   -0.00011964    0.10309994
     atom    2 type  1   force =     0.00007438   -0.00010299    0.10314060
     atom    3 type  2   force =     0.00002529   -0.00020208    0.09529501
     atom    4 type  2   force =     0.00007919   -0.00048322    0.09488160
     atom    5 type  2   force =    -0.00020603   -0.00071087   -0.17564148
     atom    6 type  2   force =    -0.00005582   -0.00024211   -0.17576312
     atom    7 type  1   force =    -0.07168860   -0.00018110   -0.02756668
     atom    8 type  1   force =    -0.07167050   -0.00021679   -0.02749592
     atom    9 type  1   force =     0.07155525    0.00026321   -0.02757018
     atom   10 type  1   force =     0.07152198    0.00025870   -0.02754636
     atom   11 type  1   force =    -0.00008032   -0.00143904    0.05241121
     atom   12 type  1   force =    -0.00000408   -0.00150148    0.05287292
     atom   13 type  1   force =    -0.00013159   -0.00018146   -0.02268544
     atom   14 type  1   force =    -0.00006004   -0.00028777   -0.02181220
     atom   15 type  2   force =    -0.00221767    0.00204883   -0.00872895
     atom   16 type  2   force =    -0.00226606    0.00207205   -0.00149499
     atom   17 type  2   force =     0.00139480    0.00932395    0.01493405
     atom   18 type  2   force =     0.00155035   -0.01042556    0.01571377
     atom   19 type  1   force =    -0.01011428   -0.00094590    0.00485356
     atom   20 type  1   force =    -0.01048994   -0.00075710    0.00459862
     atom   21 type  1   force =     0.01028315   -0.00001250    0.00094569
     atom   22 type  1   force =     0.01055718   -0.00053881    0.00076505
     atom   23 type  1   force =    -0.00214419    0.00036709   -0.01185427
     atom   24 type  1   force =    -0.00061588   -0.00078156   -0.01486708
     atom   25 type  1   force =     0.00002300    0.00039925   -0.00001033
     atom   26 type  1   force =     0.00010308   -0.00025837   -0.00045748
     atom   27 type  2   force =     0.00054104   -0.00012630   -0.00067927
     atom   28 type  2   force =    -0.00020972   -0.00020445   -0.00004205
     atom   29 type  2   force =     0.00020514    0.00076688    0.00013776
     atom   30 type  2   force =    -0.00030520   -0.00027506   -0.00000196
     atom   31 type  1   force =     0.00023973    0.00056468    0.00025052
     atom   32 type  1   force =    -0.00063559    0.00047279    0.00003705
     atom   33 type  1   force =     0.00043813    0.00051579    0.00010497
     atom   34 type  1   force =     0.00070801    0.00023687   -0.00016349
     atom   35 type  1   force =    -0.00009827   -0.00034410   -0.00004265
     atom   36 type  1   force =     0.00081300    0.00057245   -0.00077514
     atom   37 type  1   force =     0.00038256    0.00024813    0.00025203
     atom   38 type  1   force =     0.00056943    0.00067483    0.00069674
     atom   39 type  2   force =     0.00038283   -0.00024601   -0.00020440
     atom   40 type  2   force =    -0.00022604   -0.00041475   -0.00010327
     atom   41 type  2   force =     0.00057993    0.00029642    0.00028259
     atom   42 type  1   force =     0.00033712    0.00016875    0.00003978
     atom   43 type  1   force =     0.00032299    0.00018414    0.00014933
     atom   44 type  2   force =    -0.00023663    0.00080401   -0.00037136
     atom   45 type  1   force =     0.00009107   -0.00004842   -0.00053152
     atom   46 type  1   force =     0.00015605    0.00070468    0.00016428
     atom   47 type  1   force =    -0.00033089    0.00036606   -0.00008703
     atom   48 type  3   force =    -0.00077240   -0.00329846    0.00075963
     atom   49 type  4   force =    -0.00236563   -0.00249967    0.00198197
     atom   50 type  5   force =    -0.00101761    0.00102134   -0.00058998
     atom   51 type  3   force =     0.00358845    0.00545984   -0.00454176
     atom   52 type  5   force =     0.00124883   -0.00009250    0.00100226
     atom   53 type  5   force =    -0.00037626   -0.00109226    0.00197477
     atom   54 type  1   force =     0.00047435    0.00023960    0.00028266

     Total force =     0.364558     Total SCF correction =     0.000541
  @ DRIVER MODE: Message from server: STATUS
  @ DRIVER MODE: Message from server: GETFORCE
  @ DRIVER MODE: Returning v,forces,stress,ensemble

     Writing output data file ./calc.save/
  @ DRIVER MODE: Message from server: EXIT
  @ DRIVE MODE: Exiting

     General routines

     Parallel routines

   This run was terminated on:  23:45:46  26Sep2021

   JOB DONE.