     Program PWSCF v.6.7GPU starts on 22Sep2021 at 18: 4: 4

     R & G space division:  proc/nbgrp/npool/nimage =      10
     Reading input from /storage/home/hcoda1/3/ntian30/research/carbon/CxH_vib/H2O_calc/ads_slab/CHNNHHHO_a/out_0006/pw.inp
Warning: card &CELL ignored
Warning: card   CELL_DYNAMICS='IPI', ignored
Warning: card / ignored

     Current dimensions of program PWSCF are:
     Max number of different atomic species (ntypx) = 10
     Max number of k-points (npk) =  40000
     Max angular momentum in pseudopotentials (lmaxx) =  3
     Presently no symmetry can be used with electric field

     Message from routine cell_base_init:
     DEPRECATED: use true lattice parameter, not A to a.u. conversion factor

     IMPORTANT: XC functional enforced from input :
     Exchange-correlation= BEEF-VDW
                           (   1   4  43  14   2   0   0)
     Any further DFT definition will be discarded
     Please, verify this is what you really want

  @ DRIVER MODE: Connecting to
 qe_1139763_2937315.sched-torque.pace.gatech.eduny40p6hg_scratch
  using UNIX socket
  @ DRIVER MODE: Message from server: STATUS
  @ DRIVER MODE: Message from server: INIT
  @ DRIVER MODE: Receiving replica           0          -1
  @ DRIVER MODE: Receiving encoded integer          25
  @ DRIVER MODE:  SCF:  T  FORCE:  T  STRESS:  F  VC:  F  ENSEMBLE:  F
  @ DRIVER MODE:  SCF:  T  FORCE:  T  STRESS:  F  VC:  F  ENSEMBLE:  F

     Using Slab Decomposition

     bravais-lattice index     =            0
     lattice parameter (alat)  =       1.8897  a.u.
     unit-cell volume          =    6658.9804 (a.u.)^3
     number of atoms/cell      =           55
     number of atomic types    =            5
     number of electrons       =       402.00
     number of Kohn-Sham states=          211
     kinetic-energy cutoff     =      29.3995  Ry
     charge density cutoff     =     293.9946  Ry
     scf convergence threshold =      7.3E-08
     mixing beta               =       0.0500
     number of iterations used =            8  plain     mixing
     Exchange-correlation= BEEF-VDW
                           (   1   4  43  14   2   0   0)

     celldm(1)=   1.889726  celldm(2)=   0.000000  celldm(3)=   0.000000
     celldm(4)=   0.000000  celldm(5)=   0.000000  celldm(6)=   0.000000

     crystal axes: (cart. coord. in units of alat)
               a(1) = (   6.579727   0.000000   0.000000 )
               a(2) = (  -0.000775   5.961596   0.000000 )
               a(3) = (   0.000000   0.000000  25.155947 )

     reciprocal axes: (cart. coord. in units 2 pi/alat)
               b(1) = (  0.151982  0.000020  0.000000 )
               b(2) = (  0.000000  0.167740  0.000000 )
               b(3) = (  0.000000  0.000000  0.039752 )

     PseudoPot. # 1 for Ti read from file:
     /storage/coda1/p-amedford6/0/shared/rich_project_chbe-medford/medford-share/data/pseudos_module/espresso/nninc/pbe/van/Ti.UPF
     MD5 check sum: 8e4df49b7f0d34bbd5052bf3f5ea0213
     Pseudo is Ultrasoft, Zval = 12.0
     Generated by new atomic code, or converted to UPF format
     Using radial grid of  851 points,  6 beta functions with:
                l(1) =   0
                l(2) =   0
                l(3) =   1
                l(4) =   1
                l(5) =   2
                l(6) =   2
     Q(r) pseudized with  8 coefficients,  rinner =    1.000   1.000   1.000
                                                       1.000   1.000

     PseudoPot. # 2 for O  read from file:
     /storage/coda1/p-amedford6/0/shared/rich_project_chbe-medford/medford-share/data/pseudos_module/espresso/nninc/pbe/van/O.UPF
     MD5 check sum: 78c19812648e8988a0fe644b0f25305e
     Pseudo is Ultrasoft, Zval =  6.0
     Generated by new atomic code, or converted to UPF format
     Using radial grid of  737 points,  4 beta functions with:
                l(1) =   0
                l(2) =   0
                l(3) =   1
                l(4) =   1
     Q(r) pseudized with  8 coefficients,  rinner =    0.800   0.800   0.800

     PseudoPot. # 3 for N  read from file:
     /storage/coda1/p-amedford6/0/shared/rich_project_chbe-medford/medford-share/data/pseudos_module/espresso/nninc/pbe/van/N.UPF
     MD5 check sum: 90d10febe142ad51ac9d5be1deb811c4
     Pseudo is Ultrasoft, Zval =  5.0
     Generated by new atomic code, or converted to UPF format
     Using radial grid of  729 points,  4 beta functions with:
                l(1) =   0
                l(2) =   0
                l(3) =   1
                l(4) =   1
     Q(r) pseudized with  8 coefficients,  rinner =    0.800   0.800   0.800

     PseudoPot. # 4 for C  read from file:
     /storage/coda1/p-amedford6/0/shared/rich_project_chbe-medford/medford-share/data/pseudos_module/espresso/nninc/pbe/van/C.UPF
     MD5 check sum: 1a69bf6b8db32088f5b2163dbdb77a27
     Pseudo is Ultrasoft, Zval =  4.0
     Generated by new atomic code, or converted to UPF format
     Using radial grid of  721 points,  4 beta functions with:
                l(1) =   0
                l(2) =   0
                l(3) =   1
                l(4) =   1
     Q(r) pseudized with  8 coefficients,  rinner =    0.800   0.800   0.800

     PseudoPot. # 5 for H  read from file:
     /storage/coda1/p-amedford6/0/shared/rich_project_chbe-medford/medford-share/data/pseudos_module/espresso/nninc/pbe/van/H.UPF
     MD5 check sum: b5ee9d7bfd3a09ee7748110bda690ff7
     Pseudo is Ultrasoft, Zval =  1.0
     Generated by new atomic code, or converted to UPF format
     Using radial grid of  615 points,  1 beta functions with:
                l(1) =   0
     Q(r) pseudized with  8 coefficients,  rinner =    0.800

     atomic species   valence    mass     pseudopotential
        Ti1           12.00    47.86700     Ti( 1.00)
        O1             6.00    15.99900     O ( 1.00)
        N1             5.00    14.00700     N ( 1.00)
        C1             4.00    12.01100     C ( 1.00)
        H1             1.00     1.00800     H ( 1.00)

     No symmetry found

   Cartesian axes

     site n.     atom                  positions (alat units)
         1           Ti1 tau(   1) = (   0.0004258   2.9801865   6.0000000  )
         2           Ti1 tau(   2) = (   3.2906075   1.4906267   6.0002472  )
         3           O1  tau(   3) = (   0.0006271   0.0005054   7.9858123  )
         4           O1  tau(   4) = (   3.2906025   0.0005020   7.3038282  )
         5           O1  tau(   5) = (   4.5942328   1.4918067   9.2879030  )
         6           O1  tau(   6) = (   1.9868534   1.4903216   9.2879459  )
         7           Ti1 tau(   7) = (   3.2907910   2.8959150   9.1758416  )
         8           Ti1 tau(   8) = (   0.0015273   1.4827037   9.2680791  )
         9           O1  tau(   9) = (   3.3019041   5.9340972  11.2780832  )
        10           O1  tau(  10) = (   0.0116148   5.9584955  10.6183126  )
        11           O1  tau(  11) = (   1.2869077   1.4717189  12.6473688  )
        12           O1  tau(  12) = (   5.3188397   1.4655789  12.6430575  )
        13           Ti1 tau(  13) = (   0.0521173   3.0639968  12.7333969  )
        14           Ti1 tau(  14) = (   3.2906581   1.3001642  12.6471297  )
        15           O1  tau(  15) = (   0.0021475   5.9326859  14.6872502  )
        16           O1  tau(  16) = (   3.3040199   0.0265785  13.8678754  )
        17           O1  tau(  17) = (   4.6240569   1.6264218  16.1080407  )
        18           O1  tau(  18) = (   2.0715169   1.5429601  15.9546445  )
        19           Ti1 tau(  19) = (   3.3363059   2.9874148  15.6109769  )
        20           Ti1 tau(  20) = (   0.0492893   1.4028208  15.7974426  )
        21           O1  tau(  21) = (   3.2904802   0.0005063   4.7018136  )
        22           O1  tau(  22) = (   0.0944532   0.0627470  17.1934044  )
        23           O1  tau(  23) = (   1.3043587   1.4918075   6.0039043  )
        24           O1  tau(  24) = (   5.2767064   1.4903225   6.0039473  )
        25           Ti1 tau(  25) = (   0.0000382   5.9609847   6.0000000  )
        26           Ti1 tau(  26) = (   3.2902200   4.4714249   6.0002472  )
        27           O1  tau(  27) = (   0.0002396   2.9813036   7.9858123  )
        28           O1  tau(  28) = (   3.2902150   2.9813002   7.3038282  )
        29           O1  tau(  29) = (   4.5938453   4.4726049   9.2879030  )
        30           O1  tau(  30) = (   1.9864658   4.4711199   9.2879459  )
        31           Ti1 tau(  31) = (   3.2891106   5.8743827   9.1763621  )
        32           Ti1 tau(  32) = (   0.0006254   4.4649316   9.2693709  )
        33           O1  tau(  33) = (   3.3033179   3.0104581  11.2528581  )
        34           O1  tau(  34) = (   0.0092240   2.9805883  10.6323155  )
        35           O1  tau(  35) = (   1.3074756   4.4469578  12.6382572  )
        36           O1  tau(  36) = (   5.3202433   4.4545580  12.6357595  )
        37           Ti1 tau(  37) = (   6.5572640   0.0741000  12.5519234  )
        38           Ti1 tau(  38) = (   3.3179412   4.3950854  12.4030220  )
        39           O1  tau(  39) = (   0.0383827   2.9948909  14.7437145  )
        40           O1  tau(  40) = (   3.3238341   2.9662938  13.8354460  )
        41           O1  tau(  41) = (   4.5722604   4.5101538  15.9256862  )
        42           O1  tau(  42) = (   2.0839069   4.4665637  16.0501180  )
        43           Ti1 tau(  43) = (   3.2507700   5.9423238  16.2547716  )
        44           Ti1 tau(  44) = (   6.5063516   4.5631136  16.2071476  )
        45           O1  tau(  45) = (   3.2900926   2.9813045   4.7018136  )
        46           O1  tau(  46) = (   1.3039711   4.4726057   6.0039043  )
        47           O1  tau(  47) = (   5.2763189   4.4711207   6.0039473  )
        48           N1  tau(  48) = (   0.4124544   2.9287237  17.8491456  )
        49           C1  tau(  49) = (   1.3780350   3.0145335  18.6736463  )
        50           H1  tau(  50) = (   2.3027514   2.5668077  18.2879847  )
        51           N1  tau(  51) = (   5.7762606   3.6115528  18.1636368  )
        52           H1  tau(  52) = (   5.8537390   4.1179332  19.0469945  )
        53           H1  tau(  53) = (   5.0130290   2.9392956  18.1702355  )
        54           O1  tau(  54) = (   3.2882145   0.0116813  18.0866318  )
        55           H1  tau(  55) = (   2.5950809   5.5738040  18.6371346  )

     number of k points=    10  Fermi-Dirac smearing, width (Ry)=  0.0073
                       cart. coord. in units 2pi/alat
        k(    1) = (   0.0000000   0.0000000   0.0000000), wk =   0.1250000
        k(    2) = (   0.0000000   0.0419351   0.0000000), wk =   0.2500000
        k(    3) = (   0.0000000  -0.0838702   0.0000000), wk =   0.1250000
        k(    4) = (   0.0379955   0.0000049   0.0000000), wk =   0.2500000
        k(    5) = (   0.0379955   0.0419400   0.0000000), wk =   0.2500000
        k(    6) = (   0.0379955  -0.0838652   0.0000000), wk =   0.2500000
        k(    7) = (   0.0379955  -0.0419301   0.0000000), wk =   0.2500000
        k(    8) = (  -0.0759910  -0.0000099   0.0000000), wk =   0.1250000
        k(    9) = (  -0.0759910   0.0419252   0.0000000), wk =   0.2500000
        k(   10) = (  -0.0759910  -0.0838800   0.0000000), wk =   0.1250000

     Initial potential from superposition of free atoms

     starting charge  385.99915, renormalised to  402.00000

     negative rho (up, down):  1.702E-02 0.000E+00

     %%%%%%%%%%%%%%%%%%%%%%%%%%%%%%%%%%%%%%%%%%%%%%%%%%%%%%%%%%%%%%%%%%%%%%%%
     %                                                                      %
     % You are using vdW-DF, which was implemented by the Thonhauser group. %
     % Please cite the following two papers that made this development      %
     % possible and the two reviews that describe the various versions:     %
     %                                                                      %
     %   T. Thonhauser et al., PRL 115, 136402 (2015).                      %
     %   T. Thonhauser et al., PRB 76, 125112 (2007).                       %
     %   K. Berland et al., Rep. Prog. Phys. 78, 066501 (2015).             %
     %   D.C. Langreth et al., J. Phys.: Condens. Matter 21, 084203 (2009). %
     %                                                                      %
     %                                                                      %
     % If you are calculating the stress with vdW-DF, please also cite:     %
     %                                                                      %
     %   R. Sabatini et al., J. Phys.: Condens. Matter 24, 424209 (2012).   %
     %                                                                      %
     %%%%%%%%%%%%%%%%%%%%%%%%%%%%%%%%%%%%%%%%%%%%%%%%%%%%%%%%%%%%%%%%%%%%%%%%

     Adding external electric field

     Computed dipole along edir(3) :
        Dipole              -11.1583 Ry au,        -28.3615 Debye
        Dipole field         -0.0211 Ry au,

        Potential amp.        1.9520 Ry
        Total length         46.3494 bohr

     Starting wfcs are  304 atomic wfcs
  @ DRIVER MODE: Message from server: STATUS
  @ DRIVER MODE: Message from server: POSDATA
  @ DRIVER MODE: Reading and sharing cell
  @ DRIVER MODE: Reading and sharing positions
  @ DRIVER MODE: Received positions

     Self-consistent Calculation

     iteration #  1     ecut=    29.40 Ry     beta= 0.05
     Davidson diagonalization with overlap
     c_bands:  2 eigenvalues not converged
     c_bands:  2 eigenvalues not converged
     c_bands:  1 eigenvalues not converged
     c_bands:  5 eigenvalues not converged
     c_bands:  5 eigenvalues not converged
     c_bands:  1 eigenvalues not converged
     c_bands:  4 eigenvalues not converged
     c_bands:  3 eigenvalues not converged
     c_bands:  1 eigenvalues not converged
     ethr =  1.00E-05,  avg # of iterations = 24.6

[...]

     total energy              =   -2400.30573119 Ry
     estimated scf accuracy    <    6416.29149908 Ry

     iteration #  2     ecut=    29.40 Ry     beta= 0.05
     Davidson diagonalization with overlap
     ethr =  1.00E-02,  avg # of iterations = 23.6

[...]

     iteration # 53     ecut=    29.40 Ry     beta= 0.05
     Davidson diagonalization with overlap
     c_bands:  1 eigenvalues not converged
     ethr =  8.64E-07,  avg # of iterations =  9.9

[...]

     total energy              =   -2972.60987227 Ry
     estimated scf accuracy    <       0.00000009 Ry

     iteration # 82     ecut=    29.40 Ry     beta= 0.05
     Davidson diagonalization with overlap
     ethr =  2.23E-11,  avg # of iterations =  4.1

     negative rho (up, down):  1.637E-02 0.000E+00

     Adding external electric field

     Computed dipole along edir(3) :
        Dipole                0.2264 Ry au,          0.5755 Debye
        Dipole field          0.0004 Ry au,

        Potential amp.       -0.0396 Ry
        Total length         46.3494 bohr

     End of self-consistent calculation

          k = 0.0000 0.0000 0.0000 ( 18029 PWs)   bands (ev):

   -56.4544 -56.4207 -56.0019 -55.9660 -55.7511 -55.6967 -55.6454 -55.6449
   -55.6038 -55.5226 -55.5128 -55.4493 -55.4131 -55.2828 -55.2010 -55.1670
   -32.9014 -32.7459 -32.7186 -32.6141 -32.5258 -32.5218 -32.4833 -32.2345
   -32.2196 -32.1978 -32.1513 -32.1460 -32.1272 -32.1005 -32.0327 -32.0198
   -31.9883 -31.9723 -31.9602 -31.9265 -31.9192 -31.9093 -31.8991 -31.8859
   -31.8680 -31.8616 -31.8576 -31.8055 -31.7944 -31.7727 -31.7464 -31.7298
   -31.7095 -31.7020 -31.6860 -31.6804 -31.6438 -31.6025 -31.5962 -31.5837
   -31.5476 -31.5359 -31.5140 -31.5122 -31.4909 -31.4153 -31.3310 -31.2189
   -17.9591 -16.7287 -16.4825 -16.3969 -16.2025 -16.0073 -15.9152 -15.9046
   -15.8738 -15.7651 -15.7526 -15.6040 -15.5246 -15.4657 -15.4080 -15.4063
   -15.3321 -15.3099 -15.2538 -15.2277 -15.2148 -15.1954 -15.1458 -15.0765
   -15.0647 -15.0324 -14.8582 -14.8235 -14.8143 -14.6338 -14.5344 -13.6985
   -13.5868 -13.2711  -7.8537  -6.2035  -4.2863  -4.2443  -4.1525  -3.9268
    -3.7287  -3.6712  -3.5844  -3.4258  -3.4025  -3.1553  -3.1387  -3.0942
    -3.0082  -2.9934  -2.9602  -2.8958  -2.8377  -2.8207  -2.7682  -2.6828
    -2.6723  -2.6696  -2.6430  -2.6191  -2.5152  -2.4828  -2.4172  -2.3702
    -2.3468  -2.3330  -2.2939  -2.2401  -2.2140  -2.1614  -2.1462  -2.0716
    -2.0392  -1.9486  -1.8892  -1.8706  -1.8201  -1.7479  -1.7476  -1.6990
    -1.5648  -1.4529  -1.3835  -1.3532  -1.2915  -1.2349  -1.2102  -1.1523
    -1.0878  -1.0677  -1.0421  -1.0043  -0.9444  -0.9136  -0.8602  -0.8164
    -0.7410  -0.6753  -0.6230  -0.6094  -0.4926  -0.4302  -0.3991  -0.3749
    -0.3384  -0.2952  -0.2291  -0.1931  -0.1819  -0.1627  -0.1001   0.0236
     0.0328   0.0920   0.1462   0.1794   0.1955   0.2133   0.2705   0.3386
     0.4124   0.4570   0.4705   0.5276   0.5885   0.6270   0.7436   0.8235
     0.8313   0.8881   0.9534   1.0225   1.0574   1.3606   1.3733   1.4074
     2.5295   2.7799   2.9103   3.0869   3.2108   3.3417   3.6534   3.6779
     3.6900   3.6969   3.7954

[...]

          k = 0.0380-0.0419 0.0000 ( 17876 PWs)   bands (ev):

[...]

          k =-0.0760-0.0000 0.0000 ( 17886 PWs)   bands (ev):

[...]

          k =-0.0760-0.0839 0.0000 ( 17948 PWs)   bands (ev):

   -56.4377 -56.4372 -55.9902 -55.9775 -55.7452 -55.7026 -55.6440 -55.6361
   -55.6125 -55.5204 -55.5142 -55.4476 -55.4150 -55.2844 -55.1845 -55.1834
   -32.7316 -32.7311 -32.7176 -32.7174 -32.5667 -32.5658 -32.3122 -32.3012
   -32.1821 -32.1761 -32.1680 -32.1661 -32.0529 -32.0206 -31.9744 -31.9686
   -31.9669 -31.9568 -31.9540 -31.9395 -31.9290 -31.9214 -31.9154 -31.8792
   -31.8654 -31.8612 -31.8544 -31.8404 -31.8202 -31.8029 -31.7848 -31.7775
   -31.7334 -31.7158 -31.7004 -31.6899 -31.6496 -31.6384 -31.6302 -31.6069
   -31.5500 -31.5255 -31.5247 -31.4949 -31.4119 -31.4105 -31.3738 -31.3729
   -17.9502 -16.4637 -16.1346 -16.1235 -16.0053 -15.9995 -15.8603 -15.8279
   -15.8090 -15.7395 -15.6811 -15.6526 -15.5114 -15.4976 -15.4623 -15.4270
   -15.4010 -15.3587 -15.3529 -15.3293 -15.3051 -15.2383 -15.2151 -15.1909
   -15.1791 -15.1088 -14.9278 -14.9079 -14.8946 -14.8184 -14.6853 -13.6904
   -13.6895 -13.2821  -7.8175  -6.1346  -4.4079  -4.0985  -3.3070  -3.2418
    -3.1713  -3.1422  -3.1233  -3.0520  -3.0360  -2.9221  -2.8891  -2.8496
    -2.8261  -2.8162  -2.7996  -2.7463  -2.7313  -2.6775  -2.6667  -2.6616
    -2.6289  -2.5938  -2.5769  -2.5516  -2.5397  -2.4710  -2.4413  -2.3969
    -2.3705  -2.3625  -2.3228  -2.2677  -2.2565  -2.1892  -2.1757  -2.1356
    -2.0985  -2.0418  -2.0113  -1.9607  -1.8659  -1.8520  -1.7746  -1.6564
    -1.6349  -1.5534  -1.5202  -1.4993  -1.4784  -1.3959  -1.3744  -1.3385
    -1.2439  -1.2153  -1.2122  -1.1893  -1.1575  -1.1337  -1.0773  -1.0148
    -0.9143  -0.8486  -0.8400  -0.8173  -0.7835  -0.7570  -0.7182  -0.6232
    -0.6028  -0.5655  -0.5581  -0.5171  -0.4008  -0.3813  -0.2258  -0.1971
    -0.0992  -0.0721  -0.0535  -0.0136   0.1077   0.1389   0.1885   0.2102
     0.2668   0.3136   0.3557   0.4455   0.5485   0.5677   0.6946   0.7262
     0.7432   0.8157   0.9394   0.9925   1.2173   1.2227   1.2243   1.2257
     2.5086   3.3322   3.3346   3.3674   3.3799   3.5815   3.6014   3.7244
     3.8088   3.8222   3.8268

     the Fermi energy is     2.7073 ev

!    total energy              =   -2972.60988262 Ry
     estimated scf accuracy    <       0.00000006 Ry
     smearing contrib. (-TS)   =      -0.01185514 Ry
     internal energy E=F+TS    =   -2972.59802747 Ry

     The total energy is F=E-TS. E is the sum of the following terms:
     one-electron contribution =  -24034.16316404 Ry
     hartree contribution      =   12108.48529510 Ry
     xc contribution           =    -493.08384625 Ry
     ewald contribution        =    9446.16359098 Ry
     electric field correction =       0.00009674 Ry

     convergence has been achieved in  82 iterations

     Forces acting on atoms (cartesian axes, Ry/au):

     atom    1 type  1   force =    -0.00003661   -0.00046589    0.10823898
     atom    2 type  1   force =     0.00001609    0.00008902   -0.16417095
     atom    3 type  2   force =     0.00013183    0.00047046   -0.04095189
     atom    4 type  2   force =     0.00009249   -0.00057622    0.03234337
     atom    5 type  2   force =    -0.00384904   -0.00332954   -0.00769291
     atom    6 type  2   force =     0.00590872   -0.00273759   -0.00751925
     atom    7 type  1   force =     0.00017133   -0.00551762    0.03591841
     atom    8 type  1   force =     0.00012763    0.02545662    0.06313770
     atom    9 type  2   force =     0.00014042    0.00042159    0.00043897
     atom   10 type  2   force =    -0.00195554    0.00076905   -0.03731252
     atom   11 type  2   force =     0.00014671   -0.00012845   -0.00005884
     atom   12 type  2   force =    -0.00078727    0.00023881   -0.00006895
     atom   13 type  1   force =     0.00045014    0.00047304    0.00015894
     atom   14 type  1   force =    -0.00055889   -0.00033073   -0.00023237
     atom   15 type  2   force =    -0.00011933   -0.00001794    0.00110003
     atom   16 type  2   force =    -0.00012740    0.00025379    0.00013761
     atom   17 type  2   force =    -0.00101841    0.00049682    0.00013194
     atom   18 type  2   force =     0.00046023    0.00002022   -0.00011381
     atom   19 type  1   force =     0.00029937   -0.00088527   -0.00046230
     atom   20 type  1   force =    -0.00050495   -0.00020688   -0.00060922
     atom   21 type  2   force =     0.00009577    0.00018535    0.10017484
     atom   22 type  2   force =    -0.00011349   -0.00037205    0.00061579
     atom   23 type  2   force =    -0.07737141    0.00001330   -0.03028795
     atom   24 type  2   force =     0.07736366    0.00043012   -0.03033300
     atom   25 type  1   force =    -0.00001371   -0.00031796    0.10841497
     atom   26 type  1   force =    -0.00004302   -0.00110305   -0.16420624
     atom   27 type  2   force =     0.00011657   -0.00017552   -0.03896654
     atom   28 type  2   force =     0.00011554    0.00117001    0.02856482
     atom   29 type  2   force =    -0.00235084    0.00467761   -0.01042184
     atom   30 type  2   force =     0.00442652    0.00496064   -0.01038252
     atom   31 type  1   force =     0.00005187    0.00319352    0.01876897
     atom   32 type  1   force =     0.00036624   -0.02768726    0.06486904
     atom   33 type  2   force =    -0.00003149   -0.00072662   -0.00007948
     atom   34 type  2   force =    -0.00062213    0.00086300   -0.05527495
     atom   35 type  2   force =    -0.00035113   -0.00024898   -0.00015801
     atom   36 type  2   force =    -0.00007184   -0.00005956   -0.00007905
     atom   37 type  1   force =     0.00030272   -0.00057005   -0.00052195
     atom   38 type  1   force =    -0.00036518   -0.00011744   -0.00011847
     atom   39 type  2   force =    -0.00013417    0.00030551    0.00056104
     atom   40 type  2   force =    -0.00016462   -0.00026307    0.00012638
     atom   41 type  2   force =    -0.00009464    0.00015227    0.00023143
     atom   42 type  2   force =    -0.00084099   -0.00018501    0.00038136
     atom   43 type  1   force =     0.00030320    0.00044864   -0.00021992
     atom   44 type  1   force =    -0.00044100    0.00062147   -0.00152668
     atom   45 type  2   force =     0.00010183    0.00001186    0.09998591
     atom   46 type  2   force =    -0.07740367   -0.00001398   -0.03029796
     atom   47 type  2   force =     0.07742198    0.00041704   -0.03033702
     atom   48 type  3   force =    -0.00689737   -0.00308306   -0.01206097
     atom   49 type  4   force =     0.00820890    0.00132669    0.00800465
     atom   50 type  5   force =    -0.00064381   -0.00013431    0.00005898
     atom   51 type  3   force =     0.00131159    0.00016663    0.00268940
     atom   52 type  5   force =    -0.00100917    0.00101844   -0.00010165
     atom   53 type  5   force =     0.00013910    0.00057262    0.00002322
     atom   54 type  2   force =     0.00086212    0.00074259   -0.00132194
     atom   55 type  5   force =    -0.00121145   -0.00071267    0.00081239

     Total force =     0.383009     Total SCF correction =     0.001033
  @ DRIVER MODE: Message from server: STATUS
  @ DRIVER MODE: Message from server: GETFORCE
  @ DRIVER MODE: Returning v,forces,stress,ensemble

     Writing output data file ./calc.save/
  @ DRIVER MODE: Message from server: EXIT
  @ DRIVE MODE: Exiting

     General routines

     Parallel routines

   This run was terminated on:  18:25:58  22Sep2021

   JOB DONE.