     Program PWSCF v.6.7GPU starts on 24Sep2021 at  9:13:19

     R & G space division:  proc/nbgrp/npool/nimage =       8
     Reading input from /storage/home/hcoda1/3/ntian30/research/carbon/CxH_vib/H2O_calc/ads_slab/CH2NNHHHO_a/out_0051/pw.inp
Warning: card &CELL ignored
Warning: card   CELL_DYNAMICS='IPI', ignored
Warning: card / ignored

     Current dimensions of program PWSCF are:
     Max number of different atomic species (ntypx) = 10
     Max number of k-points (npk) =  40000
     Max angular momentum in pseudopotentials (lmaxx) =  3
     Presently no symmetry can be used with electric field

     Message from routine cell_base_init:
     DEPRECATED: use true lattice parameter, not A to a.u. conversion factor

     IMPORTANT: XC functional enforced from input :
     Exchange-correlation= BEEF-VDW
                           (   1   4  43  14   2   0   0)
     Any further DFT definition will be discarded
     Please, verify this is what you really want

  @ DRIVER MODE: Connecting to
 qe_1139763_2947314.sched-torque.pace.gatech.eduoacd1my1_scratch
  using UNIX socket
  @ DRIVER MODE: Message from server: STATUS
  @ DRIVER MODE: Message from server: INIT
  @ DRIVER MODE: Receiving replica           0          -1
  @ DRIVER MODE: Receiving encoded integer          25
  @ DRIVER MODE:  SCF:  T  FORCE:  T  STRESS:  F  VC:  F  ENSEMBLE:  F
  @ DRIVER MODE:  SCF:  T  FORCE:  T  STRESS:  F  VC:  F  ENSEMBLE:  F

     Using Slab Decomposition

     bravais-lattice index     =            0
     lattice parameter (alat)  =       1.8897  a.u.
     unit-cell volume          =    6658.9804 (a.u.)^3
     number of atoms/cell      =           56
     number of atomic types    =            5
     number of electrons       =       403.00
     number of Kohn-Sham states=          211
     kinetic-energy cutoff     =      29.3995  Ry
     charge density cutoff     =     293.9946  Ry
     scf convergence threshold =      7.3E-08
     mixing beta               =       0.0500
     number of iterations used =            8  plain     mixing
     Exchange-correlation= BEEF-VDW
                           (   1   4  43  14   2   0   0)

     celldm(1)=   1.889726  celldm(2)=   0.000000  celldm(3)=   0.000000
     celldm(4)=   0.000000  celldm(5)=   0.000000  celldm(6)=   0.000000

     crystal axes: (cart. coord. in units of alat)
               a(1) = (   6.579727   0.000000   0.000000 )
               a(2) = (  -0.000775   5.961596   0.000000 )
               a(3) = (   0.000000   0.000000  25.155947 )

     reciprocal axes: (cart. coord. in units 2 pi/alat)
               b(1) = (  0.151982  0.000020  0.000000 )
               b(2) = (  0.000000  0.167740  0.000000 )
               b(3) = (  0.000000  0.000000  0.039752 )

     PseudoPot. # 1 for Ti read from file:
     /storage/coda1/p-amedford6/0/shared/rich_project_chbe-medford/medford-share/data/pseudos_module/espresso/nninc/pbe/van/Ti.UPF
     MD5 check sum: 8e4df49b7f0d34bbd5052bf3f5ea0213
     Pseudo is Ultrasoft, Zval = 12.0
     Generated by new atomic code, or converted to UPF format
     Using radial grid of  851 points,  6 beta functions with:
                l(1) =   0
                l(2) =   0
                l(3) =   1
                l(4) =   1
                l(5) =   2
                l(6) =   2
     Q(r) pseudized with  8 coefficients,  rinner =    1.000   1.000   1.000
                                                       1.000   1.000

     PseudoPot. # 2 for O  read from file:
     /storage/coda1/p-amedford6/0/shared/rich_project_chbe-medford/medford-share/data/pseudos_module/espresso/nninc/pbe/van/O.UPF
     MD5 check sum: 78c19812648e8988a0fe644b0f25305e
     Pseudo is Ultrasoft, Zval =  6.0
     Generated by new atomic code, or converted to UPF format
     Using radial grid of  737 points,  4 beta functions with:
                l(1) =   0
                l(2) =   0
                l(3) =   1
                l(4) =   1
     Q(r) pseudized with  8 coefficients,  rinner =    0.800   0.800   0.800

     PseudoPot. # 3 for N  read from file:
     /storage/coda1/p-amedford6/0/shared/rich_project_chbe-medford/medford-share/data/pseudos_module/espresso/nninc/pbe/van/N.UPF
     MD5 check sum: 90d10febe142ad51ac9d5be1deb811c4
     Pseudo is Ultrasoft, Zval =  5.0
     Generated by new atomic code, or converted to UPF format
     Using radial grid of  729 points,  4 beta functions with:
                l(1) =   0
                l(2) =   0
                l(3) =   1
                l(4) =   1
     Q(r) pseudized with  8 coefficients,  rinner =    0.800   0.800   0.800

     PseudoPot. # 4 for C  read from file:
     /storage/coda1/p-amedford6/0/shared/rich_project_chbe-medford/medford-share/data/pseudos_module/espresso/nninc/pbe/van/C.UPF
     MD5 check sum: 1a69bf6b8db32088f5b2163dbdb77a27
     Pseudo is Ultrasoft, Zval =  4.0
     Generated by new atomic code, or converted to UPF format
     Using radial grid of  721 points,  4 beta functions with:
                l(1) =   0
                l(2) =   0
                l(3) =   1
                l(4) =   1
     Q(r) pseudized with  8 coefficients,  rinner =    0.800   0.800   0.800

     PseudoPot. # 5 for H  read from file:
     /storage/coda1/p-amedford6/0/shared/rich_project_chbe-medford/medford-share/data/pseudos_module/espresso/nninc/pbe/van/H.UPF
     MD5 check sum: b5ee9d7bfd3a09ee7748110bda690ff7
     Pseudo is Ultrasoft, Zval =  1.0
     Generated by new atomic code, or converted to UPF format
     Using radial grid of  615 points,  1 beta functions with:
                l(1) =   0
     Q(r) pseudized with  8 coefficients,  rinner =    0.800

     atomic species   valence    mass     pseudopotential
        Ti1           12.00    47.86700     Ti( 1.00)
        O1             6.00    15.99900     O ( 1.00)
        N1             5.00    14.00700     N ( 1.00)
        C1             4.00    12.01100     C ( 1.00)
        H1             1.00     1.00800     H ( 1.00)

     No symmetry found

   Cartesian axes

     site n.     atom                  positions (alat units)
         1           Ti1 tau(   1) = (   0.0004258   2.9801865   6.0000000  )
         2           Ti1 tau(   2) = (   3.2906075   1.4906267   6.0002472  )
         3           O1  tau(   3) = (   0.0006271   0.0005054   7.9858123  )
         4           O1  tau(   4) = (   3.2906025   0.0005020   7.3038282  )
         5           O1  tau(   5) = (   4.5942328   1.4918067   9.2879030  )
         6           O1  tau(   6) = (   1.9868534   1.4903216   9.2879459  )
         7           Ti1 tau(   7) = (   3.2907910   2.8959150   9.1758416  )
         8           Ti1 tau(   8) = (   0.0015273   1.4827037   9.2680791  )
         9           O1  tau(   9) = (   3.2834828   5.9254549  11.3560997  )
        10           O1  tau(  10) = (   0.0116148   5.9584955  10.6183126  )
        11           O1  tau(  11) = (   1.2632982   1.4794151  12.6467768  )
        12           O1  tau(  12) = (   5.2979234   1.4912170  12.6376735  )
        13           Ti1 tau(  13) = (   6.5593102   2.9584919  12.5255918  )
        14           Ti1 tau(  14) = (   3.2941082   1.2876829  12.7086691  )
        15           O1  tau(  15) = (   6.5459232   0.0848410  14.6672212  )
        16           O1  tau(  16) = (   3.2899079   0.0686032  13.9983899  )
        17           O1  tau(  17) = (   4.5347701   1.5447734  16.1667714  )
        18           O1  tau(  18) = (   1.9898569   1.5359154  16.1924900  )
        19           Ti1 tau(  19) = (   3.2532585   2.9792413  15.6887139  )
        20           Ti1 tau(  20) = (   6.5162390   1.4193964  16.0443711  )
        21           O1  tau(  21) = (   3.2904802   0.0005063   4.7018136  )
        22           O1  tau(  22) = (   6.5314393   5.8470953  17.1670503  )
        23           O1  tau(  23) = (   1.3043587   1.4918075   6.0039043  )
        24           O1  tau(  24) = (   5.2767064   1.4903225   6.0039473  )
        25           Ti1 tau(  25) = (   0.0000382   5.9609847   6.0000000  )
        26           Ti1 tau(  26) = (   3.2902200   4.4714249   6.0002472  )
        27           O1  tau(  27) = (   0.0002396   2.9813036   7.9858123  )
        28           O1  tau(  28) = (   3.2902150   2.9813002   7.3038282  )
        29           O1  tau(  29) = (   4.5938453   4.4726049   9.2879030  )
        30           O1  tau(  30) = (   1.9864658   4.4711199   9.2879459  )
        31           Ti1 tau(  31) = (   3.2891106   5.8743827   9.1763621  )
        32           Ti1 tau(  32) = (   0.0006254   4.4649316   9.2693709  )
        33           O1  tau(  33) = (   3.2801501   3.0037454  11.3162440  )
        34           O1  tau(  34) = (   0.0092240   2.9805883  10.6323155  )
        35           O1  tau(  35) = (   1.2628463   4.4620516  12.6871769  )
        36           O1  tau(  36) = (   5.2965349   4.4479299  12.6783795  )
        37           Ti1 tau(  37) = (   0.0245004   5.9521619  12.5031165  )
        38           Ti1 tau(  38) = (   3.2934334   4.3725749  12.4478892  )
        39           O1  tau(  39) = (   0.0012172   2.9324930  14.9038371  )
        40           O1  tau(  40) = (   3.2612729   2.9642313  13.9201381  )
        41           O1  tau(  41) = (   4.5459169   4.3864222  16.0774642  )
        42           O1  tau(  42) = (   2.0085495   4.4473877  16.1057765  )
        43           Ti1 tau(  43) = (   3.2275989   5.9528725  16.3079466  )
        44           Ti1 tau(  44) = (   6.5418721   4.6299905  15.7990834  )
        45           O1  tau(  45) = (   3.2900926   2.9813045   4.7018136  )
        46           O1  tau(  46) = (   1.3039711   4.4726057   6.0039043  )
        47           O1  tau(  47) = (   5.2763189   4.4711207   6.0039473  )
        48           N1  tau(  48) = (   6.5153795   2.7269917  18.1720481  )
        49           C1  tau(  49) = (   0.9714328   2.6352729  18.9176740  )
        50           H1  tau(  50) = (   0.9613011   2.9697384  19.9541300  )
        51           H1  tau(  51) = (   1.8619620   2.1844435  18.5121220  )
        52           N1  tau(  52) = (   5.3313596   3.1722530  18.7397816  )
        53           H1  tau(  53) = (   5.4931776   3.7097374  19.5894643  )
        54           H1  tau(  54) = (   4.8256156   3.7472006  18.0707398  )
        55           O1  tau(  55) = (   3.3867674   5.8992794  18.1610867  )
        56           H1  tau(  56) = (   4.0349165   0.5460778  18.5374839  )

     number of k points=    10  Fermi-Dirac smearing, width (Ry)=  0.0073
                       cart. coord. in units 2pi/alat
        k(    1) = (   0.0000000   0.0000000   0.0000000), wk =   0.1250000
        k(    2) = (   0.0000000   0.0419351   0.0000000), wk =   0.2500000
        k(    3) = (   0.0000000  -0.0838702   0.0000000), wk =   0.1250000
        k(    4) = (   0.0379955   0.0000049   0.0000000), wk =   0.2500000
        k(    5) = (   0.0379955   0.0419400   0.0000000), wk =   0.2500000
        k(    6) = (   0.0379955  -0.0838652   0.0000000), wk =   0.2500000
        k(    7) = (   0.0379955  -0.0419301   0.0000000), wk =   0.2500000
        k(    8) = (  -0.0759910  -0.0000099   0.0000000), wk =   0.1250000
        k(    9) = (  -0.0759910   0.0419252   0.0000000), wk =   0.2500000
        k(   10) = (  -0.0759910  -0.0838800   0.0000000), wk =   0.1250000

     Initial potential from superposition of free atoms

     starting charge  386.99914, renormalised to  403.00000

     negative rho (up, down):  1.546E-02 0.000E+00

     %%%%%%%%%%%%%%%%%%%%%%%%%%%%%%%%%%%%%%%%%%%%%%%%%%%%%%%%%%%%%%%%%%%%%%%%
     %                                                                      %
     % You are using vdW-DF, which was implemented by the Thonhauser group. %
     % Please cite the following two papers that made this development      %
     % possible and the two reviews that describe the various versions:     %
     %                                                                      %
     %   T. Thonhauser et al., PRL 115, 136402 (2015).                      %
     %   T. Thonhauser et al., PRB 76, 125112 (2007).                       %
     %   K. Berland et al., Rep. Prog. Phys. 78, 066501 (2015).             %
     %   D.C. Langreth et al., J. Phys.: Condens. Matter 21, 084203 (2009). %
     %                                                                      %
     %                                                                      %
     % If you are calculating the stress with vdW-DF, please also cite:     %
     %                                                                      %
     %   R. Sabatini et al., J. Phys.: Condens. Matter 24, 424209 (2012).   %
     %                                                                      %
     %%%%%%%%%%%%%%%%%%%%%%%%%%%%%%%%%%%%%%%%%%%%%%%%%%%%%%%%%%%%%%%%%%%%%%%%

     Adding external electric field

     Computed dipole along edir(3) :
        Dipole              -13.0228 Ry au,        -33.1008 Debye
        Dipole field         -0.0246 Ry au,

        Potential amp.        2.2781 Ry
        Total length         46.3494 bohr

     Starting wfcs are  305 atomic wfcs
  @ DRIVER MODE: Message from server: STATUS
  @ DRIVER MODE: Message from server: POSDATA
  @ DRIVER MODE: Reading and sharing cell
  @ DRIVER MODE: Reading and sharing positions
  @ DRIVER MODE: Received positions

     Self-consistent Calculation

     iteration #  1     ecut=    29.40 Ry     beta= 0.05
     Davidson diagonalization with overlap
     c_bands:  4 eigenvalues not converged
     c_bands:  5 eigenvalues not converged
     c_bands:  3 eigenvalues not converged
     c_bands:  1 eigenvalues not converged
     c_bands:  1 eigenvalues not converged
     c_bands:  5 eigenvalues not converged
     c_bands:  2 eigenvalues not converged
     c_bands:  3 eigenvalues not converged
     ethr =  1.00E-05,  avg # of iterations = 28.8

[...]

     total energy              =   -2311.61015778 Ry
     estimated scf accuracy    <    7503.87412602 Ry

     iteration #  2     ecut=    29.40 Ry     beta= 0.05
     Davidson diagonalization with overlap
     ethr =  1.00E-02,  avg # of iterations = 25.5

[...]

     iteration # 56     ecut=    29.40 Ry     beta= 0.05
     Davidson diagonalization with overlap
     c_bands:  1 eigenvalues not converged
     ethr =  1.53E-09,  avg # of iterations = 13.9

[...]

     total energy              =   -2974.00150096 Ry
     estimated scf accuracy    <       0.00000008 Ry

     iteration # 65     ecut=    29.40 Ry     beta= 0.05
     Davidson diagonalization with overlap
     ethr =  1.90E-11,  avg # of iterations =  6.5

     negative rho (up, down):  1.591E-02 0.000E+00

     Adding external electric field

     Computed dipole along edir(3) :
        Dipole                1.0881 Ry au,          2.7656 Debye
        Dipole field          0.0021 Ry au,

        Potential amp.       -0.1903 Ry
        Total length         46.3494 bohr

     End of self-consistent calculation

          k = 0.0000 0.0000 0.0000 ( 18029 PWs)   bands (ev):

   -55.5979 -55.5311 -55.4970 -55.3799 -55.3740 -55.3574 -55.3436 -55.3309
   -55.3236 -55.2957 -55.2481 -55.1479 -55.1327 -55.0559 -54.4993 -54.4653
   -32.0153 -31.9340 -31.8980 -31.8652 -31.8603 -31.8272 -31.8220 -31.8093
   -31.7805 -31.7768 -31.7576 -31.6836 -31.6569 -31.6490 -31.6373 -31.6336
   -31.6219 -31.6121 -31.5886 -31.5883 -31.5816 -31.5541 -31.5434 -31.5383
   -31.5207 -31.5161 -31.5115 -31.4975 -31.4879 -31.4850 -31.4769 -31.4680
   -31.4677 -31.4443 -31.4219 -31.4033 -31.3451 -31.3368 -31.3042 -31.2942
   -31.2745 -31.2622 -30.9050 -30.8194 -30.7969 -30.7226 -30.6362 -30.5244
   -18.3809 -16.4768 -16.1683 -16.0013 -15.7884 -15.7079 -15.6695 -15.4761
   -15.3838 -15.3223 -15.0932 -15.0702 -15.0652 -15.0398 -15.0295 -15.0140
   -14.9970 -14.9576 -14.9489 -14.9402 -14.9166 -14.9020 -14.8700 -14.8180
   -14.7752 -14.7591 -14.6644 -14.5958 -14.5492 -14.3147 -14.2162 -13.4987
   -12.9975 -12.8812  -8.5590  -6.2651  -5.8487  -4.0543  -3.8585  -3.5294
    -3.4341  -3.4126  -3.3521  -3.2887  -3.0473  -2.9766  -2.8855  -2.8358
    -2.7618  -2.6468  -2.5983  -2.5274  -2.4562  -2.4468  -2.3996  -2.3705
    -2.3090  -2.2956  -2.2597  -2.2530  -2.1824  -2.1626  -2.0619  -2.0496
    -2.0349  -1.9003  -1.8871  -1.8445  -1.8367  -1.8363  -1.7977  -1.7790
    -1.7633  -1.7468  -1.6418  -1.6030  -1.5824  -1.5106  -1.4781  -1.1626
    -1.1300  -1.0858  -1.0676  -1.0164  -0.9644  -0.9413  -0.9189  -0.8546
    -0.8164  -0.7660  -0.7339  -0.7007  -0.6193  -0.5833  -0.5414  -0.4587
    -0.3839  -0.3098  -0.3040  -0.2593  -0.2315  -0.2056  -0.1068  -0.0816
    -0.0682   0.0308   0.0507   0.1266   0.1670   0.2097   0.2491   0.2968
     0.3615   0.3789   0.4045   0.4404   0.4479   0.5035   0.5237   0.5823
     0.6353   0.6503   0.7484   0.8063   0.8209   0.8398   0.9495   1.0250
     1.1451   1.1531   1.2537   1.4795   1.5275   1.5716   1.7208   2.0938
     2.1389   3.5556   3.7045   3.7211   3.7646   3.8123   3.8965   4.0425
     4.1047   4.2451   4.2475

[...]

          k = 0.0380-0.0419 0.0000 ( 17876 PWs)   bands (ev):

[...]

          k =-0.0760-0.0000 0.0000 ( 17886 PWs)   bands (ev):

[...]

          k =-0.0760-0.0839 0.0000 ( 17948 PWs)   bands (ev):

   -55.5971 -55.5142 -55.5137 -55.3727 -55.3665 -55.3567 -55.3406 -55.3401
   -55.3315 -55.2887 -55.2551 -55.1448 -55.1339 -55.0589 -54.4826 -54.4819
   -31.8798 -31.8308 -31.8305 -31.8287 -31.8183 -31.8077 -31.8073 -31.8018
   -31.7328 -31.6856 -31.6767 -31.6663 -31.6614 -31.6341 -31.6340 -31.6322
   -31.6298 -31.6156 -31.6131 -31.5982 -31.5861 -31.5766 -31.5669 -31.5563
   -31.5475 -31.5436 -31.5345 -31.5341 -31.5184 -31.5131 -31.5105 -31.5068
   -31.5064 -31.4782 -31.4744 -31.4158 -31.3970 -31.3737 -31.3476 -31.3405
   -31.3107 -31.2662 -30.8099 -30.8094 -30.7185 -30.7173 -30.6797 -30.6791
   -18.3779 -16.4632 -15.7487 -15.6231 -15.4979 -15.4935 -15.3729 -15.2955
   -15.2779 -15.2491 -15.2373 -15.2031 -15.1856 -15.1498 -15.1180 -15.0873
   -15.0472 -15.0264 -15.0129 -14.9737 -14.9629 -14.9458 -14.9362 -14.9132
   -14.8718 -14.8365 -14.8256 -14.6818 -14.6271 -14.5803 -14.4413 -13.5076
   -12.9833 -12.9829  -8.5355  -6.2314  -5.8681  -4.0109  -3.9282  -2.9865
    -2.9201  -2.8180  -2.7141  -2.6189  -2.5650  -2.5295  -2.4920  -2.4475
    -2.4252  -2.3752  -2.3342  -2.3141  -2.3055  -2.2730  -2.2640  -2.2487
    -2.2289  -2.2139  -2.1989  -2.1886  -2.1605  -2.1432  -2.1423  -2.1085
    -2.0973  -2.0698  -2.0617  -2.0091  -1.9117  -1.8829  -1.7905  -1.6894
    -1.6816  -1.6687  -1.6447  -1.6071  -1.5959  -1.5704  -1.5337  -1.4733
    -1.4650  -1.3012  -1.2485  -1.2178  -1.1439  -1.0883  -1.0574  -1.0300
    -0.9868  -0.9619  -0.8885  -0.8594  -0.7624  -0.7084  -0.6820  -0.6224
    -0.5460  -0.4817  -0.4728  -0.4670  -0.4398  -0.4169  -0.3913  -0.3612
    -0.3364  -0.2656  -0.2283  -0.2095  -0.1997  -0.1451  -0.0978   0.0046
     0.1306   0.2394   0.2558   0.2857   0.3250   0.4752   0.5194   0.5814
     0.6286   0.6599   0.6905   0.7838   0.7951   0.8785   0.9041   0.9423
     0.9861   1.0108   1.0431   1.0727   1.0815   1.8910   1.8983   1.9592
     1.9595   3.7742   4.0518   4.0769   4.0849   4.1029   4.1229   4.1381
     4.1578   4.2280   4.2332

     the Fermi energy is     3.5912 ev

!    total energy              =   -2974.00153571 Ry
     estimated scf accuracy    <       0.00000005 Ry
     smearing contrib. (-TS)   =      -0.01962555 Ry
     internal energy E=F+TS    =   -2973.98191016 Ry

     The total energy is F=E-TS. E is the sum of the following terms:
     one-electron contribution =  -23472.07612096 Ry
     hartree contribution      =   11831.45115705 Ry
     xc contribution           =    -494.07073312 Ry
     ewald contribution        =    9160.71155271 Ry
     electric field correction =       0.00223416 Ry

     convergence has been achieved in  65 iterations

     Forces acting on atoms (cartesian axes, Ry/au):

     atom    1 type  1   force =     0.00012602   -0.00018405    0.09459060
     atom    2 type  1   force =    -0.00003209    0.00034917   -0.17510406
     atom    3 type  2   force =    -0.00002497   -0.00002846   -0.02136218
     atom    4 type  2   force =     0.00001517   -0.00189567    0.05324739
     atom    5 type  2   force =    -0.00694920   -0.00239626    0.00356666
     atom    6 type  2   force =     0.00805914   -0.00193234    0.00204583
     atom    7 type  1   force =    -0.00070154   -0.00277270    0.01004529
     atom    8 type  1   force =     0.00060834    0.00276533    0.00502042
     atom    9 type  2   force =     0.00003280   -0.00045887    0.00024775
     atom   10 type  2   force =    -0.00253866   -0.00140706   -0.01078362
     atom   11 type  2   force =     0.00128443   -0.00017931    0.00054559
     atom   12 type  2   force =    -0.00081595   -0.00022765    0.00065250
     atom   13 type  1   force =    -0.00095183   -0.00096125    0.00045255
     atom   14 type  1   force =     0.00031755    0.00035609    0.00006894
     atom   15 type  2   force =     0.00011791    0.00026455   -0.00039681
     atom   16 type  2   force =    -0.00045529    0.00019098    0.00014686
     atom   17 type  2   force =    -0.00019733    0.00019019    0.00015615
     atom   18 type  2   force =     0.00098923   -0.00025463   -0.00033979
     atom   19 type  1   force =     0.00117421    0.00061644    0.00012600
     atom   20 type  1   force =    -0.00075433    0.00008128    0.00001433
     atom   21 type  2   force =     0.00006320    0.00009716    0.10308529
     atom   22 type  2   force =     0.00055928    0.00071854    0.00053751
     atom   23 type  2   force =    -0.07215333   -0.00013781   -0.02734850
     atom   24 type  2   force =     0.07203860    0.00029426   -0.02735026
     atom   25 type  1   force =     0.00002470   -0.00014218    0.09408183
     atom   26 type  1   force =    -0.00015819   -0.00109448   -0.17520168
     atom   27 type  2   force =     0.00012229   -0.00024538   -0.02014999
     atom   28 type  2   force =    -0.00000304   -0.00026927    0.04931953
     atom   29 type  2   force =    -0.00564167    0.00192582    0.00158457
     atom   30 type  2   force =     0.00666865    0.00249704   -0.00001307
     atom   31 type  1   force =    -0.00072238    0.00677983   -0.00108069
     atom   32 type  1   force =     0.00050367   -0.00385077    0.00433021
     atom   33 type  2   force =     0.00016275   -0.00010794   -0.00080375
     atom   34 type  2   force =    -0.00187372    0.00170131   -0.01047000
     atom   35 type  2   force =     0.00116576    0.00029282   -0.00017971
     atom   36 type  2   force =    -0.00055740    0.00043103   -0.00026693
     atom   37 type  1   force =    -0.00064549    0.00045143   -0.00027350
     atom   38 type  1   force =     0.00055617    0.00012548    0.00012430
     atom   39 type  2   force =     0.00032720   -0.00039900    0.00040643
     atom   40 type  2   force =     0.00020654    0.00013262   -0.00037798
     atom   41 type  2   force =     0.00004606   -0.00005183   -0.00106179
     atom   42 type  2   force =     0.00034539   -0.00031366    0.00033210
     atom   43 type  1   force =     0.00006411   -0.00071208    0.00040643
     atom   44 type  1   force =    -0.00045068   -0.00015389    0.00013363
     atom   45 type  2   force =     0.00007548   -0.00006733    0.10287142
     atom   46 type  2   force =    -0.07219463   -0.00002706   -0.02734754
     atom   47 type  2   force =     0.07211335    0.00040994   -0.02738411
     atom   48 type  3   force =     0.00036220    0.00001890   -0.00019192
     atom   49 type  4   force =     0.00027555   -0.00042167   -0.00017136
     atom   50 type  5   force =    -0.00011463   -0.00035679   -0.00012266
     atom   51 type  5   force =    -0.00024677    0.00012292    0.00006708
     atom   52 type  3   force =    -0.00044697   -0.00035011    0.00017126
     atom   53 type  5   force =     0.00008319   -0.00010036    0.00020896
     atom   54 type  5   force =    -0.00009711    0.00020031   -0.00059303
     atom   55 type  2   force =    -0.00837053   -0.00692800   -0.00485648
     atom   56 type  5   force =     0.00860876    0.00741446    0.00464400

     Total force =     0.362363     Total SCF correction =     0.000596
  @ DRIVER MODE: Message from server: STATUS
  @ DRIVER MODE: Message from server: GETFORCE
  @ DRIVER MODE: Returning v,forces,stress,ensemble

     Writing output data file ./calc.save/
  @ DRIVER MODE: Message from server: EXIT
  @ DRIVE MODE: Exiting

     General routines

     Parallel routines

   This run was terminated on:   9:37:29  24Sep2021

   JOB DONE.