     Program PWSCF v.6.7GPU starts on 22Sep2021 at 17:37: 2

     R & G space division:  proc/nbgrp/npool/nimage =      10
     Reading input from /storage/home/hcoda1/3/ntian30/research/carbon/CxH_vib/H2O_calc/ads_slab/CH2NHNHO_a/out_0004/pw.inp
Warning: card &CELL ignored
Warning: card   CELL_DYNAMICS='IPI', ignored
Warning: card / ignored

     Current dimensions of program PWSCF are:
     Max number of different atomic species (ntypx) = 10
     Max number of k-points (npk) =  40000
     Max angular momentum in pseudopotentials (lmaxx) =  3
     Presently no symmetry can be used with electric field

     Message from routine cell_base_init:
     DEPRECATED: use true lattice parameter, not A to a.u. conversion factor

     IMPORTANT: XC functional enforced from input :
     Exchange-correlation= BEEF-VDW
                           (   1   4  43  14   2   0   0)
     Any further DFT definition will be discarded
     Please, verify this is what you really want

  @ DRIVER MODE: Connecting to
 qe_1139763_2937322.sched-torque.pace.gatech.edue4_pr1dy_scratch
  using UNIX socket
  @ DRIVER MODE: Message from server: STATUS
  @ DRIVER MODE: Message from server: INIT
  @ DRIVER MODE: Receiving replica           0          -1
  @ DRIVER MODE: Receiving encoded integer          25
  @ DRIVER MODE:  SCF:  T  FORCE:  T  STRESS:  F  VC:  F  ENSEMBLE:  F
  @ DRIVER MODE:  SCF:  T  FORCE:  T  STRESS:  F  VC:  F  ENSEMBLE:  F

     Using Slab Decomposition

     bravais-lattice index     =            0
     lattice parameter (alat)  =       1.8897  a.u.
     unit-cell volume          =    6658.9804 (a.u.)^3
     number of atoms/cell      =           55
     number of atomic types    =            5
     number of electrons       =       402.00
     number of Kohn-Sham states=          211
     kinetic-energy cutoff     =      29.3995  Ry
     charge density cutoff     =     293.9946  Ry
     scf convergence threshold =      7.3E-08
     mixing beta               =       0.0500
     number of iterations used =            8  plain     mixing
     Exchange-correlation= BEEF-VDW
                           (   1   4  43  14   2   0   0)

     celldm(1)=   1.889726  celldm(2)=   0.000000  celldm(3)=   0.000000
     celldm(4)=   0.000000  celldm(5)=   0.000000  celldm(6)=   0.000000

     crystal axes: (cart. coord. in units of alat)
               a(1) = (   6.579727   0.000000   0.000000 )
               a(2) = (  -0.000775   5.961596   0.000000 )
               a(3) = (   0.000000   0.000000  25.155947 )

     reciprocal axes: (cart. coord. in units 2 pi/alat)
               b(1) = (  0.151982  0.000020  0.000000 )
               b(2) = (  0.000000  0.167740  0.000000 )
               b(3) = (  0.000000  0.000000  0.039752 )

     PseudoPot. # 1 for Ti read from file:
     /storage/coda1/p-amedford6/0/shared/rich_project_chbe-medford/medford-share/data/pseudos_module/espresso/nninc/pbe/van/Ti.UPF
     MD5 check sum: 8e4df49b7f0d34bbd5052bf3f5ea0213
     Pseudo is Ultrasoft, Zval = 12.0
     Generated by new atomic code, or converted to UPF format
     Using radial grid of  851 points,  6 beta functions with:
                l(1) =   0
                l(2) =   0
                l(3) =   1
                l(4) =   1
                l(5) =   2
                l(6) =   2
     Q(r) pseudized with  8 coefficients,  rinner =    1.000   1.000   1.000
                                                       1.000   1.000

     PseudoPot. # 2 for O  read from file:
     /storage/coda1/p-amedford6/0/shared/rich_project_chbe-medford/medford-share/data/pseudos_module/espresso/nninc/pbe/van/O.UPF
     MD5 check sum: 78c19812648e8988a0fe644b0f25305e
     Pseudo is Ultrasoft, Zval =  6.0
     Generated by new atomic code, or converted to UPF format
     Using radial grid of  737 points,  4 beta functions with:
                l(1) =   0
                l(2) =   0
                l(3) =   1
                l(4) =   1
     Q(r) pseudized with  8 coefficients,  rinner =    0.800   0.800   0.800

     PseudoPot. # 3 for N  read from file:
     /storage/coda1/p-amedford6/0/shared/rich_project_chbe-medford/medford-share/data/pseudos_module/espresso/nninc/pbe/van/N.UPF
     MD5 check sum: 90d10febe142ad51ac9d5be1deb811c4
     Pseudo is Ultrasoft, Zval =  5.0
     Generated by new atomic code, or converted to UPF format
     Using radial grid of  729 points,  4 beta functions with:
                l(1) =   0
                l(2) =   0
                l(3) =   1
                l(4) =   1
     Q(r) pseudized with  8 coefficients,  rinner =    0.800   0.800   0.800

     PseudoPot. # 4 for C  read from file:
     /storage/coda1/p-amedford6/0/shared/rich_project_chbe-medford/medford-share/data/pseudos_module/espresso/nninc/pbe/van/C.UPF
     MD5 check sum: 1a69bf6b8db32088f5b2163dbdb77a27
     Pseudo is Ultrasoft, Zval =  4.0
     Generated by new atomic code, or converted to UPF format
     Using radial grid of  721 points,  4 beta functions with:
                l(1) =   0
                l(2) =   0
                l(3) =   1
                l(4) =   1
     Q(r) pseudized with  8 coefficients,  rinner =    0.800   0.800   0.800

     PseudoPot. # 5 for H  read from file:
     /storage/coda1/p-amedford6/0/shared/rich_project_chbe-medford/medford-share/data/pseudos_module/espresso/nninc/pbe/van/H.UPF
     MD5 check sum: b5ee9d7bfd3a09ee7748110bda690ff7
     Pseudo is Ultrasoft, Zval =  1.0
     Generated by new atomic code, or converted to UPF format
     Using radial grid of  615 points,  1 beta functions with:
                l(1) =   0
     Q(r) pseudized with  8 coefficients,  rinner =    0.800

     atomic species   valence    mass     pseudopotential
        Ti1           12.00    47.86700     Ti( 1.00)
        O1             6.00    15.99900     O ( 1.00)
        N1             5.00    14.00700     N ( 1.00)
        C1             4.00    12.01100     C ( 1.00)
        H1             1.00     1.00800     H ( 1.00)

     No symmetry found

   Cartesian axes

     site n.     atom                  positions (alat units)
         1           Ti1 tau(   1) = (   0.0004258   2.9801865   6.0000000  )
         2           Ti1 tau(   2) = (   3.2906075   1.4906267   6.0002472  )
         3           O1  tau(   3) = (   0.0006271   0.0005054   7.9858123  )
         4           O1  tau(   4) = (   3.2906025   0.0005020   7.3038282  )
         5           O1  tau(   5) = (   4.5942328   1.4918067   9.2879030  )
         6           O1  tau(   6) = (   1.9868534   1.4903216   9.2879459  )
         7           Ti1 tau(   7) = (   3.2907910   2.8959150   9.1758416  )
         8           Ti1 tau(   8) = (   0.0015273   1.4827037   9.2680791  )
         9           O1  tau(   9) = (   3.2865774   0.0244666  11.2672233  )
        10           O1  tau(  10) = (   0.0116148   5.9584955  10.6183126  )
        11           O1  tau(  11) = (   1.2851059   1.4881214  12.6284388  )
        12           O1  tau(  12) = (   5.2821296   1.4859116  12.6239949  )
        13           Ti1 tau(  13) = (   6.5757640   3.1226837  12.6583379  )
        14           Ti1 tau(  14) = (   3.2808560   1.5553189  12.4169499  )
        15           O1  tau(  15) = (   6.5631415   0.0020138  14.6662933  )
        16           O1  tau(  16) = (   3.2768600   5.9282172  13.8639556  )
        17           O1  tau(  17) = (   4.5247100   1.5609280  15.9911388  )
        18           O1  tau(  18) = (   2.0319249   1.5505618  16.0334288  )
        19           Ti1 tau(  19) = (   3.2655126   3.0139642  15.6417618  )
        20           Ti1 tau(  20) = (   6.4701730   1.5779936  15.7979382  )
        21           O1  tau(  21) = (   3.2904802   0.0005063   4.7018136  )
        22           O1  tau(  22) = (   6.5470303   0.0764028  17.2486596  )
        23           O1  tau(  23) = (   1.3043587   1.4918075   6.0039043  )
        24           O1  tau(  24) = (   5.2767064   1.4903225   6.0039473  )
        25           Ti1 tau(  25) = (   0.0000382   5.9609847   6.0000000  )
        26           Ti1 tau(  26) = (   3.2902200   4.4714249   6.0002472  )
        27           O1  tau(  27) = (   0.0002396   2.9813036   7.9858123  )
        28           O1  tau(  28) = (   3.2902150   2.9813002   7.3038282  )
        29           O1  tau(  29) = (   4.5938453   4.4726049   9.2879030  )
        30           O1  tau(  30) = (   1.9864658   4.4711199   9.2879459  )
        31           Ti1 tau(  31) = (   3.2891106   5.8743827   9.1763621  )
        32           Ti1 tau(  32) = (   0.0006254   4.4649316   9.2693709  )
        33           O1  tau(  33) = (   3.2856154   2.9374191  11.2445503  )
        34           O1  tau(  34) = (   0.0092240   2.9805883  10.6323155  )
        35           O1  tau(  35) = (   1.2776263   4.4762221  12.6158080  )
        36           O1  tau(  36) = (   5.2889682   4.4773653  12.6103441  )
        37           Ti1 tau(  37) = (   6.5721904   0.1276321  12.6579576  )
        38           Ti1 tau(  38) = (   3.2825792   4.6513186  12.6446142  )
        39           O1  tau(  39) = (   6.5601178   2.9984380  14.6401328  )
        40           O1  tau(  40) = (   3.2784952   3.0022753  13.8540846  )
        41           O1  tau(  41) = (   4.5130724   4.4679886  16.1105769  )
        42           O1  tau(  42) = (   2.0068779   4.4712703  16.0772645  )
        43           Ti1 tau(  43) = (   3.1879138   0.0422448  16.2953621  )
        44           Ti1 tau(  44) = (   6.5239028   4.6756254  16.1574449  )
        45           O1  tau(  45) = (   3.2900926   2.9813045   4.7018136  )
        46           O1  tau(  46) = (   1.3039711   4.4726057   6.0039043  )
        47           O1  tau(  47) = (   5.2763189   4.4711207   6.0039473  )
        48           N1  tau(  48) = (   0.1470516   2.5979757  18.5611170  )
        49           N1  tau(  49) = (   6.5778558   2.9357776  17.3215245  )
        50           C1  tau(  50) = (   0.2601206   3.3452726  19.6311682  )
        51           H1  tau(  51) = (   0.3627438   2.8498571  20.5812141  )
        52           H1  tau(  52) = (   0.2464683   4.4174571  19.5160682  )
        53           H1  tau(  53) = (   0.1772712   1.5612145  18.6921905  )
        54           O1  tau(  54) = (   3.2326362   0.0923429  18.1472848  )
        55           H1  tau(  55) = (   3.6209404   5.2806276  18.5811828  )

     number of k points=    10  Fermi-Dirac smearing, width (Ry)=  0.0073
                       cart. coord. in units 2pi/alat
        k(    1) = (   0.0000000   0.0000000   0.0000000), wk =   0.1250000
        k(    2) = (   0.0000000   0.0419351   0.0000000), wk =   0.2500000
        k(    3) = (   0.0000000  -0.0838702   0.0000000), wk =   0.1250000
        k(    4) = (   0.0379955   0.0000049   0.0000000), wk =   0.2500000
        k(    5) = (   0.0379955   0.0419400   0.0000000), wk =   0.2500000
        k(    6) = (   0.0379955  -0.0838652   0.0000000), wk =   0.2500000
        k(    7) = (   0.0379955  -0.0419301   0.0000000), wk =   0.2500000
        k(    8) = (  -0.0759910  -0.0000099   0.0000000), wk =   0.1250000
        k(    9) = (  -0.0759910   0.0419252   0.0000000), wk =   0.2500000
        k(   10) = (  -0.0759910  -0.0838800   0.0000000), wk =   0.1250000

     Initial potential from superposition of free atoms

     starting charge  385.99915, renormalised to  402.00000

     negative rho (up, down):  1.462E-02 0.000E+00

     %%%%%%%%%%%%%%%%%%%%%%%%%%%%%%%%%%%%%%%%%%%%%%%%%%%%%%%%%%%%%%%%%%%%%%%%
     %                                                                      %
     % You are using vdW-DF, which was implemented by the Thonhauser group. %
     % Please cite the following two papers that made this development      %
     % possible and the two reviews that describe the various versions:     %
     %                                                                      %
     %   T. Thonhauser et al., PRL 115, 136402 (2015).                      %
     %   T. Thonhauser et al., PRB 76, 125112 (2007).                       %
     %   K. Berland et al., Rep. Prog. Phys. 78, 066501 (2015).             %
     %   D.C. Langreth et al., J. Phys.: Condens. Matter 21, 084203 (2009). %
     %                                                                      %
     %                                                                      %
     % If you are calculating the stress with vdW-DF, please also cite:     %
     %                                                                      %
     %   R. Sabatini et al., J. Phys.: Condens. Matter 24, 424209 (2012).   %
     %                                                                      %
     %%%%%%%%%%%%%%%%%%%%%%%%%%%%%%%%%%%%%%%%%%%%%%%%%%%%%%%%%%%%%%%%%%%%%%%%

     Adding external electric field

     Computed dipole along edir(3) :
        Dipole              -11.6290 Ry au,        -29.5581 Debye
        Dipole field         -0.0219 Ry au,

        Potential amp.        2.0343 Ry
        Total length         46.3494 bohr

     Starting wfcs are  304 atomic wfcs
  @ DRIVER MODE: Message from server: STATUS
  @ DRIVER MODE: Message from server: POSDATA
  @ DRIVER MODE: Reading and sharing cell
  @ DRIVER MODE: Reading and sharing positions
  @ DRIVER MODE: Received positions

     Self-consistent Calculation

     iteration #  1     ecut=    29.40 Ry     beta= 0.05
     Davidson diagonalization with overlap
     c_bands:  3 eigenvalues not converged
     c_bands:  2 eigenvalues not converged
     c_bands:  3 eigenvalues not converged
     c_bands:  4 eigenvalues not converged
     c_bands:  1 eigenvalues not converged
     c_bands:  4 eigenvalues not converged
     c_bands:  5 eigenvalues not converged
     c_bands:  5 eigenvalues not converged
     c_bands:  5 eigenvalues not converged
     ethr =  1.00E-05,  avg # of iterations = 23.9

[...]

     total energy              =   -2412.15724747 Ry
     estimated scf accuracy    <    6293.17642850 Ry

     iteration #  2     ecut=    29.40 Ry     beta= 0.05
     Davidson diagonalization with overlap
     ethr =  1.00E-02,  avg # of iterations = 22.7

[...]

     iteration # 52     ecut=    29.40 Ry     beta= 0.05
     Davidson diagonalization with overlap
     c_bands:  1 eigenvalues not converged
     ethr =  3.73E-07,  avg # of iterations =  6.1

[...]

     total energy              =   -2972.74088002 Ry
     estimated scf accuracy    <       0.00000022 Ry

     iteration # 88     ecut=    29.40 Ry     beta= 0.05
     Davidson diagonalization with overlap
     ethr =  5.54E-11,  avg # of iterations =  6.0

     negative rho (up, down):  1.522E-02 0.000E+00

     Adding external electric field

     Computed dipole along edir(3) :
        Dipole                0.6647 Ry au,          1.6895 Debye
        Dipole field          0.0013 Ry au,

        Potential amp.       -0.1163 Ry
        Total length         46.3494 bohr

     End of self-consistent calculation

          k = 0.0000 0.0000 0.0000 ( 18029 PWs)   bands (ev):

   -56.5023 -56.4688 -55.7016 -55.6675 -55.4425 -55.3861 -55.1376 -55.1075
   -55.0902 -55.0563 -55.0341 -54.9831 -54.9783 -54.7866 -54.7545 -54.6386
   -32.9260 -32.7800 -32.7519 -32.6762 -32.5856 -32.5525 -32.1849 -31.9236
   -31.9228 -31.8929 -31.8416 -31.8371 -31.8174 -31.6717 -31.6636 -31.6165
   -31.5918 -31.5887 -31.5468 -31.5120 -31.4763 -31.4610 -31.4351 -31.4107
   -31.3729 -31.3702 -31.3666 -31.3561 -31.3054 -31.2969 -31.2719 -31.2495
   -31.2310 -31.2152 -31.2149 -31.2022 -31.1822 -31.1722 -31.1558 -31.1035
   -31.0466 -31.0261 -30.9969 -30.9855 -30.9694 -30.9168 -30.8540 -30.8298
   -18.6741 -16.6367 -16.1294 -16.0769 -15.8393 -15.7760 -15.7207 -15.7170
   -15.6699 -15.4305 -15.3920 -15.3570 -15.3151 -15.2172 -15.0880 -14.9912
   -14.7984 -14.7445 -14.7425 -14.7135 -14.6878 -14.6558 -14.6287 -14.5985
   -14.5934 -14.5606 -14.5060 -14.3340 -14.2674 -14.0586 -14.0439 -13.5878
   -13.4798 -12.4613  -8.4874  -6.0128  -4.5905  -4.2029  -3.6403  -3.6087
    -3.4312  -3.3646  -3.2509  -3.1673  -3.0542  -3.0435  -2.9622  -2.9238
    -2.9073  -2.8335  -2.8189  -2.6569  -2.6297  -2.6111  -2.5219  -2.4935
    -2.3314  -2.3063  -2.2246  -2.1515  -2.1313  -2.0745  -2.0620  -2.0015
    -1.9490  -1.9319  -1.8660  -1.8604  -1.8442  -1.7312  -1.7186  -1.6806
    -1.6320  -1.5731  -1.5604  -1.5076  -1.4232  -1.4093  -1.2752  -1.1936
    -1.1489  -1.1433  -1.1085  -1.0654  -1.0160  -0.8844  -0.8741  -0.7640
    -0.7438  -0.7419  -0.6739  -0.5774  -0.5559  -0.5235  -0.4465  -0.4117
    -0.3695  -0.3154  -0.2638  -0.1419  -0.1336  -0.1170  -0.0732  -0.0309
    -0.0162   0.0600   0.1505   0.1711   0.2724   0.2891   0.3370   0.4303
     0.5106   0.5222   0.5412   0.6024   0.6452   0.6791   0.7536   0.7722
     0.8123   0.8254   0.8748   0.9316   0.9610   1.0615   1.1075   1.1275
     1.1614   1.2080   1.2880   1.3719   1.4664   1.5081   1.5465   1.8113
     2.3240   2.7807   2.9435   3.2210   3.3331   3.6441   3.7678   3.7690
     3.7794   3.9839   4.1328

[...]

          k = 0.0380-0.0419 0.0000 ( 17876 PWs)   bands (ev):

[...]

          k =-0.0760-0.0000 0.0000 ( 17886 PWs)   bands (ev):

[...]

          k =-0.0760-0.0839 0.0000 ( 17948 PWs)   bands (ev):

   -56.4857 -56.4852 -55.6875 -55.6814 -55.4368 -55.3917 -55.1364 -55.1032
   -55.0733 -55.0730 -55.0383 -54.9819 -54.9791 -54.7879 -54.7523 -54.6407
   -32.7659 -32.7654 -32.7433 -32.7428 -32.6297 -32.6291 -32.0074 -32.0026
   -31.8823 -31.8768 -31.8718 -31.8619 -31.7440 -31.7092 -31.6651 -31.6582
   -31.6181 -31.6142 -31.4431 -31.4354 -31.4239 -31.4237 -31.3812 -31.3774
   -31.3612 -31.3530 -31.3399 -31.3218 -31.3003 -31.2949 -31.2942 -31.2746
   -31.2565 -31.2561 -31.2531 -31.2396 -31.2214 -31.1859 -31.1790 -31.1484
   -31.1341 -31.0504 -31.0045 -31.0010 -30.9867 -30.9480 -30.8683 -30.8561
   -18.6705 -16.0674 -16.0056 -16.0029 -15.9428 -15.9410 -15.7081 -15.7042
   -15.4679 -15.4396 -15.2800 -15.1880 -15.1701 -15.1083 -15.0703 -15.0172
   -14.9628 -14.9339 -14.8221 -14.7848 -14.7537 -14.7162 -14.6892 -14.6695
   -14.6099 -14.5735 -14.5483 -14.4494 -14.4266 -14.1912 -14.1820 -13.5841
   -13.5837 -12.4662  -8.4902  -6.0077  -4.5470  -3.6638  -3.3549  -3.0727
    -3.0682  -3.0633  -3.0584  -2.9930  -2.8189  -2.8153  -2.6612  -2.6281
    -2.6162  -2.5909  -2.5599  -2.4562  -2.3796  -2.3634  -2.3615  -2.3577
    -2.3088  -2.3006  -2.2485  -2.1685  -2.1066  -2.0978  -2.0640  -2.0025
    -1.9432  -1.8950  -1.8908  -1.8532  -1.8302  -1.7986  -1.7797  -1.7568
    -1.7119  -1.6284  -1.5050  -1.4296  -1.3981  -1.3816  -1.3432  -1.2956
    -1.2840  -1.2710  -1.2197  -1.2048  -1.1410  -1.1114  -1.0701  -0.9728
    -0.9130  -0.8823  -0.8582  -0.7529  -0.7138  -0.6397  -0.5952  -0.5603
    -0.5218  -0.5012  -0.4397  -0.4277  -0.3462  -0.2777  -0.2506  -0.1954
    -0.1816  -0.1696  -0.1519  -0.1065   0.0003   0.0142   0.0467   0.1454
     0.2100   0.2820   0.3014   0.3927   0.4199   0.4913   0.6063   0.6454
     0.7151   0.7796   0.8526   0.9378   0.9854   1.0308   1.1368   1.2207
     1.2377   1.2833   1.3100   1.3142   1.3155   1.3688   1.3892   1.5211
     2.1599   3.3643   3.3660   3.4228   3.4275   3.7274   3.7326   3.8386
     3.8421   4.0930   4.1142

     the Fermi energy is     2.5911 ev

!    total energy              =   -2972.74088279 Ry
     estimated scf accuracy    <       0.00000004 Ry
     smearing contrib. (-TS)   =      -0.00416855 Ry
     internal energy E=F+TS    =   -2972.73671423 Ry

     The total energy is F=E-TS. E is the sum of the following terms:
     one-electron contribution =  -23700.10407674 Ry
     hartree contribution      =   11945.35003014 Ry
     xc contribution           =    -493.12478199 Ry
     ewald contribution        =    9275.14128056 Ry
     electric field correction =       0.00083379 Ry

     convergence has been achieved in  88 iterations

     Forces acting on atoms (cartesian axes, Ry/au):

     atom    1 type  1   force =     0.00016248   -0.00043320    0.12202281
     atom    2 type  1   force =    -0.00004600    0.00028383   -0.15637310
     atom    3 type  2   force =     0.00004688   -0.00048260   -0.06059870
     atom    4 type  2   force =     0.00005349    0.00071492    0.01969737
     atom    5 type  2   force =    -0.00084501   -0.00259832   -0.01521262
     atom    6 type  2   force =     0.00220053   -0.00198277   -0.01657032
     atom    7 type  1   force =    -0.00030172   -0.00091451    0.05422994
     atom    8 type  1   force =     0.00081730    0.00107452    0.09016435
     atom    9 type  2   force =    -0.00035799   -0.00028183    0.00001548
     atom   10 type  2   force =    -0.00295970    0.00316261   -0.05937817
     atom   11 type  2   force =    -0.00025988    0.00018593    0.00002702
     atom   12 type  2   force =    -0.00022126    0.00013436   -0.00040421
     atom   13 type  1   force =    -0.00052332    0.00038880    0.00045589
     atom   14 type  1   force =     0.00007140    0.00141421   -0.00104842
     atom   15 type  2   force =    -0.00003719   -0.00041055   -0.00157933
     atom   16 type  2   force =     0.00011723    0.00068618    0.00045946
     atom   17 type  2   force =    -0.00079627   -0.00042302   -0.00013639
     atom   18 type  2   force =     0.00043008    0.00013189   -0.00033123
     atom   19 type  1   force =     0.00003780    0.00128624   -0.00003914
     atom   20 type  1   force =     0.00014315    0.00040593    0.00076343
     atom   21 type  2   force =     0.00009550   -0.00002405    0.09827661
     atom   22 type  2   force =     0.00039423   -0.00008930    0.00053073
     atom   23 type  2   force =    -0.08164092   -0.00005193   -0.03247586
     atom   24 type  2   force =     0.08162624    0.00036786   -0.03250559
     atom   25 type  1   force =     0.00003265   -0.00028606    0.12171255
     atom   26 type  1   force =     0.00003003   -0.00154262   -0.15641486
     atom   27 type  2   force =     0.00012914    0.00020941   -0.05955992
     atom   28 type  2   force =     0.00005633    0.00039115    0.01455897
     atom   29 type  2   force =    -0.00455880    0.00218173   -0.01164238
     atom   30 type  2   force =     0.00589255    0.00262874   -0.01295047
     atom   31 type  1   force =    -0.00044027   -0.00214806    0.04022330
     atom   32 type  1   force =     0.00079631   -0.00225169    0.09118302
     atom   33 type  2   force =    -0.00012418    0.00038201    0.00002892
     atom   34 type  2   force =    -0.00234815    0.00048853   -0.06888908
     atom   35 type  2   force =    -0.00023082    0.00006069    0.00024858
     atom   36 type  2   force =     0.00060715   -0.00026708    0.00000867
     atom   37 type  1   force =    -0.00003239    0.00021739   -0.00063901
     atom   38 type  1   force =     0.00013875    0.00105503   -0.00039155
     atom   39 type  2   force =    -0.00048480   -0.00116297    0.00027809
     atom   40 type  2   force =    -0.00001471    0.00045055   -0.00019820
     atom   41 type  2   force =     0.00071217   -0.00040609   -0.00003811
     atom   42 type  2   force =    -0.00053273   -0.00068811   -0.00073142
     atom   43 type  1   force =    -0.00019274   -0.00132826    0.00013263
     atom   44 type  1   force =    -0.00016626   -0.00072960    0.00048044
     atom   45 type  2   force =     0.00009535    0.00008106    0.09807748
     atom   46 type  2   force =    -0.08159476   -0.00003029   -0.03247435
     atom   47 type  2   force =     0.08158139    0.00041331   -0.03249183
     atom   48 type  3   force =     0.00026238   -0.02779576   -0.00205967
     atom   49 type  3   force =    -0.00069801    0.00351090   -0.00340269
     atom   50 type  4   force =     0.00093432    0.00987020    0.00584299
     atom   51 type  5   force =     0.00065893   -0.00006613   -0.00118099
     atom   52 type  5   force =     0.00067768   -0.00026113    0.00121880
     atom   53 type  5   force =    -0.00026534    0.01345765   -0.00087069
     atom   54 type  2   force =    -0.00051920    0.00104056   -0.00104075
     atom   55 type  5   force =     0.00139101   -0.00002029    0.00099152

     Total force =     0.409800     Total SCF correction =     0.000535
  @ DRIVER MODE: Message from server: STATUS
  @ DRIVER MODE: Message from server: GETFORCE
  @ DRIVER MODE: Returning v,forces,stress,ensemble

     Writing output data file ./calc.save/
  @ DRIVER MODE: Message from server: EXIT
  @ DRIVE MODE: Exiting

     General routines

     Parallel routines

   This run was terminated on:  18: 0:36  22Sep2021

   JOB DONE.