     Program PWSCF v.6.7GPU starts on 23Sep2021 at  2:20:15

     R & G space division:  proc/nbgrp/npool/nimage =      10
     Reading input from /storage/home/hcoda1/3/ntian30/research/carbon/CxH_vib/H2O_calc/ads_slab/CHNNHHHO_a/out_0030/pw.inp
Warning: card &CELL ignored
Warning: card   CELL_DYNAMICS='IPI', ignored
Warning: card / ignored

     Current dimensions of program PWSCF are:
     Max number of different atomic species (ntypx) = 10
     Max number of k-points (npk) =  40000
     Max angular momentum in pseudopotentials (lmaxx) =  3
     Presently no symmetry can be used with electric field

     Message from routine cell_base_init:
     DEPRECATED: use true lattice parameter, not A to a.u. conversion factor

     IMPORTANT: XC functional enforced from input :
     Exchange-correlation= BEEF-VDW
                           (   1   4  43  14   2   0   0)
     Any further DFT definition will be discarded
     Please, verify this is what you really want

  @ DRIVER MODE: Connecting to
 qe_1139763_2937315.sched-torque.pace.gatech.eduwdrar2gh_scratch
  using UNIX socket
  @ DRIVER MODE: Message from server: STATUS
  @ DRIVER MODE: Message from server: INIT
  @ DRIVER MODE: Receiving replica           0          -1
  @ DRIVER MODE: Receiving encoded integer          25
  @ DRIVER MODE:  SCF:  T  FORCE:  T  STRESS:  F  VC:  F  ENSEMBLE:  F
  @ DRIVER MODE:  SCF:  T  FORCE:  T  STRESS:  F  VC:  F  ENSEMBLE:  F

     Using Slab Decomposition

     bravais-lattice index     =            0
     lattice parameter (alat)  =       1.8897  a.u.
     unit-cell volume          =    6658.9804 (a.u.)^3
     number of atoms/cell      =           55
     number of atomic types    =            5
     number of electrons       =       402.00
     number of Kohn-Sham states=          211
     kinetic-energy cutoff     =      29.3995  Ry
     charge density cutoff     =     293.9946  Ry
     scf convergence threshold =      7.3E-08
     mixing beta               =       0.0500
     number of iterations used =            8  plain     mixing
     Exchange-correlation= BEEF-VDW
                           (   1   4  43  14   2   0   0)

     celldm(1)=   1.889726  celldm(2)=   0.000000  celldm(3)=   0.000000
     celldm(4)=   0.000000  celldm(5)=   0.000000  celldm(6)=   0.000000

     crystal axes: (cart. coord. in units of alat)
               a(1) = (   6.579727   0.000000   0.000000 )
               a(2) = (  -0.000775   5.961596   0.000000 )
               a(3) = (   0.000000   0.000000  25.155947 )

     reciprocal axes: (cart. coord. in units 2 pi/alat)
               b(1) = (  0.151982  0.000020  0.000000 )
               b(2) = (  0.000000  0.167740  0.000000 )
               b(3) = (  0.000000  0.000000  0.039752 )

     PseudoPot. # 1 for Ti read from file:
     /storage/coda1/p-amedford6/0/shared/rich_project_chbe-medford/medford-share/data/pseudos_module/espresso/nninc/pbe/van/Ti.UPF
     MD5 check sum: 8e4df49b7f0d34bbd5052bf3f5ea0213
     Pseudo is Ultrasoft, Zval = 12.0
     Generated by new atomic code, or converted to UPF format
     Using radial grid of  851 points,  6 beta functions with:
                l(1) =   0
                l(2) =   0
                l(3) =   1
                l(4) =   1
                l(5) =   2
                l(6) =   2
     Q(r) pseudized with  8 coefficients,  rinner =    1.000   1.000   1.000
                                                       1.000   1.000

     PseudoPot. # 2 for O  read from file:
     /storage/coda1/p-amedford6/0/shared/rich_project_chbe-medford/medford-share/data/pseudos_module/espresso/nninc/pbe/van/O.UPF
     MD5 check sum: 78c19812648e8988a0fe644b0f25305e
     Pseudo is Ultrasoft, Zval =  6.0
     Generated by new atomic code, or converted to UPF format
     Using radial grid of  737 points,  4 beta functions with:
                l(1) =   0
                l(2) =   0
                l(3) =   1
                l(4) =   1
     Q(r) pseudized with  8 coefficients,  rinner =    0.800   0.800   0.800

     PseudoPot. # 3 for N  read from file:
     /storage/coda1/p-amedford6/0/shared/rich_project_chbe-medford/medford-share/data/pseudos_module/espresso/nninc/pbe/van/N.UPF
     MD5 check sum: 90d10febe142ad51ac9d5be1deb811c4
     Pseudo is Ultrasoft, Zval =  5.0
     Generated by new atomic code, or converted to UPF format
     Using radial grid of  729 points,  4 beta functions with:
                l(1) =   0
                l(2) =   0
                l(3) =   1
                l(4) =   1
     Q(r) pseudized with  8 coefficients,  rinner =    0.800   0.800   0.800

     PseudoPot. # 4 for C  read from file:
     /storage/coda1/p-amedford6/0/shared/rich_project_chbe-medford/medford-share/data/pseudos_module/espresso/nninc/pbe/van/C.UPF
     MD5 check sum: 1a69bf6b8db32088f5b2163dbdb77a27
     Pseudo is Ultrasoft, Zval =  4.0
     Generated by new atomic code, or converted to UPF format
     Using radial grid of  721 points,  4 beta functions with:
                l(1) =   0
                l(2) =   0
                l(3) =   1
                l(4) =   1
     Q(r) pseudized with  8 coefficients,  rinner =    0.800   0.800   0.800

     PseudoPot. # 5 for H  read from file:
     /storage/coda1/p-amedford6/0/shared/rich_project_chbe-medford/medford-share/data/pseudos_module/espresso/nninc/pbe/van/H.UPF
     MD5 check sum: b5ee9d7bfd3a09ee7748110bda690ff7
     Pseudo is Ultrasoft, Zval =  1.0
     Generated by new atomic code, or converted to UPF format
     Using radial grid of  615 points,  1 beta functions with:
                l(1) =   0
     Q(r) pseudized with  8 coefficients,  rinner =    0.800

     atomic species   valence    mass     pseudopotential
        Ti1           12.00    47.86700     Ti( 1.00)
        O1             6.00    15.99900     O ( 1.00)
        N1             5.00    14.00700     N ( 1.00)
        C1             4.00    12.01100     C ( 1.00)
        H1             1.00     1.00800     H ( 1.00)

     No symmetry found

   Cartesian axes

     site n.     atom                  positions (alat units)
         1           Ti1 tau(   1) = (   0.0004258   2.9801865   6.0000000  )
         2           Ti1 tau(   2) = (   3.2906075   1.4906267   6.0002472  )
         3           O1  tau(   3) = (   0.0006271   0.0005054   7.9858123  )
         4           O1  tau(   4) = (   3.2906025   0.0005020   7.3038282  )
         5           O1  tau(   5) = (   4.5942328   1.4918067   9.2879030  )
         6           O1  tau(   6) = (   1.9868534   1.4903216   9.2879459  )
         7           Ti1 tau(   7) = (   3.2907910   2.8959150   9.1758416  )
         8           Ti1 tau(   8) = (   0.0015273   1.4827037   9.2680791  )
         9           O1  tau(   9) = (   3.3019041   5.9340972  11.2780832  )
        10           O1  tau(  10) = (   0.0116148   5.9584955  10.6183126  )
        11           O1  tau(  11) = (   1.2869077   1.4717189  12.6473688  )
        12           O1  tau(  12) = (   5.3188397   1.4655789  12.6430575  )
        13           Ti1 tau(  13) = (   0.0521173   3.0639968  12.7333969  )
        14           Ti1 tau(  14) = (   3.2906581   1.3001642  12.6471297  )
        15           O1  tau(  15) = (   0.0021475   5.9326859  14.6872502  )
        16           O1  tau(  16) = (   3.3040199   0.0265785  13.8678754  )
        17           O1  tau(  17) = (   4.6240569   1.6264218  16.1080407  )
        18           O1  tau(  18) = (   2.0715169   1.5429601  15.9546445  )
        19           Ti1 tau(  19) = (   3.3363059   2.9874148  15.6109769  )
        20           Ti1 tau(  20) = (   0.0492893   1.4028208  15.7974426  )
        21           O1  tau(  21) = (   3.2904802   0.0005063   4.7018136  )
        22           O1  tau(  22) = (   0.0944532   0.0627470  17.1934044  )
        23           O1  tau(  23) = (   1.3043587   1.4918075   6.0039043  )
        24           O1  tau(  24) = (   5.2767064   1.4903225   6.0039473  )
        25           Ti1 tau(  25) = (   0.0000382   5.9609847   6.0000000  )
        26           Ti1 tau(  26) = (   3.2902200   4.4714249   6.0002472  )
        27           O1  tau(  27) = (   0.0002396   2.9813036   7.9858123  )
        28           O1  tau(  28) = (   3.2902150   2.9813002   7.3038282  )
        29           O1  tau(  29) = (   4.5938453   4.4726049   9.2879030  )
        30           O1  tau(  30) = (   1.9864658   4.4711199   9.2879459  )
        31           Ti1 tau(  31) = (   3.2891106   5.8743827   9.1763621  )
        32           Ti1 tau(  32) = (   0.0006254   4.4649316   9.2693709  )
        33           O1  tau(  33) = (   3.3033179   3.0104581  11.2528581  )
        34           O1  tau(  34) = (   0.0092240   2.9805883  10.6323155  )
        35           O1  tau(  35) = (   1.3074756   4.4469578  12.6382572  )
        36           O1  tau(  36) = (   5.3202433   4.4545580  12.6357595  )
        37           Ti1 tau(  37) = (   6.5572640   0.0741000  12.5519234  )
        38           Ti1 tau(  38) = (   3.3179412   4.3950854  12.4030220  )
        39           O1  tau(  39) = (   0.0383827   2.9948909  14.7437145  )
        40           O1  tau(  40) = (   3.3238341   2.9662938  13.8354460  )
        41           O1  tau(  41) = (   4.5722604   4.5101538  15.9256862  )
        42           O1  tau(  42) = (   2.0839069   4.4665637  16.0501180  )
        43           Ti1 tau(  43) = (   3.2507700   5.9423238  16.2547716  )
        44           Ti1 tau(  44) = (   6.5063516   4.5631136  16.2071476  )
        45           O1  tau(  45) = (   3.2900926   2.9813045   4.7018136  )
        46           O1  tau(  46) = (   1.3039711   4.4726057   6.0039043  )
        47           O1  tau(  47) = (   5.2763189   4.4711207   6.0039473  )
        48           N1  tau(  48) = (   0.4124544   2.9287237  17.8391456  )
        49           C1  tau(  49) = (   1.3780350   3.0145335  18.6736463  )
        50           H1  tau(  50) = (   2.3027514   2.5668077  18.2879847  )
        51           N1  tau(  51) = (   5.7762606   3.6115528  18.1636368  )
        52           H1  tau(  52) = (   5.8537390   4.1179332  19.0569945  )
        53           H1  tau(  53) = (   5.0130290   2.9392956  18.1702355  )
        54           O1  tau(  54) = (   3.2882145   0.0116813  18.0866318  )
        55           H1  tau(  55) = (   2.5950809   5.5738040  18.6371346  )

     number of k points=    10  Fermi-Dirac smearing, width (Ry)=  0.0073
                       cart. coord. in units 2pi/alat
        k(    1) = (   0.0000000   0.0000000   0.0000000), wk =   0.1250000
        k(    2) = (   0.0000000   0.0419351   0.0000000), wk =   0.2500000
        k(    3) = (   0.0000000  -0.0838702   0.0000000), wk =   0.1250000
        k(    4) = (   0.0379955   0.0000049   0.0000000), wk =   0.2500000
        k(    5) = (   0.0379955   0.0419400   0.0000000), wk =   0.2500000
        k(    6) = (   0.0379955  -0.0838652   0.0000000), wk =   0.2500000
        k(    7) = (   0.0379955  -0.0419301   0.0000000), wk =   0.2500000
        k(    8) = (  -0.0759910  -0.0000099   0.0000000), wk =   0.1250000
        k(    9) = (  -0.0759910   0.0419252   0.0000000), wk =   0.2500000
        k(   10) = (  -0.0759910  -0.0838800   0.0000000), wk =   0.1250000

     Initial potential from superposition of free atoms

     starting charge  385.99915, renormalised to  402.00000

     negative rho (up, down):  1.702E-02 0.000E+00

     %%%%%%%%%%%%%%%%%%%%%%%%%%%%%%%%%%%%%%%%%%%%%%%%%%%%%%%%%%%%%%%%%%%%%%%%
     %                                                                      %
     % You are using vdW-DF, which was implemented by the Thonhauser group. %
     % Please cite the following two papers that made this development      %
     % possible and the two reviews that describe the various versions:     %
     %                                                                      %
     %   T. Thonhauser et al., PRL 115, 136402 (2015).                      %
     %   T. Thonhauser et al., PRB 76, 125112 (2007).                       %
     %   K. Berland et al., Rep. Prog. Phys. 78, 066501 (2015).             %
     %   D.C. Langreth et al., J. Phys.: Condens. Matter 21, 084203 (2009). %
     %                                                                      %
     %                                                                      %
     % If you are calculating the stress with vdW-DF, please also cite:     %
     %                                                                      %
     %   R. Sabatini et al., J. Phys.: Condens. Matter 24, 424209 (2012).   %
     %                                                                      %
     %%%%%%%%%%%%%%%%%%%%%%%%%%%%%%%%%%%%%%%%%%%%%%%%%%%%%%%%%%%%%%%%%%%%%%%%

     Adding external electric field

     Computed dipole along edir(3) :
        Dipole              -11.1551 Ry au,        -28.3536 Debye
        Dipole field         -0.0211 Ry au,

        Potential amp.        1.9514 Ry
        Total length         46.3494 bohr

     Starting wfcs are  304 atomic wfcs
  @ DRIVER MODE: Message from server: STATUS
  @ DRIVER MODE: Message from server: POSDATA
  @ DRIVER MODE: Reading and sharing cell
  @ DRIVER MODE: Reading and sharing positions
  @ DRIVER MODE: Received positions

     Self-consistent Calculation

     iteration #  1     ecut=    29.40 Ry     beta= 0.05
     Davidson diagonalization with overlap
     c_bands:  2 eigenvalues not converged
     c_bands:  3 eigenvalues not converged
     c_bands:  1 eigenvalues not converged
     c_bands:  1 eigenvalues not converged
     c_bands:  5 eigenvalues not converged
     c_bands:  3 eigenvalues not converged
     ethr =  1.00E-05,  avg # of iterations = 28.8

[...]

     total energy              =   -2400.38872709 Ry
     estimated scf accuracy    <    6415.70668678 Ry

     iteration #  2     ecut=    29.40 Ry     beta= 0.05
     Davidson diagonalization with overlap
     ethr =  1.00E-02,  avg # of iterations = 25.5

[...]

     iteration # 54     ecut=    29.40 Ry     beta= 0.05
     Davidson diagonalization with overlap
     c_bands:  1 eigenvalues not converged
     ethr =  1.84E-07,  avg # of iterations =  7.6

[...]

     total energy              =   -2972.60984964 Ry
     estimated scf accuracy    <       0.00000010 Ry

     iteration # 74     ecut=    29.40 Ry     beta= 0.05
     Davidson diagonalization with overlap
     ethr =  2.44E-11,  avg # of iterations =  2.0

     negative rho (up, down):  1.637E-02 0.000E+00

     Adding external electric field

     Computed dipole along edir(3) :
        Dipole                0.2199 Ry au,          0.5590 Debye
        Dipole field          0.0004 Ry au,

        Potential amp.       -0.0385 Ry
        Total length         46.3494 bohr

     End of self-consistent calculation

          k = 0.0000 0.0000 0.0000 ( 18029 PWs)   bands (ev):

   -56.4668 -56.4330 -56.0097 -55.9739 -55.7580 -55.7036 -55.6447 -55.6352
   -55.6030 -55.5135 -55.5050 -55.4496 -55.4057 -55.2814 -55.2109 -55.1769
   -32.9132 -32.7580 -32.7307 -32.6266 -32.5377 -32.5343 -32.4913 -32.2414
   -32.2274 -32.2054 -32.1587 -32.1536 -32.1273 -32.1083 -32.0246 -32.0103
   -31.9924 -31.9793 -31.9610 -31.9229 -31.9165 -31.9088 -31.9060 -31.8827
   -31.8645 -31.8619 -31.8574 -31.8049 -31.7884 -31.7683 -31.7458 -31.7216
   -31.7094 -31.6939 -31.6773 -31.6718 -31.6441 -31.6059 -31.5950 -31.5760
   -31.5462 -31.5458 -31.5221 -31.5130 -31.4895 -31.4250 -31.3407 -31.2287
   -17.8951 -16.7383 -16.4728 -16.4017 -16.2024 -16.0126 -15.9194 -15.9030
   -15.8847 -15.7635 -15.7634 -15.6123 -15.5318 -15.4767 -15.4140 -15.4019
   -15.3331 -15.3166 -15.2525 -15.2251 -15.2120 -15.1864 -15.1372 -15.0756
   -15.0651 -15.0392 -14.8513 -14.8274 -14.8112 -14.6260 -14.5333 -13.7082
   -13.5965 -13.1966  -7.8170  -6.1411  -4.2569  -4.2522  -4.1345  -3.9333
    -3.7340  -3.6720  -3.5749  -3.4341  -3.4030  -3.1611  -3.1460  -3.1045
    -3.0157  -2.9850  -2.9602  -2.9007  -2.8426  -2.8228  -2.7621  -2.6852
    -2.6831  -2.6724  -2.6405  -2.6182  -2.5140  -2.4745  -2.4124  -2.3735
    -2.3470  -2.3368  -2.2976  -2.2423  -2.2150  -2.1626  -2.1445  -2.0635
    -2.0311  -1.9466  -1.8868  -1.8687  -1.8141  -1.7588  -1.7537  -1.6979
    -1.5668  -1.4570  -1.3903  -1.3476  -1.2942  -1.2388  -1.2085  -1.1537
    -1.0890  -1.0655  -1.0425  -1.0053  -0.9446  -0.9160  -0.8697  -0.8146
    -0.7380  -0.6711  -0.6253  -0.6033  -0.4991  -0.4338  -0.3952  -0.3796
    -0.3429  -0.2883  -0.2336  -0.1935  -0.1832  -0.1603  -0.0996   0.0244
     0.0351   0.0940   0.1491   0.1825   0.1950   0.2102   0.2724   0.3396
     0.4135   0.4564   0.4691   0.5268   0.5917   0.6304   0.7449   0.8138
     0.8395   0.8810   0.9575   1.0326   1.0484   1.3549   1.3686   1.3974
     2.5148   2.7683   2.8991   3.0787   3.1993   3.3347   3.6542   3.6704
     3.6818   3.7048   3.7646

[...]

          k = 0.0380-0.0419 0.0000 ( 17876 PWs)   bands (ev):

[...]

          k =-0.0760-0.0000 0.0000 ( 17886 PWs)   bands (ev):

[...]

          k =-0.0760-0.0839 0.0000 ( 17948 PWs)   bands (ev):

   -56.4501 -56.4495 -55.9981 -55.9853 -55.7521 -55.7095 -55.6361 -55.6337
   -55.6114 -55.5113 -55.5064 -55.4480 -55.4077 -55.2830 -55.1944 -55.1932
   -32.7438 -32.7432 -32.7294 -32.7294 -32.5792 -32.5781 -32.3201 -32.3091
   -32.1900 -32.1837 -32.1755 -32.1739 -32.0599 -32.0275 -31.9809 -31.9739
   -31.9599 -31.9554 -31.9469 -31.9385 -31.9360 -31.9280 -31.9065 -31.8693
   -31.8620 -31.8556 -31.8535 -31.8391 -31.8198 -31.7948 -31.7811 -31.7712
   -31.7251 -31.7078 -31.7003 -31.6810 -31.6498 -31.6310 -31.6291 -31.5994
   -31.5485 -31.5355 -31.5346 -31.4936 -31.4217 -31.4203 -31.3835 -31.3826
   -17.8857 -16.4534 -16.1440 -16.1331 -16.0154 -16.0098 -15.8566 -15.8373
   -15.8192 -15.7453 -15.6807 -15.6598 -15.5117 -15.4991 -15.4626 -15.4271
   -15.3989 -15.3619 -15.3572 -15.3337 -15.3003 -15.2351 -15.2136 -15.1886
   -15.1783 -15.1012 -14.9219 -14.8982 -14.8960 -14.8217 -14.6827 -13.7002
   -13.6993 -13.2079  -7.7797  -6.0720  -4.3745  -4.0808  -3.3144  -3.2505
    -3.1749  -3.1375  -3.1264  -3.0561  -3.0408  -2.9260  -2.8979  -2.8591
    -2.8326  -2.8221  -2.8019  -2.7512  -2.7286  -2.6840  -2.6674  -2.6656
    -2.6341  -2.5933  -2.5732  -2.5498  -2.5394  -2.4696  -2.4398  -2.3970
    -2.3808  -2.3687  -2.3210  -2.2601  -2.2404  -2.1855  -2.1732  -2.1413
    -2.1046  -2.0427  -2.0043  -1.9624  -1.8644  -1.8426  -1.7750  -1.6576
    -1.6364  -1.5524  -1.5245  -1.5031  -1.4809  -1.4035  -1.3702  -1.3372
    -1.2502  -1.2237  -1.2153  -1.1886  -1.1552  -1.1300  -1.0736  -1.0115
    -0.9168  -0.8533  -0.8414  -0.8227  -0.7832  -0.7567  -0.7158  -0.6238
    -0.6025  -0.5675  -0.5574  -0.5156  -0.4036  -0.3770  -0.2276  -0.1898
    -0.1009  -0.0734  -0.0539  -0.0125   0.1092   0.1367   0.1871   0.2073
     0.2666   0.3113   0.3624   0.4528   0.5545   0.5667   0.6981   0.7251
     0.7457   0.8190   0.9513   0.9932   1.2081   1.2126   1.2142   1.2165
     2.4945   3.3211   3.3234   3.3568   3.3690   3.5723   3.5928   3.7186
     3.8030   3.8115   3.8333

     the Fermi energy is     2.6948 ev

!    total energy              =   -2972.60988172 Ry
     estimated scf accuracy    <       0.00000006 Ry
     smearing contrib. (-TS)   =      -0.01174157 Ry
     internal energy E=F+TS    =   -2972.59814015 Ry

     The total energy is F=E-TS. E is the sum of the following terms:
     one-electron contribution =  -24036.04134270 Ry
     hartree contribution      =   12109.42267994 Ry
     xc contribution           =    -493.06857762 Ry
     ewald contribution        =    9447.08900898 Ry
     electric field correction =       0.00009126 Ry

     convergence has been achieved in  74 iterations

     Forces acting on atoms (cartesian axes, Ry/au):

     atom    1 type  1   force =    -0.00003709   -0.00046264    0.10842957
     atom    2 type  1   force =     0.00001451    0.00008054   -0.16404580
     atom    3 type  2   force =     0.00013247    0.00046797   -0.04120326
     atom    4 type  2   force =     0.00009530   -0.00056629    0.03214274
     atom    5 type  2   force =    -0.00380073   -0.00333051   -0.00776657
     atom    6 type  2   force =     0.00586045   -0.00273898   -0.00759343
     atom    7 type  1   force =     0.00016905   -0.00552243    0.03633348
     atom    8 type  1   force =     0.00012876    0.02543853    0.06352969
     atom    9 type  2   force =     0.00013798    0.00040065    0.00012033
     atom   10 type  2   force =    -0.00195080    0.00076300   -0.03779190
     atom   11 type  2   force =     0.00010270   -0.00016037   -0.00018100
     atom   12 type  2   force =    -0.00074229    0.00020143   -0.00018628
     atom   13 type  1   force =     0.00044757    0.00043589    0.00088873
     atom   14 type  1   force =    -0.00056358   -0.00025769    0.00017172
     atom   15 type  2   force =    -0.00013014    0.00001327    0.00076372
     atom   16 type  2   force =    -0.00012597    0.00030375   -0.00015816
     atom   17 type  2   force =    -0.00106177    0.00047311   -0.00003314
     atom   18 type  2   force =     0.00059037   -0.00005760   -0.00033959
     atom   19 type  1   force =     0.00029863   -0.00078289    0.00002991
     atom   20 type  1   force =    -0.00047064   -0.00008557   -0.00019971
     atom   21 type  2   force =     0.00009705    0.00018723    0.10011177
     atom   22 type  2   force =    -0.00009851   -0.00028775    0.00025845
     atom   23 type  2   force =    -0.07741230    0.00001821   -0.03031732
     atom   24 type  2   force =     0.07740665    0.00043703   -0.03035853
     atom   25 type  1   force =    -0.00001591   -0.00031365    0.10862969
     atom   26 type  1   force =    -0.00003976   -0.00109865   -0.16407544
     atom   27 type  2   force =     0.00011644   -0.00017762   -0.03921895
     atom   28 type  2   force =     0.00011499    0.00118145    0.02835369
     atom   29 type  2   force =    -0.00230244    0.00468236   -0.01050036
     atom   30 type  2   force =     0.00437576    0.00496470   -0.01045926
     atom   31 type  1   force =     0.00005063    0.00318770    0.01915807
     atom   32 type  1   force =     0.00036614   -0.02766274    0.06526338
     atom   33 type  2   force =    -0.00003613   -0.00080354   -0.00042925
     atom   34 type  2   force =    -0.00062703    0.00085694   -0.05568137
     atom   35 type  2   force =    -0.00035420   -0.00022916   -0.00027558
     atom   36 type  2   force =    -0.00006618   -0.00003138   -0.00020224
     atom   37 type  1   force =     0.00029137   -0.00052196    0.00012829
     atom   38 type  1   force =    -0.00036428   -0.00015169    0.00028701
     atom   39 type  2   force =    -0.00016241    0.00035783   -0.00017380
     atom   40 type  2   force =    -0.00016716   -0.00026568   -0.00035075
     atom   41 type  2   force =    -0.00025046    0.00013670    0.00001899
     atom   42 type  2   force =    -0.00047689    0.00001735    0.00007090
     atom   43 type  1   force =     0.00030162    0.00031799    0.00000569
     atom   44 type  1   force =    -0.00041189    0.00043432   -0.00048580
     atom   45 type  2   force =     0.00010022    0.00001487    0.09993210
     atom   46 type  2   force =    -0.07744506   -0.00001595   -0.03032374
     atom   47 type  2   force =     0.07746378    0.00041584   -0.03036600
     atom   48 type  3   force =    -0.00045299    0.00011317    0.00015573
     atom   49 type  4   force =     0.00003191   -0.00024534   -0.00074381
     atom   50 type  5   force =    -0.00020342   -0.00012887   -0.00015688
     atom   51 type  3   force =     0.00203112    0.00542202    0.01118048
     atom   52 type  5   force =    -0.00057700   -0.00587091   -0.01170899
     atom   53 type  5   force =     0.00000561    0.00040096   -0.00004914
     atom   54 type  2   force =     0.00079874    0.00072473   -0.00135301
     atom   55 type  5   force =    -0.00118278   -0.00067966    0.00076492

     Total force =     0.383318     Total SCF correction =     0.000574
  @ DRIVER MODE: Message from server: STATUS
  @ DRIVER MODE: Message from server: GETFORCE
  @ DRIVER MODE: Returning v,forces,stress,ensemble

     Writing output data file ./calc.save/
  @ DRIVER MODE: Message from server: EXIT
  @ DRIVE MODE: Exiting

     General routines

     Parallel routines

   This run was terminated on:   2:40:25  23Sep2021

   JOB DONE.