     Program PWSCF v.6.7GPU starts on 23Sep2021 at  0:16: 3

     R & G space division:  proc/nbgrp/npool/nimage =      10
     Reading input from /storage/home/hcoda1/3/ntian30/research/carbon/CxH_vib/H2O_calc/ads_slab/CH3NHHH2O_a/out_0026/pw.inp
Warning: card &CELL ignored
Warning: card   CELL_DYNAMICS='IPI', ignored
Warning: card / ignored

     Current dimensions of program PWSCF are:
     Max number of different atomic species (ntypx) = 10
     Max number of k-points (npk) =  40000
     Max angular momentum in pseudopotentials (lmaxx) =  3
     Presently no symmetry can be used with electric field

     Message from routine cell_base_init:
     DEPRECATED: use true lattice parameter, not A to a.u. conversion factor

     IMPORTANT: XC functional enforced from input :
     Exchange-correlation= BEEF-VDW
                           (   1   4  43  14   2   0   0)
     Any further DFT definition will be discarded
     Please, verify this is what you really want

  @ DRIVER MODE: Connecting to
 qe_1139763_2937309.sched-torque.pace.gatech.eduz4ne_b6z_scratch
  using UNIX socket
  @ DRIVER MODE: Message from server: STATUS
  @ DRIVER MODE: Message from server: INIT
  @ DRIVER MODE: Receiving replica           0          -1
  @ DRIVER MODE: Receiving encoded integer          25
  @ DRIVER MODE:  SCF:  T  FORCE:  T  STRESS:  F  VC:  F  ENSEMBLE:  F
  @ DRIVER MODE:  SCF:  T  FORCE:  T  STRESS:  F  VC:  F  ENSEMBLE:  F

     Using Slab Decomposition

     bravais-lattice index     =            0
     lattice parameter (alat)  =       1.8897  a.u.
     unit-cell volume          =    6658.9804 (a.u.)^3
     number of atoms/cell      =           57
     number of atomic types    =            5
     number of electrons       =       400.00
     number of Kohn-Sham states=          210
     kinetic-energy cutoff     =      29.3995  Ry
     charge density cutoff     =     293.9946  Ry
     scf convergence threshold =      7.3E-08
     mixing beta               =       0.0500
     number of iterations used =            8  plain     mixing
     Exchange-correlation= BEEF-VDW
                           (   1   4  43  14   2   0   0)

     celldm(1)=   1.889726  celldm(2)=   0.000000  celldm(3)=   0.000000
     celldm(4)=   0.000000  celldm(5)=   0.000000  celldm(6)=   0.000000

     crystal axes: (cart. coord. in units of alat)
               a(1) = (   6.579727   0.000000   0.000000 )
               a(2) = (  -0.000775   5.961596   0.000000 )
               a(3) = (   0.000000   0.000000  25.155947 )

     reciprocal axes: (cart. coord. in units 2 pi/alat)
               b(1) = (  0.151982  0.000020  0.000000 )
               b(2) = (  0.000000  0.167740  0.000000 )
               b(3) = (  0.000000  0.000000  0.039752 )

     PseudoPot. # 1 for Ti read from file:
     /storage/coda1/p-amedford6/0/shared/rich_project_chbe-medford/medford-share/data/pseudos_module/espresso/nninc/pbe/van/Ti.UPF
     MD5 check sum: 8e4df49b7f0d34bbd5052bf3f5ea0213
     Pseudo is Ultrasoft, Zval = 12.0
     Generated by new atomic code, or converted to UPF format
     Using radial grid of  851 points,  6 beta functions with:
                l(1) =   0
                l(2) =   0
                l(3) =   1
                l(4) =   1
                l(5) =   2
                l(6) =   2
     Q(r) pseudized with  8 coefficients,  rinner =    1.000   1.000   1.000
                                                       1.000   1.000

     PseudoPot. # 2 for O  read from file:
     /storage/coda1/p-amedford6/0/shared/rich_project_chbe-medford/medford-share/data/pseudos_module/espresso/nninc/pbe/van/O.UPF
     MD5 check sum: 78c19812648e8988a0fe644b0f25305e
     Pseudo is Ultrasoft, Zval =  6.0
     Generated by new atomic code, or converted to UPF format
     Using radial grid of  737 points,  4 beta functions with:
                l(1) =   0
                l(2) =   0
                l(3) =   1
                l(4) =   1
     Q(r) pseudized with  8 coefficients,  rinner =    0.800   0.800   0.800

     PseudoPot. # 3 for N  read from file:
     /storage/coda1/p-amedford6/0/shared/rich_project_chbe-medford/medford-share/data/pseudos_module/espresso/nninc/pbe/van/N.UPF
     MD5 check sum: 90d10febe142ad51ac9d5be1deb811c4
     Pseudo is Ultrasoft, Zval =  5.0
     Generated by new atomic code, or converted to UPF format
     Using radial grid of  729 points,  4 beta functions with:
                l(1) =   0
                l(2) =   0
                l(3) =   1
                l(4) =   1
     Q(r) pseudized with  8 coefficients,  rinner =    0.800   0.800   0.800

     PseudoPot. # 4 for C  read from file:
     /storage/coda1/p-amedford6/0/shared/rich_project_chbe-medford/medford-share/data/pseudos_module/espresso/nninc/pbe/van/C.UPF
     MD5 check sum: 1a69bf6b8db32088f5b2163dbdb77a27
     Pseudo is Ultrasoft, Zval =  4.0
     Generated by new atomic code, or converted to UPF format
     Using radial grid of  721 points,  4 beta functions with:
                l(1) =   0
                l(2) =   0
                l(3) =   1
                l(4) =   1
     Q(r) pseudized with  8 coefficients,  rinner =    0.800   0.800   0.800

     PseudoPot. # 5 for H  read from file:
     /storage/coda1/p-amedford6/0/shared/rich_project_chbe-medford/medford-share/data/pseudos_module/espresso/nninc/pbe/van/H.UPF
     MD5 check sum: b5ee9d7bfd3a09ee7748110bda690ff7
     Pseudo is Ultrasoft, Zval =  1.0
     Generated by new atomic code, or converted to UPF format
     Using radial grid of  615 points,  1 beta functions with:
                l(1) =   0
     Q(r) pseudized with  8 coefficients,  rinner =    0.800

     atomic species   valence    mass     pseudopotential
        Ti1           12.00    47.86700     Ti( 1.00)
        O1             6.00    15.99900     O ( 1.00)
        N1             5.00    14.00700     N ( 1.00)
        C1             4.00    12.01100     C ( 1.00)
        H1             1.00     1.00800     H ( 1.00)

     No symmetry found

   Cartesian axes

     site n.     atom                  positions (alat units)
         1           Ti1 tau(   1) = (   0.0004258   2.9801865   6.0000000  )
         2           Ti1 tau(   2) = (   3.2906075   1.4906267   6.0002472  )
         3           O1  tau(   3) = (   0.0006271   0.0005054   7.9858123  )
         4           O1  tau(   4) = (   3.2906025   0.0005020   7.3038282  )
         5           O1  tau(   5) = (   4.5942328   1.4918067   9.2879030  )
         6           O1  tau(   6) = (   1.9868534   1.4903216   9.2879459  )
         7           Ti1 tau(   7) = (   3.2907910   2.8959150   9.1758416  )
         8           Ti1 tau(   8) = (   0.0015273   1.4827037   9.2680791  )
         9           O1  tau(   9) = (   3.2912042   0.0294118  11.3810798  )
        10           O1  tau(  10) = (   0.0116148   5.9584955  10.6183126  )
        11           O1  tau(  11) = (   1.2906363   1.5151137  12.6946382  )
        12           O1  tau(  12) = (   5.2977377   1.5118052  12.6897239  )
        13           Ti1 tau(  13) = (   0.0154927   3.0055723  12.5114375  )
        14           Ti1 tau(  14) = (   3.3120461   1.5076926  12.5412499  )
        15           O1  tau(  15) = (   0.0087391   5.9056098  14.6936070  )
        16           O1  tau(  16) = (   3.3000944   0.0090435  14.0218108  )
        17           O1  tau(  17) = (   4.5606481   1.5918460  16.0876707  )
        18           O1  tau(  18) = (   2.0070218   1.5857768  16.0794533  )
        19           Ti1 tau(  19) = (   3.2835068   3.0412122  15.7371975  )
        20           Ti1 tau(  20) = (   0.0166266   1.3536260  15.8406240  )
        21           O1  tau(  21) = (   3.2904802   0.0005063   4.7018136  )
        22           O1  tau(  22) = (   6.5628702   0.1917167  17.2472498  )
        23           O1  tau(  23) = (   1.3043587   1.4918075   6.0039043  )
        24           O1  tau(  24) = (   5.2767064   1.4903225   6.0039473  )
        25           Ti1 tau(  25) = (   0.0000382   5.9609847   6.0000000  )
        26           Ti1 tau(  26) = (   3.2902200   4.4714249   6.0002472  )
        27           O1  tau(  27) = (   0.0002396   2.9813036   7.9858123  )
        28           O1  tau(  28) = (   3.2902150   2.9813002   7.3038282  )
        29           O1  tau(  29) = (   4.5938453   4.4726049   9.2879030  )
        30           O1  tau(  30) = (   1.9864658   4.4711199   9.2879459  )
        31           Ti1 tau(  31) = (   3.2891106   5.8743827   9.1763621  )
        32           Ti1 tau(  32) = (   0.0006254   4.4649316   9.2693709  )
        33           O1  tau(  33) = (   3.2975917   2.9887808  11.3748511  )
        34           O1  tau(  34) = (   0.0092240   2.9805883  10.6323155  )
        35           O1  tau(  35) = (   1.2927870   4.4849180  12.6503915  )
        36           O1  tau(  36) = (   5.2959677   4.4879952  12.6460094  )
        37           Ti1 tau(  37) = (   0.0189062   0.0134437  12.4995343  )
        38           Ti1 tau(  38) = (   3.3131396   4.4925875  12.5257625  )
        39           O1  tau(  39) = (   6.5658147   3.0796170  14.9398047  )
        40           O1  tau(  40) = (   3.2912769   3.0351834  13.9531456  )
        41           O1  tau(  41) = (   4.5372935   4.5058929  16.2491503  )
        42           O1  tau(  42) = (   2.0060561   4.4992570  16.2466123  )
        43           Ti1 tau(  43) = (   3.3106529   0.0781036  15.8389635  )
        44           Ti1 tau(  44) = (   0.0259428   4.5566345  16.0434284  )
        45           O1  tau(  45) = (   3.2900926   2.9813045   4.7018136  )
        46           O1  tau(  46) = (   1.3039711   4.4726057   6.0039043  )
        47           O1  tau(  47) = (   5.2763189   4.4711207   6.0039473  )
        48           N1  tau(  48) = (   6.3514164   3.3085518  18.1544664  )
        49           C1  tau(  49) = (   0.8695967   3.1501053  19.1301808  )
        50           H1  tau(  50) = (   1.3785670   4.1052268  19.2416751  )
        51           H1  tau(  51) = (   0.5086663   2.8389580  20.1145987  )
        52           H1  tau(  52) = (   1.5879067   2.4119510  18.7640910  )
        53           H1  tau(  53) = (   5.7211048   4.0382881  18.4729098  )
        54           H1  tau(  54) = (   5.7931489   2.4557210  18.1309407  )
        55           O1  tau(  55) = (   3.2817172   0.3149129  18.3340421  )
        56           H1  tau(  56) = (   4.0380937   5.6864266  18.4726034  )
        57           H1  tau(  57) = (   2.4816286   5.7371253  18.4434621  )

     number of k points=    10  Fermi-Dirac smearing, width (Ry)=  0.0073
                       cart. coord. in units 2pi/alat
        k(    1) = (   0.0000000   0.0000000   0.0000000), wk =   0.1250000
        k(    2) = (   0.0000000   0.0419351   0.0000000), wk =   0.2500000
        k(    3) = (   0.0000000  -0.0838702   0.0000000), wk =   0.1250000
        k(    4) = (   0.0379955   0.0000049   0.0000000), wk =   0.2500000
        k(    5) = (   0.0379955   0.0419400   0.0000000), wk =   0.2500000
        k(    6) = (   0.0379955  -0.0838652   0.0000000), wk =   0.2500000
        k(    7) = (   0.0379955  -0.0419301   0.0000000), wk =   0.2500000
        k(    8) = (  -0.0759910  -0.0000099   0.0000000), wk =   0.1250000
        k(    9) = (  -0.0759910   0.0419252   0.0000000), wk =   0.2500000
        k(   10) = (  -0.0759910  -0.0838800   0.0000000), wk =   0.1250000

     Initial potential from superposition of free atoms

     starting charge  383.99913, renormalised to  400.00000

     negative rho (up, down):  1.554E-02 0.000E+00

     %%%%%%%%%%%%%%%%%%%%%%%%%%%%%%%%%%%%%%%%%%%%%%%%%%%%%%%%%%%%%%%%%%%%%%%%
     %                                                                      %
     % You are using vdW-DF, which was implemented by the Thonhauser group. %
     % Please cite the following two papers that made this development      %
     % possible and the two reviews that describe the various versions:     %
     %                                                                      %
     %   T. Thonhauser et al., PRL 115, 136402 (2015).                      %
     %   T. Thonhauser et al., PRB 76, 125112 (2007).                       %
     %   K. Berland et al., Rep. Prog. Phys. 78, 066501 (2015).             %
     %   D.C. Langreth et al., J. Phys.: Condens. Matter 21, 084203 (2009). %
     %                                                                      %
     %                                                                      %
     % If you are calculating the stress with vdW-DF, please also cite:     %
     %                                                                      %
     %   R. Sabatini et al., J. Phys.: Condens. Matter 24, 424209 (2012).   %
     %                                                                      %
     %%%%%%%%%%%%%%%%%%%%%%%%%%%%%%%%%%%%%%%%%%%%%%%%%%%%%%%%%%%%%%%%%%%%%%%%

     Adding external electric field

     Computed dipole along edir(3) :
        Dipole              -12.0858 Ry au,        -30.7189 Debye
        Dipole field         -0.0228 Ry au,

        Potential amp.        2.1142 Ry
        Total length         46.3494 bohr

     Starting wfcs are  303 atomic wfcs
  @ DRIVER MODE: Message from server: STATUS
  @ DRIVER MODE: Message from server: POSDATA
  @ DRIVER MODE: Reading and sharing cell
  @ DRIVER MODE: Reading and sharing positions
  @ DRIVER MODE: Received positions

     Self-consistent Calculation

     iteration #  1     ecut=    29.40 Ry     beta= 0.05
     Davidson diagonalization with overlap
     c_bands:  2 eigenvalues not converged
     c_bands:  2 eigenvalues not converged
     c_bands:  3 eigenvalues not converged
     c_bands:  4 eigenvalues not converged
     c_bands:  2 eigenvalues not converged
     c_bands:  1 eigenvalues not converged
     c_bands:  4 eigenvalues not converged
     c_bands:  4 eigenvalues not converged
     c_bands:  5 eigenvalues not converged
     ethr =  1.00E-05,  avg # of iterations = 22.0

[...]

     total energy              =   -2384.77949726 Ry
     estimated scf accuracy    <    6451.09694001 Ry

     iteration #  2     ecut=    29.40 Ry     beta= 0.05
     Davidson diagonalization with overlap
     ethr =  1.00E-02,  avg # of iterations = 26.4

[...]

     iteration # 64     ecut=    29.40 Ry     beta= 0.05
     Davidson diagonalization with overlap
     ethr =  3.29E-11,  avg # of iterations =  7.6

[...]

     total energy              =   -2956.45480121 Ry
     estimated scf accuracy    <       0.00000008 Ry

     iteration # 65     ecut=    29.40 Ry     beta= 0.05
     Davidson diagonalization with overlap
     c_bands:  1 eigenvalues not converged
     ethr =  2.06E-11,  avg # of iterations = 12.8

     negative rho (up, down):  1.589E-02 0.000E+00

     Adding external electric field

     Computed dipole along edir(3) :
        Dipole                1.4039 Ry au,          3.5685 Debye
        Dipole field          0.0026 Ry au,

        Potential amp.       -0.2456 Ry
        Total length         46.3494 bohr

     End of self-consistent calculation

          k = 0.0000 0.0000 0.0000 ( 18029 PWs)   bands (ev):

   -55.2155 -55.1783 -55.1731 -55.1470 -55.1389 -55.1184 -55.0969 -55.0619
   -55.0417 -55.0069 -55.0036 -54.9943 -54.9700 -54.9344 -54.2029 -54.1688
   -31.7789 -31.6892 -31.6656 -31.5856 -31.5305 -31.5252 -31.5167 -31.5092
   -31.4619 -31.4383 -31.4267 -31.4178 -31.4132 -31.4114 -31.3875 -31.3843
   -31.3619 -31.3609 -31.3534 -31.3382 -31.3256 -31.3176 -31.3022 -31.2930
   -31.2870 -31.2742 -31.2719 -31.2429 -31.2303 -31.2278 -31.2224 -31.2023
   -31.1995 -31.1918 -31.1878 -31.1707 -31.1548 -31.1404 -31.1327 -31.1317
   -31.1147 -31.1123 -30.6124 -30.5180 -30.4959 -30.4287 -30.3419 -30.2311
   -19.2347 -16.1555 -16.0244 -15.7757 -15.6339 -15.5394 -15.4194 -15.3040
   -15.2393 -15.1254 -15.0673 -14.9319 -14.9166 -14.9046 -14.8800 -14.8467
   -14.8081 -14.7603 -14.7590 -14.7354 -14.7149 -14.7063 -14.6645 -14.6571
   -14.6173 -14.5960 -14.5950 -14.4598 -14.3785 -14.3081 -14.1225 -12.7056
   -12.5881 -10.2631  -7.0289  -6.2669  -4.8295  -3.9450  -3.4017  -3.3413
    -3.2374  -3.1485  -3.1253  -3.1131  -2.9761  -2.8620  -2.7453  -2.6658
    -2.6342  -2.4978  -2.4244  -2.4132  -2.3805  -2.2653  -2.2131  -2.1863
    -2.1537  -2.0822  -2.0339  -2.0234  -2.0054  -1.9747  -1.9596  -1.9255
    -1.8717  -1.7868  -1.7559  -1.6527  -1.6149  -1.5854  -1.5753  -1.5507
    -1.5336  -1.5090  -1.5026  -1.4420  -1.4386  -1.4089  -1.3626  -1.2479
    -1.0853  -1.0217  -0.9505  -0.8577  -0.8098  -0.7962  -0.7271  -0.7165
    -0.7029  -0.5991  -0.5670  -0.5538  -0.4567  -0.4252  -0.3866  -0.3141
    -0.2428  -0.2148  -0.2017  -0.0863  -0.0213  -0.0033   0.0165   0.0236
     0.1133   0.1863   0.2341   0.2857   0.3265   0.3337   0.3995   0.4317
     0.4995   0.5513   0.5693   0.6565   0.7014   0.7140   0.7202   0.7535
     0.7655   0.8272   0.8635   0.8878   0.9745   1.0897   1.2421   1.3835
     1.3914   1.7244   1.7253   1.8198   2.0036   2.3961   2.4444   3.8774
     3.9500   4.0092   4.0226   4.0281   4.1133   4.3598   4.3819   4.3877
     4.3977   4.4262

[...]

          k = 0.0380-0.0419 0.0000 ( 17876 PWs)   bands (ev):

[...]

          k =-0.0760-0.0000 0.0000 ( 17886 PWs)   bands (ev):

[...]

          k =-0.0760-0.0839 0.0000 ( 17948 PWs)   bands (ev):

   -55.2018 -55.1917 -55.1561 -55.1558 -55.1453 -55.1162 -55.0827 -55.0761
   -55.0270 -55.0210 -54.9965 -54.9871 -54.9867 -54.9359 -54.1860 -54.1856
   -31.6078 -31.5876 -31.5789 -31.4808 -31.4806 -31.4766 -31.4690 -31.4472
   -31.4471 -31.4274 -31.4195 -31.4128 -31.4054 -31.3909 -31.3734 -31.3587
   -31.3559 -31.3536 -31.3516 -31.3494 -31.3421 -31.3395 -31.3224 -31.3164
   -31.2960 -31.2955 -31.2770 -31.2758 -31.2756 -31.2733 -31.2683 -31.2602
   -31.2526 -31.2399 -31.2341 -31.2196 -31.2166 -31.1987 -31.1720 -31.1676
   -31.1669 -31.1460 -30.5087 -30.5084 -30.4250 -30.4247 -30.3854 -30.3852
   -19.2339 -16.1096 -15.5980 -15.4840 -15.3582 -15.2485 -15.2276 -15.1811
   -15.1323 -15.0819 -15.0300 -15.0015 -14.9807 -14.9717 -14.9289 -14.9185
   -14.8994 -14.8339 -14.8185 -14.8074 -14.7835 -14.7361 -14.7279 -14.7202
   -14.7162 -14.6703 -14.6662 -14.6182 -14.5747 -14.5709 -14.3911 -12.6897
   -12.6894 -10.2648  -7.0550  -6.2002  -4.8301  -3.9614  -3.2406  -2.9568
    -2.7494  -2.6975  -2.6092  -2.4657  -2.4216  -2.3769  -2.3458  -2.2842
    -2.2336  -2.2186  -2.2067  -2.1304  -2.1036  -2.0950  -2.0625  -2.0508
    -2.0408  -2.0027  -1.9819  -1.9566  -1.9482  -1.9375  -1.9349  -1.9254
    -1.8673  -1.8548  -1.8439  -1.8402  -1.7815  -1.7701  -1.7553  -1.7411
    -1.5968  -1.5785  -1.4277  -1.4243  -1.4021  -1.3495  -1.3379  -1.2971
    -1.2538  -1.2444  -1.2179  -0.9736  -0.9646  -0.9614  -0.9298  -0.8960
    -0.8581  -0.7965  -0.7675  -0.6976  -0.6894  -0.5734  -0.5573  -0.4420
    -0.4335  -0.4210  -0.3383  -0.2889  -0.2408  -0.2019  -0.1846  -0.1741
    -0.1574  -0.1210  -0.1186  -0.0213   0.0148   0.0456   0.0589   0.0985
     0.2752   0.3039   0.3196   0.4637   0.4713   0.6307   0.6816   0.7098
     0.8001   0.8603   0.8949   0.9388   1.0747   1.0879   1.1057   1.1600
     1.1832   1.2325   1.2457   2.1759   2.1773   2.2643   2.2644   4.0225
     4.1318   4.1410   4.1987   4.3100   4.3189   4.3925   4.4236   4.4611
     4.4649   4.5315

     the Fermi energy is     3.9396 ev

!    total energy              =   -2956.45482977 Ry
     estimated scf accuracy    <       0.00000006 Ry
     smearing contrib. (-TS)   =      -0.03685069 Ry
     internal energy E=F+TS    =   -2956.41797909 Ry

     The total energy is F=E-TS. E is the sum of the following terms:
     one-electron contribution =  -23693.55864459 Ry
     hartree contribution      =   11942.27967503 Ry
     xc contribution           =    -490.60847710 Ry
     ewald contribution        =    9285.46574789 Ry
     electric field correction =       0.00371968 Ry

     convergence has been achieved in  65 iterations

     Forces acting on atoms (cartesian axes, Ry/au):

     atom    1 type  1   force =    -0.00000351   -0.00026150    0.09337343
     atom    2 type  1   force =    -0.00007022   -0.00034424   -0.17814404
     atom    3 type  2   force =     0.00004406   -0.00030368   -0.02033253
     atom    4 type  2   force =    -0.00003439   -0.00184865    0.05914213
     atom    5 type  2   force =    -0.01021066   -0.00060659    0.00751171
     atom    6 type  2   force =     0.01173673    0.00022201    0.00683964
     atom    7 type  1   force =    -0.00030762    0.00188094   -0.01239483
     atom    8 type  1   force =     0.00016534    0.00084036   -0.00451841
     atom    9 type  2   force =     0.00038608   -0.00015807   -0.00079828
     atom   10 type  2   force =    -0.00141767    0.00415314   -0.00108179
     atom   11 type  2   force =    -0.00087519   -0.00029973    0.00019989
     atom   12 type  2   force =     0.00088623   -0.00005385    0.00006084
     atom   13 type  1   force =    -0.00013058   -0.00022978    0.00011574
     atom   14 type  1   force =    -0.00004501   -0.00010303    0.00004209
     atom   15 type  2   force =    -0.00066627   -0.00003413   -0.00006782
     atom   16 type  2   force =    -0.00010739    0.00022740   -0.00041603
     atom   17 type  2   force =     0.00029050   -0.00070514   -0.00000416
     atom   18 type  2   force =     0.00081567   -0.00063695   -0.00029828
     atom   19 type  1   force =    -0.00080368    0.00014599    0.00144879
     atom   20 type  1   force =     0.00078773   -0.00076437    0.00041996
     atom   21 type  2   force =     0.00002062   -0.00010850    0.10397506
     atom   22 type  2   force =     0.00006464   -0.00065535    0.00029251
     atom   23 type  2   force =    -0.07041122   -0.00020123   -0.02692356
     atom   24 type  2   force =     0.07024502    0.00023821   -0.02697528
     atom   25 type  1   force =    -0.00005095   -0.00021565    0.09288495
     atom   26 type  1   force =    -0.00020376   -0.00054052   -0.17841330
     atom   27 type  2   force =     0.00007036   -0.00014133   -0.01931971
     atom   28 type  2   force =     0.00005546   -0.00157608    0.05815001
     atom   29 type  2   force =    -0.01091256   -0.00007094    0.00843357
     atom   30 type  2   force =     0.01231755    0.00011810    0.00771971
     atom   31 type  1   force =    -0.00029341    0.00668720   -0.01505895
     atom   32 type  1   force =     0.00011214   -0.00074433   -0.00472622
     atom   33 type  2   force =    -0.00022174    0.00035439   -0.00051413
     atom   34 type  2   force =    -0.00111294   -0.00023413   -0.00038895
     atom   35 type  2   force =    -0.00019807   -0.00012208   -0.00014965
     atom   36 type  2   force =     0.00027696   -0.00036676   -0.00024927
     atom   37 type  1   force =     0.00023519   -0.00018457    0.00022441
     atom   38 type  1   force =    -0.00011434    0.00067812    0.00064337
     atom   39 type  2   force =     0.00012961   -0.00112011    0.00102064
     atom   40 type  2   force =     0.00026384    0.00099909   -0.00061419
     atom   41 type  2   force =    -0.00020091    0.00018529   -0.00025821
     atom   42 type  2   force =     0.00118432    0.00018394   -0.00047930
     atom   43 type  1   force =    -0.00115022    0.00004267    0.00034360
     atom   44 type  1   force =     0.00037043   -0.00115959    0.00104225
     atom   45 type  2   force =     0.00001554   -0.00011382    0.10394416
     atom   46 type  2   force =    -0.07037565   -0.00013190   -0.02688849
     atom   47 type  2   force =     0.07023129    0.00027979   -0.02695450
     atom   48 type  3   force =     0.00149134   -0.00065459   -0.00067260
     atom   49 type  4   force =     0.00575388   -0.00421190   -0.00213505
     atom   50 type  5   force =    -0.00060662   -0.00033931    0.00035045
     atom   51 type  5   force =     0.00020012   -0.00085254   -0.00078871
     atom   52 type  5   force =    -0.00647236    0.00478951    0.00175133
     atom   53 type  5   force =     0.00014533    0.00018224   -0.00051768
     atom   54 type  5   force =     0.00006233   -0.00019563   -0.00069456
     atom   55 type  2   force =     0.00037501   -0.00086616    0.00060352
     atom   56 type  5   force =    -0.00074735   -0.00016368    0.00015174
     atom   57 type  5   force =    -0.00098903   -0.00088802    0.00009294

     Total force =     0.366437     Total SCF correction =     0.000604
  @ DRIVER MODE: Message from server: STATUS
  @ DRIVER MODE: Message from server: GETFORCE
  @ DRIVER MODE: Returning v,forces,stress,ensemble

     Writing output data file ./calc.save/
  @ DRIVER MODE: Message from server: EXIT
  @ DRIVE MODE: Exiting

     General routines

     Parallel routines

   This run was terminated on:   0:33:15  23Sep2021

   JOB DONE.