     Program PWSCF v.6.7GPU starts on 16Sep2021 at  1:17:19

     R & G space division:  proc/nbgrp/npool/nimage =      10
     Reading input from /storage/home/hcoda1/3/ntian30/research/carbon/CxH_vib/H2O_calc/ads_slab/CH2NHH2O_a/out_0029/pw.inp
Warning: card &CELL ignored
Warning: card   CELL_DYNAMICS='IPI', ignored
Warning: card / ignored

     Current dimensions of program PWSCF are:
     Max number of different atomic species (ntypx) = 10
     Max number of k-points (npk) =  40000
     Max angular momentum in pseudopotentials (lmaxx) =  3
     Presently no symmetry can be used with electric field

     Message from routine cell_base_init:
     DEPRECATED: use true lattice parameter, not A to a.u. conversion factor

     IMPORTANT: XC functional enforced from input :
     Exchange-correlation= BEEF-VDW
                           (   1   4  43  14   2   0   0)
     Any further DFT definition will be discarded
     Please, verify this is what you really want

  @ DRIVER MODE: Connecting to
 qe_1139763_2852608.sched-torque.pace.gatech.eduq67_8ptl_scratch
  using UNIX socket
  @ DRIVER MODE: Message from server: STATUS
  @ DRIVER MODE: Message from server: INIT
  @ DRIVER MODE: Receiving replica           0          -1
  @ DRIVER MODE: Receiving encoded integer          25
  @ DRIVER MODE:  SCF:  T  FORCE:  T  STRESS:  F  VC:  F  ENSEMBLE:  F
  @ DRIVER MODE:  SCF:  T  FORCE:  T  STRESS:  F  VC:  F  ENSEMBLE:  F

     Using Slab Decomposition

     bravais-lattice index     =            0
     lattice parameter (alat)  =       1.8897  a.u.
     unit-cell volume          =    6658.9804 (a.u.)^3
     number of atoms/cell      =           55
     number of atomic types    =            5
     number of electrons       =       398.00
     number of Kohn-Sham states=          209
     kinetic-energy cutoff     =      29.3995  Ry
     charge density cutoff     =     293.9946  Ry
     scf convergence threshold =      7.3E-08
     mixing beta               =       0.0500
     number of iterations used =            8  plain     mixing
     Exchange-correlation= BEEF-VDW
                           (   1   4  43  14   2   0   0)

     celldm(1)=   1.889726  celldm(2)=   0.000000  celldm(3)=   0.000000
     celldm(4)=   0.000000  celldm(5)=   0.000000  celldm(6)=   0.000000

     crystal axes: (cart. coord. in units of alat)
               a(1) = (   6.579727   0.000000   0.000000 )
               a(2) = (  -0.000775   5.961596   0.000000 )
               a(3) = (   0.000000   0.000000  25.155947 )

     reciprocal axes: (cart. coord. in units 2 pi/alat)
               b(1) = (  0.151982  0.000020  0.000000 )
               b(2) = (  0.000000  0.167740  0.000000 )
               b(3) = (  0.000000  0.000000  0.039752 )

     PseudoPot. # 1 for Ti read from file:
     /storage/coda1/p-amedford6/0/shared/rich_project_chbe-medford/medford-share/data/pseudos_module/espresso/nninc/pbe/van/Ti.UPF
     MD5 check sum: 8e4df49b7f0d34bbd5052bf3f5ea0213
     Pseudo is Ultrasoft, Zval = 12.0
     Generated by new atomic code, or converted to UPF format
     Using radial grid of  851 points,  6 beta functions with:
                l(1) =   0
                l(2) =   0
                l(3) =   1
                l(4) =   1
                l(5) =   2
                l(6) =   2
     Q(r) pseudized with  8 coefficients,  rinner =    1.000   1.000   1.000
                                                       1.000   1.000

     PseudoPot. # 2 for O  read from file:
     /storage/coda1/p-amedford6/0/shared/rich_project_chbe-medford/medford-share/data/pseudos_module/espresso/nninc/pbe/van/O.UPF
     MD5 check sum: 78c19812648e8988a0fe644b0f25305e
     Pseudo is Ultrasoft, Zval =  6.0
     Generated by new atomic code, or converted to UPF format
     Using radial grid of  737 points,  4 beta functions with:
                l(1) =   0
                l(2) =   0
                l(3) =   1
                l(4) =   1
     Q(r) pseudized with  8 coefficients,  rinner =    0.800   0.800   0.800

     PseudoPot. # 3 for N  read from file:
     /storage/coda1/p-amedford6/0/shared/rich_project_chbe-medford/medford-share/data/pseudos_module/espresso/nninc/pbe/van/N.UPF
     MD5 check sum: 90d10febe142ad51ac9d5be1deb811c4
     Pseudo is Ultrasoft, Zval =  5.0
     Generated by new atomic code, or converted to UPF format
     Using radial grid of  729 points,  4 beta functions with:
                l(1) =   0
                l(2) =   0
                l(3) =   1
                l(4) =   1
     Q(r) pseudized with  8 coefficients,  rinner =    0.800   0.800   0.800

     PseudoPot. # 4 for C  read from file:
     /storage/coda1/p-amedford6/0/shared/rich_project_chbe-medford/medford-share/data/pseudos_module/espresso/nninc/pbe/van/C.UPF
     MD5 check sum: 1a69bf6b8db32088f5b2163dbdb77a27
     Pseudo is Ultrasoft, Zval =  4.0
     Generated by new atomic code, or converted to UPF format
     Using radial grid of  721 points,  4 beta functions with:
                l(1) =   0
                l(2) =   0
                l(3) =   1
                l(4) =   1
     Q(r) pseudized with  8 coefficients,  rinner =    0.800   0.800   0.800

     PseudoPot. # 5 for H  read from file:
     /storage/coda1/p-amedford6/0/shared/rich_project_chbe-medford/medford-share/data/pseudos_module/espresso/nninc/pbe/van/H.UPF
     MD5 check sum: b5ee9d7bfd3a09ee7748110bda690ff7
     Pseudo is Ultrasoft, Zval =  1.0
     Generated by new atomic code, or converted to UPF format
     Using radial grid of  615 points,  1 beta functions with:
                l(1) =   0
     Q(r) pseudized with  8 coefficients,  rinner =    0.800

     atomic species   valence    mass     pseudopotential
        Ti1           12.00    47.86700     Ti( 1.00)
        O1             6.00    15.99900     O ( 1.00)
        N1             5.00    14.00700     N ( 1.00)
        C1             4.00    12.01100     C ( 1.00)
        H1             1.00     1.00800     H ( 1.00)

     No symmetry found

   Cartesian axes

     site n.     atom                  positions (alat units)
         1           Ti1 tau(   1) = (   0.0004258   2.9801865   6.0000000  )
         2           Ti1 tau(   2) = (   3.2906075   1.4906267   6.0002472  )
         3           O1  tau(   3) = (   0.0006271   0.0005054   7.9858123  )
         4           O1  tau(   4) = (   3.2906025   0.0005020   7.3038282  )
         5           O1  tau(   5) = (   4.5942328   1.4918067   9.2879030  )
         6           O1  tau(   6) = (   1.9868534   1.4903216   9.2879459  )
         7           Ti1 tau(   7) = (   3.2907910   2.8959150   9.1758416  )
         8           Ti1 tau(   8) = (   0.0015273   1.4827037   9.2680791  )
         9           O1  tau(   9) = (   3.2898722   0.0008919  11.3582996  )
        10           O1  tau(  10) = (   0.0116148   5.9584955  10.6183126  )
        11           O1  tau(  11) = (   1.2941175   1.4997011  12.6415926  )
        12           O1  tau(  12) = (   5.2900041   1.4988670  12.6311679  )
        13           Ti1 tau(  13) = (   0.0286627   2.9677426  12.5549903  )
        14           Ti1 tau(  14) = (   3.3305619   1.4761135  12.5169476  )
        15           O1  tau(  15) = (   0.0011522   0.0488603  14.6479508  )
        16           O1  tau(  16) = (   3.3026717   0.0283160  13.9913086  )
        17           O1  tau(  17) = (   4.5493611   1.5432082  16.1208237  )
        18           O1  tau(  18) = (   2.0202358   1.5417912  16.1150647  )
        19           Ti1 tau(  19) = (   3.2887705   3.0075965  15.7001020  )
        20           Ti1 tau(  20) = (   0.0091052   1.4341126  16.0176487  )
        21           O1  tau(  21) = (   3.2904802   0.0005063   4.7018136  )
        22           O1  tau(  22) = (   6.5755782   5.8726442  17.1894482  )
        23           O1  tau(  23) = (   1.3043587   1.4918075   6.0039043  )
        24           O1  tau(  24) = (   5.2767064   1.4903225   6.0039473  )
        25           Ti1 tau(  25) = (   0.0000382   5.9609847   6.0000000  )
        26           Ti1 tau(  26) = (   3.2902200   4.4714249   6.0002472  )
        27           O1  tau(  27) = (   0.0002396   2.9813036   7.9858123  )
        28           O1  tau(  28) = (   3.2902150   2.9813002   7.3038282  )
        29           O1  tau(  29) = (   4.5938453   4.4726049   9.2879030  )
        30           O1  tau(  30) = (   1.9864658   4.4711199   9.2879459  )
        31           Ti1 tau(  31) = (   3.2891106   5.8743827   9.1763621  )
        32           Ti1 tau(  32) = (   0.0006254   4.4649316   9.2693709  )
        33           O1  tau(  33) = (   3.2934734   2.9861727  11.3537610  )
        34           O1  tau(  34) = (   0.0092240   2.9805883  10.6323155  )
        35           O1  tau(  35) = (   1.2909626   4.4766429  12.6619247  )
        36           O1  tau(  36) = (   5.2900193   4.4803912  12.6490267  )
        37           Ti1 tau(  37) = (   0.0281377   5.9553508  12.5047683  )
        38           Ti1 tau(  38) = (   3.3302429   4.4653876  12.5079491  )
        39           O1  tau(  39) = (   6.5693844   2.9599090  14.8264494  )
        40           O1  tau(  40) = (   3.2969629   2.9925989  13.9157470  )
        41           O1  tau(  41) = (   4.5484520   4.4472025  16.1223275  )
        42           O1  tau(  42) = (   2.0280084   4.4594140  16.0867804  )
        43           Ti1 tau(  43) = (   3.2969344   0.0408593  15.8189202  )
        44           Ti1 tau(  44) = (   0.0203989   4.6198729  15.8219907  )
        45           O1  tau(  45) = (   3.2900926   2.9813045   4.7018136  )
        46           O1  tau(  46) = (   1.3039711   4.4726057   6.0039043  )
        47           O1  tau(  47) = (   5.2763189   4.4711207   6.0039473  )
        48           N1  tau(  48) = (   6.4956655   2.7544209  17.8339637  )
        49           C1  tau(  49) = (   0.7364952   2.7663736  18.8366375  )
        50           H1  tau(  50) = (   0.4484493   3.1383336  19.8159577  )
        51           H1  tau(  51) = (   1.7396475   2.3816028  18.7013769  )
        52           H1  tau(  52) = (   5.5670006   3.0916272  18.0661613  )
        53           O1  tau(  53) = (   3.3072362   0.1002980  18.2711691  )
        54           H1  tau(  54) = (   4.1501014   5.6086691  18.4387546  )
        55           H1  tau(  55) = (   2.5909652   5.4478326  18.5068232  )

     number of k points=    10  Fermi-Dirac smearing, width (Ry)=  0.0073
                       cart. coord. in units 2pi/alat
        k(    1) = (   0.0000000   0.0000000   0.0000000), wk =   0.1250000
        k(    2) = (   0.0000000   0.0419351   0.0000000), wk =   0.2500000
        k(    3) = (   0.0000000  -0.0838702   0.0000000), wk =   0.1250000
        k(    4) = (   0.0379955   0.0000049   0.0000000), wk =   0.2500000
        k(    5) = (   0.0379955   0.0419400   0.0000000), wk =   0.2500000
        k(    6) = (   0.0379955  -0.0838652   0.0000000), wk =   0.2500000
        k(    7) = (   0.0379955  -0.0419301   0.0000000), wk =   0.2500000
        k(    8) = (  -0.0759910  -0.0000099   0.0000000), wk =   0.1250000
        k(    9) = (  -0.0759910   0.0419252   0.0000000), wk =   0.2500000
        k(   10) = (  -0.0759910  -0.0838800   0.0000000), wk =   0.1250000

     Initial potential from superposition of free atoms

     starting charge  381.99915, renormalised to  398.00000

     negative rho (up, down):  1.643E-02 0.000E+00

     %%%%%%%%%%%%%%%%%%%%%%%%%%%%%%%%%%%%%%%%%%%%%%%%%%%%%%%%%%%%%%%%%%%%%%%%
     %                                                                      %
     % You are using vdW-DF, which was implemented by the Thonhauser group. %
     % Please cite the following two papers that made this development      %
     % possible and the two reviews that describe the various versions:     %
     %                                                                      %
     %   T. Thonhauser et al., PRL 115, 136402 (2015).                      %
     %   T. Thonhauser et al., PRB 76, 125112 (2007).                       %
     %   K. Berland et al., Rep. Prog. Phys. 78, 066501 (2015).             %
     %   D.C. Langreth et al., J. Phys.: Condens. Matter 21, 084203 (2009). %
     %                                                                      %
     %                                                                      %
     % If you are calculating the stress with vdW-DF, please also cite:     %
     %                                                                      %
     %   R. Sabatini et al., J. Phys.: Condens. Matter 24, 424209 (2012).   %
     %                                                                      %
     %%%%%%%%%%%%%%%%%%%%%%%%%%%%%%%%%%%%%%%%%%%%%%%%%%%%%%%%%%%%%%%%%%%%%%%%

     Adding external electric field

     Computed dipole along edir(3) :
        Dipole              -10.3999 Ry au,        -26.4340 Debye
        Dipole field         -0.0196 Ry au,

        Potential amp.        1.8193 Ry
        Total length         46.3494 bohr

     Starting wfcs are  301 atomic wfcs
  @ DRIVER MODE: Message from server: STATUS
  @ DRIVER MODE: Message from server: POSDATA
  @ DRIVER MODE: Reading and sharing cell
  @ DRIVER MODE: Reading and sharing positions
  @ DRIVER MODE: Received positions

     Self-consistent Calculation

     iteration #  1     ecut=    29.40 Ry     beta= 0.05
     Davidson diagonalization with overlap
     c_bands:  3 eigenvalues not converged
     c_bands:  3 eigenvalues not converged
     c_bands:  1 eigenvalues not converged
     c_bands:  4 eigenvalues not converged
     c_bands:  4 eigenvalues not converged
     c_bands:  4 eigenvalues not converged
     c_bands:  2 eigenvalues not converged
     c_bands:  3 eigenvalues not converged
     c_bands:  2 eigenvalues not converged
     ethr =  1.00E-05,  avg # of iterations = 19.9

[...]

     total energy              =   -2485.31659592 Ry
     estimated scf accuracy    <    5245.64598233 Ry

     iteration #  2     ecut=    29.40 Ry     beta= 0.05
     Davidson diagonalization with overlap
     ethr =  1.00E-02,  avg # of iterations = 24.7

[...]

     iteration # 67     ecut=    29.40 Ry     beta= 0.05
     Davidson diagonalization with overlap
     c_bands:  1 eigenvalues not converged
     ethr =  1.26E-07,  avg # of iterations = 14.8

[...]

     total energy              =   -2953.94959939 Ry
     estimated scf accuracy    <       0.00000017 Ry

     iteration # 82     ecut=    29.40 Ry     beta= 0.05
     Davidson diagonalization with overlap
     ethr =  4.17E-11,  avg # of iterations =  2.4

     negative rho (up, down):  1.568E-02 0.000E+00

     Adding external electric field

     Computed dipole along edir(3) :
        Dipole                1.2798 Ry au,          3.2529 Debye
        Dipole field          0.0024 Ry au,

        Potential amp.       -0.2239 Ry
        Total length         46.3494 bohr

     End of self-consistent calculation

          k = 0.0000 0.0000 0.0000 ( 18029 PWs)   bands (ev):

   -55.3930 -55.3734 -55.3569 -55.3403 -55.3393 -55.2731 -55.2286 -55.2082
   -55.1984 -55.1898 -55.1726 -55.1658 -55.1227 -54.9951 -54.3835 -54.3494
   -31.9533 -31.8627 -31.7610 -31.7467 -31.7012 -31.6984 -31.6967 -31.6634
   -31.6566 -31.6236 -31.6179 -31.6068 -31.5872 -31.5700 -31.5694 -31.5351
   -31.5324 -31.5261 -31.5115 -31.5087 -31.4843 -31.4566 -31.4535 -31.4363
   -31.4305 -31.4073 -31.4061 -31.4031 -31.4012 -31.3947 -31.3752 -31.3686
   -31.3626 -31.3580 -31.3488 -31.3317 -31.3295 -31.3230 -31.3056 -31.2945
   -31.2218 -31.1087 -30.7919 -30.7001 -30.6779 -30.6084 -30.5217 -30.4107
   -19.1647 -16.2512 -16.1577 -15.9152 -15.7344 -15.6458 -15.5838 -15.3945
   -15.3531 -15.2623 -15.1794 -15.0879 -15.0335 -14.9898 -14.9808 -14.9589
   -14.9331 -14.9231 -14.8852 -14.8706 -14.8690 -14.8221 -14.8199 -14.7811
   -14.7723 -14.7283 -14.7071 -14.5975 -14.5416 -14.4874 -14.0599 -12.8857
   -12.7686  -9.1123  -6.9811  -5.9853  -4.4752  -3.5512  -3.4019  -3.3899
    -3.3034  -3.2969  -3.2291  -3.1185  -2.9291  -2.7751  -2.6884  -2.6456
    -2.5941  -2.5699  -2.5114  -2.4569  -2.3622  -2.2907  -2.2607  -2.2280
    -2.2104  -2.1912  -2.1676  -2.1446  -2.1038  -2.0795  -2.0428  -1.9406
    -1.8545  -1.8011  -1.7863  -1.7158  -1.6930  -1.6872  -1.6784  -1.6691
    -1.6651  -1.6563  -1.6034  -1.5795  -1.5385  -1.4109  -1.3380  -1.2316
    -1.1213  -1.0726  -1.0306  -1.0107  -0.9258  -0.9203  -0.8653  -0.7890
    -0.7559  -0.7152  -0.7020  -0.5751  -0.4930  -0.4823  -0.4313  -0.3575
    -0.2994  -0.2589  -0.2024  -0.1780  -0.1556  -0.1386   0.0017   0.0339
     0.0777   0.1055   0.1338   0.2092   0.2460   0.3080   0.3562   0.3630
     0.4110   0.4976   0.5113   0.5610   0.5652   0.6099   0.6288   0.7252
     0.7595   0.7682   0.8339   0.8678   1.0105   1.2266   1.2340   1.2813
     1.5543   1.6161   1.6394   1.8264   2.2134   2.2606   3.7006   3.7915
     3.8305   3.8490   3.8618   3.9363   4.0752   4.1911   4.1954   4.2253
     4.2387

[...]

          k = 0.0380-0.0419 0.0000 ( 17876 PWs)   bands (ev):

[...]

          k =-0.0760-0.0000 0.0000 ( 17886 PWs)   bands (ev):

[...]

          k =-0.0760-0.0839 0.0000 ( 17948 PWs)   bands (ev):

   -55.3768 -55.3729 -55.3564 -55.3561 -55.3382 -55.2651 -55.2366 -55.1922
   -55.1916 -55.1871 -55.1831 -55.1823 -55.1204 -54.9974 -54.3664 -54.3663
   -31.7631 -31.7521 -31.6779 -31.6777 -31.6605 -31.6499 -31.6489 -31.6487
   -31.6212 -31.6095 -31.5912 -31.5871 -31.5795 -31.5610 -31.5413 -31.5268
   -31.5254 -31.5224 -31.5179 -31.5131 -31.5074 -31.4950 -31.4759 -31.4755
   -31.4691 -31.4676 -31.4658 -31.4357 -31.4246 -31.4169 -31.4066 -31.4026
   -31.4019 -31.4015 -31.3902 -31.3843 -31.3625 -31.3607 -31.3401 -31.2906
   -31.2252 -31.1945 -30.6906 -30.6905 -30.6045 -30.6044 -30.5651 -30.5651
   -19.1639 -16.1921 -15.6521 -15.5928 -15.5225 -15.3677 -15.3616 -15.3366
   -15.2749 -15.1762 -15.1634 -15.1307 -15.1233 -15.0884 -15.0772 -15.0566
   -15.0361 -14.9627 -14.9546 -14.9500 -14.9273 -14.8959 -14.8811 -14.8723
   -14.8503 -14.8457 -14.7901 -14.7431 -14.7402 -14.5492 -14.3550 -12.8703
   -12.8701  -9.1175  -6.9793  -5.9835  -4.4578  -3.3313  -2.9275  -2.7970
    -2.7454  -2.5955  -2.5683  -2.5209  -2.4633  -2.4033  -2.3758  -2.3574
    -2.3086  -2.3028  -2.2558  -2.2423  -2.2215  -2.2203  -2.2113  -2.1648
    -2.1485  -2.1403  -2.1217  -2.1064  -2.0955  -2.0761  -2.0484  -2.0388
    -2.0047  -1.9743  -1.9608  -1.9383  -1.8840  -1.7681  -1.7383  -1.6952
    -1.5840  -1.5761  -1.5695  -1.5253  -1.4821  -1.4757  -1.4484  -1.4189
    -1.3505  -1.3214  -1.1310  -1.1187  -1.1047  -1.0395  -1.0131  -0.9154
    -0.8970  -0.8296  -0.8125  -0.7976  -0.7114  -0.6785  -0.5739  -0.5651
    -0.5498  -0.5143  -0.4081  -0.3603  -0.3528  -0.3471  -0.3269  -0.2434
    -0.2285  -0.2106  -0.1765  -0.1484  -0.1151  -0.1015  -0.0181   0.1519
     0.1617   0.2494   0.3491   0.4438   0.5643   0.6348   0.6438   0.6987
     0.7419   0.8232   0.8667   0.9047   0.9240   1.0352   1.0674   1.0835
     1.0900   1.1453   1.9986   1.9999   2.0805   2.0808   3.7813   3.9311
     3.9999   4.0173   4.0572   4.1830   4.2221   4.2739   4.2757   4.2809
     4.3697

     the Fermi energy is     3.7464 ev

!    total energy              =   -2953.94960526 Ry
     estimated scf accuracy    <       0.00000007 Ry
     smearing contrib. (-TS)   =      -0.03632130 Ry
     internal energy E=F+TS    =   -2953.91328396 Ry

     The total energy is F=E-TS. E is the sum of the following terms:
     one-electron contribution =  -24166.23537598 Ry
     hartree contribution      =   12176.49507148 Ry
     xc contribution           =    -488.89600455 Ry
     ewald contribution        =    9524.71993426 Ry
     electric field correction =       0.00309083 Ry

     convergence has been achieved in  82 iterations

     Forces acting on atoms (cartesian axes, Ry/au):

     atom    1 type  1   force =     0.00006311   -0.00021473    0.09432289
     atom    2 type  1   force =    -0.00029512   -0.00033086   -0.17715597
     atom    3 type  2   force =     0.00001644   -0.00013294   -0.02178402
     atom    4 type  2   force =    -0.00002263   -0.00175222    0.05661836
     atom    5 type  2   force =    -0.01065358   -0.00110665    0.00625577
     atom    6 type  2   force =     0.01215009   -0.00035896    0.00530323
     atom    7 type  1   force =    -0.00069395    0.00164277   -0.01075882
     atom    8 type  1   force =     0.00018627    0.00660613    0.00669898
     atom    9 type  2   force =     0.00024884   -0.00039512   -0.00053609
     atom   10 type  2   force =    -0.00109478    0.00064987   -0.01012084
     atom   11 type  2   force =    -0.00025756   -0.00016183   -0.00021015
     atom   12 type  2   force =     0.00037663   -0.00023479    0.00002506
     atom   13 type  1   force =     0.00019826   -0.00051188    0.00120346
     atom   14 type  1   force =    -0.00008340    0.00039774    0.00041246
     atom   15 type  2   force =     0.00008221    0.00010735    0.00115801
     atom   16 type  2   force =    -0.00017184   -0.00066510    0.00025514
     atom   17 type  2   force =    -0.00001747   -0.00001595   -0.00015700
     atom   18 type  2   force =    -0.00094184   -0.00003910    0.00045130
     atom   19 type  1   force =     0.00094218   -0.00041571   -0.00059913
     atom   20 type  1   force =    -0.00115150    0.00075488   -0.00044389
     atom   21 type  2   force =     0.00000543   -0.00004413    0.10368187
     atom   22 type  2   force =    -0.00004091    0.00047067    0.00064103
     atom   23 type  2   force =    -0.07088803   -0.00014788   -0.02715308
     atom   24 type  2   force =     0.07073374    0.00029261   -0.02722155
     atom   25 type  1   force =     0.00000866   -0.00014168    0.09408293
     atom   26 type  1   force =    -0.00022302   -0.00036197   -0.17731146
     atom   27 type  2   force =     0.00005453   -0.00032239   -0.02070194
     atom   28 type  2   force =     0.00005039   -0.00136546    0.05586260
     atom   29 type  2   force =    -0.01087984    0.00029260    0.00603767
     atom   30 type  2   force =     0.01228148    0.00055097    0.00507417
     atom   31 type  1   force =    -0.00056829    0.00495153   -0.01402081
     atom   32 type  1   force =     0.00030551   -0.00743964    0.00637116
     atom   33 type  2   force =     0.00025182    0.00013006   -0.00020238
     atom   34 type  2   force =    -0.00066546    0.00182150   -0.00595084
     atom   35 type  2   force =    -0.00001368   -0.00024715    0.00003808
     atom   36 type  2   force =     0.00024290   -0.00032147    0.00019937
     atom   37 type  1   force =     0.00022660    0.00090485    0.00051577
     atom   38 type  1   force =    -0.00009380    0.00005590    0.00066750
     atom   39 type  2   force =     0.00031195    0.00028151    0.00004932
     atom   40 type  2   force =    -0.00011672   -0.00037189    0.00058582
     atom   41 type  2   force =    -0.00048393   -0.00036465   -0.00029293
     atom   42 type  2   force =    -0.00023395    0.00011914    0.00035070
     atom   43 type  1   force =     0.00066637   -0.00139578   -0.00060900
     atom   44 type  1   force =    -0.00091788    0.00047133   -0.00164039
     atom   45 type  2   force =     0.00000476   -0.00009870    0.10366321
     atom   46 type  2   force =    -0.07091393   -0.00009420   -0.02715652
     atom   47 type  2   force =     0.07075553    0.00033438   -0.02720591
     atom   48 type  3   force =     0.00532609   -0.00212246   -0.00241040
     atom   49 type  4   force =    -0.00141645    0.00008084   -0.00003097
     atom   50 type  5   force =    -0.00007002   -0.00012694   -0.00013486
     atom   51 type  5   force =     0.00025359   -0.00043976   -0.00019629
     atom   52 type  5   force =    -0.00403444    0.00231658    0.00318240
     atom   53 type  2   force =     0.00088088   -0.00121839    0.00069863
     atom   54 type  5   force =    -0.00036665    0.00047743   -0.00000374
     atom   55 type  5   force =     0.00068645   -0.00075022   -0.00039789

     Total force =     0.365717     Total SCF correction =     0.000479
  @ DRIVER MODE: Message from server: STATUS
  @ DRIVER MODE: Message from server: GETFORCE
  @ DRIVER MODE: Returning v,forces,stress,ensemble

     Writing output data file ./calc.save/
  @ DRIVER MODE: Message from server: EXIT
  @ DRIVE MODE: Exiting

     General routines

     Parallel routines

   This run was terminated on:   1:38:31  16Sep2021

   JOB DONE.