     Program PWSCF v.6.7GPU starts on 18Oct2021 at 18:54: 7

     R & G space division:  proc/nbgrp/npool/nimage =       8
     Reading input from /storage/home/hcoda1/3/ntian30/research/carbon/CxH_vib/Thiel_calc/ads_slab/HNNH_perslab/out_0014/pw.inp
Warning: card &CELL ignored
Warning: card   CELL_DYNAMICS='IPI', ignored
Warning: card / ignored

     Current dimensions of program PWSCF are:
     Max number of different atomic species (ntypx) = 10
     Max number of k-points (npk) =  40000
     Max angular momentum in pseudopotentials (lmaxx) =  3
     Presently no symmetry can be used with electric field

     Message from routine cell_base_init:
     DEPRECATED: use true lattice parameter, not A to a.u. conversion factor

     IMPORTANT: XC functional enforced from input :
     Exchange-correlation= BEEF-VDW
                           (   1   4  43  14   2   0   0)
     Any further DFT definition will be discarded
     Please, verify this is what you really want

  @ DRIVER MODE: Connecting to
 qe_1139763_3255131.sched-torque.pace.gatech.edukzc9erki_scratch
  using UNIX socket
  @ DRIVER MODE: Message from server: STATUS
  @ DRIVER MODE: Message from server: INIT
  @ DRIVER MODE: Receiving replica           0          -1
  @ DRIVER MODE: Receiving encoded integer          25
  @ DRIVER MODE:  SCF:  T  FORCE:  T  STRESS:  F  VC:  F  ENSEMBLE:  F
  @ DRIVER MODE:  SCF:  T  FORCE:  T  STRESS:  F  VC:  F  ENSEMBLE:  F

     Using Slab Decomposition

     bravais-lattice index     =            0
     lattice parameter (alat)  =       1.8897  a.u.
     unit-cell volume          =    9988.4706 (a.u.)^3
     number of atoms/cell      =           57
     number of atomic types    =            4
     number of electrons       =       438.00
     number of Kohn-Sham states=          229
     kinetic-energy cutoff     =      29.3995  Ry
     charge density cutoff     =     293.9946  Ry
     scf convergence threshold =      7.3E-08
     mixing beta               =       0.0500
     number of iterations used =            8  plain     mixing
     Exchange-correlation= BEEF-VDW
                           (   1   4  43  14   2   0   0)

     celldm(1)=   1.889726  celldm(2)=   0.000000  celldm(3)=   0.000000
     celldm(4)=   0.000000  celldm(5)=   0.000000  celldm(6)=   0.000000

     crystal axes: (cart. coord. in units of alat)
               a(1) = (   6.579727   0.000000   0.000000 )
               a(2) = (  -0.001163   8.942395   0.000000 )
               a(3) = (   0.000000   0.000000  25.155947 )

     reciprocal axes: (cart. coord. in units 2 pi/alat)
               b(1) = (  0.151982  0.000020  0.000000 )
               b(2) = (  0.000000  0.111827  0.000000 )
               b(3) = (  0.000000  0.000000  0.039752 )

     PseudoPot. # 1 for O  read from file:
     /storage/coda1/p-amedford6/0/shared/rich_project_chbe-medford/medford-share/data/pseudos_module/espresso/nninc/pbe/van/O.UPF
     MD5 check sum: 78c19812648e8988a0fe644b0f25305e
     Pseudo is Ultrasoft, Zval =  6.0
     Generated by new atomic code, or converted to UPF format
     Using radial grid of  737 points,  4 beta functions with:
                l(1) =   0
                l(2) =   0
                l(3) =   1
                l(4) =   1
     Q(r) pseudized with  8 coefficients,  rinner =    0.800   0.800   0.800

     PseudoPot. # 2 for Ti read from file:
     /storage/coda1/p-amedford6/0/shared/rich_project_chbe-medford/medford-share/data/pseudos_module/espresso/nninc/pbe/van/Ti.UPF
     MD5 check sum: 8e4df49b7f0d34bbd5052bf3f5ea0213
     Pseudo is Ultrasoft, Zval = 12.0
     Generated by new atomic code, or converted to UPF format
     Using radial grid of  851 points,  6 beta functions with:
                l(1) =   0
                l(2) =   0
                l(3) =   1
                l(4) =   1
                l(5) =   2
                l(6) =   2
     Q(r) pseudized with  8 coefficients,  rinner =    1.000   1.000   1.000
                                                       1.000   1.000

     PseudoPot. # 3 for H  read from file:
     /storage/coda1/p-amedford6/0/shared/rich_project_chbe-medford/medford-share/data/pseudos_module/espresso/nninc/pbe/van/H.UPF
     MD5 check sum: b5ee9d7bfd3a09ee7748110bda690ff7
     Pseudo is Ultrasoft, Zval =  1.0
     Generated by new atomic code, or converted to UPF format
     Using radial grid of  615 points,  1 beta functions with:
                l(1) =   0
     Q(r) pseudized with  8 coefficients,  rinner =    0.800

     PseudoPot. # 4 for N  read from file:
     /storage/coda1/p-amedford6/0/shared/rich_project_chbe-medford/medford-share/data/pseudos_module/espresso/nninc/pbe/van/N.UPF
     MD5 check sum: 90d10febe142ad51ac9d5be1deb811c4
     Pseudo is Ultrasoft, Zval =  5.0
     Generated by new atomic code, or converted to UPF format
     Using radial grid of  729 points,  4 beta functions with:
                l(1) =   0
                l(2) =   0
                l(3) =   1
                l(4) =   1
     Q(r) pseudized with  8 coefficients,  rinner =    0.800   0.800   0.800

     atomic species   valence    mass     pseudopotential
        O1             6.00    15.99900     O ( 1.00)
        Ti1           12.00    47.86700     Ti( 1.00)
        H1             1.00     1.00800     H ( 1.00)
        N1             5.00    14.00700     N ( 1.00)

     No symmetry found

   Cartesian axes

     site n.     atom                  positions (alat units)
         1           O1  tau(   1) = (   0.0007354   0.0005023  10.5931620  )
         2           O1  tau(   2) = (   3.2896598   8.9340738  13.9086047  )
         3           O1  tau(   3) = (   6.5779785   8.9335072  17.2267929  )
         4           O1  tau(   4) = (   0.0006271   0.0005054   7.9858123  )
         5           O1  tau(   5) = (   3.2892818   8.9168625  11.1887994  )
         6           O1  tau(   6) = (   0.0000953   0.0200859  14.6187425  )
         7           O1  tau(   7) = (   1.9868534   1.4903216   9.2879459  )
         8           O1  tau(   8) = (   5.2299496   1.5903429  12.5639559  )
         9           O1  tau(   9) = (   2.0057315   1.6103507  16.0678580  )
        10           Ti1 tau(  10) = (   0.0007404   1.4906270   9.2895810  )
        11           Ti1 tau(  11) = (   3.2903845   1.3415648  12.5012035  )
        12           Ti1 tau(  12) = (   0.0001950   1.2451541  15.9845895  )
        13           O1  tau(  13) = (   4.5942328   1.4918067   9.2879030  )
        14           O1  tau(  14) = (   1.3504490   1.5899334  12.5641350  )
        15           O1  tau(  15) = (   4.5723762   1.6092463  16.0679920  )
        16           Ti1 tau(  16) = (   3.2902859   2.9801868   9.2893338  )
        17           Ti1 tau(  17) = (  -0.0000381   2.8017340  12.4757424  )
        18           Ti1 tau(  18) = (   3.2890522   2.9119407  15.7046117  )
        19           O1  tau(  19) = (   0.0003479   2.9813005  10.5931620  )
        20           O1  tau(  20) = (   3.2896940   2.9634103  13.8950687  )
        21           O1  tau(  21) = (   0.0002396   2.9813036   7.9858123  )
        22           O1  tau(  22) = (   3.2899864   2.9652420  11.1892519  )
        23           O1  tau(  23) = (  -0.0000843   3.0239999  14.5506518  )
        24           O1  tau(  24) = (   1.9864658   4.4711199   9.2879459  )
        25           O1  tau(  25) = (   5.2265999   4.6000300  12.5825491  )
        26           O1  tau(  26) = (   2.0173024   4.5375175  16.0298170  )
        27           Ti1 tau(  27) = (   0.0003529   4.4714252   9.2895810  )
        28           Ti1 tau(  28) = (   3.2900658   4.3228872  12.5050252  )
        29           Ti1 tau(  29) = (   0.0015352   4.3959346  15.6897578  )
        30           O1  tau(  30) = (   4.5938453   4.4726049   9.2879030  )
        31           O1  tau(  31) = (   1.3532953   4.6000771  12.5829012  )
        32           O1  tau(  32) = (   4.5620845   4.5358613  16.0300787  )
        33           Ti1 tau(  33) = (   3.2898983   5.9609850   9.2893338  )
        34           Ti1 tau(  34) = (  -0.0003676   5.8120669  12.4544080  )
        35           Ti1 tau(  35) = (   3.2921900   5.8807914  15.7090278  )
        36           O1  tau(  36) = (  -0.0000397   5.9620987  10.5931620  )
        37           O1  tau(  37) = (   3.2903388   5.9631658  13.9136923  )
        38           O1  tau(  38) = (  -0.0000761   5.9602876  17.3216368  )
        39           O1  tau(  39) = (  -0.0001480   5.9621018   7.9858123  )
        40           O1  tau(  40) = (   3.2896813   5.9437884  11.1873515  )
        41           O1  tau(  41) = (  -0.0004454   6.0514558  14.6911356  )
        42           O1  tau(  42) = (   1.9860782   7.4519181   9.2879459  )
        43           O1  tau(  43) = (   5.2331690   7.5528723  12.5749626  )
        44           O1  tau(  44) = (   2.0197658   7.5481525  16.0489791  )
        45           Ti1 tau(  45) = (  -0.0000347   7.4522234   9.2895810  )
        46           Ti1 tau(  46) = (   3.2899396   7.3045924  12.4973202  )
        47           Ti1 tau(  47) = (   0.0022254   7.3576980  16.0878887  )
        48           O1  tau(  48) = (   4.5934577   7.4534031   9.2879030  )
        49           O1  tau(  49) = (   1.3462119   7.5526743  12.5754142  )
        50           O1  tau(  50) = (   4.5579802   7.5455642  16.0489991  )
        51           Ti1 tau(  51) = (   3.2895107   8.9417832   9.2893338  )
        52           Ti1 tau(  52) = (  -0.0004108   8.7719052  12.5005688  )
        53           Ti1 tau(  53) = (   3.2909707   8.8596889  15.7095313  )
        54           H1  tau(  54) = (   6.5770345   5.6246256  18.2315160  )
        55           N1  tau(  55) = (   6.5773047   3.3138987  18.5316601  )
        56           N1  tau(  56) = (   0.0091164   3.1068121  17.3210979  )
        57           H1  tau(  57) = (   6.5767427   2.4184016  19.0716447  )

     number of k points=    10  Fermi-Dirac smearing, width (Ry)=  0.0073
                       cart. coord. in units 2pi/alat
        k(    1) = (   0.0000000   0.0000000   0.0000000), wk =   0.1250000
        k(    2) = (   0.0000000   0.0279567   0.0000000), wk =   0.2500000
        k(    3) = (   0.0000000  -0.0559134   0.0000000), wk =   0.1250000
        k(    4) = (   0.0379955   0.0000049   0.0000000), wk =   0.2500000
        k(    5) = (   0.0379955   0.0279617   0.0000000), wk =   0.2500000
        k(    6) = (   0.0379955  -0.0559085   0.0000000), wk =   0.2500000
        k(    7) = (   0.0379955  -0.0279518   0.0000000), wk =   0.2500000
        k(    8) = (  -0.0759910  -0.0000099   0.0000000), wk =   0.1250000
        k(    9) = (  -0.0759910   0.0279468   0.0000000), wk =   0.2500000
        k(   10) = (  -0.0759910  -0.0559233   0.0000000), wk =   0.1250000

     Initial potential from superposition of free atoms

     starting charge  419.99912, renormalised to  438.00000

     negative rho (up, down):  3.865E-02 0.000E+00

     %%%%%%%%%%%%%%%%%%%%%%%%%%%%%%%%%%%%%%%%%%%%%%%%%%%%%%%%%%%%%%%%%%%%%%%%
     %                                                                      %
     % You are using vdW-DF, which was implemented by the Thonhauser group. %
     % Please cite the following two papers that made this development      %
     % possible and the two reviews that describe the various versions:     %
     %                                                                      %
     %   T. Thonhauser et al., PRL 115, 136402 (2015).                      %
     %   T. Thonhauser et al., PRB 76, 125112 (2007).                       %
     %   K. Berland et al., Rep. Prog. Phys. 78, 066501 (2015).             %
     %   D.C. Langreth et al., J. Phys.: Condens. Matter 21, 084203 (2009). %
     %                                                                      %
     %                                                                      %
     % If you are calculating the stress with vdW-DF, please also cite:     %
     %                                                                      %
     %   R. Sabatini et al., J. Phys.: Condens. Matter 24, 424209 (2012).   %
     %                                                                      %
     %%%%%%%%%%%%%%%%%%%%%%%%%%%%%%%%%%%%%%%%%%%%%%%%%%%%%%%%%%%%%%%%%%%%%%%%

     Adding external electric field

     Computed dipole along edir(3) :
        Dipole               -4.5407 Ry au,        -11.5413 Debye
        Dipole field         -0.0057 Ry au,

        Potential amp.        0.5296 Ry
        Total length         46.3494 bohr

     Starting wfcs are  330 atomic wfcs
  @ DRIVER MODE: Message from server: STATUS
  @ DRIVER MODE: Message from server: POSDATA
  @ DRIVER MODE: Reading and sharing cell
  @ DRIVER MODE: Reading and sharing positions
  @ DRIVER MODE: Received positions

     Self-consistent Calculation

     iteration #  1     ecut=    29.40 Ry     beta= 0.05
     Davidson diagonalization with overlap
     c_bands:  3 eigenvalues not converged
     c_bands:  2 eigenvalues not converged
     c_bands:  3 eigenvalues not converged
     c_bands:  5 eigenvalues not converged
     c_bands:  5 eigenvalues not converged
     c_bands:  1 eigenvalues not converged
     c_bands:  2 eigenvalues not converged
     ethr =  1.00E-05,  avg # of iterations = 24.8

[...]

     total energy              =   -3289.18019384 Ry
     estimated scf accuracy    <      57.50568171 Ry

     iteration #  2     ecut=    29.40 Ry     beta= 0.05
     Davidson diagonalization with overlap
     ethr =  1.00E-02,  avg # of iterations =  5.5

[...]

     iteration # 48     ecut=    29.40 Ry     beta= 0.05
     Davidson diagonalization with overlap
     c_bands:  1 eigenvalues not converged
     c_bands:  1 eigenvalues not converged
     c_bands:  1 eigenvalues not converged
     c_bands:  1 eigenvalues not converged
     ethr =  1.56E-09,  avg # of iterations = 17.6

[...]

     total energy              =   -3290.76663933 Ry
     estimated scf accuracy    <       0.00000009 Ry

     iteration # 57     ecut=    29.40 Ry     beta= 0.05
     Davidson diagonalization with overlap
     ethr =  2.17E-11,  avg # of iterations =  6.3

     negative rho (up, down):  3.653E-02 0.000E+00

     Adding external electric field

     Computed dipole along edir(3) :
        Dipole                1.2067 Ry au,          3.0671 Debye
        Dipole field          0.0015 Ry au,

        Potential amp.       -0.1407 Ry
        Total length         46.3494 bohr

     End of self-consistent calculation

          k = 0.0000 0.0000 0.0000 ( 26871 PWs)   bands (ev):

   -57.9815 -57.9775 -57.9741 -57.9570 -57.9544 -57.9169 -57.8546 -57.8134
   -57.7895 -57.7803 -57.7097 -57.6877 -57.6554 -57.3919 -57.3671 -56.9215
   -56.8983 -56.8841 -34.3752 -34.3689 -34.3673 -34.3562 -34.3535 -34.3205
   -34.3103 -34.3022 -34.3006 -34.2934 -34.2540 -34.2485 -34.1929 -34.1878
   -34.1785 -34.1779 -34.1648 -34.1557 -34.1509 -34.1477 -34.1271 -34.1066
   -34.0976 -34.0790 -34.0771 -34.0721 -34.0670 -34.0409 -34.0215 -33.9743
   -33.9733 -33.9632 -33.9460 -33.9385 -33.9345 -33.9297 -33.9021 -33.8780
   -33.8677 -33.8240 -33.6894 -33.6722 -33.6332 -33.6076 -33.5793 -33.2434
   -33.2358 -33.2267 -33.2205 -33.2141 -33.1429 -33.0839 -33.0683 -32.9407
   -20.7906 -19.3910 -18.8141 -18.4152 -18.2278 -18.2116 -18.2028 -18.1455
   -18.0692 -18.0655 -17.8849 -17.7947 -17.7723 -17.7458 -17.7277 -17.6950
   -17.6371 -17.6177 -17.5970 -17.5872 -17.5669 -17.5615 -17.4830 -17.4188
   -17.3934 -17.3864 -17.3786 -17.3750 -17.3052 -17.2198 -17.1295 -17.0705
   -17.0369 -15.3859 -15.3325 -15.3271 -11.2615  -7.6593  -7.1703  -6.1366
    -5.9254  -5.8601  -5.7848  -5.4351  -5.4225  -5.4199  -5.3544  -5.3336
    -5.2969  -5.2841  -5.2341  -5.2141  -5.2135  -5.1852  -5.1103  -5.0873
    -5.0608  -4.9856  -4.9391  -4.9081  -4.8576  -4.8439  -4.7446  -4.7432
    -4.7197  -4.7176  -4.7053  -4.6862  -4.6371  -4.6291  -4.5351  -4.5173
    -4.4740  -4.3544  -4.3306  -4.2709  -4.2544  -4.2251  -4.1415  -4.0784
    -4.0673  -4.0488  -4.0146  -3.9824  -3.9475  -3.9144  -3.8643  -3.7846
    -3.7199  -3.6814  -3.5690  -3.5128  -3.4791  -3.4562  -3.3768  -3.3584
    -3.3182  -3.2462  -3.1987  -3.1580  -3.1226  -3.1201  -3.0849  -2.9875
    -2.9799  -2.9028  -2.8204  -2.7942  -2.7156  -2.7046  -2.6965  -2.6794
    -2.6600  -2.6318  -2.6032  -2.5735  -2.4954  -2.4795  -2.4558  -2.4024
    -2.2957  -2.2789  -2.2742  -2.2574  -2.2527  -2.1866  -2.0877  -1.9784
    -1.9782  -1.9698  -1.8266  -1.7999  -1.7466  -1.7432  -1.6950  -1.6243
    -1.5679  -1.1781  -0.9396  -0.6536  -0.6211  -0.6127  -0.3743  -0.3645
    -0.2463   0.0063   0.9958   1.2648   1.3450   1.4320   1.4819   1.4876
     1.6132   1.6358   1.6690   1.7119   1.7220

[...]

          k = 0.0380-0.0280 0.0000 ( 26873 PWs)   bands (ev):

[...]

          k =-0.0760-0.0000 0.0000 ( 26902 PWs)   bands (ev):

[...]

          k =-0.0760-0.0559 0.0000 ( 26868 PWs)   bands (ev):

   -57.9759 -57.9752 -57.9741 -57.9716 -57.9472 -57.9175 -57.8543 -57.8091
   -57.7980 -57.7758 -57.7076 -57.6911 -57.6542 -57.3921 -57.3670 -56.9176
   -56.9055 -56.8807 -34.4479 -34.4351 -34.3803 -34.3688 -34.3351 -34.3139
   -34.3104 -34.2992 -34.2718 -34.2640 -34.2259 -34.2042 -34.2038 -34.1661
   -34.1657 -34.1648 -34.1626 -34.1440 -34.1237 -34.1215 -34.1169 -34.1068
   -34.1065 -34.0676 -34.0643 -34.0547 -34.0346 -34.0294 -34.0068 -34.0008
   -33.9949 -33.9944 -33.9813 -33.9780 -33.9506 -33.9338 -33.9293 -33.8781
   -33.8609 -33.7791 -33.7307 -33.6753 -33.6347 -33.6096 -33.5806 -33.3200
   -33.2451 -33.2337 -33.2106 -33.1283 -33.1137 -33.0553 -33.0437 -33.0302
   -20.7895 -19.3852 -18.5064 -18.4937 -18.1806 -18.1114 -18.0775 -18.0467
   -18.0064 -17.9708 -17.9411 -17.9288 -17.8998 -17.8058 -17.7961 -17.7249
   -17.7007 -17.6777 -17.6645 -17.6363 -17.6016 -17.5975 -17.5839 -17.4762
   -17.4651 -17.3819 -17.3633 -17.3204 -17.2636 -17.2188 -17.1182 -17.1051
   -17.0049 -15.3884 -15.3807 -15.2669 -11.2589  -7.6423  -7.1526  -5.7654
    -5.7594  -5.7245  -5.6998  -5.6402  -5.3716  -5.3443  -5.2175  -5.2135
    -5.2061  -5.1730  -5.1520  -5.1115  -5.0955  -5.0837  -5.0712  -5.0662
    -5.0008  -4.9983  -4.9456  -4.9150  -4.8680  -4.8616  -4.8526  -4.7963
    -4.7715  -4.7344  -4.7291  -4.6934  -4.5741  -4.5535  -4.5291  -4.4885
    -4.4522  -4.4341  -4.3512  -4.2953  -4.2270  -4.1135  -4.0904  -4.0853
    -4.0305  -3.9881  -3.9279  -3.8783  -3.7238  -3.6883  -3.6626  -3.5967
    -3.5683  -3.5544  -3.5387  -3.5174  -3.5034  -3.4512  -3.4453  -3.3913
    -3.3553  -3.3273  -3.3074  -3.2152  -3.1649  -3.1317  -3.0925  -3.0741
    -3.0634  -3.0520  -3.0251  -3.0186  -3.0169  -2.9518  -2.9418  -2.9008
    -2.8559  -2.7684  -2.7384  -2.6995  -2.6415  -2.5367  -2.5181  -2.4673
    -2.4527  -2.3957  -2.2119  -2.1984  -2.1813  -2.1380  -2.0909  -2.0520
    -2.0432  -2.0228  -1.9750  -1.8661  -1.7320  -1.7127  -1.5517  -1.4834
    -1.4761  -1.4554  -1.2540  -0.8371  -0.5527  -0.5246  -0.5194  -0.3777
    -0.3744   0.0086   1.1561   1.1805   1.2473   1.3189   1.3546   1.3628
     1.3832   1.4860   1.4894   1.5915   1.6563

     the Fermi energy is     1.0949 ev

!    total energy              =   -3290.76669518 Ry
     estimated scf accuracy    <       0.00000007 Ry
     smearing contrib. (-TS)   =      -0.03256133 Ry
     internal energy E=F+TS    =   -3290.73413385 Ry

     The total energy is F=E-TS. E is the sum of the following terms:
     one-electron contribution =  -34499.06239978 Ry
     hartree contribution      =   17310.89288669 Ry
     xc contribution           =    -540.51310520 Ry
     ewald contribution        =   14437.94665256 Ry
     electric field correction =       0.00183188 Ry

     convergence has been achieved in  57 iterations

     Forces acting on atoms (cartesian axes, Ry/au):

     atom    1 type  1   force =    -0.00000228    0.00296010    0.06150102
     atom    2 type  1   force =     0.00006074    0.00057139   -0.00872823
     atom    3 type  1   force =    -0.00001695   -0.00452074    0.00119842
     atom    4 type  1   force =     0.00004861   -0.00105599    0.10518378
     atom    5 type  1   force =     0.00005076   -0.00001120    0.01002807
     atom    6 type  1   force =     0.00004798   -0.00427585    0.00692666
     atom    7 type  1   force =     0.07079635   -0.00018242   -0.02969858
     atom    8 type  1   force =     0.00421961   -0.02882476    0.00202275
     atom    9 type  1   force =     0.00683624   -0.02327260    0.00241846
     atom   10 type  2   force =    -0.00005586   -0.00530288   -0.17415908
     atom   11 type  2   force =    -0.00024952    0.02022291   -0.00524354
     atom   12 type  2   force =     0.00019592    0.02583960   -0.00808858
     atom   13 type  1   force =    -0.07089257   -0.00063143   -0.02963769
     atom   14 type  1   force =    -0.00451596   -0.02852740    0.00199641
     atom   15 type  1   force =    -0.00587451   -0.02296528    0.00289514
     atom   16 type  2   force =     0.00010736   -0.00199381    0.06350355
     atom   17 type  2   force =     0.00047623    0.03496928    0.00375041
     atom   18 type  2   force =    -0.00025734    0.01823703   -0.00077637
     atom   19 type  1   force =    -0.00001558    0.00865256    0.05614326
     atom   20 type  1   force =     0.00004113    0.00030368   -0.00815500
     atom   21 type  1   force =     0.00004606    0.00236460    0.10557107
     atom   22 type  1   force =     0.00004399   -0.00045968    0.00966803
     atom   23 type  1   force =    -0.00007916   -0.00192571    0.00322724
     atom   24 type  1   force =     0.06931825   -0.00028652   -0.02955943
     atom   25 type  1   force =     0.00469874   -0.02809824    0.00244078
     atom   26 type  1   force =     0.00650441   -0.01498701   -0.00054476
     atom   27 type  2   force =    -0.00005339   -0.00797625   -0.18326692
     atom   28 type  2   force =    -0.00025436    0.02039410   -0.00597981
     atom   29 type  2   force =     0.00022488    0.02371648    0.00536352
     atom   30 type  1   force =    -0.06941709   -0.00074070   -0.02950493
     atom   31 type  1   force =    -0.00497734   -0.02780917    0.00241635
     atom   32 type  1   force =    -0.00560427   -0.01519931   -0.00012885
     atom   33 type  2   force =     0.00008192   -0.00101841    0.06380408
     atom   34 type  2   force =     0.00047339    0.03462394    0.00493051
     atom   35 type  2   force =    -0.00022848    0.02156466    0.00152796
     atom   36 type  1   force =    -0.00001380    0.00376821    0.05851381
     atom   37 type  1   force =     0.00005086   -0.00064393   -0.00668792
     atom   38 type  1   force =    -0.00002450   -0.00144627    0.00008841
     atom   39 type  1   force =     0.00005427   -0.00050893    0.10667661
     atom   40 type  1   force =     0.00005107   -0.00050600    0.00898939
     atom   41 type  1   force =     0.00003097   -0.00416783   -0.00098783
     atom   42 type  1   force =     0.06972100   -0.00119551   -0.02999673
     atom   43 type  1   force =     0.00450165   -0.02930799    0.00149398
     atom   44 type  1   force =     0.00988434   -0.02502154    0.00502830
     atom   45 type  2   force =    -0.00006576    0.00912221   -0.17963483
     atom   46 type  2   force =    -0.00027071    0.02119384   -0.00516190
     atom   47 type  2   force =    -0.00011258    0.02452288   -0.00976911
     atom   48 type  1   force =    -0.06982468   -0.00164543   -0.02994594
     atom   49 type  1   force =    -0.00477675   -0.02900902    0.00145272
     atom   50 type  1   force =    -0.00958541   -0.02491496    0.00505105
     atom   51 type  2   force =     0.00011504   -0.00179034    0.06381208
     atom   52 type  2   force =     0.00047572    0.03634184    0.00327885
     atom   53 type  2   force =    -0.00025043    0.03621936    0.00380573
     atom   54 type  3   force =    -0.00003431   -0.00101759   -0.00094679
     atom   55 type  4   force =     0.00076467    0.00270969    0.00010953
     atom   56 type  4   force =    -0.00239471   -0.00577166    0.00162964
     atom   57 type  3   force =    -0.00007388   -0.00128600    0.00015525

     Total force =     0.453308     Total SCF correction =     0.000678
  @ DRIVER MODE: Message from server: STATUS
  @ DRIVER MODE: Message from server: GETFORCE
  @ DRIVER MODE: Returning v,forces,stress,ensemble

     Writing output data file ./calc.save/
  @ DRIVER MODE: Message from server: EXIT
  @ DRIVE MODE: Exiting

     General routines

     Parallel routines

   This run was terminated on:  19:22:52  18Oct2021

   JOB DONE.