     Program PWSCF v.6.7GPU starts on 10Sep2021 at 18:41:43

     R & G space division:  proc/nbgrp/npool/nimage =      10
     Reading input from /storage/home/hcoda1/3/ntian30/research/carbon/CxH_vib/CH2_calc/ads_slab/CH2O_c/out_0003/pw.inp
Warning: card &CELL ignored
Warning: card   CELL_DYNAMICS='IPI', ignored
Warning: card / ignored

     Current dimensions of program PWSCF are:
     Max number of different atomic species (ntypx) = 10
     Max number of k-points (npk) =  40000
     Max angular momentum in pseudopotentials (lmaxx) =  3
     Presently no symmetry can be used with electric field

     Message from routine cell_base_init:
     DEPRECATED: use true lattice parameter, not A to a.u. conversion factor

     IMPORTANT: XC functional enforced from input :
     Exchange-correlation= BEEF-VDW
                           (   1   4  43  14   2   0   0)
     Any further DFT definition will be discarded
     Please, verify this is what you really want

  @ DRIVER MODE: Connecting to
 qe_1139763_2792043.sched-torque.pace.gatech.edurg089l8x_scratch
  using UNIX socket
  @ DRIVER MODE: Message from server: STATUS
  @ DRIVER MODE: Message from server: INIT
  @ DRIVER MODE: Receiving replica           0          -1
  @ DRIVER MODE: Receiving encoded integer          25
  @ DRIVER MODE:  SCF:  T  FORCE:  T  STRESS:  F  VC:  F  ENSEMBLE:  F
  @ DRIVER MODE:  SCF:  T  FORCE:  T  STRESS:  F  VC:  F  ENSEMBLE:  F

     Using Slab Decomposition

     bravais-lattice index     =            0
     lattice parameter (alat)  =       1.8897  a.u.
     unit-cell volume          =    6658.9804 (a.u.)^3
     number of atoms/cell      =           51
     number of atomic types    =            4
     number of electrons       =       390.00
     number of Kohn-Sham states=          205
     kinetic-energy cutoff     =      29.3995  Ry
     charge density cutoff     =     293.9946  Ry
     scf convergence threshold =      7.3E-08
     mixing beta               =       0.0500
     number of iterations used =            8  plain     mixing
     Exchange-correlation= BEEF-VDW
                           (   1   4  43  14   2   0   0)

     celldm(1)=   1.889726  celldm(2)=   0.000000  celldm(3)=   0.000000
     celldm(4)=   0.000000  celldm(5)=   0.000000  celldm(6)=   0.000000

     crystal axes: (cart. coord. in units of alat)
               a(1) = (   6.579727   0.000000   0.000000 )
               a(2) = (  -0.000775   5.961596   0.000000 )
               a(3) = (   0.000000   0.000000  25.155947 )

     reciprocal axes: (cart. coord. in units 2 pi/alat)
               b(1) = (  0.151982  0.000020  0.000000 )
               b(2) = (  0.000000  0.167740  0.000000 )
               b(3) = (  0.000000  0.000000  0.039752 )

     PseudoPot. # 1 for O  read from file:
     /storage/coda1/p-amedford6/0/shared/rich_project_chbe-medford/medford-share/data/pseudos_module/espresso/nninc/pbe/van/O.UPF
     MD5 check sum: 78c19812648e8988a0fe644b0f25305e
     Pseudo is Ultrasoft, Zval =  6.0
     Generated by new atomic code, or converted to UPF format
     Using radial grid of  737 points,  4 beta functions with:
                l(1) =   0
                l(2) =   0
                l(3) =   1
                l(4) =   1
     Q(r) pseudized with  8 coefficients,  rinner =    0.800   0.800   0.800

     PseudoPot. # 2 for Ti read from file:
     /storage/coda1/p-amedford6/0/shared/rich_project_chbe-medford/medford-share/data/pseudos_module/espresso/nninc/pbe/van/Ti.UPF
     MD5 check sum: 8e4df49b7f0d34bbd5052bf3f5ea0213
     Pseudo is Ultrasoft, Zval = 12.0
     Generated by new atomic code, or converted to UPF format
     Using radial grid of  851 points,  6 beta functions with:
                l(1) =   0
                l(2) =   0
                l(3) =   1
                l(4) =   1
                l(5) =   2
                l(6) =   2
     Q(r) pseudized with  8 coefficients,  rinner =    1.000   1.000   1.000
                                                       1.000   1.000

     PseudoPot. # 3 for C  read from file:
     /storage/coda1/p-amedford6/0/shared/rich_project_chbe-medford/medford-share/data/pseudos_module/espresso/nninc/pbe/van/C.UPF
     MD5 check sum: 1a69bf6b8db32088f5b2163dbdb77a27
     Pseudo is Ultrasoft, Zval =  4.0
     Generated by new atomic code, or converted to UPF format
     Using radial grid of  721 points,  4 beta functions with:
                l(1) =   0
                l(2) =   0
                l(3) =   1
                l(4) =   1
     Q(r) pseudized with  8 coefficients,  rinner =    0.800   0.800   0.800

     PseudoPot. # 4 for H  read from file:
     /storage/coda1/p-amedford6/0/shared/rich_project_chbe-medford/medford-share/data/pseudos_module/espresso/nninc/pbe/van/H.UPF
     MD5 check sum: b5ee9d7bfd3a09ee7748110bda690ff7
     Pseudo is Ultrasoft, Zval =  1.0
     Generated by new atomic code, or converted to UPF format
     Using radial grid of  615 points,  1 beta functions with:
                l(1) =   0
     Q(r) pseudized with  8 coefficients,  rinner =    0.800

     atomic species   valence    mass     pseudopotential
        O1             6.00    15.99900     O ( 1.00)
        Ti1           12.00    47.86700     Ti( 1.00)
        C1             4.00    12.01100     C ( 1.00)
        H1             1.00     1.00800     H ( 1.00)

     No symmetry found

   Cartesian axes

     site n.     atom                  positions (alat units)
         1           O1  tau(   1) = (   3.2904802   0.0005063   4.7018136  )
         2           O1  tau(   2) = (   3.2900926   2.9813045   4.7018136  )
         3           Ti1 tau(   3) = (   0.0004258   2.9801865   6.0000000  )
         4           Ti1 tau(   4) = (   0.0000382   5.9609847   6.0000000  )
         5           Ti1 tau(   5) = (   3.2906075   1.4906267   6.0002472  )
         6           Ti1 tau(   6) = (   3.2902200   4.4714249   6.0002472  )
         7           O1  tau(   7) = (   1.3043587   1.4918075   6.0039043  )
         8           O1  tau(   8) = (   1.3039711   4.4726057   6.0039043  )
         9           O1  tau(   9) = (   5.2767064   1.4903225   6.0039473  )
        10           O1  tau(  10) = (   5.2763189   4.4711207   6.0039473  )
        11           O1  tau(  11) = (   3.2906025   0.0005020   7.3038282  )
        12           O1  tau(  12) = (   3.2902150   2.9813002   7.3038282  )
        13           O1  tau(  13) = (   0.0006271   0.0005054   7.9858123  )
        14           O1  tau(  14) = (   0.0002396   2.9813036   7.9858123  )
        15           Ti1 tau(  15) = (   3.3026304   0.0558743   9.1529855  )
        16           Ti1 tau(  16) = (   3.3164045   3.0327615   9.1572159  )
        17           Ti1 tau(  17) = (   0.0278175   4.5359734   9.2551557  )
        18           Ti1 tau(  18) = (   0.0245227   1.6138560   9.3625275  )
        19           O1  tau(  19) = (   4.5942328   1.4918067   9.2879030  )
        20           O1  tau(  20) = (   4.5938453   4.4726049   9.2879030  )
        21           O1  tau(  21) = (   1.9868534   1.4903216   9.2879459  )
        22           O1  tau(  22) = (   1.9864658   4.4711199   9.2879459  )
        23           O1  tau(  23) = (   0.0082563   0.0105963  10.6032901  )
        24           O1  tau(  24) = (   0.0079484   2.9900140  10.5841352  )
        25           O1  tau(  25) = (   3.3038251   2.9929121  11.3473413  )
        26           O1  tau(  26) = (   3.3033308   0.0102956  11.3494618  )
        27           Ti1 tau(  27) = (   0.0317432   0.0173395  12.5007832  )
        28           Ti1 tau(  28) = (   3.3306627   4.4867663  12.4909107  )
        29           Ti1 tau(  29) = (   3.3307827   1.5098530  12.4883691  )
        30           Ti1 tau(  30) = (   0.0330478   2.9976760  12.7859357  )
        31           O1  tau(  31) = (   1.3012438   4.4818129  12.6408784  )
        32           O1  tau(  32) = (   1.3024292   1.5014896  12.6394904  )
        33           O1  tau(  33) = (   5.3013637   4.4812751  12.6442516  )
        34           O1  tau(  34) = (   5.3009141   1.5012301  12.6421300  )
        35           O1  tau(  35) = (   3.3022887   2.9886358  13.9251823  )
        36           O1  tau(  36) = (   3.3062039   0.0095056  13.9482717  )
        37           O1  tau(  37) = (   0.0260699   0.0177473  14.6866479  )
        38           O1  tau(  38) = (   0.0273203   2.9953000  14.7270975  )
        39           Ti1 tau(  39) = (   3.3120190   2.9903054  15.7171600  )
        40           Ti1 tau(  40) = (   3.3230935   0.0106652  15.7391692  )
        41           Ti1 tau(  41) = (   0.0328368   4.5824378  15.9539421  )
        42           Ti1 tau(  42) = (   0.0326753   1.3890416  16.0019494  )
        43           O1  tau(  43) = (   4.5622593   4.4711273  16.0916796  )
        44           O1  tau(  44) = (   4.5612194   1.5125715  16.1009491  )
        45           O1  tau(  45) = (   2.0595944   1.5153445  16.1103626  )
        46           O1  tau(  46) = (   2.0577381   4.4687033  16.1006481  )
        47           O1  tau(  47) = (   0.0167757   0.0040543  17.2075325  )
        48           O1  tau(  48) = (   6.5679879   2.9950237  17.4360139  )
        49           C1  tau(  49) = (   6.3840651   3.0748419  18.6981053  )
        50           H1  tau(  50) = (   6.3009919   4.0539401  19.1613311  )
        51           H1  tau(  51) = (   6.3054763   2.1576074  19.2739789  )

     number of k points=    10  Fermi-Dirac smearing, width (Ry)=  0.0073
                       cart. coord. in units 2pi/alat
        k(    1) = (   0.0000000   0.0000000   0.0000000), wk =   0.1250000
        k(    2) = (   0.0000000   0.0419351   0.0000000), wk =   0.2500000
        k(    3) = (   0.0000000  -0.0838702   0.0000000), wk =   0.1250000
        k(    4) = (   0.0379955   0.0000049   0.0000000), wk =   0.2500000
        k(    5) = (   0.0379955   0.0419400   0.0000000), wk =   0.2500000
        k(    6) = (   0.0379955  -0.0838652   0.0000000), wk =   0.2500000
        k(    7) = (   0.0379955  -0.0419301   0.0000000), wk =   0.2500000
        k(    8) = (  -0.0759910  -0.0000099   0.0000000), wk =   0.1250000
        k(    9) = (  -0.0759910   0.0419252   0.0000000), wk =   0.2500000
        k(   10) = (  -0.0759910  -0.0838800   0.0000000), wk =   0.1250000

     Initial potential from superposition of free atoms

     starting charge  373.99919, renormalised to  390.00000

     negative rho (up, down):  1.845E-02 0.000E+00

     %%%%%%%%%%%%%%%%%%%%%%%%%%%%%%%%%%%%%%%%%%%%%%%%%%%%%%%%%%%%%%%%%%%%%%%%
     %                                                                      %
     % You are using vdW-DF, which was implemented by the Thonhauser group. %
     % Please cite the following two papers that made this development      %
     % possible and the two reviews that describe the various versions:     %
     %                                                                      %
     %   T. Thonhauser et al., PRL 115, 136402 (2015).                      %
     %   T. Thonhauser et al., PRB 76, 125112 (2007).                       %
     %   K. Berland et al., Rep. Prog. Phys. 78, 066501 (2015).             %
     %   D.C. Langreth et al., J. Phys.: Condens. Matter 21, 084203 (2009). %
     %                                                                      %
     %                                                                      %
     % If you are calculating the stress with vdW-DF, please also cite:     %
     %                                                                      %
     %   R. Sabatini et al., J. Phys.: Condens. Matter 24, 424209 (2012).   %
     %                                                                      %
     %%%%%%%%%%%%%%%%%%%%%%%%%%%%%%%%%%%%%%%%%%%%%%%%%%%%%%%%%%%%%%%%%%%%%%%%

     Adding external electric field

     Computed dipole along edir(3) :
        Dipole               -5.1802 Ry au,        -13.1669 Debye
        Dipole field         -0.0098 Ry au,

        Potential amp.        0.9062 Ry
        Total length         46.3494 bohr

     Starting wfcs are  294 atomic wfcs
  @ DRIVER MODE: Message from server: STATUS
  @ DRIVER MODE: Message from server: POSDATA
  @ DRIVER MODE: Reading and sharing cell
  @ DRIVER MODE: Reading and sharing positions
  @ DRIVER MODE: Received positions

     Self-consistent Calculation

     iteration #  1     ecut=    29.40 Ry     beta= 0.05
     Davidson diagonalization with overlap
     c_bands:  5 eigenvalues not converged
     c_bands:  4 eigenvalues not converged
     c_bands:  2 eigenvalues not converged
     c_bands:  1 eigenvalues not converged
     c_bands:  2 eigenvalues not converged
     c_bands:  2 eigenvalues not converged
     c_bands:  3 eigenvalues not converged
     c_bands:  2 eigenvalues not converged
     ethr =  1.00E-05,  avg # of iterations = 21.8

[...]

     total energy              =   -2823.05914322 Ry
     estimated scf accuracy    <    1181.46743799 Ry

     iteration #  2     ecut=    29.40 Ry     beta= 0.05
     Davidson diagonalization with overlap
     ethr =  1.00E-02,  avg # of iterations = 16.4

[...]

     iteration # 88     ecut=    29.40 Ry     beta= 0.05
     Davidson diagonalization with overlap
     ethr =  2.02E-11,  avg # of iterations =  1.6

[...]

     total energy              =   -2930.16725645 Ry
     estimated scf accuracy    <       0.00000010 Ry

     iteration # 89     ecut=    29.40 Ry     beta= 0.05
     Davidson diagonalization with overlap
     c_bands:  1 eigenvalues not converged
     ethr =  2.02E-11,  avg # of iterations = 13.9

     negative rho (up, down):  1.727E-02 0.000E+00

     Adding external electric field

     Computed dipole along edir(3) :
        Dipole                0.9315 Ry au,          2.3678 Debye
        Dipole field          0.0018 Ry au,

        Potential amp.       -0.1630 Ry
        Total length         46.3494 bohr

     End of self-consistent calculation

          k = 0.0000 0.0000 0.0000 ( 18029 PWs)   bands (ev):

   -55.8214 -55.8101 -55.7850 -55.7739 -55.7123 -55.6979 -55.6754 -55.6029
   -55.6016 -55.5904 -55.5826 -55.5568 -55.5222 -55.4876 -54.8477 -54.8137
   -32.3798 -32.2938 -32.1887 -32.1715 -32.1276 -32.1232 -32.1161 -32.0972
   -32.0699 -32.0528 -32.0508 -32.0246 -31.9946 -31.9917 -31.9801 -31.9584
   -31.9423 -31.9420 -31.9323 -31.9156 -31.8938 -31.8872 -31.8846 -31.8727
   -31.8645 -31.8467 -31.8448 -31.8217 -31.8162 -31.8158 -31.7908 -31.7628
   -31.7555 -31.7382 -31.7347 -31.7316 -31.7095 -31.7044 -31.6954 -31.6776
   -31.6764 -31.6758 -31.2578 -31.1600 -31.1378 -31.0745 -30.9884 -30.8772
   -19.8321 -16.5914 -16.2972 -16.1509 -16.0171 -15.9680 -15.8528 -15.6951
   -15.6160 -15.5497 -15.4943 -15.4419 -15.4046 -15.4032 -15.3737 -15.3602
   -15.3547 -15.3473 -15.2731 -15.2711 -15.2365 -15.2188 -15.2081 -15.1189
   -15.0579 -14.9981 -14.9516 -14.8930 -14.8401 -14.8261 -13.3487 -13.2303
    -9.2973  -5.5312  -5.5212  -3.9405  -3.7638  -3.7244  -3.7084  -3.6519
    -3.5254  -3.4240  -3.3968  -3.1066  -3.0189  -2.9890  -2.9783  -2.9655
    -2.8231  -2.7802  -2.6657  -2.6628  -2.6512  -2.6464  -2.6263  -2.5910
    -2.5841  -2.5396  -2.5174  -2.4073  -2.3682  -2.2586  -2.2448  -2.2159
    -2.1568  -2.1318  -2.1010  -2.0875  -2.0585  -2.0541  -2.0521  -2.0072
    -1.9065  -1.8191  -1.7509  -1.6694  -1.6308  -1.5386  -1.3796  -1.3104
    -1.2696  -1.2344  -1.1850  -1.1662  -1.1354  -1.1134  -1.0915  -1.0806
    -0.9846  -0.8724  -0.8623  -0.7638  -0.7035  -0.6842  -0.6693  -0.5790
    -0.5604  -0.5498  -0.4555  -0.3146  -0.3049  -0.3006  -0.1820  -0.1511
    -0.1279  -0.0832  -0.0583  -0.0237   0.0072   0.0624   0.1064   0.1171
     0.1637   0.1814   0.2069   0.3083   0.3607   0.3724   0.4264   0.4634
     0.6452   0.6653   0.8065   0.8723   1.0785   1.1766   1.2321   1.3455
     1.7643   1.8221   3.3440   3.3754   3.4004   3.4503   3.4963   3.5379
     3.5913   3.7863   3.8038   3.8121   3.8372

[...]

          k = 0.0380-0.0419 0.0000 ( 17876 PWs)   bands (ev):

[...]

          k =-0.0760-0.0000 0.0000 ( 17886 PWs)   bands (ev):

[...]

          k =-0.0760-0.0839 0.0000 ( 17948 PWs)   bands (ev):

   -55.8097 -55.7966 -55.7922 -55.7915 -55.7026 -55.6946 -55.6852 -55.6060
   -55.5982 -55.5772 -55.5764 -55.5713 -55.5276 -55.4902 -54.8311 -54.8302
   -32.1812 -32.1809 -32.1174 -32.1037 -32.1023 -32.0972 -32.0824 -32.0773
   -32.0632 -32.0341 -32.0262 -32.0115 -31.9950 -31.9583 -31.9473 -31.9385
   -31.9370 -31.9341 -31.9257 -31.9226 -31.9053 -31.9024 -31.8988 -31.8978
   -31.8950 -31.8916 -31.8801 -31.8582 -31.8295 -31.8286 -31.8283 -31.8061
   -31.8015 -31.7839 -31.7807 -31.7726 -31.7707 -31.7704 -31.7479 -31.7174
   -31.7050 -31.6853 -31.1510 -31.1498 -31.0711 -31.0705 -31.0318 -31.0311
   -19.8242 -16.0234 -15.9928 -15.8759 -15.7630 -15.7501 -15.7075 -15.6644
   -15.6164 -15.5584 -15.5549 -15.5071 -15.4878 -15.4839 -15.4393 -15.4064
   -15.3587 -15.3526 -15.3413 -15.3403 -15.2865 -15.2829 -15.2364 -15.2287
   -15.2082 -15.1692 -15.1658 -15.0955 -15.0602 -15.0053 -13.3326 -13.3304
    -9.2982  -5.5141  -5.4981  -3.5515  -3.3121  -3.2788  -3.1088  -2.9808
    -2.9711  -2.9125  -2.8289  -2.7913  -2.7466  -2.6972  -2.6934  -2.6716
    -2.6593  -2.6453  -2.6413  -2.6333  -2.5877  -2.5683  -2.5265  -2.4825
    -2.4749  -2.4615  -2.4557  -2.4157  -2.3999  -2.3883  -2.3809  -2.3747
    -2.3031  -2.2273  -2.1562  -2.0812  -2.0279  -2.0080  -1.9771  -1.9424
    -1.9076  -1.8903  -1.8733  -1.7489  -1.7268  -1.5779  -1.5621  -1.5392
    -1.5301  -1.4769  -1.4697  -1.3485  -1.2717  -1.2658  -1.1976  -1.1733
    -1.1469  -1.0987  -1.0767  -0.9964  -0.9543  -0.9116  -0.8574  -0.7970
    -0.7852  -0.7189  -0.7091  -0.6281  -0.6071  -0.5862  -0.5814  -0.5110
    -0.4770  -0.3977  -0.3867  -0.3638  -0.2629  -0.1962  -0.1935   0.0023
     0.1739   0.1788   0.1988   0.2983   0.3289   0.3721   0.4282   0.4433
     0.5300   0.5846   0.6756   0.6957   0.7045   0.7852   1.5354   1.5364
     1.6275   1.6380   3.2981   3.5630   3.5990   3.6051   3.6644   3.8177
     3.8208   3.8379   3.8473   3.9725   3.9795

     the Fermi energy is     3.3291 ev

!    total energy              =   -2930.16725898 Ry
     estimated scf accuracy    <       0.00000006 Ry
     smearing contrib. (-TS)   =      -0.03342565 Ry
     internal energy E=F+TS    =   -2930.13383334 Ry

     The total energy is F=E-TS. E is the sum of the following terms:
     one-electron contribution =  -24668.08727254 Ry
     hartree contribution      =   12419.48340553 Ry
     xc contribution           =    -481.26783970 Ry
     ewald contribution        =    9799.73623576 Ry
     electric field correction =       0.00163761 Ry

     convergence has been achieved in  89 iterations

     Forces acting on atoms (cartesian axes, Ry/au):

     atom    1 type  1   force =    -0.00010087    0.00004487    0.10426343
     atom    2 type  1   force =    -0.00009530    0.00005356    0.10431333
     atom    3 type  2   force =    -0.00025646   -0.00196364    0.10280454
     atom    4 type  2   force =    -0.00014508    0.00159717    0.11371836
     atom    5 type  2   force =    -0.00033146    0.00058362   -0.18042103
     atom    6 type  2   force =    -0.00019741   -0.00013474   -0.18076173
     atom    7 type  1   force =    -0.06897102    0.00062192   -0.02907462
     atom    8 type  1   force =    -0.06848487   -0.00119690   -0.02911649
     atom    9 type  1   force =     0.06860738    0.00110975   -0.02915068
     atom   10 type  1   force =     0.06821248   -0.00080089   -0.02920667
     atom   11 type  1   force =     0.00037317    0.00050202    0.04559073
     atom   12 type  1   force =     0.00056875    0.00077137    0.04712780
     atom   13 type  1   force =     0.00028289   -0.00577580   -0.03304962
     atom   14 type  1   force =     0.00033248    0.00397575   -0.02582191
     atom   15 type  2   force =     0.00003215   -0.00027486    0.00026651
     atom   16 type  2   force =     0.00013628    0.00013951   -0.00008155
     atom   17 type  2   force =    -0.00021905   -0.00067853    0.00126336
     atom   18 type  2   force =    -0.00028744   -0.00035681    0.00064325
     atom   19 type  1   force =    -0.01792492    0.00014732    0.00393158
     atom   20 type  1   force =    -0.01644182    0.00130445    0.00320416
     atom   21 type  1   force =     0.01955708   -0.00098007    0.00432553
     atom   22 type  1   force =     0.01781742    0.00103146    0.00343419
     atom   23 type  1   force =    -0.00014370   -0.00026241    0.00013400
     atom   24 type  1   force =    -0.00022294    0.00003350    0.00000067
     atom   25 type  1   force =    -0.00002608   -0.00010881   -0.00087492
     atom   26 type  1   force =    -0.00011577    0.00022994   -0.00016035
     atom   27 type  2   force =    -0.00004102   -0.00078077   -0.00090412
     atom   28 type  2   force =     0.00014172    0.00067194    0.00013303
     atom   29 type  2   force =     0.00009142   -0.00088320    0.00050444
     atom   30 type  2   force =    -0.00024704    0.00138045   -0.00044349
     atom   31 type  1   force =    -0.00020942   -0.00034389    0.00040503
     atom   32 type  1   force =    -0.00026070    0.00035226    0.00001619
     atom   33 type  1   force =     0.00000427   -0.00039314    0.00050907
     atom   34 type  1   force =     0.00022192    0.00042521    0.00023474
     atom   35 type  1   force =     0.00014756   -0.00002740   -0.00139905
     atom   36 type  1   force =    -0.00006904    0.00030460   -0.00014609
     atom   37 type  1   force =    -0.00074411   -0.00088246    0.00039034
     atom   38 type  1   force =     0.00006054   -0.00014254   -0.00066602
     atom   39 type  2   force =    -0.00077125    0.00023905    0.00133770
     atom   40 type  2   force =    -0.00103365    0.00027340    0.00042942
     atom   41 type  2   force =     0.00059198   -0.00071670   -0.00078023
     atom   42 type  2   force =     0.00070897    0.00127623   -0.00034682
     atom   43 type  1   force =    -0.00001090    0.00014365    0.00068311
     atom   44 type  1   force =     0.00017645    0.00005584    0.00033209
     atom   45 type  1   force =    -0.00028841   -0.00011422    0.00021412
     atom   46 type  1   force =    -0.00012646    0.00010661    0.00066846
     atom   47 type  1   force =    -0.00043076   -0.00020994    0.00142086
     atom   48 type  1   force =    -0.00063997    0.00455163    0.00192517
     atom   49 type  3   force =    -0.00011860   -0.00388736   -0.00117287
     atom   50 type  4   force =     0.00067734   -0.00062160   -0.00112486
     atom   51 type  4   force =     0.00021328   -0.00039038    0.00047792

     Total force =     0.374464     Total SCF correction =     0.000962
  @ DRIVER MODE: Message from server: STATUS
  @ DRIVER MODE: Message from server: GETFORCE
  @ DRIVER MODE: Returning v,forces,stress,ensemble

     Writing output data file ./calc.save/
  @ DRIVER MODE: Message from server: EXIT
  @ DRIVE MODE: Exiting

     General routines

     Parallel routines

   This run was terminated on:  19: 4:21  10Sep2021

   JOB DONE.