     Program PWSCF v.6.7GPU starts on  2Aug2021 at 14:43:37

     R & G space division:  proc/nbgrp/npool/nimage =      16
     Reading input from /storage/home/hcoda1/3/ntian30/research/carbon/02Aug_vib_paired/ads_slab/CH3N2H_a/out_0010/pw.inp
Warning: card &CELL ignored
Warning: card   CELL_DYNAMICS='IPI', ignored
Warning: card / ignored

     Current dimensions of program PWSCF are:
     Max number of different atomic species (ntypx) = 10
     Max number of k-points (npk) =  40000
     Max angular momentum in pseudopotentials (lmaxx) =  3
     Presently no symmetry can be used with electric field

     Message from routine cell_base_init:
     DEPRECATED: use true lattice parameter, not A to a.u. conversion factor

     IMPORTANT: XC functional enforced from input :
     Exchange-correlation= BEEF-VDW
                           (   1   4  43  14   2   0   0)
     Any further DFT definition will be discarded
     Please, verify this is what you really want

  @ DRIVER MODE: Connecting to
 qe_1139763_2482535.sched-torque.pace.gatech.eduok5_f2ju_scratch
  using UNIX socket
  @ DRIVER MODE: Message from server: STATUS
  @ DRIVER MODE: Message from server: INIT
  @ DRIVER MODE: Receiving replica           0          -1
  @ DRIVER MODE: Receiving encoded integer          25
  @ DRIVER MODE:  SCF:  T  FORCE:  T  STRESS:  F  VC:  F  ENSEMBLE:  F
  @ DRIVER MODE:  SCF:  T  FORCE:  T  STRESS:  F  VC:  F  ENSEMBLE:  F

     Using Slab Decomposition

     bravais-lattice index     =            0
     lattice parameter (alat)  =       1.8897  a.u.
     unit-cell volume          =    6658.9804 (a.u.)^3
     number of atoms/cell      =           54
     number of atomic types    =            5
     number of electrons       =       396.00
     number of Kohn-Sham states=          208
     kinetic-energy cutoff     =      29.3995  Ry
     charge density cutoff     =     293.9946  Ry
     scf convergence threshold =      7.3E-08
     mixing beta               =       0.0500
     number of iterations used =            8  plain     mixing
     Exchange-correlation= BEEF-VDW
                           (   1   4  43  14   2   0   0)

     celldm(1)=   1.889726  celldm(2)=   0.000000  celldm(3)=   0.000000
     celldm(4)=   0.000000  celldm(5)=   0.000000  celldm(6)=   0.000000

     crystal axes: (cart. coord. in units of alat)
               a(1) = (   6.579727   0.000000   0.000000 )
               a(2) = (  -0.000775   5.961596   0.000000 )
               a(3) = (   0.000000   0.000000  25.155947 )

     reciprocal axes: (cart. coord. in units 2 pi/alat)
               b(1) = (  0.151982  0.000020  0.000000 )
               b(2) = (  0.000000  0.167740  0.000000 )
               b(3) = (  0.000000  0.000000  0.039752 )

     PseudoPot. # 1 for Ti read from file:
     /storage/coda1/p-amedford6/0/shared/rich_project_chbe-medford/medford-share/data/pseudos_module/espresso/nninc/pbe/van/Ti.UPF
     MD5 check sum: 8e4df49b7f0d34bbd5052bf3f5ea0213
     Pseudo is Ultrasoft, Zval = 12.0
     Generated by new atomic code, or converted to UPF format
     Using radial grid of  851 points,  6 beta functions with:
                l(1) =   0
                l(2) =   0
                l(3) =   1
                l(4) =   1
                l(5) =   2
                l(6) =   2
     Q(r) pseudized with  8 coefficients,  rinner =    1.000   1.000   1.000
                                                       1.000   1.000

     PseudoPot. # 2 for O  read from file:
     /storage/coda1/p-amedford6/0/shared/rich_project_chbe-medford/medford-share/data/pseudos_module/espresso/nninc/pbe/van/O.UPF
     MD5 check sum: 78c19812648e8988a0fe644b0f25305e
     Pseudo is Ultrasoft, Zval =  6.0
     Generated by new atomic code, or converted to UPF format
     Using radial grid of  737 points,  4 beta functions with:
                l(1) =   0
                l(2) =   0
                l(3) =   1
                l(4) =   1
     Q(r) pseudized with  8 coefficients,  rinner =    0.800   0.800   0.800

     PseudoPot. # 3 for N  read from file:
     /storage/coda1/p-amedford6/0/shared/rich_project_chbe-medford/medford-share/data/pseudos_module/espresso/nninc/pbe/van/N.UPF
     MD5 check sum: 90d10febe142ad51ac9d5be1deb811c4
     Pseudo is Ultrasoft, Zval =  5.0
     Generated by new atomic code, or converted to UPF format
     Using radial grid of  729 points,  4 beta functions with:
                l(1) =   0
                l(2) =   0
                l(3) =   1
                l(4) =   1
     Q(r) pseudized with  8 coefficients,  rinner =    0.800   0.800   0.800

     PseudoPot. # 4 for C  read from file:
     /storage/coda1/p-amedford6/0/shared/rich_project_chbe-medford/medford-share/data/pseudos_module/espresso/nninc/pbe/van/C.UPF
     MD5 check sum: 1a69bf6b8db32088f5b2163dbdb77a27
     Pseudo is Ultrasoft, Zval =  4.0
     Generated by new atomic code, or converted to UPF format
     Using radial grid of  721 points,  4 beta functions with:
                l(1) =   0
                l(2) =   0
                l(3) =   1
                l(4) =   1
     Q(r) pseudized with  8 coefficients,  rinner =    0.800   0.800   0.800

     PseudoPot. # 5 for H  read from file:
     /storage/coda1/p-amedford6/0/shared/rich_project_chbe-medford/medford-share/data/pseudos_module/espresso/nninc/pbe/van/H.UPF
     MD5 check sum: b5ee9d7bfd3a09ee7748110bda690ff7
     Pseudo is Ultrasoft, Zval =  1.0
     Generated by new atomic code, or converted to UPF format
     Using radial grid of  615 points,  1 beta functions with:
                l(1) =   0
     Q(r) pseudized with  8 coefficients,  rinner =    0.800

     atomic species   valence    mass     pseudopotential
        Ti1           12.00    47.86700     Ti( 1.00)
        O1             6.00    15.99900     O ( 1.00)
        N1             5.00    14.00700     N ( 1.00)
        C1             4.00    12.01100     C ( 1.00)
        H1             1.00     1.00800     H ( 1.00)

     No symmetry found

   Cartesian axes

     site n.     atom                  positions (alat units)
         1           Ti1 tau(   1) = (   0.0004258   2.9801865   6.0000000  )
         2           Ti1 tau(   2) = (   3.2906075   1.4906267   6.0002472  )
         3           O1  tau(   3) = (   0.0006271   0.0005054   7.9858123  )
         4           O1  tau(   4) = (   3.2906025   0.0005020   7.3038282  )
         5           O1  tau(   5) = (   4.5942328   1.4918067   9.2879030  )
         6           O1  tau(   6) = (   1.9868534   1.4903216   9.2879459  )
         7           Ti1 tau(   7) = (   3.2907910   2.8959150   9.1758416  )
         8           Ti1 tau(   8) = (   0.0015273   1.4827037   9.2680791  )
         9           O1  tau(   9) = (   3.3106937   0.0084137  11.2927479  )
        10           O1  tau(  10) = (   0.0116148   5.9584955  10.6183126  )
        11           O1  tau(  11) = (   1.3255326   1.5151957  12.5859258  )
        12           O1  tau(  12) = (   5.3246634   1.4871208  12.6441624  )
        13           Ti1 tau(  13) = (   6.5358624   2.9940264  12.7507449  )
        14           Ti1 tau(  14) = (   3.1828407   1.5032771  12.4528579  )
        15           O1  tau(  15) = (   0.1336207   0.0073438  14.6266748  )
        16           O1  tau(  16) = (   3.2550344   0.0288700  13.8306396  )
        17           O1  tau(  17) = (   4.6334483   1.5013943  15.9792279  )
        18           O1  tau(  18) = (   2.1409664   1.5470880  15.9954950  )
        19           Ti1 tau(  19) = (   3.4798582   3.0305884  15.6593850  )
        20           Ti1 tau(  20) = (   0.1386493   1.3724552  15.8613965  )
        21           O1  tau(  21) = (   3.2904802   0.0005063   4.7018136  )
        22           O1  tau(  22) = (   0.1429122   0.0333940  17.1908172  )
        23           O1  tau(  23) = (   1.3043587   1.4918075   6.0039043  )
        24           O1  tau(  24) = (   5.2767064   1.4903225   6.0039473  )
        25           Ti1 tau(  25) = (   0.0000382   5.9609847   6.0000000  )
        26           Ti1 tau(  26) = (   3.2902200   4.4714249   6.0002472  )
        27           O1  tau(  27) = (   0.0002396   2.9813036   7.9858123  )
        28           O1  tau(  28) = (   3.2902150   2.9813002   7.3038282  )
        29           O1  tau(  29) = (   4.5938453   4.4726049   9.2879030  )
        30           O1  tau(  30) = (   1.9864658   4.4711199   9.2879459  )
        31           Ti1 tau(  31) = (   3.2891106   5.8743827   9.1763621  )
        32           Ti1 tau(  32) = (   0.0006254   4.4649316   9.2693709  )
        33           O1  tau(  33) = (   3.3137399   2.9960163  11.2943833  )
        34           O1  tau(  34) = (   0.0092240   2.9805883  10.6323155  )
        35           O1  tau(  35) = (   1.3234708   4.4688006  12.5930975  )
        36           O1  tau(  36) = (   5.3222282   4.4932535  12.6449723  )
        37           Ti1 tau(  37) = (   6.5041614   0.0053836  12.5833808  )
        38           Ti1 tau(  38) = (   3.1843229   4.4812189  12.4522442  )
        39           O1  tau(  39) = (   0.0584892   2.9792810  14.6723703  )
        40           O1  tau(  40) = (   3.3232524   2.9928384  13.8523860  )
        41           O1  tau(  41) = (   4.6237859   4.5837569  15.7472905  )
        42           O1  tau(  42) = (   2.1882403   4.4693611  16.1038286  )
        43           Ti1 tau(  43) = (   3.3015484   0.0242660  15.6383815  )
        44           Ti1 tau(  44) = (   0.0181797   4.4930750  16.1931172  )
        45           O1  tau(  45) = (   3.2900926   2.9813045   4.7018136  )
        46           O1  tau(  46) = (   1.3039711   4.4726057   6.0039043  )
        47           O1  tau(  47) = (   5.2763189   4.4711207   6.0039473  )
        48           N1  tau(  48) = (   0.2677213   2.8760844  17.5655548  )
        49           C1  tau(  49) = (   1.2271684   2.7739891  18.6598760  )
        50           H1  tau(  50) = (   1.2930054   3.7106696  19.2072709  )
        51           H1  tau(  51) = (   0.8976878   1.9730418  19.3402421  )
        52           H1  tau(  52) = (   2.2102292   2.4972526  18.2850250  )
        53           N1  tau(  53) = (   5.6732178   3.4927010  17.8452151  )
        54           H1  tau(  54) = (   5.7345573   4.0058295  18.7343860  )

     number of k points=    10  Fermi-Dirac smearing, width (Ry)=  0.0073
                       cart. coord. in units 2pi/alat
        k(    1) = (   0.0000000   0.0000000   0.0000000), wk =   0.1250000
        k(    2) = (   0.0000000   0.0419351   0.0000000), wk =   0.2500000
        k(    3) = (   0.0000000  -0.0838702   0.0000000), wk =   0.1250000
        k(    4) = (   0.0379955   0.0000049   0.0000000), wk =   0.2500000
        k(    5) = (   0.0379955   0.0419400   0.0000000), wk =   0.2500000
        k(    6) = (   0.0379955  -0.0838652   0.0000000), wk =   0.2500000
        k(    7) = (   0.0379955  -0.0419301   0.0000000), wk =   0.2500000
        k(    8) = (  -0.0759910  -0.0000099   0.0000000), wk =   0.1250000
        k(    9) = (  -0.0759910   0.0419252   0.0000000), wk =   0.2500000
        k(   10) = (  -0.0759910  -0.0838800   0.0000000), wk =   0.1250000

     Initial potential from superposition of free atoms

     starting charge  379.99915, renormalised to  396.00000

     negative rho (up, down):  1.686E-02 0.000E+00

     %%%%%%%%%%%%%%%%%%%%%%%%%%%%%%%%%%%%%%%%%%%%%%%%%%%%%%%%%%%%%%%%%%%%%%%%
     %                                                                      %
     % You are using vdW-DF, which was implemented by the Thonhauser group. %
     % Please cite the following two papers that made this development      %
     % possible and the two reviews that describe the various versions:     %
     %                                                                      %
     %   T. Thonhauser et al., PRL 115, 136402 (2015).                      %
     %   T. Thonhauser et al., PRB 76, 125112 (2007).                       %
     %   K. Berland et al., Rep. Prog. Phys. 78, 066501 (2015).             %
     %   D.C. Langreth et al., J. Phys.: Condens. Matter 21, 084203 (2009). %
     %                                                                      %
     %                                                                      %
     % If you are calculating the stress with vdW-DF, please also cite:     %
     %                                                                      %
     %   R. Sabatini et al., J. Phys.: Condens. Matter 24, 424209 (2012).   %
     %                                                                      %
     %%%%%%%%%%%%%%%%%%%%%%%%%%%%%%%%%%%%%%%%%%%%%%%%%%%%%%%%%%%%%%%%%%%%%%%%

     Adding external electric field

     Computed dipole along edir(3) :
        Dipole               -8.2222 Ry au,        -20.8988 Debye
        Dipole field         -0.0155 Ry au,

        Potential amp.        1.4384 Ry
        Total length         46.3494 bohr

     Starting wfcs are  300 atomic wfcs
  @ DRIVER MODE: Message from server: STATUS
  @ DRIVER MODE: Message from server: POSDATA
  @ DRIVER MODE: Reading and sharing cell
  @ DRIVER MODE: Reading and sharing positions
  @ DRIVER MODE: Received positions

     Self-consistent Calculation

     iteration #  1     ecut=    29.40 Ry     beta= 0.05
     Davidson diagonalization with overlap
     c_bands:  1 eigenvalues not converged
     c_bands:  1 eigenvalues not converged
     c_bands:  1 eigenvalues not converged
     c_bands:  1 eigenvalues not converged
     c_bands:  4 eigenvalues not converged
     c_bands:  1 eigenvalues not converged
     c_bands:  4 eigenvalues not converged
     c_bands:  2 eigenvalues not converged
     c_bands:  1 eigenvalues not converged
     ethr =  1.00E-05,  avg # of iterations = 20.0

[...]

     total energy              =   -2607.33603309 Ry
     estimated scf accuracy    <    3677.89875097 Ry

     iteration #  2     ecut=    29.40 Ry     beta= 0.05
     Davidson diagonalization with overlap
     ethr =  1.00E-02,  avg # of iterations = 21.9

[...]

     iteration # 66     ecut=    29.40 Ry     beta= 0.05
     Davidson diagonalization with overlap
     c_bands:  1 eigenvalues not converged
     ethr =  3.33E-07,  avg # of iterations =  3.8

[...]

     total energy              =   -2940.35202481 Ry
     estimated scf accuracy    <       0.00000009 Ry

     iteration # 88     ecut=    29.40 Ry     beta= 0.05
     Davidson diagonalization with overlap
     ethr =  1.92E-11,  avg # of iterations =  5.9

     negative rho (up, down):  1.746E-02 0.000E+00

     Adding external electric field

     Computed dipole along edir(3) :
        Dipole                0.7378 Ry au,          1.8754 Debye
        Dipole field          0.0014 Ry au,

        Potential amp.       -0.1291 Ry
        Total length         46.3494 bohr

     End of self-consistent calculation

          k = 0.0000 0.0000 0.0000 ( 18029 PWs)   bands (ev):

   -56.0230 -55.9890 -55.8044 -55.7655 -55.7250 -55.6905 -55.6635 -55.6393
   -55.6293 -55.6046 -55.5758 -55.4961 -55.2417 -54.9194 -54.8854 -54.7875
   -32.4897 -32.3465 -32.3171 -32.2937 -32.1920 -32.1779 -32.1662 -32.1288
   -32.1125 -32.0992 -32.0839 -32.0453 -32.0217 -31.9821 -31.9757 -31.9733
   -31.9418 -31.9311 -31.9201 -31.8962 -31.8870 -31.8694 -31.8639 -31.8593
   -31.8396 -31.8375 -31.8293 -31.8249 -31.8194 -31.8019 -31.7942 -31.7935
   -31.7762 -31.7520 -31.6924 -31.6653 -31.6168 -31.4683 -31.4651 -31.3229
   -31.2436 -31.2206 -31.2056 -31.1402 -31.0542 -30.9923 -30.9429 -30.9119
   -17.3156 -16.5593 -16.3685 -16.0785 -15.9276 -15.9080 -15.7886 -15.6915
   -15.6139 -15.5143 -15.4611 -15.4065 -15.3945 -15.3690 -15.3103 -15.2882
   -15.2471 -15.2295 -15.1868 -15.1761 -15.1303 -15.1082 -15.0856 -15.0515
   -14.9867 -14.9161 -14.9035 -14.7472 -14.6078 -14.4549 -13.4203 -13.3055
   -11.5493  -8.3407  -5.0157  -3.9989  -3.9460  -3.8764  -3.8598  -3.7742
    -3.6929  -3.4411  -3.4168  -3.3576  -3.0708  -3.0234  -2.9993  -2.9948
    -2.8969  -2.7576  -2.7268  -2.6668  -2.6610  -2.6403  -2.6203  -2.6036
    -2.5465  -2.4895  -2.4729  -2.4327  -2.2980  -2.2725  -2.2678  -2.2456
    -2.1746  -2.1667  -2.1015  -2.0843  -2.0613  -2.0430  -2.0058  -1.8731
    -1.8393  -1.7731  -1.6939  -1.6042  -1.5247  -1.4898  -1.4062  -1.3866
    -1.3311  -1.2607  -1.2472  -1.1804  -1.1459  -1.0704  -1.0443  -1.0083
    -0.8992  -0.8726  -0.8112  -0.7580  -0.7106  -0.6991  -0.6560  -0.6317
    -0.6261  -0.6118  -0.5986  -0.4031  -0.3740  -0.2314  -0.1857  -0.1612
    -0.1204  -0.0979  -0.0394  -0.0157  -0.0101   0.0295   0.0476   0.0903
     0.1462   0.1622   0.1870   0.2805   0.3124   0.3676   0.4942   0.5075
     0.5958   0.6624   0.7682   0.7811   0.8320   0.9636   1.0597   1.0822
     1.1030   1.3083   1.4134   1.6672   1.7096   3.0245   3.1704   3.2657
     3.3744   3.4948   3.5701   3.6082   3.7832   3.8208   3.8624   3.9327

[...]

          k = 0.0380-0.0419 0.0000 ( 17876 PWs)   bands (ev):

[...]

          k =-0.0760-0.0000 0.0000 ( 17886 PWs)   bands (ev):

[...]

          k =-0.0760-0.0839 0.0000 ( 17948 PWs)   bands (ev):

   -56.0070 -56.0049 -55.7923 -55.7774 -55.7114 -55.7039 -55.6481 -55.6447
   -55.6259 -55.6180 -55.5719 -55.4999 -55.2411 -54.9024 -54.9023 -54.7880
   -32.3061 -32.3051 -32.3029 -32.3011 -32.1540 -32.1418 -32.1299 -32.1277
   -32.0504 -32.0377 -32.0274 -32.0236 -32.0167 -32.0139 -31.9707 -31.9652
   -31.9557 -31.9436 -31.9131 -31.9025 -31.8904 -31.8860 -31.8814 -31.8803
   -31.8756 -31.8716 -31.8557 -31.8502 -31.8442 -31.8406 -31.8356 -31.8170
   -31.7975 -31.7944 -31.7650 -31.7063 -31.6074 -31.4708 -31.4645 -31.2555
   -31.2334 -31.2334 -31.1362 -31.1360 -31.0973 -31.0972 -31.0043 -30.9159
   -17.2966 -15.9764 -15.9480 -15.8407 -15.8213 -15.7327 -15.7194 -15.6046
   -15.5969 -15.5840 -15.5177 -15.4721 -15.4615 -15.3790 -15.3523 -15.3408
   -15.3164 -15.3066 -15.3001 -15.2892 -15.2767 -15.1971 -15.1918 -15.1894
   -15.1142 -15.0915 -14.9054 -14.8621 -14.6638 -14.6186 -13.4079 -13.4076
   -11.5529  -8.3206  -5.0222  -3.8930  -3.8554  -3.2785  -3.2424  -3.0268
    -3.0007  -2.9804  -2.9511  -2.7664  -2.7525  -2.7462  -2.7288  -2.7158
    -2.6787  -2.6596  -2.6469  -2.5809  -2.5719  -2.5509  -2.5460  -2.5364
    -2.5172  -2.5019  -2.4942  -2.4745  -2.4597  -2.4148  -2.3608  -2.3382
    -2.2872  -2.1936  -2.0875  -2.0435  -2.0298  -2.0217  -1.9987  -1.9896
    -1.9489  -1.9362  -1.8503  -1.6667  -1.6187  -1.5574  -1.5514  -1.5447
    -1.4819  -1.4278  -1.3823  -1.3092  -1.2444  -1.1924  -1.1628  -1.1380
    -1.1055  -1.0384  -0.9715  -0.9516  -0.9389  -0.9099  -0.9068  -0.8885
    -0.8100  -0.7260  -0.6850  -0.6552  -0.6332  -0.6192  -0.6034  -0.5814
    -0.4725  -0.4054  -0.3580  -0.3127  -0.2705  -0.2280  -0.1093  -0.0945
     0.0999   0.1660   0.1913   0.2702   0.3668   0.3923   0.4027   0.4673
     0.5432   0.6048   0.6401   0.6945   0.7096   0.7310   0.7980   1.0131
     1.0685   1.4771   1.4787   1.5278   1.5287   2.9889   3.6709   3.6783
     3.6817   3.6918   3.7126   3.7360   3.7884   3.8231   3.9244   3.9448

     the Fermi energy is     3.1349 ev

!    total energy              =   -2940.35202926 Ry
     estimated scf accuracy    <       0.00000003 Ry
     smearing contrib. (-TS)   =      -0.01868572 Ry
     internal energy E=F+TS    =   -2940.33334354 Ry

     The total energy is F=E-TS. E is the sum of the following terms:
     one-electron contribution =  -24661.69949722 Ry
     hartree contribution      =   12419.97778400 Ry
     xc contribution           =    -486.05057290 Ry
     ewald contribution        =    9787.43791523 Ry
     electric field correction =       0.00102735 Ry

     convergence has been achieved in  88 iterations

     Forces acting on atoms (cartesian axes, Ry/au):

     atom    1 type  1   force =     0.00026612   -0.00036235    0.10150060
     atom    2 type  1   force =     0.00003118   -0.00086999   -0.17139915
     atom    3 type  2   force =     0.00029098    0.00021755   -0.03324925
     atom    4 type  2   force =     0.00003218   -0.00078635    0.04480347
     atom    5 type  2   force =    -0.01194948   -0.00020639   -0.00232716
     atom    6 type  2   force =     0.01438352    0.00038643   -0.00112782
     atom    7 type  1   force =     0.00140366   -0.00129522   -0.00428127
     atom    8 type  1   force =    -0.00078196    0.02219436    0.05621308
     atom    9 type  2   force =     0.00002820   -0.00032611    0.00045859
     atom   10 type  2   force =    -0.00266359    0.00207388   -0.02593428
     atom   11 type  2   force =     0.00002493    0.00024351   -0.00006028
     atom   12 type  2   force =     0.00010176    0.00073461    0.00001667
     atom   13 type  1   force =    -0.00004044    0.00013901    0.00026253
     atom   14 type  1   force =     0.00027982    0.00027611   -0.00000700
     atom   15 type  2   force =     0.00022829   -0.00013992    0.00003002
     atom   16 type  2   force =    -0.00002287   -0.00013402    0.00076081
     atom   17 type  2   force =    -0.00008521   -0.00077484    0.00001261
     atom   18 type  2   force =     0.00049306   -0.00072084    0.00031817
     atom   19 type  1   force =    -0.00010589   -0.00045888    0.00032498
     atom   20 type  1   force =     0.00006106    0.00002693   -0.00005432
     atom   21 type  2   force =     0.00006676   -0.00000867    0.10209607
     atom   22 type  2   force =     0.00001595   -0.00030254    0.00035124
     atom   23 type  2   force =    -0.07327758   -0.00015853   -0.02887426
     atom   24 type  2   force =     0.07322972    0.00033210   -0.02892444
     atom   25 type  1   force =    -0.00029130   -0.00032310    0.10193419
     atom   26 type  1   force =     0.00002516   -0.00016532   -0.17138896
     atom   27 type  2   force =     0.00036439   -0.00022892   -0.03197434
     atom   28 type  2   force =     0.00009096   -0.00057209    0.04542096
     atom   29 type  2   force =    -0.01210013    0.00213348   -0.00288226
     atom   30 type  2   force =     0.01441109    0.00229310   -0.00162671
     atom   31 type  1   force =     0.00160179    0.00092911   -0.00561616
     atom   32 type  1   force =    -0.00059062   -0.02474875    0.05726275
     atom   33 type  2   force =     0.00015098    0.00036098    0.00061779
     atom   34 type  2   force =    -0.00420651    0.00212225   -0.04833132
     atom   35 type  2   force =     0.00061443   -0.00058433    0.00000852
     atom   36 type  2   force =    -0.00039062   -0.00074199    0.00013981
     atom   37 type  1   force =     0.00006033    0.00060540   -0.00004956
     atom   38 type  1   force =     0.00001958   -0.00013532   -0.00011396
     atom   39 type  2   force =     0.00018840   -0.00003318   -0.00069479
     atom   40 type  2   force =    -0.00008945   -0.00003385   -0.00033489
     atom   41 type  2   force =     0.00005343    0.00049516   -0.00008420
     atom   42 type  2   force =    -0.00000506    0.00040766    0.00065531
     atom   43 type  1   force =    -0.00024511   -0.00016304    0.00017312
     atom   44 type  1   force =    -0.00024759    0.00038232   -0.00000169
     atom   45 type  2   force =     0.00004718   -0.00005217    0.10215970
     atom   46 type  2   force =    -0.07328895   -0.00009438   -0.02884954
     atom   47 type  2   force =     0.07324045    0.00028325   -0.02888590
     atom   48 type  3   force =    -0.00044873    0.00273683    0.00119382
     atom   49 type  4   force =     0.00032936   -0.02085714   -0.00111249
     atom   50 type  5   force =     0.00023017    0.00878702    0.00380359
     atom   51 type  5   force =     0.00161620    0.00602129   -0.00334183
     atom   52 type  5   force =    -0.00233213    0.00187142    0.00116308
     atom   53 type  3   force =    -0.00070776   -0.00040335    0.00043181
     atom   54 type  5   force =    -0.00011013   -0.00037220   -0.00058547

     Total force =     0.378541     Total SCF correction =     0.000460
  @ DRIVER MODE: Message from server: STATUS
  @ DRIVER MODE: Message from server: GETFORCE
  @ DRIVER MODE: Returning v,forces,stress,ensemble

     Writing output data file ./calc.save/
  @ DRIVER MODE: Message from server: EXIT
  @ DRIVE MODE: Exiting

     General routines

     Parallel routines

   This run was terminated on:  15: 2:50   2Aug2021

   JOB DONE.