     Program PWSCF v.6.7GPU starts on  2Aug2021 at 12:11:26

     R & G space division:  proc/nbgrp/npool/nimage =      16
     Reading input from /storage/home/hcoda1/3/ntian30/research/carbon/02Aug_spin_polarized/ads_slab/CH3NHH_a/02Aug_spin_polarized.log/pw.inp
Warning: card &CELL ignored
Warning: card   CELL_DYNAMICS='IPI', ignored
Warning: card / ignored

     Current dimensions of program PWSCF are:
     Max number of different atomic species (ntypx) = 10
     Max number of k-points (npk) =  40000
     Max angular momentum in pseudopotentials (lmaxx) =  3
     Presently no symmetry can be used with electric field

     Message from routine cell_base_init:
     DEPRECATED: use true lattice parameter, not A to a.u. conversion factor

     IMPORTANT: XC functional enforced from input :
     Exchange-correlation= BEEF-VDW
                           (   1   4  43  14   2   0   0)
     Any further DFT definition will be discarded
     Please, verify this is what you really want

  @ DRIVER MODE: Connecting to
 qe_1139763_2482596.sched-torque.pace.gatech.eduf9fx8pma_scratch
  using UNIX socket
  @ DRIVER MODE: Message from server: STATUS
  @ DRIVER MODE: Message from server: INIT
  @ DRIVER MODE: Receiving replica           0          -1
  @ DRIVER MODE: Receiving encoded integer          25
  @ DRIVER MODE:  SCF:  T  FORCE:  T  STRESS:  F  VC:  F  ENSEMBLE:  F
  @ DRIVER MODE:  SCF:  T  FORCE:  T  STRESS:  F  VC:  F  ENSEMBLE:  F

     Using Slab Decomposition

     bravais-lattice index     =            0
     lattice parameter (alat)  =       1.8897  a.u.
     unit-cell volume          =    6658.9804 (a.u.)^3
     number of atoms/cell      =           54
     number of atomic types    =            5
     number of electrons       =       392.00
     number of Kohn-Sham states=          206
     kinetic-energy cutoff     =      29.3995  Ry
     charge density cutoff     =     293.9946  Ry
     scf convergence threshold =      7.3E-08
     mixing beta               =       0.0500
     number of iterations used =            8  plain     mixing
     Exchange-correlation= BEEF-VDW
                           (   1   4  43  14   2   0   0)

     celldm(1)=   1.889726  celldm(2)=   0.000000  celldm(3)=   0.000000
     celldm(4)=   0.000000  celldm(5)=   0.000000  celldm(6)=   0.000000

     crystal axes: (cart. coord. in units of alat)
               a(1) = (   6.579727   0.000000   0.000000 )
               a(2) = (  -0.000775   5.961596   0.000000 )
               a(3) = (   0.000000   0.000000  25.155947 )

     reciprocal axes: (cart. coord. in units 2 pi/alat)
               b(1) = (  0.151982  0.000020  0.000000 )
               b(2) = (  0.000000  0.167740  0.000000 )
               b(3) = (  0.000000  0.000000  0.039752 )

     PseudoPot. # 1 for Ti read from file:
     /storage/coda1/p-amedford6/0/shared/rich_project_chbe-medford/medford-share/data/pseudos_module/espresso/nninc/pbe/van/Ti.UPF
     MD5 check sum: 8e4df49b7f0d34bbd5052bf3f5ea0213
     Pseudo is Ultrasoft, Zval = 12.0
     Generated by new atomic code, or converted to UPF format
     Using radial grid of  851 points,  6 beta functions with:
                l(1) =   0
                l(2) =   0
                l(3) =   1
                l(4) =   1
                l(5) =   2
                l(6) =   2
     Q(r) pseudized with  8 coefficients,  rinner =    1.000   1.000   1.000
                                                       1.000   1.000

     PseudoPot. # 2 for O  read from file:
     /storage/coda1/p-amedford6/0/shared/rich_project_chbe-medford/medford-share/data/pseudos_module/espresso/nninc/pbe/van/O.UPF
     MD5 check sum: 78c19812648e8988a0fe644b0f25305e
     Pseudo is Ultrasoft, Zval =  6.0
     Generated by new atomic code, or converted to UPF format
     Using radial grid of  737 points,  4 beta functions with:
                l(1) =   0
                l(2) =   0
                l(3) =   1
                l(4) =   1
     Q(r) pseudized with  8 coefficients,  rinner =    0.800   0.800   0.800

     PseudoPot. # 3 for N  read from file:
     /storage/coda1/p-amedford6/0/shared/rich_project_chbe-medford/medford-share/data/pseudos_module/espresso/nninc/pbe/van/N.UPF
     MD5 check sum: 90d10febe142ad51ac9d5be1deb811c4
     Pseudo is Ultrasoft, Zval =  5.0
     Generated by new atomic code, or converted to UPF format
     Using radial grid of  729 points,  4 beta functions with:
                l(1) =   0
                l(2) =   0
                l(3) =   1
                l(4) =   1
     Q(r) pseudized with  8 coefficients,  rinner =    0.800   0.800   0.800

     PseudoPot. # 4 for C  read from file:
     /storage/coda1/p-amedford6/0/shared/rich_project_chbe-medford/medford-share/data/pseudos_module/espresso/nninc/pbe/van/C.UPF
     MD5 check sum: 1a69bf6b8db32088f5b2163dbdb77a27
     Pseudo is Ultrasoft, Zval =  4.0
     Generated by new atomic code, or converted to UPF format
     Using radial grid of  721 points,  4 beta functions with:
                l(1) =   0
                l(2) =   0
                l(3) =   1
                l(4) =   1
     Q(r) pseudized with  8 coefficients,  rinner =    0.800   0.800   0.800

     PseudoPot. # 5 for H  read from file:
     /storage/coda1/p-amedford6/0/shared/rich_project_chbe-medford/medford-share/data/pseudos_module/espresso/nninc/pbe/van/H.UPF
     MD5 check sum: b5ee9d7bfd3a09ee7748110bda690ff7
     Pseudo is Ultrasoft, Zval =  1.0
     Generated by new atomic code, or converted to UPF format
     Using radial grid of  615 points,  1 beta functions with:
                l(1) =   0
     Q(r) pseudized with  8 coefficients,  rinner =    0.800

     atomic species   valence    mass     pseudopotential
        Ti1           12.00    47.86700     Ti( 1.00)
        O1             6.00    15.99900     O ( 1.00)
        N1             5.00    14.00700     N ( 1.00)
        C1             4.00    12.01100     C ( 1.00)
        H1             1.00     1.00800     H ( 1.00)

     Starting magnetic structure
     atomic species   magnetization
        Ti1          0.000
        O1           0.000
        N1           0.120
        C1           0.150
        H1           0.000

     No symmetry found

   Cartesian axes

     site n.     atom                  positions (alat units)
         1           Ti1 tau(   1) = (   0.0004258   2.9801865   6.0000000  )
         2           Ti1 tau(   2) = (   3.2906075   1.4906267   6.0002472  )
         3           O1  tau(   3) = (   0.0006271   0.0005054   7.9858123  )
         4           O1  tau(   4) = (   3.2906025   0.0005020   7.3038282  )
         5           O1  tau(   5) = (   4.5942328   1.4918067   9.2879030  )
         6           O1  tau(   6) = (   1.9868534   1.4903216   9.2879459  )
         7           Ti1 tau(   7) = (   3.2907910   2.8959150   9.1758416  )
         8           Ti1 tau(   8) = (   0.0015273   1.4827037   9.2680791  )
         9           O1  tau(   9) = (   3.2893523   5.9576907  11.3759447  )
        10           O1  tau(  10) = (   0.0116148   5.9584955  10.6183126  )
        11           O1  tau(  11) = (   1.2892553   1.4862333  12.6941169  )
        12           O1  tau(  12) = (   5.2958346   1.4833122  12.6807028  )
        13           Ti1 tau(  13) = (   0.0095698   2.9692159  12.5083673  )
        14           Ti1 tau(  14) = (   3.3108451   1.4743585  12.5306019  )
        15           O1  tau(  15) = (   6.5736105   5.8801748  14.6991865  )
        16           O1  tau(  16) = (   3.2979610   5.9450902  14.0010558  )
        17           O1  tau(  17) = (   4.5273680   1.5185660  16.1654609  )
        18           O1  tau(  18) = (   2.0122787   1.5163527  16.1384539  )
        19           Ti1 tau(  19) = (   3.2802752   2.9921964  15.7561315  )
        20           Ti1 tau(  20) = (   0.0093588   1.3049760  15.8672178  )
        21           O1  tau(  21) = (   3.2904802   0.0005063   4.7018136  )
        22           O1  tau(  22) = (   6.5538635   0.1342075  17.2452287  )
        23           O1  tau(  23) = (   1.3043587   1.4918075   6.0039043  )
        24           O1  tau(  24) = (   5.2767064   1.4903225   6.0039473  )
        25           Ti1 tau(  25) = (   0.0000382   5.9609847   6.0000000  )
        26           Ti1 tau(  26) = (   3.2902200   4.4714249   6.0002472  )
        27           O1  tau(  27) = (   0.0002396   2.9813036   7.9858123  )
        28           O1  tau(  28) = (   3.2902150   2.9813002   7.3038282  )
        29           O1  tau(  29) = (   4.5938453   4.4726049   9.2879030  )
        30           O1  tau(  30) = (   1.9864658   4.4711199   9.2879459  )
        31           Ti1 tau(  31) = (   3.2891106   5.8743827   9.1763621  )
        32           Ti1 tau(  32) = (   0.0006254   4.4649316   9.2693709  )
        33           O1  tau(  33) = (   3.2933707   2.9638296  11.3700534  )
        34           O1  tau(  34) = (   0.0092240   2.9805883  10.6323155  )
        35           O1  tau(  35) = (   1.2923283   4.4540072  12.6594629  )
        36           O1  tau(  36) = (   5.2938616   4.4568750  12.6477176  )
        37           Ti1 tau(  37) = (   0.0202681   5.9396231  12.5027719  )
        38           Ti1 tau(  38) = (   3.3116628   4.4527548  12.5215617  )
        39           O1  tau(  39) = (   6.5466975   3.0260875  14.9671898  )
        40           O1  tau(  40) = (   3.2966604   2.9917109  13.9679302  )
        41           O1  tau(  41) = (   4.5116687   4.4737236  16.2360857  )
        42           O1  tau(  42) = (   2.0028912   4.4646324  16.2202640  )
        43           Ti1 tau(  43) = (   3.2937213   0.0113368  15.7972781  )
        44           Ti1 tau(  44) = (   0.0208052   4.5175143  16.0574476  )
        45           O1  tau(  45) = (   3.2900926   2.9813045   4.7018136  )
        46           O1  tau(  46) = (   1.3039711   4.4726057   6.0039043  )
        47           O1  tau(  47) = (   5.2763189   4.4711207   6.0039473  )
        48           N1  tau(  48) = (   6.3337458   3.3624127  18.1270434  )
        49           C1  tau(  49) = (   0.8795605   3.2639204  19.0799812  )
        50           H1  tau(  50) = (   1.4196110   4.2071110  19.0760701  )
        51           H1  tau(  51) = (   0.5395241   3.0459488  20.0957609  )
        52           H1  tau(  52) = (   1.5475163   2.4696122  18.7548312  )
        53           H1  tau(  53) = (   5.6940081   4.0973896  18.4182617  )
        54           H1  tau(  54) = (   5.7906660   2.4998151  18.1411682  )

     number of k points=    10  Fermi-Dirac smearing, width (Ry)=  0.0073
                       cart. coord. in units 2pi/alat
        k(    1) = (   0.0000000   0.0000000   0.0000000), wk =   0.0625000
        k(    2) = (   0.0000000   0.0419351   0.0000000), wk =   0.1250000
        k(    3) = (   0.0000000  -0.0838702   0.0000000), wk =   0.0625000
        k(    4) = (   0.0379955   0.0000049   0.0000000), wk =   0.1250000
        k(    5) = (   0.0379955   0.0419400   0.0000000), wk =   0.1250000
        k(    6) = (   0.0379955  -0.0838652   0.0000000), wk =   0.1250000
        k(    7) = (   0.0379955  -0.0419301   0.0000000), wk =   0.1250000
[...]
     atom  19 (R=0.738)  charge=  8.0640  magn=  0.0485
     atom  20 (R=0.738)  charge=  8.0763  magn=  0.0108
     atom  21 (R=0.738)  charge=  4.8972  magn= -0.0032
     atom  22 (R=0.738)  charge=  4.9759  magn= -0.0018
     atom  23 (R=0.738)  charge=  5.0094  magn= -0.0079
     atom  24 (R=0.738)  charge=  5.0095  magn= -0.0079
     atom  25 (R=0.738)  charge=  8.0429  magn=  0.0765
     atom  26 (R=0.738)  charge=  8.0243  magn=  0.0036
     atom  27 (R=0.738)  charge=  5.0119  magn= -0.0102
     atom  28 (R=0.738)  charge=  5.0492  magn= -0.0010
     atom  29 (R=0.738)  charge=  5.0191  magn= -0.0025
     atom  30 (R=0.738)  charge=  5.0194  magn= -0.0025
     atom  31 (R=0.738)  charge=  8.0244  magn=  0.0065
     atom  32 (R=0.738)  charge=  8.0260  magn=  0.0746
     atom  33 (R=0.738)  charge=  5.0253  magn= -0.0027
     atom  34 (R=0.738)  charge=  5.0228  magn= -0.0053
     atom  35 (R=0.738)  charge=  5.0162  magn= -0.0030
     atom  36 (R=0.738)  charge=  5.0179  magn= -0.0031
     atom  37 (R=0.738)  charge=  8.0279  magn=  0.0262
     atom  38 (R=0.738)  charge=  8.0302  magn=  0.0240
     atom  39 (R=0.738)  charge=  5.0062  magn= -0.0020
     atom  40 (R=0.738)  charge=  5.0343  magn= -0.0041
     atom  41 (R=0.738)  charge=  4.9975  magn= -0.0040
     atom  42 (R=0.738)  charge=  5.0021  magn= -0.0042
     atom  43 (R=0.738)  charge=  8.0616  magn=  0.0503
     atom  44 (R=0.738)  charge=  8.0412  magn=  0.0239
     atom  45 (R=0.738)  charge=  4.8972  magn= -0.0032
     atom  46 (R=0.738)  charge=  5.0094  magn= -0.0079
     atom  47 (R=0.738)  charge=  5.0095  magn= -0.0079
     atom  48 (R=0.420)  charge=  1.3384  magn= -0.0002
     atom  49 (R=0.448)  charge=  0.8445  magn=  0.0000
     atom  50 (R=0.420)  charge=  0.4443  magn= -0.0000
     atom  51 (R=0.420)  charge=  0.4453  magn= -0.0000
     atom  52 (R=0.420)  charge=  0.4441  magn= -0.0000
     atom  53 (R=0.420)  charge=  0.4504  magn=  0.0000
     atom  54 (R=0.420)  charge=  0.4502  magn=  0.0000

     End of self-consistent calculation

 ------ SPIN UP ------------

          k = 0.0000 0.0000 0.0000 ( 18029 PWs)   bands (ev):

   -55.4596 -55.4428 -55.4233 -55.4089 -55.3817 -55.3561 -55.3402 -55.3058
   -55.2765 -55.2761 -55.2614 -55.2414 -55.2280 -55.1288 -54.4155 -54.3815
   -32.0203 -31.9047 -31.8974 -31.8212 -31.7837 -31.7834 -31.7751 -31.7507
   -31.7430 -31.7002 -31.6983 -31.6704 -31.6673 -31.6419 -31.6329 -31.6321
   -31.6079 -31.6077 -31.6063 -31.5971 -31.5682 -31.5622 -31.5442 -31.5196
   -31.5180 -31.5120 -31.5033 -31.4939 -31.4782 -31.4723 -31.4648 -31.4647
   -31.4554 -31.4361 -31.4255 -31.4132 -31.4127 -31.4002 -31.3940 -31.3714
   -31.3375 -31.3094 -30.8233 -30.7314 -30.7087 -30.6412 -30.5545 -30.4420
   -16.2939 -16.1646 -15.9734 -15.8293 -15.7494 -15.6256 -15.5170 -15.5001
   -15.3612 -15.2745 -15.1626 -15.1379 -15.1159 -15.0937 -15.0839 -15.0691
   -14.9756 -14.9682 -14.9597 -14.9183 -14.9175 -14.8710 -14.8691 -14.8282
   -14.8062 -14.7980 -14.6857 -14.5900 -14.5106 -14.2816 -12.9110 -12.7933
   -10.2327  -6.2839  -4.8374  -3.9642  -3.6141  -3.4596  -3.3709  -3.3441
    -3.3244  -3.1972  -3.0491  -2.8999  -2.8526  -2.8421  -2.7249  -2.6502
    -2.6415  -2.6224  -2.4671  -2.4352  -2.3918  -2.3439  -2.2994  -2.2446
    -2.2263  -2.2201  -2.2052  -2.1843  -2.1744  -2.0579  -1.9987  -1.9214
    -1.8612  -1.8428  -1.7893  -1.7649  -1.7440  -1.7220  -1.7142  -1.6712
    -1.6583  -1.6304  -1.5734  -1.4623  -1.3652  -1.3131  -1.1929  -1.0698
    -1.0290  -1.0222  -0.9786  -0.9383  -0.9201  -0.8557  -0.8077  -0.7816
    -0.7207  -0.6644  -0.6012  -0.5535  -0.4822  -0.4689  -0.4180  -0.3684
    -0.2526  -0.2160  -0.1965  -0.1708  -0.0808  -0.0417   0.0024   0.0839
     0.0945   0.1084   0.2096   0.2237   0.2932   0.3402   0.3566   0.4512
     0.4866   0.4953   0.5038   0.5262   0.5587   0.6038   0.6409   0.6726
     0.7388   0.8670   1.0828   1.1586   1.1823   1.5096   1.5167   1.6126
     1.7957   2.1920   2.2376   3.5886   3.7021   3.7319   3.7722   3.7834
     3.8742   4.1160   4.1332   4.1350   4.1492   4.1718

[...]

          k =-0.0760-0.0000 0.0000 ( 17886 PWs)   bands (ev):

[...]

 ------ SPIN DOWN ----------

[...]

          k = 0.0380-0.0419 0.0000 ( 17876 PWs)   bands (ev):

[...]

          k =-0.0760-0.0839 0.0000 ( 17948 PWs)   bands (ev):

   -55.4036 -55.3959 -55.3377 -55.2894 -55.2892 -55.2798 -55.2753 -55.2630
   -55.2352 -55.2314 -55.1938 -55.1256 -55.1252 -55.1108 -54.3917 -54.3914
   -31.8004 -31.7951 -31.7947 -31.6915 -31.6699 -31.6558 -31.6557 -31.6306
   -31.6232 -31.6113 -31.6014 -31.5874 -31.5664 -31.5664 -31.5663 -31.5616
   -31.5591 -31.5499 -31.5461 -31.5433 -31.5364 -31.5216 -31.5018 -31.4727
   -31.4680 -31.4671 -31.4639 -31.4627 -31.4587 -31.4556 -31.4553 -31.4275
   -31.4246 -31.3983 -31.3981 -31.3913 -31.3888 -31.3854 -31.3685 -31.3178
   -31.2967 -31.2961 -30.7135 -30.7133 -30.6318 -30.6316 -30.5909 -30.5908
   -16.1354 -15.7818 -15.6914 -15.6441 -15.4683 -15.4385 -15.4245 -15.4090
   -15.2760 -15.2562 -15.2327 -15.2057 -15.1832 -15.1485 -15.1390 -15.1362
   -15.0589 -15.0461 -15.0386 -15.0236 -14.9543 -14.9447 -14.9422 -14.9349
   -14.8838 -14.8802 -14.8190 -14.7870 -14.7840 -14.5745 -12.9017 -12.9016
   -10.2359  -6.2546  -4.8341  -3.9257  -2.9580  -2.9334  -2.8941  -2.8854
    -2.6706  -2.6406  -2.6060  -2.5783  -2.4838  -2.4453  -2.4307  -2.4259
    -2.3562  -2.3328  -2.3165  -2.2733  -2.2674  -2.2551  -2.2326  -2.2023
    -2.1783  -2.1584  -2.1491  -2.1312  -2.0838  -2.0731  -2.0495  -2.0329
    -2.0308  -2.0117  -1.9837  -1.9388  -1.8154  -1.8066  -1.7379  -1.6385
    -1.6338  -1.5549  -1.5413  -1.5082  -1.4816  -1.4605  -1.4206  -1.2499
    -1.2056  -1.1789  -1.1699  -1.1129  -1.0475  -1.0251  -0.9543  -0.9381
    -0.9182  -0.8172  -0.7730  -0.7563  -0.6672  -0.6579  -0.5784  -0.5125
    -0.4689  -0.4407  -0.3957  -0.3886  -0.3860  -0.3372  -0.3294  -0.2492
    -0.1988  -0.1656  -0.1516  -0.1202   0.0736   0.0842   0.1101   0.2499
     0.2780   0.4005   0.4358   0.4869   0.5617   0.5939   0.6775   0.7132
     0.8436   0.8710   0.8725   0.9415   0.9527   1.0181   1.0276   1.9656
     1.9663   2.0550   2.0552   3.8707   3.9417   3.9507   3.9916   4.1054
     4.1715   4.2230   4.2395   4.2813   4.2844   4.3644

     the Fermi energy is     3.7217 ev

!    total energy              =   -2921.63335581 Ry
     estimated scf accuracy    <       0.00000007 Ry
     smearing contrib. (-TS)   =      -0.03573391 Ry
     internal energy E=F+TS    =   -2921.59762191 Ry

     The total energy is F=E-TS. E is the sum of the following terms:
     one-electron contribution =  -24028.58732992 Ry
     hartree contribution      =   12103.37472263 Ry
     xc contribution           =    -481.75361745 Ry
     ewald contribution        =    9485.36541713 Ry
     electric field correction =       0.00318571 Ry

     total magnetization       =     0.74 Bohr mag/cell
     absolute magnetization    =     1.02 Bohr mag/cell

     convergence has been achieved in 281 iterations

     Forces acting on atoms (cartesian axes, Ry/au):

     atom    1 type  1   force =     0.00003478   -0.00021814    0.09330347
     atom    2 type  1   force =    -0.00018996   -0.00035991   -0.17848046
     atom    3 type  2   force =     0.00002857   -0.00039110   -0.02005504
     atom    4 type  2   force =    -0.00002777   -0.00196001    0.05904700
     atom    5 type  2   force =    -0.01052479   -0.00107217    0.00784461
     atom    6 type  2   force =     0.01199776   -0.00035466    0.00701026
     atom    7 type  1   force =    -0.00048684    0.00200976   -0.01487612
     atom    8 type  1   force =     0.00024095   -0.00045086   -0.00522446
     atom    9 type  2   force =     0.00015301    0.00012100    0.00003922
     atom   10 type  2   force =    -0.00113468    0.00134833    0.00117056
     atom   11 type  2   force =    -0.00012938    0.00015445    0.00010493
     atom   12 type  2   force =    -0.00001212    0.00036357    0.00027860
     atom   13 type  1   force =    -0.00003292   -0.00019726   -0.00063719
     atom   14 type  1   force =    -0.00015080    0.00010660    0.00041062
     atom   15 type  2   force =    -0.00020501   -0.00026696    0.00012111
     atom   16 type  2   force =    -0.00022118    0.00020454   -0.00026048
     atom   17 type  2   force =     0.00040021   -0.00007790    0.00012624
     atom   18 type  2   force =    -0.00030340   -0.00017886    0.00021821
     atom   19 type  1   force =    -0.00031517    0.00044222    0.00057212
     atom   20 type  1   force =    -0.00003442   -0.00007534   -0.00025200
     atom   21 type  2   force =     0.00003002   -0.00006430    0.10397511
     atom   22 type  2   force =     0.00027398    0.00037273   -0.00004469
     atom   23 type  2   force =    -0.07033922   -0.00015918   -0.02696792
     atom   24 type  2   force =     0.07018020    0.00028121   -0.02701683
     atom   25 type  1   force =    -0.00001209   -0.00014086    0.09283293
     atom   26 type  1   force =    -0.00020866   -0.00048439   -0.17849251
     atom   27 type  2   force =     0.00008775   -0.00026610   -0.01914693
     atom   28 type  2   force =     0.00004345   -0.00172452    0.05838562
     atom   29 type  2   force =    -0.01104612   -0.00106764    0.00840494
     atom   30 type  2   force =     0.01239182   -0.00079050    0.00752621
     atom   31 type  1   force =    -0.00039996    0.00585790   -0.01575468
     atom   32 type  1   force =     0.00022137   -0.00007162   -0.00560709
     atom   33 type  2   force =    -0.00007664    0.00001058    0.00018612
     atom   34 type  2   force =    -0.00101610   -0.00247690    0.00064500
     atom   35 type  2   force =    -0.00008547    0.00024238   -0.00001149
     atom   36 type  2   force =    -0.00010214    0.00009464    0.00004737
     atom   37 type  1   force =    -0.00001527    0.00006282   -0.00068020
     atom   38 type  1   force =    -0.00007836    0.00000106    0.00024808
     atom   39 type  2   force =     0.00021922    0.00002025    0.00014803
     atom   40 type  2   force =    -0.00029784    0.00023682   -0.00047805
     atom   41 type  2   force =     0.00047893    0.00040389    0.00019605
     atom   42 type  2   force =    -0.00034503    0.00010164    0.00043121
     atom   43 type  1   force =    -0.00034824    0.00018256    0.00019380
     atom   44 type  1   force =    -0.00004034   -0.00033038    0.00010519
     atom   45 type  2   force =     0.00002077   -0.00007429    0.10395248
     atom   46 type  2   force =    -0.07031575   -0.00009808   -0.02692387
     atom   47 type  2   force =     0.07016365    0.00032850   -0.02697385
     atom   48 type  3   force =    -0.00005188   -0.00125117   -0.00041093
     atom   49 type  4   force =    -0.00029528   -0.00033594   -0.00014298
     atom   50 type  5   force =     0.00067434    0.00097431   -0.00008464
     atom   51 type  5   force =     0.00022980    0.00025893   -0.00053682
     atom   52 type  5   force =     0.00015682   -0.00038961    0.00003899
     atom   53 type  5   force =     0.00010801    0.00076569    0.00156366
     atom   54 type  5   force =     0.00070740    0.00038224   -0.00006852

     Total force =     0.366524     Total SCF correction =     0.000262
  @ DRIVER MODE: Message from server: STATUS
  @ DRIVER MODE: Message from server: GETFORCE
  @ DRIVER MODE: Returning v,forces,stress,ensemble

     Writing output data file ./calc.save/
  @ DRIVER MODE: Message from server: STATUS
  @ DRIVER MODE: Message from server: INIT
  @ DRIVER MODE: Receiving replica           0           0
  @ DRIVER MODE: Receiving encoded integer           2
  @ DRIVER MODE:  SCF:  T  FORCE:  T  STRESS:  F  VC:  F  ENSEMBLE:  F
  @ DRIVER MODE:  SCF:  F  FORCE:  F  STRESS:  F  VC:  F  ENSEMBLE:  T
  @ DRIVER MODE: Message from server: STATUS
  @ DRIVER MODE: Message from server: POSDATA
  @ DRIVER MODE: Reading and sharing positions
  @ DRIVER MODE: Received positions
     NEW-OLD atomic charge density approx. for the potential

[...]

     Adding external electric field

     Computed dipole along edir(3) :
        Dipole                1.2993 Ry au,          3.3024 Debye
        Dipole field          0.0025 Ry au,

        Potential amp.       -0.2273 Ry
        Total length         46.3494 bohr

     Generating pointlists ...
  @ DRIVER MODE: BEEF-vdw

[...]

     negative rho (up, down):  8.580E-03 8.580E-03

     negative rho (up, down):  8.580E-03 8.580E-03
 BEEFens 2000 ensemble energies
             -0.345843143090569E+02
             -0.201183269272352E+01
             -0.712417936347278E+01
              0.240012150608183E+02
             -0.118867225257288E+02
             -0.918678705747709E+01
             -0.239948108929290E+02
             -0.501713524371069E+02
             -0.214049621119281E+02
             -0.225317563008938E+02
             -0.209424376445379E+02
              0.425603346610147E+01
              0.198887892387222E+01
             -0.106891700956783E+01
              0.171828082202126E+01
              0.264416766041347E+02
             -0.101786971784127E+02
             -0.717396320420771E+01
              0.117117285197727E+02
             -0.617575235595393E+02
              0.309606940831123E+02
             -0.132815747082312E+02
             -0.239537238884136E+01
             -0.558211126622523E+01
             -0.960055642609802E+00
             -0.211034673764317E+01
              0.478854651836365E+02
             -0.150076770809052E+02
             -0.399416043991317E+01
             -0.302899596911076E+02
              0.391270707580976E+02
             -0.431313893312037E+01
             -0.212990805690175E+02
              0.111858012588330E+02
             -0.204696152286803E+01
              0.129953827815050E+02
             -0.539962827437790E+00
              0.271477300176824E+01
              0.189013863039169E+02
             -0.544877108476752E+02
              0.303687510552262E+02
              0.811057239649291E+01
             -0.625220428806267E+01
             -0.174231844266013E+02
              0.687900563314082E+01
             -0.109325462179002E+02
              0.248327252667729E+02
              0.198383254555154E+02
             -0.127800734215134E+02
             -0.163210530918602E+02
             -0.172589146521985E+02
             -0.207443664079841E+02
              0.105465554490115E+02
             -0.270052090913716E+02
              0.827433257465327E+01
              0.345230673817235E+02
              0.398039158776524E+02
              0.185369067178475E+02
              0.826851426361603E+01
              0.173074720747559E+02
[...]
             -0.406957202933264E+02
              0.278428758905113E+01
             -0.145460398913230E+01
             -0.566468309539812E+01
              0.496907122328594E-01
             -0.362218809098824E+02
             -0.697557680275841E+01
              0.491447084290139E+01
              0.741019095817784E+01
              0.271523414314719E+02
             -0.237352526769888E+02
              0.309481692831998E+02
             -0.221710332086531E+02
              0.142632382249695E+02
              0.224316381876164E+02

 BEEF-vdW xc energy contributions
           1 :   -408.157436337618
           2 :    355.546255153880
           3 :   -270.672510060377
           4 :    182.130436183670
           5 :   -112.665484678646
           6 :    71.2267132191018
           7 :   -53.9985743113737
           8 :    50.9233162291627
           9 :   -52.6207694372778
          10 :    53.8851996340612
          11 :   -53.4716449254087
          12 :    51.9038620467368
          13 :   -49.6272722409242
          14 :    46.4389711739555
          15 :   -42.0191575402110
          16 :    36.5729784342972
          17 :   -31.0075787962888
          18 :    26.4897680369933
          19 :   -23.8470416384290
          20 :    23.1862624085244
          21 :   -23.9898123743139
          22 :    25.4696101478721
          23 :   -26.9281372794704
          24 :    27.8825549586824
          25 :   -28.0388247604250
          26 :    27.2234714964894
          27 :   -25.4164665648860
          28 :    22.8189959081056
          29 :   -19.8935102785233
          30 :    17.2546065348319
          31 :   -47.9805113190386
          32 :   -32.5682287134858
  @ DRIVER MODE: Message from server: STATUS
  @ DRIVER MODE: Message from server: GETFORCE
  @ DRIVER MODE: Returning v,forces,stress,ensemble
  @ DRIVE MODE: Returning Ensemble Energies

     Writing output data file ./calc.save/
  @ DRIVER MODE: Message from server: EXIT
  @ DRIVE MODE: Exiting

     General routines

     Parallel routines

   This run was terminated on:  14:41:50   2Aug2021

   JOB DONE.