     Program PWSCF v.6.7GPU starts on 19Aug2021 at  2:42:50

     R & G space division:  proc/nbgrp/npool/nimage =       6
     Reading input from /storage/home/hcoda1/3/ntian30/research/carbon/CH3_vib_side_on/ads_slab/CH3N2_c/out_0030/pw.inp
Warning: card &CELL ignored
Warning: card   CELL_DYNAMICS='IPI', ignored
Warning: card / ignored

     Current dimensions of program PWSCF are:
     Max number of different atomic species (ntypx) = 10
     Max number of k-points (npk) =  40000
     Max angular momentum in pseudopotentials (lmaxx) =  3
     Presently no symmetry can be used with electric field

     Message from routine cell_base_init:
     DEPRECATED: use true lattice parameter, not A to a.u. conversion factor

     IMPORTANT: XC functional enforced from input :
     Exchange-correlation= BEEF-VDW
                           (   1   4  43  14   2   0   0)
     Any further DFT definition will be discarded
     Please, verify this is what you really want

  @ DRIVER MODE: Connecting to
 qe_1139763_2594174.sched-torque.pace.gatech.edu87m1bgaq_scratch
  using UNIX socket
  @ DRIVER MODE: Message from server: STATUS
  @ DRIVER MODE: Message from server: INIT
  @ DRIVER MODE: Receiving replica           0          -1
  @ DRIVER MODE: Receiving encoded integer          25
  @ DRIVER MODE:  SCF:  T  FORCE:  T  STRESS:  F  VC:  F  ENSEMBLE:  F
  @ DRIVER MODE:  SCF:  T  FORCE:  T  STRESS:  F  VC:  F  ENSEMBLE:  F

     Using Slab Decomposition

     bravais-lattice index     =            0
     lattice parameter (alat)  =       1.8897  a.u.
     unit-cell volume          =    6658.9804 (a.u.)^3
     number of atoms/cell      =           53
     number of atomic types    =            5
     number of electrons       =       395.00
     number of Kohn-Sham states=          207
     kinetic-energy cutoff     =      29.3995  Ry
     charge density cutoff     =     293.9946  Ry
     scf convergence threshold =      7.3E-08
     mixing beta               =       0.0500
     number of iterations used =            8  plain     mixing
     Exchange-correlation= BEEF-VDW
                           (   1   4  43  14   2   0   0)

     celldm(1)=   1.889726  celldm(2)=   0.000000  celldm(3)=   0.000000
     celldm(4)=   0.000000  celldm(5)=   0.000000  celldm(6)=   0.000000

     crystal axes: (cart. coord. in units of alat)
               a(1) = (   6.579727   0.000000   0.000000 )
               a(2) = (  -0.000775   5.961596   0.000000 )
               a(3) = (   0.000000   0.000000  25.155947 )

     reciprocal axes: (cart. coord. in units 2 pi/alat)
               b(1) = (  0.151982  0.000020  0.000000 )
               b(2) = (  0.000000  0.167740  0.000000 )
               b(3) = (  0.000000  0.000000  0.039752 )

     PseudoPot. # 1 for Ti read from file:
     /storage/coda1/p-amedford6/0/shared/rich_project_chbe-medford/medford-share/data/pseudos_module/espresso/nninc/pbe/van/Ti.UPF
     MD5 check sum: 8e4df49b7f0d34bbd5052bf3f5ea0213
     Pseudo is Ultrasoft, Zval = 12.0
     Generated by new atomic code, or converted to UPF format
     Using radial grid of  851 points,  6 beta functions with:
                l(1) =   0
                l(2) =   0
                l(3) =   1
                l(4) =   1
                l(5) =   2
                l(6) =   2
     Q(r) pseudized with  8 coefficients,  rinner =    1.000   1.000   1.000
                                                       1.000   1.000

     PseudoPot. # 2 for O  read from file:
     /storage/coda1/p-amedford6/0/shared/rich_project_chbe-medford/medford-share/data/pseudos_module/espresso/nninc/pbe/van/O.UPF
     MD5 check sum: 78c19812648e8988a0fe644b0f25305e
     Pseudo is Ultrasoft, Zval =  6.0
     Generated by new atomic code, or converted to UPF format
     Using radial grid of  737 points,  4 beta functions with:
                l(1) =   0
                l(2) =   0
                l(3) =   1
                l(4) =   1
     Q(r) pseudized with  8 coefficients,  rinner =    0.800   0.800   0.800

     PseudoPot. # 3 for N  read from file:
     /storage/coda1/p-amedford6/0/shared/rich_project_chbe-medford/medford-share/data/pseudos_module/espresso/nninc/pbe/van/N.UPF
     MD5 check sum: 90d10febe142ad51ac9d5be1deb811c4
     Pseudo is Ultrasoft, Zval =  5.0
     Generated by new atomic code, or converted to UPF format
     Using radial grid of  729 points,  4 beta functions with:
                l(1) =   0
                l(2) =   0
                l(3) =   1
                l(4) =   1
     Q(r) pseudized with  8 coefficients,  rinner =    0.800   0.800   0.800

     PseudoPot. # 4 for C  read from file:
     /storage/coda1/p-amedford6/0/shared/rich_project_chbe-medford/medford-share/data/pseudos_module/espresso/nninc/pbe/van/C.UPF
     MD5 check sum: 1a69bf6b8db32088f5b2163dbdb77a27
     Pseudo is Ultrasoft, Zval =  4.0
     Generated by new atomic code, or converted to UPF format
     Using radial grid of  721 points,  4 beta functions with:
                l(1) =   0
                l(2) =   0
                l(3) =   1
                l(4) =   1
     Q(r) pseudized with  8 coefficients,  rinner =    0.800   0.800   0.800

     PseudoPot. # 5 for H  read from file:
     /storage/coda1/p-amedford6/0/shared/rich_project_chbe-medford/medford-share/data/pseudos_module/espresso/nninc/pbe/van/H.UPF
     MD5 check sum: b5ee9d7bfd3a09ee7748110bda690ff7
     Pseudo is Ultrasoft, Zval =  1.0
     Generated by new atomic code, or converted to UPF format
     Using radial grid of  615 points,  1 beta functions with:
                l(1) =   0
     Q(r) pseudized with  8 coefficients,  rinner =    0.800

     atomic species   valence    mass     pseudopotential
        Ti1           12.00    47.86700     Ti( 1.00)
        O1             6.00    15.99900     O ( 1.00)
        N1             5.00    14.00700     N ( 1.00)
        C1             4.00    12.01100     C ( 1.00)
        H1             1.00     1.00800     H ( 1.00)

     No symmetry found

   Cartesian axes

     site n.     atom                  positions (alat units)
         1           Ti1 tau(   1) = (   0.0004258   2.9801865   6.0000000  )
         2           Ti1 tau(   2) = (   3.2906075   1.4906267   6.0002472  )
         3           O1  tau(   3) = (   0.0006271   0.0005054   7.9858123  )
         4           O1  tau(   4) = (   3.2906025   0.0005020   7.3038282  )
         5           O1  tau(   5) = (   4.5942328   1.4918067   9.2879030  )
         6           O1  tau(   6) = (   1.9868534   1.4903216   9.2879459  )
         7           Ti1 tau(   7) = (   3.2907910   2.8959150   9.1758416  )
         8           Ti1 tau(   8) = (   0.0015273   1.4827037   9.2680791  )
         9           O1  tau(   9) = (   3.2868105   5.9447858  11.3346005  )
        10           O1  tau(  10) = (   0.0116148   5.9584955  10.6183126  )
        11           O1  tau(  11) = (   1.2897616   1.4699164  12.6258314  )
        12           O1  tau(  12) = (   5.2713851   1.4716199  12.6109895  )
        13           Ti1 tau(  13) = (   0.0629619   2.9460495  12.6207869  )
        14           Ti1 tau(  14) = (   3.3778125   1.4702366  12.4807322  )
        15           O1  tau(  15) = (   6.5741670   5.9392046  14.6271830  )
        16           O1  tau(  16) = (   3.2925211   5.9405975  13.9303826  )
        17           O1  tau(  17) = (   4.5331425   1.4971777  16.0590535  )
        18           O1  tau(  18) = (   2.0416154   1.4974824  16.0477615  )
        19           Ti1 tau(  19) = (   3.2901388   2.9722967  15.7036181  )
        20           Ti1 tau(  20) = (   6.5714728   1.5019933  15.8140906  )
        21           O1  tau(  21) = (   3.2904802   0.0005063   4.7018136  )
        22           O1  tau(  22) = (   6.5775371   0.0159386  17.1814867  )
        23           O1  tau(  23) = (   1.3043587   1.4918075   6.0039043  )
        24           O1  tau(  24) = (   5.2767064   1.4903225   6.0039473  )
        25           Ti1 tau(  25) = (   0.0000382   5.9609847   6.0000000  )
        26           Ti1 tau(  26) = (   3.2902200   4.4714249   6.0002472  )
        27           O1  tau(  27) = (   0.0002396   2.9813036   7.9858123  )
        28           O1  tau(  28) = (   3.2902150   2.9813002   7.3038282  )
        29           O1  tau(  29) = (   4.5938453   4.4726049   9.2879030  )
        30           O1  tau(  30) = (   1.9864658   4.4711199   9.2879459  )
        31           Ti1 tau(  31) = (   3.2891106   5.8743827   9.1763621  )
        32           Ti1 tau(  32) = (   0.0006254   4.4649316   9.2693709  )
        33           O1  tau(  33) = (   3.2909631   2.9655588  11.3316111  )
        34           O1  tau(  34) = (   0.0092240   2.9805883  10.6323155  )
        35           O1  tau(  35) = (   1.2884032   4.4536117  12.6269208  )
        36           O1  tau(  36) = (   5.2752684   4.4605011  12.6109535  )
        37           Ti1 tau(  37) = (   0.0626277   5.9200555  12.5524633  )
        38           Ti1 tau(  38) = (   3.3797810   4.4486816  12.4846537  )
        39           O1  tau(  39) = (   6.5720240   2.9440667  14.6479771  )
        40           O1  tau(  40) = (   3.2941106   2.9728877  13.9057494  )
        41           O1  tau(  41) = (   4.5311790   4.4530262  16.1020043  )
        42           O1  tau(  42) = (   2.0427069   4.4534008  16.0946336  )
        43           Ti1 tau(  43) = (   3.2818950   5.9508925  15.7274921  )
        44           Ti1 tau(  44) = (   6.5750914   4.6476268  16.0792144  )
        45           O1  tau(  45) = (   3.2900926   2.9813045   4.7018136  )
        46           O1  tau(  46) = (   1.3039711   4.4726057   6.0039043  )
        47           O1  tau(  47) = (   5.2763189   4.4711207   6.0039473  )
        48           N1  tau(  48) = (   0.0795740   2.6614725  18.6386781  )
        49           N1  tau(  49) = (   0.0132033   2.8794178  17.4383708  )
        50           C1  tau(  50) = (   0.1510961   3.8031638  19.5808395  )
        51           H1  tau(  51) = (   6.4701351   4.7592986  19.1328852  )
        52           H1  tau(  52) = (   6.0910372   3.5604803  20.4366230  )
        53           H1  tau(  53) = (   1.1812797   3.8285794  19.9476819  )

     number of k points=    10  Fermi-Dirac smearing, width (Ry)=  0.0073
                       cart. coord. in units 2pi/alat
        k(    1) = (   0.0000000   0.0000000   0.0000000), wk =   0.1250000
        k(    2) = (   0.0000000   0.0419351   0.0000000), wk =   0.2500000
        k(    3) = (   0.0000000  -0.0838702   0.0000000), wk =   0.1250000
        k(    4) = (   0.0379955   0.0000049   0.0000000), wk =   0.2500000
        k(    5) = (   0.0379955   0.0419400   0.0000000), wk =   0.2500000
        k(    6) = (   0.0379955  -0.0838652   0.0000000), wk =   0.2500000
        k(    7) = (   0.0379955  -0.0419301   0.0000000), wk =   0.2500000
        k(    8) = (  -0.0759910  -0.0000099   0.0000000), wk =   0.1250000
        k(    9) = (  -0.0759910   0.0419252   0.0000000), wk =   0.2500000
        k(   10) = (  -0.0759910  -0.0838800   0.0000000), wk =   0.1250000

     Initial potential from superposition of free atoms

     starting charge  378.99916, renormalised to  395.00000

     negative rho (up, down):  1.505E-02 0.000E+00

     %%%%%%%%%%%%%%%%%%%%%%%%%%%%%%%%%%%%%%%%%%%%%%%%%%%%%%%%%%%%%%%%%%%%%%%%
     %                                                                      %
     % You are using vdW-DF, which was implemented by the Thonhauser group. %
     % Please cite the following two papers that made this development      %
     % possible and the two reviews that describe the various versions:     %
     %                                                                      %
     %   T. Thonhauser et al., PRL 115, 136402 (2015).                      %
     %   T. Thonhauser et al., PRB 76, 125112 (2007).                       %
     %   K. Berland et al., Rep. Prog. Phys. 78, 066501 (2015).             %
     %   D.C. Langreth et al., J. Phys.: Condens. Matter 21, 084203 (2009). %
     %                                                                      %
     %                                                                      %
     % If you are calculating the stress with vdW-DF, please also cite:     %
     %                                                                      %
     %   R. Sabatini et al., J. Phys.: Condens. Matter 24, 424209 (2012).   %
     %                                                                      %
     %%%%%%%%%%%%%%%%%%%%%%%%%%%%%%%%%%%%%%%%%%%%%%%%%%%%%%%%%%%%%%%%%%%%%%%%

     Adding external electric field

     Computed dipole along edir(3) :
        Dipole               -8.8503 Ry au,        -22.4951 Debye
        Dipole field         -0.0167 Ry au,

        Potential amp.        1.5482 Ry
        Total length         46.3494 bohr

     Starting wfcs are  299 atomic wfcs
  @ DRIVER MODE: Message from server: STATUS
  @ DRIVER MODE: Message from server: POSDATA
  @ DRIVER MODE: Reading and sharing cell
  @ DRIVER MODE: Reading and sharing positions
  @ DRIVER MODE: Received positions

     Self-consistent Calculation

     iteration #  1     ecut=    29.40 Ry     beta= 0.05
     Davidson diagonalization with overlap
     c_bands:  1 eigenvalues not converged
     c_bands:  2 eigenvalues not converged
     c_bands:  1 eigenvalues not converged
     c_bands:  3 eigenvalues not converged
     c_bands:  3 eigenvalues not converged
     c_bands:  1 eigenvalues not converged
     ethr =  1.00E-05,  avg # of iterations = 18.9

[...]

     total energy              =   -2605.41741787 Ry
     estimated scf accuracy    <    3701.95132838 Ry

     iteration #  2     ecut=    29.40 Ry     beta= 0.05
     Davidson diagonalization with overlap
     ethr =  1.00E-02,  avg # of iterations = 22.4

[...]

     iteration # 71     ecut=    29.40 Ry     beta= 0.05
     Davidson diagonalization with overlap
     c_bands:  1 eigenvalues not converged
     ethr =  1.55E-09,  avg # of iterations = 12.3

[...]

     total energy              =   -2939.15474135 Ry
     estimated scf accuracy    <       0.00000023 Ry

     iteration # 80     ecut=    29.40 Ry     beta= 0.05
     Davidson diagonalization with overlap
     ethr =  4.38E-11,  avg # of iterations = 11.6

     negative rho (up, down):  1.564E-02 0.000E+00

     Adding external electric field

     Computed dipole along edir(3) :
        Dipole                0.7076 Ry au,          1.7986 Debye
        Dipole field          0.0013 Ry au,

        Potential amp.       -0.1238 Ry
        Total length         46.3494 bohr

     End of self-consistent calculation

          k = 0.0000 0.0000 0.0000 ( 18029 PWs)   bands (ev):

   -55.8951 -55.8804 -55.8610 -55.8444 -55.7957 -55.7303 -55.7043 -55.7035
   -55.6938 -55.6695 -55.6688 -55.6352 -55.2861 -55.0951 -54.8727 -54.8386
   -32.4346 -32.3772 -32.2304 -32.2278 -32.2022 -32.1992 -32.1881 -32.1593
   -32.1375 -32.1244 -32.1026 -32.0668 -32.0611 -32.0474 -32.0337 -32.0201
   -32.0178 -31.9991 -31.9849 -31.9524 -31.9442 -31.9399 -31.8989 -31.8939
   -31.8914 -31.8882 -31.8800 -31.8752 -31.8709 -31.8443 -31.8434 -31.8344
   -31.8333 -31.8217 -31.8100 -31.7809 -31.7778 -31.5663 -31.4595 -31.3573
   -31.3553 -31.3109 -31.2798 -31.1914 -31.1689 -31.0965 -31.0100 -30.8990
   -18.4508 -16.6328 -16.3678 -16.1389 -16.0452 -16.0132 -15.8952 -15.7326
   -15.6150 -15.5604 -15.4629 -15.4434 -15.4302 -15.3984 -15.3799 -15.3747
   -15.3407 -15.3366 -15.3180 -15.3030 -15.2547 -15.2309 -15.2092 -15.1099
   -15.0637 -15.0297 -15.0144 -14.9515 -14.9463 -14.4418 -13.3749 -13.2585
   -11.3499  -6.9264  -4.3484  -4.0027  -3.8896  -3.8476  -3.8464  -3.8003
    -3.7438  -3.6241  -3.4989  -3.4368  -3.1260  -3.0780  -3.0621  -3.0450
    -3.0073  -2.7997  -2.7484  -2.7083  -2.6834  -2.6764  -2.6654  -2.6578
    -2.6462  -2.6077  -2.5053  -2.4359  -2.4274  -2.3433  -2.2935  -2.2702
    -2.2069  -2.1870  -2.1652  -2.1420  -2.1307  -2.1097  -2.0897  -2.0787
    -1.9730  -1.8828  -1.7498  -1.6944  -1.6715  -1.6521  -1.6447  -1.5026
    -1.3699  -1.3377  -1.3282  -1.3197  -1.2864  -1.2746  -1.1918  -1.0627
    -1.0519  -1.0120  -0.9598  -0.9018  -0.8768  -0.7749  -0.7382  -0.6611
    -0.6560  -0.6392  -0.5862  -0.5338  -0.3762  -0.3343  -0.3082  -0.2861
    -0.2616  -0.1909  -0.1694  -0.0530  -0.0355  -0.0180   0.0422   0.0654
     0.0784   0.0883   0.1060   0.1241   0.1416   0.3087   0.3812   0.4333
     0.4569   0.5148   0.6399   0.7089   0.7637   0.8642   1.0752   1.1495
     1.2423   1.3416   1.7209   1.7666   2.6486   3.2443   3.3250   3.3741
     3.3886   3.4858   3.5193   3.6961   3.6971   3.7257   3.7956

[...]

          k = 0.0380-0.0419 0.0000 ( 17876 PWs)   bands (ev):

[...]

          k =-0.0760-0.0000 0.0000 ( 17886 PWs)   bands (ev):

[...]

          k =-0.0760-0.0839 0.0000 ( 17948 PWs)   bands (ev):

   -55.8785 -55.8775 -55.8626 -55.8620 -55.7923 -55.7183 -55.7076 -55.7059
   -55.6874 -55.6851 -55.6527 -55.6514 -55.2847 -55.0964 -54.8556 -54.8555
   -32.2392 -32.2373 -32.1928 -32.1921 -32.1739 -32.1730 -32.1696 -32.1343
   -32.0887 -32.0857 -32.0797 -32.0792 -32.0424 -32.0130 -32.0053 -32.0045
   -31.9981 -31.9981 -31.9976 -31.9971 -31.9932 -31.9914 -31.9890 -31.9380
   -31.9243 -31.9121 -31.9111 -31.8997 -31.8866 -31.8861 -31.8837 -31.8827
   -31.8671 -31.8664 -31.8572 -31.8545 -31.6947 -31.5680 -31.4677 -31.4145
   -31.3571 -31.3364 -31.1817 -31.1816 -31.0927 -31.0925 -31.0533 -31.0533
   -18.4466 -16.0686 -16.0427 -15.8425 -15.8093 -15.8054 -15.7910 -15.6822
   -15.5973 -15.5901 -15.5874 -15.5208 -15.4908 -15.4750 -15.4343 -15.4219
   -15.4144 -15.4030 -15.3925 -15.3555 -15.3481 -15.3308 -15.3234 -15.2394
   -15.2115 -15.2074 -15.1817 -15.0637 -14.9323 -14.6180 -13.3604 -13.3602
   -11.3476  -6.9382  -4.2581  -3.8926  -3.8259  -3.3581  -3.3293  -3.0889
    -3.0502  -3.0365  -2.9831  -2.8216  -2.7913  -2.7656  -2.7540  -2.7224
    -2.7171  -2.7050  -2.6998  -2.6799  -2.6385  -2.6162  -2.5985  -2.5818
    -2.5624  -2.5484  -2.5322  -2.5157  -2.5063  -2.4669  -2.4434  -2.4318
    -2.4132  -2.4014  -2.2449  -2.1221  -2.0877  -2.0331  -2.0228  -2.0013
    -1.9612  -1.9574  -1.9457  -1.8814  -1.8068  -1.6520  -1.6087  -1.5940
    -1.5752  -1.5572  -1.5002  -1.4598  -1.3730  -1.2982  -1.2748  -1.2703
    -1.2019  -1.1148  -1.1067  -1.0599  -1.0170  -1.0073  -0.9527  -0.8880
    -0.8573  -0.8530  -0.8007  -0.7314  -0.7135  -0.6632  -0.6564  -0.6120
    -0.5569  -0.5484  -0.5278  -0.4869  -0.4049  -0.3813  -0.2428  -0.1631
    -0.0406   0.0738   0.1681   0.1824   0.2624   0.3143   0.3981   0.4158
     0.4263   0.4353   0.4786   0.5618   0.6373   0.6520   0.6978   0.8188
     1.5132   1.5140   1.5862   1.5865   2.7055   3.4914   3.5360   3.5782
     3.6104   3.7169   3.7492   3.7728   3.7740   3.8023   3.9140

     the Fermi energy is     3.2395 ev

!    total energy              =   -2939.15474925 Ry
     estimated scf accuracy    <       0.00000006 Ry
     smearing contrib. (-TS)   =      -0.02245210 Ry
     internal energy E=F+TS    =   -2939.13229715 Ry

     The total energy is F=E-TS. E is the sum of the following terms:
     one-electron contribution =  -24175.77633700 Ry
     hartree contribution      =   12175.13416898 Ry
     xc contribution           =    -485.17850551 Ry
     ewald contribution        =    9546.68743148 Ry
     electric field correction =       0.00094490 Ry

     convergence has been achieved in  80 iterations

     Forces acting on atoms (cartesian axes, Ry/au):

     atom    1 type  1   force =     0.00011823   -0.00025020    0.09665295
     atom    2 type  1   force =    -0.00012479   -0.00049443   -0.17523508
     atom    3 type  2   force =     0.00000134   -0.00010396   -0.02499307
     atom    4 type  2   force =     0.00005271   -0.00149992    0.05299924
     atom    5 type  2   force =    -0.01214781   -0.00108621    0.00361090
     atom    6 type  2   force =     0.01369868   -0.00027757    0.00228575
     atom    7 type  1   force =    -0.00117325    0.00036457   -0.01149920
     atom    8 type  1   force =     0.00055954    0.00940884    0.02850808
     atom    9 type  2   force =     0.00019769    0.00053283   -0.00013097
     atom   10 type  2   force =    -0.00114745    0.00027863   -0.01823075
     atom   11 type  2   force =    -0.00011180    0.00000565   -0.00013246
     atom   12 type  2   force =     0.00012718    0.00022014    0.00018476
     atom   13 type  1   force =     0.00009070   -0.00029132    0.00015086
     atom   14 type  1   force =     0.00021224    0.00017050    0.00019357
     atom   15 type  2   force =     0.00022153   -0.00005782   -0.00010428
     atom   16 type  2   force =    -0.00033034    0.00033886    0.00034985
     atom   17 type  2   force =    -0.00014464    0.00041967   -0.00013442
     atom   18 type  2   force =     0.00013477    0.00016019    0.00023249
     atom   19 type  1   force =    -0.00007809    0.00015057    0.00010372
     atom   20 type  1   force =    -0.00057685   -0.00023034    0.00022926
     atom   21 type  2   force =     0.00008805    0.00001522    0.10322795
     atom   22 type  2   force =    -0.00019576    0.00024408    0.00078419
     atom   23 type  2   force =    -0.07146676   -0.00007440   -0.02770891
     atom   24 type  2   force =     0.07143428    0.00034661   -0.02771711
     atom   25 type  1   force =     0.00007304   -0.00021871    0.09637789
     atom   26 type  1   force =    -0.00022695   -0.00026305   -0.17564308
     atom   27 type  2   force =     0.00006993   -0.00024771   -0.02399377
     atom   28 type  2   force =     0.00009637   -0.00126226    0.05286777
     atom   29 type  2   force =    -0.01238730    0.00003927    0.00352575
     atom   30 type  2   force =     0.01385404    0.00033160    0.00216969
     atom   31 type  1   force =    -0.00113555    0.00332672   -0.01191336
     atom   32 type  1   force =     0.00065097   -0.01117086    0.02910700
     atom   33 type  2   force =     0.00010891   -0.00020282   -0.00038614
     atom   34 type  2   force =    -0.00089513   -0.00092987   -0.02482436
     atom   35 type  2   force =    -0.00038448    0.00026804    0.00002399
     atom   36 type  2   force =     0.00072038    0.00028912    0.00034476
     atom   37 type  1   force =    -0.00000787   -0.00023151    0.00004236
     atom   38 type  1   force =    -0.00001949    0.00010249   -0.00001350
     atom   39 type  2   force =     0.00032989    0.00034371   -0.00043506
     atom   40 type  2   force =    -0.00030509    0.00010386    0.00013551
     atom   41 type  2   force =    -0.00043565    0.00052697    0.00013168
     atom   42 type  2   force =     0.00002086    0.00045198    0.00043615
     atom   43 type  1   force =    -0.00004747    0.00038429    0.00044433
     atom   44 type  1   force =    -0.00042959    0.00021473    0.00075085
     atom   45 type  2   force =     0.00008217   -0.00002819    0.10322793
     atom   46 type  2   force =    -0.07149648   -0.00003142   -0.02772031
     atom   47 type  2   force =     0.07146307    0.00039159   -0.02774862
     atom   48 type  3   force =     0.00001284   -0.00101000    0.00053256
     atom   49 type  3   force =     0.00057177    0.00041795   -0.00021332
     atom   50 type  4   force =    -0.00267856   -0.00138994    0.00676711
     atom   51 type  5   force =    -0.00011873    0.00067587   -0.00016928
     atom   52 type  5   force =     0.00361371    0.00091253   -0.00710737
     atom   53 type  5   force =    -0.00053899   -0.00008460   -0.00034447

     Total force =     0.368473     Total SCF correction =     0.000713
  @ DRIVER MODE: Message from server: STATUS
  @ DRIVER MODE: Message from server: GETFORCE
  @ DRIVER MODE: Returning v,forces,stress,ensemble

     Writing output data file ./calc.save/
  @ DRIVER MODE: Message from server: EXIT
  @ DRIVE MODE: Exiting

     General routines

     Parallel routines

   This run was terminated on:   3:16:53  19Aug2021

   JOB DONE.