     Program PWSCF v.6.7GPU starts on 18Oct2021 at 15:43: 8

     R & G space division:  proc/nbgrp/npool/nimage =       8
     Reading input from /storage/home/hcoda1/3/ntian30/research/carbon/CxH_vib/Thiel_calc/ads_slab/NNH2HH_perslab/out_0009/pw.inp
Warning: card &CELL ignored
Warning: card   CELL_DYNAMICS='IPI', ignored
Warning: card / ignored

     Current dimensions of program PWSCF are:
     Max number of different atomic species (ntypx) = 10
     Max number of k-points (npk) =  40000
     Max angular momentum in pseudopotentials (lmaxx) =  3
     Presently no symmetry can be used with electric field

     Message from routine cell_base_init:
     DEPRECATED: use true lattice parameter, not A to a.u. conversion factor

     IMPORTANT: XC functional enforced from input :
     Exchange-correlation= BEEF-VDW
                           (   1   4  43  14   2   0   0)
     Any further DFT definition will be discarded
     Please, verify this is what you really want

  @ DRIVER MODE: Connecting to
 qe_1139763_3255133.sched-torque.pace.gatech.eduns1z4wht_scratch
  using UNIX socket
  @ DRIVER MODE: Message from server: STATUS
  @ DRIVER MODE: Message from server: INIT
  @ DRIVER MODE: Receiving replica           0          -1
  @ DRIVER MODE: Receiving encoded integer          25
  @ DRIVER MODE:  SCF:  T  FORCE:  T  STRESS:  F  VC:  F  ENSEMBLE:  F
  @ DRIVER MODE:  SCF:  T  FORCE:  T  STRESS:  F  VC:  F  ENSEMBLE:  F

     Using Slab Decomposition

     bravais-lattice index     =            0
     lattice parameter (alat)  =       1.8897  a.u.
     unit-cell volume          =    9988.4706 (a.u.)^3
     number of atoms/cell      =           59
     number of atomic types    =            4
     number of electrons       =       440.00
     number of Kohn-Sham states=          230
     kinetic-energy cutoff     =      29.3995  Ry
     charge density cutoff     =     293.9946  Ry
     scf convergence threshold =      7.3E-08
     mixing beta               =       0.0500
     number of iterations used =            8  plain     mixing
     Exchange-correlation= BEEF-VDW
                           (   1   4  43  14   2   0   0)

     celldm(1)=   1.889726  celldm(2)=   0.000000  celldm(3)=   0.000000
     celldm(4)=   0.000000  celldm(5)=   0.000000  celldm(6)=   0.000000

     crystal axes: (cart. coord. in units of alat)
               a(1) = (   6.579727   0.000000   0.000000 )
               a(2) = (  -0.001163   8.942395   0.000000 )
               a(3) = (   0.000000   0.000000  25.155947 )

     reciprocal axes: (cart. coord. in units 2 pi/alat)
               b(1) = (  0.151982  0.000020  0.000000 )
               b(2) = (  0.000000  0.111827  0.000000 )
               b(3) = (  0.000000  0.000000  0.039752 )

     PseudoPot. # 1 for O  read from file:
     /storage/coda1/p-amedford6/0/shared/rich_project_chbe-medford/medford-share/data/pseudos_module/espresso/nninc/pbe/van/O.UPF
     MD5 check sum: 78c19812648e8988a0fe644b0f25305e
     Pseudo is Ultrasoft, Zval =  6.0
     Generated by new atomic code, or converted to UPF format
     Using radial grid of  737 points,  4 beta functions with:
                l(1) =   0
                l(2) =   0
                l(3) =   1
                l(4) =   1
     Q(r) pseudized with  8 coefficients,  rinner =    0.800   0.800   0.800

     PseudoPot. # 2 for Ti read from file:
     /storage/coda1/p-amedford6/0/shared/rich_project_chbe-medford/medford-share/data/pseudos_module/espresso/nninc/pbe/van/Ti.UPF
     MD5 check sum: 8e4df49b7f0d34bbd5052bf3f5ea0213
     Pseudo is Ultrasoft, Zval = 12.0
     Generated by new atomic code, or converted to UPF format
     Using radial grid of  851 points,  6 beta functions with:
                l(1) =   0
                l(2) =   0
                l(3) =   1
                l(4) =   1
                l(5) =   2
                l(6) =   2
     Q(r) pseudized with  8 coefficients,  rinner =    1.000   1.000   1.000
                                                       1.000   1.000

     PseudoPot. # 3 for H  read from file:
     /storage/coda1/p-amedford6/0/shared/rich_project_chbe-medford/medford-share/data/pseudos_module/espresso/nninc/pbe/van/H.UPF
     MD5 check sum: b5ee9d7bfd3a09ee7748110bda690ff7
     Pseudo is Ultrasoft, Zval =  1.0
     Generated by new atomic code, or converted to UPF format
     Using radial grid of  615 points,  1 beta functions with:
                l(1) =   0
     Q(r) pseudized with  8 coefficients,  rinner =    0.800

     PseudoPot. # 4 for N  read from file:
     /storage/coda1/p-amedford6/0/shared/rich_project_chbe-medford/medford-share/data/pseudos_module/espresso/nninc/pbe/van/N.UPF
     MD5 check sum: 90d10febe142ad51ac9d5be1deb811c4
     Pseudo is Ultrasoft, Zval =  5.0
     Generated by new atomic code, or converted to UPF format
     Using radial grid of  729 points,  4 beta functions with:
                l(1) =   0
                l(2) =   0
                l(3) =   1
                l(4) =   1
     Q(r) pseudized with  8 coefficients,  rinner =    0.800   0.800   0.800

     atomic species   valence    mass     pseudopotential
        O1             6.00    15.99900     O ( 1.00)
        Ti1           12.00    47.86700     Ti( 1.00)
        H1             1.00     1.00800     H ( 1.00)
        N1             5.00    14.00700     N ( 1.00)

     No symmetry found

   Cartesian axes

     site n.     atom                  positions (alat units)
         1           O1  tau(   1) = (   0.0007354   0.0005023  10.5931620  )
         2           O1  tau(   2) = (   3.3122003   8.9411730  13.9078397  )
         3           O1  tau(   3) = (   0.0119464   0.1585559  17.3480684  )
         4           O1  tau(   4) = (   0.0006271   0.0005054   7.9858123  )
         5           O1  tau(   5) = (   3.2844644   8.9346379  11.1901754  )
         6           O1  tau(   6) = (   6.5618141   0.0157575  14.6617184  )
         7           O1  tau(   7) = (   1.9868534   1.4903216   9.2879459  )
         8           O1  tau(   8) = (   5.2413352   1.5994427  12.5710249  )
         9           O1  tau(   9) = (   2.0249271   1.5994163  16.0383581  )
        10           Ti1 tau(  10) = (   0.0007404   1.4906270   9.2895810  )
        11           Ti1 tau(  11) = (   3.2875257   1.3541315  12.5031546  )
        12           Ti1 tau(  12) = (   0.1037617   1.4803996  15.8781706  )
        13           O1  tau(  13) = (   4.5942328   1.4918067   9.2879030  )
        14           O1  tau(  14) = (   1.3445879   1.6225681  12.6047105  )
        15           O1  tau(  15) = (   4.5270247   1.5277052  16.0690704  )
        16           Ti1 tau(  16) = (   3.2902859   2.9801868   9.2893338  )
        17           Ti1 tau(  17) = (   6.5717848   2.8351652  12.4611715  )
        18           Ti1 tau(  18) = (   3.3615503   2.9380122  15.7113248  )
        19           O1  tau(  19) = (   0.0003479   2.9813005  10.5931620  )
        20           O1  tau(  20) = (   3.3257229   2.9884659  13.9122956  )
        21           O1  tau(  21) = (   0.0002396   2.9813036   7.9858123  )
        22           O1  tau(  22) = (   3.2846765   2.9682620  11.1924388  )
        23           O1  tau(  23) = (   6.5193973   3.0012958  14.6893217  )
        24           O1  tau(  24) = (   1.9864658   4.4711199   9.2879459  )
        25           O1  tau(  25) = (   5.2358842   4.5821056  12.5715879  )
        26           O1  tau(  26) = (   1.9668816   4.5963109  15.9958849  )
        27           Ti1 tau(  27) = (   0.0003529   4.4714252   9.2895810  )
        28           Ti1 tau(  28) = (   3.2817300   4.3379106  12.5030846  )
        29           Ti1 tau(  29) = (   6.5286400   4.3105241  16.0387364  )
        30           O1  tau(  30) = (   4.5938453   4.4726049   9.2879030  )
        31           O1  tau(  31) = (   1.3350840   4.5883300  12.6034823  )
        32           O1  tau(  32) = (   4.4768606   4.5746599  16.1328061  )
        33           Ti1 tau(  33) = (   3.2898983   5.9609850   9.2893338  )
        34           Ti1 tau(  34) = (   6.5687693   5.8095266  12.4696282  )
        35           Ti1 tau(  35) = (   3.1936624   5.9077503  15.7132784  )
        36           O1  tau(  36) = (  -0.0000397   5.9620987  10.5931620  )
        37           O1  tau(  37) = (   3.2950800   5.9615338  13.9080848  )
        38           O1  tau(  38) = (   6.5705097   6.0321180  17.3127682  )
        39           O1  tau(  39) = (  -0.0001480   5.9621018   7.9858123  )
        40           O1  tau(  40) = (   3.2829949   5.9473389  11.1919414  )
        41           O1  tau(  41) = (   6.5313079   6.0695169  14.6234680  )
        42           O1  tau(  42) = (   1.9860782   7.4519181   9.2879459  )
        43           O1  tau(  43) = (   5.2305909   7.5696458  12.5615615  )
        44           O1  tau(  44) = (   1.9930026   7.5537276  16.0441964  )
        45           Ti1 tau(  45) = (  -0.0000347   7.4522234   9.2895810  )
        46           Ti1 tau(  46) = (   3.2809715   7.3153274  12.5063831  )
        47           Ti1 tau(  47) = (  -0.0000777   7.3827053  15.8005402  )
        48           O1  tau(  48) = (   4.5934577   7.4534031   9.2879030  )
        49           O1  tau(  49) = (   1.3440923   7.5800077  12.5804573  )
        50           O1  tau(  50) = (   4.5564015   7.5743432  16.1458831  )
        51           Ti1 tau(  51) = (   3.2895107   8.9417832   9.2893338  )
        52           Ti1 tau(  52) = (   6.5681474   8.7932977  12.4619754  )
        53           Ti1 tau(  53) = (   3.3227810   8.9003220  15.7121742  )
        54           H1  tau(  54) = (   5.8375475   6.1301351  17.9339333  )
        55           H1  tau(  55) = (   5.7673184   0.1699947  17.8523786  )
        56           H1  tau(  56) = (   0.0490247   3.6154164  19.2291769  )
        57           N1  tau(  57) = (   6.4107751   2.7916545  18.6713363  )
        58           N1  tau(  58) = (   6.5444414   3.0434393  17.3342366  )
        59           H1  tau(  59) = (   0.3957958   1.9971216  18.9670883  )

     number of k points=    10  Fermi-Dirac smearing, width (Ry)=  0.0073
                       cart. coord. in units 2pi/alat
        k(    1) = (   0.0000000   0.0000000   0.0000000), wk =   0.1250000
        k(    2) = (   0.0000000   0.0279567   0.0000000), wk =   0.2500000
        k(    3) = (   0.0000000  -0.0559134   0.0000000), wk =   0.1250000
        k(    4) = (   0.0379955   0.0000049   0.0000000), wk =   0.2500000
        k(    5) = (   0.0379955   0.0279617   0.0000000), wk =   0.2500000
        k(    6) = (   0.0379955  -0.0559085   0.0000000), wk =   0.2500000
        k(    7) = (   0.0379955  -0.0279518   0.0000000), wk =   0.2500000
        k(    8) = (  -0.0759910  -0.0000099   0.0000000), wk =   0.1250000
        k(    9) = (  -0.0759910   0.0279468   0.0000000), wk =   0.2500000
        k(   10) = (  -0.0759910  -0.0559233   0.0000000), wk =   0.1250000

     Initial potential from superposition of free atoms

     starting charge  421.99910, renormalised to  440.00000

     negative rho (up, down):  3.725E-02 0.000E+00

     %%%%%%%%%%%%%%%%%%%%%%%%%%%%%%%%%%%%%%%%%%%%%%%%%%%%%%%%%%%%%%%%%%%%%%%%
     %                                                                      %
     % You are using vdW-DF, which was implemented by the Thonhauser group. %
     % Please cite the following two papers that made this development      %
     % possible and the two reviews that describe the various versions:     %
     %                                                                      %
     %   T. Thonhauser et al., PRL 115, 136402 (2015).                      %
     %   T. Thonhauser et al., PRB 76, 125112 (2007).                       %
     %   K. Berland et al., Rep. Prog. Phys. 78, 066501 (2015).             %
     %   D.C. Langreth et al., J. Phys.: Condens. Matter 21, 084203 (2009). %
     %                                                                      %
     %                                                                      %
     % If you are calculating the stress with vdW-DF, please also cite:     %
     %                                                                      %
     %   R. Sabatini et al., J. Phys.: Condens. Matter 24, 424209 (2012).   %
     %                                                                      %
     %%%%%%%%%%%%%%%%%%%%%%%%%%%%%%%%%%%%%%%%%%%%%%%%%%%%%%%%%%%%%%%%%%%%%%%%

     Adding external electric field

     Computed dipole along edir(3) :
        Dipole               -5.7841 Ry au,        -14.7017 Debye
        Dipole field         -0.0073 Ry au,

        Potential amp.        0.6746 Ry
        Total length         46.3494 bohr

     Starting wfcs are  332 atomic wfcs
  @ DRIVER MODE: Message from server: STATUS
  @ DRIVER MODE: Message from server: POSDATA
  @ DRIVER MODE: Reading and sharing cell
  @ DRIVER MODE: Reading and sharing positions
  @ DRIVER MODE: Received positions

     Self-consistent Calculation

     iteration #  1     ecut=    29.40 Ry     beta= 0.05
     Davidson diagonalization with overlap
     c_bands:  1 eigenvalues not converged
     c_bands:  2 eigenvalues not converged
     c_bands:  4 eigenvalues not converged
     c_bands:  1 eigenvalues not converged
     c_bands:  1 eigenvalues not converged
     c_bands:  5 eigenvalues not converged
     c_bands:  1 eigenvalues not converged
     c_bands:  4 eigenvalues not converged
     c_bands:  4 eigenvalues not converged
     c_bands:  4 eigenvalues not converged
     ethr =  1.00E-05,  avg # of iterations = 20.0

[...]

     total energy              =   -3276.44235261 Ry
     estimated scf accuracy    <     229.16068010 Ry

     iteration #  2     ecut=    29.40 Ry     beta= 0.05
     Davidson diagonalization with overlap
     ethr =  1.00E-02,  avg # of iterations = 16.3

[...]

     iteration # 53     ecut=    29.40 Ry     beta= 0.05
     Davidson diagonalization with overlap
     c_bands:  2 eigenvalues not converged
     ethr =  8.91E-10,  avg # of iterations = 10.7

[...]

     total energy              =   -3293.24442462 Ry
     estimated scf accuracy    <       0.00000009 Ry

     iteration # 61     ecut=    29.40 Ry     beta= 0.05
     Davidson diagonalization with overlap
     ethr =  2.08E-11,  avg # of iterations =  8.6

     negative rho (up, down):  3.572E-02 0.000E+00

     Adding external electric field

     Computed dipole along edir(3) :
        Dipole                1.5622 Ry au,          3.9707 Debye
        Dipole field          0.0020 Ry au,

        Potential amp.       -0.1822 Ry
        Total length         46.3494 bohr

     End of self-consistent calculation

          k = 0.0000 0.0000 0.0000 ( 26871 PWs)   bands (ev):

   -57.7044 -57.6971 -57.6795 -57.6777 -57.6540 -57.6124 -57.5652 -57.5270
   -57.5030 -57.4995 -57.4993 -57.4945 -57.4662 -57.4561 -56.7846 -56.7253
   -56.7011 -56.6976 -34.1013 -34.0869 -34.0851 -34.0831 -34.0592 -34.0410
   -34.0354 -34.0212 -34.0164 -33.9976 -33.9646 -33.9613 -33.9514 -33.9457
   -33.9007 -33.8979 -33.8915 -33.8845 -33.8715 -33.8486 -33.8424 -33.8304
   -33.8268 -33.8213 -33.8010 -33.7998 -33.7976 -33.7806 -33.7652 -33.7432
   -33.7387 -33.7345 -33.7230 -33.7153 -33.7068 -33.6921 -33.6876 -33.6862
   -33.6831 -33.6777 -33.6715 -33.6430 -33.2409 -33.0400 -33.0398 -33.0357
   -33.0241 -33.0209 -32.9936 -32.9792 -32.9514 -32.8887 -32.8847 -32.7510
   -19.1767 -19.0125 -18.8595 -18.5625 -18.1593 -17.9920 -17.9693 -17.9515
   -17.9115 -17.8120 -17.8108 -17.6316 -17.5735 -17.5407 -17.5113 -17.5053
   -17.4339 -17.3965 -17.3809 -17.3626 -17.3567 -17.3503 -17.3331 -17.2889
   -17.2526 -17.1980 -17.1830 -17.1474 -17.1360 -17.1344 -17.1330 -17.0640
   -16.8292 -15.1919 -15.1343 -15.1326 -12.1112  -7.8935  -6.7957  -6.5442
    -6.3346  -5.8912  -5.6743  -5.6221  -5.5407  -5.1845  -5.1706  -5.1025
    -5.0906  -5.0638  -4.9972  -4.9830  -4.9793  -4.9645  -4.8830  -4.8469
    -4.8347  -4.7867  -4.7688  -4.7102  -4.6459  -4.6360  -4.5763  -4.5396
    -4.5042  -4.4986  -4.4933  -4.4846  -4.4687  -4.4348  -4.3608  -4.3104
    -4.1759  -4.1698  -4.1184  -4.0515  -4.0239  -4.0154  -3.9549  -3.8802
    -3.8377  -3.8296  -3.7878  -3.7590  -3.7231  -3.7015  -3.6769  -3.5852
    -3.4915  -3.4581  -3.4533  -3.4106  -3.3990  -3.3459  -3.2303  -3.1779
    -3.1108  -3.0484  -2.9864  -2.9634  -2.9225  -2.8688  -2.8457  -2.7955
    -2.7746  -2.7222  -2.6773  -2.6265  -2.5345  -2.4762  -2.4709  -2.4588
    -2.4029  -2.3870  -2.3727  -2.3501  -2.3247  -2.2698  -2.2377  -2.2064
    -2.1730  -2.1414  -2.0963  -2.0615  -2.0508  -1.9424  -1.9084  -1.8803
    -1.7551  -1.7295  -1.6851  -1.6537  -1.5610  -1.5458  -1.5448  -1.4300
    -1.4143  -1.0950  -1.0003  -0.7459  -0.4751  -0.4298  -0.4290  -0.1652
    -0.1625  -0.0331   0.5264   1.2670   1.5222   1.6682   1.7266   1.7439
     1.7911   1.8757   1.8924   1.9233   1.9409   1.9762

[...]

          k = 0.0380-0.0280 0.0000 ( 26873 PWs)   bands (ev):

[...]

          k =-0.0760-0.0000 0.0000 ( 26902 PWs)   bands (ev):

[...]

          k =-0.0760-0.0559 0.0000 ( 26868 PWs)   bands (ev):

   -57.6966 -57.6963 -57.6949 -57.6701 -57.6553 -57.6117 -57.5652 -57.5203
   -57.5157 -57.4995 -57.4926 -57.4925 -57.4724 -57.4524 -56.7846 -56.7182
   -56.7149 -56.6907 -34.1796 -34.1718 -34.0863 -34.0602 -34.0509 -34.0361
   -34.0307 -34.0287 -33.9971 -33.9867 -33.9534 -33.9302 -33.9036 -33.8956
   -33.8937 -33.8800 -33.8735 -33.8455 -33.8446 -33.8403 -33.8364 -33.8344
   -33.8233 -33.8126 -33.7883 -33.7868 -33.7784 -33.7769 -33.7739 -33.7648
   -33.7555 -33.7492 -33.7343 -33.7327 -33.7205 -33.7181 -33.7151 -33.7096
   -33.6927 -33.6752 -33.6688 -33.6671 -33.2473 -33.1294 -33.0400 -33.0370
   -33.0139 -32.9946 -32.9804 -32.9320 -32.9279 -32.8651 -32.8498 -32.8460
   -19.0988 -19.0857 -18.8459 -18.2562 -18.2393 -17.9260 -17.8839 -17.8354
   -17.8311 -17.8070 -17.7367 -17.7201 -17.6862 -17.6225 -17.5392 -17.5100
   -17.4833 -17.4508 -17.4369 -17.4299 -17.4201 -17.3975 -17.3561 -17.3524
   -17.3016 -17.2554 -17.2197 -17.1701 -17.1396 -17.0895 -17.0641 -17.0368
   -16.8630 -15.1901 -15.1879 -15.0712 -12.1097  -7.8966  -6.7884  -6.5681
    -6.2919  -5.5042  -5.4950  -5.4870  -5.4384  -5.1475  -5.0389  -4.9919
    -4.9876  -4.9612  -4.9032  -4.8888  -4.8759  -4.8603  -4.8490  -4.8129
    -4.8081  -4.7646  -4.7519  -4.7384  -4.6885  -4.6307  -4.6251  -4.6006
    -4.5916  -4.5177  -4.5103  -4.4595  -4.3650  -4.3209  -4.3024  -4.2972
    -4.2588  -4.2261  -4.2182  -4.1465  -3.8989  -3.8897  -3.8671  -3.8489
    -3.8107  -3.7633  -3.7324  -3.7135  -3.6556  -3.5508  -3.4264  -3.3930
    -3.3800  -3.3635  -3.3382  -3.2988  -3.2868  -3.2769  -3.2321  -3.2007
    -3.1983  -3.1555  -3.1130  -3.0241  -2.9882  -2.9326  -2.8867  -2.8446
    -2.8326  -2.8211  -2.8145  -2.7974  -2.7684  -2.7536  -2.7395  -2.7014
    -2.6849  -2.6185  -2.5676  -2.5057  -2.4839  -2.4282  -2.3573  -2.2766
    -2.2531  -2.1902  -2.0973  -2.0403  -2.0004  -1.9677  -1.9486  -1.9274
    -1.8487  -1.8234  -1.7962  -1.7823  -1.5193  -1.5162  -1.3712  -1.3377
    -1.2869  -1.2788  -1.2096  -1.0523  -0.6414  -0.3558  -0.3488  -0.3205
    -0.1649  -0.1646   0.4768   1.4382   1.5030   1.5157   1.6071   1.6139
     1.6285   1.7253   1.7664   1.7699   1.9053   1.9722

     the Fermi energy is     1.3769 ev

!    total energy              =   -3293.24445985 Ry
     estimated scf accuracy    <       0.00000005 Ry
     smearing contrib. (-TS)   =      -0.03194502 Ry
     internal energy E=F+TS    =   -3293.21251483 Ry

     The total energy is F=E-TS. E is the sum of the following terms:
     one-electron contribution =  -34434.97792149 Ry
     hartree contribution      =   17282.65101986 Ry
     xc contribution           =    -542.29433402 Ry
     ewald contribution        =   14401.40565058 Ry
     electric field correction =       0.00307024 Ry

     convergence has been achieved in  61 iterations

     Forces acting on atoms (cartesian axes, Ry/au):

     atom    1 type  1   force =     0.00085042    0.00632149    0.05753505
     atom    2 type  1   force =    -0.00003709   -0.00071680   -0.00476753
     atom    3 type  1   force =     0.00026614   -0.00222079   -0.00150972
     atom    4 type  1   force =     0.00006944    0.00076515    0.10713352
     atom    5 type  1   force =    -0.00015481   -0.00060072    0.00931642
     atom    6 type  1   force =     0.00132814   -0.00279621    0.00340042
     atom    7 type  1   force =     0.06705309   -0.00000380   -0.02952534
     atom    8 type  1   force =     0.00334072   -0.02854081    0.00245228
     atom    9 type  1   force =     0.01221702   -0.01758705    0.00144515
     atom   10 type  2   force =     0.00006833   -0.00241310   -0.18531273
     atom   11 type  2   force =     0.00015480    0.02113660   -0.00708980
     atom   12 type  2   force =    -0.00568500    0.01499195   -0.00270387
     atom   13 type  1   force =    -0.06726660   -0.00039185   -0.02892332
     atom   14 type  1   force =    -0.00360390   -0.02913120    0.00250932
     atom   15 type  1   force =    -0.00694764   -0.01132640    0.00253158
     atom   16 type  2   force =    -0.00021730   -0.00127305    0.06489293
     atom   17 type  2   force =     0.00029975    0.03525071    0.00393121
     atom   18 type  2   force =    -0.00258053    0.02257752    0.00151694
     atom   19 type  1   force =     0.00075070    0.00409074    0.06080253
     atom   20 type  1   force =     0.00002661   -0.00007562   -0.00398323
     atom   21 type  1   force =     0.00005813   -0.00004394    0.10730505
     atom   22 type  1   force =     0.00003036   -0.00085508    0.00936856
     atom   23 type  1   force =    -0.00004283   -0.00363762    0.00452414
     atom   24 type  1   force =     0.06732947   -0.00051086   -0.02943645
     atom   25 type  1   force =     0.00346978   -0.02947869    0.00311969
     atom   26 type  1   force =     0.00656140   -0.02210315    0.00387472
     atom   27 type  2   force =    -0.00001172    0.00172380   -0.18401108
     atom   28 type  2   force =    -0.00039380    0.02139955   -0.00707303
     atom   29 type  2   force =    -0.00117145    0.02324879   -0.00325265
     atom   30 type  1   force =    -0.06752427   -0.00097253   -0.02874816
     atom   31 type  1   force =    -0.00415267   -0.02931786    0.00228203
     atom   32 type  1   force =    -0.00649534   -0.01859167   -0.00039375
     atom   33 type  2   force =    -0.00033441   -0.00092441    0.06452824
     atom   34 type  2   force =     0.00044554    0.03629812    0.00381857
     atom   35 type  2   force =     0.00227635    0.02406324    0.00257042
     atom   36 type  1   force =     0.00068491    0.00484254    0.05916153
     atom   37 type  1   force =    -0.00014664    0.00147622   -0.00766953
     atom   38 type  1   force =    -0.00038984   -0.00297243    0.00079123
     atom   39 type  1   force =     0.00010794   -0.00015146    0.10689514
     atom   40 type  1   force =     0.00007667   -0.00089695    0.00974819
     atom   41 type  1   force =     0.00078644   -0.00216656    0.00134121
     atom   42 type  1   force =     0.06758058   -0.00029164   -0.02939397
     atom   43 type  1   force =     0.00369355   -0.02888926    0.00186349
     atom   44 type  1   force =     0.00881275   -0.01710071    0.00060280
     atom   45 type  2   force =     0.00023084   -0.00246296   -0.18291310
     atom   46 type  2   force =     0.00024126    0.01987437   -0.00665833
     atom   47 type  2   force =     0.00006234    0.02238531    0.00156718
     atom   48 type  1   force =    -0.06772668   -0.00078782   -0.02865334
     atom   49 type  1   force =    -0.00360744   -0.02860723    0.00243201
     atom   50 type  1   force =    -0.00814341   -0.01839591   -0.00129606
     atom   51 type  2   force =    -0.00036348   -0.00109296    0.06452086
     atom   52 type  2   force =    -0.00016335    0.03594413    0.00438162
     atom   53 type  2   force =    -0.00171950    0.01476309   -0.00207999
     atom   54 type  3   force =    -0.00069705   -0.00028881    0.00053181
     atom   55 type  3   force =    -0.00106303   -0.00023725    0.00181878
     atom   56 type  3   force =     0.00128922   -0.00140115   -0.00033948
     atom   57 type  4   force =     0.00061203    0.00170492    0.00156461
     atom   58 type  4   force =     0.00037773   -0.00304012   -0.00080035
     atom   59 type  3   force =    -0.00051270   -0.00056180    0.00045558

     Total force =     0.455602     Total SCF correction =     0.000435
  @ DRIVER MODE: Message from server: STATUS
  @ DRIVER MODE: Message from server: GETFORCE
  @ DRIVER MODE: Returning v,forces,stress,ensemble

     Writing output data file ./calc.save/
  @ DRIVER MODE: Message from server: EXIT
  @ DRIVE MODE: Exiting

     General routines

     Parallel routines

   This run was terminated on:  16:13:42  18Oct2021

   JOB DONE.