     Program PWSCF v.6.7GPU starts on 23Aug2021 at 14:42:43

     R & G space division:  proc/nbgrp/npool/nimage =       6
     Reading input from /storage/home/hcoda1/3/ntian30/research/carbon/CH_vib/ads_slab/CHN2H_a/out_0004/pw.inp
Warning: card &CELL ignored
Warning: card   CELL_DYNAMICS='IPI', ignored
Warning: card / ignored

     Current dimensions of program PWSCF are:
     Max number of different atomic species (ntypx) = 10
     Max number of k-points (npk) =  40000
     Max angular momentum in pseudopotentials (lmaxx) =  3
     Presently no symmetry can be used with electric field

     Message from routine cell_base_init:
     DEPRECATED: use true lattice parameter, not A to a.u. conversion factor

     IMPORTANT: XC functional enforced from input :
     Exchange-correlation= BEEF-VDW
                           (   1   4  43  14   2   0   0)
     Any further DFT definition will be discarded
     Please, verify this is what you really want

  @ DRIVER MODE: Connecting to
 qe_1139763_2632792.sched-torque.pace.gatech.edufviy4dxp_scratch
  using UNIX socket
  @ DRIVER MODE: Message from server: STATUS
  @ DRIVER MODE: Message from server: INIT
  @ DRIVER MODE: Receiving replica           0          -1
  @ DRIVER MODE: Receiving encoded integer          25
  @ DRIVER MODE:  SCF:  T  FORCE:  T  STRESS:  F  VC:  F  ENSEMBLE:  F
  @ DRIVER MODE:  SCF:  T  FORCE:  T  STRESS:  F  VC:  F  ENSEMBLE:  F

     Using Slab Decomposition

     bravais-lattice index     =            0
     lattice parameter (alat)  =       1.8897  a.u.
     unit-cell volume          =    6658.9804 (a.u.)^3
     number of atoms/cell      =           52
     number of atomic types    =            5
     number of electrons       =       394.00
     number of Kohn-Sham states=          207
     kinetic-energy cutoff     =      29.3995  Ry
     charge density cutoff     =     293.9946  Ry
     scf convergence threshold =      7.3E-08
     mixing beta               =       0.0500
     number of iterations used =            8  plain     mixing
     Exchange-correlation= BEEF-VDW
                           (   1   4  43  14   2   0   0)

     celldm(1)=   1.889726  celldm(2)=   0.000000  celldm(3)=   0.000000
     celldm(4)=   0.000000  celldm(5)=   0.000000  celldm(6)=   0.000000

     crystal axes: (cart. coord. in units of alat)
               a(1) = (   6.579727   0.000000   0.000000 )
               a(2) = (  -0.000775   5.961596   0.000000 )
               a(3) = (   0.000000   0.000000  25.155947 )

     reciprocal axes: (cart. coord. in units 2 pi/alat)
               b(1) = (  0.151982  0.000020  0.000000 )
               b(2) = (  0.000000  0.167740  0.000000 )
               b(3) = (  0.000000  0.000000  0.039752 )

     PseudoPot. # 1 for Ti read from file:
     /storage/coda1/p-amedford6/0/shared/rich_project_chbe-medford/medford-share/data/pseudos_module/espresso/nninc/pbe/van/Ti.UPF
     MD5 check sum: 8e4df49b7f0d34bbd5052bf3f5ea0213
     Pseudo is Ultrasoft, Zval = 12.0
     Generated by new atomic code, or converted to UPF format
     Using radial grid of  851 points,  6 beta functions with:
                l(1) =   0
                l(2) =   0
                l(3) =   1
                l(4) =   1
                l(5) =   2
                l(6) =   2
     Q(r) pseudized with  8 coefficients,  rinner =    1.000   1.000   1.000
                                                       1.000   1.000

     PseudoPot. # 2 for O  read from file:
     /storage/coda1/p-amedford6/0/shared/rich_project_chbe-medford/medford-share/data/pseudos_module/espresso/nninc/pbe/van/O.UPF
     MD5 check sum: 78c19812648e8988a0fe644b0f25305e
     Pseudo is Ultrasoft, Zval =  6.0
     Generated by new atomic code, or converted to UPF format
     Using radial grid of  737 points,  4 beta functions with:
                l(1) =   0
                l(2) =   0
                l(3) =   1
                l(4) =   1
     Q(r) pseudized with  8 coefficients,  rinner =    0.800   0.800   0.800

     PseudoPot. # 3 for N  read from file:
     /storage/coda1/p-amedford6/0/shared/rich_project_chbe-medford/medford-share/data/pseudos_module/espresso/nninc/pbe/van/N.UPF
     MD5 check sum: 90d10febe142ad51ac9d5be1deb811c4
     Pseudo is Ultrasoft, Zval =  5.0
     Generated by new atomic code, or converted to UPF format
     Using radial grid of  729 points,  4 beta functions with:
                l(1) =   0
                l(2) =   0
                l(3) =   1
                l(4) =   1
     Q(r) pseudized with  8 coefficients,  rinner =    0.800   0.800   0.800

     PseudoPot. # 4 for C  read from file:
     /storage/coda1/p-amedford6/0/shared/rich_project_chbe-medford/medford-share/data/pseudos_module/espresso/nninc/pbe/van/C.UPF
     MD5 check sum: 1a69bf6b8db32088f5b2163dbdb77a27
     Pseudo is Ultrasoft, Zval =  4.0
     Generated by new atomic code, or converted to UPF format
     Using radial grid of  721 points,  4 beta functions with:
                l(1) =   0
                l(2) =   0
                l(3) =   1
                l(4) =   1
     Q(r) pseudized with  8 coefficients,  rinner =    0.800   0.800   0.800

     PseudoPot. # 5 for H  read from file:
     /storage/coda1/p-amedford6/0/shared/rich_project_chbe-medford/medford-share/data/pseudos_module/espresso/nninc/pbe/van/H.UPF
     MD5 check sum: b5ee9d7bfd3a09ee7748110bda690ff7
     Pseudo is Ultrasoft, Zval =  1.0
     Generated by new atomic code, or converted to UPF format
     Using radial grid of  615 points,  1 beta functions with:
                l(1) =   0
     Q(r) pseudized with  8 coefficients,  rinner =    0.800

     atomic species   valence    mass     pseudopotential
        Ti1           12.00    47.86700     Ti( 1.00)
        O1             6.00    15.99900     O ( 1.00)
        N1             5.00    14.00700     N ( 1.00)
        C1             4.00    12.01100     C ( 1.00)
        H1             1.00     1.00800     H ( 1.00)

     No symmetry found

   Cartesian axes

     site n.     atom                  positions (alat units)
         1           Ti1 tau(   1) = (   0.0004258   2.9801865   6.0000000  )
         2           Ti1 tau(   2) = (   3.2906075   1.4906267   6.0002472  )
         3           O1  tau(   3) = (   0.0006271   0.0005054   7.9858123  )
         4           O1  tau(   4) = (   3.2906025   0.0005020   7.3038282  )
         5           O1  tau(   5) = (   4.5942328   1.4918067   9.2879030  )
         6           O1  tau(   6) = (   1.9868534   1.4903216   9.2879459  )
         7           Ti1 tau(   7) = (   3.2907910   2.8959150   9.1758416  )
         8           Ti1 tau(   8) = (   0.0015273   1.4827037   9.2680791  )
         9           O1  tau(   9) = (   3.3079035   5.9465650  11.3667630  )
        10           O1  tau(  10) = (   0.0116148   5.9584955  10.6183126  )
        11           O1  tau(  11) = (   1.3159687   1.4802111  12.6598234  )
        12           O1  tau(  12) = (   5.3141237   1.4785834  12.6569702  )
        13           Ti1 tau(  13) = (   0.0356438   2.9569522  12.5500042  )
        14           Ti1 tau(  14) = (   3.3321116   1.4682926  12.5176941  )
        15           O1  tau(  15) = (   0.0287262   5.9365737  14.6848071  )
        16           O1  tau(  16) = (   3.3260766   5.9477468  13.9918032  )
        17           O1  tau(  17) = (   4.5788076   1.5006004  16.1778977  )
        18           O1  tau(  18) = (   2.0653823   1.4932191  16.1519216  )
        19           Ti1 tau(  19) = (   3.3252840   2.9629899  15.7366588  )
        20           Ti1 tau(  20) = (   0.0567170   1.3280226  15.9864722  )
        21           O1  tau(  21) = (   3.2904802   0.0005063   4.7018136  )
        22           O1  tau(  22) = (   0.0395201   5.9563027  17.2132275  )
        23           O1  tau(  23) = (   1.3043587   1.4918075   6.0039043  )
        24           O1  tau(  24) = (   5.2767064   1.4903225   6.0039473  )
        25           Ti1 tau(  25) = (   0.0000382   5.9609847   6.0000000  )
        26           Ti1 tau(  26) = (   3.2902200   4.4714249   6.0002472  )
        27           O1  tau(  27) = (   0.0002396   2.9813036   7.9858123  )
        28           O1  tau(  28) = (   3.2902150   2.9813002   7.3038282  )
        29           O1  tau(  29) = (   4.5938453   4.4726049   9.2879030  )
        30           O1  tau(  30) = (   1.9864658   4.4711199   9.2879459  )
        31           Ti1 tau(  31) = (   3.2891106   5.8743827   9.1763621  )
        32           Ti1 tau(  32) = (   0.0006254   4.4649316   9.2693709  )
        33           O1  tau(  33) = (   3.3109971   2.9638951  11.3609806  )
        34           O1  tau(  34) = (   0.0092240   2.9805883  10.6323155  )
        35           O1  tau(  35) = (   1.3172493   4.4579999  12.6547637  )
        36           O1  tau(  36) = (   5.3123203   4.4599931  12.6537913  )
        37           Ti1 tau(  37) = (   0.0349292   5.9384232  12.5038109  )
        38           Ti1 tau(  38) = (   3.3308216   4.4462378  12.5132791  )
        39           O1  tau(  39) = (   0.0262156   2.9786664  14.8481040  )
        40           O1  tau(  40) = (   3.3240488   2.9673873  13.9486158  )
        41           O1  tau(  41) = (   4.5778164   4.4375445  16.1741249  )
        42           O1  tau(  42) = (   2.0647505   4.4412733  16.1578575  )
        43           Ti1 tau(  43) = (   3.3314326   5.9455663  15.7867969  )
        44           Ti1 tau(  44) = (   0.0345939   4.5236910  15.9072353  )
        45           O1  tau(  45) = (   3.2900926   2.9813045   4.7018136  )
        46           O1  tau(  46) = (   1.3039711   4.4726057   6.0039043  )
        47           O1  tau(  47) = (   5.2763189   4.4711207   6.0039473  )
        48           N1  tau(  48) = (   0.8843530   3.1495628  18.6524426  )
        49           C1  tau(  49) = (   1.8908588   3.1194352  19.2834450  )
        50           H1  tau(  50) = (   2.4245030   3.8971110  19.8100181  )
        51           N1  tau(  51) = (   6.5588057   2.9807634  17.7841789  )
        52           H1  tau(  52) = (   5.6432114   2.8891999  18.2270943  )

     number of k points=    10  Fermi-Dirac smearing, width (Ry)=  0.0073
                       cart. coord. in units 2pi/alat
        k(    1) = (   0.0000000   0.0000000   0.0000000), wk =   0.1250000
        k(    2) = (   0.0000000   0.0419351   0.0000000), wk =   0.2500000
        k(    3) = (   0.0000000  -0.0838702   0.0000000), wk =   0.1250000
        k(    4) = (   0.0379955   0.0000049   0.0000000), wk =   0.2500000
        k(    5) = (   0.0379955   0.0419400   0.0000000), wk =   0.2500000
        k(    6) = (   0.0379955  -0.0838652   0.0000000), wk =   0.2500000
        k(    7) = (   0.0379955  -0.0419301   0.0000000), wk =   0.2500000
        k(    8) = (  -0.0759910  -0.0000099   0.0000000), wk =   0.1250000
        k(    9) = (  -0.0759910   0.0419252   0.0000000), wk =   0.2500000
        k(   10) = (  -0.0759910  -0.0838800   0.0000000), wk =   0.1250000

     Initial potential from superposition of free atoms

     starting charge  377.99917, renormalised to  394.00000

     negative rho (up, down):  1.652E-02 0.000E+00

     %%%%%%%%%%%%%%%%%%%%%%%%%%%%%%%%%%%%%%%%%%%%%%%%%%%%%%%%%%%%%%%%%%%%%%%%
     %                                                                      %
     % You are using vdW-DF, which was implemented by the Thonhauser group. %
     % Please cite the following two papers that made this development      %
     % possible and the two reviews that describe the various versions:     %
     %                                                                      %
     %   T. Thonhauser et al., PRL 115, 136402 (2015).                      %
     %   T. Thonhauser et al., PRB 76, 125112 (2007).                       %
     %   K. Berland et al., Rep. Prog. Phys. 78, 066501 (2015).             %
     %   D.C. Langreth et al., J. Phys.: Condens. Matter 21, 084203 (2009). %
     %                                                                      %
     %                                                                      %
     % If you are calculating the stress with vdW-DF, please also cite:     %
     %                                                                      %
     %   R. Sabatini et al., J. Phys.: Condens. Matter 24, 424209 (2012).   %
     %                                                                      %
     %%%%%%%%%%%%%%%%%%%%%%%%%%%%%%%%%%%%%%%%%%%%%%%%%%%%%%%%%%%%%%%%%%%%%%%%

     Adding external electric field

     Computed dipole along edir(3) :
        Dipole               -8.4995 Ry au,        -21.6035 Debye
        Dipole field         -0.0160 Ry au,

        Potential amp.        1.4869 Ry
        Total length         46.3494 bohr

     Starting wfcs are  298 atomic wfcs
  @ DRIVER MODE: Message from server: STATUS
  @ DRIVER MODE: Message from server: POSDATA
  @ DRIVER MODE: Reading and sharing cell
  @ DRIVER MODE: Reading and sharing positions
  @ DRIVER MODE: Received positions

     Self-consistent Calculation

     iteration #  1     ecut=    29.40 Ry     beta= 0.05
     Davidson diagonalization with overlap
     c_bands:  1 eigenvalues not converged
     c_bands:  1 eigenvalues not converged
     c_bands:  2 eigenvalues not converged
     c_bands:  2 eigenvalues not converged
     c_bands:  2 eigenvalues not converged
     c_bands:  1 eigenvalues not converged
     ethr =  1.00E-05,  avg # of iterations = 19.0

[...]

     total energy              =   -2624.26902862 Ry
     estimated scf accuracy    <    3488.47620692 Ry

[...]

     iteration #  3     ecut=    29.40 Ry     beta= 0.05
     Davidson diagonalization with overlap
     ethr =  1.00E-02,  avg # of iterations = 14.5

[...]

     iteration # 72     ecut=    29.40 Ry     beta= 0.05
     Davidson diagonalization with overlap
     ethr =  5.18E-11,  avg # of iterations =  9.3

[...]

     total energy              =   -2937.80854659 Ry
     estimated scf accuracy    <       0.00000014 Ry

     iteration # 73     ecut=    29.40 Ry     beta= 0.05
     Davidson diagonalization with overlap
     c_bands:  1 eigenvalues not converged
     c_bands:  1 eigenvalues not converged
     ethr =  3.45E-11,  avg # of iterations = 13.1

     negative rho (up, down):  1.630E-02 0.000E+00

     Adding external electric field

     Computed dipole along edir(3) :
        Dipole                1.2839 Ry au,          3.2633 Debye
        Dipole field          0.0024 Ry au,

        Potential amp.       -0.2246 Ry
        Total length         46.3494 bohr

     End of self-consistent calculation

          k = 0.0000 0.0000 0.0000 ( 18029 PWs)   bands (ev):

   -55.4415 -55.4054 -55.4052 -55.3711 -55.3347 -55.3188 -55.2761 -55.2543
   -55.2486 -55.2395 -55.2317 -55.2198 -55.1983 -55.1703 -54.4235 -54.3894
   -32.0105 -31.8957 -31.8334 -31.8047 -31.7605 -31.7530 -31.7435 -31.7346
   -31.6948 -31.6878 -31.6505 -31.6497 -31.6422 -31.6152 -31.5959 -31.5776
   -31.5730 -31.5666 -31.5586 -31.5529 -31.5172 -31.5168 -31.5076 -31.4991
   -31.4848 -31.4623 -31.4567 -31.4532 -31.4490 -31.4458 -31.4427 -31.4283
   -31.4204 -31.4138 -31.4085 -31.4034 -31.3811 -31.3688 -31.3671 -31.3609
   -31.3404 -31.2769 -30.8325 -30.7393 -30.7172 -30.6488 -30.5621 -30.4513
   -20.2061 -16.2556 -15.9830 -15.8383 -15.7155 -15.6316 -15.5047 -15.4645
   -15.3473 -15.3259 -15.2333 -15.1579 -15.0902 -15.0870 -15.0696 -15.0436
   -14.9906 -14.9767 -14.9740 -14.9317 -14.9294 -14.8875 -14.8681 -14.8342
   -14.8163 -14.7971 -14.7777 -14.6572 -14.5880 -14.5292 -14.1648 -12.9261
   -12.8089  -8.8025  -7.1255  -5.4142  -4.6995  -3.6009  -3.4411  -3.3539
    -3.3378  -3.3334  -3.1691  -3.0410  -2.8137  -2.7749  -2.7022  -2.6479
    -2.6299  -2.6079  -2.4301  -2.4058  -2.3456  -2.3182  -2.2812  -2.2517
    -2.2268  -2.2049  -2.1987  -2.1807  -2.1659  -2.0060  -1.9074  -1.8747
    -1.8400  -1.8269  -1.7674  -1.7343  -1.7285  -1.7267  -1.7177  -1.6743
    -1.6535  -1.6067  -1.5047  -1.4716  -1.4434  -1.3221  -1.3063  -1.1571
    -1.0742  -0.9890  -0.9819  -0.9152  -0.9076  -0.8753  -0.8252  -0.7989
    -0.7768  -0.6429  -0.5720  -0.5121  -0.4983  -0.4549  -0.4102  -0.3737
    -0.2795  -0.2169  -0.2089  -0.1970  -0.0314  -0.0162   0.0296   0.0789
     0.1048   0.1516   0.1790   0.2467   0.2813   0.3263   0.3567   0.4528
     0.4939   0.5128   0.5273   0.5465   0.5585   0.6202   0.6856   0.7040
     0.7525   0.8122   0.9209   1.1200   1.1796   1.1938   1.5087   1.5431
     1.5991   1.7843   2.1742   2.2220   3.6587   3.7302   3.7941   3.8091
     3.8184   3.8943   4.0663   4.1419   4.1575   4.1641   4.1758

[...]

          k = 0.0380-0.0419 0.0000 ( 17876 PWs)   bands (ev):

[...]

          k =-0.0760-0.0000 0.0000 ( 17886 PWs)   bands (ev):

[...]

          k =-0.0760-0.0839 0.0000 ( 17948 PWs)   bands (ev):

   -55.4246 -55.4221 -55.3882 -55.3880 -55.3314 -55.3102 -55.2846 -55.2442
   -55.2427 -55.2378 -55.2356 -55.2154 -55.2150 -55.1744 -54.4065 -54.4063
   -31.8154 -31.8125 -31.7520 -31.7335 -31.7108 -31.7108 -31.6989 -31.6803
   -31.6802 -31.6517 -31.6425 -31.6372 -31.6339 -31.5934 -31.5718 -31.5686
   -31.5685 -31.5607 -31.5601 -31.5494 -31.5368 -31.5273 -31.5168 -31.5132
   -31.5089 -31.5077 -31.5074 -31.5011 -31.4790 -31.4711 -31.4687 -31.4685
   -31.4515 -31.4488 -31.4480 -31.4397 -31.4383 -31.4334 -31.3955 -31.3949
   -31.3887 -31.3684 -30.7299 -30.7298 -30.6452 -30.6450 -30.6055 -30.6055
   -20.2048 -15.7101 -15.6909 -15.6321 -15.4259 -15.4224 -15.4114 -15.3970
   -15.3587 -15.2374 -15.2168 -15.2022 -15.1855 -15.1437 -15.1399 -15.1227
   -15.1129 -15.0147 -15.0125 -15.0104 -15.0090 -14.9468 -14.9388 -14.9250
   -14.8905 -14.8874 -14.8582 -14.7885 -14.7856 -14.6507 -14.4849 -12.9105
   -12.9104  -8.7878  -7.1450  -5.4126  -4.6831  -2.9664  -2.8961  -2.8525
    -2.6433  -2.6207  -2.6061  -2.5224  -2.4733  -2.4117  -2.4042  -2.3971
    -2.3386  -2.3027  -2.2896  -2.2713  -2.2635  -2.2459  -2.2246  -2.2128
    -2.1669  -2.1564  -2.1469  -2.1107  -2.0984  -2.0801  -2.0552  -2.0362
    -2.0212  -2.0161  -1.9962  -1.8358  -1.7843  -1.7365  -1.6833  -1.6754
    -1.6333  -1.6257  -1.5315  -1.4969  -1.4680  -1.4392  -1.4315  -1.2387
    -1.2241  -1.1729  -1.1680  -1.1437  -0.9872  -0.9679  -0.9501  -0.9351
    -0.8895  -0.8065  -0.7999  -0.7635  -0.6546  -0.6259  -0.6174  -0.5683
    -0.4477  -0.4251  -0.4033  -0.3977  -0.3919  -0.2981  -0.2813  -0.2700
    -0.2400  -0.2075  -0.1564  -0.1503  -0.0970   0.0850   0.1309   0.1956
     0.2743   0.4459   0.4844   0.5107   0.5511   0.6125   0.6848   0.7031
     0.7660   0.8594   0.8740   0.9063   0.9765   1.0291   1.0370   1.0617
     1.9571   1.9579   2.0418   2.0420   3.8291   3.8400   3.9031   3.9399
     3.9887   4.0806   4.1777   4.1948   4.2373   4.2383   4.3237

     the Fermi energy is     3.7126 ev

!    total energy              =   -2937.80856501 Ry
     estimated scf accuracy    <       0.00000007 Ry
     smearing contrib. (-TS)   =      -0.03814322 Ry
     internal energy E=F+TS    =   -2937.77042178 Ry

     The total energy is F=E-TS. E is the sum of the following terms:
     one-electron contribution =  -24092.15425509 Ry
     hartree contribution      =   12136.09067214 Ry
     xc contribution           =    -484.38320691 Ry
     ewald contribution        =    9502.67325739 Ry
     electric field correction =       0.00311069 Ry

     convergence has been achieved in  73 iterations

     Forces acting on atoms (cartesian axes, Ry/au):

     atom    1 type  1   force =     0.00006595   -0.00010978    0.09406433
     atom    2 type  1   force =    -0.00016663   -0.00023265   -0.17763837
     atom    3 type  2   force =     0.00011214   -0.00020522   -0.02136580
     atom    4 type  2   force =     0.00002415   -0.00183973    0.05753835
     atom    5 type  2   force =    -0.01066541   -0.00138955    0.00632916
     atom    6 type  2   force =     0.01273232   -0.00074138    0.00661204
     atom    7 type  1   force =     0.00011971    0.00197104   -0.01403542
     atom    8 type  1   force =    -0.00046522    0.00583817    0.00396675
     atom    9 type  2   force =     0.00035951    0.00023111   -0.00008335
     atom   10 type  2   force =    -0.00024104    0.00022518   -0.00515354
     atom   11 type  2   force =     0.00006035   -0.00014556   -0.00045880
     atom   12 type  2   force =    -0.00030030    0.00001426    0.00007505
     atom   13 type  1   force =    -0.00026433    0.00000988   -0.00021623
     atom   14 type  1   force =    -0.00008628    0.00016158   -0.00012951
     atom   15 type  2   force =    -0.00048949   -0.00038902   -0.00026533
     atom   16 type  2   force =    -0.00018317    0.00019668   -0.00000949
     atom   17 type  2   force =    -0.00005323   -0.00019209   -0.00020755
     atom   18 type  2   force =    -0.00033809   -0.00016570   -0.00057861
     atom   19 type  1   force =    -0.00021207    0.00015296   -0.00001940
     atom   20 type  1   force =    -0.00022018    0.00004718    0.00102597
     atom   21 type  2   force =     0.00001766    0.00002342    0.10377509
     atom   22 type  2   force =     0.00001943    0.00014194   -0.00029698
     atom   23 type  2   force =    -0.07065365   -0.00007200   -0.02702908
     atom   24 type  2   force =     0.07054854    0.00037135   -0.02708108
     atom   25 type  1   force =     0.00000975   -0.00008268    0.09369056
     atom   26 type  1   force =    -0.00014615   -0.00016454   -0.17769497
     atom   27 type  2   force =     0.00013389   -0.00023692   -0.02037092
     atom   28 type  2   force =     0.00006791   -0.00155113    0.05701149
     atom   29 type  2   force =    -0.01100783   -0.00053876    0.00635250
     atom   30 type  2   force =     0.01292997   -0.00027604    0.00664619
     atom   31 type  1   force =     0.00030282    0.00521334   -0.01481774
     atom   32 type  1   force =    -0.00039797   -0.00659157    0.00413694
     atom   33 type  2   force =     0.00015858    0.00008140   -0.00030871
     atom   34 type  2   force =     0.00035930   -0.00102023   -0.00205962
     atom   35 type  2   force =    -0.00030118    0.00015217   -0.00022409
     atom   36 type  2   force =    -0.00005123    0.00000196    0.00010294
     atom   37 type  1   force =    -0.00007900    0.00022783   -0.00008773
     atom   38 type  1   force =     0.00006651    0.00025193    0.00024234
     atom   39 type  2   force =    -0.00006980    0.00021814   -0.00004639
     atom   40 type  2   force =    -0.00029864    0.00009329   -0.00025911
     atom   41 type  2   force =    -0.00036433    0.00000740   -0.00006971
     atom   42 type  2   force =    -0.00015251    0.00021214   -0.00035122
     atom   43 type  1   force =    -0.00015682    0.00011132    0.00004300
     atom   44 type  1   force =    -0.00016422   -0.00062142    0.00021043
     atom   45 type  2   force =     0.00001525   -0.00000810    0.10378993
     atom   46 type  2   force =    -0.07067021   -0.00004376   -0.02704669
     atom   47 type  2   force =     0.07055157    0.00039618   -0.02708326
     atom   48 type  3   force =    -0.00292682   -0.00323985   -0.00148186
     atom   49 type  4   force =     0.00035164    0.00166247    0.00046605
     atom   50 type  5   force =     0.00045541    0.00009829    0.00009983
     atom   51 type  3   force =     0.00166243    0.00104340   -0.00008058
     atom   52 type  5   force =     0.00000100    0.00070171    0.00037219

     Total force =     0.366015     Total SCF correction =     0.000836
  @ DRIVER MODE: Message from server: STATUS
  @ DRIVER MODE: Message from server: GETFORCE
  @ DRIVER MODE: Returning v,forces,stress,ensemble

     Writing output data file ./calc.save/
  @ DRIVER MODE: Message from server: EXIT
  @ DRIVE MODE: Exiting

     General routines

     Parallel routines

   This run was terminated on:  15:14:39  23Aug2021

   JOB DONE.