     Program PWSCF v.6.7GPU starts on 16Jul2021 at  1:36:39

     R & G space division:  proc/nbgrp/npool/nimage =      16
     Reading input from /storage/home/hcoda1/3/ntian30/research/carbon/15Jul_vib/ads_slab/CH3N_a/out_0023/pw.inp
Warning: card &CELL ignored
Warning: card   CELL_DYNAMICS='IPI', ignored
Warning: card / ignored

     Current dimensions of program PWSCF are:
     Max number of different atomic species (ntypx) = 10
     Max number of k-points (npk) =  40000
     Max angular momentum in pseudopotentials (lmaxx) =  3
     Presently no symmetry can be used with electric field

     Message from routine cell_base_init:
     DEPRECATED: use true lattice parameter, not A to a.u. conversion factor

     IMPORTANT: XC functional enforced from input :
     Exchange-correlation= BEEF-VDW
                           (   1   4  43  14   2   0   0)
     Any further DFT definition will be discarded
     Please, verify this is what you really want

  @ DRIVER MODE: Connecting to
 qe_1139763_2351643.sched-torque.pace.gatech.edufwm3spmy_scratch
  using UNIX socket
  @ DRIVER MODE: Message from server: STATUS
  @ DRIVER MODE: Message from server: INIT
  @ DRIVER MODE: Receiving replica           0          -1
  @ DRIVER MODE: Receiving encoded integer          25
  @ DRIVER MODE:  SCF:  T  FORCE:  T  STRESS:  F  VC:  F  ENSEMBLE:  F
  @ DRIVER MODE:  SCF:  T  FORCE:  T  STRESS:  F  VC:  F  ENSEMBLE:  F

     Using Slab Decomposition

     bravais-lattice index     =            0
     lattice parameter (alat)  =       1.8897  a.u.
     unit-cell volume          =    6658.9804 (a.u.)^3
     number of atoms/cell      =           52
     number of atomic types    =            5
     number of electrons       =       390.00
     number of Kohn-Sham states=          205
     kinetic-energy cutoff     =      29.3995  Ry
     charge density cutoff     =     293.9946  Ry
     scf convergence threshold =      7.3E-08
     mixing beta               =       0.0500
     number of iterations used =            8  plain     mixing
     Exchange-correlation= BEEF-VDW
                           (   1   4  43  14   2   0   0)

     celldm(1)=   1.889726  celldm(2)=   0.000000  celldm(3)=   0.000000
     celldm(4)=   0.000000  celldm(5)=   0.000000  celldm(6)=   0.000000

     crystal axes: (cart. coord. in units of alat)
               a(1) = (   6.579727   0.000000   0.000000 )
               a(2) = (  -0.000775   5.961596   0.000000 )
               a(3) = (   0.000000   0.000000  25.155947 )

     reciprocal axes: (cart. coord. in units 2 pi/alat)
               b(1) = (  0.151982  0.000020  0.000000 )
               b(2) = (  0.000000  0.167740  0.000000 )
               b(3) = (  0.000000  0.000000  0.039752 )

     PseudoPot. # 1 for Ti read from file:
     /storage/coda1/p-amedford6/0/shared/rich_project_chbe-medford/medford-share/data/pseudos_module/espresso/nninc/pbe/van/Ti.UPF
     MD5 check sum: 8e4df49b7f0d34bbd5052bf3f5ea0213
     Pseudo is Ultrasoft, Zval = 12.0
     Generated by new atomic code, or converted to UPF format
     Using radial grid of  851 points,  6 beta functions with:
                l(1) =   0
                l(2) =   0
                l(3) =   1
                l(4) =   1
                l(5) =   2
                l(6) =   2
     Q(r) pseudized with  8 coefficients,  rinner =    1.000   1.000   1.000
                                                       1.000   1.000

     PseudoPot. # 2 for O  read from file:
     /storage/coda1/p-amedford6/0/shared/rich_project_chbe-medford/medford-share/data/pseudos_module/espresso/nninc/pbe/van/O.UPF
     MD5 check sum: 78c19812648e8988a0fe644b0f25305e
     Pseudo is Ultrasoft, Zval =  6.0
     Generated by new atomic code, or converted to UPF format
     Using radial grid of  737 points,  4 beta functions with:
                l(1) =   0
                l(2) =   0
                l(3) =   1
                l(4) =   1
     Q(r) pseudized with  8 coefficients,  rinner =    0.800   0.800   0.800

     PseudoPot. # 3 for N  read from file:
     /storage/coda1/p-amedford6/0/shared/rich_project_chbe-medford/medford-share/data/pseudos_module/espresso/nninc/pbe/van/N.UPF
     MD5 check sum: 90d10febe142ad51ac9d5be1deb811c4
     Pseudo is Ultrasoft, Zval =  5.0
     Generated by new atomic code, or converted to UPF format
     Using radial grid of  729 points,  4 beta functions with:
                l(1) =   0
                l(2) =   0
                l(3) =   1
                l(4) =   1
     Q(r) pseudized with  8 coefficients,  rinner =    0.800   0.800   0.800

     PseudoPot. # 4 for C  read from file:
     /storage/coda1/p-amedford6/0/shared/rich_project_chbe-medford/medford-share/data/pseudos_module/espresso/nninc/pbe/van/C.UPF
     MD5 check sum: 1a69bf6b8db32088f5b2163dbdb77a27
     Pseudo is Ultrasoft, Zval =  4.0
     Generated by new atomic code, or converted to UPF format
     Using radial grid of  721 points,  4 beta functions with:
                l(1) =   0
                l(2) =   0
                l(3) =   1
                l(4) =   1
     Q(r) pseudized with  8 coefficients,  rinner =    0.800   0.800   0.800

     PseudoPot. # 5 for H  read from file:
     /storage/coda1/p-amedford6/0/shared/rich_project_chbe-medford/medford-share/data/pseudos_module/espresso/nninc/pbe/van/H.UPF
     MD5 check sum: b5ee9d7bfd3a09ee7748110bda690ff7
     Pseudo is Ultrasoft, Zval =  1.0
     Generated by new atomic code, or converted to UPF format
     Using radial grid of  615 points,  1 beta functions with:
                l(1) =   0
     Q(r) pseudized with  8 coefficients,  rinner =    0.800

     atomic species   valence    mass     pseudopotential
        Ti1           12.00    47.86700     Ti( 1.00)
        O1             6.00    15.99900     O ( 1.00)
        N1             5.00    14.00700     N ( 1.00)
        C1             4.00    12.01100     C ( 1.00)
        H1             1.00     1.00800     H ( 1.00)

     Starting magnetic structure
     atomic species   magnetization
        Ti1          0.000
        O1           0.000
        N1           0.000
        C1           0.025
        H1           0.000

     No symmetry found

   Cartesian axes

     site n.     atom                  positions (alat units)
         1           Ti1 tau(   1) = (   0.0004258   2.9801865   6.0000000  )
         2           Ti1 tau(   2) = (   3.2906075   1.4906267   6.0002472  )
         3           O1  tau(   3) = (   0.0006271   0.0005054   7.9858123  )
         4           O1  tau(   4) = (   3.2906025   0.0005020   7.3038282  )
         5           O1  tau(   5) = (   4.5942328   1.4918067   9.2879030  )
         6           O1  tau(   6) = (   1.9868534   1.4903216   9.2879459  )
         7           Ti1 tau(   7) = (   3.2907910   2.8959150   9.1758416  )
         8           Ti1 tau(   8) = (   0.0015273   1.4827037   9.2680791  )
         9           O1  tau(   9) = (   3.2848820   0.0184509  11.2968037  )
        10           O1  tau(  10) = (   0.0116148   5.9584955  10.6183126  )
        11           O1  tau(  11) = (   1.3164307   1.5202202  12.6152053  )
        12           O1  tau(  12) = (   5.2938533   1.5248534  12.6363518  )
        13           Ti1 tau(  13) = (   6.4693392   3.0155455  12.7604093  )
        14           Ti1 tau(  14) = (   3.1621140   1.5165027  12.4659144  )
        15           O1  tau(  15) = (   0.0250032   0.0426882  14.5925537  )
        16           O1  tau(  16) = (   3.2896737   0.0171256  13.8799622  )
        17           O1  tau(  17) = (   4.5365032   1.4993634  16.0438468  )
        18           O1  tau(  18) = (   2.0814567   1.5015292  16.0591106  )
        19           Ti1 tau(  19) = (   3.3082904   2.9956922  15.6854367  )
        20           Ti1 tau(  20) = (   0.0032501   1.4479889  16.1249605  )
        21           O1  tau(  21) = (   3.2904802   0.0005063   4.7018136  )
        22           O1  tau(  22) = (   0.0161699   0.0004382  17.1970091  )
        23           O1  tau(  23) = (   1.3043587   1.4918075   6.0039043  )
        24           O1  tau(  24) = (   5.2767064   1.4903225   6.0039473  )
        25           Ti1 tau(  25) = (   0.0000382   5.9609847   6.0000000  )
        26           Ti1 tau(  26) = (   3.2902200   4.4714249   6.0002472  )
        27           O1  tau(  27) = (   0.0002396   2.9813036   7.9858123  )
        28           O1  tau(  28) = (   3.2902150   2.9813002   7.3038282  )
        29           O1  tau(  29) = (   4.5938453   4.4726049   9.2879030  )
        30           O1  tau(  30) = (   1.9864658   4.4711199   9.2879459  )
        31           Ti1 tau(  31) = (   3.2891106   5.8743827   9.1763621  )
        32           Ti1 tau(  32) = (   0.0006254   4.4649316   9.2693709  )
        33           O1  tau(  33) = (   3.2855107   2.9994495  11.2959752  )
        34           O1  tau(  34) = (   0.0092240   2.9805883  10.6323155  )
        35           O1  tau(  35) = (   1.3179678   4.4860142  12.6155112  )
        36           O1  tau(  36) = (   5.2920789   4.4901865  12.6316709  )
        37           Ti1 tau(  37) = (   6.5050993   0.0355131  12.7707974  )
        38           Ti1 tau(  38) = (   3.1594757   4.4963870  12.4672366  )
        39           O1  tau(  39) = (   6.5726527   3.0227966  14.6583025  )
        40           O1  tau(  40) = (   3.2932321   2.9979836  13.8792693  )
        41           O1  tau(  41) = (   4.5322310   4.4839795  16.0418810  )
        42           O1  tau(  42) = (   2.0800586   4.4799519  16.0553745  )
        43           Ti1 tau(  43) = (   3.2910362   0.0127607  15.6894215  )
        44           Ti1 tau(  44) = (   0.0049462   4.4269923  16.0943486  )
        45           O1  tau(  45) = (   3.2900926   2.9813045   4.7018136  )
        46           O1  tau(  46) = (   1.3039711   4.4726057   6.0039043  )
        47           O1  tau(  47) = (   5.2763189   4.4711207   6.0039473  )
        48           N1  tau(  48) = (   0.0596666   2.9942962  17.3216073  )
        49           C1  tau(  49) = (   0.3918855   2.9774893  18.7266025  )
        50           H1  tau(  50) = (   0.0017595   3.8652167  19.2343835  )
        51           H1  tau(  51) = (   0.0043965   2.0815098  19.2100810  )
        52           H1  tau(  52) = (   1.4843755   2.9788857  18.8581259  )

     number of k points=    10  Fermi-Dirac smearing, width (Ry)=  0.0073
                       cart. coord. in units 2pi/alat
        k(    1) = (   0.0000000   0.0000000   0.0000000), wk =   0.0625000
        k(    2) = (   0.0000000   0.0419351   0.0000000), wk =   0.1250000
        k(    3) = (   0.0000000  -0.0838702   0.0000000), wk =   0.0625000
        k(    4) = (   0.0379955   0.0000049   0.0000000), wk =   0.1250000
        k(    5) = (   0.0379955   0.0419400   0.0000000), wk =   0.1250000
        k(    6) = (   0.0379955  -0.0838652   0.0000000), wk =   0.1250000
        k(    7) = (   0.0379955  -0.0419301   0.0000000), wk =   0.1250000
        k(    8) = (  -0.0759910  -0.0000099   0.0000000), wk =   0.0625000
        k(    9) = (  -0.0759910   0.0419252   0.0000000), wk =   0.1250000
        k(   10) = (  -0.0759910  -0.0838800   0.0000000), wk =   0.0625000

     Initial potential from superposition of free atoms

     starting charge  373.99917, renormalised to  390.00000

     negative rho (up, down):  8.652E-03 8.659E-03

     %%%%%%%%%%%%%%%%%%%%%%%%%%%%%%%%%%%%%%%%%%%%%%%%%%%%%%%%%%%%%%%%%%%%%%%%
     %                                                                      %
     % You are using vdW-DF, which was implemented by the Thonhauser group. %
     % Please cite the following two papers that made this development      %
     % possible and the two reviews that describe the various versions:     %
     %                                                                      %
     %   T. Thonhauser et al., PRL 115, 136402 (2015).                      %
     %   T. Thonhauser et al., PRB 76, 125112 (2007).                       %
     %   K. Berland et al., Rep. Prog. Phys. 78, 066501 (2015).             %
     %   D.C. Langreth et al., J. Phys.: Condens. Matter 21, 084203 (2009). %
     %                                                                      %
     %                                                                      %
     % If you are calculating the stress with vdW-DF, please also cite:     %
     %                                                                      %
     %   R. Sabatini et al., J. Phys.: Condens. Matter 24, 424209 (2012).   %
     %                                                                      %
     %%%%%%%%%%%%%%%%%%%%%%%%%%%%%%%%%%%%%%%%%%%%%%%%%%%%%%%%%%%%%%%%%%%%%%%%

     Adding external electric field

     Computed dipole along edir(3) :
        Dipole               -4.6255 Ry au,        -11.7568 Debye
        Dipole field         -0.0087 Ry au,

        Potential amp.        0.8092 Ry
        Total length         46.3494 bohr

[...]

     Starting wfcs are  295 atomic wfcs
  @ DRIVER MODE: Message from server: STATUS
  @ DRIVER MODE: Message from server: POSDATA
  @ DRIVER MODE: Reading and sharing cell
  @ DRIVER MODE: Reading and sharing positions
  @ DRIVER MODE: Received positions

     Self-consistent Calculation

     iteration #  1     ecut=    29.40 Ry     beta= 0.05
     Davidson diagonalization with overlap
     c_bands:  3 eigenvalues not converged
     c_bands:  3 eigenvalues not converged
     c_bands:  2 eigenvalues not converged
     c_bands:  4 eigenvalues not converged
     c_bands:  4 eigenvalues not converged
     c_bands:  2 eigenvalues not converged
     c_bands:  2 eigenvalues not converged
     c_bands:  2 eigenvalues not converged
     c_bands:  4 eigenvalues not converged
     c_bands:  3 eigenvalues not converged
     c_bands:  2 eigenvalues not converged
     c_bands:  4 eigenvalues not converged
     c_bands:  4 eigenvalues not converged
     c_bands:  2 eigenvalues not converged
     c_bands:  3 eigenvalues not converged
     c_bands:  3 eigenvalues not converged
     ethr =  1.00E-05,  avg # of iterations = 19.7

[...]

     total energy              =   -2877.51703181 Ry
     estimated scf accuracy    <     480.15630969 Ry

     total magnetization       =     0.13 Bohr mag/cell
     absolute magnetization    =     0.16 Bohr mag/cell

     iteration #  2     ecut=    29.40 Ry     beta= 0.05
     Davidson diagonalization with overlap
     ethr =  1.00E-02,  avg # of iterations = 13.6

[...]

     iteration # 46     ecut=    29.40 Ry     beta= 0.05
     Davidson diagonalization with overlap
     c_bands:  1 eigenvalues not converged
     c_bands:  1 eigenvalues not converged
     ethr =  1.74E-07,  avg # of iterations =  8.7

[...]

     total energy              =   -2919.13335458 Ry
     estimated scf accuracy    <       0.00000008 Ry

[...]

     iteration # 81     ecut=    29.40 Ry     beta= 0.05
     Davidson diagonalization with overlap
     ethr =  1.99E-11,  avg # of iterations =  6.5

     negative rho (up, down):  8.894E-03 8.893E-03

[...]

     Adding external electric field

     Computed dipole along edir(3) :
        Dipole                0.2516 Ry au,          0.6395 Debye
        Dipole field          0.0005 Ry au,

        Potential amp.       -0.0440 Ry
        Total length         46.3494 bohr

     Magnetic moment per site  (integrated on atomic sphere of radius R)
     atom   1 (R=0.743)  charge=  8.0712  magn= -0.0001
     atom   2 (R=0.743)  charge=  8.0673  magn= -0.0001
     atom   3 (R=0.743)  charge=  5.0508  magn=  0.0000
     atom   4 (R=0.743)  charge=  5.0897  magn=  0.0000
     atom   5 (R=0.743)  charge=  5.0526  magn=  0.0000
     atom   6 (R=0.743)  charge=  5.0540  magn=  0.0000
     atom   7 (R=0.743)  charge=  8.0606  magn= -0.0000
     atom   8 (R=0.743)  charge=  8.0480  magn= -0.0000
     atom   9 (R=0.743)  charge=  5.0677  magn=  0.0000
     atom  10 (R=0.743)  charge=  4.9974  magn=  0.0000
     atom  11 (R=0.743)  charge=  5.0556  magn=  0.0000
     atom  12 (R=0.743)  charge=  5.0584  magn=  0.0000
     atom  13 (R=0.743)  charge=  8.0595  magn= -0.0000
     atom  14 (R=0.743)  charge=  8.0663  magn= -0.0000
     atom  15 (R=0.743)  charge=  5.0445  magn=  0.0000
     atom  16 (R=0.743)  charge=  5.0714  magn=  0.0000
     atom  17 (R=0.743)  charge=  5.0432  magn=  0.0001
     atom  18 (R=0.743)  charge=  5.0420  magn=  0.0001
     atom  19 (R=0.743)  charge=  8.0874  magn= -0.0001
     atom  20 (R=0.743)  charge=  8.0865  magn= -0.0003
     atom  21 (R=0.743)  charge=  4.9345  magn=  0.0001
     atom  22 (R=0.743)  charge=  5.0263  magn=  0.0001
     atom  23 (R=0.743)  charge=  5.0425  magn=  0.0000
     atom  24 (R=0.743)  charge=  5.0426  magn=  0.0000
     atom  25 (R=0.743)  charge=  8.0712  magn= -0.0001
     atom  26 (R=0.743)  charge=  8.0673  magn= -0.0001
     atom  27 (R=0.743)  charge=  5.0507  magn=  0.0000
     atom  28 (R=0.743)  charge=  5.0899  magn=  0.0000
     atom  29 (R=0.743)  charge=  5.0534  magn=  0.0000
     atom  30 (R=0.743)  charge=  5.0547  magn=  0.0000
     atom  31 (R=0.743)  charge=  8.0608  magn= -0.0000
     atom  32 (R=0.743)  charge=  8.0482  magn= -0.0000
     atom  33 (R=0.743)  charge=  5.0679  magn=  0.0000
     atom  34 (R=0.743)  charge=  4.9963  magn=  0.0000
     atom  35 (R=0.743)  charge=  5.0558  magn=  0.0000
     atom  36 (R=0.743)  charge=  5.0580  magn=  0.0000
     atom  37 (R=0.743)  charge=  8.0670  magn= -0.0000
     atom  38 (R=0.743)  charge=  8.0667  magn= -0.0000
     atom  39 (R=0.743)  charge=  5.0387  magn=  0.0001
     atom  40 (R=0.743)  charge=  5.0730  magn=  0.0000
     atom  41 (R=0.743)  charge=  5.0439  magn=  0.0001
     atom  42 (R=0.743)  charge=  5.0430  magn=  0.0001
     atom  43 (R=0.743)  charge=  8.0878  magn= -0.0000
     atom  44 (R=0.743)  charge=  8.0856  magn= -0.0004
     atom  45 (R=0.743)  charge=  4.9345  magn=  0.0001
     atom  46 (R=0.743)  charge=  5.0425  magn=  0.0000
     atom  47 (R=0.743)  charge=  5.0426  magn=  0.0000
     atom  48 (R=0.596)  charge=  2.7579  magn=  0.0015
     atom  49 (R=0.449)  charge=  0.8465  magn= -0.0000
     atom  50 (R=0.449)  charge=  0.5064  magn=  0.0000
     atom  51 (R=0.449)  charge=  0.5104  magn=  0.0000
     atom  52 (R=0.449)  charge=  0.5014  magn=  0.0001

     End of self-consistent calculation

 ------ SPIN UP ------------

          k = 0.0000 0.0000 0.0000 ( 18029 PWs)   bands (ev):

   -56.8977 -56.8641 -56.0106 -56.0013 -55.9756 -55.9688 -55.8610 -55.8251
   -55.6440 -55.6087 -55.5596 -55.5377 -55.5257 -55.4399 -54.9942 -54.9407
   -33.3251 -33.1718 -33.1436 -33.0740 -32.9829 -32.9511 -32.4839 -32.4747
   -32.4037 -32.2964 -32.2508 -32.2241 -32.2089 -32.1850 -32.1521 -32.1490
   -32.1416 -32.1394 -32.1152 -32.1080 -32.1009 -32.0692 -32.0431 -32.0280
   -32.0143 -31.9971 -31.9889 -31.9654 -31.9516 -31.8981 -31.8754 -31.8739
   -31.7827 -31.7813 -31.7702 -31.7130 -31.7101 -31.6868 -31.6677 -31.6460
   -31.6218 -31.5760 -31.5164 -31.2373 -31.2188 -31.1905 -31.1620 -31.0436
   -17.0595 -16.6199 -16.3890 -16.2587 -16.1873 -16.1368 -16.0891 -15.9627
   -15.8912 -15.8878 -15.8507 -15.8113 -15.7434 -15.6038 -15.5064 -15.4470
   -15.4038 -15.2840 -15.2267 -15.1903 -15.1826 -15.1519 -15.1319 -14.9338
   -14.9112 -14.8155 -14.7989 -14.6747 -14.4481 -14.0580 -13.9480 -13.0947
    -7.8095  -4.6258  -4.1161  -3.8734  -3.7909  -3.6804  -3.6731  -3.5915
    -3.4770  -3.4261  -3.3805  -3.2649  -3.2608  -3.1181  -3.1151  -3.0722
    -3.0658  -3.0304  -3.0009  -2.9497  -2.8976  -2.8898  -2.8877  -2.7372
    -2.6367  -2.5676  -2.5442  -2.5271  -2.4992  -2.4075  -2.4022  -2.3871
    -2.3836  -2.2887  -2.1387  -2.1295  -2.0947  -2.0584  -2.0548  -2.0113
    -2.0014  -1.8444  -1.8010  -1.6844  -1.6722  -1.6373  -1.5711  -1.5676
    -1.4514  -1.3961  -1.3501  -1.3051  -1.1980  -1.1529  -1.1242  -1.0360
    -0.9749  -0.9378  -0.9193  -0.8998  -0.7927  -0.7849  -0.7690  -0.6778
    -0.6720  -0.6215  -0.5322  -0.5095  -0.5075  -0.4167  -0.4088  -0.3108
    -0.2760  -0.2235  -0.1933  -0.1135  -0.0828   0.0214   0.0603   0.0753
     0.2056   0.2206   0.2787   0.3460   0.4025   0.4459   0.4622   0.4966
     0.5057   0.5986   0.7066   0.7087   0.8199   0.8575   1.0150   1.0538
     1.3512   1.3603   2.0221   2.3777   2.5385   2.8365   3.0314   3.1441
     3.3544   3.3682   3.3739   3.5568   3.6023

[...]

          k =-0.0760-0.0000 0.0000 ( 17886 PWs)   bands (ev):

[...]

 ------ SPIN DOWN ----------

[...]

          k = 0.0380-0.0419 0.0000 ( 17876 PWs)   bands (ev):

[...]

          k =-0.0760-0.0839 0.0000 ( 17948 PWs)   bands (ev):

   -56.8811 -56.8809 -55.9945 -55.9901 -55.9859 -55.9855 -55.8460 -55.8400
   -55.6290 -55.6238 -55.5429 -55.5427 -55.5345 -55.4431 -54.9883 -54.9483
   -33.1577 -33.1575 -33.1421 -33.1420 -33.0271 -33.0269 -32.3137 -32.3112
   -32.2987 -32.2934 -32.2408 -32.2393 -32.1967 -32.1962 -32.1957 -32.1920
   -32.1842 -32.1817 -32.1806 -32.1787 -32.0978 -32.0927 -32.0464 -32.0427
   -31.9806 -31.9727 -31.9113 -31.9055 -31.8872 -31.8871 -31.8654 -31.8277
   -31.8264 -31.7920 -31.7681 -31.7680 -31.7591 -31.7289 -31.7288 -31.7079
   -31.6848 -31.6482 -31.3826 -31.3016 -31.2164 -31.1848 -31.1696 -31.1286
   -16.4075 -16.4055 -16.3738 -16.3735 -16.1025 -16.0989 -16.0497 -16.0476
   -15.8759 -15.8680 -15.6635 -15.6542 -15.6480 -15.6443 -15.5165 -15.5095
   -15.4457 -15.4329 -15.3447 -15.3380 -15.2767 -15.2704 -15.2341 -15.2127
   -14.8952 -14.8894 -14.7669 -14.7539 -14.6035 -14.0511 -14.0511 -13.1083
    -7.7983  -3.5066  -3.5058  -3.4395  -3.4386  -3.3138  -3.3070  -3.2381
    -3.2375  -3.1312  -3.1275  -3.0945  -3.0035  -2.9899  -2.9867  -2.9770
    -2.9685  -2.8337  -2.8314  -2.8189  -2.8040  -2.7525  -2.7501  -2.7323
    -2.6551  -2.6396  -2.6084  -2.5643  -2.4642  -2.4477  -2.4318  -2.4045
    -2.3463  -2.3352  -2.3211  -2.2754  -2.2561  -2.1525  -2.1049  -2.0623
    -1.9423  -1.9397  -1.9299  -1.9128  -1.7651  -1.7281  -1.6972  -1.6903
    -1.6817  -1.6323  -1.5403  -1.5321  -1.3976  -1.3928  -1.3212  -1.2380
    -1.2193  -1.1904  -1.0583  -1.0109  -0.9785  -0.9721  -0.9524  -0.9233
    -0.8950  -0.8681  -0.7230  -0.7042  -0.6796  -0.6420  -0.6293  -0.5757
    -0.5263  -0.4464  -0.3666  -0.3657  -0.2849  -0.2419  -0.1772  -0.0950
    -0.0831  -0.0770   0.2036   0.2814   0.3736   0.4582   0.5210   0.5848
     0.6082   0.6735   0.7058   0.8435   0.8466   0.8631   0.8633   0.9303
     0.9351   1.3334   1.9218   2.9514   2.9518   3.0192   3.0196   3.3433
     3.3487   3.4583   3.4678   3.5835   3.5854

     the Fermi energy is     2.2124 ev

!    total energy              =   -2919.13336133 Ry
     estimated scf accuracy    <       0.00000006 Ry
     smearing contrib. (-TS)   =      -0.00465163 Ry
     internal energy E=F+TS    =   -2919.12870970 Ry

     The total energy is F=E-TS. E is the sum of the following terms:
     one-electron contribution =  -24579.62866387 Ry
     hartree contribution      =   12374.01900527 Ry
     xc contribution           =    -479.90420097 Ry
     ewald contribution        =    9766.38503039 Ry
     electric field correction =       0.00011947 Ry

     total magnetization       =     0.00 Bohr mag/cell
     absolute magnetization    =     0.01 Bohr mag/cell

     convergence has been achieved in  81 iterations

     Forces acting on atoms (cartesian axes, Ry/au):

     atom    1 type  1   force =    -0.00003211   -0.00046144    0.12458288
     atom    2 type  1   force =    -0.00012411   -0.00053972   -0.16056349
     atom    3 type  2   force =     0.00016265   -0.00014341   -0.06866471
     atom    4 type  2   force =    -0.00004183   -0.00017622    0.02746089
     atom    5 type  2   force =    -0.01662877    0.00229039   -0.00876468
     atom    6 type  2   force =     0.01808963    0.00295842   -0.00971229
     atom    7 type  1   force =     0.00057026   -0.00364845    0.02219823
     atom    8 type  1   force =    -0.00015531   -0.00290808    0.11213707
     atom    9 type  2   force =     0.00048188   -0.00002646   -0.00026798
     atom   10 type  2   force =    -0.00265891    0.00368830   -0.07361797
     atom   11 type  2   force =     0.00131893   -0.00057877   -0.00042077
     atom   12 type  2   force =    -0.00059415   -0.00105290   -0.00077417
     atom   13 type  1   force =     0.00031870   -0.00065784    0.00066275
     atom   14 type  1   force =    -0.00082911   -0.00054847    0.00003282
     atom   15 type  2   force =    -0.00028360   -0.00009264   -0.00001419
     atom   16 type  2   force =     0.00028800    0.00012266   -0.00051697
     atom   17 type  2   force =     0.00022285   -0.00019557   -0.00014553
     atom   18 type  2   force =    -0.00042211   -0.00035983   -0.00046345
     atom   19 type  1   force =     0.00061874   -0.00035316   -0.00017030
     atom   20 type  1   force =    -0.00008884   -0.00010912   -0.00025626
     atom   21 type  2   force =     0.00005632   -0.00006168    0.09972742
     atom   22 type  2   force =     0.00008300   -0.00029343    0.00067082
     atom   23 type  2   force =    -0.07926592   -0.00009078   -0.03248308
     atom   24 type  2   force =     0.07913990    0.00035875   -0.03250820
     atom   25 type  1   force =     0.00000453   -0.00050488    0.12407886
     atom   26 type  1   force =    -0.00015740   -0.00044853   -0.16063948
     atom   27 type  2   force =     0.00029518   -0.00031645   -0.06767781
     atom   28 type  2   force =    -0.00002436   -0.00001506    0.02722592
     atom   29 type  2   force =    -0.01709144    0.00186961   -0.00887327
     atom   30 type  2   force =     0.01843059    0.00225663   -0.00976603
     atom   31 type  1   force =     0.00058887   -0.00094482    0.02172855
     atom   32 type  1   force =    -0.00011368    0.00053498    0.11258659
     atom   33 type  2   force =     0.00026399   -0.00063810   -0.00045576
     atom   34 type  2   force =    -0.00273098    0.00315630   -0.07278294
     atom   35 type  2   force =    -0.00108627    0.00023674    0.00017716
     atom   36 type  2   force =     0.00081438    0.00008780    0.00028843
     atom   37 type  1   force =    -0.00007485   -0.00003791   -0.00016366
     atom   38 type  1   force =     0.00088724   -0.00026642   -0.00015721
     atom   39 type  2   force =    -0.00009535   -0.00052354    0.00006833
     atom   40 type  2   force =     0.00007872   -0.00012177   -0.00010067
     atom   41 type  2   force =     0.00019437   -0.00045035   -0.00009497
     atom   42 type  2   force =    -0.00000928   -0.00012506   -0.00056969
     atom   43 type  1   force =     0.00014873    0.00068928    0.00062664
     atom   44 type  1   force =    -0.00060462   -0.00060267   -0.00034067
     atom   45 type  2   force =     0.00004382   -0.00006736    0.09975130
     atom   46 type  2   force =    -0.07927127   -0.00004597   -0.03247537
     atom   47 type  2   force =     0.07915001    0.00039982   -0.03249660
     atom   48 type  3   force =     0.00092799    0.00030091   -0.00023853
     atom   49 type  4   force =     0.00138270    0.00334574   -0.00282340
     atom   50 type  5   force =     0.00003292   -0.00048446    0.00021799
     atom   51 type  5   force =    -0.00142068   -0.00404866    0.00437017
     atom   52 type  5   force =    -0.00078995   -0.00035634    0.00040726

     Total force =     0.425654     Total SCF correction =     0.000690
  @ DRIVER MODE: Message from server: STATUS
  @ DRIVER MODE: Message from server: GETFORCE
  @ DRIVER MODE: Returning v,forces,stress,ensemble

     Writing output data file ./calc.save/
  @ DRIVER MODE: Message from server: EXIT
  @ DRIVE MODE: Exiting

     General routines

     Parallel routines

   This run was terminated on:   2: 4:58  16Jul2021

   JOB DONE.