     Program PWSCF v.6.7GPU starts on 23Aug2021 at 23:41:33

     R & G space division:  proc/nbgrp/npool/nimage =       6
     Reading input from /storage/home/hcoda1/3/ntian30/research/carbon/CH_vib/ads_slab/CHN2H_a/out_0021/pw.inp
Warning: card &CELL ignored
Warning: card   CELL_DYNAMICS='IPI', ignored
Warning: card / ignored

     Current dimensions of program PWSCF are:
     Max number of different atomic species (ntypx) = 10
     Max number of k-points (npk) =  40000
     Max angular momentum in pseudopotentials (lmaxx) =  3
     Presently no symmetry can be used with electric field

     Message from routine cell_base_init:
     DEPRECATED: use true lattice parameter, not A to a.u. conversion factor

     IMPORTANT: XC functional enforced from input :
     Exchange-correlation= BEEF-VDW
                           (   1   4  43  14   2   0   0)
     Any further DFT definition will be discarded
     Please, verify this is what you really want

  @ DRIVER MODE: Connecting to
 qe_1139763_2632792.sched-torque.pace.gatech.eduudrv7cc4_scratch
  using UNIX socket
  @ DRIVER MODE: Message from server: STATUS
  @ DRIVER MODE: Message from server: INIT
  @ DRIVER MODE: Receiving replica           0          -1
  @ DRIVER MODE: Receiving encoded integer          25
  @ DRIVER MODE:  SCF:  T  FORCE:  T  STRESS:  F  VC:  F  ENSEMBLE:  F
  @ DRIVER MODE:  SCF:  T  FORCE:  T  STRESS:  F  VC:  F  ENSEMBLE:  F

     Using Slab Decomposition

     bravais-lattice index     =            0
     lattice parameter (alat)  =       1.8897  a.u.
     unit-cell volume          =    6658.9804 (a.u.)^3
     number of atoms/cell      =           52
     number of atomic types    =            5
     number of electrons       =       394.00
     number of Kohn-Sham states=          207
     kinetic-energy cutoff     =      29.3995  Ry
     charge density cutoff     =     293.9946  Ry
     scf convergence threshold =      7.3E-08
     mixing beta               =       0.0500
     number of iterations used =            8  plain     mixing
     Exchange-correlation= BEEF-VDW
                           (   1   4  43  14   2   0   0)

     celldm(1)=   1.889726  celldm(2)=   0.000000  celldm(3)=   0.000000
     celldm(4)=   0.000000  celldm(5)=   0.000000  celldm(6)=   0.000000

     crystal axes: (cart. coord. in units of alat)
               a(1) = (   6.579727   0.000000   0.000000 )
               a(2) = (  -0.000775   5.961596   0.000000 )
               a(3) = (   0.000000   0.000000  25.155947 )

     reciprocal axes: (cart. coord. in units 2 pi/alat)
               b(1) = (  0.151982  0.000020  0.000000 )
               b(2) = (  0.000000  0.167740  0.000000 )
               b(3) = (  0.000000  0.000000  0.039752 )

     PseudoPot. # 1 for Ti read from file:
     /storage/coda1/p-amedford6/0/shared/rich_project_chbe-medford/medford-share/data/pseudos_module/espresso/nninc/pbe/van/Ti.UPF
     MD5 check sum: 8e4df49b7f0d34bbd5052bf3f5ea0213
     Pseudo is Ultrasoft, Zval = 12.0
     Generated by new atomic code, or converted to UPF format
     Using radial grid of  851 points,  6 beta functions with:
                l(1) =   0
                l(2) =   0
                l(3) =   1
                l(4) =   1
                l(5) =   2
                l(6) =   2
     Q(r) pseudized with  8 coefficients,  rinner =    1.000   1.000   1.000
                                                       1.000   1.000

     PseudoPot. # 2 for O  read from file:
     /storage/coda1/p-amedford6/0/shared/rich_project_chbe-medford/medford-share/data/pseudos_module/espresso/nninc/pbe/van/O.UPF
     MD5 check sum: 78c19812648e8988a0fe644b0f25305e
     Pseudo is Ultrasoft, Zval =  6.0
     Generated by new atomic code, or converted to UPF format
     Using radial grid of  737 points,  4 beta functions with:
                l(1) =   0
                l(2) =   0
                l(3) =   1
                l(4) =   1
     Q(r) pseudized with  8 coefficients,  rinner =    0.800   0.800   0.800

     PseudoPot. # 3 for N  read from file:
     /storage/coda1/p-amedford6/0/shared/rich_project_chbe-medford/medford-share/data/pseudos_module/espresso/nninc/pbe/van/N.UPF
     MD5 check sum: 90d10febe142ad51ac9d5be1deb811c4
     Pseudo is Ultrasoft, Zval =  5.0
     Generated by new atomic code, or converted to UPF format
     Using radial grid of  729 points,  4 beta functions with:
                l(1) =   0
                l(2) =   0
                l(3) =   1
                l(4) =   1
     Q(r) pseudized with  8 coefficients,  rinner =    0.800   0.800   0.800

     PseudoPot. # 4 for C  read from file:
     /storage/coda1/p-amedford6/0/shared/rich_project_chbe-medford/medford-share/data/pseudos_module/espresso/nninc/pbe/van/C.UPF
     MD5 check sum: 1a69bf6b8db32088f5b2163dbdb77a27
     Pseudo is Ultrasoft, Zval =  4.0
     Generated by new atomic code, or converted to UPF format
     Using radial grid of  721 points,  4 beta functions with:
                l(1) =   0
                l(2) =   0
                l(3) =   1
                l(4) =   1
     Q(r) pseudized with  8 coefficients,  rinner =    0.800   0.800   0.800

     PseudoPot. # 5 for H  read from file:
     /storage/coda1/p-amedford6/0/shared/rich_project_chbe-medford/medford-share/data/pseudos_module/espresso/nninc/pbe/van/H.UPF
     MD5 check sum: b5ee9d7bfd3a09ee7748110bda690ff7
     Pseudo is Ultrasoft, Zval =  1.0
     Generated by new atomic code, or converted to UPF format
     Using radial grid of  615 points,  1 beta functions with:
                l(1) =   0
     Q(r) pseudized with  8 coefficients,  rinner =    0.800

     atomic species   valence    mass     pseudopotential
        Ti1           12.00    47.86700     Ti( 1.00)
        O1             6.00    15.99900     O ( 1.00)
        N1             5.00    14.00700     N ( 1.00)
        C1             4.00    12.01100     C ( 1.00)
        H1             1.00     1.00800     H ( 1.00)

     No symmetry found

   Cartesian axes

     site n.     atom                  positions (alat units)
         1           Ti1 tau(   1) = (   0.0004258   2.9801865   6.0000000  )
         2           Ti1 tau(   2) = (   3.2906075   1.4906267   6.0002472  )
         3           O1  tau(   3) = (   0.0006271   0.0005054   7.9858123  )
         4           O1  tau(   4) = (   3.2906025   0.0005020   7.3038282  )
         5           O1  tau(   5) = (   4.5942328   1.4918067   9.2879030  )
         6           O1  tau(   6) = (   1.9868534   1.4903216   9.2879459  )
         7           Ti1 tau(   7) = (   3.2907910   2.8959150   9.1758416  )
         8           Ti1 tau(   8) = (   0.0015273   1.4827037   9.2680791  )
         9           O1  tau(   9) = (   3.3079035   5.9465650  11.3667630  )
        10           O1  tau(  10) = (   0.0116148   5.9584955  10.6183126  )
        11           O1  tau(  11) = (   1.3159687   1.4802111  12.6598234  )
        12           O1  tau(  12) = (   5.3141237   1.4785834  12.6569702  )
        13           Ti1 tau(  13) = (   0.0356438   2.9569522  12.5500042  )
        14           Ti1 tau(  14) = (   3.3321116   1.4682926  12.5176941  )
        15           O1  tau(  15) = (   0.0287262   5.9365737  14.6848071  )
        16           O1  tau(  16) = (   3.3260766   5.9477468  13.9918032  )
        17           O1  tau(  17) = (   4.5788076   1.5006004  16.1778977  )
        18           O1  tau(  18) = (   2.0653823   1.4932191  16.1519216  )
        19           Ti1 tau(  19) = (   3.3252840   2.9629899  15.7366588  )
        20           Ti1 tau(  20) = (   0.0567170   1.3280226  15.9864722  )
        21           O1  tau(  21) = (   3.2904802   0.0005063   4.7018136  )
        22           O1  tau(  22) = (   0.0395201   5.9563027  17.2132275  )
        23           O1  tau(  23) = (   1.3043587   1.4918075   6.0039043  )
        24           O1  tau(  24) = (   5.2767064   1.4903225   6.0039473  )
        25           Ti1 tau(  25) = (   0.0000382   5.9609847   6.0000000  )
        26           Ti1 tau(  26) = (   3.2902200   4.4714249   6.0002472  )
        27           O1  tau(  27) = (   0.0002396   2.9813036   7.9858123  )
        28           O1  tau(  28) = (   3.2902150   2.9813002   7.3038282  )
        29           O1  tau(  29) = (   4.5938453   4.4726049   9.2879030  )
        30           O1  tau(  30) = (   1.9864658   4.4711199   9.2879459  )
        31           Ti1 tau(  31) = (   3.2891106   5.8743827   9.1763621  )
        32           Ti1 tau(  32) = (   0.0006254   4.4649316   9.2693709  )
        33           O1  tau(  33) = (   3.3109971   2.9638951  11.3609806  )
        34           O1  tau(  34) = (   0.0092240   2.9805883  10.6323155  )
        35           O1  tau(  35) = (   1.3172493   4.4579999  12.6547637  )
        36           O1  tau(  36) = (   5.3123203   4.4599931  12.6537913  )
        37           Ti1 tau(  37) = (   0.0349292   5.9384232  12.5038109  )
        38           Ti1 tau(  38) = (   3.3308216   4.4462378  12.5132791  )
        39           O1  tau(  39) = (   0.0262156   2.9786664  14.8481040  )
        40           O1  tau(  40) = (   3.3240488   2.9673873  13.9486158  )
        41           O1  tau(  41) = (   4.5778164   4.4375445  16.1741249  )
        42           O1  tau(  42) = (   2.0647505   4.4412733  16.1578575  )
        43           Ti1 tau(  43) = (   3.3314326   5.9455663  15.7867969  )
        44           Ti1 tau(  44) = (   0.0345939   4.5236910  15.9072353  )
        45           O1  tau(  45) = (   3.2900926   2.9813045   4.7018136  )
        46           O1  tau(  46) = (   1.3039711   4.4726057   6.0039043  )
        47           O1  tau(  47) = (   5.2763189   4.4711207   6.0039473  )
        48           N1  tau(  48) = (   0.8843530   3.1395628  18.6524426  )
        49           C1  tau(  49) = (   1.8908588   3.1194352  19.2834450  )
        50           H1  tau(  50) = (   2.4245030   3.8971110  19.8100181  )
        51           N1  tau(  51) = (   6.5588057   2.9707634  17.7841789  )
        52           H1  tau(  52) = (   5.6432114   2.8891999  18.2270943  )

     number of k points=    10  Fermi-Dirac smearing, width (Ry)=  0.0073
                       cart. coord. in units 2pi/alat
        k(    1) = (   0.0000000   0.0000000   0.0000000), wk =   0.1250000
        k(    2) = (   0.0000000   0.0419351   0.0000000), wk =   0.2500000
        k(    3) = (   0.0000000  -0.0838702   0.0000000), wk =   0.1250000
        k(    4) = (   0.0379955   0.0000049   0.0000000), wk =   0.2500000
        k(    5) = (   0.0379955   0.0419400   0.0000000), wk =   0.2500000
        k(    6) = (   0.0379955  -0.0838652   0.0000000), wk =   0.2500000
        k(    7) = (   0.0379955  -0.0419301   0.0000000), wk =   0.2500000
        k(    8) = (  -0.0759910  -0.0000099   0.0000000), wk =   0.1250000
        k(    9) = (  -0.0759910   0.0419252   0.0000000), wk =   0.2500000
        k(   10) = (  -0.0759910  -0.0838800   0.0000000), wk =   0.1250000

     Initial potential from superposition of free atoms

     starting charge  377.99917, renormalised to  394.00000

     negative rho (up, down):  1.653E-02 0.000E+00

     %%%%%%%%%%%%%%%%%%%%%%%%%%%%%%%%%%%%%%%%%%%%%%%%%%%%%%%%%%%%%%%%%%%%%%%%
     %                                                                      %
     % You are using vdW-DF, which was implemented by the Thonhauser group. %
     % Please cite the following two papers that made this development      %
     % possible and the two reviews that describe the various versions:     %
     %                                                                      %
     %   T. Thonhauser et al., PRL 115, 136402 (2015).                      %
     %   T. Thonhauser et al., PRB 76, 125112 (2007).                       %
     %   K. Berland et al., Rep. Prog. Phys. 78, 066501 (2015).             %
     %   D.C. Langreth et al., J. Phys.: Condens. Matter 21, 084203 (2009). %
     %                                                                      %
     %                                                                      %
     % If you are calculating the stress with vdW-DF, please also cite:     %
     %                                                                      %
     %   R. Sabatini et al., J. Phys.: Condens. Matter 24, 424209 (2012).   %
     %                                                                      %
     %%%%%%%%%%%%%%%%%%%%%%%%%%%%%%%%%%%%%%%%%%%%%%%%%%%%%%%%%%%%%%%%%%%%%%%%

     Adding external electric field

     Computed dipole along edir(3) :
        Dipole               -8.4995 Ry au,        -21.6035 Debye
        Dipole field         -0.0160 Ry au,

        Potential amp.        1.4869 Ry
        Total length         46.3494 bohr

     Starting wfcs are  298 atomic wfcs
  @ DRIVER MODE: Message from server: STATUS
  @ DRIVER MODE: Message from server: POSDATA
  @ DRIVER MODE: Reading and sharing cell
  @ DRIVER MODE: Reading and sharing positions
  @ DRIVER MODE: Received positions

     Self-consistent Calculation

     iteration #  1     ecut=    29.40 Ry     beta= 0.05
     Davidson diagonalization with overlap
     c_bands:  1 eigenvalues not converged
     c_bands:  1 eigenvalues not converged
     c_bands:  2 eigenvalues not converged
     c_bands:  2 eigenvalues not converged
     c_bands:  2 eigenvalues not converged
     c_bands:  1 eigenvalues not converged
     ethr =  1.00E-05,  avg # of iterations = 19.0

[...]

     total energy              =   -2624.26805756 Ry
     estimated scf accuracy    <    3488.45541557 Ry

[...]

     iteration #  3     ecut=    29.40 Ry     beta= 0.05
     Davidson diagonalization with overlap
     ethr =  1.00E-02,  avg # of iterations = 15.1

[...]

     iteration # 83     ecut=    29.40 Ry     beta= 0.05
     Davidson diagonalization with overlap
     c_bands:  1 eigenvalues not converged
     ethr =  5.74E-11,  avg # of iterations = 10.8

[...]

     total energy              =   -2937.80858011 Ry
     estimated scf accuracy    <       0.00000007 Ry

     iteration # 85     ecut=    29.40 Ry     beta= 0.05
     Davidson diagonalization with overlap
     ethr =  1.88E-11,  avg # of iterations = 12.3

     negative rho (up, down):  1.629E-02 0.000E+00

     Adding external electric field

     Computed dipole along edir(3) :
        Dipole                1.2884 Ry au,          3.2747 Debye
        Dipole field          0.0024 Ry au,

        Potential amp.       -0.2254 Ry
        Total length         46.3494 bohr

     End of self-consistent calculation

          k = 0.0000 0.0000 0.0000 ( 18029 PWs)   bands (ev):

   -55.4382 -55.4021 -55.4019 -55.3678 -55.3315 -55.3157 -55.2726 -55.2510
   -55.2475 -55.2363 -55.2285 -55.2165 -55.1952 -55.1669 -54.4201 -54.3861
   -32.0071 -31.8925 -31.8315 -31.8015 -31.7574 -31.7498 -31.7403 -31.7314
   -31.6915 -31.6847 -31.6473 -31.6464 -31.6391 -31.6119 -31.5926 -31.5743
   -31.5700 -31.5637 -31.5553 -31.5497 -31.5154 -31.5139 -31.5044 -31.4959
   -31.4814 -31.4589 -31.4533 -31.4502 -31.4470 -31.4425 -31.4395 -31.4252
   -31.4172 -31.4111 -31.4053 -31.4002 -31.3776 -31.3656 -31.3639 -31.3579
   -31.3372 -31.2749 -30.8291 -30.7361 -30.7139 -30.6454 -30.5587 -30.4478
   -20.2110 -16.2526 -15.9801 -15.8359 -15.7127 -15.6284 -15.5016 -15.4622
   -15.3443 -15.3333 -15.2301 -15.1547 -15.0872 -15.0847 -15.0673 -15.0406
   -14.9888 -14.9733 -14.9708 -14.9285 -14.9263 -14.8843 -14.8649 -14.8308
   -14.8131 -14.7940 -14.7755 -14.6542 -14.5847 -14.5260 -14.1633 -12.9229
   -12.8057  -8.8086  -7.1419  -5.4201  -4.7104  -3.5978  -3.4379  -3.3509
    -3.3346  -3.3313  -3.1660  -3.0380  -2.8106  -2.7730  -2.6991  -2.6448
    -2.6268  -2.6050  -2.4274  -2.4028  -2.3429  -2.3156  -2.2783  -2.2485
    -2.2235  -2.2030  -2.1957  -2.1776  -2.1634  -2.0030  -1.9043  -1.8727
    -1.8373  -1.8239  -1.7642  -1.7313  -1.7254  -1.7235  -1.7144  -1.6711
    -1.6511  -1.6036  -1.5028  -1.4715  -1.4440  -1.3210  -1.3028  -1.1550
    -1.0708  -0.9860  -0.9788  -0.9121  -0.9055  -0.8726  -0.8220  -0.7968
    -0.7735  -0.6398  -0.5690  -0.5098  -0.4963  -0.4522  -0.4071  -0.3708
    -0.2771  -0.2138  -0.2059  -0.1939  -0.0287  -0.0137   0.0325   0.0817
     0.1074   0.1547   0.1817   0.2496   0.2839   0.3292   0.3594   0.4559
     0.4968   0.5159   0.5302   0.5493   0.5615   0.6227   0.6887   0.7071
     0.7555   0.8144   0.9237   1.1220   1.1828   1.1965   1.5120   1.5462
     1.6023   1.7876   2.1773   2.2250   3.6620   3.7335   3.7973   3.8123
     3.8212   3.8977   4.0731   4.1452   4.1609   4.1675   4.1789

[...]

          k = 0.0380-0.0419 0.0000 ( 17876 PWs)   bands (ev):

[...]

          k =-0.0760-0.0000 0.0000 ( 17886 PWs)   bands (ev):

[...]

          k =-0.0760-0.0839 0.0000 ( 17948 PWs)   bands (ev):

   -55.4213 -55.4188 -55.3848 -55.3847 -55.3282 -55.3072 -55.2811 -55.2433
   -55.2395 -55.2346 -55.2322 -55.2123 -55.2118 -55.1710 -54.4031 -54.4030
   -31.8121 -31.8092 -31.7501 -31.7305 -31.7076 -31.7075 -31.6957 -31.6769
   -31.6768 -31.6487 -31.6393 -31.6339 -31.6307 -31.5903 -31.5685 -31.5654
   -31.5653 -31.5573 -31.5568 -31.5463 -31.5338 -31.5241 -31.5139 -31.5101
   -31.5059 -31.5043 -31.5042 -31.4994 -31.4755 -31.4677 -31.4659 -31.4651
   -31.4483 -31.4464 -31.4455 -31.4365 -31.4351 -31.4302 -31.3924 -31.3918
   -31.3852 -31.3662 -30.7267 -30.7266 -30.6417 -30.6415 -30.6021 -30.6021
   -20.2097 -15.7076 -15.6879 -15.6290 -15.4227 -15.4200 -15.4083 -15.3940
   -15.3648 -15.2349 -15.2153 -15.1998 -15.1824 -15.1404 -15.1370 -15.1208
   -15.1101 -15.0116 -15.0094 -15.0073 -15.0059 -14.9435 -14.9356 -14.9218
   -14.8873 -14.8841 -14.8551 -14.7852 -14.7823 -14.6489 -14.4835 -12.9073
   -12.9071  -8.7938  -7.1616  -5.4185  -4.6937  -2.9633  -2.8930  -2.8496
    -2.6402  -2.6176  -2.6029  -2.5197  -2.4704  -2.4086  -2.4012  -2.3945
    -2.3355  -2.3001  -2.2866  -2.2684  -2.2604  -2.2430  -2.2215  -2.2102
    -2.1643  -2.1533  -2.1437  -2.1082  -2.0954  -2.0770  -2.0528  -2.0350
    -2.0183  -2.0130  -1.9934  -1.8329  -1.7815  -1.7343  -1.6840  -1.6730
    -1.6300  -1.6225  -1.5284  -1.4938  -1.4650  -1.4367  -1.4288  -1.2365
    -1.2217  -1.1696  -1.1650  -1.1414  -0.9847  -0.9649  -0.9485  -0.9321
    -0.8866  -0.8041  -0.7977  -0.7604  -0.6508  -0.6231  -0.6163  -0.5659
    -0.4441  -0.4231  -0.4004  -0.3950  -0.3890  -0.2948  -0.2778  -0.2688
    -0.2372  -0.2044  -0.1534  -0.1471  -0.0941   0.0880   0.1334   0.1984
     0.2773   0.4487   0.4868   0.5131   0.5538   0.6152   0.6879   0.7054
     0.7688   0.8626   0.8772   0.9083   0.9795   1.0324   1.0403   1.0647
     1.9603   1.9611   2.0449   2.0451   3.8308   3.8436   3.9061   3.9426
     3.9919   4.0842   4.1809   4.1980   4.2407   4.2417   4.3215

     the Fermi energy is     3.7159 ev

!    total energy              =   -2937.80858418 Ry
     estimated scf accuracy    <       0.00000004 Ry
     smearing contrib. (-TS)   =      -0.03814353 Ry
     internal energy E=F+TS    =   -2937.77044065 Ry

     The total energy is F=E-TS. E is the sum of the following terms:
     one-electron contribution =  -24092.20970685 Ry
     hartree contribution      =   12136.14720761 Ry
     xc contribution           =    -484.38416211 Ry
     ewald contribution        =    9502.67308833 Ry
     electric field correction =       0.00313237 Ry

     convergence has been achieved in  85 iterations

     Forces acting on atoms (cartesian axes, Ry/au):

     atom    1 type  1   force =     0.00006136   -0.00011964    0.09406632
     atom    2 type  1   force =    -0.00016863   -0.00022755   -0.17761932
     atom    3 type  2   force =     0.00011222   -0.00020615   -0.02136968
     atom    4 type  2   force =     0.00002571   -0.00184036    0.05753144
     atom    5 type  2   force =    -0.01067511   -0.00139476    0.00632621
     atom    6 type  2   force =     0.01274017   -0.00074645    0.00660970
     atom    7 type  1   force =     0.00011194    0.00197291   -0.01405792
     atom    8 type  1   force =    -0.00046656    0.00581203    0.00396125
     atom    9 type  2   force =     0.00036243    0.00023271   -0.00008506
     atom   10 type  2   force =    -0.00024046    0.00021577   -0.00512385
     atom   11 type  2   force =     0.00004952   -0.00015527   -0.00044734
     atom   12 type  2   force =    -0.00028923    0.00000515    0.00008644
     atom   13 type  1   force =    -0.00025230    0.00001431   -0.00025240
     atom   14 type  1   force =    -0.00008699    0.00015353   -0.00014121
     atom   15 type  2   force =    -0.00049854   -0.00085213   -0.00025336
     atom   16 type  2   force =    -0.00018413    0.00018503    0.00002073
     atom   17 type  2   force =    -0.00015856   -0.00024845   -0.00029513
     atom   18 type  2   force =    -0.00029119   -0.00018578   -0.00060003
     atom   19 type  1   force =    -0.00018963    0.00002889   -0.00013049
     atom   20 type  1   force =    -0.00026254    0.00032006    0.00122800
     atom   21 type  2   force =     0.00001776    0.00001996    0.10381530
     atom   22 type  2   force =     0.00002770   -0.00075019   -0.00027697
     atom   23 type  2   force =    -0.07062995   -0.00008068   -0.02703686
     atom   24 type  2   force =     0.07052705    0.00036463   -0.02709145
     atom   25 type  1   force =     0.00001176   -0.00008002    0.09369111
     atom   26 type  1   force =    -0.00013786   -0.00016524   -0.17767762
     atom   27 type  2   force =     0.00013460   -0.00023884   -0.02035280
     atom   28 type  2   force =     0.00006754   -0.00155210    0.05700485
     atom   29 type  2   force =    -0.01101670   -0.00053819    0.00634984
     atom   30 type  2   force =     0.01293584   -0.00027314    0.00664340
     atom   31 type  1   force =     0.00029934    0.00519807   -0.01482737
     atom   32 type  1   force =    -0.00040365   -0.00654832    0.00412212
     atom   33 type  2   force =     0.00015725    0.00007746   -0.00032027
     atom   34 type  2   force =     0.00035924   -0.00102393   -0.00205051
     atom   35 type  2   force =    -0.00031369    0.00015061   -0.00021778
     atom   36 type  2   force =    -0.00003970   -0.00000166    0.00010934
     atom   37 type  1   force =    -0.00007517    0.00022922   -0.00010724
     atom   38 type  1   force =     0.00006148    0.00025693    0.00023812
     atom   39 type  2   force =    -0.00005944    0.00022974    0.00001881
     atom   40 type  2   force =    -0.00029828    0.00009962   -0.00023689
     atom   41 type  2   force =    -0.00013915   -0.00007419    0.00010012
     atom   42 type  2   force =    -0.00028821    0.00013481   -0.00022549
     atom   43 type  1   force =    -0.00014109    0.00022610   -0.00007588
     atom   44 type  1   force =    -0.00011189   -0.00020197   -0.00013273
     atom   45 type  2   force =     0.00001366   -0.00000385    0.10382892
     atom   46 type  2   force =    -0.07065109   -0.00003825   -0.02705267
     atom   47 type  2   force =     0.07052747    0.00040265   -0.02708744
     atom   48 type  3   force =    -0.00134902   -0.00139360   -0.00076213
     atom   49 type  4   force =    -0.00078943    0.00066537    0.00008832
     atom   50 type  5   force =     0.00011282   -0.00000886   -0.00041102
     atom   51 type  3   force =     0.00277324    0.00192495   -0.00030600
     atom   52 type  5   force =    -0.00128188    0.00002904    0.00078453

     Total force =     0.365991     Total SCF correction =     0.000523
  @ DRIVER MODE: Message from server: STATUS
  @ DRIVER MODE: Message from server: GETFORCE
  @ DRIVER MODE: Returning v,forces,stress,ensemble

     Writing output data file ./calc.save/
  @ DRIVER MODE: Message from server: EXIT
  @ DRIVE MODE: Exiting

     General routines

     Parallel routines

   This run was terminated on:   0:17:17  24Aug2021

   JOB DONE.