     Program PWSCF v.6.7GPU starts on  9Sep2021 at  7:11: 1

     R & G space division:  proc/nbgrp/npool/nimage =      10
     Reading input from /storage/home/hcoda1/3/ntian30/research/carbon/CxH_vib/CH2_calc/ads_slab/CH2N2H_a/out_0031/pw.inp
Warning: card &CELL ignored
Warning: card   CELL_DYNAMICS='IPI', ignored
Warning: card / ignored

     Current dimensions of program PWSCF are:
     Max number of different atomic species (ntypx) = 10
     Max number of k-points (npk) =  40000
     Max angular momentum in pseudopotentials (lmaxx) =  3
     Presently no symmetry can be used with electric field

     Message from routine cell_base_init:
     DEPRECATED: use true lattice parameter, not A to a.u. conversion factor

     IMPORTANT: XC functional enforced from input :
     Exchange-correlation= BEEF-VDW
                           (   1   4  43  14   2   0   0)
     Any further DFT definition will be discarded
     Please, verify this is what you really want

  @ DRIVER MODE: Connecting to
 qe_1139763_2767385.sched-torque.pace.gatech.eduf_9gkn5y_scratch
  using UNIX socket
  @ DRIVER MODE: Message from server: STATUS
  @ DRIVER MODE: Message from server: INIT
  @ DRIVER MODE: Receiving replica           0          -1
  @ DRIVER MODE: Receiving encoded integer          25
  @ DRIVER MODE:  SCF:  T  FORCE:  T  STRESS:  F  VC:  F  ENSEMBLE:  F
  @ DRIVER MODE:  SCF:  T  FORCE:  T  STRESS:  F  VC:  F  ENSEMBLE:  F

     Using Slab Decomposition

     bravais-lattice index     =            0
     lattice parameter (alat)  =       1.8897  a.u.
     unit-cell volume          =    6658.9804 (a.u.)^3
     number of atoms/cell      =           53
     number of atomic types    =            5
     number of electrons       =       395.00
     number of Kohn-Sham states=          207
     kinetic-energy cutoff     =      29.3995  Ry
     charge density cutoff     =     293.9946  Ry
     scf convergence threshold =      7.3E-08
     mixing beta               =       0.0500
     number of iterations used =            8  plain     mixing
     Exchange-correlation= BEEF-VDW
                           (   1   4  43  14   2   0   0)

     celldm(1)=   1.889726  celldm(2)=   0.000000  celldm(3)=   0.000000
     celldm(4)=   0.000000  celldm(5)=   0.000000  celldm(6)=   0.000000

     crystal axes: (cart. coord. in units of alat)
               a(1) = (   6.579727   0.000000   0.000000 )
               a(2) = (  -0.000775   5.961596   0.000000 )
               a(3) = (   0.000000   0.000000  25.155947 )

     reciprocal axes: (cart. coord. in units 2 pi/alat)
               b(1) = (  0.151982  0.000020  0.000000 )
               b(2) = (  0.000000  0.167740  0.000000 )
               b(3) = (  0.000000  0.000000  0.039752 )

     PseudoPot. # 1 for Ti read from file:
     /storage/coda1/p-amedford6/0/shared/rich_project_chbe-medford/medford-share/data/pseudos_module/espresso/nninc/pbe/van/Ti.UPF
     MD5 check sum: 8e4df49b7f0d34bbd5052bf3f5ea0213
     Pseudo is Ultrasoft, Zval = 12.0
     Generated by new atomic code, or converted to UPF format
     Using radial grid of  851 points,  6 beta functions with:
                l(1) =   0
                l(2) =   0
                l(3) =   1
                l(4) =   1
                l(5) =   2
                l(6) =   2
     Q(r) pseudized with  8 coefficients,  rinner =    1.000   1.000   1.000
                                                       1.000   1.000

     PseudoPot. # 2 for O  read from file:
     /storage/coda1/p-amedford6/0/shared/rich_project_chbe-medford/medford-share/data/pseudos_module/espresso/nninc/pbe/van/O.UPF
     MD5 check sum: 78c19812648e8988a0fe644b0f25305e
     Pseudo is Ultrasoft, Zval =  6.0
     Generated by new atomic code, or converted to UPF format
     Using radial grid of  737 points,  4 beta functions with:
                l(1) =   0
                l(2) =   0
                l(3) =   1
                l(4) =   1
     Q(r) pseudized with  8 coefficients,  rinner =    0.800   0.800   0.800

     PseudoPot. # 3 for N  read from file:
     /storage/coda1/p-amedford6/0/shared/rich_project_chbe-medford/medford-share/data/pseudos_module/espresso/nninc/pbe/van/N.UPF
     MD5 check sum: 90d10febe142ad51ac9d5be1deb811c4
     Pseudo is Ultrasoft, Zval =  5.0
     Generated by new atomic code, or converted to UPF format
     Using radial grid of  729 points,  4 beta functions with:
                l(1) =   0
                l(2) =   0
                l(3) =   1
                l(4) =   1
     Q(r) pseudized with  8 coefficients,  rinner =    0.800   0.800   0.800

     PseudoPot. # 4 for C  read from file:
     /storage/coda1/p-amedford6/0/shared/rich_project_chbe-medford/medford-share/data/pseudos_module/espresso/nninc/pbe/van/C.UPF
     MD5 check sum: 1a69bf6b8db32088f5b2163dbdb77a27
     Pseudo is Ultrasoft, Zval =  4.0
     Generated by new atomic code, or converted to UPF format
     Using radial grid of  721 points,  4 beta functions with:
                l(1) =   0
                l(2) =   0
                l(3) =   1
                l(4) =   1
     Q(r) pseudized with  8 coefficients,  rinner =    0.800   0.800   0.800

     PseudoPot. # 5 for H  read from file:
     /storage/coda1/p-amedford6/0/shared/rich_project_chbe-medford/medford-share/data/pseudos_module/espresso/nninc/pbe/van/H.UPF
     MD5 check sum: b5ee9d7bfd3a09ee7748110bda690ff7
     Pseudo is Ultrasoft, Zval =  1.0
     Generated by new atomic code, or converted to UPF format
     Using radial grid of  615 points,  1 beta functions with:
                l(1) =   0
     Q(r) pseudized with  8 coefficients,  rinner =    0.800

     atomic species   valence    mass     pseudopotential
        Ti1           12.00    47.86700     Ti( 1.00)
        O1             6.00    15.99900     O ( 1.00)
        N1             5.00    14.00700     N ( 1.00)
        C1             4.00    12.01100     C ( 1.00)
        H1             1.00     1.00800     H ( 1.00)

     No symmetry found

   Cartesian axes

     site n.     atom                  positions (alat units)
         1           Ti1 tau(   1) = (   0.0004258   2.9801865   6.0000000  )
         2           Ti1 tau(   2) = (   3.2906075   1.4906267   6.0002472  )
         3           O1  tau(   3) = (   0.0006271   0.0005054   7.9858123  )
         4           O1  tau(   4) = (   3.2906025   0.0005020   7.3038282  )
         5           O1  tau(   5) = (   4.5942328   1.4918067   9.2879030  )
         6           O1  tau(   6) = (   1.9868534   1.4903216   9.2879459  )
         7           Ti1 tau(   7) = (   3.2907910   2.8959150   9.1758416  )
         8           Ti1 tau(   8) = (   0.0015273   1.4827037   9.2680791  )
         9           O1  tau(   9) = (   3.3007851   0.0027079  11.3193151  )
        10           O1  tau(  10) = (   0.0116148   5.9584955  10.6183126  )
        11           O1  tau(  11) = (   1.3147357   1.5019762  12.6210215  )
        12           O1  tau(  12) = (   5.3120411   1.4917641  12.6342566  )
        13           Ti1 tau(  13) = (   6.5359925   2.9538565  12.6086018  )
        14           Ti1 tau(  14) = (   3.2189980   1.4905645  12.4770757  )
        15           O1  tau(  15) = (   0.0426301   5.9606301  14.6312846  )
        16           O1  tau(  16) = (   3.3149351   0.0098317  13.8848037  )
        17           O1  tau(  17) = (   4.5523768   1.5206755  16.0744300  )
        18           O1  tau(  18) = (   2.0715852   1.4807026  15.9918588  )
        19           Ti1 tau(  19) = (   3.2935730   2.9941335  15.6827836  )
        20           Ti1 tau(  20) = (   0.0200723   1.3023755  15.9747514  )
        21           O1  tau(  21) = (   3.2904802   0.0005063   4.7018136  )
        22           O1  tau(  22) = (   6.5179923   0.0002674  17.1556216  )
        23           O1  tau(  23) = (   1.3043587   1.4918075   6.0039043  )
        24           O1  tau(  24) = (   5.2767064   1.4903225   6.0039473  )
        25           Ti1 tau(  25) = (   0.0000382   5.9609847   6.0000000  )
        26           Ti1 tau(  26) = (   3.2902200   4.4714249   6.0002472  )
        27           O1  tau(  27) = (   0.0002396   2.9813036   7.9858123  )
        28           O1  tau(  28) = (   3.2902150   2.9813002   7.3038282  )
        29           O1  tau(  29) = (   4.5938453   4.4726049   9.2879030  )
        30           O1  tau(  30) = (   1.9864658   4.4711199   9.2879459  )
        31           Ti1 tau(  31) = (   3.2891106   5.8743827   9.1763621  )
        32           Ti1 tau(  32) = (   0.0006254   4.4649316   9.2693709  )
        33           O1  tau(  33) = (   3.3053585   2.9833221  11.3185053  )
        34           O1  tau(  34) = (   0.0092240   2.9805883  10.6323155  )
        35           O1  tau(  35) = (   1.3157767   4.4721532  12.6203727  )
        36           O1  tau(  36) = (   5.3104355   4.4689601  12.6331991  )
        37           Ti1 tau(  37) = (   6.5385524   5.9338372  12.5465384  )
        38           Ti1 tau(  38) = (   3.2200853   4.4710709  12.4725482  )
        39           O1  tau(  39) = (   0.0068575   2.9964749  14.7765288  )
        40           O1  tau(  40) = (   3.3021705   2.9848394  13.8818356  )
        41           O1  tau(  41) = (   4.5334443   4.4765196  15.9883447  )
        42           O1  tau(  42) = (   2.0816803   4.4801587  16.0471567  )
        43           Ti1 tau(  43) = (   3.3155128   0.0116264  15.6901768  )
        44           Ti1 tau(  44) = (   6.5575601   4.4671909  15.9479714  )
        45           O1  tau(  45) = (   3.2900926   2.9813045   4.7018136  )
        46           O1  tau(  46) = (   1.3039711   4.4726057   6.0039043  )
        47           O1  tau(  47) = (   5.2763189   4.4711207   6.0039473  )
        48           N1  tau(  48) = (   0.4270260   2.3853988  17.9668900  )
        49           C1  tau(  49) = (   0.9469377   1.9340014  19.0583692  )
        50           H1  tau(  50) = (   1.0789317   2.5769861  19.9249762  )
        51           H1  tau(  51) = (   1.2326487   0.8959138  19.0941702  )
        52           N1  tau(  52) = (   0.0025679   3.6232397  17.7996529  )
        53           H1  tau(  53) = (   0.0920252   4.2324666  18.6151602  )

     number of k points=    10  Fermi-Dirac smearing, width (Ry)=  0.0073
                       cart. coord. in units 2pi/alat
        k(    1) = (   0.0000000   0.0000000   0.0000000), wk =   0.1250000
        k(    2) = (   0.0000000   0.0419351   0.0000000), wk =   0.2500000
        k(    3) = (   0.0000000  -0.0838702   0.0000000), wk =   0.1250000
        k(    4) = (   0.0379955   0.0000049   0.0000000), wk =   0.2500000
        k(    5) = (   0.0379955   0.0419400   0.0000000), wk =   0.2500000
        k(    6) = (   0.0379955  -0.0838652   0.0000000), wk =   0.2500000
        k(    7) = (   0.0379955  -0.0419301   0.0000000), wk =   0.2500000
        k(    8) = (  -0.0759910  -0.0000099   0.0000000), wk =   0.1250000
        k(    9) = (  -0.0759910   0.0419252   0.0000000), wk =   0.2500000
        k(   10) = (  -0.0759910  -0.0838800   0.0000000), wk =   0.1250000

     Initial potential from superposition of free atoms

     starting charge  378.99916, renormalised to  395.00000

     negative rho (up, down):  1.649E-02 0.000E+00

     %%%%%%%%%%%%%%%%%%%%%%%%%%%%%%%%%%%%%%%%%%%%%%%%%%%%%%%%%%%%%%%%%%%%%%%%
     %                                                                      %
     % You are using vdW-DF, which was implemented by the Thonhauser group. %
     % Please cite the following two papers that made this development      %
     % possible and the two reviews that describe the various versions:     %
     %                                                                      %
     %   T. Thonhauser et al., PRL 115, 136402 (2015).                      %
     %   T. Thonhauser et al., PRB 76, 125112 (2007).                       %
     %   K. Berland et al., Rep. Prog. Phys. 78, 066501 (2015).             %
     %   D.C. Langreth et al., J. Phys.: Condens. Matter 21, 084203 (2009). %
     %                                                                      %
     %                                                                      %
     % If you are calculating the stress with vdW-DF, please also cite:     %
     %                                                                      %
     %   R. Sabatini et al., J. Phys.: Condens. Matter 24, 424209 (2012).   %
     %                                                                      %
     %%%%%%%%%%%%%%%%%%%%%%%%%%%%%%%%%%%%%%%%%%%%%%%%%%%%%%%%%%%%%%%%%%%%%%%%

     Adding external electric field

     Computed dipole along edir(3) :
        Dipole               -8.3970 Ry au,        -21.3430 Debye
        Dipole field         -0.0158 Ry au,

        Potential amp.        1.4689 Ry
        Total length         46.3494 bohr

     Starting wfcs are  299 atomic wfcs
  @ DRIVER MODE: Message from server: STATUS
  @ DRIVER MODE: Message from server: POSDATA
  @ DRIVER MODE: Reading and sharing cell
  @ DRIVER MODE: Reading and sharing positions
  @ DRIVER MODE: Received positions

     Self-consistent Calculation

     iteration #  1     ecut=    29.40 Ry     beta= 0.05
     Davidson diagonalization with overlap
     c_bands:  2 eigenvalues not converged
     c_bands:  1 eigenvalues not converged
     c_bands:  2 eigenvalues not converged
     c_bands:  3 eigenvalues not converged
     c_bands:  3 eigenvalues not converged
     c_bands:  2 eigenvalues not converged
     c_bands:  1 eigenvalues not converged
     ethr =  1.00E-05,  avg # of iterations = 19.3

[...]

     total energy              =   -2613.94390053 Ry
     estimated scf accuracy    <    3601.30678873 Ry

[...]

     iteration #  3     ecut=    29.40 Ry     beta= 0.05
     Davidson diagonalization with overlap
     ethr =  1.00E-02,  avg # of iterations = 14.5

[...]

     iteration # 45     ecut=    29.40 Ry     beta= 0.05
     Davidson diagonalization with overlap
     c_bands:  1 eigenvalues not converged
     ethr =  8.12E-07,  avg # of iterations =  9.8

[...]

     total energy              =   -2939.13541276 Ry
     estimated scf accuracy    <       0.00000040 Ry

     iteration # 76     ecut=    29.40 Ry     beta= 0.05
     Davidson diagonalization with overlap
     ethr =  5.32E-11,  avg # of iterations = 12.0

     negative rho (up, down):  1.681E-02 0.000E+00

     Adding external electric field

     Computed dipole along edir(3) :
        Dipole                0.7893 Ry au,          2.0063 Debye
        Dipole field          0.0015 Ry au,

        Potential amp.       -0.1381 Ry
        Total length         46.3494 bohr

     End of self-consistent calculation

          k = 0.0000 0.0000 0.0000 ( 18029 PWs)   bands (ev):

   -55.8520 -55.8506 -55.8179 -55.8146 -55.7450 -55.7020 -55.6643 -55.6625
   -55.6293 -55.6285 -55.6239 -55.5902 -55.1894 -55.1436 -54.8272 -54.7932
   -32.4047 -32.3349 -32.2408 -32.1624 -32.1484 -32.1442 -32.1302 -32.1156
   -32.0950 -32.0817 -32.0287 -32.0110 -32.0044 -32.0024 -31.9925 -31.9887
   -31.9568 -31.9449 -31.9387 -31.9361 -31.9094 -31.9068 -31.8909 -31.8888
   -31.8580 -31.8539 -31.8517 -31.8505 -31.8255 -31.8103 -31.8028 -31.7924
   -31.7807 -31.7783 -31.7707 -31.7373 -31.7307 -31.4540 -31.4165 -31.3893
   -31.3366 -31.3018 -31.2340 -31.1464 -31.1240 -31.0512 -30.9647 -30.8532
   -17.9115 -16.6110 -16.3309 -16.0755 -16.0003 -15.9964 -15.8628 -15.6999
   -15.5872 -15.5203 -15.4400 -15.4102 -15.3882 -15.3527 -15.3464 -15.3086
   -15.2997 -15.2743 -15.2708 -15.2085 -15.2051 -15.1977 -15.1879 -15.1038
   -15.0461 -14.9946 -14.9869 -14.9135 -14.8796 -14.3520 -13.3291 -13.2127
   -12.1645  -7.8808  -5.3690  -4.5383  -3.9878  -3.8285  -3.7588  -3.7243
    -3.6475  -3.4880  -3.4092  -3.1279  -3.0787  -3.0229  -3.0134  -2.9769
    -2.9337  -2.7806  -2.7026  -2.6763  -2.6606  -2.6381  -2.6231  -2.6110
    -2.5955  -2.5757  -2.4947  -2.4135  -2.3696  -2.2930  -2.2792  -2.2442
    -2.1640  -2.1637  -2.1233  -2.1032  -2.0850  -2.0687  -2.0604  -2.0451
    -1.9051  -1.8467  -1.8336  -1.6528  -1.6348  -1.5874  -1.4610  -1.4544
    -1.3379  -1.3225  -1.2823  -1.2446  -1.1720  -1.1502  -1.0387  -0.9974
    -0.9357  -0.8883  -0.8732  -0.7977  -0.7331  -0.6947  -0.6816  -0.6164
    -0.6096  -0.5966  -0.4619  -0.3862  -0.3320  -0.2759  -0.2537  -0.1978
    -0.1582  -0.1150  -0.0272  -0.0004   0.0112   0.0689   0.0911   0.1166
     0.1282   0.1479   0.1767   0.2324   0.3506   0.3824   0.4586   0.4726
     0.5321   0.6674   0.8055   0.8719   0.9251   1.0190   1.1261   1.1955
     1.2687   1.3879   1.7657   1.8111   2.1400   3.2679   3.3699   3.4027
     3.4137   3.5168   3.6656   3.7271   3.7423   3.7836   3.8177

[...]

          k = 0.0380-0.0419 0.0000 ( 17876 PWs)   bands (ev):

[...]

          k =-0.0760-0.0000 0.0000 ( 17886 PWs)   bands (ev):

[...]

          k =-0.0760-0.0839 0.0000 ( 17948 PWs)   bands (ev):

   -55.8351 -55.8346 -55.8330 -55.8319 -55.7364 -55.7106 -55.6475 -55.6459
   -55.6458 -55.6448 -55.6077 -55.6065 -55.1816 -55.1513 -54.8104 -54.8099
   -32.2068 -32.2052 -32.1503 -32.1500 -32.1297 -32.1294 -32.0955 -32.0925
   -32.0835 -32.0669 -32.0012 -31.9985 -31.9930 -31.9912 -31.9692 -31.9616
   -31.9549 -31.9544 -31.9491 -31.9478 -31.9460 -31.9343 -31.9286 -31.9218
   -31.9096 -31.9046 -31.8598 -31.8496 -31.8478 -31.8470 -31.8387 -31.8379
   -31.8245 -31.8239 -31.8234 -31.8221 -31.6834 -31.4493 -31.4155 -31.4107
   -31.3929 -31.3377 -31.1369 -31.1365 -31.0470 -31.0466 -31.0081 -31.0078
   -17.8980 -16.0261 -16.0234 -15.8156 -15.7767 -15.7576 -15.7517 -15.6620
   -15.5762 -15.5427 -15.5397 -15.4529 -15.4266 -15.4105 -15.3944 -15.3889
   -15.3801 -15.3505 -15.3153 -15.3078 -15.2937 -15.2881 -15.2762 -15.2192
   -15.1679 -15.1637 -15.1413 -15.0691 -14.8303 -14.6924 -13.3146 -13.3145
   -12.1252  -7.8217  -5.4139  -4.5990  -3.3207  -3.3111  -3.0648  -3.0220
    -3.0184  -2.9933  -2.9498  -2.7889  -2.7763  -2.7568  -2.7492  -2.7044
    -2.6809  -2.6606  -2.6410  -2.6358  -2.6068  -2.5807  -2.5656  -2.5286
    -2.5218  -2.5128  -2.4812  -2.4704  -2.4238  -2.4186  -2.3979  -2.3705
    -2.3611  -2.3267  -2.1794  -2.1065  -2.0783  -1.9934  -1.9865  -1.9469
    -1.9238  -1.9026  -1.8941  -1.8677  -1.8296  -1.6937  -1.6109  -1.5494
    -1.5407  -1.4564  -1.4287  -1.3670  -1.2773  -1.2517  -1.2309  -1.1591
    -1.0837  -1.0453  -0.9940  -0.9810  -0.9136  -0.9046  -0.8471  -0.8102
    -0.8082  -0.7312  -0.7008  -0.6537  -0.6172  -0.6004  -0.5775  -0.5509
    -0.5351  -0.5121  -0.4353  -0.3520  -0.3003  -0.2401  -0.1467  -0.0183
     0.1030   0.2158   0.2377   0.2818   0.3341   0.3680   0.4622   0.4660
     0.5290   0.5526   0.5938   0.6716   0.6830   0.7073   0.8184   0.8474
     1.5600   1.5604   1.6311   1.6312   2.0810   3.5908   3.6197   3.6388
     3.6706   3.8000   3.8061   3.8163   3.8172   3.9521   3.9593

     the Fermi energy is     3.2778 ev

!    total energy              =   -2939.13542108 Ry
     estimated scf accuracy    <       0.00000007 Ry
     smearing contrib. (-TS)   =      -0.02098932 Ry
     internal energy E=F+TS    =   -2939.11443176 Ry

     The total energy is F=E-TS. E is the sum of the following terms:
     one-electron contribution =  -24492.37301631 Ry
     hartree contribution      =   12334.15060244 Ry
     xc contribution           =    -485.37170298 Ry
     ewald contribution        =    9704.47850935 Ry
     electric field correction =       0.00117574 Ry

     convergence has been achieved in  76 iterations

     Forces acting on atoms (cartesian axes, Ry/au):

     atom    1 type  1   force =     0.00007841   -0.00023743    0.09631531
     atom    2 type  1   force =     0.00005324   -0.00057449   -0.17517631
     atom    3 type  2   force =     0.00014960   -0.00013233   -0.02409282
     atom    4 type  2   force =    -0.00000569   -0.00125455    0.05221099
     atom    5 type  2   force =    -0.01054741   -0.00047847    0.00251901
     atom    6 type  2   force =     0.01236363    0.00022194    0.00289389
     atom    7 type  1   force =     0.00098446    0.00026677   -0.01175429
     atom    8 type  1   force =    -0.00013931    0.00776147    0.02263595
     atom    9 type  2   force =    -0.00019894   -0.00015257   -0.00026464
     atom   10 type  2   force =    -0.00262284    0.00115257   -0.01266380
     atom   11 type  2   force =     0.00006338   -0.00011948    0.00006367
     atom   12 type  2   force =     0.00009193    0.00019059   -0.00038106
     atom   13 type  1   force =     0.00043885   -0.00035591    0.00023157
     atom   14 type  1   force =     0.00016068    0.00032530   -0.00013319
     atom   15 type  2   force =    -0.00025790    0.00017411    0.00005516
     atom   16 type  2   force =     0.00011149   -0.00021161    0.00034267
     atom   17 type  2   force =     0.00049243   -0.00003135    0.00036566
     atom   18 type  2   force =     0.00066694   -0.00018229    0.00025728
     atom   19 type  1   force =    -0.00119620   -0.00002774    0.00018176
     atom   20 type  1   force =     0.00032305   -0.00032951   -0.00059399
     atom   21 type  2   force =     0.00004738    0.00000298    0.10312404
     atom   22 type  2   force =     0.00005181   -0.00021993    0.00003584
     atom   23 type  2   force =    -0.07161191   -0.00015240   -0.02764334
     atom   24 type  2   force =     0.07154983    0.00034936   -0.02770579
     atom   25 type  1   force =     0.00015553   -0.00023604    0.09585725
     atom   26 type  1   force =     0.00009924   -0.00040443   -0.17543131
     atom   27 type  2   force =     0.00017482   -0.00021375   -0.02292673
     atom   28 type  2   force =     0.00006343   -0.00100811    0.05217444
     atom   29 type  2   force =    -0.01084934    0.00047918    0.00243945
     atom   30 type  2   force =     0.01254313    0.00063945    0.00278588
     atom   31 type  1   force =     0.00087144    0.00347132   -0.01293907
     atom   32 type  1   force =     0.00002863   -0.00925860    0.02306219
     atom   33 type  2   force =    -0.00048349    0.00013576    0.00023609
     atom   34 type  2   force =    -0.00302568    0.00022937   -0.01287847
     atom   35 type  2   force =     0.00008946    0.00008444   -0.00007639
     atom   36 type  2   force =     0.00009793    0.00033035   -0.00038822
     atom   37 type  1   force =     0.00033364    0.00036546    0.00006440
     atom   38 type  1   force =     0.00002668   -0.00043934    0.00016066
     atom   39 type  2   force =     0.00016350    0.00043467    0.00054090
     atom   40 type  2   force =     0.00035558    0.00013019   -0.00038512
     atom   41 type  2   force =     0.00041548    0.00005001    0.00030659
     atom   42 type  2   force =     0.00094899    0.00003022    0.00046959
     atom   43 type  1   force =    -0.00158509   -0.00036236   -0.00035709
     atom   44 type  1   force =     0.00086863   -0.00042692   -0.00066757
     atom   45 type  2   force =     0.00006100   -0.00003447    0.10309826
     atom   46 type  2   force =    -0.07163002   -0.00007160   -0.02765762
     atom   47 type  2   force =     0.07156990    0.00032482   -0.02772605
     atom   48 type  3   force =    -0.00030012   -0.00048294   -0.00008545
     atom   49 type  4   force =    -0.00094801   -0.00007034   -0.00008674
     atom   50 type  5   force =    -0.00101540    0.00065720    0.00065977
     atom   51 type  5   force =     0.00048344   -0.00060281    0.00017242
     atom   52 type  3   force =    -0.00125466   -0.00003268   -0.00333598
     atom   53 type  5   force =     0.00069443    0.00029696    0.00209037

     Total force =     0.365747     Total SCF correction =     0.000503
  @ DRIVER MODE: Message from server: STATUS
  @ DRIVER MODE: Message from server: GETFORCE
  @ DRIVER MODE: Returning v,forces,stress,ensemble

     Writing output data file ./calc.save/
  @ DRIVER MODE: Message from server: EXIT
  @ DRIVE MODE: Exiting

     General routines

     Parallel routines

   This run was terminated on:   7:30:42   9Sep2021

   JOB DONE.