     Program PWSCF v.6.7GPU starts on 22Sep2021 at 19:50:32

     R & G space division:  proc/nbgrp/npool/nimage =      10
     Reading input from /storage/home/hcoda1/3/ntian30/research/carbon/CxH_vib/H2O_calc/ads_slab/CH3NHO_a/out_0011/pw.inp
Warning: card &CELL ignored
Warning: card   CELL_DYNAMICS='IPI', ignored
Warning: card / ignored

     Current dimensions of program PWSCF are:
     Max number of different atomic species (ntypx) = 10
     Max number of k-points (npk) =  40000
     Max angular momentum in pseudopotentials (lmaxx) =  3
     Presently no symmetry can be used with electric field

     Message from routine cell_base_init:
     DEPRECATED: use true lattice parameter, not A to a.u. conversion factor

     IMPORTANT: XC functional enforced from input :
     Exchange-correlation= BEEF-VDW
                           (   1   4  43  14   2   0   0)
     Any further DFT definition will be discarded
     Please, verify this is what you really want

  @ DRIVER MODE: Connecting to
 qe_1139763_2937319.sched-torque.pace.gatech.edu21grhjma_scratch
  using UNIX socket
  @ DRIVER MODE: Message from server: STATUS
  @ DRIVER MODE: Message from server: INIT
  @ DRIVER MODE: Receiving replica           0          -1
  @ DRIVER MODE: Receiving encoded integer          25
  @ DRIVER MODE:  SCF:  T  FORCE:  T  STRESS:  F  VC:  F  ENSEMBLE:  F
  @ DRIVER MODE:  SCF:  T  FORCE:  T  STRESS:  F  VC:  F  ENSEMBLE:  F

     Using Slab Decomposition

     bravais-lattice index     =            0
     lattice parameter (alat)  =       1.8897  a.u.
     unit-cell volume          =    6658.9804 (a.u.)^3
     number of atoms/cell      =           54
     number of atomic types    =            5
     number of electrons       =       397.00
     number of Kohn-Sham states=          208
     kinetic-energy cutoff     =      29.3995  Ry
     charge density cutoff     =     293.9946  Ry
     scf convergence threshold =      7.3E-08
     mixing beta               =       0.0500
     number of iterations used =            8  plain     mixing
     Exchange-correlation= BEEF-VDW
                           (   1   4  43  14   2   0   0)

     celldm(1)=   1.889726  celldm(2)=   0.000000  celldm(3)=   0.000000
     celldm(4)=   0.000000  celldm(5)=   0.000000  celldm(6)=   0.000000

     crystal axes: (cart. coord. in units of alat)
               a(1) = (   6.579727   0.000000   0.000000 )
               a(2) = (  -0.000775   5.961596   0.000000 )
               a(3) = (   0.000000   0.000000  25.155947 )

     reciprocal axes: (cart. coord. in units 2 pi/alat)
               b(1) = (  0.151982  0.000020  0.000000 )
               b(2) = (  0.000000  0.167740  0.000000 )
               b(3) = (  0.000000  0.000000  0.039752 )

     PseudoPot. # 1 for Ti read from file:
     /storage/coda1/p-amedford6/0/shared/rich_project_chbe-medford/medford-share/data/pseudos_module/espresso/nninc/pbe/van/Ti.UPF
     MD5 check sum: 8e4df49b7f0d34bbd5052bf3f5ea0213
     Pseudo is Ultrasoft, Zval = 12.0
     Generated by new atomic code, or converted to UPF format
     Using radial grid of  851 points,  6 beta functions with:
                l(1) =   0
                l(2) =   0
                l(3) =   1
                l(4) =   1
                l(5) =   2
                l(6) =   2
     Q(r) pseudized with  8 coefficients,  rinner =    1.000   1.000   1.000
                                                       1.000   1.000

     PseudoPot. # 2 for O  read from file:
     /storage/coda1/p-amedford6/0/shared/rich_project_chbe-medford/medford-share/data/pseudos_module/espresso/nninc/pbe/van/O.UPF
     MD5 check sum: 78c19812648e8988a0fe644b0f25305e
     Pseudo is Ultrasoft, Zval =  6.0
     Generated by new atomic code, or converted to UPF format
     Using radial grid of  737 points,  4 beta functions with:
                l(1) =   0
                l(2) =   0
                l(3) =   1
                l(4) =   1
     Q(r) pseudized with  8 coefficients,  rinner =    0.800   0.800   0.800

     PseudoPot. # 3 for N  read from file:
     /storage/coda1/p-amedford6/0/shared/rich_project_chbe-medford/medford-share/data/pseudos_module/espresso/nninc/pbe/van/N.UPF
     MD5 check sum: 90d10febe142ad51ac9d5be1deb811c4
     Pseudo is Ultrasoft, Zval =  5.0
     Generated by new atomic code, or converted to UPF format
     Using radial grid of  729 points,  4 beta functions with:
                l(1) =   0
                l(2) =   0
                l(3) =   1
                l(4) =   1
     Q(r) pseudized with  8 coefficients,  rinner =    0.800   0.800   0.800

     PseudoPot. # 4 for C  read from file:
     /storage/coda1/p-amedford6/0/shared/rich_project_chbe-medford/medford-share/data/pseudos_module/espresso/nninc/pbe/van/C.UPF
     MD5 check sum: 1a69bf6b8db32088f5b2163dbdb77a27
     Pseudo is Ultrasoft, Zval =  4.0
     Generated by new atomic code, or converted to UPF format
     Using radial grid of  721 points,  4 beta functions with:
                l(1) =   0
                l(2) =   0
                l(3) =   1
                l(4) =   1
     Q(r) pseudized with  8 coefficients,  rinner =    0.800   0.800   0.800

     PseudoPot. # 5 for H  read from file:
     /storage/coda1/p-amedford6/0/shared/rich_project_chbe-medford/medford-share/data/pseudos_module/espresso/nninc/pbe/van/H.UPF
     MD5 check sum: b5ee9d7bfd3a09ee7748110bda690ff7
     Pseudo is Ultrasoft, Zval =  1.0
     Generated by new atomic code, or converted to UPF format
     Using radial grid of  615 points,  1 beta functions with:
                l(1) =   0
     Q(r) pseudized with  8 coefficients,  rinner =    0.800

     atomic species   valence    mass     pseudopotential
        Ti1           12.00    47.86700     Ti( 1.00)
        O1             6.00    15.99900     O ( 1.00)
        N1             5.00    14.00700     N ( 1.00)
        C1             4.00    12.01100     C ( 1.00)
        H1             1.00     1.00800     H ( 1.00)

     No symmetry found

   Cartesian axes

     site n.     atom                  positions (alat units)
         1           Ti1 tau(   1) = (   0.0004258   2.9801865   6.0000000  )
         2           Ti1 tau(   2) = (   3.2906075   1.4906267   6.0002472  )
         3           O1  tau(   3) = (   0.0006271   0.0005054   7.9858123  )
         4           O1  tau(   4) = (   3.2906025   0.0005020   7.3038282  )
         5           O1  tau(   5) = (   4.5942328   1.4918067   9.2879030  )
         6           O1  tau(   6) = (   1.9868534   1.4903216   9.2879459  )
         7           Ti1 tau(   7) = (   3.2907910   2.8959150   9.1758416  )
         8           Ti1 tau(   8) = (   0.0015273   1.4827037   9.2680791  )
         9           O1  tau(   9) = (   3.2880966   5.9442215  11.2779904  )
        10           O1  tau(  10) = (   0.0116148   5.9584955  10.6183126  )
        11           O1  tau(  11) = (   1.2901275   1.4920942  12.6240107  )
        12           O1  tau(  12) = (   5.2966278   1.4852543  12.6143030  )
        13           Ti1 tau(  13) = (   0.0031916   3.1007002  12.7073671  )
        14           Ti1 tau(  14) = (   3.2978183   1.3116672  12.6600973  )
        15           O1  tau(  15) = (   6.5743189   0.0224225  14.6379036  )
        16           O1  tau(  16) = (   3.2931419   0.0435670  13.8892854  )
        17           O1  tau(  17) = (   4.5409235   1.5821231  16.0748620  )
        18           O1  tau(  18) = (   2.0417342   1.5698890  16.0900686  )
        19           Ti1 tau(  19) = (   3.2746960   3.0378214  15.6558348  )
        20           Ti1 tau(  20) = (   6.4705883   1.5381531  15.9030332  )
        21           O1  tau(  21) = (   3.2904802   0.0005063   4.7018136  )
        22           O1  tau(  22) = (   6.5584422   0.0457650  17.1906971  )
        23           O1  tau(  23) = (   1.3043587   1.4918075   6.0039043  )
        24           O1  tau(  24) = (   5.2767064   1.4903225   6.0039473  )
        25           Ti1 tau(  25) = (   0.0000382   5.9609847   6.0000000  )
        26           Ti1 tau(  26) = (   3.2902200   4.4714249   6.0002472  )
        27           O1  tau(  27) = (   0.0002396   2.9813036   7.9858123  )
        28           O1  tau(  28) = (   3.2902150   2.9813002   7.3038282  )
        29           O1  tau(  29) = (   4.5938453   4.4726049   9.2879030  )
        30           O1  tau(  30) = (   1.9864658   4.4711199   9.2879459  )
        31           Ti1 tau(  31) = (   3.2891106   5.8743827   9.1763621  )
        32           Ti1 tau(  32) = (   0.0006254   4.4649316   9.2693709  )
        33           O1  tau(  33) = (   3.2918970   3.0256722  11.2465752  )
        34           O1  tau(  34) = (   0.0092240   2.9805883  10.6323155  )
        35           O1  tau(  35) = (   1.2932338   4.4650182  12.6342030  )
        36           O1  tau(  36) = (   5.2897350   4.4662865  12.6224893  )
        37           Ti1 tau(  37) = (   0.0112454   0.1207271  12.6557084  )
        38           Ti1 tau(  38) = (   3.2993242   4.4067673  12.4119285  )
        39           O1  tau(  39) = (   6.5542949   2.9732608  14.6543823  )
        40           O1  tau(  40) = (   3.2957262   2.9928748  13.8751945  )
        41           O1  tau(  41) = (   4.5169628   4.4726675  16.1294972  )
        42           O1  tau(  42) = (   2.0179035   4.4711894  16.0655614  )
        43           Ti1 tau(  43) = (   3.1791666   0.0518155  16.3463265  )
        44           Ti1 tau(  44) = (   6.5235282   4.6410908  16.0777984  )
        45           O1  tau(  45) = (   3.2900926   2.9813045   4.7018136  )
        46           O1  tau(  46) = (   1.3039711   4.4726057   6.0039043  )
        47           O1  tau(  47) = (   5.2763189   4.4711207   6.0039473  )
        48           N1  tau(  48) = (   0.0679940   2.9882472  17.3287890  )
        49           C1  tau(  49) = (   0.3445104   2.8919884  18.6943053  )
        50           H1  tau(  50) = (   0.5935414   3.8503421  19.1719745  )
        51           H1  tau(  51) = (   6.0379261   2.4644003  19.2136804  )
        52           H1  tau(  52) = (   1.1315070   2.1426081  18.8955932  )
        53           O1  tau(  53) = (   3.2362511   0.0690349  18.1809703  )
        54           H1  tau(  54) = (   3.8186072   5.4079590  18.6400750  )

     number of k points=    10  Fermi-Dirac smearing, width (Ry)=  0.0073
                       cart. coord. in units 2pi/alat
        k(    1) = (   0.0000000   0.0000000   0.0000000), wk =   0.1250000
        k(    2) = (   0.0000000   0.0419351   0.0000000), wk =   0.2500000
        k(    3) = (   0.0000000  -0.0838702   0.0000000), wk =   0.1250000
        k(    4) = (   0.0379955   0.0000049   0.0000000), wk =   0.2500000
        k(    5) = (   0.0379955   0.0419400   0.0000000), wk =   0.2500000
        k(    6) = (   0.0379955  -0.0838652   0.0000000), wk =   0.2500000
        k(    7) = (   0.0379955  -0.0419301   0.0000000), wk =   0.2500000
        k(    8) = (  -0.0759910  -0.0000099   0.0000000), wk =   0.1250000
        k(    9) = (  -0.0759910   0.0419252   0.0000000), wk =   0.2500000
        k(   10) = (  -0.0759910  -0.0838800   0.0000000), wk =   0.1250000

     Initial potential from superposition of free atoms

     starting charge  380.99916, renormalised to  397.00000

     negative rho (up, down):  1.677E-02 0.000E+00

     %%%%%%%%%%%%%%%%%%%%%%%%%%%%%%%%%%%%%%%%%%%%%%%%%%%%%%%%%%%%%%%%%%%%%%%%
     %                                                                      %
     % You are using vdW-DF, which was implemented by the Thonhauser group. %
     % Please cite the following two papers that made this development      %
     % possible and the two reviews that describe the various versions:     %
     %                                                                      %
     %   T. Thonhauser et al., PRL 115, 136402 (2015).                      %
     %   T. Thonhauser et al., PRB 76, 125112 (2007).                       %
     %   K. Berland et al., Rep. Prog. Phys. 78, 066501 (2015).             %
     %   D.C. Langreth et al., J. Phys.: Condens. Matter 21, 084203 (2009). %
     %                                                                      %
     %                                                                      %
     % If you are calculating the stress with vdW-DF, please also cite:     %
     %                                                                      %
     %   R. Sabatini et al., J. Phys.: Condens. Matter 24, 424209 (2012).   %
     %                                                                      %
     %%%%%%%%%%%%%%%%%%%%%%%%%%%%%%%%%%%%%%%%%%%%%%%%%%%%%%%%%%%%%%%%%%%%%%%%

     Adding external electric field

     Computed dipole along edir(3) :
        Dipole               -8.2889 Ry au,        -21.0683 Debye
        Dipole field         -0.0156 Ry au,

        Potential amp.        1.4500 Ry
        Total length         46.3494 bohr

     Starting wfcs are  300 atomic wfcs
  @ DRIVER MODE: Message from server: STATUS
  @ DRIVER MODE: Message from server: POSDATA
  @ DRIVER MODE: Reading and sharing cell
  @ DRIVER MODE: Reading and sharing positions
  @ DRIVER MODE: Received positions

     Self-consistent Calculation

     iteration #  1     ecut=    29.40 Ry     beta= 0.05
     Davidson diagonalization with overlap
     c_bands:  1 eigenvalues not converged
     c_bands:  1 eigenvalues not converged
     c_bands:  1 eigenvalues not converged
     c_bands:  3 eigenvalues not converged
     c_bands:  2 eigenvalues not converged
     c_bands:  1 eigenvalues not converged
     c_bands:  1 eigenvalues not converged
     ethr =  1.00E-05,  avg # of iterations = 19.2

[...]

     total energy              =   -2606.30084745 Ry
     estimated scf accuracy    <    3822.26792263 Ry

     iteration #  2     ecut=    29.40 Ry     beta= 0.05
     Davidson diagonalization with overlap
     ethr =  1.00E-02,  avg # of iterations = 23.7

[...]

     iteration # 45     ecut=    29.40 Ry     beta= 0.05
     Davidson diagonalization with overlap
     c_bands:  1 eigenvalues not converged
     c_bands:  1 eigenvalues not converged
     ethr =  1.31E-06,  avg # of iterations =  8.3

[...]

     total energy              =   -2952.64732987 Ry
     estimated scf accuracy    <       0.00000010 Ry

     iteration # 73     ecut=    29.40 Ry     beta= 0.05
     Davidson diagonalization with overlap
     ethr =  2.58E-11,  avg # of iterations =  4.7

     negative rho (up, down):  1.695E-02 0.000E+00

     Adding external electric field

     Computed dipole along edir(3) :
        Dipole                0.3616 Ry au,          0.9192 Debye
        Dipole field          0.0007 Ry au,

        Potential amp.       -0.0633 Ry
        Total length         46.3494 bohr

     End of self-consistent calculation

          k = 0.0000 0.0000 0.0000 ( 18029 PWs)   bands (ev):

   -56.8743 -56.8407 -55.9451 -55.9095 -55.7345 -55.6698 -55.5494 -55.4260
   -55.3921 -55.3137 -55.3111 -55.2405 -55.2181 -55.1178 -55.0460 -54.9226
   -33.2930 -33.1446 -33.1165 -33.0539 -32.9637 -32.9201 -32.4263 -32.2098
   -32.1653 -32.1450 -32.0896 -32.0812 -32.0556 -31.9683 -31.9469 -31.9047
   -31.8909 -31.8724 -31.8320 -31.8038 -31.7954 -31.7933 -31.7807 -31.7729
   -31.7484 -31.7297 -31.6649 -31.6301 -31.5934 -31.5820 -31.5497 -31.5288
   -31.5162 -31.5081 -31.4739 -31.4655 -31.4383 -31.4304 -31.4081 -31.3933
   -31.3582 -31.3048 -31.3013 -31.2816 -31.2497 -31.1943 -31.1588 -31.1061
   -16.9774 -16.4640 -16.4157 -16.1908 -16.0683 -16.0631 -16.0173 -15.9564
   -15.7819 -15.7293 -15.6886 -15.6249 -15.4745 -15.3634 -15.2664 -15.0732
   -15.0365 -15.0044 -15.0030 -14.9883 -14.9583 -14.9458 -14.8709 -14.8190
   -14.7886 -14.7068 -14.7002 -14.5385 -14.3128 -14.2865 -13.9235 -13.8721
   -13.8165  -8.0183  -4.5531  -4.0913  -3.8844  -3.7097  -3.5594  -3.4901
    -3.4739  -3.3933  -3.3819  -3.2469  -3.2348  -3.2289  -3.2218  -3.1370
    -3.0917  -3.0140  -2.9252  -2.9097  -2.8194  -2.7689  -2.6097  -2.5754
    -2.4878  -2.4094  -2.4038  -2.3370  -2.3187  -2.2764  -2.2415  -2.2101
    -2.1806  -2.1370  -2.0831  -2.0721  -1.9781  -1.9724  -1.8890  -1.8751
    -1.8739  -1.7523  -1.7075  -1.6480  -1.5090  -1.4865  -1.4709  -1.4377
    -1.4013  -1.3393  -1.2366  -1.1765  -1.1482  -1.0939  -1.0250  -0.9678
    -0.9478  -0.8733  -0.8476  -0.7733  -0.7290  -0.7132  -0.6938  -0.6695
    -0.5305  -0.4483  -0.4140  -0.3611  -0.3459  -0.3071  -0.2820  -0.2287
    -0.1694  -0.1473  -0.0488  -0.0465   0.0901   0.1576   0.1607   0.2590
     0.3036   0.3096   0.3663   0.4352   0.4468   0.5105   0.5306   0.5889
     0.5953   0.6369   0.7213   0.7970   0.8409   0.8713   0.9110   0.9311
     1.0432   1.0689   1.1326   1.1888   1.5025   1.5711   2.1815   2.4201
     2.5919   2.8693   3.0645   3.3641   3.4060   3.4241   3.4242   3.7339

[...]

          k = 0.0380-0.0419 0.0000 ( 17876 PWs)   bands (ev):

[...]

          k =-0.0760-0.0000 0.0000 ( 17886 PWs)   bands (ev):

[...]

          k =-0.0760-0.0839 0.0000 ( 17948 PWs)   bands (ev):

   -56.8582 -56.8567 -55.9331 -55.9213 -55.7297 -55.6745 -55.5486 -55.4095
   -55.4084 -55.3143 -55.3066 -55.2447 -55.2167 -55.1163 -55.0475 -54.9240
   -33.1311 -33.1295 -33.1110 -33.1096 -33.0081 -33.0068 -32.2513 -32.2411
   -32.1277 -32.1235 -32.1156 -32.1145 -32.0279 -31.9874 -31.9615 -31.9478
   -31.9002 -31.8986 -31.8344 -31.7920 -31.7718 -31.7619 -31.7611 -31.6865
   -31.6361 -31.6297 -31.6283 -31.6049 -31.5937 -31.5897 -31.5889 -31.5838
   -31.5352 -31.5280 -31.5115 -31.4867 -31.4800 -31.4640 -31.4351 -31.4096
   -31.3926 -31.3610 -31.3068 -31.2956 -31.2627 -31.2555 -31.1612 -31.1440
   -16.4533 -16.3352 -16.3333 -16.2907 -16.2892 -16.0257 -16.0213 -15.7734
   -15.7444 -15.5692 -15.4569 -15.4347 -15.3930 -15.3525 -15.2764 -15.2252
   -15.2122 -15.1838 -15.1570 -15.0851 -15.0517 -14.9496 -14.9139 -14.8524
   -14.8185 -14.7444 -14.7043 -14.6751 -14.4838 -14.4192 -13.9210 -13.9205
   -13.8968  -8.0170  -4.0950  -3.4702  -3.4121  -3.4077  -3.3726  -3.3656
    -3.2972  -3.1609  -3.1581  -3.0772  -2.9572  -2.9302  -2.9006  -2.8465
    -2.8359  -2.7368  -2.6867  -2.6819  -2.6670  -2.6325  -2.6012  -2.5942
    -2.5367  -2.4110  -2.3671  -2.3289  -2.2881  -2.2190  -2.1900  -2.1824
    -2.1491  -2.1094  -2.0917  -2.0627  -2.0496  -2.0430  -2.0325  -1.9491
    -1.7986  -1.7722  -1.6783  -1.6749  -1.6656  -1.6255  -1.5957  -1.5818
    -1.5611  -1.5282  -1.4507  -1.4250  -1.3613  -1.2254  -1.2128  -1.1780
    -1.1246  -1.0221  -1.0069  -0.9111  -0.8933  -0.8828  -0.8201  -0.7966
    -0.7799  -0.7190  -0.6808  -0.5604  -0.4887  -0.4801  -0.4620  -0.4533
    -0.4032  -0.3542  -0.2841  -0.2786  -0.2617  -0.1537  -0.0580   0.0366
     0.0430   0.1111   0.1261   0.1809   0.3386   0.3493   0.3911   0.4521
     0.5678   0.6598   0.7144   0.8139   0.8455   0.9529   0.9722   0.9772
     0.9962   1.0052   1.0488   1.1038   1.1675   1.4824   1.9821   3.0127
     3.0159   3.0742   3.0798   3.3910   3.3933   3.5052   3.5101   3.8313

     the Fermi energy is     2.0789 ev

!    total energy              =   -2952.64735032 Ry
     estimated scf accuracy    <       0.00000005 Ry
     smearing contrib. (-TS)   =      -0.01069858 Ry
     internal energy E=F+TS    =   -2952.63665174 Ry

     The total energy is F=E-TS. E is the sum of the following terms:
     one-electron contribution =  -24063.23545052 Ry
     hartree contribution      =   12122.06571489 Ry
     xc contribution           =    -487.77897632 Ry
     ewald contribution        =    9476.31181341 Ry
     electric field correction =       0.00024680 Ry

     convergence has been achieved in  73 iterations

     Forces acting on atoms (cartesian axes, Ry/au):

     atom    1 type  1   force =     0.00005468   -0.00036819    0.12632739
     atom    2 type  1   force =    -0.00006363    0.00038764   -0.15476143
     atom    3 type  2   force =     0.00003827    0.00023080   -0.06863113
     atom    4 type  2   force =     0.00004465    0.00001310    0.01724437
     atom    5 type  2   force =    -0.00541724   -0.00183383   -0.01282130
     atom    6 type  2   force =     0.00700161   -0.00107329   -0.01372217
     atom    7 type  1   force =    -0.00029442   -0.00640772    0.05891147
     atom    8 type  1   force =     0.00058480    0.00674894    0.10093182
     atom    9 type  2   force =     0.00031939    0.00036870    0.00016194
     atom   10 type  2   force =    -0.00198387    0.00132410   -0.06332647
     atom   11 type  2   force =    -0.00017905   -0.00066764    0.00025857
     atom   12 type  2   force =    -0.00035401   -0.00041413    0.00007489
     atom   13 type  1   force =     0.00057385   -0.00074033    0.00017140
     atom   14 type  1   force =    -0.00003076   -0.00057513    0.00119955
     atom   15 type  2   force =    -0.00001427   -0.00002002    0.00046581
     atom   16 type  2   force =     0.00006047   -0.00019661   -0.00086441
     atom   17 type  2   force =    -0.00030275   -0.00055392   -0.00041084
     atom   18 type  2   force =    -0.00041608   -0.00064083   -0.00062021
     atom   19 type  1   force =     0.00124273    0.00034668   -0.00089943
     atom   20 type  1   force =    -0.00087363    0.00069153   -0.00135037
     atom   21 type  2   force =     0.00009652    0.00015147    0.09787509
     atom   22 type  2   force =    -0.00011336   -0.00003513   -0.00030224
     atom   23 type  2   force =    -0.08271708    0.00003112   -0.03314574
     atom   24 type  2   force =     0.08268806    0.00046287   -0.03320730
     atom   25 type  1   force =     0.00005934   -0.00040207    0.12670889
     atom   26 type  1   force =    -0.00004456   -0.00139707   -0.15490931
     atom   27 type  2   force =     0.00012074   -0.00036921   -0.06703524
     atom   28 type  2   force =     0.00007331    0.00176884    0.01246401
     atom   29 type  2   force =    -0.00383839    0.00476678   -0.01596336
     atom   30 type  2   force =     0.00536969    0.00500682   -0.01689192
     atom   31 type  1   force =    -0.00028545    0.00187940    0.04201067
     atom   32 type  1   force =     0.00074563   -0.00886216    0.10186582
     atom   33 type  2   force =    -0.00004768   -0.00034190   -0.00055302
     atom   34 type  2   force =    -0.00187720    0.00205889   -0.07565057
     atom   35 type  2   force =     0.00012440   -0.00013201   -0.00045833
     atom   36 type  2   force =    -0.00029358    0.00006540   -0.00017722
     atom   37 type  1   force =     0.00047239    0.00057968    0.00023017
     atom   38 type  1   force =    -0.00035001   -0.00073566   -0.00039485
     atom   39 type  2   force =     0.00001502   -0.00052998    0.00074526
     atom   40 type  2   force =    -0.00008633   -0.00057466   -0.00043685
     atom   41 type  2   force =     0.00053524   -0.00033450   -0.00064551
     atom   42 type  2   force =    -0.00142190    0.00020861   -0.00004543
     atom   43 type  1   force =     0.00078876   -0.00062818   -0.00078284
     atom   44 type  1   force =    -0.00122652   -0.00042510   -0.00064586
     atom   45 type  2   force =     0.00008531   -0.00003087    0.09772272
     atom   46 type  2   force =    -0.08275274    0.00001756   -0.03315770
     atom   47 type  2   force =     0.08271729    0.00043115   -0.03320492
     atom   48 type  3   force =    -0.00118295   -0.00047319   -0.00905146
     atom   49 type  4   force =     0.00028683    0.00103158    0.01588287
     atom   50 type  5   force =    -0.00101510   -0.00303754   -0.00216587
     atom   51 type  5   force =     0.00318389    0.00103927   -0.00296062
     atom   52 type  5   force =    -0.00165506    0.00095341   -0.00128410
     atom   53 type  2   force =     0.00034556    0.00030247   -0.00085998
     atom   54 type  5   force =     0.00120918    0.00093412    0.00008528

     Total force =     0.421559     Total SCF correction =     0.000554
  @ DRIVER MODE: Message from server: STATUS
  @ DRIVER MODE: Message from server: GETFORCE
  @ DRIVER MODE: Returning v,forces,stress,ensemble

     Writing output data file ./calc.save/
  @ DRIVER MODE: Message from server: EXIT
  @ DRIVE MODE: Exiting

     General routines

     Parallel routines

   This run was terminated on:  20: 8:53  22Sep2021

   JOB DONE.