     Program PWSCF v.6.7GPU starts on 15Sep2021 at 20:15:41

     R & G space division:  proc/nbgrp/npool/nimage =      10
     Reading input from /storage/home/hcoda1/3/ntian30/research/carbon/CxH_vib/H2O_calc/ads_slab/CHOHH2O_a/out_0014/pw.inp
Warning: card &CELL ignored
Warning: card   CELL_DYNAMICS='IPI', ignored
Warning: card / ignored

     Current dimensions of program PWSCF are:
     Max number of different atomic species (ntypx) = 10
     Max number of k-points (npk) =  40000
     Max angular momentum in pseudopotentials (lmaxx) =  3
     Presently no symmetry can be used with electric field

     Message from routine cell_base_init:
     DEPRECATED: use true lattice parameter, not A to a.u. conversion factor

     IMPORTANT: XC functional enforced from input :
     Exchange-correlation= BEEF-VDW
                           (   1   4  43  14   2   0   0)
     Any further DFT definition will be discarded
     Please, verify this is what you really want

  @ DRIVER MODE: Connecting to
 qe_1139763_2852632.sched-torque.pace.gatech.edu3x4on_d1_scratch
  using UNIX socket
  @ DRIVER MODE: Message from server: STATUS
  @ DRIVER MODE: Message from server: INIT
  @ DRIVER MODE: Receiving replica           0          -1
  @ DRIVER MODE: Receiving encoded integer          25
  @ DRIVER MODE:  SCF:  T  FORCE:  T  STRESS:  F  VC:  F  ENSEMBLE:  F
  @ DRIVER MODE:  SCF:  T  FORCE:  T  STRESS:  F  VC:  F  ENSEMBLE:  F

     Using Slab Decomposition

     bravais-lattice index     =            0
     lattice parameter (alat)  =       1.8897  a.u.
     unit-cell volume          =    6658.9804 (a.u.)^3
     number of atoms/cell      =           54
     number of atomic types    =            4
     number of electrons       =       398.00
     number of Kohn-Sham states=          209
     kinetic-energy cutoff     =      29.3995  Ry
     charge density cutoff     =     293.9946  Ry
     scf convergence threshold =      7.3E-08
     mixing beta               =       0.0500
     number of iterations used =            8  plain     mixing
     Exchange-correlation= BEEF-VDW
                           (   1   4  43  14   2   0   0)

     celldm(1)=   1.889726  celldm(2)=   0.000000  celldm(3)=   0.000000
     celldm(4)=   0.000000  celldm(5)=   0.000000  celldm(6)=   0.000000

     crystal axes: (cart. coord. in units of alat)
               a(1) = (   6.579727   0.000000   0.000000 )
               a(2) = (  -0.000775   5.961596   0.000000 )
               a(3) = (   0.000000   0.000000  25.155947 )

     reciprocal axes: (cart. coord. in units 2 pi/alat)
               b(1) = (  0.151982  0.000020  0.000000 )
               b(2) = (  0.000000  0.167740  0.000000 )
               b(3) = (  0.000000  0.000000  0.039752 )

     PseudoPot. # 1 for Ti read from file:
     /storage/coda1/p-amedford6/0/shared/rich_project_chbe-medford/medford-share/data/pseudos_module/espresso/nninc/pbe/van/Ti.UPF
     MD5 check sum: 8e4df49b7f0d34bbd5052bf3f5ea0213
     Pseudo is Ultrasoft, Zval = 12.0
     Generated by new atomic code, or converted to UPF format
     Using radial grid of  851 points,  6 beta functions with:
                l(1) =   0
                l(2) =   0
                l(3) =   1
                l(4) =   1
                l(5) =   2
                l(6) =   2
     Q(r) pseudized with  8 coefficients,  rinner =    1.000   1.000   1.000
                                                       1.000   1.000

     PseudoPot. # 2 for O  read from file:
     /storage/coda1/p-amedford6/0/shared/rich_project_chbe-medford/medford-share/data/pseudos_module/espresso/nninc/pbe/van/O.UPF
     MD5 check sum: 78c19812648e8988a0fe644b0f25305e
     Pseudo is Ultrasoft, Zval =  6.0
     Generated by new atomic code, or converted to UPF format
     Using radial grid of  737 points,  4 beta functions with:
                l(1) =   0
                l(2) =   0
                l(3) =   1
                l(4) =   1
     Q(r) pseudized with  8 coefficients,  rinner =    0.800   0.800   0.800

     PseudoPot. # 3 for C  read from file:
     /storage/coda1/p-amedford6/0/shared/rich_project_chbe-medford/medford-share/data/pseudos_module/espresso/nninc/pbe/van/C.UPF
     MD5 check sum: 1a69bf6b8db32088f5b2163dbdb77a27
     Pseudo is Ultrasoft, Zval =  4.0
     Generated by new atomic code, or converted to UPF format
     Using radial grid of  721 points,  4 beta functions with:
                l(1) =   0
                l(2) =   0
                l(3) =   1
                l(4) =   1
     Q(r) pseudized with  8 coefficients,  rinner =    0.800   0.800   0.800

     PseudoPot. # 4 for H  read from file:
     /storage/coda1/p-amedford6/0/shared/rich_project_chbe-medford/medford-share/data/pseudos_module/espresso/nninc/pbe/van/H.UPF
     MD5 check sum: b5ee9d7bfd3a09ee7748110bda690ff7
     Pseudo is Ultrasoft, Zval =  1.0
     Generated by new atomic code, or converted to UPF format
     Using radial grid of  615 points,  1 beta functions with:
                l(1) =   0
     Q(r) pseudized with  8 coefficients,  rinner =    0.800

     atomic species   valence    mass     pseudopotential
        Ti1           12.00    47.86700     Ti( 1.00)
        O1             6.00    15.99900     O ( 1.00)
        C1             4.00    12.01100     C ( 1.00)
        H1             1.00     1.00800     H ( 1.00)

     No symmetry found

   Cartesian axes

     site n.     atom                  positions (alat units)
         1           Ti1 tau(   1) = (   0.0004258   2.9801865   6.0000000  )
         2           Ti1 tau(   2) = (   3.2906075   1.4906267   6.0002472  )
         3           O1  tau(   3) = (   0.0006271   0.0005054   7.9858123  )
         4           O1  tau(   4) = (   3.2906025   0.0005020   7.3038282  )
         5           O1  tau(   5) = (   4.5942328   1.4918067   9.2879030  )
         6           O1  tau(   6) = (   1.9868534   1.4903216   9.2879459  )
         7           Ti1 tau(   7) = (   3.3203992   3.0065636   9.1614972  )
         8           Ti1 tau(   8) = (   0.0364112   1.5055733   9.2692997  )
         9           O1  tau(   9) = (   3.3037507   0.0048223  11.3846665  )
        10           O1  tau(  10) = (   0.0023770   0.0017864  10.5989407  )
        11           O1  tau(  11) = (   1.2986710   1.4943985  12.6419360  )
        12           O1  tau(  12) = (   5.3019195   1.4930987  12.6558330  )
        13           Ti1 tau(  13) = (   0.0201679   2.9954199  12.5459836  )
        14           Ti1 tau(  14) = (   3.3085843   1.4996073  12.5278567  )
        15           O1  tau(  15) = (   0.0306707   0.0063333  14.6434371  )
        16           O1  tau(  16) = (   3.2901280   5.9588824  14.0411263  )
        17           O1  tau(  17) = (   4.5937705   1.5245028  16.1210063  )
        18           O1  tau(  18) = (   2.0412355   1.5396885  16.1535958  )
        19           Ti1 tau(  19) = (   3.3250740   2.9785215  15.7238461  )
        20           Ti1 tau(  20) = (   0.0142243   1.3716099  15.9029131  )
        21           O1  tau(  21) = (   3.2904802   0.0005063   4.7018136  )
        22           O1  tau(  22) = (   0.0234726   5.9563001  17.1693433  )
        23           O1  tau(  23) = (   1.3043587   1.4918075   6.0039043  )
        24           O1  tau(  24) = (   5.2767064   1.4903225   6.0039473  )
        25           Ti1 tau(  25) = (   0.0000382   5.9609847   6.0000000  )
        26           Ti1 tau(  26) = (   3.2902200   4.4714249   6.0002472  )
        27           O1  tau(  27) = (   0.0002396   2.9813036   7.9858123  )
        28           O1  tau(  28) = (   3.2902150   2.9813002   7.3038282  )
        29           O1  tau(  29) = (   4.5938453   4.4726049   9.2879030  )
        30           O1  tau(  30) = (   1.9864658   4.4711199   9.2879459  )
        31           Ti1 tau(  31) = (   3.3166040   0.0254347   9.1556988  )
        32           Ti1 tau(  32) = (   0.0362352   4.4699824   9.2670842  )
        33           O1  tau(  33) = (   3.3035804   2.9865095  11.3763011  )
        34           O1  tau(  34) = (   0.0042610   2.9829788  10.6236548  )
        35           O1  tau(  35) = (   1.2977823   4.4749822  12.6434080  )
        36           O1  tau(  36) = (   5.3021498   4.4756442  12.6578133  )
        37           Ti1 tau(  37) = (   0.0128731   0.0155586  12.4748574  )
        38           Ti1 tau(  38) = (   3.3087006   4.4877506  12.5360639  )
        39           O1  tau(  39) = (   0.0289868   2.9802581  14.8446641  )
        40           O1  tau(  40) = (   3.2975897   2.9808645  13.9396156  )
        41           O1  tau(  41) = (   4.5936103   4.4348319  16.1149158  )
        42           O1  tau(  42) = (   2.0365336   4.4144103  16.1518429  )
        43           Ti1 tau(  43) = (   3.2980932   5.9591119  15.8729608  )
        44           Ti1 tau(  44) = (   0.0070259   4.5936845  15.8821292  )
        45           O1  tau(  45) = (   3.2900926   2.9813045   4.7018136  )
        46           O1  tau(  46) = (   1.3039711   4.4726057   6.0039043  )
        47           O1  tau(  47) = (   5.2763189   4.4711207   6.0039473  )
        48           C1  tau(  48) = (   6.0563806   2.9601134  19.0478501  )
        49           O1  tau(  49) = (   0.1703025   2.9720528  17.8813388  )
        50           H1  tau(  50) = (   5.0199104   2.8626262  18.6876999  )
        51           H1  tau(  51) = (   1.1251272   3.0566160  18.0647747  )
        52           O1  tau(  52) = (   3.2803433   5.9178330  18.2983259  )
        53           H1  tau(  53) = (   4.0549949   5.9397654  18.8787675  )
        54           H1  tau(  54) = (   2.4787048   0.0262026  18.8357284  )

     number of k points=    10  Fermi-Dirac smearing, width (Ry)=  0.0073
                       cart. coord. in units 2pi/alat
        k(    1) = (   0.0000000   0.0000000   0.0000000), wk =   0.1250000
        k(    2) = (   0.0000000   0.0419351   0.0000000), wk =   0.2500000
        k(    3) = (   0.0000000  -0.0838702   0.0000000), wk =   0.1250000
        k(    4) = (   0.0379955   0.0000049   0.0000000), wk =   0.2500000
        k(    5) = (   0.0379955   0.0419400   0.0000000), wk =   0.2500000
        k(    6) = (   0.0379955  -0.0838652   0.0000000), wk =   0.2500000
        k(    7) = (   0.0379955  -0.0419301   0.0000000), wk =   0.2500000
        k(    8) = (  -0.0759910  -0.0000099   0.0000000), wk =   0.1250000
        k(    9) = (  -0.0759910   0.0419252   0.0000000), wk =   0.2500000
        k(   10) = (  -0.0759910  -0.0838800   0.0000000), wk =   0.1250000

     Initial potential from superposition of free atoms

     starting charge  381.99917, renormalised to  398.00000

     negative rho (up, down):  1.670E-02 0.000E+00

     %%%%%%%%%%%%%%%%%%%%%%%%%%%%%%%%%%%%%%%%%%%%%%%%%%%%%%%%%%%%%%%%%%%%%%%%
     %                                                                      %
     % You are using vdW-DF, which was implemented by the Thonhauser group. %
     % Please cite the following two papers that made this development      %
     % possible and the two reviews that describe the various versions:     %
     %                                                                      %
     %   T. Thonhauser et al., PRL 115, 136402 (2015).                      %
     %   T. Thonhauser et al., PRB 76, 125112 (2007).                       %
     %   K. Berland et al., Rep. Prog. Phys. 78, 066501 (2015).             %
     %   D.C. Langreth et al., J. Phys.: Condens. Matter 21, 084203 (2009). %
     %                                                                      %
     %                                                                      %
     % If you are calculating the stress with vdW-DF, please also cite:     %
     %                                                                      %
     %   R. Sabatini et al., J. Phys.: Condens. Matter 24, 424209 (2012).   %
     %                                                                      %
     %%%%%%%%%%%%%%%%%%%%%%%%%%%%%%%%%%%%%%%%%%%%%%%%%%%%%%%%%%%%%%%%%%%%%%%%

     Adding external electric field

     Computed dipole along edir(3) :
        Dipole              -10.5131 Ry au,        -26.7216 Debye
        Dipole field         -0.0198 Ry au,

        Potential amp.        1.8391 Ry
        Total length         46.3494 bohr

     Starting wfcs are  300 atomic wfcs
  @ DRIVER MODE: Message from server: STATUS
  @ DRIVER MODE: Message from server: POSDATA
  @ DRIVER MODE: Reading and sharing cell
  @ DRIVER MODE: Reading and sharing positions
  @ DRIVER MODE: Received positions

     Self-consistent Calculation

     iteration #  1     ecut=    29.40 Ry     beta= 0.05
     Davidson diagonalization with overlap
     c_bands:  2 eigenvalues not converged
     c_bands:  3 eigenvalues not converged
     c_bands:  1 eigenvalues not converged
     c_bands:  4 eigenvalues not converged
     c_bands:  4 eigenvalues not converged
     c_bands:  4 eigenvalues not converged
     c_bands:  1 eigenvalues not converged
     c_bands:  3 eigenvalues not converged
     c_bands:  4 eigenvalues not converged
     ethr =  1.00E-05,  avg # of iterations = 19.9

[...]

     total energy              =   -2479.41110098 Ry
     estimated scf accuracy    <    5441.09147083 Ry

     iteration #  2     ecut=    29.40 Ry     beta= 0.05
     Davidson diagonalization with overlap
     ethr =  1.00E-02,  avg # of iterations = 25.5

[...]

     iteration # 97     ecut=    29.40 Ry     beta= 0.05
     Davidson diagonalization with overlap
     ethr =  5.69E-11,  avg # of iterations =  9.5

[...]

     total energy              =   -2964.77941994 Ry
     estimated scf accuracy    <       0.00000010 Ry

     iteration # 98     ecut=    29.40 Ry     beta= 0.05
     Davidson diagonalization with overlap
     c_bands:  2 eigenvalues not converged
     ethr =  2.55E-11,  avg # of iterations = 13.5

     negative rho (up, down):  1.518E-02 0.000E+00

     Adding external electric field

     Computed dipole along edir(3) :
        Dipole                0.7098 Ry au,          1.8041 Debye
        Dipole field          0.0013 Ry au,

        Potential amp.       -0.1242 Ry
        Total length         46.3494 bohr

     End of self-consistent calculation

          k = 0.0000 0.0000 0.0000 ( 18029 PWs)   bands (ev):

   -55.7046 -55.6917 -55.6683 -55.6665 -55.6573 -55.6064 -55.5552 -55.5534
   -55.5410 -55.5208 -55.5077 -55.4865 -55.4855 -55.4738 -54.7724 -54.7383
   -32.2652 -32.1857 -32.1826 -32.0875 -32.0505 -32.0309 -32.0194 -32.0093
   -31.9807 -31.9455 -31.9354 -31.9205 -31.8962 -31.8891 -31.8817 -31.8628
   -31.8454 -31.8446 -31.8415 -31.8343 -31.8182 -31.8072 -31.8067 -31.7974
   -31.7954 -31.7800 -31.7772 -31.7488 -31.7369 -31.7231 -31.7117 -31.7108
   -31.7060 -31.7017 -31.6957 -31.6874 -31.6553 -31.6538 -31.6488 -31.6449
   -31.6186 -31.5624 -31.1840 -31.0826 -31.0609 -31.0003 -30.9139 -30.8029
   -21.1351 -19.2618 -16.5235 -16.2814 -16.1387 -16.0356 -15.9306 -15.7982
   -15.7113 -15.5878 -15.5246 -15.3977 -15.3583 -15.3532 -15.3463 -15.3180
   -15.2968 -15.2736 -15.2497 -15.2089 -15.2045 -15.2009 -15.1719 -15.1597
   -15.1022 -15.0894 -15.0457 -14.9275 -14.8759 -14.8149 -14.4968 -13.2731
   -13.1539 -10.3620  -7.2224  -5.6989  -4.7594  -4.0145  -3.9445  -3.8144
    -3.7173  -3.6486  -3.6115  -3.5435  -3.4639  -3.2609  -3.1305  -3.1224
    -2.9898  -2.9530  -2.9085  -2.8072  -2.7414  -2.6793  -2.6690  -2.5935
    -2.5891  -2.5809  -2.5676  -2.4756  -2.4694  -2.4205  -2.3791  -2.3000
    -2.2645  -2.1471  -2.1165  -2.1075  -2.0638  -2.0480  -2.0412  -2.0287
    -1.9792  -1.9534  -1.9357  -1.9342  -1.7923  -1.7504  -1.6047  -1.4793
    -1.4470  -1.4325  -1.3053  -1.2665  -1.2501  -1.1925  -1.1720  -1.1620
    -1.1230  -1.0420  -0.9591  -0.9354  -0.8628  -0.8198  -0.7155  -0.6215
    -0.5769  -0.5282  -0.5056  -0.4962  -0.4769  -0.4123  -0.3645  -0.2778
    -0.2238  -0.1609  -0.1338  -0.1270  -0.0724  -0.0422   0.0375   0.0845
     0.1189   0.1330   0.2188   0.2333   0.2459   0.2771   0.2796   0.3926
     0.4464   0.5034   0.5101   0.6584   0.8253   0.8509   0.9301   1.1449
     1.2533   1.2555   1.4166   1.4719   1.8384   1.8926   3.3829   3.4529
     3.4873   3.5016   3.5108   3.5887   3.8188   3.8708   3.9023   3.9212
     3.9306

[...]

          k = 0.0380-0.0419 0.0000 ( 17876 PWs)   bands (ev):

[...]

          k =-0.0760-0.0000 0.0000 ( 17886 PWs)   bands (ev):

[...]

          k =-0.0760-0.0839 0.0000 ( 17948 PWs)   bands (ev):

   -55.6891 -55.6836 -55.6766 -55.6723 -55.6648 -55.6001 -55.5596 -55.5399
   -55.5358 -55.5342 -55.4923 -55.4918 -55.4897 -55.4880 -54.7553 -54.7552
   -32.1076 -32.0755 -32.0644 -32.0027 -31.9986 -31.9799 -31.9706 -31.9617
   -31.9596 -31.9351 -31.9339 -31.9091 -31.8998 -31.8715 -31.8580 -31.8563
   -31.8549 -31.8464 -31.8415 -31.8375 -31.8296 -31.8221 -31.8050 -31.8022
   -31.7993 -31.7973 -31.7969 -31.7957 -31.7925 -31.7847 -31.7822 -31.7527
   -31.7384 -31.7380 -31.7224 -31.7133 -31.7114 -31.7061 -31.6807 -31.6759
   -31.6748 -31.6517 -31.0736 -31.0734 -30.9969 -30.9965 -30.9572 -30.9570
   -21.1338 -19.2613 -16.1544 -15.9593 -15.8088 -15.7244 -15.7178 -15.6587
   -15.5786 -15.5374 -15.4918 -15.4798 -15.4694 -15.4350 -15.4259 -15.4145
   -15.3519 -15.3017 -15.2983 -15.2828 -15.2335 -15.2260 -15.2155 -15.2099
   -15.2011 -15.1582 -15.1540 -15.1393 -15.1285 -14.9850 -14.8287 -13.2553
   -13.2546 -10.3653  -7.2200  -5.7019  -4.7386  -3.9438  -3.8728  -3.2346
    -3.2319  -2.9703  -2.9481  -2.8896  -2.8780  -2.8139  -2.7827  -2.7068
    -2.7004  -2.6554  -2.6149  -2.6066  -2.5936  -2.5694  -2.5361  -2.5232
    -2.4808  -2.4713  -2.4452  -2.4407  -2.4216  -2.4056  -2.3806  -2.3746
    -2.3424  -2.3223  -2.3145  -2.3109  -2.2342  -2.1716  -2.0486  -2.0268
    -1.9861  -1.9368  -1.9212  -1.8506  -1.8148  -1.8001  -1.7425  -1.7081
    -1.6819  -1.5083  -1.4966  -1.4761  -1.3851  -1.3524  -1.3400  -1.3121
    -1.2557  -1.2264  -1.2224  -1.1447  -1.0334  -1.0107  -0.9120  -0.8665
    -0.8653  -0.7770  -0.7432  -0.7046  -0.7026  -0.6658  -0.6091  -0.5874
    -0.5303  -0.5248  -0.4772  -0.4564  -0.4329  -0.4020  -0.2294  -0.1741
    -0.1186  -0.0213   0.0074   0.2349   0.2659   0.2731   0.3386   0.3694
     0.4752   0.4968   0.5598   0.5748   0.6759   0.7071   0.7243   0.7292
     0.7755   1.4785   1.6051   1.6077   1.7067   1.7102   3.5324   3.5464
     3.6480   3.6999   3.7373   3.8408   3.8897   3.9218   3.9296   3.9445
     4.0197

     the Fermi energy is     3.4309 ev

!    total energy              =   -2964.77942249 Ry
     estimated scf accuracy    <       0.00000006 Ry
     smearing contrib. (-TS)   =      -0.03745647 Ry
     internal energy E=F+TS    =   -2964.74196603 Ry

     The total energy is F=E-TS. E is the sum of the following terms:
     one-electron contribution =  -24112.48059655 Ry
     hartree contribution      =   12146.46030152 Ry
     xc contribution           =    -490.02750908 Ry
     ewald contribution        =    9491.30488738 Ry
     electric field correction =       0.00095070 Ry

     convergence has been achieved in  98 iterations

     Forces acting on atoms (cartesian axes, Ry/au):

     atom    1 type  1   force =    -0.00036016   -0.00001380    0.09252009
     atom    2 type  1   force =    -0.00033184    0.00120865   -0.18264856
     atom    3 type  2   force =     0.00043682    0.00022981   -0.02457368
     atom    4 type  2   force =     0.00073392    0.00044306    0.05162768
     atom    5 type  2   force =    -0.01463351   -0.00007378    0.00466779
     atom    6 type  2   force =     0.01551578   -0.00056722    0.00541968
     atom    7 type  1   force =    -0.00050136   -0.00016720    0.00008036
     atom    8 type  1   force =     0.00020847    0.00004005    0.00021159
     atom    9 type  2   force =    -0.00016591   -0.00017534   -0.00031865
     atom   10 type  2   force =     0.00006305   -0.00004222    0.00033026
     atom   11 type  2   force =    -0.00031659    0.00021020    0.00004912
     atom   12 type  2   force =     0.00038914    0.00007893   -0.00019763
     atom   13 type  1   force =    -0.00020056   -0.00025361    0.00024421
     atom   14 type  1   force =     0.00012343   -0.00021175   -0.00044385
     atom   15 type  2   force =    -0.00032158    0.00032927   -0.00012917
     atom   16 type  2   force =     0.00008779    0.00001810   -0.00025288
     atom   17 type  2   force =    -0.00008332   -0.00009418    0.00025145
     atom   18 type  2   force =     0.00013706   -0.00008420   -0.00026618
     atom   19 type  1   force =    -0.00103649    0.00006974   -0.00041875
     atom   20 type  1   force =     0.00041246    0.00010052    0.00001138
     atom   21 type  2   force =    -0.00009650    0.00005205    0.10491978
     atom   22 type  2   force =    -0.00033990   -0.00001266    0.00044787
     atom   23 type  2   force =    -0.06833731    0.00001762   -0.02693815
     atom   24 type  2   force =     0.06803431    0.00045192   -0.02701420
     atom   25 type  1   force =    -0.00030314   -0.00001397    0.09719653
     atom   26 type  1   force =    -0.00029761   -0.00119152   -0.18268612
     atom   27 type  2   force =     0.00035113    0.00023386   -0.02298156
     atom   28 type  2   force =     0.00081115    0.00042996    0.05201965
     atom   29 type  2   force =    -0.01461791    0.00064830    0.00459300
     atom   30 type  2   force =     0.01564295    0.00039843    0.00532121
     atom   31 type  1   force =    -0.00046831    0.00001066    0.00010767
     atom   32 type  1   force =     0.00020756    0.00007556    0.00019333
     atom   33 type  2   force =    -0.00008811    0.00012740    0.00015378
     atom   34 type  2   force =     0.00001181    0.00001346    0.00017057
     atom   35 type  2   force =    -0.00015563   -0.00030746    0.00013823
     atom   36 type  2   force =     0.00022769   -0.00019946   -0.00009128
     atom   37 type  1   force =    -0.00028242    0.00016918   -0.00045493
     atom   38 type  1   force =     0.00011934    0.00037568   -0.00034224
     atom   39 type  2   force =    -0.00035867   -0.00028022   -0.00020552
     atom   40 type  2   force =     0.00018377   -0.00008605   -0.00000823
     atom   41 type  2   force =    -0.00032690   -0.00015368   -0.00013054
     atom   42 type  2   force =     0.00036083   -0.00015812   -0.00062150
     atom   43 type  1   force =    -0.00094072   -0.00027060   -0.00001019
     atom   44 type  1   force =     0.00040363   -0.00065817    0.00006646
     atom   45 type  2   force =    -0.00007063    0.00005678    0.10480264
     atom   46 type  2   force =    -0.06832123   -0.00059351   -0.02693044
     atom   47 type  2   force =     0.06801724   -0.00012888   -0.02700618
     atom   48 type  3   force =     0.00881288    0.00067898    0.00222423
     atom   49 type  2   force =     0.00116970    0.00004321   -0.00001910
     atom   50 type  4   force =    -0.00998321   -0.00069249   -0.00258696
     atom   51 type  4   force =     0.00015294   -0.00004862   -0.00032020
     atom   52 type  2   force =     0.00007433   -0.00110749    0.00082625
     atom   53 type  4   force =    -0.00025865    0.00057900   -0.00040737
     atom   54 type  4   force =     0.00050896    0.00049581   -0.00059074

     Total force =     0.368731     Total SCF correction =     0.000892
  @ DRIVER MODE: Message from server: STATUS
  @ DRIVER MODE: Message from server: GETFORCE
  @ DRIVER MODE: Returning v,forces,stress,ensemble

     Writing output data file ./calc.save/
  @ DRIVER MODE: Message from server: EXIT
  @ DRIVE MODE: Exiting

     General routines

     Parallel routines

   This run was terminated on:  20:40:40  15Sep2021

   JOB DONE.