     Program PWSCF v.6.7GPU starts on 28Sep2021 at 18:12:13

     R & G space division:  proc/nbgrp/npool/nimage =       8
     Reading input from /storage/home/hcoda1/3/ntian30/research/carbon/CxH_vib/H2O_calc/ads_slab/CH3OHN2H2O_a/out_0049/pw.inp
Warning: card &CELL ignored
Warning: card   CELL_DYNAMICS='IPI', ignored
Warning: card / ignored

     Current dimensions of program PWSCF are:
     Max number of different atomic species (ntypx) = 10
     Max number of k-points (npk) =  40000
     Max angular momentum in pseudopotentials (lmaxx) =  3
     Presently no symmetry can be used with electric field

     Message from routine cell_base_init:
     DEPRECATED: use true lattice parameter, not A to a.u. conversion factor

     IMPORTANT: XC functional enforced from input :
     Exchange-correlation= BEEF-VDW
                           (   1   4  43  14   2   0   0)
     Any further DFT definition will be discarded
     Please, verify this is what you really want

  @ DRIVER MODE: Connecting to
 qe_1139763_3000313.sched-torque.pace.gatech.edu9on09_hg_scratch
  using UNIX socket
  @ DRIVER MODE: Message from server: STATUS
  @ DRIVER MODE: Message from server: INIT
  @ DRIVER MODE: Receiving replica           0          -1
  @ DRIVER MODE: Receiving encoded integer          25
  @ DRIVER MODE:  SCF:  T  FORCE:  T  STRESS:  F  VC:  F  ENSEMBLE:  F
  @ DRIVER MODE:  SCF:  T  FORCE:  T  STRESS:  F  VC:  F  ENSEMBLE:  F

     Using Slab Decomposition

     bravais-lattice index     =            0
     lattice parameter (alat)  =       1.8897  a.u.
     unit-cell volume          =    6658.9804 (a.u.)^3
     number of atoms/cell      =           58
     number of atomic types    =            5
     number of electrons       =       410.00
     number of Kohn-Sham states=          215
     kinetic-energy cutoff     =      29.3995  Ry
     charge density cutoff     =     293.9946  Ry
     scf convergence threshold =      7.3E-08
     mixing beta               =       0.0500
     number of iterations used =            8  plain     mixing
     Exchange-correlation= BEEF-VDW
                           (   1   4  43  14   2   0   0)

     celldm(1)=   1.889726  celldm(2)=   0.000000  celldm(3)=   0.000000
     celldm(4)=   0.000000  celldm(5)=   0.000000  celldm(6)=   0.000000

     crystal axes: (cart. coord. in units of alat)
               a(1) = (   6.579727   0.000000   0.000000 )
               a(2) = (  -0.000775   5.961596   0.000000 )
               a(3) = (   0.000000   0.000000  25.155947 )

     reciprocal axes: (cart. coord. in units 2 pi/alat)
               b(1) = (  0.151982  0.000020  0.000000 )
               b(2) = (  0.000000  0.167740  0.000000 )
               b(3) = (  0.000000  0.000000  0.039752 )

     PseudoPot. # 1 for Ti read from file:
     /storage/coda1/p-amedford6/0/shared/rich_project_chbe-medford/medford-share/data/pseudos_module/espresso/nninc/pbe/van/Ti.UPF
     MD5 check sum: 8e4df49b7f0d34bbd5052bf3f5ea0213
     Pseudo is Ultrasoft, Zval = 12.0
     Generated by new atomic code, or converted to UPF format
     Using radial grid of  851 points,  6 beta functions with:
                l(1) =   0
                l(2) =   0
                l(3) =   1
                l(4) =   1
                l(5) =   2
                l(6) =   2
     Q(r) pseudized with  8 coefficients,  rinner =    1.000   1.000   1.000
                                                       1.000   1.000

     PseudoPot. # 2 for O  read from file:
     /storage/coda1/p-amedford6/0/shared/rich_project_chbe-medford/medford-share/data/pseudos_module/espresso/nninc/pbe/van/O.UPF
     MD5 check sum: 78c19812648e8988a0fe644b0f25305e
     Pseudo is Ultrasoft, Zval =  6.0
     Generated by new atomic code, or converted to UPF format
     Using radial grid of  737 points,  4 beta functions with:
                l(1) =   0
                l(2) =   0
                l(3) =   1
                l(4) =   1
     Q(r) pseudized with  8 coefficients,  rinner =    0.800   0.800   0.800

     PseudoPot. # 3 for C  read from file:
     /storage/coda1/p-amedford6/0/shared/rich_project_chbe-medford/medford-share/data/pseudos_module/espresso/nninc/pbe/van/C.UPF
     MD5 check sum: 1a69bf6b8db32088f5b2163dbdb77a27
     Pseudo is Ultrasoft, Zval =  4.0
     Generated by new atomic code, or converted to UPF format
     Using radial grid of  721 points,  4 beta functions with:
                l(1) =   0
                l(2) =   0
                l(3) =   1
                l(4) =   1
     Q(r) pseudized with  8 coefficients,  rinner =    0.800   0.800   0.800

     PseudoPot. # 4 for H  read from file:
     /storage/coda1/p-amedford6/0/shared/rich_project_chbe-medford/medford-share/data/pseudos_module/espresso/nninc/pbe/van/H.UPF
     MD5 check sum: b5ee9d7bfd3a09ee7748110bda690ff7
     Pseudo is Ultrasoft, Zval =  1.0
     Generated by new atomic code, or converted to UPF format
     Using radial grid of  615 points,  1 beta functions with:
                l(1) =   0
     Q(r) pseudized with  8 coefficients,  rinner =    0.800

     PseudoPot. # 5 for N  read from file:
     /storage/coda1/p-amedford6/0/shared/rich_project_chbe-medford/medford-share/data/pseudos_module/espresso/nninc/pbe/van/N.UPF
     MD5 check sum: 90d10febe142ad51ac9d5be1deb811c4
     Pseudo is Ultrasoft, Zval =  5.0
     Generated by new atomic code, or converted to UPF format
     Using radial grid of  729 points,  4 beta functions with:
                l(1) =   0
                l(2) =   0
                l(3) =   1
                l(4) =   1
     Q(r) pseudized with  8 coefficients,  rinner =    0.800   0.800   0.800

     atomic species   valence    mass     pseudopotential
        Ti1           12.00    47.86700     Ti( 1.00)
        O1             6.00    15.99900     O ( 1.00)
        C1             4.00    12.01100     C ( 1.00)
        H1             1.00     1.00800     H ( 1.00)
        N1             5.00    14.00700     N ( 1.00)

     No symmetry found

   Cartesian axes

     site n.     atom                  positions (alat units)
         1           Ti1 tau(   1) = (   0.0004258   2.9801865   6.0000000  )
         2           Ti1 tau(   2) = (   3.2906075   1.4906267   6.0002472  )
         3           O1  tau(   3) = (   0.0006271   0.0005054   7.9858123  )
         4           O1  tau(   4) = (   3.2906025   0.0005020   7.3038282  )
         5           O1  tau(   5) = (   4.5942328   1.4918067   9.2879030  )
         6           O1  tau(   6) = (   1.9868534   1.4903216   9.2879459  )
         7           Ti1 tau(   7) = (   3.3250738   2.9918783   9.1599549  )
         8           Ti1 tau(   8) = (   0.0412716   1.4903975   9.2658274  )
         9           O1  tau(   9) = (   3.2852344   0.0116916  11.3753809  )
        10           O1  tau(  10) = (   6.5701620   0.0027176  10.6052010  )
        11           O1  tau(  11) = (   1.2758103   1.4969824  12.6410148  )
        12           O1  tau(  12) = (   5.2796941   1.4985041  12.6691897  )
        13           Ti1 tau(  13) = (   6.5531116   2.9870417  12.5348353  )
        14           Ti1 tau(  14) = (   3.2504356   1.4995581  12.5215122  )
        15           O1  tau(  15) = (   0.0383206   0.0046779  14.6787597  )
        16           O1  tau(  16) = (   3.2537876   0.0095675  14.0320577  )
        17           O1  tau(  17) = (   4.5855444   1.5609978  16.0639115  )
        18           O1  tau(  18) = (   2.0343745   1.5440679  16.2001998  )
        19           Ti1 tau(  19) = (   3.3058624   3.0043567  15.7064231  )
        20           Ti1 tau(  20) = (   6.5549511   1.4266458  15.8675638  )
        21           O1  tau(  21) = (   3.2904802   0.0005063   4.7018136  )
        22           O1  tau(  22) = (   6.4974171   0.0126247  17.2237355  )
        23           O1  tau(  23) = (   1.3043587   1.4918075   6.0039043  )
        24           O1  tau(  24) = (   5.2767064   1.4903225   6.0039473  )
        25           Ti1 tau(  25) = (   0.0000382   5.9609847   6.0000000  )
        26           Ti1 tau(  26) = (   3.2902200   4.4714249   6.0002472  )
        27           O1  tau(  27) = (   0.0002396   2.9813036   7.9858123  )
        28           O1  tau(  28) = (   3.2902150   2.9813002   7.3038282  )
        29           O1  tau(  29) = (   4.5938453   4.4726049   9.2879030  )
        30           O1  tau(  30) = (   1.9864658   4.4711199   9.2879459  )
        31           Ti1 tau(  31) = (   3.3194574   0.0113313   9.1541029  )
        32           Ti1 tau(  32) = (   0.0414074   4.4589881   9.2683624  )
        33           O1  tau(  33) = (   3.2821265   2.9896323  11.3676027  )
        34           O1  tau(  34) = (   6.5712111   2.9825298  10.6251173  )
        35           O1  tau(  35) = (   1.2751242   4.4805681  12.6359318  )
        36           O1  tau(  36) = (   5.2791817   4.4782367  12.6627471  )
        37           Ti1 tau(  37) = (   6.5506445   0.0032150  12.4806913  )
        38           Ti1 tau(  38) = (   3.2507345   4.4881811  12.5195668  )
        39           O1  tau(  39) = (   0.0469291   2.9928743  14.8464778  )
        40           O1  tau(  40) = (   3.2514374   2.9975957  13.9281162  )
        41           O1  tau(  41) = (   4.5866068   4.4203933  16.0984022  )
        42           O1  tau(  42) = (   2.0418857   4.4579080  16.2200674  )
        43           Ti1 tau(  43) = (   3.2648600   0.0292614  15.8571223  )
        44           Ti1 tau(  44) = (   6.5763064   4.6169283  15.9626260  )
        45           O1  tau(  45) = (   3.2900926   2.9813045   4.7018136  )
        46           O1  tau(  46) = (   1.3039711   4.4726057   6.0039043  )
        47           O1  tau(  47) = (   5.2763189   4.4711207   6.0039473  )
        48           C1  tau(  48) = (   6.0301898   2.9050411  18.9351799  )
        49           O1  tau(  49) = (   0.1575529   2.9516393  17.6723866  )
        50           H1  tau(  50) = (   4.9714676   2.8818909  18.6991823  )
        51           H1  tau(  51) = (   1.1132637   2.8218831  17.8130049  )
        52           H1  tau(  52) = (   6.2985093   1.9952365  19.4696065  )
        53           H1  tau(  53) = (   6.2732381   3.7939772  19.5169533  )
        54           N1  tau(  54) = (   4.8840950   3.1052494  22.6850861  )
        55           N1  tau(  55) = (   4.2680757   3.3403818  21.7970487  )
        56           O1  tau(  56) = (   3.8672584   0.1141246  18.3039653  )
        57           H1  tau(  57) = (   4.8407149   0.0692883  18.0716375  )
        58           H1  tau(  58) = (   3.6680196   5.2122673  18.6877519  )

     number of k points=    10  Fermi-Dirac smearing, width (Ry)=  0.0073
                       cart. coord. in units 2pi/alat
        k(    1) = (   0.0000000   0.0000000   0.0000000), wk =   0.1250000
        k(    2) = (   0.0000000   0.0419351   0.0000000), wk =   0.2500000
        k(    3) = (   0.0000000  -0.0838702   0.0000000), wk =   0.1250000
        k(    4) = (   0.0379955   0.0000049   0.0000000), wk =   0.2500000
        k(    5) = (   0.0379955   0.0419400   0.0000000), wk =   0.2500000
        k(    6) = (   0.0379955  -0.0838652   0.0000000), wk =   0.2500000
        k(    7) = (   0.0379955  -0.0419301   0.0000000), wk =   0.2500000
        k(    8) = (  -0.0759910  -0.0000099   0.0000000), wk =   0.1250000
        k(    9) = (  -0.0759910   0.0419252   0.0000000), wk =   0.2500000
        k(   10) = (  -0.0759910  -0.0838800   0.0000000), wk =   0.1250000

     Initial potential from superposition of free atoms

     starting charge  393.99913, renormalised to  410.00000

     negative rho (up, down):  9.553E-03 0.000E+00

     %%%%%%%%%%%%%%%%%%%%%%%%%%%%%%%%%%%%%%%%%%%%%%%%%%%%%%%%%%%%%%%%%%%%%%%%
     %                                                                      %
     % You are using vdW-DF, which was implemented by the Thonhauser group. %
     % Please cite the following two papers that made this development      %
     % possible and the two reviews that describe the various versions:     %
     %                                                                      %
     %   T. Thonhauser et al., PRL 115, 136402 (2015).                      %
     %   T. Thonhauser et al., PRB 76, 125112 (2007).                       %
     %   K. Berland et al., Rep. Prog. Phys. 78, 066501 (2015).             %
     %   D.C. Langreth et al., J. Phys.: Condens. Matter 21, 084203 (2009). %
     %                                                                      %
     %                                                                      %
     % If you are calculating the stress with vdW-DF, please also cite:     %
     %                                                                      %
     %   R. Sabatini et al., J. Phys.: Condens. Matter 24, 424209 (2012).   %
     %                                                                      %
     %%%%%%%%%%%%%%%%%%%%%%%%%%%%%%%%%%%%%%%%%%%%%%%%%%%%%%%%%%%%%%%%%%%%%%%%

     Adding external electric field

     Computed dipole along edir(3) :
        Dipole              -20.0784 Ry au,        -51.0342 Debye
        Dipole field         -0.0379 Ry au,

        Potential amp.        3.5124 Ry
        Total length         46.3494 bohr

     Starting wfcs are  310 atomic wfcs
  @ DRIVER MODE: Message from server: STATUS
  @ DRIVER MODE: Message from server: POSDATA
  @ DRIVER MODE: Reading and sharing cell
  @ DRIVER MODE: Reading and sharing positions
  @ DRIVER MODE: Received positions

     Self-consistent Calculation

     iteration #  1     ecut=    29.40 Ry     beta= 0.05
     Davidson diagonalization with overlap
     c_bands:  1 eigenvalues not converged
     c_bands:  1 eigenvalues not converged
     c_bands:  5 eigenvalues not converged
     c_bands:  1 eigenvalues not converged
     c_bands:  4 eigenvalues not converged
     c_bands:  3 eigenvalues not converged
     ethr =  1.00E-05,  avg # of iterations = 32.1

[...]

     total energy              =   -2098.63816583 Ry
     estimated scf accuracy    <   10668.23860342 Ry

     iteration #  2     ecut=    29.40 Ry     beta= 0.05
     Davidson diagonalization with overlap
     ethr =  1.00E-02,  avg # of iterations = 31.0

[...]

     iteration #100     ecut=    29.40 Ry     beta= 0.05
     Davidson diagonalization with overlap
     ethr =  5.65E-11,  avg # of iterations = 11.3

[...]

     total energy              =   -3007.66302367 Ry
     estimated scf accuracy    <       0.00000009 Ry

     iteration #102     ecut=    29.40 Ry     beta= 0.05
     Davidson diagonalization with overlap
     c_bands:  2 eigenvalues not converged
     c_bands:  1 eigenvalues not converged
     ethr =  2.21E-11,  avg # of iterations = 12.5

     negative rho (up, down):  1.050E-02 0.000E+00

     Adding external electric field

     Computed dipole along edir(3) :
        Dipole                1.2342 Ry au,          3.1371 Debye
        Dipole field          0.0023 Ry au,

        Potential amp.       -0.2159 Ry
        Total length         46.3494 bohr

     End of self-consistent calculation

          k = 0.0000 0.0000 0.0000 ( 18029 PWs)   bands (ev):

   -54.9337 -54.9097 -54.8977 -54.8753 -54.8610 -54.8553 -54.8282 -54.8095
   -54.7807 -54.7775 -54.7430 -54.7229 -54.6915 -54.6890 -53.9980 -53.9639
   -31.4995 -31.4744 -31.4053 -31.3128 -31.2530 -31.2478 -31.2357 -31.2339
   -31.1983 -31.1637 -31.1555 -31.1524 -31.1482 -31.1250 -31.1187 -31.1125
   -31.0968 -31.0774 -31.0715 -31.0701 -31.0632 -31.0550 -31.0322 -31.0262
   -31.0261 -31.0208 -31.0058 -31.0033 -31.0018 -30.9663 -30.9493 -30.9291
   -30.9277 -30.9268 -30.9184 -30.9180 -30.9072 -30.8765 -30.8629 -30.8585
   -30.8539 -30.8345 -30.4100 -30.3076 -30.2861 -30.2262 -30.1398 -30.0289
   -21.6302 -19.8082 -18.2427 -15.7669 -15.5208 -15.3817 -15.2843 -15.1605
   -15.0305 -14.9564 -14.8361 -14.7642 -14.6712 -14.6574 -14.6393 -14.6163
   -14.5841 -14.5581 -14.5010 -14.4961 -14.4414 -14.4379 -14.4270 -14.4164
   -14.3836 -14.3675 -14.3372 -14.3278 -14.1656 -14.0998 -14.0401 -13.8989
   -12.4988 -12.3795 -10.8241  -6.8800  -6.5546  -5.9670  -4.8574  -4.7871
    -4.7293  -4.6332  -3.5521  -3.1002  -2.9490  -2.9142  -2.8930  -2.8699
    -2.7455  -2.6592  -2.6276  -2.4696  -2.3712  -2.2362  -2.2087  -2.1770
    -2.1385  -2.0700  -2.0148  -1.9265  -1.8977  -1.8578  -1.8372  -1.8139
    -1.7991  -1.7720  -1.7420  -1.6688  -1.6322  -1.5481  -1.5321  -1.4445
    -1.3909  -1.3827  -1.3395  -1.2764  -1.2731  -1.2627  -1.2213  -1.2088
    -1.2004  -1.1900  -1.1838  -1.0213  -0.9773  -0.9437  -0.8204  -0.7099
    -0.6164  -0.6084  -0.5044  -0.4909  -0.4286  -0.4235  -0.3837  -0.3443
    -0.2821  -0.1857  -0.1271  -0.0800  -0.0682   0.0425   0.1080   0.1215
     0.1847   0.2593   0.2746   0.2961   0.3249   0.4124   0.4805   0.5222
     0.5569   0.6215   0.6312   0.6777   0.7076   0.7486   0.8342   0.8880
     0.8912   0.9787   0.9955   1.0090   1.0342   1.0399   1.1379   1.1714
     1.2165   1.2441   1.3956   1.4286   1.6218   1.6574   1.9174   2.0161
     2.0276   2.1890   2.6136   2.6682   4.1562   4.2242   4.2608   4.2681
     4.2827   4.3623   4.6446   4.6477   4.6640   4.6763   4.6842

[...]

          k = 0.0380-0.0419 0.0000 ( 17876 PWs)   bands (ev):

[...]

          k =-0.0760-0.0000 0.0000 ( 17886 PWs)   bands (ev):

[...]

          k =-0.0760-0.0839 0.0000 ( 17948 PWs)   bands (ev):

   -54.9166 -54.9145 -54.8942 -54.8906 -54.8555 -54.8513 -54.8209 -54.8170
   -54.7880 -54.7624 -54.7577 -54.7073 -54.7046 -54.6931 -53.9809 -53.9809
   -31.3870 -31.3084 -31.2981 -31.2220 -31.2185 -31.1959 -31.1890 -31.1871
   -31.1802 -31.1576 -31.1429 -31.1414 -31.1338 -31.1273 -31.1094 -31.0943
   -31.0784 -31.0765 -31.0682 -31.0669 -31.0654 -31.0641 -31.0584 -31.0530
   -31.0284 -31.0226 -31.0188 -31.0139 -31.0133 -31.0106 -31.0101 -31.0097
   -31.0089 -30.9805 -30.9718 -30.9605 -30.9593 -30.9324 -30.9301 -30.8942
   -30.8910 -30.8764 -30.2986 -30.2986 -30.2229 -30.2225 -30.1831 -30.1829
   -21.6301 -19.8046 -18.2416 -15.3424 -15.2285 -15.0626 -14.9542 -14.9444
   -14.9159 -14.8568 -14.8138 -14.7821 -14.7428 -14.7319 -14.7027 -14.6849
   -14.6796 -14.6217 -14.5379 -14.5324 -14.5186 -14.4831 -14.4561 -14.4421
   -14.4401 -14.4259 -14.3886 -14.3869 -14.3676 -14.3565 -14.3006 -14.2117
   -12.4809 -12.4801 -10.8267  -6.8792  -6.5567  -5.9700  -4.8546  -4.7940
    -4.7225  -4.6213  -3.5437  -2.7685  -2.5465  -2.4962  -2.4240  -2.2577
    -2.1776  -2.1566  -2.0810  -2.0570  -2.0218  -1.9432  -1.9394  -1.9054
    -1.8656  -1.8410  -1.8350  -1.8170  -1.7979  -1.7658  -1.7448  -1.7234
    -1.7102  -1.6951  -1.6482  -1.6394  -1.6036  -1.6001  -1.5853  -1.5737
    -1.5543  -1.5436  -1.4635  -1.4351  -1.3939  -1.3090  -1.2917  -1.1618
    -1.1562  -1.1112  -1.0740  -1.0355  -1.0167  -0.9933  -0.9704  -0.9397
    -0.9081  -0.7360  -0.7150  -0.6719  -0.6218  -0.6159  -0.5416  -0.5260
    -0.4717  -0.4390  -0.3502  -0.3087  -0.2693  -0.1596  -0.1338  -0.1214
     0.0170   0.0230   0.0679   0.0695   0.1113   0.1502   0.1627   0.1697
     0.2446   0.2770   0.3134   0.3394   0.3630   0.5412   0.5773   0.6360
     0.7239   0.7437   0.9223   0.9519   0.9961   1.0771   1.1386   1.1928
     1.2146   1.3210   1.3306   1.3535   1.4456   1.4941   1.4953   1.5252
     2.3789   2.3819   2.4826   2.4855   4.2804   4.4114   4.4177   4.4976
     4.5714   4.6624   4.6643   4.6788   4.7092   4.7173   4.7193

     the Fermi energy is     4.2122 ev

!    total energy              =   -3007.66302795 Ry
     estimated scf accuracy    <       0.00000004 Ry
     smearing contrib. (-TS)   =      -0.03685395 Ry
     internal energy E=F+TS    =   -3007.62617399 Ry

     The total energy is F=E-TS. E is the sum of the following terms:
     one-electron contribution =  -22338.95705557 Ry
     hartree contribution      =   11271.27693843 Ry
     xc contribution           =    -502.07451687 Ry
     ewald contribution        =    8562.12558533 Ry
     electric field correction =       0.00287469 Ry

     convergence has been achieved in 102 iterations

     Forces acting on atoms (cartesian axes, Ry/au):

     atom    1 type  1   force =    -0.00027555   -0.00001605    0.09252460
     atom    2 type  1   force =    -0.00013349    0.00115294   -0.18321714
     atom    3 type  2   force =     0.00054966   -0.00040166   -0.02389362
     atom    4 type  2   force =     0.00079521    0.00021046    0.05085180
     atom    5 type  2   force =    -0.01547331   -0.00014522    0.00438386
     atom    6 type  2   force =     0.01417901   -0.00033021    0.00506644
     atom    7 type  1   force =    -0.00010835    0.00020894    0.00003754
     atom    8 type  1   force =    -0.00006716    0.00015705   -0.00001353
     atom    9 type  2   force =     0.00006943    0.00004546    0.00013820
     atom   10 type  2   force =    -0.00000028    0.00001816   -0.00004618
     atom   11 type  2   force =     0.00017614    0.00002206   -0.00013235
     atom   12 type  2   force =     0.00003490    0.00004041   -0.00005458
     atom   13 type  1   force =     0.00016990    0.00011690   -0.00006116
     atom   14 type  1   force =     0.00027156    0.00014335   -0.00011880
     atom   15 type  2   force =     0.00027912    0.00038806    0.00006159
     atom   16 type  2   force =     0.00016241   -0.00001804    0.00007960
     atom   17 type  2   force =     0.00001872    0.00006915    0.00023806
     atom   18 type  2   force =     0.00010957    0.00008622    0.00016855
     atom   19 type  1   force =    -0.00001251   -0.00010154    0.00010737
     atom   20 type  1   force =     0.00023497    0.00011175   -0.00035796
     atom   21 type  2   force =     0.00002444    0.00001495    0.10486181
     atom   22 type  2   force =    -0.00098600    0.00004932    0.00085179
     atom   23 type  2   force =    -0.06803721   -0.00010862   -0.02682735
     atom   24 type  2   force =     0.06790222    0.00035028   -0.02687028
     atom   25 type  1   force =    -0.00011920   -0.00002640    0.09597550
     atom   26 type  1   force =    -0.00011225   -0.00144795   -0.18314128
     atom   27 type  2   force =     0.00049908   -0.00019449   -0.02270149
     atom   28 type  2   force =     0.00086191    0.00017962    0.05124352
     atom   29 type  2   force =    -0.01539089    0.00050615    0.00455544
     atom   30 type  2   force =     0.01413515    0.00078172    0.00525542
     atom   31 type  1   force =    -0.00009818    0.00005434   -0.00001451
     atom   32 type  1   force =    -0.00007159    0.00017192   -0.00005301
     atom   33 type  2   force =     0.00012736   -0.00002997    0.00019161
     atom   34 type  2   force =    -0.00000279    0.00007220    0.00003680
     atom   35 type  2   force =     0.00013267   -0.00000863   -0.00002853
     atom   36 type  2   force =     0.00007994   -0.00000858    0.00009729
     atom   37 type  1   force =     0.00015736    0.00006545   -0.00013279
     atom   38 type  1   force =     0.00015524   -0.00001110    0.00003957
     atom   39 type  2   force =     0.00013439   -0.00007694   -0.00013574
     atom   40 type  2   force =     0.00003110   -0.00018250    0.00003278
     atom   41 type  2   force =     0.00027611    0.00004032    0.00011252
     atom   42 type  2   force =    -0.00017033   -0.00007016   -0.00002287
     atom   43 type  1   force =    -0.00025237   -0.00027077    0.00141194
     atom   44 type  1   force =     0.00015694   -0.00013945    0.00011112
     atom   45 type  2   force =     0.00003055    0.00002040    0.10482054
     atom   46 type  2   force =    -0.06804929   -0.00051530   -0.02681732
     atom   47 type  2   force =     0.06791319   -0.00009525   -0.02689716
     atom   48 type  3   force =    -0.00010260   -0.00007978   -0.00029518
     atom   49 type  2   force =    -0.00032500   -0.00011897    0.00010850
     atom   50 type  4   force =    -0.00011879   -0.00041639    0.00007545
     atom   51 type  4   force =     0.00013212   -0.00012901    0.00008137
     atom   52 type  4   force =     0.00031587   -0.00036148    0.00007803
     atom   53 type  4   force =     0.00010500    0.00016223   -0.00017112
     atom   54 type  5   force =    -0.00093501    0.00004426   -0.00108875
     atom   55 type  5   force =     0.00037415   -0.00007739    0.00021145
     atom   56 type  2   force =     0.01823200    0.00297968   -0.00592367
     atom   57 type  4   force =    -0.01459349    0.00136923    0.00279122
     atom   58 type  4   force =    -0.00339174   -0.00425111    0.00241508

     Total force =     0.368985     Total SCF correction =     0.000458
  @ DRIVER MODE: Message from server: STATUS
  @ DRIVER MODE: Message from server: GETFORCE
  @ DRIVER MODE: Returning v,forces,stress,ensemble

     Writing output data file ./calc.save/
  @ DRIVER MODE: Message from server: EXIT
  @ DRIVE MODE: Exiting

     General routines

     Parallel routines

   This run was terminated on:  18:46:44  28Sep2021

   JOB DONE.