     Program PWSCF v.6.7GPU starts on 16Sep2021 at 10: 0: 3

     R & G space division:  proc/nbgrp/npool/nimage =      10
     Reading input from /storage/home/hcoda1/3/ntian30/research/carbon/CxH_vib/H2O_calc/ads_slab/CH3NHNHH2O_a/out_0054/pw.inp
Warning: card &CELL ignored
Warning: card   CELL_DYNAMICS='IPI', ignored
Warning: card / ignored

     Current dimensions of program PWSCF are:
     Max number of different atomic species (ntypx) = 10
     Max number of k-points (npk) =  40000
     Max angular momentum in pseudopotentials (lmaxx) =  3
     Presently no symmetry can be used with electric field

     Message from routine cell_base_init:
     DEPRECATED: use true lattice parameter, not A to a.u. conversion factor

     IMPORTANT: XC functional enforced from input :
     Exchange-correlation= BEEF-VDW
                           (   1   4  43  14   2   0   0)
     Any further DFT definition will be discarded
     Please, verify this is what you really want

  @ DRIVER MODE: Connecting to
 qe_1139763_2852620.sched-torque.pace.gatech.edu6z4vrw12_scratch
  using UNIX socket
  @ DRIVER MODE: Message from server: STATUS
  @ DRIVER MODE: Message from server: INIT
  @ DRIVER MODE: Receiving replica           0          -1
  @ DRIVER MODE: Receiving encoded integer          25
  @ DRIVER MODE:  SCF:  T  FORCE:  T  STRESS:  F  VC:  F  ENSEMBLE:  F
  @ DRIVER MODE:  SCF:  T  FORCE:  T  STRESS:  F  VC:  F  ENSEMBLE:  F

     Using Slab Decomposition

     bravais-lattice index     =            0
     lattice parameter (alat)  =       1.8897  a.u.
     unit-cell volume          =    6658.9804 (a.u.)^3
     number of atoms/cell      =           58
     number of atomic types    =            5
     number of electrons       =       405.00
     number of Kohn-Sham states=          212
     kinetic-energy cutoff     =      29.3995  Ry
     charge density cutoff     =     293.9946  Ry
     scf convergence threshold =      7.3E-08
     mixing beta               =       0.0500
     number of iterations used =            8  plain     mixing
     Exchange-correlation= BEEF-VDW
                           (   1   4  43  14   2   0   0)

     celldm(1)=   1.889726  celldm(2)=   0.000000  celldm(3)=   0.000000
     celldm(4)=   0.000000  celldm(5)=   0.000000  celldm(6)=   0.000000

     crystal axes: (cart. coord. in units of alat)
               a(1) = (   6.579727   0.000000   0.000000 )
               a(2) = (  -0.000775   5.961596   0.000000 )
               a(3) = (   0.000000   0.000000  25.155947 )

     reciprocal axes: (cart. coord. in units 2 pi/alat)
               b(1) = (  0.151982  0.000020  0.000000 )
               b(2) = (  0.000000  0.167740  0.000000 )
               b(3) = (  0.000000  0.000000  0.039752 )

     PseudoPot. # 1 for Ti read from file:
     /storage/coda1/p-amedford6/0/shared/rich_project_chbe-medford/medford-share/data/pseudos_module/espresso/nninc/pbe/van/Ti.UPF
     MD5 check sum: 8e4df49b7f0d34bbd5052bf3f5ea0213
     Pseudo is Ultrasoft, Zval = 12.0
     Generated by new atomic code, or converted to UPF format
     Using radial grid of  851 points,  6 beta functions with:
                l(1) =   0
                l(2) =   0
                l(3) =   1
                l(4) =   1
                l(5) =   2
                l(6) =   2
     Q(r) pseudized with  8 coefficients,  rinner =    1.000   1.000   1.000
                                                       1.000   1.000

     PseudoPot. # 2 for O  read from file:
     /storage/coda1/p-amedford6/0/shared/rich_project_chbe-medford/medford-share/data/pseudos_module/espresso/nninc/pbe/van/O.UPF
     MD5 check sum: 78c19812648e8988a0fe644b0f25305e
     Pseudo is Ultrasoft, Zval =  6.0
     Generated by new atomic code, or converted to UPF format
     Using radial grid of  737 points,  4 beta functions with:
                l(1) =   0
                l(2) =   0
                l(3) =   1
                l(4) =   1
     Q(r) pseudized with  8 coefficients,  rinner =    0.800   0.800   0.800

     PseudoPot. # 3 for N  read from file:
     /storage/coda1/p-amedford6/0/shared/rich_project_chbe-medford/medford-share/data/pseudos_module/espresso/nninc/pbe/van/N.UPF
     MD5 check sum: 90d10febe142ad51ac9d5be1deb811c4
     Pseudo is Ultrasoft, Zval =  5.0
     Generated by new atomic code, or converted to UPF format
     Using radial grid of  729 points,  4 beta functions with:
                l(1) =   0
                l(2) =   0
                l(3) =   1
                l(4) =   1
     Q(r) pseudized with  8 coefficients,  rinner =    0.800   0.800   0.800

     PseudoPot. # 4 for C  read from file:
     /storage/coda1/p-amedford6/0/shared/rich_project_chbe-medford/medford-share/data/pseudos_module/espresso/nninc/pbe/van/C.UPF
     MD5 check sum: 1a69bf6b8db32088f5b2163dbdb77a27
     Pseudo is Ultrasoft, Zval =  4.0
     Generated by new atomic code, or converted to UPF format
     Using radial grid of  721 points,  4 beta functions with:
                l(1) =   0
                l(2) =   0
                l(3) =   1
                l(4) =   1
     Q(r) pseudized with  8 coefficients,  rinner =    0.800   0.800   0.800

     PseudoPot. # 5 for H  read from file:
     /storage/coda1/p-amedford6/0/shared/rich_project_chbe-medford/medford-share/data/pseudos_module/espresso/nninc/pbe/van/H.UPF
     MD5 check sum: b5ee9d7bfd3a09ee7748110bda690ff7
     Pseudo is Ultrasoft, Zval =  1.0
     Generated by new atomic code, or converted to UPF format
     Using radial grid of  615 points,  1 beta functions with:
                l(1) =   0
     Q(r) pseudized with  8 coefficients,  rinner =    0.800

     atomic species   valence    mass     pseudopotential
        Ti1           12.00    47.86700     Ti( 1.00)
        O1             6.00    15.99900     O ( 1.00)
        N1             5.00    14.00700     N ( 1.00)
        C1             4.00    12.01100     C ( 1.00)
        H1             1.00     1.00800     H ( 1.00)

     No symmetry found

   Cartesian axes

     site n.     atom                  positions (alat units)
         1           Ti1 tau(   1) = (   0.0004258   2.9801865   6.0000000  )
         2           Ti1 tau(   2) = (   3.2906075   1.4906267   6.0002472  )
         3           O1  tau(   3) = (   0.0006271   0.0005054   7.9858123  )
         4           O1  tau(   4) = (   3.2906025   0.0005020   7.3038282  )
         5           O1  tau(   5) = (   4.5942328   1.4918067   9.2879030  )
         6           O1  tau(   6) = (   1.9868534   1.4903216   9.2879459  )
         7           Ti1 tau(   7) = (   3.2907910   2.8959150   9.1758416  )
         8           Ti1 tau(   8) = (   0.0015273   1.4827037   9.2680791  )
         9           O1  tau(   9) = (   3.2925356   5.9605122  11.3387169  )
        10           O1  tau(  10) = (   0.0116148   5.9584955  10.6183126  )
        11           O1  tau(  11) = (   1.2897729   1.4809555  12.6268520  )
        12           O1  tau(  12) = (   5.2791511   1.4810064  12.6173870  )
        13           Ti1 tau(  13) = (   0.0595640   3.0140846  12.5912772  )
        14           Ti1 tau(  14) = (   3.3761946   1.4800080  12.4968112  )
        15           O1  tau(  15) = (   6.5629824   0.0009262  14.6613707  )
        16           O1  tau(  16) = (   3.3123588   5.9604043  13.9421911  )
        17           O1  tau(  17) = (   4.5376415   1.5680301  16.0260299  )
        18           O1  tau(  18) = (   2.0142527   1.4857506  15.9764776  )
        19           Ti1 tau(  19) = (   3.2467940   3.0138708  15.6952036  )
        20           Ti1 tau(  20) = (   6.5376764   1.5432071  15.7832198  )
        21           O1  tau(  21) = (   3.2904802   0.0005063   4.7018136  )
        22           O1  tau(  22) = (   6.4898080   0.0110182  17.2547379  )
        23           O1  tau(  23) = (   1.3043587   1.4918075   6.0039043  )
        24           O1  tau(  24) = (   5.2767064   1.4903225   6.0039473  )
        25           Ti1 tau(  25) = (   0.0000382   5.9609847   6.0000000  )
        26           Ti1 tau(  26) = (   3.2902200   4.4714249   6.0002472  )
        27           O1  tau(  27) = (   0.0002396   2.9813036   7.9858123  )
        28           O1  tau(  28) = (   3.2902150   2.9813002   7.3038282  )
        29           O1  tau(  29) = (   4.5938453   4.4726049   9.2879030  )
        30           O1  tau(  30) = (   1.9864658   4.4711199   9.2879459  )
        31           Ti1 tau(  31) = (   3.2891106   5.8743827   9.1763621  )
        32           Ti1 tau(  32) = (   0.0006254   4.4649316   9.2693709  )
        33           O1  tau(  33) = (   3.2967638   2.9790471  11.3409087  )
        34           O1  tau(  34) = (   0.0092240   2.9805883  10.6323155  )
        35           O1  tau(  35) = (   1.2869154   4.4778632  12.6304858  )
        36           O1  tau(  36) = (   5.2845859   4.4648683  12.6187650  )
        37           Ti1 tau(  37) = (   0.0627082   0.0241251  12.5486904  )
        38           Ti1 tau(  38) = (   3.3788516   4.4738568  12.4976958  )
        39           O1  tau(  39) = (   6.5772583   2.9562949  14.6416036  )
        40           O1  tau(  40) = (   3.2725681   2.9944745  13.9013672  )
        41           O1  tau(  41) = (   4.5452577   4.4055011  16.0651929  )
        42           O1  tau(  42) = (   2.0228361   4.5129635  16.0417754  )
        43           Ti1 tau(  43) = (   3.2583029   0.0391736  15.7773877  )
        44           Ti1 tau(  44) = (   6.5476622   4.6515957  16.1089089  )
        45           O1  tau(  45) = (   3.2900926   2.9813045   4.7018136  )
        46           O1  tau(  46) = (   1.3039711   4.4726057   6.0039043  )
        47           O1  tau(  47) = (   5.2763189   4.4711207   6.0039473  )
        48           N1  tau(  48) = (   1.2275869   2.8250850  18.3327965  )
        49           N1  tau(  49) = (   0.1007212   2.9268546  17.4424539  )
        50           C1  tau(  50) = (   0.9834745   3.5098297  19.5973225  )
        51           H1  tau(  51) = (   0.0800711   3.1483545  20.1177682  )
        52           H1  tau(  52) = (   1.8428167   3.3484677  20.2521386  )
        53           H1  tau(  53) = (   0.8645268   4.5787652  19.4145101  )
        54           H1  tau(  54) = (   1.4038961   1.8348574  18.5000659  )
        55           H1  tau(  55) = (   5.8167727   2.7947134  17.9807349  )
        56           O1  tau(  56) = (   3.6251350   0.0523402  18.1752986  )
        57           H1  tau(  57) = (   4.6063402   0.0342754  18.1216558  )
        58           H1  tau(  58) = (   3.3562690   5.1322054  18.4688733  )

     number of k points=    10  Fermi-Dirac smearing, width (Ry)=  0.0073
                       cart. coord. in units 2pi/alat
        k(    1) = (   0.0000000   0.0000000   0.0000000), wk =   0.1250000
        k(    2) = (   0.0000000   0.0419351   0.0000000), wk =   0.2500000
        k(    3) = (   0.0000000  -0.0838702   0.0000000), wk =   0.1250000
        k(    4) = (   0.0379955   0.0000049   0.0000000), wk =   0.2500000
        k(    5) = (   0.0379955   0.0419400   0.0000000), wk =   0.2500000
        k(    6) = (   0.0379955  -0.0838652   0.0000000), wk =   0.2500000
        k(    7) = (   0.0379955  -0.0419301   0.0000000), wk =   0.2500000
        k(    8) = (  -0.0759910  -0.0000099   0.0000000), wk =   0.1250000
        k(    9) = (  -0.0759910   0.0419252   0.0000000), wk =   0.2500000
        k(   10) = (  -0.0759910  -0.0838800   0.0000000), wk =   0.1250000

     Initial potential from superposition of free atoms

     starting charge  388.99913, renormalised to  405.00000

     negative rho (up, down):  1.445E-02 0.000E+00

     %%%%%%%%%%%%%%%%%%%%%%%%%%%%%%%%%%%%%%%%%%%%%%%%%%%%%%%%%%%%%%%%%%%%%%%%
     %                                                                      %
     % You are using vdW-DF, which was implemented by the Thonhauser group. %
     % Please cite the following two papers that made this development      %
     % possible and the two reviews that describe the various versions:     %
     %                                                                      %
     %   T. Thonhauser et al., PRL 115, 136402 (2015).                      %
     %   T. Thonhauser et al., PRB 76, 125112 (2007).                       %
     %   K. Berland et al., Rep. Prog. Phys. 78, 066501 (2015).             %
     %   D.C. Langreth et al., J. Phys.: Condens. Matter 21, 084203 (2009). %
     %                                                                      %
     %                                                                      %
     % If you are calculating the stress with vdW-DF, please also cite:     %
     %                                                                      %
     %   R. Sabatini et al., J. Phys.: Condens. Matter 24, 424209 (2012).   %
     %                                                                      %
     %%%%%%%%%%%%%%%%%%%%%%%%%%%%%%%%%%%%%%%%%%%%%%%%%%%%%%%%%%%%%%%%%%%%%%%%

     Adding external electric field

     Computed dipole along edir(3) :
        Dipole              -14.1548 Ry au,        -35.9778 Debye
        Dipole field         -0.0267 Ry au,

        Potential amp.        2.4762 Ry
        Total length         46.3494 bohr

     Starting wfcs are  307 atomic wfcs
  @ DRIVER MODE: Message from server: STATUS
  @ DRIVER MODE: Message from server: POSDATA
  @ DRIVER MODE: Reading and sharing cell
  @ DRIVER MODE: Reading and sharing positions
  @ DRIVER MODE: Received positions

     Self-consistent Calculation

     iteration #  1     ecut=    29.40 Ry     beta= 0.05
     Davidson diagonalization with overlap
     c_bands:  5 eigenvalues not converged
     c_bands:  1 eigenvalues not converged
     c_bands:  1 eigenvalues not converged
     c_bands:  3 eigenvalues not converged
     c_bands:  2 eigenvalues not converged
     ethr =  1.00E-05,  avg # of iterations = 29.4

[...]

     total energy              =   -2232.19096532 Ry
     estimated scf accuracy    <    8446.99473100 Ry

     iteration #  2     ecut=    29.40 Ry     beta= 0.05
     Davidson diagonalization with overlap
     ethr =  1.00E-02,  avg # of iterations = 31.4

[...]

     iteration # 84     ecut=    29.40 Ry     beta= 0.05
     Davidson diagonalization with overlap
     c_bands:  1 eigenvalues not converged
     c_bands:  1 eigenvalues not converged
     c_bands:  1 eigenvalues not converged
     ethr =  4.69E-11,  avg # of iterations = 16.5

[...]

     total energy              =   -2976.50554286 Ry
     estimated scf accuracy    <       0.00000016 Ry

     iteration # 85     ecut=    29.40 Ry     beta= 0.05
     Davidson diagonalization with overlap
     ethr =  4.03E-11,  avg # of iterations =  3.2

     negative rho (up, down):  1.504E-02 0.000E+00

     Adding external electric field

     Computed dipole along edir(3) :
        Dipole                0.9768 Ry au,          2.4829 Debye
        Dipole field          0.0018 Ry au,

        Potential amp.       -0.1709 Ry
        Total length         46.3494 bohr

     End of self-consistent calculation

          k = 0.0000 0.0000 0.0000 ( 18029 PWs)   bands (ev):

   -55.5162 -55.4859 -55.4822 -55.4535 -55.4497 -55.3644 -55.3336 -55.3320
   -55.3293 -55.2997 -55.2984 -55.2647 -55.0549 -54.8895 -54.4991 -54.4650
   -32.0302 -32.0000 -31.8890 -31.8656 -31.8317 -31.8088 -31.7907 -31.7886
   -31.7607 -31.7174 -31.7069 -31.6864 -31.6837 -31.6684 -31.6629 -31.6410
   -31.6218 -31.6163 -31.6154 -31.5829 -31.5732 -31.5643 -31.5376 -31.5265
   -31.5238 -31.5222 -31.5189 -31.5131 -31.4980 -31.4891 -31.4870 -31.4771
   -31.4746 -31.4631 -31.4518 -31.4426 -31.4107 -31.3109 -31.2651 -31.1532
   -31.1445 -31.0803 -30.9063 -30.8176 -30.7952 -30.7230 -30.6365 -30.5254
   -18.7197 -16.5565 -16.2263 -15.9891 -15.7667 -15.6735 -15.6311 -15.4346
   -15.3402 -15.2553 -15.1352 -15.0837 -15.0582 -15.0504 -15.0369 -15.0105
   -14.9777 -14.9713 -14.9681 -14.9440 -14.9244 -14.8733 -14.8665 -14.8603
   -14.7666 -14.7030 -14.6680 -14.6546 -14.6452 -14.5797 -14.2051 -13.0011
   -12.8846 -11.6373  -8.8644  -6.4687  -5.1529  -4.2771  -3.6968  -3.6000
    -3.4726  -3.4250  -3.3726  -3.3478  -3.1563  -3.0812  -2.9339  -2.7767
    -2.7031  -2.6637  -2.6316  -2.5923  -2.5601  -2.4390  -2.4133  -2.3365
    -2.3245  -2.3133  -2.2813  -2.2718  -2.2570  -2.2321  -2.1627  -2.1530
    -2.0680  -1.9541  -1.9060  -1.8914  -1.8723  -1.8315  -1.7922  -1.7800
    -1.7673  -1.7487  -1.7358  -1.6981  -1.5816  -1.5315  -1.4499  -1.3715
    -1.3020  -1.2124  -1.1373  -1.1082  -1.0401  -1.0153  -0.9563  -0.9317
    -0.9159  -0.9115  -0.7943  -0.6856  -0.6673  -0.5979  -0.5372  -0.4601
    -0.4164  -0.3908  -0.3192  -0.2887  -0.2780  -0.2647  -0.2378  -0.2227
    -0.1646  -0.0199   0.0572   0.0754   0.1344   0.1751   0.2265   0.2520
     0.2801   0.3270   0.3590   0.3989   0.4489   0.4522   0.4644   0.4884
     0.5026   0.6623   0.7172   0.7504   0.7760   0.8246   0.9378   0.9798
     1.1334   1.2040   1.2697   1.4495   1.5235   1.6045   1.7151   2.0676
     2.0949   2.1407   3.6095   3.7019   3.7429   3.7642   3.8513   3.8537
     4.0646   4.1098   4.1177   4.1843

[...]

          k = 0.0380-0.0419 0.0000 ( 17876 PWs)   bands (ev):

[...]

          k =-0.0760-0.0000 0.0000 ( 17886 PWs)   bands (ev):

[...]

          k =-0.0760-0.0839 0.0000 ( 17948 PWs)   bands (ev):

   -55.4995 -55.4987 -55.4700 -55.4654 -55.4509 -55.3501 -55.3436 -55.3344
   -55.3166 -55.3161 -55.2827 -55.2806 -55.0533 -54.8909 -54.4820 -54.4819
   -31.8437 -31.8269 -31.8155 -31.8149 -31.7946 -31.7938 -31.7543 -31.7473
   -31.7386 -31.7103 -31.6992 -31.6807 -31.6653 -31.6631 -31.6374 -31.6356
   -31.6330 -31.6309 -31.6228 -31.6218 -31.6195 -31.6182 -31.6177 -31.5660
   -31.5577 -31.5513 -31.5432 -31.5329 -31.5184 -31.5173 -31.5129 -31.5085
   -31.4981 -31.4957 -31.4904 -31.4884 -31.4160 -31.3137 -31.2604 -31.2144
   -31.1557 -31.1079 -30.8079 -30.8078 -30.7191 -30.7189 -30.6798 -30.6798
   -18.7183 -16.5327 -15.6632 -15.5924 -15.4762 -15.4472 -15.3875 -15.3377
   -15.3196 -15.2504 -15.2145 -15.2022 -15.1501 -15.1474 -15.0996 -15.0761
   -15.0492 -15.0454 -15.0303 -14.9880 -14.9769 -14.9616 -14.9575 -14.9540
   -14.8763 -14.8410 -14.8368 -14.8315 -14.7626 -14.6283 -14.3537 -12.9865
   -12.9863 -11.6442  -8.8733  -6.4645  -5.1564  -4.2717  -3.6370  -3.0543
    -2.9485  -2.7870  -2.7250  -2.6444  -2.6437  -2.6010  -2.4728  -2.4511
    -2.4113  -2.3850  -2.3540  -2.3448  -2.3354  -2.3281  -2.3190  -2.3053
    -2.2925  -2.2529  -2.2076  -2.1921  -2.1834  -2.1777  -2.1639  -2.1497
    -2.1345  -2.1322  -2.0952  -2.0677  -2.0401  -2.0038  -1.9490  -1.7503
    -1.7222  -1.7020  -1.6720  -1.6624  -1.6506  -1.6172  -1.5789  -1.5688
    -1.4960  -1.4085  -1.3163  -1.2417  -1.2090  -1.1961  -1.1263  -1.0407
    -0.9993  -0.9611  -0.9238  -0.8628  -0.8039  -0.7664  -0.7291  -0.6481
    -0.6289  -0.6198  -0.5585  -0.5415  -0.4821  -0.4739  -0.3949  -0.3524
    -0.3166  -0.2708  -0.2431  -0.2369  -0.2179  -0.1841  -0.1759  -0.1226
    -0.0053   0.0034   0.0229   0.1282   0.2163   0.4553   0.5123   0.5443
     0.6249   0.6874   0.7494   0.7700   0.7915   0.7954   0.8311   0.8928
     1.0061   1.0158   1.0546   1.1428   1.1725   1.8867   1.8876   1.9605
     1.9607   2.0708   3.9216   3.9479   3.9738   4.0093   4.1103   4.1274
     4.1497   4.1518   4.2656   4.2863

     the Fermi energy is     3.6148 ev

!    total energy              =   -2976.50555152 Ry
     estimated scf accuracy    <       0.00000007 Ry
     smearing contrib. (-TS)   =      -0.02132740 Ry
     internal energy E=F+TS    =   -2976.48422412 Ry

     The total energy is F=E-TS. E is the sum of the following terms:
     one-electron contribution =  -23889.05112652 Ry
     hartree contribution      =   12040.99292828 Ry
     xc contribution           =    -495.75522809 Ry
     ewald contribution        =    9367.32740150 Ry
     electric field correction =       0.00180071 Ry

     convergence has been achieved in  85 iterations

     Forces acting on atoms (cartesian axes, Ry/au):

     atom    1 type  1   force =     0.00015902   -0.00027555    0.09583849
     atom    2 type  1   force =    -0.00022558   -0.00063225   -0.17572356
     atom    3 type  2   force =     0.00006374   -0.00015018   -0.02382256
     atom    4 type  2   force =     0.00006556   -0.00154503    0.05351716
     atom    5 type  2   force =    -0.01127176   -0.00076104    0.00356289
     atom    6 type  2   force =     0.01297313    0.00005827    0.00268641
     atom    7 type  1   force =    -0.00096041    0.00064927   -0.00792459
     atom    8 type  1   force =     0.00042879    0.00624371    0.02298277
     atom    9 type  2   force =    -0.00005128   -0.00031759   -0.00094026
     atom   10 type  2   force =    -0.00136457    0.00127729   -0.01516266
     atom   11 type  2   force =    -0.00030417    0.00024360   -0.00025513
     atom   12 type  2   force =    -0.00022706    0.00022215   -0.00035278
     atom   13 type  1   force =     0.00074784   -0.00047376    0.00032358
     atom   14 type  1   force =    -0.00019752    0.00048049    0.00148041
     atom   15 type  2   force =     0.00001608   -0.00004561    0.00022632
     atom   16 type  2   force =     0.00023162    0.00007234    0.00039117
     atom   17 type  2   force =     0.00051290   -0.00043711    0.00049526
     atom   18 type  2   force =     0.00024421   -0.00052973    0.00043375
     atom   19 type  1   force =    -0.00134812    0.00015337    0.00072864
     atom   20 type  1   force =     0.00077541   -0.00000337    0.00014566
     atom   21 type  2   force =     0.00008758   -0.00008936    0.10325752
     atom   22 type  2   force =    -0.00075393   -0.00051147   -0.00082843
     atom   23 type  2   force =    -0.07142968   -0.00018523   -0.02768189
     atom   24 type  2   force =     0.07139910    0.00027585   -0.02768681
     atom   25 type  1   force =     0.00002644   -0.00031202    0.09555248
     atom   26 type  1   force =    -0.00017823   -0.00031437   -0.17599261
     atom   27 type  2   force =     0.00009873   -0.00012139   -0.02292732
     atom   28 type  2   force =     0.00011489   -0.00127473    0.05316916
     atom   29 type  2   force =    -0.01151745    0.00015209    0.00361999
     atom   30 type  2   force =     0.01316968    0.00046282    0.00271278
     atom   31 type  1   force =    -0.00101016    0.00373286   -0.01104319
     atom   32 type  1   force =     0.00051019   -0.00741773    0.02339005
     atom   33 type  2   force =    -0.00023638    0.00032136   -0.00031456
     atom   34 type  2   force =    -0.00033237    0.00024657   -0.02188580
     atom   35 type  2   force =     0.00011061    0.00030210   -0.00039040
     atom   36 type  2   force =    -0.00039162    0.00030596   -0.00030766
     atom   37 type  1   force =     0.00040823    0.00057663   -0.00020459
     atom   38 type  1   force =    -0.00023222   -0.00048274    0.00130607
     atom   39 type  2   force =    -0.00008392   -0.00028227    0.00030907
     atom   40 type  2   force =     0.00032786    0.00009239   -0.00084312
     atom   41 type  2   force =     0.00093881    0.00085497    0.00041506
     atom   42 type  2   force =    -0.00055609    0.00039506    0.00002954
     atom   43 type  1   force =    -0.00103512   -0.00097473   -0.00026370
     atom   44 type  1   force =     0.00084770    0.00053979    0.00008823
     atom   45 type  2   force =     0.00008666   -0.00010258    0.10327511
     atom   46 type  2   force =    -0.07144133   -0.00013880   -0.02766555
     atom   47 type  2   force =     0.07144227    0.00029227   -0.02769456
     atom   48 type  3   force =    -0.00034721   -0.00082330   -0.00040769
     atom   49 type  3   force =    -0.00065820    0.00032257   -0.00062262
     atom   50 type  4   force =    -0.00018210    0.00027377    0.00010615
     atom   51 type  5   force =     0.00014298    0.00070601    0.00005841
     atom   52 type  5   force =    -0.00048805   -0.00024386    0.00000701
     atom   53 type  5   force =     0.00037682   -0.00041488    0.00035339
     atom   54 type  5   force =     0.00012930    0.00013352    0.00005366
     atom   55 type  5   force =     0.00017799   -0.00008102    0.00051310
     atom   56 type  2   force =     0.00155899    0.00569449   -0.00353873
     atom   57 type  5   force =    -0.00025857   -0.00052771    0.00072699
     atom   58 type  5   force =    -0.00109004   -0.00561220    0.00272447

     Total force =     0.366874     Total SCF correction =     0.000732
  @ DRIVER MODE: Message from server: STATUS
  @ DRIVER MODE: Message from server: GETFORCE
  @ DRIVER MODE: Returning v,forces,stress,ensemble

     Writing output data file ./calc.save/
  @ DRIVER MODE: Message from server: EXIT
  @ DRIVE MODE: Exiting

     General routines

     Parallel routines

   This run was terminated on:  10:24:30  16Sep2021

   JOB DONE.