     Program PWSCF v.6.7GPU starts on 15Sep2021 at 19:54:35

     R & G space division:  proc/nbgrp/npool/nimage =      10
     Reading input from /storage/home/hcoda1/3/ntian30/research/carbon/CxH_vib/H2O_calc/ads_slab/CHH2O_a/out_0018/pw.inp
Warning: card &CELL ignored
Warning: card   CELL_DYNAMICS='IPI', ignored
Warning: card / ignored

     Current dimensions of program PWSCF are:
     Max number of different atomic species (ntypx) = 10
     Max number of k-points (npk) =  40000
     Max angular momentum in pseudopotentials (lmaxx) =  3
     Presently no symmetry can be used with electric field

     Message from routine cell_base_init:
     DEPRECATED: use true lattice parameter, not A to a.u. conversion factor

     IMPORTANT: XC functional enforced from input :
     Exchange-correlation= BEEF-VDW
                           (   1   4  43  14   2   0   0)
     Any further DFT definition will be discarded
     Please, verify this is what you really want

  @ DRIVER MODE: Connecting to
 qe_1139763_2852624.sched-torque.pace.gatech.edu9mybdq6__scratch
  using UNIX socket
  @ DRIVER MODE: Message from server: STATUS
  @ DRIVER MODE: Message from server: INIT
  @ DRIVER MODE: Receiving replica           0          -1
  @ DRIVER MODE: Receiving encoded integer          25
  @ DRIVER MODE:  SCF:  T  FORCE:  T  STRESS:  F  VC:  F  ENSEMBLE:  F
  @ DRIVER MODE:  SCF:  T  FORCE:  T  STRESS:  F  VC:  F  ENSEMBLE:  F

     Using Slab Decomposition

     bravais-lattice index     =            0
     lattice parameter (alat)  =       1.8897  a.u.
     unit-cell volume          =    6658.9804 (a.u.)^3
     number of atoms/cell      =           52
     number of atomic types    =            4
     number of electrons       =       391.00
     number of Kohn-Sham states=          205
     kinetic-energy cutoff     =      29.3995  Ry
     charge density cutoff     =     293.9946  Ry
     scf convergence threshold =      7.3E-08
     mixing beta               =       0.0500
     number of iterations used =            8  plain     mixing
     Exchange-correlation= BEEF-VDW
                           (   1   4  43  14   2   0   0)

     celldm(1)=   1.889726  celldm(2)=   0.000000  celldm(3)=   0.000000
     celldm(4)=   0.000000  celldm(5)=   0.000000  celldm(6)=   0.000000

     crystal axes: (cart. coord. in units of alat)
               a(1) = (   6.579727   0.000000   0.000000 )
               a(2) = (  -0.000775   5.961596   0.000000 )
               a(3) = (   0.000000   0.000000  25.155947 )

     reciprocal axes: (cart. coord. in units 2 pi/alat)
               b(1) = (  0.151982  0.000020  0.000000 )
               b(2) = (  0.000000  0.167740  0.000000 )
               b(3) = (  0.000000  0.000000  0.039752 )

     PseudoPot. # 1 for Ti read from file:
     /storage/coda1/p-amedford6/0/shared/rich_project_chbe-medford/medford-share/data/pseudos_module/espresso/nninc/pbe/van/Ti.UPF
     MD5 check sum: 8e4df49b7f0d34bbd5052bf3f5ea0213
     Pseudo is Ultrasoft, Zval = 12.0
     Generated by new atomic code, or converted to UPF format
     Using radial grid of  851 points,  6 beta functions with:
                l(1) =   0
                l(2) =   0
                l(3) =   1
                l(4) =   1
                l(5) =   2
                l(6) =   2
     Q(r) pseudized with  8 coefficients,  rinner =    1.000   1.000   1.000
                                                       1.000   1.000

     PseudoPot. # 2 for O  read from file:
     /storage/coda1/p-amedford6/0/shared/rich_project_chbe-medford/medford-share/data/pseudos_module/espresso/nninc/pbe/van/O.UPF
     MD5 check sum: 78c19812648e8988a0fe644b0f25305e
     Pseudo is Ultrasoft, Zval =  6.0
     Generated by new atomic code, or converted to UPF format
     Using radial grid of  737 points,  4 beta functions with:
                l(1) =   0
                l(2) =   0
                l(3) =   1
                l(4) =   1
     Q(r) pseudized with  8 coefficients,  rinner =    0.800   0.800   0.800

     PseudoPot. # 3 for C  read from file:
     /storage/coda1/p-amedford6/0/shared/rich_project_chbe-medford/medford-share/data/pseudos_module/espresso/nninc/pbe/van/C.UPF
     MD5 check sum: 1a69bf6b8db32088f5b2163dbdb77a27
     Pseudo is Ultrasoft, Zval =  4.0
     Generated by new atomic code, or converted to UPF format
     Using radial grid of  721 points,  4 beta functions with:
                l(1) =   0
                l(2) =   0
                l(3) =   1
                l(4) =   1
     Q(r) pseudized with  8 coefficients,  rinner =    0.800   0.800   0.800

     PseudoPot. # 4 for H  read from file:
     /storage/coda1/p-amedford6/0/shared/rich_project_chbe-medford/medford-share/data/pseudos_module/espresso/nninc/pbe/van/H.UPF
     MD5 check sum: b5ee9d7bfd3a09ee7748110bda690ff7
     Pseudo is Ultrasoft, Zval =  1.0
     Generated by new atomic code, or converted to UPF format
     Using radial grid of  615 points,  1 beta functions with:
                l(1) =   0
     Q(r) pseudized with  8 coefficients,  rinner =    0.800

     atomic species   valence    mass     pseudopotential
        Ti1           12.00    47.86700     Ti( 1.00)
        O1             6.00    15.99900     O ( 1.00)
        C1             4.00    12.01100     C ( 1.00)
        H1             1.00     1.00800     H ( 1.00)

     No symmetry found

   Cartesian axes

     site n.     atom                  positions (alat units)
         1           Ti1 tau(   1) = (   0.0004258   2.9801865   6.0000000  )
         2           Ti1 tau(   2) = (   3.2906075   1.4906267   6.0002472  )
         3           O1  tau(   3) = (   0.0006271   0.0005054   7.9858123  )
         4           O1  tau(   4) = (   3.2906025   0.0005020   7.3038282  )
         5           O1  tau(   5) = (   4.5942328   1.4918067   9.2879030  )
         6           O1  tau(   6) = (   1.9868534   1.4903216   9.2879459  )
         7           Ti1 tau(   7) = (   3.2871774   2.8648350   9.1721854  )
         8           Ti1 tau(   8) = (  -0.0000353   1.4301884   9.3769680  )
         9           O1  tau(   9) = (   3.2813214   0.0053726  11.3480220  )
        10           O1  tau(  10) = (  -0.0004909   5.9494466  10.5591019  )
        11           O1  tau(  11) = (   1.2709337   1.5062281  12.6398922  )
        12           O1  tau(  12) = (   5.2659652   1.5004022  12.6256763  )
        13           Ti1 tau(  13) = (   0.0747037   2.9811850  12.8215060  )
        14           Ti1 tau(  14) = (   3.3904977   1.4744036  12.5039750  )
        15           O1  tau(  15) = (   6.5763451   5.9564350  14.6046450  )
        16           O1  tau(  16) = (   3.2806839   0.0238217  13.9603601  )
        17           O1  tau(  17) = (   4.5226094   1.5694261  16.0518702  )
        18           O1  tau(  18) = (   2.0202940   1.5641231  16.0352509  )
        19           Ti1 tau(  19) = (   3.2640091   3.0260151  15.6942499  )
        20           Ti1 tau(  20) = (   6.5358820   1.5903963  16.1090211  )
        21           O1  tau(  21) = (   3.2904802   0.0005063   4.7018136  )
        22           O1  tau(  22) = (   6.5569505   0.0478586  17.2430089  )
        23           O1  tau(  23) = (   1.3043587   1.4918075   6.0039043  )
        24           O1  tau(  24) = (   5.2767064   1.4903225   6.0039473  )
        25           Ti1 tau(  25) = (   0.0000382   5.9609847   6.0000000  )
        26           Ti1 tau(  26) = (   3.2902200   4.4714249   6.0002472  )
        27           O1  tau(  27) = (   0.0002396   2.9813036   7.9858123  )
        28           O1  tau(  28) = (   3.2902150   2.9813002   7.3038282  )
        29           O1  tau(  29) = (   4.5938453   4.4726049   9.2879030  )
        30           O1  tau(  30) = (   1.9864658   4.4711199   9.2879459  )
        31           Ti1 tau(  31) = (   3.2859829   5.8469316   9.1661464  )
        32           Ti1 tau(  32) = (  -0.0001559   4.4089299   9.3799519  )
        33           O1  tau(  33) = (   3.2865236   2.9807090  11.3458169  )
        34           O1  tau(  34) = (   6.5781283   2.9667683  10.5610256  )
        35           O1  tau(  35) = (   1.2712900   4.4620179  12.6345536  )
        36           O1  tau(  36) = (   5.2651022   4.4720110  12.6184623  )
        37           Ti1 tau(  37) = (   0.0601624   5.9591143  12.7910897  )
        38           Ti1 tau(  38) = (   3.3902089   4.4660181  12.4873354  )
        39           O1  tau(  39) = (   6.5660314   2.9936061  14.6787526  )
        40           O1  tau(  40) = (   3.2777068   3.0094971  13.9036223  )
        41           O1  tau(  41) = (   4.5190982   4.4944638  16.0861991  )
        42           O1  tau(  42) = (   2.0255100   4.4980322  16.0740450  )
        43           Ti1 tau(  43) = (   3.2415938   0.0554625  15.8014791  )
        44           Ti1 tau(  44) = (   6.5310484   4.6110724  16.1360643  )
        45           O1  tau(  45) = (   3.2900926   2.9813045   4.7018136  )
        46           O1  tau(  46) = (   1.3039711   4.4726057   6.0039043  )
        47           O1  tau(  47) = (   5.2763189   4.4711207   6.0039473  )
        48           C1  tau(  48) = (   0.0160176   3.0093394  17.4896075  )
        49           H1  tau(  49) = (   0.0793418   3.1169436  18.5737113  )
        50           O1  tau(  50) = (   3.2580281   0.1500328  18.1901156  )
        51           H1  tau(  51) = (   4.0450954   5.6463884  18.5036456  )
        52           H1  tau(  52) = (   2.4770123   5.6427573  18.5175526  )

     number of k points=    10  Fermi-Dirac smearing, width (Ry)=  0.0073
                       cart. coord. in units 2pi/alat
        k(    1) = (   0.0000000   0.0000000   0.0000000), wk =   0.1250000
        k(    2) = (   0.0000000   0.0419351   0.0000000), wk =   0.2500000
        k(    3) = (   0.0000000  -0.0838702   0.0000000), wk =   0.1250000
        k(    4) = (   0.0379955   0.0000049   0.0000000), wk =   0.2500000
        k(    5) = (   0.0379955   0.0419400   0.0000000), wk =   0.2500000
        k(    6) = (   0.0379955  -0.0838652   0.0000000), wk =   0.2500000
        k(    7) = (   0.0379955  -0.0419301   0.0000000), wk =   0.2500000
        k(    8) = (  -0.0759910  -0.0000099   0.0000000), wk =   0.1250000
        k(    9) = (  -0.0759910   0.0419252   0.0000000), wk =   0.2500000
        k(   10) = (  -0.0759910  -0.0838800   0.0000000), wk =   0.1250000

     Initial potential from superposition of free atoms

     starting charge  374.99918, renormalised to  391.00000

     negative rho (up, down):  1.887E-02 0.000E+00

     %%%%%%%%%%%%%%%%%%%%%%%%%%%%%%%%%%%%%%%%%%%%%%%%%%%%%%%%%%%%%%%%%%%%%%%%
     %                                                                      %
     % You are using vdW-DF, which was implemented by the Thonhauser group. %
     % Please cite the following two papers that made this development      %
     % possible and the two reviews that describe the various versions:     %
     %                                                                      %
     %   T. Thonhauser et al., PRL 115, 136402 (2015).                      %
     %   T. Thonhauser et al., PRB 76, 125112 (2007).                       %
     %   K. Berland et al., Rep. Prog. Phys. 78, 066501 (2015).             %
     %   D.C. Langreth et al., J. Phys.: Condens. Matter 21, 084203 (2009). %
     %                                                                      %
     %                                                                      %
     % If you are calculating the stress with vdW-DF, please also cite:     %
     %                                                                      %
     %   R. Sabatini et al., J. Phys.: Condens. Matter 24, 424209 (2012).   %
     %                                                                      %
     %%%%%%%%%%%%%%%%%%%%%%%%%%%%%%%%%%%%%%%%%%%%%%%%%%%%%%%%%%%%%%%%%%%%%%%%

     Adding external electric field

     Computed dipole along edir(3) :
        Dipole               -4.6255 Ry au,        -11.7569 Debye
        Dipole field         -0.0087 Ry au,

        Potential amp.        0.8092 Ry
        Total length         46.3494 bohr

     Starting wfcs are  295 atomic wfcs
  @ DRIVER MODE: Message from server: STATUS
  @ DRIVER MODE: Message from server: POSDATA
  @ DRIVER MODE: Reading and sharing cell
  @ DRIVER MODE: Reading and sharing positions
  @ DRIVER MODE: Received positions

     Self-consistent Calculation

     iteration #  1     ecut=    29.40 Ry     beta= 0.05
     Davidson diagonalization with overlap
     c_bands:  4 eigenvalues not converged
     c_bands:  1 eigenvalues not converged
     c_bands:  1 eigenvalues not converged
     c_bands:  2 eigenvalues not converged
     c_bands:  1 eigenvalues not converged
     c_bands:  3 eigenvalues not converged
     c_bands:  1 eigenvalues not converged
     c_bands:  1 eigenvalues not converged
     ethr =  1.00E-05,  avg # of iterations = 19.8

[...]

     total energy              =   -2877.69948352 Ry
     estimated scf accuracy    <     610.49013829 Ry

     iteration #  2     ecut=    29.40 Ry     beta= 0.05
     Davidson diagonalization with overlap
     ethr =  1.00E-02,  avg # of iterations = 14.4

[...]

     iteration # 41     ecut=    29.40 Ry     beta= 0.05
     Davidson diagonalization with overlap
     c_bands:  1 eigenvalues not converged
     c_bands:  1 eigenvalues not converged
     ethr =  7.46E-08,  avg # of iterations = 12.0

[...]

     total energy              =   -2931.21623454 Ry
     estimated scf accuracy    <       0.00000014 Ry

     iteration # 60     ecut=    29.40 Ry     beta= 0.05
     Davidson diagonalization with overlap
     ethr =  3.65E-11,  avg # of iterations =  5.0

     negative rho (up, down):  1.826E-02 0.000E+00

     Adding external electric field

     Computed dipole along edir(3) :
        Dipole                0.7776 Ry au,          1.9766 Debye
        Dipole field          0.0015 Ry au,

        Potential amp.       -0.1360 Ry
        Total length         46.3494 bohr

     End of self-consistent calculation

          k = 0.0000 0.0000 0.0000 ( 18029 PWs)   bands (ev):

   -56.2833 -56.2496 -55.9131 -55.8949 -55.8745 -55.7141 -55.6622 -55.6557
   -55.6216 -55.5760 -55.5720 -55.5406 -55.0552 -55.0307 -55.0213 -54.9713
   -32.7102 -32.5315 -32.5033 -32.4743 -32.4492 -32.3832 -32.3371 -32.3066
   -32.2140 -32.1460 -32.1383 -32.1374 -32.1241 -32.1196 -32.0951 -32.0814
   -32.0780 -32.0699 -32.0349 -31.9303 -31.9092 -31.8989 -31.8925 -31.8878
   -31.8808 -31.8685 -31.8262 -31.8131 -31.8013 -31.7920 -31.7713 -31.7551
   -31.7511 -31.7394 -31.7339 -31.6798 -31.5665 -31.4547 -31.3825 -31.3587
   -31.3001 -31.2729 -31.2668 -31.2632 -31.1880 -31.1720 -31.0761 -31.0405
   -19.2489 -16.5842 -16.4339 -16.1955 -16.0601 -15.9656 -15.7906 -15.6476
   -15.6202 -15.5268 -15.5229 -15.4374 -15.4284 -15.3860 -15.3794 -15.3756
   -15.3590 -15.3294 -15.2899 -15.2804 -15.2734 -15.2421 -15.1808 -15.0878
   -15.0610 -15.0143 -14.9106 -14.8984 -14.8657 -14.6857 -13.5493 -13.4360
    -7.5506  -7.1043  -4.0276  -3.9416  -3.8236  -3.7846  -3.6905  -3.5594
    -3.3522  -3.3518  -3.0782  -3.0425  -2.9881  -2.9606  -2.9470  -2.8804
    -2.8053  -2.7629  -2.7249  -2.7054  -2.6873  -2.6638  -2.6592  -2.5930
    -2.5521  -2.4949  -2.4832  -2.4657  -2.3794  -2.3102  -2.2544  -2.2259
    -2.2190  -2.1792  -2.1020  -2.0841  -2.0710  -2.0176  -1.9040  -1.8188
    -1.7488  -1.7188  -1.6513  -1.6176  -1.5386  -1.4391  -1.3906  -1.3128
    -1.2952  -1.2908  -1.2285  -1.2106  -1.1345  -1.0443  -0.9834  -0.9327
    -0.8431  -0.8214  -0.7936  -0.7460  -0.7290  -0.6916  -0.6623  -0.6263
    -0.5728  -0.5599  -0.4771  -0.3291  -0.3122  -0.2872  -0.2709  -0.2296
    -0.1951  -0.1344  -0.1118  -0.0634  -0.0430   0.0006   0.0130   0.0519
     0.0807   0.1400   0.2564   0.2770   0.2955   0.3706   0.4846   0.5319
     0.5839   0.6860   0.6983   0.8997   0.9234   0.9720   1.1870   1.2281
     1.5571   1.6298   1.8865   2.6320   2.9887   3.1722   3.4616   3.4770
     3.5099   3.5827   3.7098   3.7438   3.8914

[...]

          k = 0.0380-0.0419 0.0000 ( 17876 PWs)   bands (ev):

[...]

          k =-0.0760-0.0000 0.0000 ( 17886 PWs)   bands (ev):

[...]

          k =-0.0760-0.0839 0.0000 ( 17948 PWs)   bands (ev):

   -56.2680 -56.2648 -55.9011 -55.8933 -55.8864 -55.7157 -55.6587 -55.6400
   -55.6370 -55.5755 -55.5606 -55.5560 -55.0382 -55.0382 -55.0253 -54.9766
   -32.5290 -32.5263 -32.5188 -32.5151 -32.4284 -32.4258 -32.2642 -32.2450
   -32.1837 -32.1743 -32.1581 -32.1104 -32.1094 -32.1017 -32.0896 -32.0648
   -32.0223 -31.9749 -31.9687 -31.9669 -31.9174 -31.9069 -31.8979 -31.8934
   -31.8877 -31.8772 -31.8748 -31.8667 -31.8503 -31.8476 -31.8164 -31.8092
   -31.7756 -31.7705 -31.7664 -31.7619 -31.4559 -31.3716 -31.3716 -31.3284
   -31.2965 -31.2694 -31.2690 -31.2687 -31.2306 -31.2305 -31.1871 -31.0800
   -19.2481 -16.0623 -15.9628 -15.8212 -15.7874 -15.7496 -15.7485 -15.7029
   -15.6692 -15.6394 -15.6351 -15.5471 -15.5172 -15.4926 -15.4878 -15.4219
   -15.4151 -15.4091 -15.4058 -15.3356 -15.3303 -15.2323 -15.2233 -15.1422
   -15.1347 -15.0997 -15.0811 -15.0378 -15.0353 -14.8313 -13.5384 -13.5383
    -7.5559  -7.0960  -3.6104  -3.3554  -3.1606  -3.0321  -2.9903  -2.9018
    -2.8768  -2.8676  -2.8671  -2.8039  -2.7598  -2.7490  -2.7089  -2.6824
    -2.6762  -2.6540  -2.6498  -2.6187  -2.6167  -2.6113  -2.6089  -2.5953
    -2.5589  -2.5120  -2.5092  -2.4968  -2.4898  -2.4404  -2.3719  -2.3347
    -2.2610  -2.1675  -2.1665  -2.0937  -2.0586  -1.9845  -1.9751  -1.9699
    -1.9510  -1.9251  -1.7860  -1.6777  -1.6544  -1.6393  -1.5862  -1.5787
    -1.5254  -1.3310  -1.3151  -1.2557  -1.1874  -1.1646  -1.1250  -1.1122
    -1.0538  -1.0496  -1.0290  -0.9937  -0.9850  -0.9397  -0.9115  -0.8246
    -0.8020  -0.7745  -0.7548  -0.6853  -0.6595  -0.6181  -0.5803  -0.5527
    -0.5345  -0.5117  -0.4389  -0.3965  -0.3307  -0.2873  -0.2220   0.0195
     0.0272   0.2166   0.2934   0.3835   0.4486   0.4689   0.4831   0.5454
     0.6141   0.6208   0.6369   0.6579   0.7324   0.7371   1.3581   1.3606
     1.4114   1.4119   2.1018   2.5253   3.5338   3.5385   3.5532   3.5741
     3.5822   3.6271   3.6429   3.6765   3.9440

     the Fermi energy is     2.4938 ev

!    total energy              =   -2931.21627306 Ry
     estimated scf accuracy    <       0.00000003 Ry
     smearing contrib. (-TS)   =      -0.01054381 Ry
     internal energy E=F+TS    =   -2931.20572925 Ry

     The total energy is F=E-TS. E is the sum of the following terms:
     one-electron contribution =  -24522.57812591 Ry
     hartree contribution      =   12347.70442027 Ry
     xc contribution           =    -481.85382012 Ry
     ewald contribution        =    9725.52065533 Ry
     electric field correction =       0.00114118 Ry

     convergence has been achieved in  60 iterations

     Forces acting on atoms (cartesian axes, Ry/au):

     atom    1 type  1   force =     0.00017080   -0.00008722    0.14780605
     atom    2 type  1   force =     0.00001193    0.00055890   -0.16853848
     atom    3 type  2   force =     0.00012312    0.00257883   -0.06042039
     atom    4 type  2   force =    -0.00023244   -0.00139818    0.04035512
     atom    5 type  2   force =    -0.02184809    0.00009124    0.00384773
     atom    6 type  2   force =     0.02069494   -0.00003785    0.00305642
     atom    7 type  1   force =     0.00105417    0.00044088    0.00000166
     atom    8 type  1   force =    -0.00060248    0.00113371   -0.00045022
     atom    9 type  2   force =    -0.00007394    0.00015674   -0.00036274
     atom   10 type  2   force =     0.00022650   -0.00015747    0.00047311
     atom   11 type  2   force =     0.00011736   -0.00022938    0.00008899
     atom   12 type  2   force =    -0.00029836   -0.00027323   -0.00007277
     atom   13 type  1   force =     0.00016459   -0.00046471   -0.00050513
     atom   14 type  1   force =     0.00022752   -0.00019237    0.00052756
     atom   15 type  2   force =     0.00005791   -0.00021813    0.00012037
     atom   16 type  2   force =    -0.00004851    0.00012171    0.00027069
     atom   17 type  2   force =    -0.00030517    0.00004669   -0.00031801
     atom   18 type  2   force =    -0.00021555   -0.00023901    0.00007907
     atom   19 type  1   force =     0.00053256    0.00080187   -0.00004712
     atom   20 type  1   force =    -0.00044609   -0.00069807    0.00131336
     atom   21 type  2   force =     0.00009113   -0.00009914    0.10204153
     atom   22 type  2   force =    -0.00000633    0.00033605   -0.00038171
     atom   23 type  2   force =    -0.07527538    0.00018185   -0.03470947
     atom   24 type  2   force =     0.07530132    0.00062033   -0.03480146
     atom   25 type  1   force =    -0.00003342   -0.00011450    0.14834783
     atom   26 type  1   force =     0.00006487   -0.00188090   -0.16845020
     atom   27 type  2   force =     0.00016117    0.00246540   -0.05953007
     atom   28 type  2   force =    -0.00016980   -0.00144733    0.04095764
     atom   29 type  2   force =    -0.02195439    0.00144569    0.00421061
     atom   30 type  2   force =     0.02065361    0.00073182    0.00339138
     atom   31 type  1   force =     0.00110041   -0.00045710    0.00002394
     atom   32 type  1   force =    -0.00066309   -0.00066248   -0.00041872
     atom   33 type  2   force =     0.00011855   -0.00014266   -0.00059859
     atom   34 type  2   force =     0.00021772    0.00062527   -0.00051832
     atom   35 type  2   force =    -0.00013547    0.00015685   -0.00016160
     atom   36 type  2   force =     0.00051068   -0.00030934   -0.00013241
     atom   37 type  1   force =     0.00007144    0.00048083    0.00013587
     atom   38 type  1   force =    -0.00006194    0.00029206    0.00040870
     atom   39 type  2   force =     0.00001506   -0.00057096    0.00042001
     atom   40 type  2   force =    -0.00006192   -0.00042754    0.00044655
     atom   41 type  2   force =    -0.00079399   -0.00075417   -0.00006430
     atom   42 type  2   force =     0.00057505   -0.00042387    0.00028684
     atom   43 type  1   force =     0.00090178   -0.00083556   -0.00004689
     atom   44 type  1   force =    -0.00055905   -0.00013775    0.00029054
     atom   45 type  2   force =     0.00008404   -0.00009145    0.10197390
     atom   46 type  2   force =    -0.07529493    0.00010023   -0.03472063
     atom   47 type  2   force =     0.07532450    0.00053950   -0.03482033
     atom   48 type  3   force =     0.00000167   -0.00088062   -0.00049069
     atom   49 type  4   force =     0.00027586   -0.00015192    0.00022782
     atom   50 type  2   force =    -0.00028308    0.00738473   -0.00618813
     atom   51 type  4   force =     0.00429497   -0.00406390    0.00301223
     atom   52 type  4   force =    -0.00378181   -0.00384439    0.00263284

     Total force =     0.401925     Total SCF correction =     0.000362
  @ DRIVER MODE: Message from server: STATUS
  @ DRIVER MODE: Message from server: GETFORCE
  @ DRIVER MODE: Returning v,forces,stress,ensemble

     Writing output data file ./calc.save/
  @ DRIVER MODE: Message from server: EXIT
  @ DRIVE MODE: Exiting

     General routines

     Parallel routines

   This run was terminated on:  20: 8:46  15Sep2021

   JOB DONE.