     Program PWSCF v.6.7GPU starts on 28Sep2021 at 11:32:59

     R & G space division:  proc/nbgrp/npool/nimage =       8
     Reading input from /storage/home/hcoda1/3/ntian30/research/carbon/CxH_vib/H2O_calc/ads_slab/CH3OHN2H2O_a/out_0037/pw.inp
Warning: card &CELL ignored
Warning: card   CELL_DYNAMICS='IPI', ignored
Warning: card / ignored

     Current dimensions of program PWSCF are:
     Max number of different atomic species (ntypx) = 10
     Max number of k-points (npk) =  40000
     Max angular momentum in pseudopotentials (lmaxx) =  3
     Presently no symmetry can be used with electric field

     Message from routine cell_base_init:
     DEPRECATED: use true lattice parameter, not A to a.u. conversion factor

     IMPORTANT: XC functional enforced from input :
     Exchange-correlation= BEEF-VDW
                           (   1   4  43  14   2   0   0)
     Any further DFT definition will be discarded
     Please, verify this is what you really want

  @ DRIVER MODE: Connecting to
 qe_1139763_3000313.sched-torque.pace.gatech.edu9cj8eb31_scratch
  using UNIX socket
  @ DRIVER MODE: Message from server: STATUS
  @ DRIVER MODE: Message from server: INIT
  @ DRIVER MODE: Receiving replica           0          -1
  @ DRIVER MODE: Receiving encoded integer          25
  @ DRIVER MODE:  SCF:  T  FORCE:  T  STRESS:  F  VC:  F  ENSEMBLE:  F
  @ DRIVER MODE:  SCF:  T  FORCE:  T  STRESS:  F  VC:  F  ENSEMBLE:  F

     Using Slab Decomposition

     bravais-lattice index     =            0
     lattice parameter (alat)  =       1.8897  a.u.
     unit-cell volume          =    6658.9804 (a.u.)^3
     number of atoms/cell      =           58
     number of atomic types    =            5
     number of electrons       =       410.00
     number of Kohn-Sham states=          215
     kinetic-energy cutoff     =      29.3995  Ry
     charge density cutoff     =     293.9946  Ry
     scf convergence threshold =      7.3E-08
     mixing beta               =       0.0500
     number of iterations used =            8  plain     mixing
     Exchange-correlation= BEEF-VDW
                           (   1   4  43  14   2   0   0)

     celldm(1)=   1.889726  celldm(2)=   0.000000  celldm(3)=   0.000000
     celldm(4)=   0.000000  celldm(5)=   0.000000  celldm(6)=   0.000000

     crystal axes: (cart. coord. in units of alat)
               a(1) = (   6.579727   0.000000   0.000000 )
               a(2) = (  -0.000775   5.961596   0.000000 )
               a(3) = (   0.000000   0.000000  25.155947 )

     reciprocal axes: (cart. coord. in units 2 pi/alat)
               b(1) = (  0.151982  0.000020  0.000000 )
               b(2) = (  0.000000  0.167740  0.000000 )
               b(3) = (  0.000000  0.000000  0.039752 )

     PseudoPot. # 1 for Ti read from file:
     /storage/coda1/p-amedford6/0/shared/rich_project_chbe-medford/medford-share/data/pseudos_module/espresso/nninc/pbe/van/Ti.UPF
     MD5 check sum: 8e4df49b7f0d34bbd5052bf3f5ea0213
     Pseudo is Ultrasoft, Zval = 12.0
     Generated by new atomic code, or converted to UPF format
     Using radial grid of  851 points,  6 beta functions with:
                l(1) =   0
                l(2) =   0
                l(3) =   1
                l(4) =   1
                l(5) =   2
                l(6) =   2
     Q(r) pseudized with  8 coefficients,  rinner =    1.000   1.000   1.000
                                                       1.000   1.000

     PseudoPot. # 2 for O  read from file:
     /storage/coda1/p-amedford6/0/shared/rich_project_chbe-medford/medford-share/data/pseudos_module/espresso/nninc/pbe/van/O.UPF
     MD5 check sum: 78c19812648e8988a0fe644b0f25305e
     Pseudo is Ultrasoft, Zval =  6.0
     Generated by new atomic code, or converted to UPF format
     Using radial grid of  737 points,  4 beta functions with:
                l(1) =   0
                l(2) =   0
                l(3) =   1
                l(4) =   1
     Q(r) pseudized with  8 coefficients,  rinner =    0.800   0.800   0.800

     PseudoPot. # 3 for C  read from file:
     /storage/coda1/p-amedford6/0/shared/rich_project_chbe-medford/medford-share/data/pseudos_module/espresso/nninc/pbe/van/C.UPF
     MD5 check sum: 1a69bf6b8db32088f5b2163dbdb77a27
     Pseudo is Ultrasoft, Zval =  4.0
     Generated by new atomic code, or converted to UPF format
     Using radial grid of  721 points,  4 beta functions with:
                l(1) =   0
                l(2) =   0
                l(3) =   1
                l(4) =   1
     Q(r) pseudized with  8 coefficients,  rinner =    0.800   0.800   0.800

     PseudoPot. # 4 for H  read from file:
     /storage/coda1/p-amedford6/0/shared/rich_project_chbe-medford/medford-share/data/pseudos_module/espresso/nninc/pbe/van/H.UPF
     MD5 check sum: b5ee9d7bfd3a09ee7748110bda690ff7
     Pseudo is Ultrasoft, Zval =  1.0
     Generated by new atomic code, or converted to UPF format
     Using radial grid of  615 points,  1 beta functions with:
                l(1) =   0
     Q(r) pseudized with  8 coefficients,  rinner =    0.800

     PseudoPot. # 5 for N  read from file:
     /storage/coda1/p-amedford6/0/shared/rich_project_chbe-medford/medford-share/data/pseudos_module/espresso/nninc/pbe/van/N.UPF
     MD5 check sum: 90d10febe142ad51ac9d5be1deb811c4
     Pseudo is Ultrasoft, Zval =  5.0
     Generated by new atomic code, or converted to UPF format
     Using radial grid of  729 points,  4 beta functions with:
                l(1) =   0
                l(2) =   0
                l(3) =   1
                l(4) =   1
     Q(r) pseudized with  8 coefficients,  rinner =    0.800   0.800   0.800

     atomic species   valence    mass     pseudopotential
        Ti1           12.00    47.86700     Ti( 1.00)
        O1             6.00    15.99900     O ( 1.00)
        C1             4.00    12.01100     C ( 1.00)
        H1             1.00     1.00800     H ( 1.00)
        N1             5.00    14.00700     N ( 1.00)

     No symmetry found

   Cartesian axes

     site n.     atom                  positions (alat units)
         1           Ti1 tau(   1) = (   0.0004258   2.9801865   6.0000000  )
         2           Ti1 tau(   2) = (   3.2906075   1.4906267   6.0002472  )
         3           O1  tau(   3) = (   0.0006271   0.0005054   7.9858123  )
         4           O1  tau(   4) = (   3.2906025   0.0005020   7.3038282  )
         5           O1  tau(   5) = (   4.5942328   1.4918067   9.2879030  )
         6           O1  tau(   6) = (   1.9868534   1.4903216   9.2879459  )
         7           Ti1 tau(   7) = (   3.3250738   2.9918783   9.1599549  )
         8           Ti1 tau(   8) = (   0.0412716   1.4903975   9.2658274  )
         9           O1  tau(   9) = (   3.2852344   0.0116916  11.3753809  )
        10           O1  tau(  10) = (   6.5701620   0.0027176  10.6052010  )
        11           O1  tau(  11) = (   1.2758103   1.4969824  12.6410148  )
        12           O1  tau(  12) = (   5.2796941   1.4985041  12.6691897  )
        13           Ti1 tau(  13) = (   6.5531116   2.9870417  12.5348353  )
        14           Ti1 tau(  14) = (   3.2504356   1.4995581  12.5215122  )
        15           O1  tau(  15) = (   0.0383206   0.0046779  14.6787597  )
        16           O1  tau(  16) = (   3.2537876   0.0095675  14.0320577  )
        17           O1  tau(  17) = (   4.5855444   1.5609978  16.0639115  )
        18           O1  tau(  18) = (   2.0343745   1.5440679  16.2001998  )
        19           Ti1 tau(  19) = (   3.3058624   3.0043567  15.7064231  )
        20           Ti1 tau(  20) = (   6.5549511   1.4266458  15.8675638  )
        21           O1  tau(  21) = (   3.2904802   0.0005063   4.7018136  )
        22           O1  tau(  22) = (   6.4974171   0.0126247  17.2237355  )
        23           O1  tau(  23) = (   1.3043587   1.4918075   6.0039043  )
        24           O1  tau(  24) = (   5.2767064   1.4903225   6.0039473  )
        25           Ti1 tau(  25) = (   0.0000382   5.9609847   6.0000000  )
        26           Ti1 tau(  26) = (   3.2902200   4.4714249   6.0002472  )
        27           O1  tau(  27) = (   0.0002396   2.9813036   7.9858123  )
        28           O1  tau(  28) = (   3.2902150   2.9813002   7.3038282  )
        29           O1  tau(  29) = (   4.5938453   4.4726049   9.2879030  )
        30           O1  tau(  30) = (   1.9864658   4.4711199   9.2879459  )
        31           Ti1 tau(  31) = (   3.3194574   0.0113313   9.1541029  )
        32           Ti1 tau(  32) = (   0.0414074   4.4589881   9.2683624  )
        33           O1  tau(  33) = (   3.2821265   2.9896323  11.3676027  )
        34           O1  tau(  34) = (   6.5712111   2.9825298  10.6251173  )
        35           O1  tau(  35) = (   1.2751242   4.4805681  12.6359318  )
        36           O1  tau(  36) = (   5.2791817   4.4782367  12.6627471  )
        37           Ti1 tau(  37) = (   6.5506445   0.0032150  12.4806913  )
        38           Ti1 tau(  38) = (   3.2507345   4.4881811  12.5195668  )
        39           O1  tau(  39) = (   0.0469291   2.9928743  14.8464778  )
        40           O1  tau(  40) = (   3.2514374   2.9975957  13.9281162  )
        41           O1  tau(  41) = (   4.5866068   4.4203933  16.0984022  )
        42           O1  tau(  42) = (   2.0418857   4.4579080  16.2200674  )
        43           Ti1 tau(  43) = (   3.2648600   0.0292614  15.8571223  )
        44           Ti1 tau(  44) = (   6.5763064   4.6169283  15.9626260  )
        45           O1  tau(  45) = (   3.2900926   2.9813045   4.7018136  )
        46           O1  tau(  46) = (   1.3039711   4.4726057   6.0039043  )
        47           O1  tau(  47) = (   5.2763189   4.4711207   6.0039473  )
        48           C1  tau(  48) = (   6.0301898   2.9050411  18.9351799  )
        49           O1  tau(  49) = (   0.1575529   2.9516393  17.6723866  )
        50           H1  tau(  50) = (   4.9714676   2.8818909  18.6991823  )
        51           H1  tau(  51) = (   1.1132637   2.8218831  17.8130049  )
        52           H1  tau(  52) = (   6.2985093   1.9952365  19.4696065  )
        53           H1  tau(  53) = (   6.2732381   3.7939772  19.5169533  )
        54           N1  tau(  54) = (   4.8740950   3.1052494  22.6850861  )
        55           N1  tau(  55) = (   4.2680757   3.3403818  21.7970487  )
        56           O1  tau(  56) = (   3.8772584   0.1141246  18.3039653  )
        57           H1  tau(  57) = (   4.8407149   0.0692883  18.0716375  )
        58           H1  tau(  58) = (   3.6680196   5.2122673  18.6877519  )

     number of k points=    10  Fermi-Dirac smearing, width (Ry)=  0.0073
                       cart. coord. in units 2pi/alat
        k(    1) = (   0.0000000   0.0000000   0.0000000), wk =   0.1250000
        k(    2) = (   0.0000000   0.0419351   0.0000000), wk =   0.2500000
        k(    3) = (   0.0000000  -0.0838702   0.0000000), wk =   0.1250000
        k(    4) = (   0.0379955   0.0000049   0.0000000), wk =   0.2500000
        k(    5) = (   0.0379955   0.0419400   0.0000000), wk =   0.2500000
        k(    6) = (   0.0379955  -0.0838652   0.0000000), wk =   0.2500000
        k(    7) = (   0.0379955  -0.0419301   0.0000000), wk =   0.2500000
        k(    8) = (  -0.0759910  -0.0000099   0.0000000), wk =   0.1250000
        k(    9) = (  -0.0759910   0.0419252   0.0000000), wk =   0.2500000
        k(   10) = (  -0.0759910  -0.0838800   0.0000000), wk =   0.1250000

     Initial potential from superposition of free atoms

     starting charge  393.99913, renormalised to  410.00000

     negative rho (up, down):  9.558E-03 0.000E+00

     %%%%%%%%%%%%%%%%%%%%%%%%%%%%%%%%%%%%%%%%%%%%%%%%%%%%%%%%%%%%%%%%%%%%%%%%
     %                                                                      %
     % You are using vdW-DF, which was implemented by the Thonhauser group. %
     % Please cite the following two papers that made this development      %
     % possible and the two reviews that describe the various versions:     %
     %                                                                      %
     %   T. Thonhauser et al., PRL 115, 136402 (2015).                      %
     %   T. Thonhauser et al., PRB 76, 125112 (2007).                       %
     %   K. Berland et al., Rep. Prog. Phys. 78, 066501 (2015).             %
     %   D.C. Langreth et al., J. Phys.: Condens. Matter 21, 084203 (2009). %
     %                                                                      %
     %                                                                      %
     % If you are calculating the stress with vdW-DF, please also cite:     %
     %                                                                      %
     %   R. Sabatini et al., J. Phys.: Condens. Matter 24, 424209 (2012).   %
     %                                                                      %
     %%%%%%%%%%%%%%%%%%%%%%%%%%%%%%%%%%%%%%%%%%%%%%%%%%%%%%%%%%%%%%%%%%%%%%%%

     Adding external electric field

     Computed dipole along edir(3) :
        Dipole              -20.0784 Ry au,        -51.0342 Debye
        Dipole field         -0.0379 Ry au,

        Potential amp.        3.5124 Ry
        Total length         46.3494 bohr

     Starting wfcs are  310 atomic wfcs
  @ DRIVER MODE: Message from server: STATUS
  @ DRIVER MODE: Message from server: POSDATA
  @ DRIVER MODE: Reading and sharing cell
  @ DRIVER MODE: Reading and sharing positions
  @ DRIVER MODE: Received positions

     Self-consistent Calculation

     iteration #  1     ecut=    29.40 Ry     beta= 0.05
     Davidson diagonalization with overlap
     c_bands:  1 eigenvalues not converged
     c_bands:  1 eigenvalues not converged
     c_bands:  5 eigenvalues not converged
     c_bands:  1 eigenvalues not converged
     c_bands:  4 eigenvalues not converged
     c_bands:  3 eigenvalues not converged
     ethr =  1.00E-05,  avg # of iterations = 32.1

[...]

     total energy              =   -2098.55854002 Ry
     estimated scf accuracy    <   10668.37098351 Ry

     iteration #  2     ecut=    29.40 Ry     beta= 0.05
     Davidson diagonalization with overlap
     ethr =  1.00E-02,  avg # of iterations = 30.4

[...]

     iteration #112     ecut=    29.40 Ry     beta= 0.05
     Davidson diagonalization with overlap
     c_bands:  1 eigenvalues not converged
     c_bands:  1 eigenvalues not converged
     c_bands:  1 eigenvalues not converged
     ethr =  2.93E-11,  avg # of iterations = 16.7

[...]

     total energy              =   -3007.66307017 Ry
     estimated scf accuracy    <       0.00000011 Ry

     iteration #113     ecut=    29.40 Ry     beta= 0.05
     Davidson diagonalization with overlap
     ethr =  2.79E-11,  avg # of iterations = 10.9

     negative rho (up, down):  1.053E-02 0.000E+00

     Adding external electric field

     Computed dipole along edir(3) :
        Dipole                1.2516 Ry au,          3.1813 Debye
        Dipole field          0.0024 Ry au,

        Potential amp.       -0.2189 Ry
        Total length         46.3494 bohr

     End of self-consistent calculation

          k = 0.0000 0.0000 0.0000 ( 18029 PWs)   bands (ev):

   -54.9216 -54.8982 -54.8856 -54.8638 -54.8490 -54.8434 -54.8163 -54.7974
   -54.7686 -54.7660 -54.7315 -54.7110 -54.6796 -54.6771 -53.9864 -53.9523
   -31.4873 -31.4624 -31.3940 -31.3008 -31.2416 -31.2359 -31.2239 -31.2221
   -31.1868 -31.1522 -31.1436 -31.1409 -31.1363 -31.1134 -31.1067 -31.1003
   -31.0849 -31.0652 -31.0596 -31.0580 -31.0515 -31.0434 -31.0206 -31.0148
   -31.0140 -31.0087 -30.9937 -30.9913 -30.9903 -30.9546 -30.9371 -30.9172
   -30.9158 -30.9148 -30.9065 -30.9063 -30.8954 -30.8651 -30.8510 -30.8466
   -30.8420 -30.8226 -30.3984 -30.2960 -30.2744 -30.2145 -30.1282 -30.0172
   -21.7537 -19.8053 -18.2730 -15.7553 -15.5094 -15.3702 -15.2730 -15.1488
   -15.0187 -14.9446 -14.8243 -14.7524 -14.6597 -14.6461 -14.6274 -14.6067
   -14.5724 -14.5462 -14.4894 -14.4843 -14.4295 -14.4261 -14.4153 -14.4047
   -14.3718 -14.3573 -14.3254 -14.3161 -14.1537 -14.0881 -14.0284 -13.8866
   -12.4871 -12.3678 -10.8248  -6.8760  -6.5536  -6.0307  -4.9069  -4.8633
    -4.7579  -4.6395  -3.5913  -3.0888  -2.9373  -2.9044  -2.8816  -2.8583
    -2.7364  -2.6460  -2.6184  -2.4561  -2.3596  -2.2252  -2.1978  -2.1650
    -2.1274  -2.0584  -2.0037  -1.9167  -1.8863  -1.8471  -1.8264  -1.8024
    -1.7874  -1.7615  -1.7308  -1.6594  -1.6203  -1.5369  -1.5215  -1.4353
    -1.3793  -1.3712  -1.3276  -1.2648  -1.2613  -1.2509  -1.2117  -1.1979
    -1.1888  -1.1786  -1.1728  -1.0151  -0.9656  -0.9334  -0.8090  -0.6983
    -0.6070  -0.5990  -0.4926  -0.4791  -0.4176  -0.4123  -0.3720  -0.3326
    -0.2702  -0.1744  -0.1182  -0.0717  -0.0567   0.0541   0.1192   0.1331
     0.1943   0.2709   0.2863   0.3079   0.3358   0.4236   0.4921   0.5334
     0.5673   0.6332   0.6429   0.6895   0.7192   0.7596   0.8461   0.8997
     0.9025   0.9903   1.0072   1.0208   1.0458   1.0517   1.1497   1.1827
     1.2282   1.2558   1.4069   1.4407   1.6334   1.6688   1.9291   2.0278
     2.0393   2.2006   2.6252   2.6798   4.1680   4.2360   4.2724   4.2797
     4.2944   4.3739   4.6563   4.6726   4.6778   4.6883   4.6967

[...]

          k = 0.0380-0.0419 0.0000 ( 17876 PWs)   bands (ev):

[...]

          k =-0.0760-0.0000 0.0000 ( 17886 PWs)   bands (ev):

[...]

          k =-0.0760-0.0839 0.0000 ( 17948 PWs)   bands (ev):

   -54.9045 -54.9024 -54.8828 -54.8790 -54.8437 -54.8392 -54.8091 -54.8049
   -54.7758 -54.7509 -54.7462 -54.6954 -54.6927 -54.6813 -53.9693 -53.9692
   -31.3751 -31.2962 -31.2860 -31.2107 -31.2070 -31.1846 -31.1770 -31.1757
   -31.1686 -31.1458 -31.1310 -31.1294 -31.1219 -31.1153 -31.0974 -31.0825
   -31.0669 -31.0650 -31.0563 -31.0548 -31.0534 -31.0521 -31.0464 -31.0409
   -31.0165 -31.0110 -31.0069 -31.0019 -31.0017 -30.9988 -30.9981 -30.9978
   -30.9973 -30.9682 -30.9599 -30.9490 -30.9478 -30.9206 -30.9182 -30.8823
   -30.8791 -30.8646 -30.2870 -30.2870 -30.2112 -30.2108 -30.1714 -30.1713
   -21.7536 -19.8017 -18.2720 -15.3307 -15.2169 -15.0507 -14.9424 -14.9326
   -14.9042 -14.8457 -14.8026 -14.7716 -14.7313 -14.7212 -14.6915 -14.6734
   -14.6679 -14.6104 -14.5262 -14.5205 -14.5067 -14.4715 -14.4443 -14.4303
   -14.4283 -14.4140 -14.3769 -14.3751 -14.3559 -14.3448 -14.2893 -14.1991
   -12.4691 -12.4686 -10.8275  -6.8751  -6.5558  -6.0332  -4.9069  -4.8708
    -4.7490  -4.6269  -3.5830  -2.7627  -2.5352  -2.4843  -2.4121  -2.2460
    -2.1658  -2.1449  -2.0693  -2.0451  -2.0102  -1.9314  -1.9277  -1.8943
    -1.8541  -1.8293  -1.8237  -1.8051  -1.7878  -1.7549  -1.7334  -1.7134
    -1.6987  -1.6839  -1.6365  -1.6277  -1.5919  -1.5884  -1.5740  -1.5622
    -1.5433  -1.5320  -1.4538  -1.4243  -1.3836  -1.2987  -1.2799  -1.1501
    -1.1449  -1.1031  -1.0623  -1.0249  -1.0049  -0.9856  -0.9595  -0.9308
    -0.8973  -0.7242  -0.7033  -0.6615  -0.6106  -0.6050  -0.5308  -0.5144
    -0.4605  -0.4284  -0.3392  -0.2976  -0.2578  -0.1492  -0.1221  -0.1098
     0.0277   0.0338   0.0796   0.0812   0.1224   0.1618   0.1725   0.1814
     0.2555   0.2887   0.3251   0.3511   0.3746   0.5521   0.5889   0.6474
     0.7352   0.7554   0.9331   0.9635   1.0076   1.0888   1.1502   1.2037
     1.2260   1.3327   1.3423   1.3653   1.4573   1.5058   1.5070   1.5369
     2.3906   2.3935   2.4943   2.4970   4.2918   4.4232   4.4294   4.5096
     4.5828   4.6759   4.6870   4.6943   4.7207   4.7308   4.7466

     the Fermi energy is     4.2242 ev

!    total energy              =   -3007.66307149 Ry
     estimated scf accuracy    <       0.00000004 Ry
     smearing contrib. (-TS)   =      -0.03677835 Ry
     internal energy E=F+TS    =   -3007.62629315 Ry

     The total energy is F=E-TS. E is the sum of the following terms:
     one-electron contribution =  -22339.47048628 Ry
     hartree contribution      =   11271.61577043 Ry
     xc contribution           =    -502.09381919 Ry
     ewald contribution        =    8562.31928568 Ry
     electric field correction =       0.00295622 Ry

     convergence has been achieved in 113 iterations

     Forces acting on atoms (cartesian axes, Ry/au):

     atom    1 type  1   force =    -0.00027938   -0.00001131    0.09253495
     atom    2 type  1   force =    -0.00013383    0.00113851   -0.18319894
     atom    3 type  2   force =     0.00054875   -0.00040286   -0.02392513
     atom    4 type  2   force =     0.00079825    0.00021305    0.05084229
     atom    5 type  2   force =    -0.01548204   -0.00014384    0.00437262
     atom    6 type  2   force =     0.01419586   -0.00033270    0.00505653
     atom    7 type  1   force =    -0.00010791    0.00020313    0.00007679
     atom    8 type  1   force =    -0.00008718    0.00016665   -0.00000506
     atom    9 type  2   force =     0.00007849    0.00004599    0.00008369
     atom   10 type  2   force =    -0.00000025    0.00001851   -0.00002454
     atom   11 type  2   force =     0.00016164    0.00000947   -0.00011554
     atom   12 type  2   force =     0.00004884    0.00002617   -0.00003923
     atom   13 type  1   force =     0.00016896    0.00011646   -0.00007508
     atom   14 type  1   force =     0.00027557    0.00016161   -0.00008810
     atom   15 type  2   force =     0.00027399    0.00038895    0.00005395
     atom   16 type  2   force =     0.00014970   -0.00001841    0.00024791
     atom   17 type  2   force =     0.00004010    0.00012180    0.00020818
     atom   18 type  2   force =     0.00012542    0.00003737    0.00037791
     atom   19 type  1   force =     0.00009207   -0.00014651   -0.00008795
     atom   20 type  1   force =     0.00018348   -0.00009629   -0.00043294
     atom   21 type  2   force =     0.00002927    0.00001502    0.10486654
     atom   22 type  2   force =    -0.00028920    0.00000592    0.00038001
     atom   23 type  2   force =    -0.06803841   -0.00012035   -0.02682146
     atom   24 type  2   force =     0.06790066    0.00033728   -0.02686526
     atom   25 type  1   force =    -0.00011847   -0.00003018    0.09598311
     atom   26 type  1   force =    -0.00010993   -0.00143176   -0.18311296
     atom   27 type  2   force =     0.00049890   -0.00019484   -0.02272305
     atom   28 type  2   force =     0.00086322    0.00017981    0.05123175
     atom   29 type  2   force =    -0.01539805    0.00050950    0.00454411
     atom   30 type  2   force =     0.01415126    0.00078767    0.00524523
     atom   31 type  1   force =    -0.00009799    0.00005573    0.00001161
     atom   32 type  1   force =    -0.00007979    0.00016491   -0.00004738
     atom   33 type  2   force =     0.00012187   -0.00002865    0.00012398
     atom   34 type  2   force =    -0.00000229    0.00007349    0.00005701
     atom   35 type  2   force =     0.00012054    0.00000320   -0.00001359
     atom   36 type  2   force =     0.00008929    0.00000368    0.00010961
     atom   37 type  1   force =     0.00015763    0.00006725   -0.00012386
     atom   38 type  1   force =     0.00015169   -0.00002907    0.00006824
     atom   39 type  2   force =     0.00016834   -0.00006967   -0.00011878
     atom   40 type  2   force =     0.00002408   -0.00017927    0.00006750
     atom   41 type  2   force =     0.00024604    0.00001888    0.00013592
     atom   42 type  2   force =    -0.00011578   -0.00000094    0.00022386
     atom   43 type  1   force =    -0.00003184   -0.00018933    0.00088395
     atom   44 type  1   force =     0.00008332    0.00011830    0.00005907
     atom   45 type  2   force =     0.00003518    0.00002030    0.10478556
     atom   46 type  2   force =    -0.06804918   -0.00050328   -0.02681303
     atom   47 type  2   force =     0.06791008   -0.00007967   -0.02688985
     atom   48 type  3   force =    -0.00001713   -0.00008146   -0.00046512
     atom   49 type  2   force =    -0.00040809   -0.00011055    0.00037392
     atom   50 type  4   force =    -0.00010092   -0.00041959    0.00007208
     atom   51 type  4   force =     0.00015489   -0.00014199    0.00000733
     atom   52 type  4   force =     0.00030554   -0.00041053    0.00006923
     atom   53 type  4   force =     0.00009804    0.00022319   -0.00016874
     atom   54 type  5   force =     0.01659434   -0.00675146    0.02455390
     atom   55 type  5   force =    -0.01714136    0.00670964   -0.02542370
     atom   56 type  2   force =     0.00127631    0.00058947   -0.00057932
     atom   57 type  4   force =    -0.00091331   -0.00045222    0.00011234
     atom   58 type  4   force =    -0.00111931   -0.00015415    0.00033793

     Total force =     0.370681     Total SCF correction =     0.000533
  @ DRIVER MODE: Message from server: STATUS
  @ DRIVER MODE: Message from server: GETFORCE
  @ DRIVER MODE: Returning v,forces,stress,ensemble

     Writing output data file ./calc.save/
  @ DRIVER MODE: Message from server: EXIT
  @ DRIVE MODE: Exiting

     General routines

     Parallel routines

   This run was terminated on:  12:12:52  28Sep2021

   JOB DONE.