     Program PWSCF v.6.7GPU starts on 23Sep2021 at  7:12:12

     R & G space division:  proc/nbgrp/npool/nimage =      10
     Reading input from /storage/home/hcoda1/3/ntian30/research/carbon/CxH_vib/H2O_calc/ads_slab/CH3NNH3HO_a/out_0043/pw.inp
Warning: card &CELL ignored
Warning: card   CELL_DYNAMICS='IPI', ignored
Warning: card / ignored

     Current dimensions of program PWSCF are:
     Max number of different atomic species (ntypx) = 10
     Max number of k-points (npk) =  40000
     Max angular momentum in pseudopotentials (lmaxx) =  3
     Presently no symmetry can be used with electric field

     Message from routine cell_base_init:
     DEPRECATED: use true lattice parameter, not A to a.u. conversion factor

     IMPORTANT: XC functional enforced from input :
     Exchange-correlation= BEEF-VDW
                           (   1   4  43  14   2   0   0)
     Any further DFT definition will be discarded
     Please, verify this is what you really want

  @ DRIVER MODE: Connecting to
 qe_1139763_2937318.sched-torque.pace.gatech.eduqtfsgerr_scratch
  using UNIX socket
  @ DRIVER MODE: Message from server: STATUS
  @ DRIVER MODE: Message from server: INIT
  @ DRIVER MODE: Receiving replica           0          -1
  @ DRIVER MODE: Receiving encoded integer          25
  @ DRIVER MODE:  SCF:  T  FORCE:  T  STRESS:  F  VC:  F  ENSEMBLE:  F
  @ DRIVER MODE:  SCF:  T  FORCE:  T  STRESS:  F  VC:  F  ENSEMBLE:  F

     Using Slab Decomposition

     bravais-lattice index     =            0
     lattice parameter (alat)  =       1.8897  a.u.
     unit-cell volume          =    6658.9804 (a.u.)^3
     number of atoms/cell      =           58
     number of atomic types    =            5
     number of electrons       =       405.00
     number of Kohn-Sham states=          212
     kinetic-energy cutoff     =      29.3995  Ry
     charge density cutoff     =     293.9946  Ry
     scf convergence threshold =      7.3E-08
     mixing beta               =       0.0500
     number of iterations used =            8  plain     mixing
     Exchange-correlation= BEEF-VDW
                           (   1   4  43  14   2   0   0)

     celldm(1)=   1.889726  celldm(2)=   0.000000  celldm(3)=   0.000000
     celldm(4)=   0.000000  celldm(5)=   0.000000  celldm(6)=   0.000000

     crystal axes: (cart. coord. in units of alat)
               a(1) = (   6.579727   0.000000   0.000000 )
               a(2) = (  -0.000775   5.961596   0.000000 )
               a(3) = (   0.000000   0.000000  25.155947 )

     reciprocal axes: (cart. coord. in units 2 pi/alat)
               b(1) = (  0.151982  0.000020  0.000000 )
               b(2) = (  0.000000  0.167740  0.000000 )
               b(3) = (  0.000000  0.000000  0.039752 )

     PseudoPot. # 1 for Ti read from file:
     /storage/coda1/p-amedford6/0/shared/rich_project_chbe-medford/medford-share/data/pseudos_module/espresso/nninc/pbe/van/Ti.UPF
     MD5 check sum: 8e4df49b7f0d34bbd5052bf3f5ea0213
     Pseudo is Ultrasoft, Zval = 12.0
     Generated by new atomic code, or converted to UPF format
     Using radial grid of  851 points,  6 beta functions with:
                l(1) =   0
                l(2) =   0
                l(3) =   1
                l(4) =   1
                l(5) =   2
                l(6) =   2
     Q(r) pseudized with  8 coefficients,  rinner =    1.000   1.000   1.000
                                                       1.000   1.000

     PseudoPot. # 2 for O  read from file:
     /storage/coda1/p-amedford6/0/shared/rich_project_chbe-medford/medford-share/data/pseudos_module/espresso/nninc/pbe/van/O.UPF
     MD5 check sum: 78c19812648e8988a0fe644b0f25305e
     Pseudo is Ultrasoft, Zval =  6.0
     Generated by new atomic code, or converted to UPF format
     Using radial grid of  737 points,  4 beta functions with:
                l(1) =   0
                l(2) =   0
                l(3) =   1
                l(4) =   1
     Q(r) pseudized with  8 coefficients,  rinner =    0.800   0.800   0.800

     PseudoPot. # 3 for N  read from file:
     /storage/coda1/p-amedford6/0/shared/rich_project_chbe-medford/medford-share/data/pseudos_module/espresso/nninc/pbe/van/N.UPF
     MD5 check sum: 90d10febe142ad51ac9d5be1deb811c4
     Pseudo is Ultrasoft, Zval =  5.0
     Generated by new atomic code, or converted to UPF format
     Using radial grid of  729 points,  4 beta functions with:
                l(1) =   0
                l(2) =   0
                l(3) =   1
                l(4) =   1
     Q(r) pseudized with  8 coefficients,  rinner =    0.800   0.800   0.800

     PseudoPot. # 4 for C  read from file:
     /storage/coda1/p-amedford6/0/shared/rich_project_chbe-medford/medford-share/data/pseudos_module/espresso/nninc/pbe/van/C.UPF
     MD5 check sum: 1a69bf6b8db32088f5b2163dbdb77a27
     Pseudo is Ultrasoft, Zval =  4.0
     Generated by new atomic code, or converted to UPF format
     Using radial grid of  721 points,  4 beta functions with:
                l(1) =   0
                l(2) =   0
                l(3) =   1
                l(4) =   1
     Q(r) pseudized with  8 coefficients,  rinner =    0.800   0.800   0.800

     PseudoPot. # 5 for H  read from file:
     /storage/coda1/p-amedford6/0/shared/rich_project_chbe-medford/medford-share/data/pseudos_module/espresso/nninc/pbe/van/H.UPF
     MD5 check sum: b5ee9d7bfd3a09ee7748110bda690ff7
     Pseudo is Ultrasoft, Zval =  1.0
     Generated by new atomic code, or converted to UPF format
     Using radial grid of  615 points,  1 beta functions with:
                l(1) =   0
     Q(r) pseudized with  8 coefficients,  rinner =    0.800

     atomic species   valence    mass     pseudopotential
        Ti1           12.00    47.86700     Ti( 1.00)
        O1             6.00    15.99900     O ( 1.00)
        N1             5.00    14.00700     N ( 1.00)
        C1             4.00    12.01100     C ( 1.00)
        H1             1.00     1.00800     H ( 1.00)

     No symmetry found

   Cartesian axes

     site n.     atom                  positions (alat units)
         1           Ti1 tau(   1) = (   0.0004258   2.9801865   6.0000000  )
         2           Ti1 tau(   2) = (   3.2906075   1.4906267   6.0002472  )
         3           O1  tau(   3) = (   0.0006271   0.0005054   7.9858123  )
         4           O1  tau(   4) = (   3.2906025   0.0005020   7.3038282  )
         5           O1  tau(   5) = (   4.5942328   1.4918067   9.2879030  )
         6           O1  tau(   6) = (   1.9868534   1.4903216   9.2879459  )
         7           Ti1 tau(   7) = (   3.2907910   2.8959150   9.1758416  )
         8           Ti1 tau(   8) = (   0.0015273   1.4827037   9.2680791  )
         9           O1  tau(   9) = (   3.2949357   5.9297256  11.2770696  )
        10           O1  tau(  10) = (   0.0116148   5.9584955  10.6183126  )
        11           O1  tau(  11) = (   1.2901270   1.4659759  12.6218969  )
        12           O1  tau(  12) = (   5.3029181   1.4690452  12.6271982  )
        13           Ti1 tau(  13) = (   6.5637346   3.0486055  12.7052252  )
        14           Ti1 tau(  14) = (   3.3207578   1.2909511  12.6638180  )
        15           O1  tau(  15) = (   0.0081040   5.9567798  14.6379979  )
        16           O1  tau(  16) = (   3.2944190   0.0149942  13.8863584  )
        17           O1  tau(  17) = (   4.5334936   1.5584448  16.0391558  )
        18           O1  tau(  18) = (   2.0244848   1.5379376  16.0854781  )
        19           Ti1 tau(  19) = (   3.2579824   3.0118882  15.6538344  )
        20           Ti1 tau(  20) = (   6.4918182   1.5199401  15.8876453  )
        21           O1  tau(  21) = (   3.2904802   0.0005063   4.7018136  )
        22           O1  tau(  22) = (   6.5166677   0.0216046  17.1949088  )
        23           O1  tau(  23) = (   1.3043587   1.4918075   6.0039043  )
        24           O1  tau(  24) = (   5.2767064   1.4903225   6.0039473  )
        25           Ti1 tau(  25) = (   0.0000382   5.9609847   6.0000000  )
        26           Ti1 tau(  26) = (   3.2902200   4.4714249   6.0002472  )
        27           O1  tau(  27) = (   0.0002396   2.9813036   7.9858123  )
        28           O1  tau(  28) = (   3.2902150   2.9813002   7.3038282  )
        29           O1  tau(  29) = (   4.5938453   4.4726049   9.2879030  )
        30           O1  tau(  30) = (   1.9864658   4.4711199   9.2879459  )
        31           Ti1 tau(  31) = (   3.2891106   5.8743827   9.1763621  )
        32           Ti1 tau(  32) = (   0.0006254   4.4649316   9.2693709  )
        33           O1  tau(  33) = (   3.2959121   3.0085915  11.2438341  )
        34           O1  tau(  34) = (   0.0092240   2.9805883  10.6323155  )
        35           O1  tau(  35) = (   1.2849535   4.4488585  12.6204231  )
        36           O1  tau(  36) = (   5.2878833   4.4365118  12.6243745  )
        37           Ti1 tau(  37) = (   0.0500071   0.0677371  12.6535751  )
        38           Ti1 tau(  38) = (   3.3027700   4.3871210  12.4110406  )
        39           O1  tau(  39) = (   6.5685058   2.9535060  14.6525041  )
        40           O1  tau(  40) = (   3.2696111   2.9719761  13.8704823  )
        41           O1  tau(  41) = (   4.5209813   4.4409030  16.0696701  )
        42           O1  tau(  42) = (   2.0131998   4.4599944  16.0916020  )
        43           Ti1 tau(  43) = (   3.2138439   0.0230873  16.3295100  )
        44           Ti1 tau(  44) = (   6.5234412   4.6200706  16.0754176  )
        45           O1  tau(  45) = (   3.2900926   2.9813045   4.7018136  )
        46           O1  tau(  46) = (   1.3039711   4.4726057   6.0039043  )
        47           O1  tau(  47) = (   5.2763189   4.4711207   6.0039473  )
        48           N1  tau(  48) = (   0.0251376   2.9556585  17.3246074  )
        49           N1  tau(  49) = (   6.3772498   2.5461882  22.2688425  )
        50           C1  tau(  50) = (   0.2111848   2.8484408  18.7116211  )
        51           H1  tau(  51) = (   0.3920758   3.8074029  19.2116250  )
        52           H1  tau(  52) = (   5.9044209   2.3708277  19.1722604  )
        53           H1  tau(  53) = (   1.0233575   2.1342068  18.9364007  )
        54           H1  tau(  54) = (   6.0930523   3.2289774  22.9628454  )
        55           H1  tau(  55) = (   0.2177240   1.7755739  22.7685771  )
        56           H1  tau(  56) = (   0.5282093   2.9785696  21.7129995  )
        57           O1  tau(  57) = (   3.3838229   0.0530270  18.1522483  )
        58           H1  tau(  58) = (   4.2718821   5.8932998  18.5223319  )

     number of k points=    10  Fermi-Dirac smearing, width (Ry)=  0.0073
                       cart. coord. in units 2pi/alat
        k(    1) = (   0.0000000   0.0000000   0.0000000), wk =   0.1250000
        k(    2) = (   0.0000000   0.0419351   0.0000000), wk =   0.2500000
        k(    3) = (   0.0000000  -0.0838702   0.0000000), wk =   0.1250000
        k(    4) = (   0.0379955   0.0000049   0.0000000), wk =   0.2500000
        k(    5) = (   0.0379955   0.0419400   0.0000000), wk =   0.2500000
        k(    6) = (   0.0379955  -0.0838652   0.0000000), wk =   0.2500000
        k(    7) = (   0.0379955  -0.0419301   0.0000000), wk =   0.2500000
        k(    8) = (  -0.0759910  -0.0000099   0.0000000), wk =   0.1250000
        k(    9) = (  -0.0759910   0.0419252   0.0000000), wk =   0.2500000
        k(   10) = (  -0.0759910  -0.0838800   0.0000000), wk =   0.1250000

     Initial potential from superposition of free atoms

     starting charge  388.99913, renormalised to  405.00000

     negative rho (up, down):  7.832E-03 0.000E+00

     %%%%%%%%%%%%%%%%%%%%%%%%%%%%%%%%%%%%%%%%%%%%%%%%%%%%%%%%%%%%%%%%%%%%%%%%
     %                                                                      %
     % You are using vdW-DF, which was implemented by the Thonhauser group. %
     % Please cite the following two papers that made this development      %
     % possible and the two reviews that describe the various versions:     %
     %                                                                      %
     %   T. Thonhauser et al., PRL 115, 136402 (2015).                      %
     %   T. Thonhauser et al., PRB 76, 125112 (2007).                       %
     %   K. Berland et al., Rep. Prog. Phys. 78, 066501 (2015).             %
     %   D.C. Langreth et al., J. Phys.: Condens. Matter 21, 084203 (2009). %
     %                                                                      %
     %                                                                      %
     % If you are calculating the stress with vdW-DF, please also cite:     %
     %                                                                      %
     %   R. Sabatini et al., J. Phys.: Condens. Matter 24, 424209 (2012).   %
     %                                                                      %
     %%%%%%%%%%%%%%%%%%%%%%%%%%%%%%%%%%%%%%%%%%%%%%%%%%%%%%%%%%%%%%%%%%%%%%%%

     Adding external electric field

     Computed dipole along edir(3) :
        Dipole              -15.1933 Ry au,        -38.6176 Debye
        Dipole field         -0.0287 Ry au,

        Potential amp.        2.6578 Ry
        Total length         46.3494 bohr

     Starting wfcs are  307 atomic wfcs
  @ DRIVER MODE: Message from server: STATUS
  @ DRIVER MODE: Message from server: POSDATA
  @ DRIVER MODE: Reading and sharing cell
  @ DRIVER MODE: Reading and sharing positions
  @ DRIVER MODE: Received positions

     Self-consistent Calculation

     iteration #  1     ecut=    29.40 Ry     beta= 0.05
     Davidson diagonalization with overlap
     c_bands:  4 eigenvalues not converged
     c_bands:  1 eigenvalues not converged
     c_bands:  1 eigenvalues not converged
     c_bands:  2 eigenvalues not converged
     c_bands:  1 eigenvalues not converged
     c_bands:  2 eigenvalues not converged
     ethr =  1.00E-05,  avg # of iterations = 31.5

[...]

     total energy              =   -2295.05781000 Ry
     estimated scf accuracy    <    7743.74898542 Ry

     iteration #  2     ecut=    29.40 Ry     beta= 0.05
     Davidson diagonalization with overlap
     ethr =  1.00E-02,  avg # of iterations = 22.6

[...]

     iteration # 56     ecut=    29.40 Ry     beta= 0.05
     Davidson diagonalization with overlap
     c_bands:  1 eigenvalues not converged
     ethr =  5.99E-07,  avg # of iterations =  7.6

[...]

     total energy              =   -2976.42350498 Ry
     estimated scf accuracy    <       0.00000028 Ry

     iteration # 76     ecut=    29.40 Ry     beta= 0.05
     Davidson diagonalization with overlap
     ethr =  5.80E-11,  avg # of iterations =  5.7

     negative rho (up, down):  9.596E-03 0.000E+00

     Adding external electric field

     Computed dipole along edir(3) :
        Dipole                0.6354 Ry au,          1.6151 Debye
        Dipole field          0.0012 Ry au,

        Potential amp.       -0.1112 Ry
        Total length         46.3494 bohr

     End of self-consistent calculation

          k = 0.0000 0.0000 0.0000 ( 18029 PWs)   bands (ev):

   -56.5653 -56.5318 -55.6410 -55.6059 -55.4251 -55.3585 -55.2305 -55.1162
   -55.0823 -55.0348 -55.0031 -54.9684 -54.9104 -54.8169 -54.7453 -54.6134
   -32.9841 -32.8358 -32.8077 -32.7448 -32.6546 -32.6112 -32.1228 -31.8999
   -31.8613 -31.8398 -31.7852 -31.7774 -31.7521 -31.6585 -31.6381 -31.5934
   -31.5617 -31.5460 -31.5219 -31.5096 -31.5045 -31.4938 -31.4633 -31.4624
   -31.4387 -31.4203 -31.3551 -31.3202 -31.2982 -31.2924 -31.2398 -31.2324
   -31.2157 -31.1940 -31.1812 -31.1660 -31.1588 -31.1284 -31.1231 -31.0914
   -31.0473 -31.0026 -31.0018 -30.9804 -30.9474 -30.8876 -30.8509 -30.8004
   -16.6687 -16.1105 -16.0874 -15.8820 -15.7594 -15.7540 -15.7108 -15.6421
   -15.4730 -15.4043 -15.3757 -15.3145 -15.1703 -15.0546 -14.9574 -14.7777
   -14.7040 -14.6988 -14.6798 -14.6724 -14.6554 -14.6346 -14.5756 -14.5171
   -14.4747 -14.4096 -14.3663 -14.2202 -14.0198 -13.9946 -13.9628 -13.6140
   -13.5070 -13.5025  -7.7375  -4.2441  -4.0570  -4.0199  -3.6981  -3.5772
    -3.4046  -3.2521  -3.2019  -3.1437  -3.0842  -3.0748  -2.9270  -2.9253
    -2.9136  -2.9068  -2.8286  -2.7701  -2.7052  -2.6181  -2.6025  -2.5079
    -2.4613  -2.3019  -2.2760  -2.1750  -2.1029  -2.0974  -2.0312  -2.0084
    -1.9611  -1.9161  -1.9067  -1.8720  -1.8283  -1.7815  -1.7632  -1.6519
    -1.6444  -1.5792  -1.5728  -1.5501  -1.4367  -1.4167  -1.3468  -1.2017
    -1.1803  -1.1770  -1.1298  -1.1125  -1.0307  -0.9347  -0.8675  -0.8409
    -0.7848  -0.6963  -0.6496  -0.6279  -0.5554  -0.5359  -0.4618  -0.4182
    -0.4053  -0.3847  -0.3427  -0.2282  -0.1413  -0.1085  -0.0547  -0.0293
     0.0034   0.0303   0.0494   0.0981   0.1678   0.2537   0.2748   0.4135
     0.4655   0.5023   0.5779   0.6123   0.6186   0.7079   0.7394   0.7690
     0.8155   0.8901   0.9046   0.9055   0.9646   1.0486   1.1034   1.1616
     1.1682   1.2036   1.2119   1.2626   1.3512   1.3718   1.4411   1.4961
     1.8199   1.8823   2.4844   2.7290   2.9005   3.1773   3.3694   3.6729
     3.7149   3.7328   3.7330   4.0387

[...]

          k = 0.0380-0.0419 0.0000 ( 17876 PWs)   bands (ev):

[...]

          k =-0.0760-0.0000 0.0000 ( 17886 PWs)   bands (ev):

[...]

          k =-0.0760-0.0839 0.0000 ( 17948 PWs)   bands (ev):

   -56.5492 -56.5478 -55.6286 -55.6182 -55.4205 -55.3631 -55.2296 -55.0998
   -55.0986 -55.0300 -55.0038 -54.9730 -54.9088 -54.8155 -54.7469 -54.6147
   -32.8223 -32.8207 -32.8020 -32.8006 -32.6989 -32.6978 -31.9473 -31.9381
   -31.8231 -31.8178 -31.8119 -31.8102 -31.7199 -31.6770 -31.6517 -31.6387
   -31.5889 -31.5872 -31.5014 -31.4741 -31.4644 -31.4523 -31.4514 -31.3693
   -31.3497 -31.3199 -31.3184 -31.3011 -31.2941 -31.2842 -31.2801 -31.2796
   -31.2515 -31.2325 -31.2147 -31.1997 -31.1960 -31.1580 -31.1577 -31.1018
   -31.0905 -31.0503 -31.0063 -30.9951 -30.9590 -30.9522 -30.8529 -30.8359
   -16.0753 -16.0271 -16.0252 -15.9818 -15.9802 -15.7184 -15.7139 -15.4635
   -15.4341 -15.2549 -15.1508 -15.1268 -15.0834 -15.0417 -14.9707 -14.9164
   -14.8868 -14.8549 -14.8288 -14.7667 -14.7369 -14.6323 -14.5995 -14.5521
   -14.5159 -14.4539 -14.4128 -14.3637 -14.1765 -14.1329 -13.9622 -13.6116
   -13.6110 -13.5274  -7.7366  -4.0674  -4.0203  -3.6892  -3.1585  -3.1031
    -3.0988  -3.0662  -3.0590  -2.9737  -2.8525  -2.8494  -2.7547  -2.6472
    -2.6207  -2.5978  -2.5372  -2.5279  -2.4277  -2.3781  -2.3732  -2.3588
    -2.3225  -2.2929  -2.2864  -2.2265  -2.0881  -2.0721  -2.0228  -1.9688
    -1.8943  -1.8858  -1.8765  -1.8397  -1.7980  -1.7726  -1.7617  -1.7345
    -1.7297  -1.7252  -1.6159  -1.5109  -1.4636  -1.3700  -1.3658  -1.3569
    -1.3191  -1.2919  -1.2584  -1.2520  -1.2232  -1.1432  -1.1169  -1.0471
    -0.9336  -0.9155  -0.8737  -0.8254  -0.7217  -0.7034  -0.6138  -0.5774
    -0.5660  -0.5067  -0.4776  -0.4616  -0.4035  -0.3643  -0.2325  -0.1926
    -0.1811  -0.1641  -0.1418  -0.1055  -0.0443   0.0171   0.0489   0.0509
     0.1554   0.2552   0.3429   0.4122   0.4216   0.4448   0.5312   0.6365
     0.6777   0.7024   0.7507   0.8743   0.9921   1.0218   1.1286   1.1552
     1.1646   1.2636   1.2813   1.2865   1.3065   1.3157   1.3507   1.4173
     1.4781   1.7646   2.3174   3.3216   3.3247   3.3829   3.3885   3.6992
     3.7015   3.8128   3.8178   4.1360

     the Fermi energy is     2.3944 ev

!    total energy              =   -2976.42352121 Ry
     estimated scf accuracy    <       0.00000006 Ry
     smearing contrib. (-TS)   =      -0.01083994 Ry
     internal energy E=F+TS    =   -2976.41268127 Ry

     The total energy is F=E-TS. E is the sum of the following terms:
     one-electron contribution =  -22707.56172723 Ry
     hartree contribution      =   11450.12997276 Ry
     xc contribution           =    -495.34711220 Ry
     ewald contribution        =    8776.36542345 Ry
     electric field correction =       0.00076196 Ry

     convergence has been achieved in  76 iterations

     Forces acting on atoms (cartesian axes, Ry/au):

     atom    1 type  1   force =     0.00002465   -0.00052204    0.12633070
     atom    2 type  1   force =    -0.00009649    0.00041382   -0.15466849
     atom    3 type  2   force =     0.00002755    0.00002645   -0.06828613
     atom    4 type  2   force =     0.00005884   -0.00010962    0.01704488
     atom    5 type  2   force =    -0.00488639   -0.00242366   -0.01324319
     atom    6 type  2   force =     0.00656840   -0.00180183   -0.01376036
     atom    7 type  1   force =    -0.00029381   -0.00661692    0.05921657
     atom    8 type  1   force =     0.00038866    0.00687052    0.10031501
     atom    9 type  2   force =    -0.00002323    0.00066506    0.00130929
     atom   10 type  2   force =    -0.00261428   -0.00001347   -0.06338637
     atom   11 type  2   force =     0.00043273   -0.00068827   -0.00028159
     atom   12 type  2   force =    -0.00084847   -0.00112481   -0.00109396
     atom   13 type  1   force =    -0.00029596    0.00071006   -0.00140369
     atom   14 type  1   force =    -0.00033079   -0.00037953   -0.00025400
     atom   15 type  2   force =    -0.00065857   -0.00039018   -0.00060154
     atom   16 type  2   force =     0.00019592    0.00092723   -0.00031350
     atom   17 type  2   force =     0.00078604    0.00008991   -0.00055345
     atom   18 type  2   force =    -0.00022961   -0.00015455   -0.00004357
     atom   19 type  1   force =    -0.00020352   -0.00011937   -0.00094382
     atom   20 type  1   force =     0.00069212    0.00084873   -0.00047543
     atom   21 type  2   force =     0.00006192    0.00015528    0.09779540
     atom   22 type  2   force =     0.00040910   -0.00033592    0.00142028
     atom   23 type  2   force =    -0.08275091    0.00005500   -0.03311605
     atom   24 type  2   force =     0.08269369    0.00050286   -0.03319183
     atom   25 type  1   force =     0.00007039   -0.00035659    0.12647329
     atom   26 type  1   force =    -0.00011080   -0.00150041   -0.15484435
     atom   27 type  2   force =     0.00011472   -0.00046798   -0.06666027
     atom   28 type  2   force =     0.00004837    0.00167398    0.01198363
     atom   29 type  2   force =    -0.00343891    0.00422177   -0.01621662
     atom   30 type  2   force =     0.00506713    0.00456566   -0.01662036
     atom   31 type  1   force =    -0.00015882    0.00217079    0.04255208
     atom   32 type  1   force =     0.00044218   -0.00893909    0.10088744
     atom   33 type  2   force =    -0.00048473   -0.00012785   -0.00039177
     atom   34 type  2   force =    -0.00212702   -0.00026171   -0.07625407
     atom   35 type  2   force =    -0.00010676    0.00069760    0.00086099
     atom   36 type  2   force =    -0.00048856    0.00051418    0.00038666
     atom   37 type  1   force =     0.00043553    0.00061459   -0.00019723
     atom   38 type  1   force =    -0.00042170   -0.00068946   -0.00068387
     atom   39 type  2   force =     0.00044813   -0.00032152   -0.00042836
     atom   40 type  2   force =     0.00036939   -0.00062773   -0.00002463
     atom   41 type  2   force =     0.00026688    0.00048578   -0.00003947
     atom   42 type  2   force =    -0.00020473   -0.00018536    0.00011161
     atom   43 type  1   force =     0.00051555    0.00135561   -0.00096520
     atom   44 type  1   force =    -0.00024716   -0.00105553    0.00083570
     atom   45 type  2   force =     0.00009377   -0.00001389    0.09764259
     atom   46 type  2   force =    -0.08279737    0.00003801   -0.03316759
     atom   47 type  2   force =     0.08270519    0.00045682   -0.03317492
     atom   48 type  3   force =     0.00001986    0.00040127    0.00039127
     atom   49 type  3   force =    -0.00371293    0.00591385   -0.00354120
     atom   50 type  4   force =     0.00075251    0.00036210    0.00058553
     atom   51 type  5   force =    -0.00000649   -0.00028529   -0.00055901
     atom   52 type  5   force =     0.00009544    0.00091361   -0.00055440
     atom   53 type  5   force =    -0.00018036    0.00033025    0.00040082
     atom   54 type  5   force =    -0.00037098    0.00016395   -0.00035061
     atom   55 type  5   force =     0.00412765   -0.00499521    0.00249913
     atom   56 type  5   force =     0.00045277   -0.00106880    0.00076219
     atom   57 type  2   force =    -0.00182381   -0.00056695    0.00035622
     atom   58 type  5   force =     0.00154809   -0.00000122    0.00012960

     Total force =     0.420788     Total SCF correction =     0.000712
  @ DRIVER MODE: Message from server: STATUS
  @ DRIVER MODE: Message from server: GETFORCE
  @ DRIVER MODE: Returning v,forces,stress,ensemble

     Writing output data file ./calc.save/
  @ DRIVER MODE: Message from server: EXIT
  @ DRIVE MODE: Exiting

     General routines

     Parallel routines

   This run was terminated on:   7:33:30  23Sep2021

   JOB DONE.