     Program PWSCF v.6.7GPU starts on 10Sep2021 at 13:15:27

     R & G space division:  proc/nbgrp/npool/nimage =      10
     Reading input from /storage/home/hcoda1/3/ntian30/research/carbon/CxH_vib/CH_calc/ads_slab/CHO_b/out_0010/pw.inp
Warning: card &CELL ignored
Warning: card   CELL_DYNAMICS='IPI', ignored
Warning: card / ignored

     Current dimensions of program PWSCF are:
     Max number of different atomic species (ntypx) = 10
     Max number of k-points (npk) =  40000
     Max angular momentum in pseudopotentials (lmaxx) =  3
     Presently no symmetry can be used with electric field

     Message from routine cell_base_init:
     DEPRECATED: use true lattice parameter, not A to a.u. conversion factor

     IMPORTANT: XC functional enforced from input :
     Exchange-correlation= BEEF-VDW
                           (   1   4  43  14   2   0   0)
     Any further DFT definition will be discarded
     Please, verify this is what you really want

  @ DRIVER MODE: Connecting to
 qe_1139763_2787519.sched-torque.pace.gatech.eduvv_qlsef_scratch
  using UNIX socket
  @ DRIVER MODE: Message from server: STATUS
  @ DRIVER MODE: Message from server: INIT
  @ DRIVER MODE: Receiving replica           0          -1
  @ DRIVER MODE: Receiving encoded integer          25
  @ DRIVER MODE:  SCF:  T  FORCE:  T  STRESS:  F  VC:  F  ENSEMBLE:  F
  @ DRIVER MODE:  SCF:  T  FORCE:  T  STRESS:  F  VC:  F  ENSEMBLE:  F

     Using Slab Decomposition

     bravais-lattice index     =            0
     lattice parameter (alat)  =       1.8897  a.u.
     unit-cell volume          =    6658.9804 (a.u.)^3
     number of atoms/cell      =           50
     number of atomic types    =            4
     number of electrons       =       389.00
     number of Kohn-Sham states=          204
     kinetic-energy cutoff     =      29.3995  Ry
     charge density cutoff     =     293.9946  Ry
     scf convergence threshold =      7.3E-08
     mixing beta               =       0.0500
     number of iterations used =            8  plain     mixing
     Exchange-correlation= BEEF-VDW
                           (   1   4  43  14   2   0   0)

     celldm(1)=   1.889726  celldm(2)=   0.000000  celldm(3)=   0.000000
     celldm(4)=   0.000000  celldm(5)=   0.000000  celldm(6)=   0.000000

     crystal axes: (cart. coord. in units of alat)
               a(1) = (   6.579727   0.000000   0.000000 )
               a(2) = (  -0.000775   5.961596   0.000000 )
               a(3) = (   0.000000   0.000000  25.155947 )

     reciprocal axes: (cart. coord. in units 2 pi/alat)
               b(1) = (  0.151982  0.000020  0.000000 )
               b(2) = (  0.000000  0.167740  0.000000 )
               b(3) = (  0.000000  0.000000  0.039752 )

     PseudoPot. # 1 for C  read from file:
     /storage/coda1/p-amedford6/0/shared/rich_project_chbe-medford/medford-share/data/pseudos_module/espresso/nninc/pbe/van/C.UPF
     MD5 check sum: 1a69bf6b8db32088f5b2163dbdb77a27
     Pseudo is Ultrasoft, Zval =  4.0
     Generated by new atomic code, or converted to UPF format
     Using radial grid of  721 points,  4 beta functions with:
                l(1) =   0
                l(2) =   0
                l(3) =   1
                l(4) =   1
     Q(r) pseudized with  8 coefficients,  rinner =    0.800   0.800   0.800

     PseudoPot. # 2 for H  read from file:
     /storage/coda1/p-amedford6/0/shared/rich_project_chbe-medford/medford-share/data/pseudos_module/espresso/nninc/pbe/van/H.UPF
     MD5 check sum: b5ee9d7bfd3a09ee7748110bda690ff7
     Pseudo is Ultrasoft, Zval =  1.0
     Generated by new atomic code, or converted to UPF format
     Using radial grid of  615 points,  1 beta functions with:
                l(1) =   0
     Q(r) pseudized with  8 coefficients,  rinner =    0.800

     PseudoPot. # 3 for O  read from file:
     /storage/coda1/p-amedford6/0/shared/rich_project_chbe-medford/medford-share/data/pseudos_module/espresso/nninc/pbe/van/O.UPF
     MD5 check sum: 78c19812648e8988a0fe644b0f25305e
     Pseudo is Ultrasoft, Zval =  6.0
     Generated by new atomic code, or converted to UPF format
     Using radial grid of  737 points,  4 beta functions with:
                l(1) =   0
                l(2) =   0
                l(3) =   1
                l(4) =   1
     Q(r) pseudized with  8 coefficients,  rinner =    0.800   0.800   0.800

     PseudoPot. # 4 for Ti read from file:
     /storage/coda1/p-amedford6/0/shared/rich_project_chbe-medford/medford-share/data/pseudos_module/espresso/nninc/pbe/van/Ti.UPF
     MD5 check sum: 8e4df49b7f0d34bbd5052bf3f5ea0213
     Pseudo is Ultrasoft, Zval = 12.0
     Generated by new atomic code, or converted to UPF format
     Using radial grid of  851 points,  6 beta functions with:
                l(1) =   0
                l(2) =   0
                l(3) =   1
                l(4) =   1
                l(5) =   2
                l(6) =   2
     Q(r) pseudized with  8 coefficients,  rinner =    1.000   1.000   1.000
                                                       1.000   1.000

     atomic species   valence    mass     pseudopotential
        C1             4.00    12.01100     C ( 1.00)
        H1             1.00     1.00800     H ( 1.00)
        O1             6.00    15.99900     O ( 1.00)
        Ti1           12.00    47.86700     Ti( 1.00)

     No symmetry found

   Cartesian axes

     site n.     atom                  positions (alat units)
         1           C1  tau(   1) = (   6.3587776   3.0346171  18.6991070  )
         2           H1  tau(   2) = (   6.2922760   4.0827217  19.0929586  )
         3           O1  tau(   3) = (   3.2904802   0.0005063   4.7018136  )
         4           O1  tau(   4) = (   3.2900926   2.9813045   4.7018136  )
         5           O1  tau(   5) = (   1.3043587   1.4918075   6.0039043  )
         6           O1  tau(   6) = (   1.3039711   4.4726057   6.0039043  )
         7           O1  tau(   7) = (   5.2767064   1.4903225   6.0039473  )
         8           O1  tau(   8) = (   5.2763189   4.4711207   6.0039473  )
         9           O1  tau(   9) = (   3.2906025   0.0005020   7.3038282  )
        10           O1  tau(  10) = (   3.2902150   2.9813002   7.3038282  )
        11           O1  tau(  11) = (   0.0006271   0.0005054   7.9858123  )
        12           O1  tau(  12) = (   0.0002396   2.9813036   7.9858123  )
        13           O1  tau(  13) = (   4.5942328   1.4918067   9.2879030  )
        14           O1  tau(  14) = (   4.5938453   4.4726049   9.2879030  )
        15           O1  tau(  15) = (   1.9868534   1.4903216   9.2879459  )
        16           O1  tau(  16) = (   1.9864658   4.4711199   9.2879459  )
        17           O1  tau(  17) = (   0.0089551   0.0090731  10.6060956  )
        18           O1  tau(  18) = (   0.0081065   2.9926185  10.5846179  )
        19           O1  tau(  19) = (   3.3067820   2.9987866  11.3556459  )
        20           O1  tau(  20) = (   3.3065515   0.0102365  11.3568631  )
        21           O1  tau(  21) = (   1.3059347   4.4882002  12.6500237  )
        22           O1  tau(  22) = (   1.3055417   1.5035265  12.6360268  )
        23           O1  tau(  23) = (   5.3051359   4.4887816  12.6540200  )
        24           O1  tau(  24) = (   5.3068170   1.5036142  12.6392087  )
        25           O1  tau(  25) = (   3.3083304   2.9784526  13.9386285  )
        26           O1  tau(  26) = (   3.3091502   0.0178089  13.9621511  )
        27           O1  tau(  27) = (   0.0285945   0.0429851  14.7139334  )
        28           O1  tau(  28) = (   0.0250276   2.9934328  14.7031448  )
        29           O1  tau(  29) = (   4.5637773   4.4621573  16.0705933  )
        30           O1  tau(  30) = (   4.5704664   1.4990971  16.1219853  )
        31           O1  tau(  31) = (   2.0588915   1.5049852  16.1384741  )
        32           O1  tau(  32) = (   2.0574578   4.4569323  16.0734780  )
        33           O1  tau(  33) = (   0.0254153   5.9007630  17.2337123  )
        34           O1  tau(  34) = (   6.5713271   3.0778540  17.4505513  )
        35           Ti1 tau(  35) = (   0.0004258   2.9801865   6.0000000  )
        36           Ti1 tau(  36) = (   0.0000382   5.9609847   6.0000000  )
        37           Ti1 tau(  37) = (   3.2906075   1.4906267   6.0002472  )
        38           Ti1 tau(  38) = (   3.2902200   4.4714249   6.0002472  )
        39           Ti1 tau(  39) = (   3.3074154   0.0512905   9.1535614  )
        40           Ti1 tau(  40) = (   3.3175376   3.0295664   9.1577231  )
        41           Ti1 tau(  41) = (   0.0320011   4.5319281   9.2536552  )
        42           Ti1 tau(  42) = (   0.0291175   1.6124540   9.3624198  )
        43           Ti1 tau(  43) = (   0.0319384   0.0140983  12.5009621  )
        44           Ti1 tau(  44) = (   3.3263618   4.4926927  12.5056541  )
        45           Ti1 tau(  45) = (   3.3260875   1.5134289  12.4961054  )
        46           Ti1 tau(  46) = (   0.0295699   2.9870307  12.7765901  )
        47           Ti1 tau(  47) = (   3.3175271   2.9789158  15.7343353  )
        48           Ti1 tau(  48) = (   3.3259804   0.0027171  15.7579320  )
        49           Ti1 tau(  49) = (   0.0443155   4.5293005  15.8502718  )
        50           Ti1 tau(  50) = (   0.0343648   1.3127704  16.1505034  )

     number of k points=    10  Fermi-Dirac smearing, width (Ry)=  0.0073
                       cart. coord. in units 2pi/alat
        k(    1) = (   0.0000000   0.0000000   0.0000000), wk =   0.1250000
        k(    2) = (   0.0000000   0.0419351   0.0000000), wk =   0.2500000
        k(    3) = (   0.0000000  -0.0838702   0.0000000), wk =   0.1250000
        k(    4) = (   0.0379955   0.0000049   0.0000000), wk =   0.2500000
        k(    5) = (   0.0379955   0.0419400   0.0000000), wk =   0.2500000
        k(    6) = (   0.0379955  -0.0838652   0.0000000), wk =   0.2500000
        k(    7) = (   0.0379955  -0.0419301   0.0000000), wk =   0.2500000
        k(    8) = (  -0.0759910  -0.0000099   0.0000000), wk =   0.1250000
        k(    9) = (  -0.0759910   0.0419252   0.0000000), wk =   0.2500000
        k(   10) = (  -0.0759910  -0.0838800   0.0000000), wk =   0.1250000

     Initial potential from superposition of free atoms

     starting charge  372.99920, renormalised to  389.00000

     negative rho (up, down):  1.915E-02 0.000E+00

     %%%%%%%%%%%%%%%%%%%%%%%%%%%%%%%%%%%%%%%%%%%%%%%%%%%%%%%%%%%%%%%%%%%%%%%%
     %                                                                      %
     % You are using vdW-DF, which was implemented by the Thonhauser group. %
     % Please cite the following two papers that made this development      %
     % possible and the two reviews that describe the various versions:     %
     %                                                                      %
     %   T. Thonhauser et al., PRL 115, 136402 (2015).                      %
     %   T. Thonhauser et al., PRB 76, 125112 (2007).                       %
     %   K. Berland et al., Rep. Prog. Phys. 78, 066501 (2015).             %
     %   D.C. Langreth et al., J. Phys.: Condens. Matter 21, 084203 (2009). %
     %                                                                      %
     %                                                                      %
     % If you are calculating the stress with vdW-DF, please also cite:     %
     %                                                                      %
     %   R. Sabatini et al., J. Phys.: Condens. Matter 24, 424209 (2012).   %
     %                                                                      %
     %%%%%%%%%%%%%%%%%%%%%%%%%%%%%%%%%%%%%%%%%%%%%%%%%%%%%%%%%%%%%%%%%%%%%%%%

     Adding external electric field

     Computed dipole along edir(3) :
        Dipole               -4.4683 Ry au,        -11.3573 Debye
        Dipole field         -0.0084 Ry au,

        Potential amp.        0.7817 Ry
        Total length         46.3494 bohr

     Starting wfcs are  293 atomic wfcs
  @ DRIVER MODE: Message from server: STATUS
  @ DRIVER MODE: Message from server: POSDATA
  @ DRIVER MODE: Reading and sharing cell
  @ DRIVER MODE: Reading and sharing positions
  @ DRIVER MODE: Received positions

     Self-consistent Calculation

     iteration #  1     ecut=    29.40 Ry     beta= 0.05
     Davidson diagonalization with overlap
     c_bands:  4 eigenvalues not converged
     c_bands:  5 eigenvalues not converged
     c_bands:  3 eigenvalues not converged
     c_bands:  3 eigenvalues not converged
     c_bands:  3 eigenvalues not converged
     c_bands:  3 eigenvalues not converged
     c_bands:  3 eigenvalues not converged
     c_bands:  1 eigenvalues not converged
     ethr =  1.00E-05,  avg # of iterations = 19.8

[...]

     total energy              =   -2876.55394441 Ry
     estimated scf accuracy    <     599.30298584 Ry

     iteration #  2     ecut=    29.40 Ry     beta= 0.05
     Davidson diagonalization with overlap
     ethr =  1.00E-02,  avg # of iterations = 14.3

[...]

     iteration # 77     ecut=    29.40 Ry     beta= 0.05
     Davidson diagonalization with overlap
     c_bands:  1 eigenvalues not converged
     ethr =  1.67E-10,  avg # of iterations =  5.5

[...]

     total energy              =   -2928.82186352 Ry
     estimated scf accuracy    <       0.00000011 Ry

     iteration # 87     ecut=    29.40 Ry     beta= 0.05
     Davidson diagonalization with overlap
     ethr =  2.31E-11,  avg # of iterations =  5.1

     negative rho (up, down):  1.793E-02 0.000E+00

     Adding external electric field

     Computed dipole along edir(3) :
        Dipole                0.1820 Ry au,          0.4627 Debye
        Dipole field          0.0003 Ry au,

        Potential amp.       -0.0318 Ry
        Total length         46.3494 bohr

     End of self-consistent calculation

          k = 0.0000 0.0000 0.0000 ( 18029 PWs)   bands (ev):

   -56.3075 -56.2946 -56.2708 -56.2578 -56.2041 -56.1952 -56.1624 -56.1466
   -56.0942 -56.0861 -56.0529 -56.0393 -55.9925 -55.9545 -55.3378 -55.3037
   -32.8596 -32.7808 -32.6691 -32.6501 -32.6216 -32.6141 -32.6053 -32.5873
   -32.5649 -32.5427 -32.5366 -32.5123 -32.5104 -32.4733 -32.4655 -32.4428
   -32.4407 -32.4269 -32.4268 -32.4025 -32.3765 -32.3722 -32.3700 -32.3681
   -32.3398 -32.3376 -32.3244 -32.3135 -32.3112 -32.2981 -32.2814 -32.2640
   -32.2615 -32.2567 -32.2302 -32.2109 -32.1913 -32.1798 -32.1780 -32.1770
   -32.1745 -32.1233 -31.7481 -31.6498 -31.6276 -31.5646 -31.4785 -31.3674
   -19.9123 -17.0573 -16.7815 -16.6120 -16.4911 -16.4512 -16.3108 -16.1760
   -16.0783 -15.9886 -15.9463 -15.8960 -15.8840 -15.8760 -15.8542 -15.8434
   -15.8308 -15.8191 -15.7606 -15.7501 -15.7251 -15.7133 -15.7032 -15.6136
   -15.5247 -15.4748 -15.4404 -15.3744 -15.3339 -15.2370 -13.8386 -13.7201
    -8.2253  -5.0055  -4.4124  -4.2467  -4.2110  -4.1925  -4.1373  -3.9230
    -3.8527  -3.6646  -3.5931  -3.4937  -3.4822  -3.4683  -3.4187  -3.4014
    -3.2652  -3.1737  -3.1469  -3.1423  -3.1330  -3.1057  -3.0687  -3.0352
    -3.0333  -3.0106  -2.8535  -2.8084  -2.7526  -2.7229  -2.6980  -2.6199
    -2.6102  -2.5842  -2.5667  -2.5514  -2.5447  -2.5293  -2.4929  -2.4484
    -2.3871  -2.2799  -2.1644  -2.1072  -2.0297  -2.0026  -1.8471  -1.7905
    -1.7505  -1.7233  -1.6755  -1.6398  -1.5836  -1.5652  -1.5247  -1.4684
    -1.3427  -1.3298  -1.2478  -1.1752  -1.1440  -1.0847  -1.0602  -1.0463
    -1.0357  -0.9482  -0.8000  -0.7935  -0.7667  -0.6823  -0.6558  -0.6334
    -0.5686  -0.5326  -0.5212  -0.4671  -0.4599  -0.3847  -0.3704  -0.3268
    -0.2994  -0.2890  -0.1781  -0.1191  -0.0976  -0.0741  -0.0172   0.1447
     0.1729   0.3153   0.4027   0.5869   0.6866   0.7454   0.8552   1.2744
     1.3326   2.5916   2.8597   2.8879   2.9215   2.9871   2.9983   3.1115
     3.2296   3.3035   3.3171   3.3499

[...]

          k = 0.0380-0.0419 0.0000 ( 17876 PWs)   bands (ev):

[...]

          k =-0.0760-0.0000 0.0000 ( 17886 PWs)   bands (ev):

[...]

          k =-0.0760-0.0839 0.0000 ( 17948 PWs)   bands (ev):

   -56.2960 -56.2821 -56.2797 -56.2724 -56.1983 -56.1805 -56.1771 -56.1521
   -56.0902 -56.0721 -56.0677 -56.0361 -55.9954 -55.9576 -55.3213 -55.3200
   -32.6651 -32.6597 -32.6047 -32.5907 -32.5891 -32.5817 -32.5680 -32.5608
   -32.5455 -32.5141 -32.5082 -32.5026 -32.4943 -32.4686 -32.4439 -32.4388
   -32.4259 -32.4211 -32.4196 -32.4119 -32.4109 -32.3965 -32.3934 -32.3880
   -32.3867 -32.3822 -32.3752 -32.3494 -32.3288 -32.3244 -32.3239 -32.2939
   -32.2857 -32.2785 -32.2749 -32.2700 -32.2662 -32.2203 -32.2079 -32.1895
   -32.1811 -32.1699 -31.6410 -31.6394 -31.5615 -31.5605 -31.5222 -31.5210
   -19.9038 -16.4861 -16.4528 -16.3395 -16.2326 -16.2179 -16.2017 -16.1460
   -16.0808 -16.0455 -16.0353 -15.9843 -15.9643 -15.9427 -15.9117 -15.8728
   -15.8437 -15.8309 -15.8260 -15.8141 -15.7737 -15.7710 -15.7273 -15.7063
   -15.6631 -15.6618 -15.6591 -15.5856 -15.5075 -15.4167 -13.8225 -13.8201
    -8.2243  -4.9843  -3.7754  -3.7343  -3.6705  -3.5893  -3.4462  -3.4365
    -3.4018  -3.3115  -3.2745  -3.2179  -3.2019  -3.1746  -3.1610  -3.1533
    -3.1381  -3.1240  -3.1120  -3.0550  -3.0373  -2.9959  -2.9887  -2.9698
    -2.9439  -2.9379  -2.9115  -2.9015  -2.8719  -2.8676  -2.8577  -2.8434
    -2.7220  -2.6557  -2.6291  -2.5570  -2.5088  -2.4749  -2.4379  -2.4072
    -2.3864  -2.3711  -2.3336  -2.1916  -2.1746  -2.0508  -2.0310  -2.0251
    -1.9824  -1.9547  -1.8796  -1.7619  -1.7484  -1.7277  -1.6287  -1.5950
    -1.5560  -1.5422  -1.4643  -1.4252  -1.4015  -1.3307  -1.2827  -1.2734
    -1.2188  -1.1995  -1.1086  -1.0749  -1.0670  -1.0244  -1.0031  -0.9761
    -0.8838  -0.8655  -0.8515  -0.7427  -0.6891  -0.6768  -0.4892  -0.3143
    -0.3092  -0.2567  -0.1908  -0.1193  -0.0594  -0.0497  -0.0339   0.0392
     0.1037   0.1850   0.2044   0.2151   0.2929   1.0448   1.0460   1.1376
     1.1487   2.5380   3.0578   3.0925   3.1215   3.1748   3.3175   3.3286
     3.3438   3.3584   3.3948   3.4894

     the Fermi energy is     2.8419 ev

!    total energy              =   -2928.82186593 Ry
     estimated scf accuracy    <       0.00000005 Ry
     smearing contrib. (-TS)   =      -0.02856454 Ry
     internal energy E=F+TS    =   -2928.79330138 Ry

     The total energy is F=E-TS. E is the sum of the following terms:
     one-electron contribution =  -24687.76217186 Ry
     hartree contribution      =   12423.83482865 Ry
     xc contribution           =    -480.34485076 Ry
     ewald contribution        =    9815.47883006 Ry
     electric field correction =       0.00006253 Ry

     convergence has been achieved in  87 iterations

     Forces acting on atoms (cartesian axes, Ry/au):

     atom    1 type  1   force =     0.00093483    0.00043423   -0.00040941
     atom    2 type  2   force =     0.00099185   -0.00006761    0.00058686
     atom    3 type  3   force =    -0.00008972    0.00008477    0.10428332
     atom    4 type  3   force =    -0.00008938    0.00006672    0.10431576
     atom    5 type  3   force =    -0.06887698    0.00072912   -0.02910947
     atom    6 type  3   force =    -0.06838879   -0.00124669   -0.02913087
     atom    7 type  3   force =     0.06853230    0.00121973   -0.02920006
     atom    8 type  3   force =     0.06811632   -0.00084199   -0.02919719
     atom    9 type  3   force =     0.00047633    0.00050899    0.04634083
     atom   10 type  3   force =     0.00061756    0.00082490    0.04783350
     atom   11 type  3   force =     0.00031631   -0.00537582   -0.03210022
     atom   12 type  3   force =     0.00046015    0.00368619   -0.02489923
     atom   13 type  3   force =    -0.01761587    0.00034957    0.00423011
     atom   14 type  3   force =    -0.01681433    0.00155938    0.00303501
     atom   15 type  3   force =     0.01941599   -0.00069666    0.00490760
     atom   16 type  3   force =     0.01811560    0.00108950    0.00352107
     atom   17 type  3   force =     0.00005095   -0.00007768   -0.00012127
     atom   18 type  3   force =    -0.00006493   -0.00023923   -0.00098808
     atom   19 type  3   force =    -0.00014616   -0.00012508    0.00043607
     atom   20 type  3   force =    -0.00023727   -0.00010403    0.00065896
     atom   21 type  3   force =     0.00050015    0.00036202   -0.00006677
     atom   22 type  3   force =     0.00062002   -0.00034798   -0.00025711
     atom   23 type  3   force =    -0.00065895    0.00029110    0.00001138
     atom   24 type  3   force =    -0.00059656   -0.00035694   -0.00006934
     atom   25 type  3   force =    -0.00016673   -0.00025716    0.00007705
     atom   26 type  3   force =    -0.00020399    0.00013618   -0.00030868
     atom   27 type  3   force =    -0.00002206    0.00226853   -0.00113511
     atom   28 type  3   force =    -0.00006870    0.00187034    0.00111087
     atom   29 type  3   force =    -0.00009657    0.00057921    0.00007223
     atom   30 type  3   force =     0.00044821   -0.00036906    0.00035455
     atom   31 type  3   force =    -0.00133514   -0.00079815    0.00037198
     atom   32 type  3   force =    -0.00035176    0.00063839    0.00028691
     atom   33 type  3   force =    -0.00055116    0.00068846    0.00002038
     atom   34 type  3   force =    -0.00111759   -0.00085803    0.00035925
     atom   35 type  4   force =    -0.00032785   -0.00194606    0.10173226
     atom   36 type  4   force =    -0.00007070    0.00170741    0.11343912
     atom   37 type  4   force =    -0.00036693    0.00064368   -0.18073686
     atom   38 type  4   force =    -0.00020601   -0.00018998   -0.18091997
     atom   39 type  4   force =     0.00055201    0.00009733    0.00071294
     atom   40 type  4   force =     0.00060682    0.00004158    0.00039589
     atom   41 type  4   force =    -0.00067457    0.00088430    0.00116298
     atom   42 type  4   force =    -0.00074878   -0.00151239    0.00049713
     atom   43 type  4   force =    -0.00071303   -0.00033928   -0.00213548
     atom   44 type  4   force =     0.00045877    0.00028257   -0.00052818
     atom   45 type  4   force =     0.00053752   -0.00039942    0.00008474
     atom   46 type  4   force =    -0.00065485    0.00038500    0.00206760
     atom   47 type  4   force =    -0.00013014   -0.00021902   -0.00044045
     atom   48 type  4   force =    -0.00025262    0.00007772   -0.00037142
     atom   49 type  4   force =     0.00003485   -0.01092640    0.00013247
     atom   50 type  4   force =    -0.00014843    0.00578772   -0.00091365

     Total force =     0.374481     Total SCF correction =     0.000528
  @ DRIVER MODE: Message from server: STATUS
  @ DRIVER MODE: Message from server: GETFORCE
  @ DRIVER MODE: Returning v,forces,stress,ensemble

     Writing output data file ./calc.save/
  @ DRIVER MODE: Message from server: EXIT
  @ DRIVE MODE: Exiting

     General routines

     Parallel routines

   This run was terminated on:  13:37:23  10Sep2021

   JOB DONE.