     Program PWSCF v.6.7GPU starts on 24Sep2021 at  3:54:24

     R & G space division:  proc/nbgrp/npool/nimage =       8
     Reading input from /storage/home/hcoda1/3/ntian30/research/carbon/CxH_vib/H2O_calc/ads_slab/CH3NNHHHHO_a/out_0042/pw.inp
Warning: card &CELL ignored
Warning: card   CELL_DYNAMICS='IPI', ignored
Warning: card / ignored

     Current dimensions of program PWSCF are:
     Max number of different atomic species (ntypx) = 10
     Max number of k-points (npk) =  40000
     Max angular momentum in pseudopotentials (lmaxx) =  3
     Presently no symmetry can be used with electric field

     Message from routine cell_base_init:
     DEPRECATED: use true lattice parameter, not A to a.u. conversion factor

     IMPORTANT: XC functional enforced from input :
     Exchange-correlation= BEEF-VDW
                           (   1   4  43  14   2   0   0)
     Any further DFT definition will be discarded
     Please, verify this is what you really want

  @ DRIVER MODE: Connecting to
 qe_1139763_2947308.sched-torque.pace.gatech.eduwfgjc1s0_scratch
  using UNIX socket
  @ DRIVER MODE: Message from server: STATUS
  @ DRIVER MODE: Message from server: INIT
  @ DRIVER MODE: Receiving replica           0          -1
  @ DRIVER MODE: Receiving encoded integer          25
  @ DRIVER MODE:  SCF:  T  FORCE:  T  STRESS:  F  VC:  F  ENSEMBLE:  F
  @ DRIVER MODE:  SCF:  T  FORCE:  T  STRESS:  F  VC:  F  ENSEMBLE:  F

     Using Slab Decomposition

     bravais-lattice index     =            0
     lattice parameter (alat)  =       1.8897  a.u.
     unit-cell volume          =    6658.9804 (a.u.)^3
     number of atoms/cell      =           58
     number of atomic types    =            5
     number of electrons       =       405.00
     number of Kohn-Sham states=          212
     kinetic-energy cutoff     =      29.3995  Ry
     charge density cutoff     =     293.9946  Ry
     scf convergence threshold =      7.3E-08
     mixing beta               =       0.0500
     number of iterations used =            8  plain     mixing
     Exchange-correlation= BEEF-VDW
                           (   1   4  43  14   2   0   0)

     celldm(1)=   1.889726  celldm(2)=   0.000000  celldm(3)=   0.000000
     celldm(4)=   0.000000  celldm(5)=   0.000000  celldm(6)=   0.000000

     crystal axes: (cart. coord. in units of alat)
               a(1) = (   6.579727   0.000000   0.000000 )
               a(2) = (  -0.000775   5.961596   0.000000 )
               a(3) = (   0.000000   0.000000  25.155947 )

     reciprocal axes: (cart. coord. in units 2 pi/alat)
               b(1) = (  0.151982  0.000020  0.000000 )
               b(2) = (  0.000000  0.167740  0.000000 )
               b(3) = (  0.000000  0.000000  0.039752 )

     PseudoPot. # 1 for Ti read from file:
     /storage/coda1/p-amedford6/0/shared/rich_project_chbe-medford/medford-share/data/pseudos_module/espresso/nninc/pbe/van/Ti.UPF
     MD5 check sum: 8e4df49b7f0d34bbd5052bf3f5ea0213
     Pseudo is Ultrasoft, Zval = 12.0
     Generated by new atomic code, or converted to UPF format
     Using radial grid of  851 points,  6 beta functions with:
                l(1) =   0
                l(2) =   0
                l(3) =   1
                l(4) =   1
                l(5) =   2
                l(6) =   2
     Q(r) pseudized with  8 coefficients,  rinner =    1.000   1.000   1.000
                                                       1.000   1.000

     PseudoPot. # 2 for O  read from file:
     /storage/coda1/p-amedford6/0/shared/rich_project_chbe-medford/medford-share/data/pseudos_module/espresso/nninc/pbe/van/O.UPF
     MD5 check sum: 78c19812648e8988a0fe644b0f25305e
     Pseudo is Ultrasoft, Zval =  6.0
     Generated by new atomic code, or converted to UPF format
     Using radial grid of  737 points,  4 beta functions with:
                l(1) =   0
                l(2) =   0
                l(3) =   1
                l(4) =   1
     Q(r) pseudized with  8 coefficients,  rinner =    0.800   0.800   0.800

     PseudoPot. # 3 for N  read from file:
     /storage/coda1/p-amedford6/0/shared/rich_project_chbe-medford/medford-share/data/pseudos_module/espresso/nninc/pbe/van/N.UPF
     MD5 check sum: 90d10febe142ad51ac9d5be1deb811c4
     Pseudo is Ultrasoft, Zval =  5.0
     Generated by new atomic code, or converted to UPF format
     Using radial grid of  729 points,  4 beta functions with:
                l(1) =   0
                l(2) =   0
                l(3) =   1
                l(4) =   1
     Q(r) pseudized with  8 coefficients,  rinner =    0.800   0.800   0.800

     PseudoPot. # 4 for C  read from file:
     /storage/coda1/p-amedford6/0/shared/rich_project_chbe-medford/medford-share/data/pseudos_module/espresso/nninc/pbe/van/C.UPF
     MD5 check sum: 1a69bf6b8db32088f5b2163dbdb77a27
     Pseudo is Ultrasoft, Zval =  4.0
     Generated by new atomic code, or converted to UPF format
     Using radial grid of  721 points,  4 beta functions with:
                l(1) =   0
                l(2) =   0
                l(3) =   1
                l(4) =   1
     Q(r) pseudized with  8 coefficients,  rinner =    0.800   0.800   0.800

     PseudoPot. # 5 for H  read from file:
     /storage/coda1/p-amedford6/0/shared/rich_project_chbe-medford/medford-share/data/pseudos_module/espresso/nninc/pbe/van/H.UPF
     MD5 check sum: b5ee9d7bfd3a09ee7748110bda690ff7
     Pseudo is Ultrasoft, Zval =  1.0
     Generated by new atomic code, or converted to UPF format
     Using radial grid of  615 points,  1 beta functions with:
                l(1) =   0
     Q(r) pseudized with  8 coefficients,  rinner =    0.800

     atomic species   valence    mass     pseudopotential
        Ti1           12.00    47.86700     Ti( 1.00)
        O1             6.00    15.99900     O ( 1.00)
        N1             5.00    14.00700     N ( 1.00)
        C1             4.00    12.01100     C ( 1.00)
        H1             1.00     1.00800     H ( 1.00)

     No symmetry found

   Cartesian axes

     site n.     atom                  positions (alat units)
         1           Ti1 tau(   1) = (   0.0004258   2.9801865   6.0000000  )
         2           Ti1 tau(   2) = (   3.2906075   1.4906267   6.0002472  )
         3           O1  tau(   3) = (   0.0006271   0.0005054   7.9858123  )
         4           O1  tau(   4) = (   3.2906025   0.0005020   7.3038282  )
         5           O1  tau(   5) = (   4.5942328   1.4918067   9.2879030  )
         6           O1  tau(   6) = (   1.9868534   1.4903216   9.2879459  )
         7           Ti1 tau(   7) = (   3.2907910   2.8959150   9.1758416  )
         8           Ti1 tau(   8) = (   0.0015273   1.4827037   9.2680791  )
         9           O1  tau(   9) = (   3.3066316   0.0080679  11.3583267  )
        10           O1  tau(  10) = (   0.0116148   5.9584955  10.6183126  )
        11           O1  tau(  11) = (   1.3000076   1.5005770  12.6434233  )
        12           O1  tau(  12) = (   5.3281586   1.4930334  12.6431679  )
        13           Ti1 tau(  13) = (   0.0126194   3.0144704  12.5166071  )
        14           Ti1 tau(  14) = (   3.3185830   1.5708444  12.4374219  )
        15           O1  tau(  15) = (   0.0449490   0.0685618  14.6579901  )
        16           O1  tau(  16) = (   3.3164028   5.8986079  13.9921319  )
        17           O1  tau(  17) = (   4.5763498   1.4919541  16.1892649  )
        18           O1  tau(  18) = (   2.0390356   1.5007807  16.1677599  )
        19           Ti1 tau(  19) = (   3.3152479   2.9236451  15.6986563  )
        20           Ti1 tau(  20) = (   0.0808212   1.4292116  16.0039943  )
        21           O1  tau(  21) = (   3.2904802   0.0005063   4.7018136  )
        22           O1  tau(  22) = (   0.0303022   5.8046116  17.1736243  )
        23           O1  tau(  23) = (   1.3043587   1.4918075   6.0039043  )
        24           O1  tau(  24) = (   5.2767064   1.4903225   6.0039473  )
        25           Ti1 tau(  25) = (   0.0000382   5.9609847   6.0000000  )
        26           Ti1 tau(  26) = (   3.2902200   4.4714249   6.0002472  )
        27           O1  tau(  27) = (   0.0002396   2.9813036   7.9858123  )
        28           O1  tau(  28) = (   3.2902150   2.9813002   7.3038282  )
        29           O1  tau(  29) = (   4.5938453   4.4726049   9.2879030  )
        30           O1  tau(  30) = (   1.9864658   4.4711199   9.2879459  )
        31           Ti1 tau(  31) = (   3.2891106   5.8743827   9.1763621  )
        32           Ti1 tau(  32) = (   0.0006254   4.4649316   9.2693709  )
        33           O1  tau(  33) = (   3.3101163   2.9547251  11.3177968  )
        34           O1  tau(  34) = (   0.0092240   2.9805883  10.6323155  )
        35           O1  tau(  35) = (   1.2917786   4.4638488  12.6831265  )
        36           O1  tau(  36) = (   5.3332004   4.4701953  12.6833355  )
        37           Ti1 tau(  37) = (   0.0360484   0.0435164  12.5022323  )
        38           Ti1 tau(  38) = (   3.3166134   4.6596848  12.7231989  )
        39           O1  tau(  39) = (   6.5734590   2.9070644  14.8960501  )
        40           O1  tau(  40) = (   3.3256711   2.9499323  13.9293234  )
        41           O1  tau(  41) = (   4.5718193   4.3849529  16.1598725  )
        42           O1  tau(  42) = (   2.0293811   4.3548050  16.0908550  )
        43           Ti1 tau(  43) = (   3.3839698   5.9011270  16.3477160  )
        44           Ti1 tau(  44) = (   0.0762916   4.6312412  15.8077656  )
        45           O1  tau(  45) = (   3.2900926   2.9813045   4.7018136  )
        46           O1  tau(  46) = (   1.3039711   4.4726057   6.0039043  )
        47           O1  tau(  47) = (   5.2763189   4.4711207   6.0039473  )
        48           N1  tau(  48) = (   1.0338470   3.0145746  18.8549854  )
        49           N1  tau(  49) = (   6.4614719   2.5758313  18.0922931  )
        50           C1  tau(  50) = (   0.6385090   3.7489381  20.0602371  )
        51           H1  tau(  51) = (   6.5128770   4.5633600  19.8465500  )
        52           H1  tau(  52) = (   0.1876125   3.0656416  20.7809517  )
        53           H1  tau(  53) = (   1.5398112   4.1767214  20.4987412  )
        54           H1  tau(  54) = (   5.7034478   3.2665398  18.1548723  )
        55           H1  tau(  55) = (   6.1095767   1.7263867  18.5341855  )
        56           H1  tau(  56) = (   1.5400177   3.6533120  18.2466354  )
        57           O1  tau(  57) = (   3.2295176   5.8880611  18.1942677  )
        58           H1  tau(  58) = (   2.6769533   0.6239085  18.5854980  )

     number of k points=    10  Fermi-Dirac smearing, width (Ry)=  0.0073
                       cart. coord. in units 2pi/alat
        k(    1) = (   0.0000000   0.0000000   0.0000000), wk =   0.1250000
        k(    2) = (   0.0000000   0.0419351   0.0000000), wk =   0.2500000
        k(    3) = (   0.0000000  -0.0838702   0.0000000), wk =   0.1250000
        k(    4) = (   0.0379955   0.0000049   0.0000000), wk =   0.2500000
        k(    5) = (   0.0379955   0.0419400   0.0000000), wk =   0.2500000
        k(    6) = (   0.0379955  -0.0838652   0.0000000), wk =   0.2500000
        k(    7) = (   0.0379955  -0.0419301   0.0000000), wk =   0.2500000
        k(    8) = (  -0.0759910  -0.0000099   0.0000000), wk =   0.1250000
        k(    9) = (  -0.0759910   0.0419252   0.0000000), wk =   0.2500000
        k(   10) = (  -0.0759910  -0.0838800   0.0000000), wk =   0.1250000

     Initial potential from superposition of free atoms

     starting charge  388.99913, renormalised to  405.00000

     negative rho (up, down):  1.325E-02 0.000E+00

     %%%%%%%%%%%%%%%%%%%%%%%%%%%%%%%%%%%%%%%%%%%%%%%%%%%%%%%%%%%%%%%%%%%%%%%%
     %                                                                      %
     % You are using vdW-DF, which was implemented by the Thonhauser group. %
     % Please cite the following two papers that made this development      %
     % possible and the two reviews that describe the various versions:     %
     %                                                                      %
     %   T. Thonhauser et al., PRL 115, 136402 (2015).                      %
     %   T. Thonhauser et al., PRB 76, 125112 (2007).                       %
     %   K. Berland et al., Rep. Prog. Phys. 78, 066501 (2015).             %
     %   D.C. Langreth et al., J. Phys.: Condens. Matter 21, 084203 (2009). %
     %                                                                      %
     %                                                                      %
     % If you are calculating the stress with vdW-DF, please also cite:     %
     %                                                                      %
     %   R. Sabatini et al., J. Phys.: Condens. Matter 24, 424209 (2012).   %
     %                                                                      %
     %%%%%%%%%%%%%%%%%%%%%%%%%%%%%%%%%%%%%%%%%%%%%%%%%%%%%%%%%%%%%%%%%%%%%%%%

     Adding external electric field

     Computed dipole along edir(3) :
        Dipole              -14.7659 Ry au,        -37.5312 Debye
        Dipole field         -0.0279 Ry au,

        Potential amp.        2.5831 Ry
        Total length         46.3494 bohr

     Starting wfcs are  307 atomic wfcs
  @ DRIVER MODE: Message from server: STATUS
  @ DRIVER MODE: Message from server: POSDATA
  @ DRIVER MODE: Reading and sharing cell
  @ DRIVER MODE: Reading and sharing positions
  @ DRIVER MODE: Received positions

     Self-consistent Calculation

     iteration #  1     ecut=    29.40 Ry     beta= 0.05
     Davidson diagonalization with overlap
     c_bands:  3 eigenvalues not converged
     c_bands:  4 eigenvalues not converged
     c_bands:  2 eigenvalues not converged
     c_bands:  3 eigenvalues not converged
     c_bands:  3 eigenvalues not converged
     c_bands:  3 eigenvalues not converged
     ethr =  1.00E-05,  avg # of iterations = 23.2

[...]

     total energy              =   -2204.23249372 Ry
     estimated scf accuracy    <    8785.98561887 Ry

     iteration #  2     ecut=    29.40 Ry     beta= 0.05
     Davidson diagonalization with overlap
     ethr =  1.00E-02,  avg # of iterations = 30.3

[...]

     iteration # 62     ecut=    29.40 Ry     beta= 0.05
     Davidson diagonalization with overlap
     c_bands:  1 eigenvalues not converged
     ethr =  2.47E-10,  avg # of iterations = 14.3

[...]

     total energy              =   -2976.49822755 Ry
     estimated scf accuracy    <       0.00000011 Ry

     iteration # 67     ecut=    29.40 Ry     beta= 0.05
     Davidson diagonalization with overlap
     ethr =  2.79E-11,  avg # of iterations = 13.1

     negative rho (up, down):  1.443E-02 0.000E+00

     Adding external electric field

     Computed dipole along edir(3) :
        Dipole                0.9949 Ry au,          2.5288 Debye
        Dipole field          0.0019 Ry au,

        Potential amp.       -0.1740 Ry
        Total length         46.3494 bohr

     End of self-consistent calculation

          k = 0.0000 0.0000 0.0000 ( 18029 PWs)   bands (ev):

   -55.5804 -55.4970 -55.4630 -55.3630 -55.3409 -55.3249 -55.3107 -55.3045
   -55.2911 -55.2615 -55.2177 -55.0952 -55.0848 -55.0078 -54.4662 -54.4321
   -31.9816 -31.9166 -31.8764 -31.8285 -31.8269 -31.8078 -31.7973 -31.7879
   -31.7480 -31.7430 -31.7245 -31.6496 -31.6263 -31.6051 -31.6035 -31.6015
   -31.5962 -31.5841 -31.5817 -31.5546 -31.5484 -31.5228 -31.5223 -31.5108
   -31.4953 -31.4843 -31.4767 -31.4596 -31.4551 -31.4522 -31.4426 -31.4366
   -31.4328 -31.4135 -31.3715 -31.3694 -31.2993 -31.2918 -31.2783 -31.2574
   -31.2204 -31.2132 -30.8718 -30.7863 -30.7639 -30.6895 -30.6031 -30.4912
   -17.5868 -16.3998 -16.1378 -15.9753 -15.7594 -15.6739 -15.6455 -15.4530
   -15.3476 -15.2947 -15.1084 -15.0615 -15.0318 -15.0205 -15.0053 -14.9826
   -14.9628 -14.9247 -14.9162 -14.9058 -14.9002 -14.8616 -14.8394 -14.7888
   -14.7657 -14.7032 -14.6314 -14.5636 -14.5162 -14.2550 -14.2371 -12.9682
   -12.9643 -12.8480  -9.4652  -6.1375  -5.2061  -4.6430  -3.9613  -3.5025
    -3.4017  -3.3858  -3.3307  -3.2671  -3.1688  -2.9939  -2.8854  -2.8318
    -2.7308  -2.6235  -2.5686  -2.5058  -2.4817  -2.4289  -2.3956  -2.3842
    -2.3772  -2.2809  -2.2725  -2.2453  -2.2099  -2.1538  -2.1381  -2.0603
    -2.0240  -2.0154  -1.8907  -1.8784  -1.8127  -1.8085  -1.8021  -1.7684
    -1.7474  -1.7325  -1.7033  -1.6196  -1.5668  -1.4964  -1.4737  -1.4436
    -1.1848  -1.0925  -1.0548  -1.0266  -0.9293  -0.9160  -0.9012  -0.8961
    -0.8821  -0.8327  -0.7871  -0.7017  -0.5934  -0.5759  -0.5635  -0.5185
    -0.4528  -0.3711  -0.2980  -0.2685  -0.2312  -0.2179  -0.1517  -0.0745
    -0.0583  -0.0461   0.0624   0.0766   0.1594   0.2174   0.2320   0.2770
     0.3176   0.3503   0.4071   0.4435   0.4740   0.4797   0.5131   0.5576
     0.6133   0.6437   0.6717   0.7540   0.8096   0.8549   0.8826   1.0541
     1.0842   1.1408   1.1803   1.2675   1.5103   1.5606   1.5998   1.7549
     2.1269   2.1720   3.5877   3.7387   3.7539   3.8236   3.8485   3.9395
     4.0770   4.1448   4.2769   4.2848

[...]

          k = 0.0380-0.0419 0.0000 ( 17876 PWs)   bands (ev):

[...]

          k =-0.0760-0.0000 0.0000 ( 17886 PWs)   bands (ev):

[...]

          k =-0.0760-0.0839 0.0000 ( 17948 PWs)   bands (ev):

   -55.5796 -55.4801 -55.4797 -55.3617 -55.3278 -55.3175 -55.3113 -55.3080
   -55.3076 -55.2536 -55.2257 -55.0920 -55.0859 -55.0109 -54.4493 -54.4489
   -31.8639 -31.8064 -31.8019 -31.7970 -31.7968 -31.7823 -31.7736 -31.7731
   -31.7040 -31.6483 -31.6403 -31.6328 -31.6281 -31.6147 -31.6001 -31.6000
   -31.5980 -31.5977 -31.5831 -31.5729 -31.5652 -31.5569 -31.5356 -31.5174
   -31.5143 -31.5107 -31.5034 -31.5003 -31.4881 -31.4807 -31.4782 -31.4725
   -31.4672 -31.4486 -31.4428 -31.3655 -31.3540 -31.3395 -31.3012 -31.2959
   -31.2626 -31.2166 -30.7767 -30.7765 -30.6849 -30.6845 -30.6465 -30.6461
   -17.5808 -16.3857 -15.7460 -15.5677 -15.4718 -15.4653 -15.3344 -15.2683
   -15.2599 -15.2246 -15.2068 -15.1919 -15.1586 -15.1412 -15.1017 -15.0490
   -15.0157 -14.9930 -14.9814 -14.9444 -14.9319 -14.9099 -14.9026 -14.8940
   -14.8355 -14.8036 -14.7945 -14.7633 -14.5681 -14.5462 -14.3696 -12.9697
   -12.9500 -12.9499  -9.4627  -6.1228  -5.2078  -4.6531  -3.9575  -3.1698
    -2.9203  -2.7767  -2.7007  -2.5667  -2.5567  -2.4989  -2.4945  -2.4463
    -2.4378  -2.3965  -2.3426  -2.3263  -2.2835  -2.2786  -2.2478  -2.2353
    -2.2245  -2.2155  -2.1904  -2.1708  -2.1619  -2.1211  -2.1166  -2.1006
    -2.0811  -2.0647  -2.0372  -2.0260  -1.9859  -1.9465  -1.8814  -1.8074
    -1.7217  -1.6389  -1.6285  -1.6176  -1.5713  -1.5648  -1.5181  -1.5069
    -1.4593  -1.4085  -1.2935  -1.1720  -1.1308  -1.1046  -1.0724  -1.0406
    -0.9858  -0.9630  -0.9279  -0.8794  -0.8478  -0.7240  -0.7129  -0.6476
    -0.5656  -0.5306  -0.4539  -0.4408  -0.4263  -0.4100  -0.3881  -0.3715
    -0.3426  -0.3273  -0.2215  -0.1976  -0.1944  -0.1721  -0.1219  -0.0179
     0.0555   0.1390   0.2417   0.2911   0.3192   0.3528   0.4526   0.5706
     0.5958   0.6588   0.6911   0.7339   0.8011   0.8218   0.8697   0.9548
     1.0081   1.0405   1.0668   1.0718   1.1264   1.1565   1.9236   1.9321
     1.9923   1.9926   3.8012   4.0777   4.1031   4.1191   4.1564   4.1606
     4.1824   4.1969   4.2621   4.2775

     the Fermi energy is     3.6246 ev

!    total energy              =   -2976.49826298 Ry
     estimated scf accuracy    <       0.00000004 Ry
     smearing contrib. (-TS)   =      -0.01952919 Ry
     internal energy E=F+TS    =   -2976.47873379 Ry

     The total energy is F=E-TS. E is the sum of the following terms:
     one-electron contribution =  -23034.03384702 Ry
     hartree contribution      =   11613.39138060 Ry
     xc contribution           =    -495.70898204 Ry
     ewald contribution        =    8939.87084672 Ry
     electric field correction =       0.00186795 Ry

     convergence has been achieved in  67 iterations

     Forces acting on atoms (cartesian axes, Ry/au):

     atom    1 type  1   force =     0.00001044   -0.00022375    0.09405086
     atom    2 type  1   force =    -0.00016110    0.00025421   -0.17517181
     atom    3 type  2   force =     0.00007377   -0.00016008   -0.02114797
     atom    4 type  2   force =     0.00000355   -0.00104214    0.05355914
     atom    5 type  2   force =    -0.00454601   -0.00322388    0.00115230
     atom    6 type  2   force =     0.00660373   -0.00242334    0.00161620
     atom    7 type  1   force =     0.00037397    0.00457150    0.01037496
     atom    8 type  1   force =    -0.00056133    0.00198911    0.00312091
     atom    9 type  2   force =     0.00010336   -0.00049353   -0.00046997
     atom   10 type  2   force =    -0.00031040   -0.00004032   -0.01131637
     atom   11 type  2   force =    -0.00023496    0.00045276    0.00003988
     atom   12 type  2   force =    -0.00026836    0.00067052    0.00007712
     atom   13 type  1   force =     0.00061361   -0.00065984    0.00024708
     atom   14 type  1   force =    -0.00035760    0.00015952    0.00020917
     atom   15 type  2   force =    -0.00016504    0.00018690    0.00055631
     atom   16 type  2   force =     0.00004205   -0.00002319    0.00040311
     atom   17 type  2   force =    -0.00042699    0.00018104    0.00006799
     atom   18 type  2   force =    -0.00003019    0.00010447    0.00028747
     atom   19 type  1   force =     0.00001677    0.00059876   -0.00026899
     atom   20 type  1   force =    -0.00015362   -0.00013159   -0.00028406
     atom   21 type  2   force =     0.00002919   -0.00001201    0.10314183
     atom   22 type  2   force =    -0.00005114   -0.00004177   -0.00033530
     atom   23 type  2   force =    -0.07215586   -0.00021097   -0.02727148
     atom   24 type  2   force =     0.07206101    0.00023219   -0.02734914
     atom   25 type  1   force =     0.00006764   -0.00034771    0.09403503
     atom   26 type  1   force =    -0.00000240   -0.00128611   -0.17519811
     atom   27 type  2   force =     0.00015388   -0.00021237   -0.01992488
     atom   28 type  2   force =     0.00008704   -0.00111105    0.04907908
     atom   29 type  2   force =    -0.00668104    0.00152889    0.00212731
     atom   30 type  2   force =     0.00854986    0.00170753    0.00249794
     atom   31 type  1   force =     0.00049768   -0.00019510    0.00053671
     atom   32 type  1   force =    -0.00020473   -0.00145925    0.00350915
     atom   33 type  2   force =    -0.00007863   -0.00001269   -0.00002181
     atom   34 type  2   force =    -0.00088878    0.00246422   -0.01153024
     atom   35 type  2   force =     0.00002853   -0.00042825    0.00048486
     atom   36 type  2   force =    -0.00052674   -0.00040576    0.00033935
     atom   37 type  1   force =     0.00036538    0.00029531    0.00002945
     atom   38 type  1   force =    -0.00037748    0.00022675    0.00030751
     atom   39 type  2   force =    -0.00049068    0.00040886    0.00044896
     atom   40 type  2   force =    -0.00002228   -0.00008503   -0.00005768
     atom   41 type  2   force =    -0.00050239   -0.00018011    0.00019610
     atom   42 type  2   force =    -0.00022778   -0.00025000   -0.00023325
     atom   43 type  1   force =     0.00006381   -0.00045213    0.00061219
     atom   44 type  1   force =    -0.00029372   -0.00000118    0.00031444
     atom   45 type  2   force =     0.00002048   -0.00001568    0.10299567
     atom   46 type  2   force =    -0.07216382   -0.00008508   -0.02726884
     atom   47 type  2   force =     0.07201754    0.00035356   -0.02731030
     atom   48 type  3   force =     0.00139304   -0.00083733    0.00000676
     atom   49 type  3   force =    -0.00206601    0.00157127    0.00143355
     atom   50 type  4   force =     0.00047095   -0.00045887    0.00010517
     atom   51 type  5   force =    -0.00034180    0.00028532    0.00000539
     atom   52 type  5   force =    -0.00009840   -0.00079743    0.00003438
     atom   53 type  5   force =     0.00017713   -0.00051393    0.00001529
     atom   54 type  5   force =     0.00046565   -0.00032280   -0.00210228
     atom   55 type  5   force =     0.00029492   -0.00023516    0.00043526
     atom   56 type  5   force =     0.00026551    0.00022232   -0.00039074
     atom   57 type  2   force =    -0.00022002    0.00053103   -0.00059392
     atom   58 type  5   force =    -0.00024121   -0.00061663   -0.00020677

     Total force =     0.361781     Total SCF correction =     0.000467
  @ DRIVER MODE: Message from server: STATUS
  @ DRIVER MODE: Message from server: GETFORCE
  @ DRIVER MODE: Returning v,forces,stress,ensemble

     Writing output data file ./calc.save/
  @ DRIVER MODE: Message from server: EXIT
  @ DRIVE MODE: Exiting

     General routines

     Parallel routines

   This run was terminated on:   4:18:35  24Sep2021

   JOB DONE.