     Program PWSCF v.6.7GPU starts on 26Sep2021 at 20:54:43

     R & G space division:  proc/nbgrp/npool/nimage =       8
     Reading input from /storage/home/hcoda1/3/ntian30/research/carbon/CxH_vib/CH_calc/ads_slab/CHONHNH2_b/out_0022/pw.inp
Warning: card &CELL ignored
Warning: card   CELL_DYNAMICS='IPI', ignored
Warning: card / ignored

     Current dimensions of program PWSCF are:
     Max number of different atomic species (ntypx) = 10
     Max number of k-points (npk) =  40000
     Max angular momentum in pseudopotentials (lmaxx) =  3
     Presently no symmetry can be used with electric field

     Message from routine cell_base_init:
     DEPRECATED: use true lattice parameter, not A to a.u. conversion factor

     IMPORTANT: XC functional enforced from input :
     Exchange-correlation= BEEF-VDW
                           (   1   4  43  14   2   0   0)
     Any further DFT definition will be discarded
     Please, verify this is what you really want

  @ DRIVER MODE: Connecting to
 qe_1139763_2982672.sched-torque.pace.gatech.educc36rwhu_scratch
  using UNIX socket
  @ DRIVER MODE: Message from server: STATUS
  @ DRIVER MODE: Message from server: INIT
  @ DRIVER MODE: Receiving replica           0          -1
  @ DRIVER MODE: Receiving encoded integer          25
  @ DRIVER MODE:  SCF:  T  FORCE:  T  STRESS:  F  VC:  F  ENSEMBLE:  F
  @ DRIVER MODE:  SCF:  T  FORCE:  T  STRESS:  F  VC:  F  ENSEMBLE:  F

     Using Slab Decomposition

     bravais-lattice index     =            0
     lattice parameter (alat)  =       1.8897  a.u.
     unit-cell volume          =    6658.9804 (a.u.)^3
     number of atoms/cell      =           55
     number of atomic types    =            5
     number of electrons       =       402.00
     number of Kohn-Sham states=          211
     kinetic-energy cutoff     =      29.3995  Ry
     charge density cutoff     =     293.9946  Ry
     scf convergence threshold =      7.3E-08
     mixing beta               =       0.0500
     number of iterations used =            8  plain     mixing
     Exchange-correlation= BEEF-VDW
                           (   1   4  43  14   2   0   0)

     celldm(1)=   1.889726  celldm(2)=   0.000000  celldm(3)=   0.000000
     celldm(4)=   0.000000  celldm(5)=   0.000000  celldm(6)=   0.000000

     crystal axes: (cart. coord. in units of alat)
               a(1) = (   6.579727   0.000000   0.000000 )
               a(2) = (  -0.000775   5.961596   0.000000 )
               a(3) = (   0.000000   0.000000  25.155947 )

     reciprocal axes: (cart. coord. in units 2 pi/alat)
               b(1) = (  0.151982  0.000020  0.000000 )
               b(2) = (  0.000000  0.167740  0.000000 )
               b(3) = (  0.000000  0.000000  0.039752 )

     PseudoPot. # 1 for O  read from file:
     /storage/coda1/p-amedford6/0/shared/rich_project_chbe-medford/medford-share/data/pseudos_module/espresso/nninc/pbe/van/O.UPF
     MD5 check sum: 78c19812648e8988a0fe644b0f25305e
     Pseudo is Ultrasoft, Zval =  6.0
     Generated by new atomic code, or converted to UPF format
     Using radial grid of  737 points,  4 beta functions with:
                l(1) =   0
                l(2) =   0
                l(3) =   1
                l(4) =   1
     Q(r) pseudized with  8 coefficients,  rinner =    0.800   0.800   0.800

     PseudoPot. # 2 for Ti read from file:
     /storage/coda1/p-amedford6/0/shared/rich_project_chbe-medford/medford-share/data/pseudos_module/espresso/nninc/pbe/van/Ti.UPF
     MD5 check sum: 8e4df49b7f0d34bbd5052bf3f5ea0213
     Pseudo is Ultrasoft, Zval = 12.0
     Generated by new atomic code, or converted to UPF format
     Using radial grid of  851 points,  6 beta functions with:
                l(1) =   0
                l(2) =   0
                l(3) =   1
                l(4) =   1
                l(5) =   2
                l(6) =   2
     Q(r) pseudized with  8 coefficients,  rinner =    1.000   1.000   1.000
                                                       1.000   1.000

     PseudoPot. # 3 for N  read from file:
     /storage/coda1/p-amedford6/0/shared/rich_project_chbe-medford/medford-share/data/pseudos_module/espresso/nninc/pbe/van/N.UPF
     MD5 check sum: 90d10febe142ad51ac9d5be1deb811c4
     Pseudo is Ultrasoft, Zval =  5.0
     Generated by new atomic code, or converted to UPF format
     Using radial grid of  729 points,  4 beta functions with:
                l(1) =   0
                l(2) =   0
                l(3) =   1
                l(4) =   1
     Q(r) pseudized with  8 coefficients,  rinner =    0.800   0.800   0.800

     PseudoPot. # 4 for H  read from file:
     /storage/coda1/p-amedford6/0/shared/rich_project_chbe-medford/medford-share/data/pseudos_module/espresso/nninc/pbe/van/H.UPF
     MD5 check sum: b5ee9d7bfd3a09ee7748110bda690ff7
     Pseudo is Ultrasoft, Zval =  1.0
     Generated by new atomic code, or converted to UPF format
     Using radial grid of  615 points,  1 beta functions with:
                l(1) =   0
     Q(r) pseudized with  8 coefficients,  rinner =    0.800

     PseudoPot. # 5 for C  read from file:
     /storage/coda1/p-amedford6/0/shared/rich_project_chbe-medford/medford-share/data/pseudos_module/espresso/nninc/pbe/van/C.UPF
     MD5 check sum: 1a69bf6b8db32088f5b2163dbdb77a27
     Pseudo is Ultrasoft, Zval =  4.0
     Generated by new atomic code, or converted to UPF format
     Using radial grid of  721 points,  4 beta functions with:
                l(1) =   0
                l(2) =   0
                l(3) =   1
                l(4) =   1
     Q(r) pseudized with  8 coefficients,  rinner =    0.800   0.800   0.800

     atomic species   valence    mass     pseudopotential
        O1             6.00    15.99900     O ( 1.00)
        Ti1           12.00    47.86700     Ti( 1.00)
        N1             5.00    14.00700     N ( 1.00)
        H1             1.00     1.00800     H ( 1.00)
        C1             4.00    12.01100     C ( 1.00)

     No symmetry found

   Cartesian axes

     site n.     atom                  positions (alat units)
         1           O1  tau(   1) = (   3.2904802   0.0005063   4.7018136  )
         2           O1  tau(   2) = (   3.2900926   2.9813045   4.7018136  )
         3           Ti1 tau(   3) = (   0.0004258   2.9801865   6.0000000  )
         4           Ti1 tau(   4) = (   0.0000382   5.9609847   6.0000000  )
         5           Ti1 tau(   5) = (   3.2906075   1.4906267   6.0002472  )
         6           Ti1 tau(   6) = (   3.2902200   4.4714249   6.0002472  )
         7           O1  tau(   7) = (   1.3043587   1.4918075   6.0039043  )
         8           O1  tau(   8) = (   1.3039711   4.4726057   6.0039043  )
         9           O1  tau(   9) = (   5.2767064   1.4903225   6.0039473  )
        10           O1  tau(  10) = (   5.2763189   4.4711207   6.0039473  )
        11           O1  tau(  11) = (   3.2906025   0.0005020   7.3038282  )
        12           O1  tau(  12) = (   3.2902150   2.9813002   7.3038282  )
        13           O1  tau(  13) = (   0.0006271   0.0005054   7.9858123  )
        14           O1  tau(  14) = (   0.0002396   2.9813036   7.9858123  )
        15           Ti1 tau(  15) = (   3.2907910   2.8959150   9.1758416  )
        16           Ti1 tau(  16) = (   3.2891106   5.8743827   9.1763621  )
        17           Ti1 tau(  17) = (   0.0015273   1.4827037   9.2680791  )
        18           Ti1 tau(  18) = (   0.0006254   4.4649316   9.2693709  )
        19           O1  tau(  19) = (   4.5942328   1.4918067   9.2879030  )
        20           O1  tau(  20) = (   4.5938453   4.4726049   9.2879030  )
        21           O1  tau(  21) = (   1.9868534   1.4903216   9.2879459  )
        22           O1  tau(  22) = (   1.9864658   4.4711199   9.2879459  )
        23           O1  tau(  23) = (   0.0116148   5.9584955  10.6183126  )
        24           O1  tau(  24) = (   0.0092240   2.9805883  10.6323155  )
        25           O1  tau(  25) = (   3.2729272   2.9749101  11.3358637  )
        26           O1  tau(  26) = (   3.2774458   5.9577983  11.3358029  )
        27           Ti1 tau(  27) = (   6.5123228   0.0223980  12.5466522  )
        28           Ti1 tau(  28) = (   6.5139447   2.9993280  12.6164542  )
        29           Ti1 tau(  29) = (   3.1950650   4.4673527  12.4897579  )
        30           Ti1 tau(  30) = (   3.1950454   1.4921031  12.4944583  )
        31           O1  tau(  31) = (   5.2839716   4.4726476  12.6140382  )
        32           O1  tau(  32) = (   1.2968206   4.4781603  12.6268461  )
        33           O1  tau(  33) = (   5.2856119   1.4917077  12.6233973  )
        34           O1  tau(  34) = (   1.2888650   1.4770595  12.6372879  )
        35           O1  tau(  35) = (   3.2788258   2.9629383  13.9230881  )
        36           O1  tau(  36) = (   3.2980453   5.9500611  13.9147740  )
        37           O1  tau(  37) = (   6.5334376   5.9389224  14.6738689  )
        38           O1  tau(  38) = (   6.5776160   3.0156023  14.6540868  )
        39           Ti1 tau(  39) = (   3.2542760   2.9504115  15.7371360  )
        40           Ti1 tau(  40) = (   3.3062714   5.9309079  15.7116640  )
        41           Ti1 tau(  41) = (   6.5650095   1.2976281  16.1142359  )
        42           Ti1 tau(  42) = (   0.0079766   4.4268374  15.8391656  )
        43           O1  tau(  43) = (   2.0280489   1.4492115  16.0660627  )
        44           O1  tau(  44) = (   4.5116609   1.4624326  16.0993158  )
        45           O1  tau(  45) = (   2.0244938   4.4513709  16.0356871  )
        46           O1  tau(  46) = (   4.5113612   4.4342832  16.0730653  )
        47           O1  tau(  47) = (   6.5716746   5.9215154  17.2308814  )
        48           N1  tau(  48) = (   5.9800345   2.9984367  18.5879729  )
        49           H1  tau(  49) = (   4.9797160   2.8240766  18.4383897  )
        50           H1  tau(  50) = (   1.6245422   1.3425840  19.0439533  )
        51           H1  tau(  51) = (   6.0578502   3.9910051  18.8619266  )
        52           N1  tau(  52) = (   2.1403542   1.9713023  19.6616680  )
        53           C1  tau(  53) = (   2.8938676   2.8537551  19.2737185  )
        54           H1  tau(  54) = (   3.3792091   3.5764479  19.9483559  )
        55           O1  tau(  55) = (   6.5521836   2.9666373  17.2729174  )

     number of k points=    10  Fermi-Dirac smearing, width (Ry)=  0.0073
                       cart. coord. in units 2pi/alat
        k(    1) = (   0.0000000   0.0000000   0.0000000), wk =   0.1250000
        k(    2) = (   0.0000000   0.0419351   0.0000000), wk =   0.2500000
        k(    3) = (   0.0000000  -0.0838702   0.0000000), wk =   0.1250000
        k(    4) = (   0.0379955   0.0000049   0.0000000), wk =   0.2500000
        k(    5) = (   0.0379955   0.0419400   0.0000000), wk =   0.2500000
        k(    6) = (   0.0379955  -0.0838652   0.0000000), wk =   0.2500000
        k(    7) = (   0.0379955  -0.0419301   0.0000000), wk =   0.2500000
        k(    8) = (  -0.0759910  -0.0000099   0.0000000), wk =   0.1250000
        k(    9) = (  -0.0759910   0.0419252   0.0000000), wk =   0.2500000
        k(   10) = (  -0.0759910  -0.0838800   0.0000000), wk =   0.1250000

     Initial potential from superposition of free atoms

     starting charge  385.99915, renormalised to  402.00000

     negative rho (up, down):  1.542E-02 0.000E+00

     %%%%%%%%%%%%%%%%%%%%%%%%%%%%%%%%%%%%%%%%%%%%%%%%%%%%%%%%%%%%%%%%%%%%%%%%
     %                                                                      %
     % You are using vdW-DF, which was implemented by the Thonhauser group. %
     % Please cite the following two papers that made this development      %
     % possible and the two reviews that describe the various versions:     %
     %                                                                      %
     %   T. Thonhauser et al., PRL 115, 136402 (2015).                      %
     %   T. Thonhauser et al., PRB 76, 125112 (2007).                       %
     %   K. Berland et al., Rep. Prog. Phys. 78, 066501 (2015).             %
     %   D.C. Langreth et al., J. Phys.: Condens. Matter 21, 084203 (2009). %
     %                                                                      %
     %                                                                      %
     % If you are calculating the stress with vdW-DF, please also cite:     %
     %                                                                      %
     %   R. Sabatini et al., J. Phys.: Condens. Matter 24, 424209 (2012).   %
     %                                                                      %
     %%%%%%%%%%%%%%%%%%%%%%%%%%%%%%%%%%%%%%%%%%%%%%%%%%%%%%%%%%%%%%%%%%%%%%%%

     Adding external electric field

     Computed dipole along edir(3) :
        Dipole              -12.8629 Ry au,        -32.6941 Debye
        Dipole field         -0.0243 Ry au,

        Potential amp.        2.2502 Ry
        Total length         46.3494 bohr

     Starting wfcs are  304 atomic wfcs
  @ DRIVER MODE: Message from server: STATUS
  @ DRIVER MODE: Message from server: POSDATA
  @ DRIVER MODE: Reading and sharing cell
  @ DRIVER MODE: Reading and sharing positions
  @ DRIVER MODE: Received positions

     Self-consistent Calculation

     iteration #  1     ecut=    29.40 Ry     beta= 0.05
     Davidson diagonalization with overlap
     c_bands:  5 eigenvalues not converged
     c_bands:  2 eigenvalues not converged
     c_bands:  2 eigenvalues not converged
     c_bands:  5 eigenvalues not converged
     c_bands:  3 eigenvalues not converged
     c_bands:  3 eigenvalues not converged
     c_bands:  2 eigenvalues not converged
     c_bands:  3 eigenvalues not converged
     c_bands:  1 eigenvalues not converged
     ethr =  1.00E-05,  avg # of iterations = 21.5

[...]

     total energy              =   -2369.76187757 Ry
     estimated scf accuracy    <    6837.23865100 Ry

     iteration #  2     ecut=    29.40 Ry     beta= 0.05
     Davidson diagonalization with overlap
     ethr =  1.00E-02,  avg # of iterations = 23.9

[...]

     iteration # 64     ecut=    29.40 Ry     beta= 0.05
     Davidson diagonalization with overlap
     c_bands:  1 eigenvalues not converged
     c_bands:  1 eigenvalues not converged
     ethr =  3.05E-07,  avg # of iterations = 10.0

[...]

     total energy              =   -2972.58414070 Ry
     estimated scf accuracy    <       0.00000026 Ry

     iteration # 85     ecut=    29.40 Ry     beta= 0.05
     Davidson diagonalization with overlap
     ethr =  2.68E-11,  avg # of iterations = 14.9

     negative rho (up, down):  1.520E-02 0.000E+00

     Adding external electric field

     Computed dipole along edir(3) :
        Dipole                0.4789 Ry au,          1.2173 Debye
        Dipole field          0.0009 Ry au,

        Potential amp.       -0.0838 Ry
        Total length         46.3494 bohr

     End of self-consistent calculation

          k = 0.0000 0.0000 0.0000 ( 18029 PWs)   bands (ev):

   -55.8911 -55.8714 -55.8571 -55.8334 -55.7520 -55.7325 -55.7169 -55.7027
   -55.6907 -55.6686 -55.6673 -55.6333 -55.5213 -55.3084 -54.8702 -54.8361
   -32.4167 -32.3738 -32.2504 -32.2016 -32.1923 -32.1839 -32.1679 -32.1575
   -32.1345 -32.1019 -32.0568 -32.0461 -32.0434 -32.0414 -32.0254 -32.0046
   -31.9973 -31.9956 -31.9847 -31.9725 -31.9613 -31.9500 -31.9484 -31.9062
   -31.8991 -31.8938 -31.8919 -31.8822 -31.8721 -31.8674 -31.8633 -31.8431
   -31.8336 -31.8203 -31.8094 -31.7999 -31.7793 -31.7584 -31.7269 -31.5784
   -31.5401 -31.5225 -31.2772 -31.1888 -31.1664 -31.0940 -31.0075 -30.8964
   -18.6496 -16.6124 -16.3618 -16.1197 -16.0387 -16.0039 -15.8842 -15.8521
   -15.7296 -15.6187 -15.5244 -15.4487 -15.4293 -15.4277 -15.3883 -15.3772
   -15.3511 -15.3358 -15.3267 -15.3096 -15.2857 -15.2491 -15.2340 -15.2269
   -15.1362 -15.0592 -15.0254 -14.9787 -14.9729 -14.9486 -14.5622 -13.3722
   -13.2557 -12.1970  -8.1485  -5.2923  -4.9392  -4.5162  -3.9865  -3.8477
    -3.7970  -3.7295  -3.6866  -3.5103  -3.4003  -3.1449  -3.0713  -3.0511
    -3.0283  -2.9814  -2.8767  -2.7998  -2.7027  -2.6971  -2.6954  -2.6615
    -2.6518  -2.6347  -2.5931  -2.5727  -2.5058  -2.4335  -2.3969  -2.2903
    -2.2821  -2.2463  -2.2038  -2.1947  -2.1506  -2.1293  -2.1141  -2.1091
    -2.0952  -2.0567  -2.0244  -1.9144  -1.8786  -1.7981  -1.6841  -1.6083
    -1.4999  -1.4847  -1.3655  -1.3571  -1.3322  -1.3181  -1.2836  -1.2351
    -1.1794  -1.0761  -1.0477  -1.0154  -1.0117  -0.9110  -0.8513  -0.8268
    -0.7627  -0.6898  -0.6634  -0.6505  -0.6402  -0.6082  -0.3909  -0.3487
    -0.3294  -0.2971  -0.2506  -0.1967  -0.1588  -0.1119  -0.0717  -0.0058
     0.0037   0.0550   0.0795   0.0922   0.1084   0.1192   0.1354   0.2328
     0.3230   0.3615   0.3830   0.4585   0.4630   0.6357   0.7015   0.7649
     0.8761   1.0784   1.1523   1.2368   1.3444   1.7235   1.7598   1.7693
     3.2378   3.2397   3.3306   3.3729   3.3815   3.4820   3.5335   3.6945
     3.7275   3.7597   3.7971

[...]

          k = 0.0380-0.0419 0.0000 ( 17876 PWs)   bands (ev):

[...]

          k =-0.0760-0.0000 0.0000 ( 17886 PWs)   bands (ev):

[...]

          k =-0.0760-0.0839 0.0000 ( 17948 PWs)   bands (ev):

   -55.8746 -55.8735 -55.8587 -55.8459 -55.7382 -55.7307 -55.7233 -55.6997
   -55.6867 -55.6841 -55.6529 -55.6479 -55.5199 -55.3096 -54.8531 -54.8530
   -32.2271 -32.2139 -32.1894 -32.1887 -32.1697 -32.1687 -32.1204 -32.1120
   -32.0945 -32.0853 -32.0474 -32.0385 -32.0181 -32.0103 -32.0068 -32.0054
   -31.9990 -31.9943 -31.9931 -31.9908 -31.9871 -31.9845 -31.9494 -31.9473
   -31.9414 -31.9253 -31.9182 -31.9090 -31.8869 -31.8857 -31.8835 -31.8831
   -31.8774 -31.8672 -31.8639 -31.8618 -31.8561 -31.7561 -31.7301 -31.6490
   -31.5697 -31.5299 -31.1792 -31.1791 -31.0901 -31.0899 -31.0508 -31.0507
   -18.6343 -16.0313 -16.0100 -15.8858 -15.8466 -15.8100 -15.7706 -15.7588
   -15.6827 -15.6021 -15.5814 -15.5767 -15.4953 -15.4768 -15.4635 -15.4279
   -15.4151 -15.4046 -15.3988 -15.3601 -15.3484 -15.3392 -15.3308 -15.3232
   -15.2463 -15.2102 -15.2054 -15.1910 -15.0803 -14.9548 -14.7389 -13.3576
   -13.3574 -12.2096  -8.1486  -5.2887  -4.9445  -4.4409  -3.3179  -3.2852
    -3.1040  -3.0208  -3.0053  -2.9874  -2.8765  -2.8009  -2.7947  -2.7589
    -2.7276  -2.7203  -2.7102  -2.7074  -2.6836  -2.6731  -2.6232  -2.6019
    -2.5885  -2.5628  -2.5505  -2.5478  -2.5169  -2.5036  -2.4658  -2.4450
    -2.4254  -2.4138  -2.3923  -2.3239  -2.2067  -2.1246  -2.0928  -2.0335
    -2.0231  -1.9923  -1.9585  -1.9444  -1.9214  -1.8889  -1.8592  -1.7452
    -1.6374  -1.5818  -1.5799  -1.5044  -1.4675  -1.4247  -1.3778  -1.3234
    -1.2906  -1.2791  -1.2302  -1.1674  -1.1505  -1.0758  -1.0327  -1.0024
    -0.9601  -0.9367  -0.8646  -0.8514  -0.8488  -0.8152  -0.7272  -0.7071
    -0.6533  -0.6466  -0.6197  -0.5637  -0.5452  -0.5141  -0.3906  -0.3675
    -0.2424  -0.1756  -0.0859   0.0622   0.0847   0.1792   0.2185   0.2454
     0.3029   0.4050   0.4227   0.4352   0.4539   0.4854   0.5145   0.6386
     0.6526   0.6872   0.8073   1.5161   1.5166   1.5886   1.5893   1.6060
     3.2240   3.5697   3.5763   3.5966   3.6238   3.7566   3.7586   3.7767
     3.7782   3.9140   3.9313

     the Fermi energy is     3.2413 ev

!    total energy              =   -2972.58414646 Ry
     estimated scf accuracy    <       0.00000006 Ry
     smearing contrib. (-TS)   =      -0.03080953 Ry
     internal energy E=F+TS    =   -2972.55333693 Ry

     The total energy is F=E-TS. E is the sum of the following terms:
     one-electron contribution =  -23744.90073154 Ry
     hartree contribution      =   11963.75978329 Ry
     xc contribution           =    -493.06388556 Ry
     ewald contribution        =    9301.65106400 Ry
     electric field correction =       0.00043287 Ry

     convergence has been achieved in  85 iterations

     Forces acting on atoms (cartesian axes, Ry/au):

     atom    1 type  1   force =     0.00004249   -0.00002743    0.10324724
     atom    2 type  1   force =     0.00004803   -0.00004526    0.10328378
     atom    3 type  2   force =     0.00007909   -0.00022235    0.09624256
     atom    4 type  2   force =    -0.00001800   -0.00029901    0.09603989
     atom    5 type  2   force =     0.00003239   -0.00063665   -0.17556484
     atom    6 type  2   force =    -0.00001943   -0.00024760   -0.17552635
     atom    7 type  1   force =    -0.07153341   -0.00014238   -0.02766761
     atom    8 type  1   force =    -0.07151671   -0.00012764   -0.02764056
     atom    9 type  1   force =     0.07137833    0.00028604   -0.02773423
     atom   10 type  1   force =     0.07136352    0.00031521   -0.02769798
     atom   11 type  1   force =    -0.00005577   -0.00145008    0.05287715
     atom   12 type  1   force =    -0.00002694   -0.00125870    0.05322143
     atom   13 type  1   force =     0.00000597   -0.00000408   -0.02440741
     atom   14 type  1   force =     0.00009966   -0.00023015   -0.02343849
     atom   15 type  2   force =     0.00002638    0.00048476   -0.01063905
     atom   16 type  2   force =     0.00014782    0.00349244   -0.00997498
     atom   17 type  2   force =     0.00069582    0.01061699    0.02594640
     atom   18 type  2   force =     0.00083593   -0.01140429    0.02625415
     atom   19 type  1   force =    -0.01194331   -0.00052228    0.00382998
     atom   20 type  1   force =    -0.01228766   -0.00009237    0.00374246
     atom   21 type  1   force =     0.01290477   -0.00009312    0.00217197
     atom   22 type  1   force =     0.01315132    0.00047699    0.00212810
     atom   23 type  1   force =    -0.00431665    0.00133178   -0.01319969
     atom   24 type  1   force =    -0.00236793    0.00054794   -0.02178858
     atom   25 type  1   force =     0.00024079   -0.00090653    0.00017369
     atom   26 type  1   force =     0.00001585    0.00044085    0.00082006
     atom   27 type  2   force =    -0.00041950    0.00040993   -0.00006879
     atom   28 type  2   force =    -0.00067380   -0.00052100   -0.00004553
     atom   29 type  2   force =     0.00098453    0.00002618   -0.00019944
     atom   30 type  2   force =     0.00036619   -0.00073831   -0.00019315
     atom   31 type  1   force =     0.00084641    0.00012195    0.00025557
     atom   32 type  1   force =    -0.00045401   -0.00001751    0.00014166
     atom   33 type  1   force =     0.00041495   -0.00037149   -0.00000108
     atom   34 type  1   force =     0.00126348   -0.00021718    0.00001160
     atom   35 type  1   force =     0.00030547   -0.00030084    0.00015118
     atom   36 type  1   force =     0.00026857    0.00025664   -0.00040807
     atom   37 type  1   force =     0.00019629   -0.00009084   -0.00061862
     atom   38 type  1   force =     0.00020141    0.00014127   -0.00015949
     atom   39 type  2   force =    -0.00080284    0.00023283   -0.00040777
     atom   40 type  2   force =    -0.00072395    0.00004341    0.00045227
     atom   41 type  2   force =     0.00023809   -0.00014886   -0.00048469
     atom   42 type  2   force =     0.00076404   -0.00017463    0.00016505
     atom   43 type  1   force =     0.00031202    0.00025857   -0.00034285
     atom   44 type  1   force =     0.00026107   -0.00002518   -0.00011829
     atom   45 type  1   force =     0.00037150    0.00021243    0.00002721
     atom   46 type  1   force =     0.00010060    0.00047724    0.00015591
     atom   47 type  1   force =     0.00008294   -0.00009992   -0.00007306
     atom   48 type  3   force =     0.00115590    0.01354493    0.00282875
     atom   49 type  4   force =     0.00064603    0.00084180    0.00007018
     atom   50 type  4   force =     0.00005978   -0.00034427   -0.00052623
     atom   51 type  4   force =    -0.00184929   -0.01295140   -0.00369672
     atom   52 type  3   force =    -0.00089683   -0.00108471   -0.00014587
     atom   53 type  5   force =     0.00090570    0.00164221    0.00050503
     atom   54 type  4   force =    -0.00067140   -0.00102257   -0.00115522
     atom   55 type  1   force =    -0.00023566   -0.00038381   -0.00081861

     Total force =     0.367816     Total SCF correction =     0.000535
  @ DRIVER MODE: Message from server: STATUS
  @ DRIVER MODE: Message from server: GETFORCE
  @ DRIVER MODE: Returning v,forces,stress,ensemble

     Writing output data file ./calc.save/
  @ DRIVER MODE: Message from server: EXIT
  @ DRIVE MODE: Exiting

     General routines

     Parallel routines

   This run was terminated on:  21:23:31  26Sep2021

   JOB DONE.