     Program PWSCF v.6.7GPU starts on 24Sep2021 at  8:52:41

     R & G space division:  proc/nbgrp/npool/nimage =       8
     Reading input from /storage/home/hcoda1/3/ntian30/research/carbon/CxH_vib/H2O_calc/ads_slab/CH3NHHHO_a/out_0054/pw.inp
Warning: card &CELL ignored
Warning: card   CELL_DYNAMICS='IPI', ignored
Warning: card / ignored

     Current dimensions of program PWSCF are:
     Max number of different atomic species (ntypx) = 10
     Max number of k-points (npk) =  40000
     Max angular momentum in pseudopotentials (lmaxx) =  3
     Presently no symmetry can be used with electric field

     Message from routine cell_base_init:
     DEPRECATED: use true lattice parameter, not A to a.u. conversion factor

     IMPORTANT: XC functional enforced from input :
     Exchange-correlation= BEEF-VDW
                           (   1   4  43  14   2   0   0)
     Any further DFT definition will be discarded
     Please, verify this is what you really want

  @ DRIVER MODE: Connecting to
 qe_1139763_2947311.sched-torque.pace.gatech.edunbgnf09u_scratch
  using UNIX socket
  @ DRIVER MODE: Message from server: STATUS
  @ DRIVER MODE: Message from server: INIT
  @ DRIVER MODE: Receiving replica           0          -1
  @ DRIVER MODE: Receiving encoded integer          25
  @ DRIVER MODE:  SCF:  T  FORCE:  T  STRESS:  F  VC:  F  ENSEMBLE:  F
  @ DRIVER MODE:  SCF:  T  FORCE:  T  STRESS:  F  VC:  F  ENSEMBLE:  F

     Using Slab Decomposition

     bravais-lattice index     =            0
     lattice parameter (alat)  =       1.8897  a.u.
     unit-cell volume          =    6658.9804 (a.u.)^3
     number of atoms/cell      =           56
     number of atomic types    =            5
     number of electrons       =       399.00
     number of Kohn-Sham states=          209
     kinetic-energy cutoff     =      29.3995  Ry
     charge density cutoff     =     293.9946  Ry
     scf convergence threshold =      7.3E-08
     mixing beta               =       0.0500
     number of iterations used =            8  plain     mixing
     Exchange-correlation= BEEF-VDW
                           (   1   4  43  14   2   0   0)

     celldm(1)=   1.889726  celldm(2)=   0.000000  celldm(3)=   0.000000
     celldm(4)=   0.000000  celldm(5)=   0.000000  celldm(6)=   0.000000

     crystal axes: (cart. coord. in units of alat)
               a(1) = (   6.579727   0.000000   0.000000 )
               a(2) = (  -0.000775   5.961596   0.000000 )
               a(3) = (   0.000000   0.000000  25.155947 )

     reciprocal axes: (cart. coord. in units 2 pi/alat)
               b(1) = (  0.151982  0.000020  0.000000 )
               b(2) = (  0.000000  0.167740  0.000000 )
               b(3) = (  0.000000  0.000000  0.039752 )

     PseudoPot. # 1 for Ti read from file:
     /storage/coda1/p-amedford6/0/shared/rich_project_chbe-medford/medford-share/data/pseudos_module/espresso/nninc/pbe/van/Ti.UPF
     MD5 check sum: 8e4df49b7f0d34bbd5052bf3f5ea0213
     Pseudo is Ultrasoft, Zval = 12.0
     Generated by new atomic code, or converted to UPF format
     Using radial grid of  851 points,  6 beta functions with:
                l(1) =   0
                l(2) =   0
                l(3) =   1
                l(4) =   1
                l(5) =   2
                l(6) =   2
     Q(r) pseudized with  8 coefficients,  rinner =    1.000   1.000   1.000
                                                       1.000   1.000

     PseudoPot. # 2 for O  read from file:
     /storage/coda1/p-amedford6/0/shared/rich_project_chbe-medford/medford-share/data/pseudos_module/espresso/nninc/pbe/van/O.UPF
     MD5 check sum: 78c19812648e8988a0fe644b0f25305e
     Pseudo is Ultrasoft, Zval =  6.0
     Generated by new atomic code, or converted to UPF format
     Using radial grid of  737 points,  4 beta functions with:
                l(1) =   0
                l(2) =   0
                l(3) =   1
                l(4) =   1
     Q(r) pseudized with  8 coefficients,  rinner =    0.800   0.800   0.800

     PseudoPot. # 3 for N  read from file:
     /storage/coda1/p-amedford6/0/shared/rich_project_chbe-medford/medford-share/data/pseudos_module/espresso/nninc/pbe/van/N.UPF
     MD5 check sum: 90d10febe142ad51ac9d5be1deb811c4
     Pseudo is Ultrasoft, Zval =  5.0
     Generated by new atomic code, or converted to UPF format
     Using radial grid of  729 points,  4 beta functions with:
                l(1) =   0
                l(2) =   0
                l(3) =   1
                l(4) =   1
     Q(r) pseudized with  8 coefficients,  rinner =    0.800   0.800   0.800

     PseudoPot. # 4 for C  read from file:
     /storage/coda1/p-amedford6/0/shared/rich_project_chbe-medford/medford-share/data/pseudos_module/espresso/nninc/pbe/van/C.UPF
     MD5 check sum: 1a69bf6b8db32088f5b2163dbdb77a27
     Pseudo is Ultrasoft, Zval =  4.0
     Generated by new atomic code, or converted to UPF format
     Using radial grid of  721 points,  4 beta functions with:
                l(1) =   0
                l(2) =   0
                l(3) =   1
                l(4) =   1
     Q(r) pseudized with  8 coefficients,  rinner =    0.800   0.800   0.800

     PseudoPot. # 5 for H  read from file:
     /storage/coda1/p-amedford6/0/shared/rich_project_chbe-medford/medford-share/data/pseudos_module/espresso/nninc/pbe/van/H.UPF
     MD5 check sum: b5ee9d7bfd3a09ee7748110bda690ff7
     Pseudo is Ultrasoft, Zval =  1.0
     Generated by new atomic code, or converted to UPF format
     Using radial grid of  615 points,  1 beta functions with:
                l(1) =   0
     Q(r) pseudized with  8 coefficients,  rinner =    0.800

     atomic species   valence    mass     pseudopotential
        Ti1           12.00    47.86700     Ti( 1.00)
        O1             6.00    15.99900     O ( 1.00)
        N1             5.00    14.00700     N ( 1.00)
        C1             4.00    12.01100     C ( 1.00)
        H1             1.00     1.00800     H ( 1.00)

     No symmetry found

   Cartesian axes

     site n.     atom                  positions (alat units)
         1           Ti1 tau(   1) = (   0.0004258   2.9801865   6.0000000  )
         2           Ti1 tau(   2) = (   3.2906075   1.4906267   6.0002472  )
         3           O1  tau(   3) = (   0.0006271   0.0005054   7.9858123  )
         4           O1  tau(   4) = (   3.2906025   0.0005020   7.3038282  )
         5           O1  tau(   5) = (   4.5942328   1.4918067   9.2879030  )
         6           O1  tau(   6) = (   1.9868534   1.4903216   9.2879459  )
         7           Ti1 tau(   7) = (   3.2907910   2.8959150   9.1758416  )
         8           Ti1 tau(   8) = (   0.0015273   1.4827037   9.2680791  )
         9           O1  tau(   9) = (   3.2949530   5.9481847  11.3666340  )
        10           O1  tau(  10) = (   0.0116148   5.9584955  10.6183126  )
        11           O1  tau(  11) = (   1.2732546   1.4916747  12.6876809  )
        12           O1  tau(  12) = (   5.3119445   1.4892451  12.6851550  )
        13           Ti1 tau(  13) = (   6.5688325   2.9465269  12.5174317  )
        14           Ti1 tau(  14) = (   3.2996026   1.2975375  12.7241829  )
        15           O1  tau(  15) = (   0.0172205   5.8793003  14.6619373  )
        16           O1  tau(  16) = (   3.2917661   0.0702926  14.0149596  )
        17           O1  tau(  17) = (   4.5643074   1.5920826  16.1346482  )
        18           O1  tau(  18) = (   2.0131957   1.5841813  16.0575481  )
        19           Ti1 tau(  19) = (   3.2662748   3.0407108  15.6947786  )
        20           Ti1 tau(  20) = (   0.0618610   1.3206105  15.7998127  )
        21           O1  tau(  21) = (   3.2904802   0.0005063   4.7018136  )
        22           O1  tau(  22) = (   0.0233933   0.1570098  17.1842078  )
        23           O1  tau(  23) = (   1.3043587   1.4918075   6.0039043  )
        24           O1  tau(  24) = (   5.2767064   1.4903225   6.0039473  )
        25           Ti1 tau(  25) = (   0.0000382   5.9609847   6.0000000  )
        26           Ti1 tau(  26) = (   3.2902200   4.4714249   6.0002472  )
        27           O1  tau(  27) = (   0.0002396   2.9813036   7.9858123  )
        28           O1  tau(  28) = (   3.2902150   2.9813002   7.3038282  )
        29           O1  tau(  29) = (   4.5938453   4.4726049   9.2879030  )
        30           O1  tau(  30) = (   1.9864658   4.4711199   9.2879459  )
        31           Ti1 tau(  31) = (   3.2891106   5.8743827   9.1763621  )
        32           Ti1 tau(  32) = (   0.0006254   4.4649316   9.2693709  )
        33           O1  tau(  33) = (   3.2948289   2.9949798  11.3176834  )
        34           O1  tau(  34) = (   0.0092240   2.9805883  10.6323155  )
        35           O1  tau(  35) = (   1.2828652   4.4571597  12.6432593  )
        36           O1  tau(  36) = (   5.3079144   4.4605214  12.6419564  )
        37           Ti1 tau(  37) = (   0.0266940   5.9154698  12.5044250  )
        38           Ti1 tau(  38) = (   3.3008436   4.3760658  12.4353554  )
        39           O1  tau(  39) = (   6.5507285   3.0461080  14.9005035  )
        40           O1  tau(  40) = (   3.2938476   3.0131494  13.9233183  )
        41           O1  tau(  41) = (   4.5350990   4.4864192  16.1518712  )
        42           O1  tau(  42) = (   1.9883536   4.4285065  16.1690201  )
        43           Ti1 tau(  43) = (   3.3916644   0.0784854  16.2809578  )
        44           Ti1 tau(  44) = (   0.0590441   4.5159846  16.0209683  )
        45           O1  tau(  45) = (   3.2900926   2.9813045   4.7018136  )
        46           O1  tau(  46) = (   1.3039711   4.4726057   6.0039043  )
        47           O1  tau(  47) = (   5.2763189   4.4711207   6.0039473  )
        48           N1  tau(  48) = (   6.2706434   3.3837210  18.0754458  )
        49           C1  tau(  49) = (   0.7642246   3.1223808  19.0622891  )
        50           H1  tau(  50) = (   1.3158356   4.0410886  19.2409436  )
        51           H1  tau(  51) = (   0.3597117   2.7583523  20.0089400  )
        52           H1  tau(  52) = (   1.4517744   2.3810259  18.6668870  )
        53           H1  tau(  53) = (   5.6745199   4.1349376  18.4206214  )
        54           H1  tau(  54) = (   5.6587021   2.5696541  18.0151127  )
        55           O1  tau(  55) = (   3.1972372   0.0910451  18.1323504  )
        56           H1  tau(  56) = (   2.2767176   0.1080423  18.4477142  )

     number of k points=    10  Fermi-Dirac smearing, width (Ry)=  0.0073
                       cart. coord. in units 2pi/alat
        k(    1) = (   0.0000000   0.0000000   0.0000000), wk =   0.1250000
        k(    2) = (   0.0000000   0.0419351   0.0000000), wk =   0.2500000
        k(    3) = (   0.0000000  -0.0838702   0.0000000), wk =   0.1250000
        k(    4) = (   0.0379955   0.0000049   0.0000000), wk =   0.2500000
        k(    5) = (   0.0379955   0.0419400   0.0000000), wk =   0.2500000
        k(    6) = (   0.0379955  -0.0838652   0.0000000), wk =   0.2500000
        k(    7) = (   0.0379955  -0.0419301   0.0000000), wk =   0.2500000
        k(    8) = (  -0.0759910  -0.0000099   0.0000000), wk =   0.1250000
        k(    9) = (  -0.0759910   0.0419252   0.0000000), wk =   0.2500000
        k(   10) = (  -0.0759910  -0.0838800   0.0000000), wk =   0.1250000

     Initial potential from superposition of free atoms

     starting charge  382.99914, renormalised to  399.00000

     negative rho (up, down):  1.588E-02 0.000E+00

     %%%%%%%%%%%%%%%%%%%%%%%%%%%%%%%%%%%%%%%%%%%%%%%%%%%%%%%%%%%%%%%%%%%%%%%%
     %                                                                      %
     % You are using vdW-DF, which was implemented by the Thonhauser group. %
     % Please cite the following two papers that made this development      %
     % possible and the two reviews that describe the various versions:     %
     %                                                                      %
     %   T. Thonhauser et al., PRL 115, 136402 (2015).                      %
     %   T. Thonhauser et al., PRB 76, 125112 (2007).                       %
     %   K. Berland et al., Rep. Prog. Phys. 78, 066501 (2015).             %
     %   D.C. Langreth et al., J. Phys.: Condens. Matter 21, 084203 (2009). %
     %                                                                      %
     %                                                                      %
     % If you are calculating the stress with vdW-DF, please also cite:     %
     %                                                                      %
     %   R. Sabatini et al., J. Phys.: Condens. Matter 24, 424209 (2012).   %
     %                                                                      %
     %%%%%%%%%%%%%%%%%%%%%%%%%%%%%%%%%%%%%%%%%%%%%%%%%%%%%%%%%%%%%%%%%%%%%%%%

     Adding external electric field

     Computed dipole along edir(3) :
        Dipole              -10.6970 Ry au,        -27.1890 Debye
        Dipole field         -0.0202 Ry au,

        Potential amp.        1.8713 Ry
        Total length         46.3494 bohr

     Starting wfcs are  302 atomic wfcs
  @ DRIVER MODE: Message from server: STATUS
  @ DRIVER MODE: Message from server: POSDATA
  @ DRIVER MODE: Reading and sharing cell
  @ DRIVER MODE: Reading and sharing positions
  @ DRIVER MODE: Received positions

     Self-consistent Calculation

     iteration #  1     ecut=    29.40 Ry     beta= 0.05
     Davidson diagonalization with overlap
     c_bands:  3 eigenvalues not converged
     c_bands:  2 eigenvalues not converged
     c_bands:  2 eigenvalues not converged
     c_bands:  5 eigenvalues not converged
     c_bands:  2 eigenvalues not converged
     c_bands:  5 eigenvalues not converged
     c_bands:  5 eigenvalues not converged
     c_bands:  3 eigenvalues not converged
     ethr =  1.00E-05,  avg # of iterations = 21.6

[...]

     total energy              =   -2438.25723496 Ry
     estimated scf accuracy    <    5770.48466334 Ry

     iteration #  2     ecut=    29.40 Ry     beta= 0.05
     Davidson diagonalization with overlap
     ethr =  1.00E-02,  avg # of iterations = 23.3

[...]

     iteration # 81     ecut=    29.40 Ry     beta= 0.05
     Davidson diagonalization with overlap
     c_bands:  1 eigenvalues not converged
     c_bands:  1 eigenvalues not converged
     ethr =  3.05E-11,  avg # of iterations = 13.3

[...]

     total energy              =   -2955.26291285 Ry
     estimated scf accuracy    <       0.00000008 Ry

     iteration # 83     ecut=    29.40 Ry     beta= 0.05
     Davidson diagonalization with overlap
     ethr =  2.10E-11,  avg # of iterations =  4.2

     negative rho (up, down):  1.647E-02 0.000E+00

     Adding external electric field

     Computed dipole along edir(3) :
        Dipole                0.9786 Ry au,          2.4872 Debye
        Dipole field          0.0018 Ry au,

        Potential amp.       -0.1712 Ry
        Total length         46.3494 bohr

     End of self-consistent calculation

          k = 0.0000 0.0000 0.0000 ( 18029 PWs)   bands (ev):

   -55.6816 -55.6344 -55.6004 -55.5098 -55.4999 -55.4640 -55.4635 -55.4616
   -55.4295 -55.4160 -55.3654 -55.2705 -55.2241 -55.2105 -54.6101 -54.5761
   -32.1198 -32.0182 -32.0095 -31.9860 -31.9664 -31.9547 -31.9252 -31.8993
   -31.8926 -31.8805 -31.8804 -31.7878 -31.7871 -31.7722 -31.7469 -31.7430
   -31.7417 -31.7405 -31.7397 -31.7035 -31.6920 -31.6626 -31.6598 -31.6536
   -31.6478 -31.6420 -31.6340 -31.6036 -31.6014 -31.5960 -31.5906 -31.5874
   -31.5764 -31.5613 -31.5469 -31.5215 -31.4619 -31.4534 -31.4431 -31.4198
   -31.4171 -31.4124 -31.0162 -30.9298 -30.9073 -30.8337 -30.7473 -30.6355
   -16.4909 -16.2928 -16.1465 -15.9773 -15.8373 -15.8085 -15.7676 -15.5966
   -15.5039 -15.4401 -15.2398 -15.2189 -15.1731 -15.1614 -15.1564 -15.1336
   -15.1240 -15.0790 -15.0605 -15.0570 -15.0472 -15.0296 -14.9932 -14.9509
   -14.9074 -14.8868 -14.7741 -14.7178 -14.6772 -14.4664 -14.3974 -13.1087
   -12.9922  -9.9900  -6.0190  -4.5894  -4.0617  -3.7649  -3.6425  -3.5446
    -3.5333  -3.4138  -3.4043  -3.1635  -3.0400  -2.9810  -2.9026  -2.7806
    -2.7489  -2.6776  -2.6379  -2.5859  -2.5665  -2.5300  -2.4902  -2.4461
    -2.4209  -2.3935  -2.3599  -2.3038  -2.2922  -2.1939  -2.1796  -2.1570
    -2.0510  -2.0102  -1.9702  -1.9520  -1.9470  -1.9280  -1.8892  -1.8830
    -1.8633  -1.7851  -1.7162  -1.6700  -1.6351  -1.6072  -1.3295  -1.2441
    -1.2004  -1.1860  -1.0821  -1.0583  -1.0300  -1.0163  -0.9790  -0.9632
    -0.8511  -0.8348  -0.7665  -0.7162  -0.7019  -0.6645  -0.5456  -0.5091
    -0.4565  -0.4181  -0.3672  -0.3504  -0.3453  -0.2511  -0.2243  -0.1893
    -0.0808  -0.0643  -0.0017   0.0835   0.0931   0.1446   0.1681   0.2284
     0.2328   0.2874   0.3171   0.3394   0.3927   0.4252   0.4614   0.4944
     0.5118   0.6138   0.6892   0.7020   0.7989   0.8743   0.9277   1.0311
     1.0990   1.3628   1.4164   1.4401   1.6084   1.9836   2.0290   3.4472
     3.5963   3.6118   3.6865   3.6991   3.7761   3.9366   3.9616   4.0968
     4.1351

[...]

          k = 0.0380-0.0419 0.0000 ( 17876 PWs)   bands (ev):

[...]

          k =-0.0760-0.0000 0.0000 ( 17886 PWs)   bands (ev):

[...]

          k =-0.0760-0.0839 0.0000 ( 17948 PWs)   bands (ev):

   -55.6807 -55.6175 -55.6172 -55.5086 -55.4887 -55.4728 -55.4649 -55.4471
   -55.4454 -55.4097 -55.3718 -55.2658 -55.2251 -55.2152 -54.5936 -54.5925
   -31.9512 -31.9433 -31.9352 -31.9349 -31.9280 -31.9108 -31.9105 -31.8948
   -31.8501 -31.8088 -31.7908 -31.7779 -31.7738 -31.7723 -31.7506 -31.7407
   -31.7374 -31.7369 -31.7265 -31.7227 -31.7149 -31.7142 -31.6996 -31.6757
   -31.6695 -31.6648 -31.6556 -31.6452 -31.6299 -31.6290 -31.6268 -31.6214
   -31.6198 -31.5946 -31.5940 -31.5532 -31.5285 -31.4927 -31.4662 -31.4616
   -31.4455 -31.4164 -30.9204 -30.9196 -30.8297 -30.8284 -30.7910 -30.7902
   -16.4584 -15.9389 -15.8559 -15.7423 -15.6193 -15.6060 -15.4950 -15.4120
   -15.4084 -15.3778 -15.3471 -15.3190 -15.3098 -15.2929 -15.2454 -15.2024
   -15.1672 -15.1395 -15.1375 -15.0916 -15.0846 -15.0732 -15.0606 -15.0383
   -15.0046 -14.9547 -14.9403 -14.9015 -14.7638 -14.6871 -14.5888 -13.0944
   -13.0938  -9.9920  -5.9990  -4.5870  -4.0257  -3.7244  -3.0539  -2.9576
    -2.8458  -2.7228  -2.7148  -2.6992  -2.6401  -2.6094  -2.5833  -2.5419
    -2.4846  -2.4658  -2.4446  -2.4279  -2.4062  -2.3882  -2.3795  -2.3743
    -2.3377  -2.3201  -2.3117  -2.2706  -2.2630  -2.2473  -2.2267  -2.2091
    -2.1784  -2.1742  -2.1448  -2.0930  -2.0433  -1.9697  -1.8771  -1.7956
    -1.7846  -1.7661  -1.7165  -1.7099  -1.6645  -1.6565  -1.6318  -1.5457
    -1.4341  -1.3833  -1.2732  -1.2534  -1.2264  -1.1870  -1.1340  -1.1198
    -1.0743  -1.0437  -0.9842  -0.8830  -0.8527  -0.7974  -0.6844  -0.6470
    -0.6083  -0.5883  -0.5761  -0.5510  -0.5345  -0.4948  -0.4666  -0.4193
    -0.3791  -0.3449  -0.3179  -0.2925  -0.2453  -0.1440  -0.0497  -0.0122
     0.0895   0.1355   0.1781   0.2090   0.2728   0.4063   0.4329   0.5289
     0.5436   0.5726   0.6742   0.6844   0.7856   0.8099   0.8477   0.8887
     0.9134   0.9346   0.9542   1.7780   1.7865   1.8494   1.8495   3.7400
     3.9327   3.9477   3.9640   4.0087   4.0159   4.0428   4.0485   4.1162
     4.1261

     the Fermi energy is     3.4861 ev

!    total energy              =   -2955.26291977 Ry
     estimated scf accuracy    <       0.00000003 Ry
     smearing contrib. (-TS)   =      -0.01952984 Ry
     internal energy E=F+TS    =   -2955.24338994 Ry

     The total energy is F=E-TS. E is the sum of the following terms:
     one-electron contribution =  -23741.07315408 Ry
     hartree contribution      =   11962.67381610 Ry
     xc contribution           =    -489.73401069 Ry
     ewald contribution        =    9312.88815169 Ry
     electric field correction =       0.00180705 Ry

     convergence has been achieved in  83 iterations

     Forces acting on atoms (cartesian axes, Ry/au):

     atom    1 type  1   force =     0.00009155   -0.00029645    0.09413234
     atom    2 type  1   force =    -0.00003938    0.00043439   -0.17543256
     atom    3 type  2   force =     0.00003875   -0.00033629   -0.02110658
     atom    4 type  2   force =     0.00002486   -0.00197808    0.05462380
     atom    5 type  2   force =    -0.00673878   -0.00245212    0.00300889
     atom    6 type  2   force =     0.00834278   -0.00187542    0.00243044
     atom    7 type  1   force =    -0.00017730   -0.00404679    0.00897078
     atom    8 type  1   force =     0.00031755    0.00082562    0.00312798
     atom    9 type  2   force =    -0.00058024    0.00059905   -0.00017267
     atom   10 type  2   force =    -0.00139080    0.00173090   -0.00926840
     atom   11 type  2   force =     0.00005406   -0.00015830    0.00037888
     atom   12 type  2   force =    -0.00007164   -0.00011466   -0.00030290
     atom   13 type  1   force =    -0.00048936   -0.00025261    0.00004885
     atom   14 type  1   force =     0.00000745   -0.00029688   -0.00008879
     atom   15 type  2   force =    -0.00031713   -0.00004725   -0.00016567
     atom   16 type  2   force =     0.00032963   -0.00056493   -0.00028119
     atom   17 type  2   force =     0.00044824   -0.00013459   -0.00076381
     atom   18 type  2   force =    -0.00047153    0.00020705   -0.00018204
     atom   19 type  1   force =     0.00041085   -0.00062948    0.00068131
     atom   20 type  1   force =     0.00055575    0.00024818    0.00043785
     atom   21 type  2   force =     0.00007683    0.00004656    0.10324847
     atom   22 type  2   force =    -0.00055694    0.00038147    0.00023488
     atom   23 type  2   force =    -0.07190281   -0.00019132   -0.02720350
     atom   24 type  2   force =     0.07183239    0.00024897   -0.02724679
     atom   25 type  1   force =     0.00002716   -0.00023847    0.09381297
     atom   26 type  1   force =    -0.00006087   -0.00133003   -0.17560893
     atom   27 type  2   force =     0.00015473   -0.00011332   -0.01986814
     atom   28 type  2   force =     0.00006934   -0.00032221    0.04990111
     atom   29 type  2   force =    -0.00612963    0.00231975    0.00251323
     atom   30 type  2   force =     0.00762115    0.00268449    0.00196446
     atom   31 type  1   force =     0.00002509    0.00839746   -0.00275314
     atom   32 type  1   force =     0.00011729   -0.00235384    0.00260771
     atom   33 type  2   force =     0.00005116   -0.00002276   -0.00004659
     atom   34 type  2   force =    -0.00211686   -0.00248863   -0.01004102
     atom   35 type  2   force =    -0.00013702   -0.00002229    0.00053324
     atom   36 type  2   force =    -0.00008116    0.00007008   -0.00007669
     atom   37 type  1   force =     0.00016996   -0.00008867   -0.00023742
     atom   38 type  1   force =     0.00005881   -0.00019803    0.00024504
     atom   39 type  2   force =    -0.00014655    0.00010143   -0.00029392
     atom   40 type  2   force =     0.00017545   -0.00025573   -0.00013030
     atom   41 type  2   force =    -0.00035885   -0.00074608    0.00064605
     atom   42 type  2   force =     0.00049323   -0.00000960   -0.00023090
     atom   43 type  1   force =    -0.00122793   -0.00060313    0.00067970
     atom   44 type  1   force =     0.00047747    0.00053675   -0.00027847
     atom   45 type  2   force =     0.00006801   -0.00007164    0.10304266
     atom   46 type  2   force =    -0.07192204   -0.00004011   -0.02723343
     atom   47 type  2   force =     0.07188501    0.00039924   -0.02728390
     atom   48 type  3   force =    -0.00008374    0.00031634    0.00036005
     atom   49 type  4   force =     0.00057161    0.00036782    0.00045991
     atom   50 type  5   force =     0.00050169    0.00085102   -0.00018834
     atom   51 type  5   force =    -0.00008601    0.00070606    0.00016116
     atom   52 type  5   force =     0.00031816   -0.00019043   -0.00071438
     atom   53 type  5   force =    -0.00035292    0.00055879   -0.00071747
     atom   54 type  5   force =     0.00033792   -0.00002049   -0.00000823
     atom   55 type  2   force =    -0.00598660    0.00047041    0.00287379
     atom   56 type  5   force =     0.00577215   -0.00001118   -0.00319937

     Total force =     0.362319     Total SCF correction =     0.000466
  @ DRIVER MODE: Message from server: STATUS
  @ DRIVER MODE: Message from server: GETFORCE
  @ DRIVER MODE: Returning v,forces,stress,ensemble

     Writing output data file ./calc.save/
  @ DRIVER MODE: Message from server: EXIT
  @ DRIVE MODE: Exiting

     General routines

     Parallel routines

   This run was terminated on:   9:18:38  24Sep2021

   JOB DONE.