     Program PWSCF v.6.7GPU starts on 15Sep2021 at 20:59:12

     R & G space division:  proc/nbgrp/npool/nimage =      10
     Reading input from /storage/home/hcoda1/3/ntian30/research/carbon/CxH_vib/H2O_calc/ads_slab/CH3N2HH2O_a/out_0017/pw.inp
Warning: card &CELL ignored
Warning: card   CELL_DYNAMICS='IPI', ignored
Warning: card / ignored

     Current dimensions of program PWSCF are:
     Max number of different atomic species (ntypx) = 10
     Max number of k-points (npk) =  40000
     Max angular momentum in pseudopotentials (lmaxx) =  3
     Presently no symmetry can be used with electric field

     Message from routine cell_base_init:
     DEPRECATED: use true lattice parameter, not A to a.u. conversion factor

     IMPORTANT: XC functional enforced from input :
     Exchange-correlation= BEEF-VDW
                           (   1   4  43  14   2   0   0)
     Any further DFT definition will be discarded
     Please, verify this is what you really want

  @ DRIVER MODE: Connecting to
 qe_1139763_2852617.sched-torque.pace.gatech.edudna05iu4_scratch
  using UNIX socket
  @ DRIVER MODE: Message from server: STATUS
  @ DRIVER MODE: Message from server: INIT
  @ DRIVER MODE: Receiving replica           0          -1
  @ DRIVER MODE: Receiving encoded integer          25
  @ DRIVER MODE:  SCF:  T  FORCE:  T  STRESS:  F  VC:  F  ENSEMBLE:  F
  @ DRIVER MODE:  SCF:  T  FORCE:  T  STRESS:  F  VC:  F  ENSEMBLE:  F

     Using Slab Decomposition

     bravais-lattice index     =            0
     lattice parameter (alat)  =       1.8897  a.u.
     unit-cell volume          =    6658.9804 (a.u.)^3
     number of atoms/cell      =           57
     number of atomic types    =            5
     number of electrons       =       404.00
     number of Kohn-Sham states=          212
     kinetic-energy cutoff     =      29.3995  Ry
     charge density cutoff     =     293.9946  Ry
     scf convergence threshold =      7.3E-08
     mixing beta               =       0.0500
     number of iterations used =            8  plain     mixing
     Exchange-correlation= BEEF-VDW
                           (   1   4  43  14   2   0   0)

     celldm(1)=   1.889726  celldm(2)=   0.000000  celldm(3)=   0.000000
     celldm(4)=   0.000000  celldm(5)=   0.000000  celldm(6)=   0.000000

     crystal axes: (cart. coord. in units of alat)
               a(1) = (   6.579727   0.000000   0.000000 )
               a(2) = (  -0.000775   5.961596   0.000000 )
               a(3) = (   0.000000   0.000000  25.155947 )

     reciprocal axes: (cart. coord. in units 2 pi/alat)
               b(1) = (  0.151982  0.000020  0.000000 )
               b(2) = (  0.000000  0.167740  0.000000 )
               b(3) = (  0.000000  0.000000  0.039752 )

     PseudoPot. # 1 for Ti read from file:
     /storage/coda1/p-amedford6/0/shared/rich_project_chbe-medford/medford-share/data/pseudos_module/espresso/nninc/pbe/van/Ti.UPF
     MD5 check sum: 8e4df49b7f0d34bbd5052bf3f5ea0213
     Pseudo is Ultrasoft, Zval = 12.0
     Generated by new atomic code, or converted to UPF format
     Using radial grid of  851 points,  6 beta functions with:
                l(1) =   0
                l(2) =   0
                l(3) =   1
                l(4) =   1
                l(5) =   2
                l(6) =   2
     Q(r) pseudized with  8 coefficients,  rinner =    1.000   1.000   1.000
                                                       1.000   1.000

     PseudoPot. # 2 for O  read from file:
     /storage/coda1/p-amedford6/0/shared/rich_project_chbe-medford/medford-share/data/pseudos_module/espresso/nninc/pbe/van/O.UPF
     MD5 check sum: 78c19812648e8988a0fe644b0f25305e
     Pseudo is Ultrasoft, Zval =  6.0
     Generated by new atomic code, or converted to UPF format
     Using radial grid of  737 points,  4 beta functions with:
                l(1) =   0
                l(2) =   0
                l(3) =   1
                l(4) =   1
     Q(r) pseudized with  8 coefficients,  rinner =    0.800   0.800   0.800

     PseudoPot. # 3 for N  read from file:
     /storage/coda1/p-amedford6/0/shared/rich_project_chbe-medford/medford-share/data/pseudos_module/espresso/nninc/pbe/van/N.UPF
     MD5 check sum: 90d10febe142ad51ac9d5be1deb811c4
     Pseudo is Ultrasoft, Zval =  5.0
     Generated by new atomic code, or converted to UPF format
     Using radial grid of  729 points,  4 beta functions with:
                l(1) =   0
                l(2) =   0
                l(3) =   1
                l(4) =   1
     Q(r) pseudized with  8 coefficients,  rinner =    0.800   0.800   0.800

     PseudoPot. # 4 for C  read from file:
     /storage/coda1/p-amedford6/0/shared/rich_project_chbe-medford/medford-share/data/pseudos_module/espresso/nninc/pbe/van/C.UPF
     MD5 check sum: 1a69bf6b8db32088f5b2163dbdb77a27
     Pseudo is Ultrasoft, Zval =  4.0
     Generated by new atomic code, or converted to UPF format
     Using radial grid of  721 points,  4 beta functions with:
                l(1) =   0
                l(2) =   0
                l(3) =   1
                l(4) =   1
     Q(r) pseudized with  8 coefficients,  rinner =    0.800   0.800   0.800

     PseudoPot. # 5 for H  read from file:
     /storage/coda1/p-amedford6/0/shared/rich_project_chbe-medford/medford-share/data/pseudos_module/espresso/nninc/pbe/van/H.UPF
     MD5 check sum: b5ee9d7bfd3a09ee7748110bda690ff7
     Pseudo is Ultrasoft, Zval =  1.0
     Generated by new atomic code, or converted to UPF format
     Using radial grid of  615 points,  1 beta functions with:
                l(1) =   0
     Q(r) pseudized with  8 coefficients,  rinner =    0.800

     atomic species   valence    mass     pseudopotential
        Ti1           12.00    47.86700     Ti( 1.00)
        O1             6.00    15.99900     O ( 1.00)
        N1             5.00    14.00700     N ( 1.00)
        C1             4.00    12.01100     C ( 1.00)
        H1             1.00     1.00800     H ( 1.00)

     No symmetry found

   Cartesian axes

     site n.     atom                  positions (alat units)
         1           Ti1 tau(   1) = (   0.0004258   2.9801865   6.0000000  )
         2           Ti1 tau(   2) = (   3.2906075   1.4906267   6.0002472  )
         3           O1  tau(   3) = (   0.0006271   0.0005054   7.9858123  )
         4           O1  tau(   4) = (   3.2906025   0.0005020   7.3038282  )
         5           O1  tau(   5) = (   4.5942328   1.4918067   9.2879030  )
         6           O1  tau(   6) = (   1.9868534   1.4903216   9.2879459  )
         7           Ti1 tau(   7) = (   3.2907910   2.8959150   9.1758416  )
         8           Ti1 tau(   8) = (   0.0015273   1.4827037   9.2680791  )
         9           O1  tau(   9) = (   3.2846840   0.0164488  11.3171736  )
        10           O1  tau(  10) = (   0.0116148   5.9584955  10.6183126  )
        11           O1  tau(  11) = (   1.2780696   1.4966870  12.6228330  )
        12           O1  tau(  12) = (   5.2671132   1.5021727  12.6038655  )
        13           Ti1 tau(  13) = (   0.0814623   2.9703834  12.6092300  )
        14           Ti1 tau(  14) = (   3.3984034   1.5042134  12.4754612  )
        15           O1  tau(  15) = (   6.5611900   5.9602394  14.6246442  )
        16           O1  tau(  16) = (   3.2847170   0.0117735  13.9091713  )
        17           O1  tau(  17) = (   4.5127615   1.5439160  15.9886145  )
        18           O1  tau(  18) = (   2.0245574   1.5486524  15.9865356  )
        19           Ti1 tau(  19) = (   3.2678410   3.0292036  15.6627315  )
        20           Ti1 tau(  20) = (   6.5437773   1.5790868  15.8036792  )
        21           O1  tau(  21) = (   3.2904802   0.0005063   4.7018136  )
        22           O1  tau(  22) = (   6.5616667   0.0409992  17.2467836  )
        23           O1  tau(  23) = (   1.3043587   1.4918075   6.0039043  )
        24           O1  tau(  24) = (   5.2767064   1.4903225   6.0039473  )
        25           Ti1 tau(  25) = (   0.0000382   5.9609847   6.0000000  )
        26           Ti1 tau(  26) = (   3.2902200   4.4714249   6.0002472  )
        27           O1  tau(  27) = (   0.0002396   2.9813036   7.9858123  )
        28           O1  tau(  28) = (   3.2902150   2.9813002   7.3038282  )
        29           O1  tau(  29) = (   4.5938453   4.4726049   9.2879030  )
        30           O1  tau(  30) = (   1.9864658   4.4711199   9.2879459  )
        31           Ti1 tau(  31) = (   3.2891106   5.8743827   9.1763621  )
        32           Ti1 tau(  32) = (   0.0006254   4.4649316   9.2693709  )
        33           O1  tau(  33) = (   3.2886753   2.9955121  11.3174028  )
        34           O1  tau(  34) = (   0.0092240   2.9805883  10.6323155  )
        35           O1  tau(  35) = (   1.2771457   4.4765085  12.6200386  )
        36           O1  tau(  36) = (   5.2716127   4.4859779  12.5990880  )
        37           Ti1 tau(  37) = (   0.0719143   5.9417653  12.6408960  )
        38           Ti1 tau(  38) = (   3.4009286   4.4967646  12.4819834  )
        39           O1  tau(  39) = (   6.5633752   2.9851081  14.6229342  )
        40           O1  tau(  40) = (   3.2806164   3.0132077  13.8636590  )
        41           O1  tau(  41) = (   4.5054435   4.4842064  16.0752605  )
        42           O1  tau(  42) = (   2.0287922   4.4846499  16.0567397  )
        43           Ti1 tau(  43) = (   3.2585180   0.0608266  15.7494983  )
        44           Ti1 tau(  44) = (   6.5556145   4.6328118  16.1363011  )
        45           O1  tau(  45) = (   3.2900926   2.9813045   4.7018136  )
        46           O1  tau(  46) = (   1.3039711   4.4726057   6.0039043  )
        47           O1  tau(  47) = (   5.2763189   4.4711207   6.0039473  )
        48           N1  tau(  48) = (   6.4582227   2.6263240  18.5734135  )
        49           N1  tau(  49) = (   6.5493832   2.9496485  17.3103279  )
        50           C1  tau(  50) = (   0.1600853   3.5596473  19.6355425  )
        51           H1  tau(  51) = (   6.1911903   4.4878083  19.4849519  )
        52           H1  tau(  52) = (   6.4401482   3.1080517  20.5902855  )
        53           H1  tau(  53) = (   1.2308410   3.8049764  19.6956042  )
        54           H1  tau(  54) = (   6.5044843   1.6253530  18.7706356  )
        55           O1  tau(  55) = (   3.2415852   0.0755412  18.2049893  )
        56           H1  tau(  56) = (   4.0109045   5.4607113  18.3409029  )
        57           H1  tau(  57) = (   2.4534619   5.4803556  18.3240773  )

     number of k points=    10  Fermi-Dirac smearing, width (Ry)=  0.0073
                       cart. coord. in units 2pi/alat
        k(    1) = (   0.0000000   0.0000000   0.0000000), wk =   0.1250000
        k(    2) = (   0.0000000   0.0419351   0.0000000), wk =   0.2500000
        k(    3) = (   0.0000000  -0.0838702   0.0000000), wk =   0.1250000
        k(    4) = (   0.0379955   0.0000049   0.0000000), wk =   0.2500000
        k(    5) = (   0.0379955   0.0419400   0.0000000), wk =   0.2500000
        k(    6) = (   0.0379955  -0.0838652   0.0000000), wk =   0.2500000
        k(    7) = (   0.0379955  -0.0419301   0.0000000), wk =   0.2500000
        k(    8) = (  -0.0759910  -0.0000099   0.0000000), wk =   0.1250000
        k(    9) = (  -0.0759910   0.0419252   0.0000000), wk =   0.2500000
        k(   10) = (  -0.0759910  -0.0838800   0.0000000), wk =   0.1250000

     Initial potential from superposition of free atoms

     starting charge  387.99913, renormalised to  404.00000

     negative rho (up, down):  1.446E-02 0.000E+00

     %%%%%%%%%%%%%%%%%%%%%%%%%%%%%%%%%%%%%%%%%%%%%%%%%%%%%%%%%%%%%%%%%%%%%%%%
     %                                                                      %
     % You are using vdW-DF, which was implemented by the Thonhauser group. %
     % Please cite the following two papers that made this development      %
     % possible and the two reviews that describe the various versions:     %
     %                                                                      %
     %   T. Thonhauser et al., PRL 115, 136402 (2015).                      %
     %   T. Thonhauser et al., PRB 76, 125112 (2007).                       %
     %   K. Berland et al., Rep. Prog. Phys. 78, 066501 (2015).             %
     %   D.C. Langreth et al., J. Phys.: Condens. Matter 21, 084203 (2009). %
     %                                                                      %
     %                                                                      %
     % If you are calculating the stress with vdW-DF, please also cite:     %
     %                                                                      %
     %   R. Sabatini et al., J. Phys.: Condens. Matter 24, 424209 (2012).   %
     %                                                                      %
     %%%%%%%%%%%%%%%%%%%%%%%%%%%%%%%%%%%%%%%%%%%%%%%%%%%%%%%%%%%%%%%%%%%%%%%%

     Adding external electric field

     Computed dipole along edir(3) :
        Dipole              -13.5637 Ry au,        -34.4755 Debye
        Dipole field         -0.0256 Ry au,

        Potential amp.        2.3728 Ry
        Total length         46.3494 bohr

     Starting wfcs are  306 atomic wfcs
  @ DRIVER MODE: Message from server: STATUS
  @ DRIVER MODE: Message from server: POSDATA
  @ DRIVER MODE: Reading and sharing cell
  @ DRIVER MODE: Reading and sharing positions
  @ DRIVER MODE: Received positions

     Self-consistent Calculation

     iteration #  1     ecut=    29.40 Ry     beta= 0.05
     Davidson diagonalization with overlap
     c_bands:  4 eigenvalues not converged
     c_bands:  4 eigenvalues not converged
     c_bands:  4 eigenvalues not converged
     c_bands:  4 eigenvalues not converged
     c_bands:  3 eigenvalues not converged
     c_bands:  3 eigenvalues not converged
     ethr =  1.00E-05,  avg # of iterations = 25.3

[...]

     total energy              =   -2339.95546887 Ry
     estimated scf accuracy    <    7242.21639929 Ry

     iteration #  2     ecut=    29.40 Ry     beta= 0.05
     Davidson diagonalization with overlap
     ethr =  1.00E-02,  avg # of iterations = 23.8

[...]

     iteration # 53     ecut=    29.40 Ry     beta= 0.05
     Davidson diagonalization with overlap
     c_bands:  2 eigenvalues not converged
     c_bands:  1 eigenvalues not converged
     c_bands:  1 eigenvalues not converged
     ethr =  5.17E-06,  avg # of iterations = 13.3

[...]

     total energy              =   -2975.23033661 Ry
     estimated scf accuracy    <       0.00000022 Ry

     iteration # 79     ecut=    29.40 Ry     beta= 0.05
     Davidson diagonalization with overlap
     ethr =  3.19E-11,  avg # of iterations =  5.9

     negative rho (up, down):  1.507E-02 0.000E+00

     Adding external electric field

     Computed dipole along edir(3) :
        Dipole                1.1547 Ry au,          2.9350 Debye
        Dipole field          0.0022 Ry au,

        Potential amp.       -0.2020 Ry
        Total length         46.3494 bohr

     End of self-consistent calculation

          k = 0.0000 0.0000 0.0000 ( 18029 PWs)   bands (ev):

   -55.5097 -55.4757 -55.3361 -55.2996 -55.2668 -55.2331 -55.2059 -55.2011
   -55.1921 -55.1683 -55.1577 -55.0170 -54.5549 -54.4402 -54.4062 -54.3911
   -31.9827 -31.8715 -31.8040 -31.7890 -31.7257 -31.7160 -31.6812 -31.6630
   -31.6250 -31.6069 -31.6051 -31.5774 -31.5686 -31.5243 -31.5154 -31.5043
   -31.4860 -31.4828 -31.4592 -31.4426 -31.4276 -31.4205 -31.4181 -31.3989
   -31.3968 -31.3892 -31.3795 -31.3723 -31.3693 -31.3671 -31.3459 -31.3337
   -31.3211 -31.3046 -31.2091 -31.1819 -31.0487 -30.8453 -30.7791 -30.7651
   -30.7621 -30.7394 -30.7259 -30.6622 -30.6016 -30.5760 -30.5707 -30.4649
   -18.7871 -17.7756 -16.0775 -15.8858 -15.6135 -15.4887 -15.4625 -15.2787
   -15.2025 -15.1516 -15.0195 -14.9716 -14.9430 -14.9120 -14.9005 -14.8430
   -14.8150 -14.7881 -14.7569 -14.7543 -14.7349 -14.7110 -14.6696 -14.6145
   -14.5880 -14.5272 -14.4772 -14.4559 -14.3605 -14.3572 -13.9301 -12.9419
   -12.8264 -11.9093  -8.8059  -6.5570  -5.6299  -4.3334  -4.0984  -3.4623
    -3.3873  -3.3279  -3.2118  -3.1157  -2.9935  -2.9517  -2.8472  -2.7753
    -2.6091  -2.5508  -2.5241  -2.4958  -2.4110  -2.2782  -2.2670  -2.2183
    -2.1909  -2.1705  -2.1547  -2.1396  -2.0425  -2.0052  -1.9685  -1.8543
    -1.8200  -1.7999  -1.7819  -1.7732  -1.7556  -1.6928  -1.6601  -1.6415
    -1.6324  -1.5956  -1.5598  -1.5478  -1.4183  -1.4001  -1.2821  -1.1513
    -1.1300  -1.0734  -1.0513  -0.8924  -0.8844  -0.8629  -0.8231  -0.8161
    -0.7432  -0.6710  -0.6265  -0.5544  -0.4349  -0.4263  -0.3907  -0.2451
    -0.2412  -0.2184  -0.1805  -0.1691  -0.1166  -0.1077  -0.0621  -0.0005
     0.0927   0.1645   0.2697   0.2719   0.3252   0.3643   0.3778   0.4353
     0.4510   0.5009   0.5123   0.5202   0.5723   0.6073   0.6200   0.6787
     0.7299   0.8464   0.9158   0.9409   0.9876   1.1091   1.1840   1.2324
     1.2377   1.4059   1.5271   1.5598   1.5819   1.7822   1.8147   2.1489
     2.1927   3.6644   3.6810   3.7708   3.8299   3.9440   4.0164   4.1042
     4.1856   4.2541   4.3469   4.3893

[...]

          k = 0.0380-0.0419 0.0000 ( 17876 PWs)   bands (ev):

[...]

          k =-0.0760-0.0000 0.0000 ( 17886 PWs)   bands (ev):

[...]

          k =-0.0760-0.0839 0.0000 ( 17948 PWs)   bands (ev):

   -55.4928 -55.4924 -55.3216 -55.3139 -55.2499 -55.2496 -55.1994 -55.1943
   -55.1799 -55.1782 -55.1717 -55.0186 -54.5533 -54.4232 -54.4230 -54.3926
   -31.7982 -31.7981 -31.7892 -31.7892 -31.6845 -31.6674 -31.6139 -31.6133
   -31.5737 -31.5690 -31.5659 -31.5619 -31.5592 -31.5527 -31.5211 -31.5161
   -31.4934 -31.4833 -31.4817 -31.4736 -31.4429 -31.4408 -31.4328 -31.4302
   -31.4186 -31.4149 -31.4063 -31.4030 -31.3992 -31.3936 -31.3916 -31.3877
   -31.3594 -31.3354 -31.3190 -31.2168 -30.9582 -30.8023 -30.7682 -30.7522
   -30.7521 -30.7476 -30.6584 -30.6582 -30.6203 -30.6192 -30.6192 -30.6017
   -18.7861 -17.7698 -15.5003 -15.4346 -15.3646 -15.3607 -15.2555 -15.2026
   -15.1079 -15.0967 -15.0896 -15.0864 -14.9866 -14.9832 -14.9162 -14.9074
   -14.8679 -14.8621 -14.8582 -14.8413 -14.8258 -14.8211 -14.8055 -14.7582
   -14.7433 -14.7374 -14.5733 -14.5474 -14.4323 -14.4131 -14.0541 -12.9285
   -12.9284 -11.9107  -8.8164  -6.5407  -5.6209  -4.2816  -4.1209  -2.9154
    -2.8784  -2.7917  -2.6641  -2.5324  -2.5205  -2.4989  -2.4627  -2.2962
    -2.2838  -2.2686  -2.2592  -2.2169  -2.2058  -2.1866  -2.1724  -2.1179
    -2.1010  -2.0832  -2.0780  -2.0669  -2.0586  -2.0506  -2.0412  -2.0339
    -2.0103  -1.9619  -1.9406  -1.8577  -1.7732  -1.7634  -1.6854  -1.5580
    -1.5518  -1.5403  -1.5389  -1.5256  -1.5159  -1.4745  -1.4356  -1.3845
    -1.2683  -1.1542  -1.1055  -1.0872  -1.0304  -1.0129  -0.9246  -0.8438
    -0.8098  -0.7912  -0.7058  -0.6572  -0.5775  -0.5616  -0.5252  -0.4745
    -0.4509  -0.4366  -0.4217  -0.4135  -0.3487  -0.3045  -0.2375  -0.2238
    -0.1684  -0.1372  -0.1082  -0.0854  -0.0443   0.0481   0.0562   0.0856
     0.1112   0.1262   0.2019   0.3525   0.3925   0.6308   0.6398   0.7126
     0.8411   0.8625   0.8699   0.9471   0.9608   0.9984   1.0194   1.1387
     1.1616   1.1883   1.3145   1.3499   1.4440   1.9518   1.9527   2.0117
     2.0122   3.5270   4.1293   4.1391   4.1561   4.1694   4.1947   4.2014
     4.2444   4.2576   4.3925   4.4283

     the Fermi energy is     3.6403 ev

!    total energy              =   -2975.23034802 Ry
     estimated scf accuracy    <       0.00000007 Ry
     smearing contrib. (-TS)   =      -0.02105790 Ry
     internal energy E=F+TS    =   -2975.20929012 Ry

     The total energy is F=E-TS. E is the sum of the following terms:
     one-electron contribution =  -23880.35296242 Ry
     hartree contribution      =   12037.55277442 Ry
     xc contribution           =    -494.92775908 Ry
     ewald contribution        =    9362.51614071 Ry
     electric field correction =       0.00251626 Ry

     convergence has been achieved in  79 iterations

     Forces acting on atoms (cartesian axes, Ry/au):

     atom    1 type  1   force =     0.00017037   -0.00023196    0.09946095
     atom    2 type  1   force =    -0.00014640   -0.00038590   -0.17309773
     atom    3 type  2   force =    -0.00006961   -0.00000502   -0.02914526
     atom    4 type  2   force =     0.00003872   -0.00102402    0.04891983
     atom    5 type  2   force =    -0.01223818    0.00099110    0.00048516
     atom    6 type  2   force =     0.01354710    0.00186389   -0.00111167
     atom    7 type  1   force =    -0.00136676   -0.00053771   -0.00296210
     atom    8 type  1   force =     0.00094929   -0.00608119    0.04543809
     atom    9 type  2   force =    -0.00000563   -0.00023344   -0.00004936
     atom   10 type  2   force =    -0.00155897    0.00261389   -0.03098878
     atom   11 type  2   force =    -0.00016828   -0.00045356    0.00002919
     atom   12 type  2   force =     0.00007895   -0.00023537    0.00013588
     atom   13 type  1   force =    -0.00019194   -0.00054250   -0.00024768
     atom   14 type  1   force =     0.00031187   -0.00016952    0.00027617
     atom   15 type  2   force =    -0.00000258   -0.00016953   -0.00035566
     atom   16 type  2   force =    -0.00021597    0.00004997    0.00004929
     atom   17 type  2   force =     0.00017353   -0.00028335    0.00012736
     atom   18 type  2   force =    -0.00004825   -0.00035658   -0.00001460
     atom   19 type  1   force =     0.00007690   -0.00012670    0.00041438
     atom   20 type  1   force =    -0.00002702   -0.00043431    0.00035773
     atom   21 type  2   force =     0.00009018   -0.00000480    0.10254740
     atom   22 type  2   force =     0.00008274   -0.00015539   -0.00016048
     atom   23 type  2   force =    -0.07250981   -0.00008931   -0.02844267
     atom   24 type  2   force =     0.07247467    0.00034290   -0.02842457
     atom   25 type  1   force =     0.00009245   -0.00027826    0.09897979
     atom   26 type  1   force =    -0.00006420   -0.00041382   -0.17327045
     atom   27 type  2   force =    -0.00003370    0.00000624   -0.02845031
     atom   28 type  2   force =     0.00009574   -0.00075782    0.04808381
     atom   29 type  2   force =    -0.01260572    0.00063045    0.00051872
     atom   30 type  2   force =     0.01384029    0.00095901   -0.00105052
     atom   31 type  1   force =    -0.00145980    0.00225494   -0.00569269
     atom   32 type  1   force =     0.00112381    0.00384013    0.04595932
     atom   33 type  2   force =    -0.00006492   -0.00026355   -0.00012905
     atom   34 type  2   force =    -0.00096695    0.00134317   -0.03384806
     atom   35 type  2   force =    -0.00027806    0.00004783   -0.00025871
     atom   36 type  2   force =     0.00048163    0.00009985   -0.00004778
     atom   37 type  1   force =    -0.00031474    0.00007434    0.00033536
     atom   38 type  1   force =     0.00018952   -0.00029374    0.00009678
     atom   39 type  2   force =     0.00003307   -0.00050111    0.00031070
     atom   40 type  2   force =    -0.00004927    0.00017524   -0.00033221
     atom   41 type  2   force =    -0.00014140   -0.00024088    0.00001155
     atom   42 type  2   force =     0.00022155   -0.00017142   -0.00011631
     atom   43 type  1   force =     0.00008404    0.00002845   -0.00000862
     atom   44 type  1   force =    -0.00001735   -0.00028566    0.00013189
     atom   45 type  2   force =     0.00009612   -0.00001154    0.10254287
     atom   46 type  2   force =    -0.07253116   -0.00000919   -0.02843676
     atom   47 type  2   force =     0.07249214    0.00037718   -0.02842893
     atom   48 type  3   force =    -0.00100796   -0.00258310   -0.00529056
     atom   49 type  3   force =    -0.00007002   -0.00114947   -0.00226740
     atom   50 type  4   force =    -0.00047599   -0.00278203    0.01920376
     atom   51 type  5   force =    -0.00065362    0.00113916   -0.00185689
     atom   52 type  5   force =     0.00224433    0.00387851   -0.00835993
     atom   53 type  5   force =     0.00007227   -0.00000713   -0.00158093
     atom   54 type  5   force =     0.00031114    0.00020293    0.00042721
     atom   55 type  2   force =     0.00061408    0.00055273   -0.00037604
     atom   56 type  5   force =    -0.00020216   -0.00037750   -0.00020468
     atom   57 type  5   force =    -0.00050007    0.00017445    0.00016417

     Total force =     0.372754     Total SCF correction =     0.000747
  @ DRIVER MODE: Message from server: STATUS
  @ DRIVER MODE: Message from server: GETFORCE
  @ DRIVER MODE: Returning v,forces,stress,ensemble

     Writing output data file ./calc.save/
  @ DRIVER MODE: Message from server: EXIT
  @ DRIVE MODE: Exiting

     General routines

     Parallel routines

   This run was terminated on:  21:19:58  15Sep2021

   JOB DONE.