     Program PWSCF v.6.7GPU starts on 23Sep2021 at 19:27:51

     R & G space division:  proc/nbgrp/npool/nimage =       8
     Reading input from /storage/home/hcoda1/3/ntian30/research/carbon/CxH_vib/H2O_calc/ads_slab/CH3NHNHHO_a/out_0054/pw.inp
Warning: card &CELL ignored
Warning: card   CELL_DYNAMICS='IPI', ignored
Warning: card / ignored

     Current dimensions of program PWSCF are:
     Max number of different atomic species (ntypx) = 10
     Max number of k-points (npk) =  40000
     Max angular momentum in pseudopotentials (lmaxx) =  3
     Presently no symmetry can be used with electric field

     Message from routine cell_base_init:
     DEPRECATED: use true lattice parameter, not A to a.u. conversion factor

     IMPORTANT: XC functional enforced from input :
     Exchange-correlation= BEEF-VDW
                           (   1   4  43  14   2   0   0)
     Any further DFT definition will be discarded
     Please, verify this is what you really want

  @ DRIVER MODE: Connecting to
 qe_1139763_2941006.sched-torque.pace.gatech.edu6rzc6use_scratch
  using UNIX socket
  @ DRIVER MODE: Message from server: STATUS
  @ DRIVER MODE: Message from server: INIT
  @ DRIVER MODE: Receiving replica           0          -1
  @ DRIVER MODE: Receiving encoded integer          25
  @ DRIVER MODE:  SCF:  T  FORCE:  T  STRESS:  F  VC:  F  ENSEMBLE:  F
  @ DRIVER MODE:  SCF:  T  FORCE:  T  STRESS:  F  VC:  F  ENSEMBLE:  F

     Using Slab Decomposition

     bravais-lattice index     =            0
     lattice parameter (alat)  =       1.8897  a.u.
     unit-cell volume          =    6658.9804 (a.u.)^3
     number of atoms/cell      =           57
     number of atomic types    =            5
     number of electrons       =       404.00
     number of Kohn-Sham states=          212
     kinetic-energy cutoff     =      29.3995  Ry
     charge density cutoff     =     293.9946  Ry
     scf convergence threshold =      7.3E-08
     mixing beta               =       0.0500
     number of iterations used =            8  plain     mixing
     Exchange-correlation= BEEF-VDW
                           (   1   4  43  14   2   0   0)

     celldm(1)=   1.889726  celldm(2)=   0.000000  celldm(3)=   0.000000
     celldm(4)=   0.000000  celldm(5)=   0.000000  celldm(6)=   0.000000

     crystal axes: (cart. coord. in units of alat)
               a(1) = (   6.579727   0.000000   0.000000 )
               a(2) = (  -0.000775   5.961596   0.000000 )
               a(3) = (   0.000000   0.000000  25.155947 )

     reciprocal axes: (cart. coord. in units 2 pi/alat)
               b(1) = (  0.151982  0.000020  0.000000 )
               b(2) = (  0.000000  0.167740  0.000000 )
               b(3) = (  0.000000  0.000000  0.039752 )

     PseudoPot. # 1 for Ti read from file:
     /storage/coda1/p-amedford6/0/shared/rich_project_chbe-medford/medford-share/data/pseudos_module/espresso/nninc/pbe/van/Ti.UPF
     MD5 check sum: 8e4df49b7f0d34bbd5052bf3f5ea0213
     Pseudo is Ultrasoft, Zval = 12.0
     Generated by new atomic code, or converted to UPF format
     Using radial grid of  851 points,  6 beta functions with:
                l(1) =   0
                l(2) =   0
                l(3) =   1
                l(4) =   1
                l(5) =   2
                l(6) =   2
     Q(r) pseudized with  8 coefficients,  rinner =    1.000   1.000   1.000
                                                       1.000   1.000

     PseudoPot. # 2 for O  read from file:
     /storage/coda1/p-amedford6/0/shared/rich_project_chbe-medford/medford-share/data/pseudos_module/espresso/nninc/pbe/van/O.UPF
     MD5 check sum: 78c19812648e8988a0fe644b0f25305e
     Pseudo is Ultrasoft, Zval =  6.0
     Generated by new atomic code, or converted to UPF format
     Using radial grid of  737 points,  4 beta functions with:
                l(1) =   0
                l(2) =   0
                l(3) =   1
                l(4) =   1
     Q(r) pseudized with  8 coefficients,  rinner =    0.800   0.800   0.800

     PseudoPot. # 3 for N  read from file:
     /storage/coda1/p-amedford6/0/shared/rich_project_chbe-medford/medford-share/data/pseudos_module/espresso/nninc/pbe/van/N.UPF
     MD5 check sum: 90d10febe142ad51ac9d5be1deb811c4
     Pseudo is Ultrasoft, Zval =  5.0
     Generated by new atomic code, or converted to UPF format
     Using radial grid of  729 points,  4 beta functions with:
                l(1) =   0
                l(2) =   0
                l(3) =   1
                l(4) =   1
     Q(r) pseudized with  8 coefficients,  rinner =    0.800   0.800   0.800

     PseudoPot. # 4 for C  read from file:
     /storage/coda1/p-amedford6/0/shared/rich_project_chbe-medford/medford-share/data/pseudos_module/espresso/nninc/pbe/van/C.UPF
     MD5 check sum: 1a69bf6b8db32088f5b2163dbdb77a27
     Pseudo is Ultrasoft, Zval =  4.0
     Generated by new atomic code, or converted to UPF format
     Using radial grid of  721 points,  4 beta functions with:
                l(1) =   0
                l(2) =   0
                l(3) =   1
                l(4) =   1
     Q(r) pseudized with  8 coefficients,  rinner =    0.800   0.800   0.800

     PseudoPot. # 5 for H  read from file:
     /storage/coda1/p-amedford6/0/shared/rich_project_chbe-medford/medford-share/data/pseudos_module/espresso/nninc/pbe/van/H.UPF
     MD5 check sum: b5ee9d7bfd3a09ee7748110bda690ff7
     Pseudo is Ultrasoft, Zval =  1.0
     Generated by new atomic code, or converted to UPF format
     Using radial grid of  615 points,  1 beta functions with:
                l(1) =   0
     Q(r) pseudized with  8 coefficients,  rinner =    0.800

     atomic species   valence    mass     pseudopotential
        Ti1           12.00    47.86700     Ti( 1.00)
        O1             6.00    15.99900     O ( 1.00)
        N1             5.00    14.00700     N ( 1.00)
        C1             4.00    12.01100     C ( 1.00)
        H1             1.00     1.00800     H ( 1.00)

     No symmetry found

   Cartesian axes

     site n.     atom                  positions (alat units)
         1           Ti1 tau(   1) = (   0.0004258   2.9801865   6.0000000  )
         2           Ti1 tau(   2) = (   3.2906075   1.4906267   6.0002472  )
         3           O1  tau(   3) = (   0.0006271   0.0005054   7.9858123  )
         4           O1  tau(   4) = (   3.2906025   0.0005020   7.3038282  )
         5           O1  tau(   5) = (   4.5942328   1.4918067   9.2879030  )
         6           O1  tau(   6) = (   1.9868534   1.4903216   9.2879459  )
         7           Ti1 tau(   7) = (   3.2907910   2.8959150   9.1758416  )
         8           Ti1 tau(   8) = (   0.0015273   1.4827037   9.2680791  )
         9           O1  tau(   9) = (   3.2953096   5.9421394  11.2884464  )
        10           O1  tau(  10) = (   0.0116148   5.9584955  10.6183126  )
        11           O1  tau(  11) = (   1.3041449   1.4755329  12.6321863  )
        12           O1  tau(  12) = (   5.3089623   1.4871430  12.6059879  )
        13           Ti1 tau(  13) = (   6.5683417   3.1096339  12.6902584  )
        14           Ti1 tau(  14) = (   3.3171551   1.3050273  12.6602886  )
        15           O1  tau(  15) = (   6.5441980   0.0188234  14.6400653  )
        16           O1  tau(  16) = (   3.3305379   0.0354930  13.9003223  )
        17           O1  tau(  17) = (   4.5569828   1.5958521  16.0354584  )
        18           O1  tau(  18) = (   2.0254723   1.5302355  15.9749146  )
        19           Ti1 tau(  19) = (   3.2479256   3.0467527  15.6517507  )
        20           Ti1 tau(  20) = (   6.4631478   1.5268535  15.8454044  )
        21           O1  tau(  21) = (   3.2904802   0.0005063   4.7018136  )
        22           O1  tau(  22) = (   6.5640117   0.0389496  17.1838934  )
        23           O1  tau(  23) = (   1.3043587   1.4918075   6.0039043  )
        24           O1  tau(  24) = (   5.2767064   1.4903225   6.0039473  )
        25           Ti1 tau(  25) = (   0.0000382   5.9609847   6.0000000  )
        26           Ti1 tau(  26) = (   3.2902200   4.4714249   6.0002472  )
        27           O1  tau(  27) = (   0.0002396   2.9813036   7.9858123  )
        28           O1  tau(  28) = (   3.2902150   2.9813002   7.3038282  )
        29           O1  tau(  29) = (   4.5938453   4.4726049   9.2879030  )
        30           O1  tau(  30) = (   1.9864658   4.4711199   9.2879459  )
        31           Ti1 tau(  31) = (   3.2891106   5.8743827   9.1763621  )
        32           Ti1 tau(  32) = (   0.0006254   4.4649316   9.2693709  )
        33           O1  tau(  33) = (   3.2909858   3.0116154  11.2527998  )
        34           O1  tau(  34) = (   0.0092240   2.9805883  10.6323155  )
        35           O1  tau(  35) = (   1.2990260   4.4726261  12.6330189  )
        36           O1  tau(  36) = (   5.2946483   4.4606482  12.6134978  )
        37           Ti1 tau(  37) = (   0.0333947   0.1262769  12.6104238  )
        38           Ti1 tau(  38) = (   3.2900473   4.3917186  12.4086616  )
        39           O1  tau(  39) = (   6.5591047   2.9728048  14.6463482  )
        40           O1  tau(  40) = (   3.3071982   2.9909887  13.8663713  )
        41           O1  tau(  41) = (   4.5374868   4.4330245  16.1128471  )
        42           O1  tau(  42) = (   2.0037144   4.4952966  15.9584979  )
        43           Ti1 tau(  43) = (   3.1911318   0.0573200  16.2061952  )
        44           Ti1 tau(  44) = (   6.5299348   4.6473693  16.0672121  )
        45           O1  tau(  45) = (   3.2900926   2.9813045   4.7018136  )
        46           O1  tau(  46) = (   1.3039711   4.4726057   6.0039043  )
        47           O1  tau(  47) = (   5.2763189   4.4711207   6.0039473  )
        48           N1  tau(  48) = (   1.2509970   2.8552009  18.3001485  )
        49           N1  tau(  49) = (   0.1090600   2.9410495  17.4585617  )
        50           C1  tau(  50) = (   1.1117997   3.5424446  19.5707766  )
        51           H1  tau(  51) = (   0.2696121   3.1616043  20.1716506  )
        52           H1  tau(  52) = (   2.0314425   3.4001925  20.1392599  )
        53           H1  tau(  53) = (   0.9679189   4.6079482  19.3970517  )
        54           H1  tau(  54) = (   1.5306055   1.8840965  18.4148701  )
        55           H1  tau(  55) = (   5.8389999   2.9001924  18.0325661  )
        56           O1  tau(  56) = (   3.2424369   0.1001929  18.0679484  )
        57           H1  tau(  57) = (   3.9792659   5.6040190  18.4897823  )

     number of k points=    10  Fermi-Dirac smearing, width (Ry)=  0.0073
                       cart. coord. in units 2pi/alat
        k(    1) = (   0.0000000   0.0000000   0.0000000), wk =   0.1250000
        k(    2) = (   0.0000000   0.0419351   0.0000000), wk =   0.2500000
        k(    3) = (   0.0000000  -0.0838702   0.0000000), wk =   0.1250000
        k(    4) = (   0.0379955   0.0000049   0.0000000), wk =   0.2500000
        k(    5) = (   0.0379955   0.0419400   0.0000000), wk =   0.2500000
        k(    6) = (   0.0379955  -0.0838652   0.0000000), wk =   0.2500000
        k(    7) = (   0.0379955  -0.0419301   0.0000000), wk =   0.2500000
        k(    8) = (  -0.0759910  -0.0000099   0.0000000), wk =   0.1250000
        k(    9) = (  -0.0759910   0.0419252   0.0000000), wk =   0.2500000
        k(   10) = (  -0.0759910  -0.0838800   0.0000000), wk =   0.1250000

     Initial potential from superposition of free atoms

     starting charge  387.99913, renormalised to  404.00000

     negative rho (up, down):  1.467E-02 0.000E+00

     %%%%%%%%%%%%%%%%%%%%%%%%%%%%%%%%%%%%%%%%%%%%%%%%%%%%%%%%%%%%%%%%%%%%%%%%
     %                                                                      %
     % You are using vdW-DF, which was implemented by the Thonhauser group. %
     % Please cite the following two papers that made this development      %
     % possible and the two reviews that describe the various versions:     %
     %                                                                      %
     %   T. Thonhauser et al., PRL 115, 136402 (2015).                      %
     %   T. Thonhauser et al., PRB 76, 125112 (2007).                       %
     %   K. Berland et al., Rep. Prog. Phys. 78, 066501 (2015).             %
     %   D.C. Langreth et al., J. Phys.: Condens. Matter 21, 084203 (2009). %
     %                                                                      %
     %                                                                      %
     % If you are calculating the stress with vdW-DF, please also cite:     %
     %                                                                      %
     %   R. Sabatini et al., J. Phys.: Condens. Matter 24, 424209 (2012).   %
     %                                                                      %
     %%%%%%%%%%%%%%%%%%%%%%%%%%%%%%%%%%%%%%%%%%%%%%%%%%%%%%%%%%%%%%%%%%%%%%%%

     Adding external electric field

     Computed dipole along edir(3) :
        Dipole              -12.7362 Ry au,        -32.3721 Debye
        Dipole field         -0.0240 Ry au,

        Potential amp.        2.2280 Ry
        Total length         46.3494 bohr

     Starting wfcs are  306 atomic wfcs
  @ DRIVER MODE: Message from server: STATUS
  @ DRIVER MODE: Message from server: POSDATA
  @ DRIVER MODE: Reading and sharing cell
  @ DRIVER MODE: Reading and sharing positions
  @ DRIVER MODE: Received positions

     Self-consistent Calculation

     iteration #  1     ecut=    29.40 Ry     beta= 0.05
     Davidson diagonalization with overlap
     c_bands:  4 eigenvalues not converged
     c_bands:  5 eigenvalues not converged
     c_bands:  5 eigenvalues not converged
     c_bands:  5 eigenvalues not converged
     c_bands:  1 eigenvalues not converged
     c_bands:  3 eigenvalues not converged
     c_bands:  4 eigenvalues not converged
     c_bands:  4 eigenvalues not converged
     ethr =  1.00E-05,  avg # of iterations = 24.4

[...]

     total energy              =   -2345.50137007 Ry
     estimated scf accuracy    <    7121.25495427 Ry

     iteration #  2     ecut=    29.40 Ry     beta= 0.05
     Davidson diagonalization with overlap
     ethr =  1.00E-02,  avg # of iterations = 24.4

[...]

     iteration # 43     ecut=    29.40 Ry     beta= 0.05
     Davidson diagonalization with overlap
     c_bands:  1 eigenvalues not converged
     ethr =  2.83E-07,  avg # of iterations =  4.2

[...]

     total energy              =   -2975.25028242 Ry
     estimated scf accuracy    <       0.00000007 Ry

     iteration # 72     ecut=    29.40 Ry     beta= 0.05
     Davidson diagonalization with overlap
     ethr =  1.84E-11,  avg # of iterations =  5.7

     negative rho (up, down):  1.542E-02 0.000E+00

     Adding external electric field

     Computed dipole along edir(3) :
        Dipole                0.5288 Ry au,          1.3442 Debye
        Dipole field          0.0010 Ry au,

        Potential amp.       -0.0925 Ry
        Total length         46.3494 bohr

     End of self-consistent calculation

          k = 0.0000 0.0000 0.0000 ( 18029 PWs)   bands (ev):

   -56.4312 -56.3975 -55.7777 -55.7429 -55.5462 -55.4852 -55.3857 -55.2232
   -55.2160 -55.1477 -55.1130 -55.0951 -55.0612 -55.0592 -54.9951 -54.8735
   -32.8644 -32.7156 -32.6876 -32.5987 -32.5073 -32.4900 -32.2578 -32.0244
   -31.9971 -31.9744 -31.9215 -31.9159 -31.8863 -31.7743 -31.7633 -31.7623
   -31.7114 -31.7048 -31.6874 -31.6526 -31.6472 -31.6349 -31.5858 -31.5654
   -31.5226 -31.4915 -31.4855 -31.4349 -31.4298 -31.4192 -31.4108 -31.4007
   -31.3761 -31.3752 -31.3382 -31.3200 -31.3152 -31.3054 -31.2913 -31.2460
   -31.2447 -31.2225 -31.2150 -31.1947 -31.1222 -31.1176 -31.1108 -31.0667
   -16.6219 -16.5712 -16.1894 -16.1705 -15.8741 -15.8055 -15.7831 -15.7465
   -15.6838 -15.5674 -15.4440 -15.3971 -15.3932 -15.3435 -15.1837 -15.0864
   -14.9941 -14.9253 -14.9153 -14.8681 -14.8595 -14.8330 -14.8181 -14.8081
   -14.7444 -14.7099 -14.5999 -14.5604 -14.4609 -14.2677 -14.1857 -13.5926
   -13.4827 -11.5355  -8.6571  -5.0360  -4.2539  -4.1723  -3.7436  -3.6984
    -3.5267  -3.4487  -3.3017  -3.2678  -3.1845  -3.0816  -3.0160  -2.9600
    -2.9492  -2.8436  -2.6960  -2.6445  -2.6401  -2.6142  -2.6109  -2.5172
    -2.4518  -2.4183  -2.3515  -2.2814  -2.2507  -2.1634  -2.1576  -2.1317
    -2.1107  -2.0842  -2.0344  -1.9826  -1.9615  -1.9392  -1.8355  -1.7893
    -1.7637  -1.7180  -1.6824  -1.6099  -1.5753  -1.5297  -1.4526  -1.3921
    -1.2666  -1.2399  -1.1759  -1.1604  -1.1293  -1.0049  -0.9669  -0.9324
    -0.8748  -0.8383  -0.7722  -0.7486  -0.7180  -0.6826  -0.6677  -0.6316
    -0.5257  -0.4883  -0.3694  -0.3495  -0.3017  -0.2239  -0.2188  -0.1636
    -0.1421  -0.1073  -0.0603  -0.0274   0.0193   0.0890   0.1229   0.2094
     0.2547   0.3228   0.4120   0.4419   0.4646   0.5268   0.5455   0.5769
     0.6230   0.7179   0.7264   0.7875   0.8653   0.9078   0.9280   0.9853
     1.0483   1.0659   1.1657   1.1922   1.2021   1.2584   1.4681   1.5083
     1.6817   2.4446   2.8328   2.9793   3.2650   3.2956   3.5550   3.7915
     3.8221   3.8239   3.9047   3.9990

[...]

          k = 0.0380-0.0419 0.0000 ( 17876 PWs)   bands (ev):

[...]

          k =-0.0760-0.0000 0.0000 ( 17886 PWs)   bands (ev):

[...]

          k =-0.0760-0.0839 0.0000 ( 17948 PWs)   bands (ev):

   -56.4145 -56.4141 -55.7650 -55.7554 -55.5410 -55.4902 -55.3843 -55.2244
   -55.2113 -55.1521 -55.1108 -55.0786 -55.0775 -55.0578 -54.9973 -54.8748
   -32.7014 -32.7010 -32.6814 -32.6807 -32.5515 -32.5513 -32.0829 -32.0745
   -31.9590 -31.9517 -31.9479 -31.9456 -31.8442 -31.8054 -31.7684 -31.7601
   -31.7158 -31.7105 -31.6825 -31.6328 -31.5940 -31.5782 -31.5486 -31.5111
   -31.4962 -31.4944 -31.4430 -31.4412 -31.4284 -31.4242 -31.4234 -31.4048
   -31.3916 -31.3661 -31.3438 -31.3329 -31.3191 -31.3060 -31.3032 -31.3018
   -31.2648 -31.2637 -31.2519 -31.2432 -31.2017 -31.1839 -31.1234 -31.0981
   -16.5461 -16.1666 -16.0029 -15.9989 -15.9190 -15.9163 -15.7086 -15.7030
   -15.5338 -15.5052 -15.4333 -15.3129 -15.2605 -15.2045 -15.1977 -15.1534
   -15.1022 -15.0830 -15.0419 -15.0246 -14.9618 -14.9178 -14.8680 -14.8219
   -14.8030 -14.7642 -14.6427 -14.5937 -14.5866 -14.4029 -14.3661 -13.5867
   -13.5860 -11.5421  -8.6637  -5.0443  -4.2510  -3.7135  -3.3997  -3.1054
    -3.0872  -3.0410  -3.0317  -2.8166  -2.7956  -2.7738  -2.6982  -2.6861
    -2.6357  -2.6286  -2.5376  -2.4974  -2.4545  -2.4397  -2.4251  -2.3715
    -2.3446  -2.2967  -2.2934  -2.2622  -2.2269  -2.1943  -2.1672  -2.1239
    -2.1043  -2.0882  -2.0490  -2.0182  -1.9906  -1.9388  -1.9192  -1.8855
    -1.8776  -1.8564  -1.6982  -1.6475  -1.5907  -1.5471  -1.5166  -1.4504
    -1.4388  -1.3840  -1.3244  -1.2910  -1.2618  -1.2462  -1.1582  -1.1253
    -1.1088  -1.0751  -1.0344  -0.9724  -0.9153  -0.8666  -0.7864  -0.6951
    -0.6657  -0.6482  -0.6214  -0.6093  -0.5657  -0.5185  -0.4319  -0.3796
    -0.3270  -0.3086  -0.2669  -0.2616  -0.2292  -0.1941  -0.1247  -0.0007
     0.0634   0.1004   0.1542   0.2085   0.2641   0.3326   0.3764   0.4577
     0.5374   0.5589   0.6504   0.6760   0.7975   0.8406   0.9563   0.9987
     1.0392   1.0805   1.1490   1.2464   1.2728   1.3193   1.3209   1.3374
     1.3513   2.4702   3.3994   3.4023   3.4527   3.4602   3.7341   3.7423
     3.8765   3.8783   4.0005   4.0133

     the Fermi energy is     2.7149 ev

!    total energy              =   -2975.25030096 Ry
     estimated scf accuracy    <       0.00000003 Ry
     smearing contrib. (-TS)   =      -0.00760262 Ry
     internal energy E=F+TS    =   -2975.24269833 Ry

     The total energy is F=E-TS. E is the sum of the following terms:
     one-electron contribution =  -23770.17508950 Ry
     hartree contribution      =   11980.63838000 Ry
     xc contribution           =    -494.80742901 Ry
     ewald contribution        =    9309.10091240 Ry
     electric field correction =       0.00052778 Ry

     convergence has been achieved in  72 iterations

     Forces acting on atoms (cartesian axes, Ry/au):

     atom    1 type  1   force =     0.00002429   -0.00034756    0.11612104
     atom    2 type  1   force =    -0.00014239    0.00031824   -0.16028689
     atom    3 type  2   force =     0.00004602    0.00032733   -0.05303663
     atom    4 type  2   force =     0.00007131   -0.00042094    0.02661161
     atom    5 type  2   force =    -0.00503457   -0.00226186   -0.00998462
     atom    6 type  2   force =     0.00671789   -0.00183560   -0.01071595
     atom    7 type  1   force =    -0.00038216   -0.00639948    0.04548144
     atom    8 type  1   force =     0.00056945    0.01079258    0.08166952
     atom    9 type  2   force =    -0.00001542    0.00038481    0.00001314
     atom   10 type  2   force =    -0.00139840    0.00155157   -0.05440174
     atom   11 type  2   force =     0.00079324    0.00029740   -0.00018795
     atom   12 type  2   force =    -0.00121384    0.00021920    0.00023080
     atom   13 type  1   force =    -0.00022041   -0.00091553    0.00024555
     atom   14 type  1   force =     0.00047640    0.00132735   -0.00054112
     atom   15 type  2   force =     0.00002555   -0.00052947    0.00037463
     atom   16 type  2   force =    -0.00033651    0.00056027    0.00138409
     atom   17 type  2   force =    -0.00108576   -0.00072355    0.00027944
     atom   18 type  2   force =     0.00108695   -0.00071774    0.00042833
     atom   19 type  1   force =    -0.00043385   -0.00052614   -0.00036710
     atom   20 type  1   force =     0.00037003   -0.00040972   -0.00009269
     atom   21 type  2   force =     0.00007554    0.00015012    0.09918280
     atom   22 type  2   force =     0.00032790   -0.00047659    0.00049528
     atom   23 type  2   force =    -0.07946697   -0.00002380   -0.03161241
     atom   24 type  2   force =     0.07938562    0.00040522   -0.03164522
     atom   25 type  1   force =     0.00017119   -0.00036635    0.11637768
     atom   26 type  1   force =    -0.00009029   -0.00141714   -0.16043589
     atom   27 type  2   force =     0.00013401   -0.00011724   -0.05142302
     atom   28 type  2   force =     0.00003089    0.00129128    0.02180388
     atom   29 type  2   force =    -0.00385129    0.00422422   -0.01238242
     atom   30 type  2   force =     0.00543391    0.00483694   -0.01297523
     atom   31 type  1   force =    -0.00015007    0.00314378    0.03046937
     atom   32 type  1   force =     0.00051234   -0.01302727    0.08253417
     atom   33 type  2   force =     0.00017869   -0.00049493    0.00040298
     atom   34 type  2   force =    -0.00049747    0.00168331   -0.06777287
     atom   35 type  2   force =    -0.00041575   -0.00064336   -0.00005306
     atom   36 type  2   force =     0.00004105   -0.00002455    0.00002775
     atom   37 type  1   force =    -0.00012608   -0.00125018   -0.00029016
     atom   38 type  1   force =     0.00047810   -0.00037300   -0.00003934
     atom   39 type  2   force =     0.00017041    0.00033233   -0.00002469
     atom   40 type  2   force =    -0.00014569   -0.00025505    0.00041653
     atom   41 type  2   force =     0.00080439    0.00025484    0.00026127
     atom   42 type  2   force =    -0.00071700    0.00004256    0.00033275
     atom   43 type  1   force =     0.00014821   -0.00065466    0.00579579
     atom   44 type  1   force =     0.00038678    0.00075248   -0.00015712
     atom   45 type  2   force =     0.00007532   -0.00002892    0.09900456
     atom   46 type  2   force =    -0.07947990   -0.00001596   -0.03162707
     atom   47 type  2   force =     0.07941833    0.00042918   -0.03165041
     atom   48 type  3   force =    -0.00097967    0.00031803   -0.00067777
     atom   49 type  3   force =    -0.00096042    0.00012893   -0.00021301
     atom   50 type  4   force =    -0.00051249    0.00089530    0.00005614
     atom   51 type  5   force =    -0.00108275    0.00015516   -0.00028171
     atom   52 type  5   force =    -0.00004759   -0.00042094    0.00012894
     atom   53 type  5   force =     0.00056296    0.00017555   -0.00057077
     atom   54 type  5   force =     0.00001379   -0.00165968    0.00010835
     atom   55 type  5   force =    -0.00050560    0.00016777    0.00034906
     atom   56 type  2   force =    -0.00584934    0.00393691   -0.01084262
     atom   57 type  5   force =     0.00661116   -0.00276542    0.00370261

     Total force =     0.399200     Total SCF correction =     0.000485
  @ DRIVER MODE: Message from server: STATUS
  @ DRIVER MODE: Message from server: GETFORCE
  @ DRIVER MODE: Returning v,forces,stress,ensemble

     Writing output data file ./calc.save/
  @ DRIVER MODE: Message from server: EXIT
  @ DRIVE MODE: Exiting

     General routines

     Parallel routines

   This run was terminated on:  19:52:46  23Sep2021

   JOB DONE.