     Program PWSCF v.6.7GPU starts on 18Oct2021 at 11:27:12

     R & G space division:  proc/nbgrp/npool/nimage =       8
     Reading input from /storage/home/hcoda1/3/ntian30/research/carbon/CxH_vib/Thiel_calc/ads_slab/H3N_perslab/out_0000/pw.inp
Warning: card &CELL ignored
Warning: card   CELL_DYNAMICS='IPI', ignored
Warning: card / ignored

     Current dimensions of program PWSCF are:
     Max number of different atomic species (ntypx) = 10
     Max number of k-points (npk) =  40000
     Max angular momentum in pseudopotentials (lmaxx) =  3
     Presently no symmetry can be used with electric field

     Message from routine cell_base_init:
     DEPRECATED: use true lattice parameter, not A to a.u. conversion factor

     IMPORTANT: XC functional enforced from input :
     Exchange-correlation= BEEF-VDW
                           (   1   4  43  14   2   0   0)
     Any further DFT definition will be discarded
     Please, verify this is what you really want

  @ DRIVER MODE: Connecting to
 qe_1139763_3255141.sched-torque.pace.gatech.eduam6zwuyn_scratch
  using UNIX socket
  @ DRIVER MODE: Message from server: STATUS
  @ DRIVER MODE: Message from server: INIT
  @ DRIVER MODE: Receiving replica           0          -1
  @ DRIVER MODE: Receiving encoded integer          25
  @ DRIVER MODE:  SCF:  T  FORCE:  T  STRESS:  F  VC:  F  ENSEMBLE:  F
  @ DRIVER MODE:  SCF:  T  FORCE:  T  STRESS:  F  VC:  F  ENSEMBLE:  F

     Using Slab Decomposition

     bravais-lattice index     =            0
     lattice parameter (alat)  =       1.8897  a.u.
     unit-cell volume          =    9988.4706 (a.u.)^3
     number of atoms/cell      =           57
     number of atomic types    =            4
     number of electrons       =       434.00
     number of Kohn-Sham states=          227
     kinetic-energy cutoff     =      29.3995  Ry
     charge density cutoff     =     293.9946  Ry
     scf convergence threshold =      7.3E-08
     mixing beta               =       0.0500
     number of iterations used =            8  plain     mixing
     Exchange-correlation= BEEF-VDW
                           (   1   4  43  14   2   0   0)

     celldm(1)=   1.889726  celldm(2)=   0.000000  celldm(3)=   0.000000
     celldm(4)=   0.000000  celldm(5)=   0.000000  celldm(6)=   0.000000

     crystal axes: (cart. coord. in units of alat)
               a(1) = (   6.579727   0.000000   0.000000 )
               a(2) = (  -0.001163   8.942395   0.000000 )
               a(3) = (   0.000000   0.000000  25.155947 )

     reciprocal axes: (cart. coord. in units 2 pi/alat)
               b(1) = (  0.151982  0.000020  0.000000 )
               b(2) = (  0.000000  0.111827  0.000000 )
               b(3) = (  0.000000  0.000000  0.039752 )

     PseudoPot. # 1 for O  read from file:
     /storage/coda1/p-amedford6/0/shared/rich_project_chbe-medford/medford-share/data/pseudos_module/espresso/nninc/pbe/van/O.UPF
     MD5 check sum: 78c19812648e8988a0fe644b0f25305e
     Pseudo is Ultrasoft, Zval =  6.0
     Generated by new atomic code, or converted to UPF format
     Using radial grid of  737 points,  4 beta functions with:
                l(1) =   0
                l(2) =   0
                l(3) =   1
                l(4) =   1
     Q(r) pseudized with  8 coefficients,  rinner =    0.800   0.800   0.800

     PseudoPot. # 2 for Ti read from file:
     /storage/coda1/p-amedford6/0/shared/rich_project_chbe-medford/medford-share/data/pseudos_module/espresso/nninc/pbe/van/Ti.UPF
     MD5 check sum: 8e4df49b7f0d34bbd5052bf3f5ea0213
     Pseudo is Ultrasoft, Zval = 12.0
     Generated by new atomic code, or converted to UPF format
     Using radial grid of  851 points,  6 beta functions with:
                l(1) =   0
                l(2) =   0
                l(3) =   1
                l(4) =   1
                l(5) =   2
                l(6) =   2
     Q(r) pseudized with  8 coefficients,  rinner =    1.000   1.000   1.000
                                                       1.000   1.000

     PseudoPot. # 3 for N  read from file:
     /storage/coda1/p-amedford6/0/shared/rich_project_chbe-medford/medford-share/data/pseudos_module/espresso/nninc/pbe/van/N.UPF
     MD5 check sum: 90d10febe142ad51ac9d5be1deb811c4
     Pseudo is Ultrasoft, Zval =  5.0
     Generated by new atomic code, or converted to UPF format
     Using radial grid of  729 points,  4 beta functions with:
                l(1) =   0
                l(2) =   0
                l(3) =   1
                l(4) =   1
     Q(r) pseudized with  8 coefficients,  rinner =    0.800   0.800   0.800

     PseudoPot. # 4 for H  read from file:
     /storage/coda1/p-amedford6/0/shared/rich_project_chbe-medford/medford-share/data/pseudos_module/espresso/nninc/pbe/van/H.UPF
     MD5 check sum: b5ee9d7bfd3a09ee7748110bda690ff7
     Pseudo is Ultrasoft, Zval =  1.0
     Generated by new atomic code, or converted to UPF format
     Using radial grid of  615 points,  1 beta functions with:
                l(1) =   0
     Q(r) pseudized with  8 coefficients,  rinner =    0.800

     atomic species   valence    mass     pseudopotential
        O1             6.00    15.99900     O ( 1.00)
        Ti1           12.00    47.86700     Ti( 1.00)
        N1             5.00    14.00700     N ( 1.00)
        H1             1.00     1.00800     H ( 1.00)

     No symmetry found

   Cartesian axes

     site n.     atom                  positions (alat units)
         1           O1  tau(   1) = (   0.0007354   0.0005023  10.5931620  )
         2           O1  tau(   2) = (   3.2892737   8.9266665  13.9077113  )
         3           O1  tau(   3) = (   0.0003737   0.0634608  17.2091987  )
         4           O1  tau(   4) = (   0.0006271   0.0005054   7.9858123  )
         5           O1  tau(   5) = (   3.2894549   8.9236348  11.1922400  )
         6           O1  tau(   6) = (   0.0007594   0.0424130  14.5914122  )
         7           O1  tau(   7) = (   1.9868534   1.4903216   9.2879459  )
         8           O1  tau(   8) = (   5.2335215   1.6100056  12.5826540  )
         9           O1  tau(   9) = (   2.0120305   1.5790738  16.0735584  )
        10           Ti1 tau(  10) = (   0.0007404   1.4906270   9.2895810  )
        11           Ti1 tau(  11) = (   3.2904007   1.3515224  12.5049090  )
        12           Ti1 tau(  12) = (   0.0008134   1.3014534  15.8121839  )
        13           O1  tau(  13) = (   4.5942328   1.4918067   9.2879030  )
        14           O1  tau(  14) = (   1.3469525   1.6100319  12.5826758  )
        15           O1  tau(  15) = (   4.5681566   1.5786403  16.0735304  )
        16           Ti1 tau(  16) = (   3.2902859   2.9801868   9.2893338  )
        17           Ti1 tau(  17) = (   0.0004417   2.8262804  12.4730395  )
        18           Ti1 tau(  18) = (   3.2905157   2.9388596  15.7158142  )
        19           O1  tau(  19) = (   0.0003479   2.9813005  10.5931620  )
        20           O1  tau(  20) = (   3.2902015   2.9695883  13.9046685  )
        21           O1  tau(  21) = (   0.0002396   2.9813036   7.9858123  )
        22           O1  tau(  22) = (   3.2902718   2.9641339  11.1914307  )
        23           O1  tau(  23) = (  -0.0000899   3.0294973  14.7210216  )
        24           O1  tau(  24) = (   1.9864658   4.4711199   9.2879459  )
        25           O1  tau(  25) = (   5.2357187   4.5858611  12.5822034  )
        26           O1  tau(  26) = (   2.0270018   4.4833747  16.1008177  )
        27           Ti1 tau(  27) = (   0.0003529   4.4714252   9.2895810  )
        28           Ti1 tau(  28) = (   3.2904530   4.3245040  12.5108242  )
        29           Ti1 tau(  29) = (   0.0003810   4.5948835  15.7280669  )
        30           O1  tau(  30) = (   4.5938453   4.4726049   9.2879030  )
        31           O1  tau(  31) = (   1.3445752   4.5857260  12.5820564  )
        32           O1  tau(  32) = (   4.5522270   4.4834529  16.1006533  )
        33           Ti1 tau(  33) = (   3.2898983   5.9609850   9.2893338  )
        34           Ti1 tau(  34) = (   0.0007043   5.8101956  12.4536477  )
        35           Ti1 tau(  35) = (   3.2895928   5.9233606  15.7233983  )
        36           O1  tau(  36) = (  -0.0000397   5.9620987  10.5931620  )
        37           O1  tau(  37) = (   3.2897410   5.9500339  13.9181164  )
        38           O1  tau(  38) = (  -0.0004871   5.9201338  17.2318970  )
        39           O1  tau(  39) = (  -0.0001480   5.9621018   7.9858123  )
        40           O1  tau(  40) = (   3.2899950   5.9414595  11.1912600  )
        41           O1  tau(  41) = (   0.0000049   5.9985156  14.6402937  )
        42           O1  tau(  42) = (   1.9860782   7.4519181   9.2879459  )
        43           O1  tau(  43) = (   5.2353497   7.5549275  12.5688660  )
        44           O1  tau(  44) = (   2.0314850   7.4951575  16.0543809  )
        45           Ti1 tau(  45) = (  -0.0000347   7.4522234   9.2895810  )
        46           Ti1 tau(  46) = (   3.2900928   7.3055020  12.5043323  )
        47           Ti1 tau(  47) = (  -0.0004111   7.4010535  16.2820301  )
        48           O1  tau(  48) = (   4.5934577   7.4534031   9.2879030  )
        49           O1  tau(  49) = (   1.3438456   7.5546912  12.5687420  )
        50           O1  tau(  50) = (   4.5473438   7.4951267  16.0540408  )
        51           Ti1 tau(  51) = (   3.2895107   8.9417832   9.2893338  )
        52           Ti1 tau(  52) = (   0.0000527   8.7739242  12.4740011  )
        53           Ti1 tau(  53) = (   3.2894619   8.8771818  15.7086625  )
        54           N1  tau(  54) = (   6.5792827   2.9851808  17.9254469  )
        55           H1  tau(  55) = (   6.5791554   2.0483488  18.3259764  )
        56           H1  tau(  56) = (   5.7637502   3.4703839  18.2861980  )
        57           H1  tau(  57) = (   0.8147632   3.4704782  18.2867735  )

     number of k points=    10  Fermi-Dirac smearing, width (Ry)=  0.0073
                       cart. coord. in units 2pi/alat
        k(    1) = (   0.0000000   0.0000000   0.0000000), wk =   0.1250000
        k(    2) = (   0.0000000   0.0279567   0.0000000), wk =   0.2500000
        k(    3) = (   0.0000000  -0.0559134   0.0000000), wk =   0.1250000
        k(    4) = (   0.0379955   0.0000049   0.0000000), wk =   0.2500000
        k(    5) = (   0.0379955   0.0279617   0.0000000), wk =   0.2500000
        k(    6) = (   0.0379955  -0.0559085   0.0000000), wk =   0.2500000
        k(    7) = (   0.0379955  -0.0279518   0.0000000), wk =   0.2500000
        k(    8) = (  -0.0759910  -0.0000099   0.0000000), wk =   0.1250000
        k(    9) = (  -0.0759910   0.0279468   0.0000000), wk =   0.2500000
        k(   10) = (  -0.0759910  -0.0559233   0.0000000), wk =   0.1250000

     Initial potential from superposition of free atoms

     starting charge  415.99912, renormalised to  434.00000

     negative rho (up, down):  3.931E-02 0.000E+00

     %%%%%%%%%%%%%%%%%%%%%%%%%%%%%%%%%%%%%%%%%%%%%%%%%%%%%%%%%%%%%%%%%%%%%%%%
     %                                                                      %
     % You are using vdW-DF, which was implemented by the Thonhauser group. %
     % Please cite the following two papers that made this development      %
     % possible and the two reviews that describe the various versions:     %
     %                                                                      %
     %   T. Thonhauser et al., PRL 115, 136402 (2015).                      %
     %   T. Thonhauser et al., PRB 76, 125112 (2007).                       %
     %   K. Berland et al., Rep. Prog. Phys. 78, 066501 (2015).             %
     %   D.C. Langreth et al., J. Phys.: Condens. Matter 21, 084203 (2009). %
     %                                                                      %
     %                                                                      %
     % If you are calculating the stress with vdW-DF, please also cite:     %
     %                                                                      %
     %   R. Sabatini et al., J. Phys.: Condens. Matter 24, 424209 (2012).   %
     %                                                                      %
     %%%%%%%%%%%%%%%%%%%%%%%%%%%%%%%%%%%%%%%%%%%%%%%%%%%%%%%%%%%%%%%%%%%%%%%%

     Adding external electric field

     Computed dipole along edir(3) :
        Dipole               -2.8168 Ry au,         -7.1597 Debye
        Dipole field         -0.0035 Ry au,

        Potential amp.        0.3285 Ry
        Total length         46.3494 bohr

     Starting wfcs are  327 atomic wfcs
  @ DRIVER MODE: Message from server: STATUS
  @ DRIVER MODE: Message from server: POSDATA
  @ DRIVER MODE: Reading and sharing cell
  @ DRIVER MODE: Reading and sharing positions
  @ DRIVER MODE: Received positions

     Self-consistent Calculation

     iteration #  1     ecut=    29.40 Ry     beta= 0.05
     Davidson diagonalization with overlap
     ethr =  1.00E-02,  avg # of iterations =  2.0

[...]

     total energy              =   -3273.14313133 Ry
     estimated scf accuracy    <      15.52820286 Ry

[...]

     iteration #  4     ecut=    29.40 Ry     beta= 0.05
     Davidson diagonalization with overlap
     c_bands:  4 eigenvalues not converged
     c_bands:  2 eigenvalues not converged
     c_bands:  5 eigenvalues not converged
     c_bands:  4 eigenvalues not converged
     c_bands:  5 eigenvalues not converged
     c_bands:  2 eigenvalues not converged
     ethr =  1.08E-03,  avg # of iterations = 23.0

[...]

     iteration # 66     ecut=    29.40 Ry     beta= 0.05
     Davidson diagonalization with overlap
     c_bands:  1 eigenvalues not converged
     ethr =  2.28E-11,  avg # of iterations = 15.6

[...]

     total energy              =   -3272.09283608 Ry
     estimated scf accuracy    <       0.00000009 Ry

     iteration # 68     ecut=    29.40 Ry     beta= 0.05
     Davidson diagonalization with overlap
     ethr =  2.14E-11,  avg # of iterations = 13.2

     negative rho (up, down):  3.697E-02 0.000E+00

     Adding external electric field

     Computed dipole along edir(3) :
        Dipole                1.2576 Ry au,          3.1964 Debye
        Dipole field          0.0016 Ry au,

        Potential amp.       -0.1467 Ry
        Total length         46.3494 bohr

     End of self-consistent calculation

          k = 0.0000 0.0000 0.0000 ( 26871 PWs)   bands (ev):

   -58.0024 -57.9999 -57.9775 -57.9769 -57.9764 -57.8737 -57.8239 -57.7993
   -57.7979 -57.7759 -57.7554 -57.7332 -57.6256 -57.5612 -57.4318 -57.0009
   -56.9778 -56.9700 -34.4040 -34.3816 -34.3811 -34.3710 -34.3673 -34.3358
   -34.3178 -34.3148 -34.3024 -34.2710 -34.2439 -34.2301 -34.2189 -34.1952
   -34.1946 -34.1848 -34.1695 -34.1585 -34.1264 -34.1226 -34.0990 -34.0986
   -34.0933 -34.0861 -34.0786 -34.0477 -34.0325 -34.0300 -34.0233 -34.0033
   -34.0001 -33.9923 -33.9811 -33.9794 -33.9759 -33.9701 -33.9468 -33.9398
   -33.9186 -33.8648 -33.8328 -33.7730 -33.7097 -33.7068 -33.6122 -33.3174
   -33.3160 -33.3078 -33.3022 -33.2951 -33.2259 -33.1649 -33.1563 -33.0250
   -18.8518 -18.4287 -18.2689 -18.2497 -18.2287 -18.2027 -18.0942 -18.0886
   -17.8492 -17.8181 -17.7891 -17.7819 -17.7194 -17.6815 -17.6726 -17.6619
   -17.6336 -17.6289 -17.6202 -17.5730 -17.5278 -17.4842 -17.4599 -17.4391
   -17.4229 -17.4209 -17.3927 -17.3333 -17.3136 -17.2571 -17.1158 -16.9541
   -16.8491 -15.4671 -15.4113 -15.4071  -7.5687  -7.4502  -6.1790  -5.9199
    -5.9075  -5.8291  -5.4566  -5.4458  -5.3560  -5.3500  -5.3345  -5.2657
    -5.2539  -5.2443  -5.2255  -5.1956  -5.1341  -5.1142  -5.0821  -4.9478
    -4.9460  -4.9188  -4.9013  -4.8446  -4.8065  -4.8012  -4.7779  -4.7573
    -4.7275  -4.6740  -4.6587  -4.6217  -4.6143  -4.5055  -4.4411  -4.3120
    -4.2950  -4.2908  -4.2716  -4.2244  -4.1863  -4.1593  -4.1316  -4.0794
    -4.0472  -3.9893  -3.9562  -3.9139  -3.8127  -3.7465  -3.7228  -3.6623
    -3.5669  -3.5292  -3.4201  -3.3973  -3.3320  -3.3153  -3.2520  -3.2381
    -3.1671  -3.1547  -3.1134  -3.0928  -3.0359  -2.9848  -2.9672  -2.9292
    -2.8863  -2.7704  -2.7583  -2.7499  -2.7270  -2.6933  -2.6687  -2.6384
    -2.6285  -2.5888  -2.5351  -2.4871  -2.4607  -2.4183  -2.4089  -2.3580
    -2.3088  -2.2993  -2.2250  -2.2047  -2.1815  -2.1586  -2.0701  -2.0154
    -1.8562  -1.8267  -1.8213  -1.7853  -1.7406  -1.6905  -1.6433  -1.4726
    -1.2334  -1.0312  -0.7443  -0.7038  -0.7025  -0.4449  -0.4390  -0.3125
     0.9724   1.2305   1.2638   1.4466   1.4511   1.5403   1.5889   1.5891
     1.6549   1.6854   1.7420

[...]

          k = 0.0380-0.0280 0.0000 ( 26873 PWs)   bands (ev):

[...]

          k =-0.0760-0.0000 0.0000 ( 26902 PWs)   bands (ev):

[...]

          k =-0.0760-0.0559 0.0000 ( 26868 PWs)   bands (ev):

   -57.9989 -57.9940 -57.9935 -57.9786 -57.9682 -57.8735 -57.8162 -57.8142
   -57.7902 -57.7727 -57.7609 -57.7312 -57.6254 -57.5614 -57.4317 -56.9952
   -56.9886 -56.9648 -34.4748 -34.4453 -34.3869 -34.3783 -34.3341 -34.3329
   -34.3285 -34.3278 -34.2789 -34.2417 -34.2061 -34.1905 -34.1901 -34.1738
   -34.1657 -34.1433 -34.1431 -34.1355 -34.1320 -34.1233 -34.1189 -34.0855
   -34.0754 -34.0706 -34.0677 -34.0616 -34.0550 -34.0389 -34.0308 -34.0264
   -34.0203 -34.0122 -34.0117 -33.9941 -33.9893 -33.9746 -33.9620 -33.9465
   -33.9172 -33.8372 -33.8198 -33.7770 -33.7106 -33.7080 -33.6423 -33.4036
   -33.3183 -33.3124 -33.2897 -33.2083 -33.2002 -33.1390 -33.1257 -33.1181
   -18.5335 -18.5177 -18.2092 -18.1237 -18.1080 -18.0837 -18.0706 -18.0209
   -17.9395 -17.8817 -17.8771 -17.8188 -17.7800 -17.7699 -17.7336 -17.7268
   -17.7104 -17.6993 -17.6680 -17.6392 -17.6374 -17.5377 -17.4536 -17.4213
   -17.4073 -17.3720 -17.3590 -17.3516 -17.2968 -17.2359 -17.1497 -17.0635
   -16.7444 -15.4671 -15.4621 -15.3468  -7.5772  -7.4648  -5.7891  -5.7790
    -5.7686  -5.7030  -5.3811  -5.3029  -5.2712  -5.2567  -5.1724  -5.1659
    -5.1640  -5.1504  -5.1472  -5.1239  -5.0955  -5.0827  -5.0298  -5.0206
    -5.0179  -4.9543  -4.9140  -4.9050  -4.8860  -4.8602  -4.7456  -4.7384
    -4.6343  -4.6053  -4.5456  -4.5113  -4.4989  -4.4688  -4.3923  -4.3878
    -4.3514  -4.3166  -4.1616  -4.1524  -4.1374  -4.1317  -4.0598  -4.0005
    -3.9747  -3.9419  -3.7097  -3.6513  -3.6414  -3.6313  -3.6178  -3.6102
    -3.5912  -3.5539  -3.5206  -3.4844  -3.4618  -3.4411  -3.4386  -3.3449
    -3.3063  -3.2655  -3.1640  -3.1421  -3.1338  -3.1051  -3.1006  -3.0752
    -3.0699  -3.0503  -3.0333  -2.9547  -2.9195  -2.9012  -2.8495  -2.7814
    -2.7643  -2.7606  -2.5879  -2.5370  -2.5269  -2.5073  -2.4730  -2.3797
    -2.3780  -2.2422  -2.2155  -2.1717  -2.0999  -2.0703  -2.0214  -2.0027
    -1.9894  -1.9687  -1.7775  -1.7600  -1.6861  -1.6270  -1.5758  -1.5548
    -1.5449  -1.3289  -0.9171  -0.6346  -0.6161  -0.5970  -0.4452  -0.4426
     1.1477   1.2044   1.2187   1.3212   1.3249   1.3375   1.3939   1.4536
     1.4840   1.5637   1.7076

     the Fermi energy is     1.0779 ev

!    total energy              =   -3272.09285316 Ry
     estimated scf accuracy    <       0.00000003 Ry
     smearing contrib. (-TS)   =      -0.03207173 Ry
     internal energy E=F+TS    =   -3272.06078143 Ry

     The total energy is F=E-TS. E is the sum of the following terms:
     one-electron contribution =  -34296.38573726 Ry
     hartree contribution      =   17208.17837184 Ry
     xc contribution           =    -536.11544423 Ry
     ewald contribution        =   14352.26003863 Ry
     electric field correction =       0.00198958 Ry

     convergence has been achieved in  68 iterations

     Forces acting on atoms (cartesian axes, Ry/au):

     atom    1 type  1   force =     0.00003289    0.00589238    0.05804870
     atom    2 type  1   force =    -0.00001515    0.00195033   -0.00320663
     atom    3 type  1   force =     0.00000723   -0.00330830   -0.00030302
     atom    4 type  1   force =     0.00005305   -0.00049436    0.10639632
     atom    5 type  1   force =    -0.00002220   -0.00000232    0.00970707
     atom    6 type  1   force =     0.00000834   -0.00101469    0.00081463
     atom    7 type  1   force =     0.06847369   -0.00032401   -0.02941356
     atom    8 type  1   force =     0.00473313   -0.02819052    0.00237993
     atom    9 type  1   force =     0.01004656   -0.02079941    0.00043996
     atom   10 type  2   force =    -0.00006499   -0.00345930   -0.18017295
     atom   11 type  2   force =     0.00008500    0.01996603   -0.00725384
     atom   12 type  2   force =    -0.00002923    0.02102221   -0.00323656
     atom   13 type  1   force =    -0.06856976   -0.00077630   -0.02938964
     atom   14 type  1   force =    -0.00465230   -0.02829894    0.00238887
     atom   15 type  1   force =    -0.01001286   -0.02077991    0.00046402
     atom   16 type  2   force =     0.00013555   -0.00169323    0.06500459
     atom   17 type  2   force =    -0.00016193    0.03518188    0.00380612
     atom   18 type  2   force =    -0.00002855    0.00994602   -0.00296867
     atom   19 type  1   force =     0.00001400    0.00479353    0.06364339
     atom   20 type  1   force =    -0.00001054    0.00174024   -0.00595379
     atom   21 type  1   force =     0.00005535    0.00136234    0.10697525
     atom   22 type  1   force =    -0.00001729   -0.00018296    0.00916269
     atom   23 type  1   force =     0.00001737   -0.00450906    0.00169962
     atom   24 type  1   force =     0.06775122   -0.00034159   -0.02933143
     atom   25 type  1   force =     0.00462623   -0.02913893    0.00294209
     atom   26 type  1   force =     0.00810103    0.00324676   -0.00410343
     atom   27 type  2   force =    -0.00008335   -0.00409881   -0.18529644
     atom   28 type  2   force =     0.00009013    0.02022401   -0.00748756
     atom   29 type  2   force =    -0.00004728   -0.00031999    0.01343731
     atom   30 type  1   force =    -0.06784339   -0.00079989   -0.02930904
     atom   31 type  1   force =    -0.00456491   -0.02922013    0.00296183
     atom   32 type  1   force =    -0.00804610    0.00323625   -0.00405142
     atom   33 type  2   force =     0.00011292   -0.00147789    0.06547577
     atom   34 type  2   force =    -0.00015087    0.03609812    0.00380206
     atom   35 type  2   force =    -0.00000822   -0.00246400    0.00354910
     atom   36 type  1   force =     0.00003783    0.00368165    0.05586858
     atom   37 type  1   force =    -0.00001834   -0.00000325   -0.00176777
     atom   38 type  1   force =    -0.00000061   -0.00324338   -0.00047849
     atom   39 type  1   force =     0.00005356   -0.00022724    0.10720490
     atom   40 type  1   force =    -0.00002309    0.00004547    0.00942245
     atom   41 type  1   force =     0.00001030    0.00223596    0.00079299
     atom   42 type  1   force =     0.06796960   -0.00084840   -0.02927221
     atom   43 type  1   force =     0.00402842   -0.02908272    0.00272061
     atom   44 type  1   force =     0.01151458   -0.01066313    0.00419552
     atom   45 type  2   force =    -0.00008968    0.00395728   -0.18332489
     atom   46 type  2   force =     0.00007122    0.02027955   -0.00792770
     atom   47 type  2   force =    -0.00000047    0.00999854   -0.01345425
     atom   48 type  1   force =    -0.06806736   -0.00129458   -0.02925303
     atom   49 type  1   force =    -0.00393188   -0.02917349    0.00272467
     atom   50 type  1   force =    -0.01151016   -0.01066544    0.00420329
     atom   51 type  2   force =     0.00011454   -0.00123924    0.06591770
     atom   52 type  2   force =    -0.00014981    0.03607632    0.00356554
     atom   53 type  2   force =    -0.00000147    0.02504521    0.00682995
     atom   54 type  3   force =    -0.00002022    0.00055618    0.00000895
     atom   55 type  4   force =    -0.00000122    0.00017982   -0.00001472
     atom   56 type  4   force =    -0.00029674    0.00071056    0.00019980
     atom   57 type  4   force =     0.00029620    0.00070875    0.00021676

     Total force =     0.453307     Total SCF correction =     0.000422
  @ DRIVER MODE: Message from server: STATUS
  @ DRIVER MODE: Message from server: GETFORCE
  @ DRIVER MODE: Returning v,forces,stress,ensemble

     Writing output data file ./calc.save/
  @ DRIVER MODE: Message from server: EXIT
  @ DRIVE MODE: Exiting

     General routines

     Parallel routines

   This run was terminated on:  11:58:49  18Oct2021

   JOB DONE.