     Program PWSCF v.6.7GPU starts on 24Aug2021 at  9:51: 5

     R & G space division:  proc/nbgrp/npool/nimage =      72
     Reading input from /storage/home/hcoda1/3/ntian30/research/carbon/CH2_vib/ads_slab/CH2_a/out_0000/pw.inp
Warning: card &CELL ignored
Warning: card   CELL_DYNAMICS='IPI', ignored
Warning: card / ignored

     Current dimensions of program PWSCF are:
     Max number of different atomic species (ntypx) = 10
     Max number of k-points (npk) =  40000
     Max angular momentum in pseudopotentials (lmaxx) =  3
     Presently no symmetry can be used with electric field

     Message from routine cell_base_init:
     DEPRECATED: use true lattice parameter, not A to a.u. conversion factor

     IMPORTANT: XC functional enforced from input :
     Exchange-correlation= BEEF-VDW
                           (   1   4  43  14   2   0   0)
     Any further DFT definition will be discarded
     Please, verify this is what you really want

  @ DRIVER MODE: Connecting to
 qe_1139763_2641437.sched-torque.pace.gatech.eduqrim23___scratch
  using UNIX socket
  @ DRIVER MODE: Message from server: STATUS
  @ DRIVER MODE: Message from server: INIT
  @ DRIVER MODE: Receiving replica           0          -1
  @ DRIVER MODE: Receiving encoded integer          25
  @ DRIVER MODE:  SCF:  T  FORCE:  T  STRESS:  F  VC:  F  ENSEMBLE:  F
  @ DRIVER MODE:  SCF:  T  FORCE:  T  STRESS:  F  VC:  F  ENSEMBLE:  F

     Using Slab Decomposition

     bravais-lattice index     =            0
     lattice parameter (alat)  =       1.8897  a.u.
     unit-cell volume          =    6658.9804 (a.u.)^3
     number of atoms/cell      =           50
     number of atomic types    =            4
     number of electrons       =       384.00
     number of Kohn-Sham states=          202
     kinetic-energy cutoff     =      29.3995  Ry
     charge density cutoff     =     293.9946  Ry
     scf convergence threshold =      7.3E-08
     mixing beta               =       0.0500
     number of iterations used =            8  plain     mixing
     Exchange-correlation= BEEF-VDW
                           (   1   4  43  14   2   0   0)

     celldm(1)=   1.889726  celldm(2)=   0.000000  celldm(3)=   0.000000
     celldm(4)=   0.000000  celldm(5)=   0.000000  celldm(6)=   0.000000

     crystal axes: (cart. coord. in units of alat)
               a(1) = (   6.579727   0.000000   0.000000 )
               a(2) = (  -0.000775   5.961596   0.000000 )
               a(3) = (   0.000000   0.000000  25.155947 )

     reciprocal axes: (cart. coord. in units 2 pi/alat)
               b(1) = (  0.151982  0.000020  0.000000 )
               b(2) = (  0.000000  0.167740  0.000000 )
               b(3) = (  0.000000  0.000000  0.039752 )

     PseudoPot. # 1 for Ti read from file:
     /storage/coda1/p-amedford6/0/shared/rich_project_chbe-medford/medford-share/data/pseudos_module/espresso/nninc/pbe/van/Ti.UPF
     MD5 check sum: 8e4df49b7f0d34bbd5052bf3f5ea0213
     Pseudo is Ultrasoft, Zval = 12.0
     Generated by new atomic code, or converted to UPF format
     Using radial grid of  851 points,  6 beta functions with:
                l(1) =   0
                l(2) =   0
                l(3) =   1
                l(4) =   1
                l(5) =   2
                l(6) =   2
     Q(r) pseudized with  8 coefficients,  rinner =    1.000   1.000   1.000
                                                       1.000   1.000

     PseudoPot. # 2 for O  read from file:
     /storage/coda1/p-amedford6/0/shared/rich_project_chbe-medford/medford-share/data/pseudos_module/espresso/nninc/pbe/van/O.UPF
     MD5 check sum: 78c19812648e8988a0fe644b0f25305e
     Pseudo is Ultrasoft, Zval =  6.0
     Generated by new atomic code, or converted to UPF format
     Using radial grid of  737 points,  4 beta functions with:
                l(1) =   0
                l(2) =   0
                l(3) =   1
                l(4) =   1
     Q(r) pseudized with  8 coefficients,  rinner =    0.800   0.800   0.800

     PseudoPot. # 3 for C  read from file:
     /storage/coda1/p-amedford6/0/shared/rich_project_chbe-medford/medford-share/data/pseudos_module/espresso/nninc/pbe/van/C.UPF
     MD5 check sum: 1a69bf6b8db32088f5b2163dbdb77a27
     Pseudo is Ultrasoft, Zval =  4.0
     Generated by new atomic code, or converted to UPF format
     Using radial grid of  721 points,  4 beta functions with:
                l(1) =   0
                l(2) =   0
                l(3) =   1
                l(4) =   1
     Q(r) pseudized with  8 coefficients,  rinner =    0.800   0.800   0.800

     PseudoPot. # 4 for H  read from file:
     /storage/coda1/p-amedford6/0/shared/rich_project_chbe-medford/medford-share/data/pseudos_module/espresso/nninc/pbe/van/H.UPF
     MD5 check sum: b5ee9d7bfd3a09ee7748110bda690ff7
     Pseudo is Ultrasoft, Zval =  1.0
     Generated by new atomic code, or converted to UPF format
     Using radial grid of  615 points,  1 beta functions with:
                l(1) =   0
     Q(r) pseudized with  8 coefficients,  rinner =    0.800

     atomic species   valence    mass     pseudopotential
        Ti1           12.00    47.86700     Ti( 1.00)
        O1             6.00    15.99900     O ( 1.00)
        C1             4.00    12.01100     C ( 1.00)
        H1             1.00     1.00800     H ( 1.00)

     No symmetry found

   Cartesian axes

     site n.     atom                  positions (alat units)
         1           Ti1 tau(   1) = (   0.0004258   2.9801865   6.0000000  )
         2           Ti1 tau(   2) = (   3.2906075   1.4906267   6.0002472  )
         3           O1  tau(   3) = (   0.0006271   0.0005054   7.9858123  )
         4           O1  tau(   4) = (   3.2906025   0.0005020   7.3038282  )
         5           O1  tau(   5) = (   4.5942328   1.4918067   9.2879030  )
         6           O1  tau(   6) = (   1.9868534   1.4903216   9.2879459  )
         7           Ti1 tau(   7) = (   3.2756478   2.8760420   9.1630771  )
         8           Ti1 tau(   8) = (   6.5651030   1.4385007   9.3790407  )
         9           O1  tau(   9) = (   3.2651923   0.0045787  11.3553482  )
        10           O1  tau(  10) = (   6.5766178   5.9492394  10.5646413  )
        11           O1  tau(  11) = (   1.2591847   1.4977620  12.6679731  )
        12           O1  tau(  12) = (   5.2482661   1.4982983  12.6347741  )
        13           Ti1 tau(  13) = (   0.0651775   2.9654633  12.8696618  )
        14           Ti1 tau(  14) = (   3.3800656   1.4924449  12.4946823  )
        15           O1  tau(  15) = (   6.5296085   5.9207011  14.6097682  )
        16           O1  tau(  16) = (   3.2682314   0.0147111  13.9481481  )
        17           O1  tau(  17) = (   4.4912147   1.5408453  16.1034427  )
        18           O1  tau(  18) = (   2.0062121   1.5430191  16.1010343  )
        19           Ti1 tau(  19) = (   3.2584153   3.0188911  15.7272741  )
        20           Ti1 tau(  20) = (   6.5595668   1.6180917  16.2090303  )
        21           O1  tau(  21) = (   3.2904802   0.0005063   4.7018136  )
        22           O1  tau(  22) = (   6.5447935   0.0528136  17.2578995  )
        23           O1  tau(  23) = (   1.3043587   1.4918075   6.0039043  )
        24           O1  tau(  24) = (   5.2767064   1.4903225   6.0039473  )
        25           Ti1 tau(  25) = (   0.0000382   5.9609847   6.0000000  )
        26           Ti1 tau(  26) = (   3.2902200   4.4714249   6.0002472  )
        27           O1  tau(  27) = (   0.0002396   2.9813036   7.9858123  )
        28           O1  tau(  28) = (   3.2902150   2.9813002   7.3038282  )
        29           O1  tau(  29) = (   4.5938453   4.4726049   9.2879030  )
        30           O1  tau(  30) = (   1.9864658   4.4711199   9.2879459  )
        31           Ti1 tau(  31) = (   3.2806623   5.8565216   9.1617982  )
        32           Ti1 tau(  32) = (   6.5670484   4.4138833   9.3856844  )
        33           O1  tau(  33) = (   3.2704644   2.9808095  11.3502114  )
        34           O1  tau(  34) = (   6.5770050   2.9672111  10.5601139  )
        35           O1  tau(  35) = (   1.2614422   4.4490125  12.6594447  )
        36           O1  tau(  36) = (   5.2451530   4.4578719  12.6250501  )
        37           Ti1 tau(  37) = (   0.0436288   5.9429386  12.8080954  )
        38           Ti1 tau(  38) = (   3.3780510   4.4695497  12.4860242  )
        39           O1  tau(  39) = (   6.5513063   2.9765972  14.7162787  )
        40           O1  tau(  40) = (   3.2682626   2.9952000  13.9367060  )
        41           O1  tau(  41) = (   4.4851171   4.5114873  16.1027694  )
        42           O1  tau(  42) = (   2.0082088   4.5103763  16.0975713  )
        43           Ti1 tau(  43) = (   3.2690221   0.0357551  15.7449602  )
        44           Ti1 tau(  44) = (   6.5655258   4.6249605  16.1704562  )
        45           O1  tau(  45) = (   3.2900926   2.9813045   4.7018136  )
        46           O1  tau(  46) = (   1.3039711   4.4726057   6.0039043  )
        47           O1  tau(  47) = (   5.2763189   4.4711207   6.0039473  )
        48           C1  tau(  48) = (   6.5259393   3.0234738  17.6125649  )
        49           H1  tau(  49) = (   0.8472112   3.1395175  18.2203151  )
        50           H1  tau(  50) = (   5.6209537   3.1160310  18.2142257  )

     number of k points=    10  Fermi-Dirac smearing, width (Ry)=  0.0073
                       cart. coord. in units 2pi/alat
        k(    1) = (   0.0000000   0.0000000   0.0000000), wk =   0.1250000
        k(    2) = (   0.0000000   0.0419351   0.0000000), wk =   0.2500000
        k(    3) = (   0.0000000  -0.0838702   0.0000000), wk =   0.1250000
        k(    4) = (   0.0379955   0.0000049   0.0000000), wk =   0.2500000
        k(    5) = (   0.0379955   0.0419400   0.0000000), wk =   0.2500000
        k(    6) = (   0.0379955  -0.0838652   0.0000000), wk =   0.2500000
        k(    7) = (   0.0379955  -0.0419301   0.0000000), wk =   0.2500000
        k(    8) = (  -0.0759910  -0.0000099   0.0000000), wk =   0.1250000
        k(    9) = (  -0.0759910   0.0419252   0.0000000), wk =   0.2500000
        k(   10) = (  -0.0759910  -0.0838800   0.0000000), wk =   0.1250000

     Initial potential from superposition of free atoms

     starting charge  367.99919, renormalised to  384.00000

     negative rho (up, down):  2.116E-02 0.000E+00

     %%%%%%%%%%%%%%%%%%%%%%%%%%%%%%%%%%%%%%%%%%%%%%%%%%%%%%%%%%%%%%%%%%%%%%%%
     %                                                                      %
     % You are using vdW-DF, which was implemented by the Thonhauser group. %
     % Please cite the following two papers that made this development      %
     % possible and the two reviews that describe the various versions:     %
     %                                                                      %
     %   T. Thonhauser et al., PRL 115, 136402 (2015).                      %
     %   T. Thonhauser et al., PRB 76, 125112 (2007).                       %
     %   K. Berland et al., Rep. Prog. Phys. 78, 066501 (2015).             %
     %   D.C. Langreth et al., J. Phys.: Condens. Matter 21, 084203 (2009). %
     %                                                                      %
     %                                                                      %
     % If you are calculating the stress with vdW-DF, please also cite:     %
     %                                                                      %
     %   R. Sabatini et al., J. Phys.: Condens. Matter 24, 424209 (2012).   %
     %                                                                      %
     %%%%%%%%%%%%%%%%%%%%%%%%%%%%%%%%%%%%%%%%%%%%%%%%%%%%%%%%%%%%%%%%%%%%%%%%

     Adding external electric field

     Computed dipole along edir(3) :
        Dipole               -0.5194 Ry au,         -1.3201 Debye
        Dipole field         -0.0010 Ry au,

        Potential amp.        0.0909 Ry
        Total length         46.3494 bohr

     Starting wfcs are  290 atomic wfcs
  @ DRIVER MODE: Message from server: STATUS
  @ DRIVER MODE: Message from server: POSDATA
  @ DRIVER MODE: Reading and sharing cell
  @ DRIVER MODE: Reading and sharing positions
  @ DRIVER MODE: Received positions

     Self-consistent Calculation

     iteration #  1     ecut=    29.40 Ry     beta= 0.05
     Davidson diagonalization with overlap
     ethr =  1.00E-02,  avg # of iterations =  2.0

[...]

     total energy              =   -2898.77650929 Ry
     estimated scf accuracy    <      13.49085641 Ry

[...]

     iteration # 27     ecut=    29.40 Ry     beta= 0.05
     Davidson diagonalization with overlap
     c_bands:  2 eigenvalues not converged
     c_bands:  2 eigenvalues not converged
     ethr =  1.71E-04,  avg # of iterations = 11.5

[...]

     iteration # 40     ecut=    29.40 Ry     beta= 0.05
     Davidson diagonalization with overlap
     c_bands:  1 eigenvalues not converged
     c_bands:  1 eigenvalues not converged
     c_bands:  1 eigenvalues not converged
     ethr =  1.03E-06,  avg # of iterations = 14.8

[...]

     total energy              =   -2897.72468186 Ry
     estimated scf accuracy    <       0.00000016 Ry

     iteration # 79     ecut=    29.40 Ry     beta= 0.05
     Davidson diagonalization with overlap
     ethr =  4.25E-11,  avg # of iterations =  4.8

     negative rho (up, down):  2.038E-02 0.000E+00

     Adding external electric field

     Computed dipole along edir(3) :
        Dipole                0.2835 Ry au,          0.7206 Debye
        Dipole field          0.0005 Ry au,

        Potential amp.       -0.0496 Ry
        Total length         46.3494 bohr

     End of self-consistent calculation

          k = 0.0000 0.0000 0.0000 ( 18029 PWs)   bands (ev):

   -56.6524 -56.6183 -56.3988 -56.3622 -56.3256 -56.2730 -56.0911 -56.0854
   -56.0515 -55.9842 -55.9585 -55.9202 -55.5524 -55.4709 -55.4370 -55.4276
   -33.0819 -32.9451 -32.9013 -32.8726 -32.8429 -32.7765 -32.7513 -32.7228
   -32.7084 -32.6432 -32.6249 -32.5987 -32.5906 -32.5669 -32.5615 -32.5514
   -32.5480 -32.5302 -32.4588 -32.4539 -32.3872 -32.3487 -32.3370 -32.3257
   -32.3082 -32.3079 -32.2365 -32.2243 -32.2153 -32.1961 -32.1951 -32.1590
   -32.1499 -32.1366 -32.1125 -32.0574 -32.0197 -31.8724 -31.8607 -31.8071
   -31.7945 -31.7708 -31.7463 -31.6907 -31.6057 -31.6046 -31.4936 -31.4745
   -17.0500 -16.8380 -16.6266 -16.4777 -16.3963 -16.3440 -16.0505 -16.0331
   -16.0243 -15.9242 -15.9126 -15.8598 -15.8258 -15.8228 -15.8136 -15.8069
   -15.7719 -15.7287 -15.6967 -15.6612 -15.6282 -15.5944 -15.5040 -15.4655
   -15.4468 -15.3221 -15.2644 -15.2303 -15.0946 -13.9642 -13.8496  -8.3914
    -4.4326  -4.3834  -4.2310  -4.2222  -4.1028  -3.8884  -3.7062  -3.5186
    -3.4873  -3.4579  -3.4520  -3.3480  -3.2949  -3.1845  -3.1836  -3.1522
    -3.1380  -3.1061  -3.0845  -3.0801  -3.0396  -3.0218  -2.9558  -2.9145
    -2.9049  -2.8480  -2.7680  -2.6746  -2.6550  -2.6266  -2.5940  -2.5551
    -2.5374  -2.4389  -2.4322  -2.3668  -2.2326  -2.2092  -2.1614  -2.1329
    -2.1011  -2.0618  -1.9243  -1.7856  -1.7419  -1.7255  -1.6949  -1.6847
    -1.6547  -1.5320  -1.4897  -1.3902  -1.3589  -1.2473  -1.2346  -1.2172
    -1.2018  -1.1712  -1.1025  -1.0753  -1.0403  -0.9594  -0.8973  -0.7672
    -0.7341  -0.7151  -0.6863  -0.6788  -0.6205  -0.5786  -0.5207  -0.5104
    -0.4515  -0.4091  -0.3924  -0.3763  -0.3519  -0.2924  -0.2167  -0.1955
    -0.1320  -0.0946   0.1026   0.1408   0.1675   0.1875   0.2692   0.3020
     0.4793   0.4933   0.5577   0.7604   0.7993   1.1511   1.2305   1.7151
     2.6111   2.7911   2.9856   3.0434   3.0878   3.1676   3.2221   3.3001
     3.3330   3.4547

[...]

          k = 0.0380-0.0419 0.0000 ( 17876 PWs)   bands (ev):

[...]

          k =-0.0760-0.0000 0.0000 ( 17886 PWs)   bands (ev):

[...]

          k =-0.0760-0.0839 0.0000 ( 17948 PWs)   bands (ev):

   -56.6380 -56.6325 -56.3842 -56.3766 -56.3192 -56.2793 -56.0882 -56.0691
   -56.0675 -55.9870 -55.9470 -55.9317 -55.5500 -55.4539 -55.4538 -55.4299
   -32.9015 -32.8970 -32.8899 -32.8831 -32.7977 -32.7930 -32.7529 -32.7465
   -32.6864 -32.6733 -32.6162 -32.6095 -32.5858 -32.5782 -32.5710 -32.5632
   -32.5187 -32.4823 -32.4085 -32.3918 -32.3910 -32.3317 -32.3228 -32.3197
   -32.3077 -32.2930 -32.2877 -32.2841 -32.2619 -32.2531 -32.2341 -32.2175
   -32.1592 -32.1582 -32.1473 -32.1445 -31.9283 -31.8590 -31.8107 -31.7837
   -31.7836 -31.7307 -31.6982 -31.6864 -31.6863 -31.6483 -31.6483 -31.4940
   -16.5192 -16.4920 -16.2733 -16.2597 -16.1498 -16.1471 -16.1348 -16.1337
   -16.0454 -16.0411 -15.9949 -15.9744 -15.9168 -15.9044 -15.8633 -15.8618
   -15.8398 -15.8384 -15.7969 -15.7943 -15.6518 -15.6501 -15.5376 -15.5302
   -15.4925 -15.4507 -15.4105 -15.3979 -15.2350 -13.9518 -13.9514  -8.3934
    -3.8227  -3.7854  -3.4875  -3.4792  -3.2792  -3.2759  -3.2570  -3.2485
    -3.2286  -3.2012  -3.1974  -3.1857  -3.1477  -3.1068  -3.0839  -3.0656
    -3.0545  -3.0467  -3.0420  -3.0410  -3.0209  -3.0018  -2.9868  -2.9622
    -2.9025  -2.8915  -2.8678  -2.8586  -2.7758  -2.6313  -2.5641  -2.5582
    -2.5489  -2.5287  -2.4875  -2.3979  -2.3932  -2.3565  -2.3494  -2.3306
    -2.1376  -2.0725  -2.0691  -2.0073  -1.9785  -1.8750  -1.7282  -1.6949
    -1.6706  -1.6480  -1.5659  -1.5265  -1.5125  -1.4890  -1.4814  -1.4541
    -1.4439  -1.3583  -1.3496  -1.3166  -1.2711  -1.2095  -1.2055  -1.1837
    -1.1633  -1.0644  -0.9954  -0.9792  -0.9648  -0.9230  -0.8563  -0.8033
    -0.7630  -0.6750  -0.6593  -0.3906  -0.3886  -0.2528  -0.2404  -0.1129
    -0.1007  -0.0080   0.0234   0.0672   0.1822   0.1959   0.2008   0.2265
     0.3277   0.3290   0.3621   0.9414   0.9416   1.0070   1.0083   1.9897
     3.0338   3.0507   3.1322   3.1495   3.1540   3.1715   3.2156   3.2181
     3.5122   3.5245

     the Fermi energy is     2.3274 ev

!    total energy              =   -2897.72468743 Ry
     estimated scf accuracy    <       0.00000006 Ry
     smearing contrib. (-TS)   =      -0.00185966 Ry
     internal energy E=F+TS    =   -2897.72282777 Ry

     The total energy is F=E-TS. E is the sum of the following terms:
     one-electron contribution =  -24684.99039981 Ry
     hartree contribution      =   12420.44736880 Ry
     xc contribution           =    -473.85519288 Ry
     ewald contribution        =    9840.67524446 Ry
     electric field correction =       0.00015166 Ry

     convergence has been achieved in  79 iterations

     Forces acting on atoms (cartesian axes, Ry/au):

     atom    1 type  1   force =     0.00029670   -0.00004045    0.14818297
     atom    2 type  1   force =     0.00005671   -0.00032628   -0.17144120
     atom    3 type  2   force =    -0.00004656    0.00265530   -0.05990035
     atom    4 type  2   force =    -0.00032627   -0.00141408    0.04062449
     atom    5 type  2   force =    -0.02536397    0.00094030    0.00494494
     atom    6 type  2   force =     0.02287438    0.00011735    0.00299300
     atom    7 type  1   force =    -0.00051382   -0.00072094   -0.00013594
     atom    8 type  1   force =     0.00074348   -0.00040690    0.00041070
     atom    9 type  2   force =     0.00089756   -0.00028368    0.00033782
     atom   10 type  2   force =    -0.00010454   -0.00000592   -0.00022890
     atom   11 type  2   force =    -0.00015161    0.00003736    0.00015114
     atom   12 type  2   force =     0.00017592    0.00012416    0.00010725
     atom   13 type  1   force =     0.00003312   -0.00100441    0.00033516
     atom   14 type  1   force =    -0.00005057   -0.00114536   -0.00030210
     atom   15 type  2   force =     0.00024286   -0.00031145   -0.00046378
     atom   16 type  2   force =     0.00001711    0.00015327    0.00038365
     atom   17 type  2   force =     0.00110668    0.00008483    0.00027102
     atom   18 type  2   force =    -0.00072993   -0.00020971    0.00034680
     atom   19 type  1   force =     0.00053204   -0.00025956    0.00010762
     atom   20 type  1   force =     0.00014298   -0.00016320    0.00037867
     atom   21 type  2   force =     0.00014192   -0.00010211    0.10276503
     atom   22 type  2   force =     0.00009131   -0.00014251   -0.00030268
     atom   23 type  2   force =    -0.07353692    0.00029635   -0.03460478
     atom   24 type  2   force =     0.07358417    0.00074204   -0.03465529
     atom   25 type  1   force =     0.00007701   -0.00018298    0.14937782
     atom   26 type  1   force =     0.00000026   -0.00105256   -0.17159892
     atom   27 type  2   force =    -0.00006895    0.00191967   -0.05888729
     atom   28 type  2   force =    -0.00039717   -0.00137329    0.04059555
     atom   29 type  2   force =    -0.02528470    0.00191155    0.00523348
     atom   30 type  2   force =     0.02337543    0.00034467    0.00328090
     atom   31 type  1   force =    -0.00048450   -0.00020184   -0.00008631
     atom   32 type  1   force =     0.00062820   -0.00026701    0.00000676
     atom   33 type  2   force =     0.00005454   -0.00037677    0.00041531
     atom   34 type  2   force =     0.00007375   -0.00014644    0.00004031
     atom   35 type  2   force =    -0.00018334   -0.00035903   -0.00035569
     atom   36 type  2   force =     0.00052295   -0.00063457   -0.00014699
     atom   37 type  1   force =     0.00090053    0.00031461   -0.00004017
     atom   38 type  1   force =    -0.00035012   -0.00015431    0.00022819
     atom   39 type  2   force =     0.00005537    0.00009757   -0.00111623
     atom   40 type  2   force =    -0.00000465    0.00030210   -0.00083011
     atom   41 type  2   force =     0.00026025    0.00022208    0.00027060
     atom   42 type  2   force =     0.00026724    0.00053327    0.00034094
     atom   43 type  1   force =     0.00038869    0.00079997   -0.00078634
     atom   44 type  1   force =    -0.00048166    0.00026926    0.00007931
     atom   45 type  2   force =     0.00013666   -0.00009382    0.10272789
     atom   46 type  2   force =    -0.07356300   -0.00012427   -0.03459517
     atom   47 type  2   force =     0.07362073    0.00033873   -0.03466884
     atom   48 type  3   force =     0.00146638    0.00005431    0.00041576
     atom   49 type  4   force =    -0.00113874   -0.00067224   -0.00014551
     atom   50 type  4   force =     0.00001608   -0.00008308   -0.00006053

     Total force =     0.404345     Total SCF correction =     0.000655
  @ DRIVER MODE: Message from server: STATUS
  @ DRIVER MODE: Message from server: GETFORCE
  @ DRIVER MODE: Returning v,forces,stress,ensemble

     Writing output data file ./calc.save/
  @ DRIVER MODE: Message from server: EXIT
  @ DRIVE MODE: Exiting

     General routines

     Parallel routines

   This run was terminated on:  10: 6:58  24Aug2021

   JOB DONE.