     Program PWSCF v.6.7GPU starts on 10Sep2021 at 18:31:56

     R & G space division:  proc/nbgrp/npool/nimage =      10
     Reading input from /storage/home/hcoda1/3/ntian30/research/carbon/CxH_vib/CH_calc/ads_slab/CHNHNH_a/out_0025/pw.inp
Warning: card &CELL ignored
Warning: card   CELL_DYNAMICS='IPI', ignored
Warning: card / ignored

     Current dimensions of program PWSCF are:
     Max number of different atomic species (ntypx) = 10
     Max number of k-points (npk) =  40000
     Max angular momentum in pseudopotentials (lmaxx) =  3
     Presently no symmetry can be used with electric field

     Message from routine cell_base_init:
     DEPRECATED: use true lattice parameter, not A to a.u. conversion factor

     IMPORTANT: XC functional enforced from input :
     Exchange-correlation= BEEF-VDW
                           (   1   4  43  14   2   0   0)
     Any further DFT definition will be discarded
     Please, verify this is what you really want

  @ DRIVER MODE: Connecting to
 qe_1139763_2787518.sched-torque.pace.gatech.edujrkuoaj5_scratch
  using UNIX socket
  @ DRIVER MODE: Message from server: STATUS
  @ DRIVER MODE: Message from server: INIT
  @ DRIVER MODE: Receiving replica           0          -1
  @ DRIVER MODE: Receiving encoded integer          25
  @ DRIVER MODE:  SCF:  T  FORCE:  T  STRESS:  F  VC:  F  ENSEMBLE:  F
  @ DRIVER MODE:  SCF:  T  FORCE:  T  STRESS:  F  VC:  F  ENSEMBLE:  F

     Using Slab Decomposition

     bravais-lattice index     =            0
     lattice parameter (alat)  =       1.8897  a.u.
     unit-cell volume          =    6658.9804 (a.u.)^3
     number of atoms/cell      =           53
     number of atomic types    =            5
     number of electrons       =       395.00
     number of Kohn-Sham states=          207
     kinetic-energy cutoff     =      29.3995  Ry
     charge density cutoff     =     293.9946  Ry
     scf convergence threshold =      7.3E-08
     mixing beta               =       0.0500
     number of iterations used =            8  plain     mixing
     Exchange-correlation= BEEF-VDW
                           (   1   4  43  14   2   0   0)

     celldm(1)=   1.889726  celldm(2)=   0.000000  celldm(3)=   0.000000
     celldm(4)=   0.000000  celldm(5)=   0.000000  celldm(6)=   0.000000

     crystal axes: (cart. coord. in units of alat)
               a(1) = (   6.579727   0.000000   0.000000 )
               a(2) = (  -0.000775   5.961596   0.000000 )
               a(3) = (   0.000000   0.000000  25.155947 )

     reciprocal axes: (cart. coord. in units 2 pi/alat)
               b(1) = (  0.151982  0.000020  0.000000 )
               b(2) = (  0.000000  0.167740  0.000000 )
               b(3) = (  0.000000  0.000000  0.039752 )

     PseudoPot. # 1 for Ti read from file:
     /storage/coda1/p-amedford6/0/shared/rich_project_chbe-medford/medford-share/data/pseudos_module/espresso/nninc/pbe/van/Ti.UPF
     MD5 check sum: 8e4df49b7f0d34bbd5052bf3f5ea0213
     Pseudo is Ultrasoft, Zval = 12.0
     Generated by new atomic code, or converted to UPF format
     Using radial grid of  851 points,  6 beta functions with:
                l(1) =   0
                l(2) =   0
                l(3) =   1
                l(4) =   1
                l(5) =   2
                l(6) =   2
     Q(r) pseudized with  8 coefficients,  rinner =    1.000   1.000   1.000
                                                       1.000   1.000

     PseudoPot. # 2 for O  read from file:
     /storage/coda1/p-amedford6/0/shared/rich_project_chbe-medford/medford-share/data/pseudos_module/espresso/nninc/pbe/van/O.UPF
     MD5 check sum: 78c19812648e8988a0fe644b0f25305e
     Pseudo is Ultrasoft, Zval =  6.0
     Generated by new atomic code, or converted to UPF format
     Using radial grid of  737 points,  4 beta functions with:
                l(1) =   0
                l(2) =   0
                l(3) =   1
                l(4) =   1
     Q(r) pseudized with  8 coefficients,  rinner =    0.800   0.800   0.800

     PseudoPot. # 3 for N  read from file:
     /storage/coda1/p-amedford6/0/shared/rich_project_chbe-medford/medford-share/data/pseudos_module/espresso/nninc/pbe/van/N.UPF
     MD5 check sum: 90d10febe142ad51ac9d5be1deb811c4
     Pseudo is Ultrasoft, Zval =  5.0
     Generated by new atomic code, or converted to UPF format
     Using radial grid of  729 points,  4 beta functions with:
                l(1) =   0
                l(2) =   0
                l(3) =   1
                l(4) =   1
     Q(r) pseudized with  8 coefficients,  rinner =    0.800   0.800   0.800

     PseudoPot. # 4 for C  read from file:
     /storage/coda1/p-amedford6/0/shared/rich_project_chbe-medford/medford-share/data/pseudos_module/espresso/nninc/pbe/van/C.UPF
     MD5 check sum: 1a69bf6b8db32088f5b2163dbdb77a27
     Pseudo is Ultrasoft, Zval =  4.0
     Generated by new atomic code, or converted to UPF format
     Using radial grid of  721 points,  4 beta functions with:
                l(1) =   0
                l(2) =   0
                l(3) =   1
                l(4) =   1
     Q(r) pseudized with  8 coefficients,  rinner =    0.800   0.800   0.800

     PseudoPot. # 5 for H  read from file:
     /storage/coda1/p-amedford6/0/shared/rich_project_chbe-medford/medford-share/data/pseudos_module/espresso/nninc/pbe/van/H.UPF
     MD5 check sum: b5ee9d7bfd3a09ee7748110bda690ff7
     Pseudo is Ultrasoft, Zval =  1.0
     Generated by new atomic code, or converted to UPF format
     Using radial grid of  615 points,  1 beta functions with:
                l(1) =   0
     Q(r) pseudized with  8 coefficients,  rinner =    0.800

     atomic species   valence    mass     pseudopotential
        Ti1           12.00    47.86700     Ti( 1.00)
        O1             6.00    15.99900     O ( 1.00)
        N1             5.00    14.00700     N ( 1.00)
        C1             4.00    12.01100     C ( 1.00)
        H1             1.00     1.00800     H ( 1.00)

     No symmetry found

   Cartesian axes

     site n.     atom                  positions (alat units)
         1           Ti1 tau(   1) = (   0.0004258   2.9801865   6.0000000  )
         2           Ti1 tau(   2) = (   3.2906075   1.4906267   6.0002472  )
         3           O1  tau(   3) = (   0.0006271   0.0005054   7.9858123  )
         4           O1  tau(   4) = (   3.2906025   0.0005020   7.3038282  )
         5           O1  tau(   5) = (   4.5942328   1.4918067   9.2879030  )
         6           O1  tau(   6) = (   1.9868534   1.4903216   9.2879459  )
         7           Ti1 tau(   7) = (   3.2907910   2.8959150   9.1758416  )
         8           Ti1 tau(   8) = (   0.0015273   1.4827037   9.2680791  )
         9           O1  tau(   9) = (   3.2974950   5.9468587  11.3331085  )
        10           O1  tau(  10) = (   0.0116148   5.9584955  10.6183126  )
        11           O1  tau(  11) = (   1.3019594   1.4757037  12.6170356  )
        12           O1  tau(  12) = (   5.2841045   1.4688878  12.6073194  )
        13           Ti1 tau(  13) = (   0.0658538   3.0089988  12.6217963  )
        14           Ti1 tau(  14) = (   3.3903573   1.4765488  12.4775701  )
        15           O1  tau(  15) = (   6.5762050   0.0002902  14.6414759  )
        16           O1  tau(  16) = (   3.3078303   5.9588356  13.9306596  )
        17           O1  tau(  17) = (   4.5399328   1.5113171  16.0740780  )
        18           O1  tau(  18) = (   2.0525891   1.5105181  16.0861438  )
        19           Ti1 tau(  19) = (   3.3041007   2.9930787  15.6963055  )
        20           Ti1 tau(  20) = (   0.0280933   1.5113244  15.8467906  )
        21           O1  tau(  21) = (   3.2904802   0.0005063   4.7018136  )
        22           O1  tau(  22) = (   0.0368235   0.0128086  17.1990618  )
        23           O1  tau(  23) = (   1.3043587   1.4918075   6.0039043  )
        24           O1  tau(  24) = (   5.2767064   1.4903225   6.0039473  )
        25           Ti1 tau(  25) = (   0.0000382   5.9609847   6.0000000  )
        26           Ti1 tau(  26) = (   3.2902200   4.4714249   6.0002472  )
        27           O1  tau(  27) = (   0.0002396   2.9813036   7.9858123  )
        28           O1  tau(  28) = (   3.2902150   2.9813002   7.3038282  )
        29           O1  tau(  29) = (   4.5938453   4.4726049   9.2879030  )
        30           O1  tau(  30) = (   1.9864658   4.4711199   9.2879459  )
        31           Ti1 tau(  31) = (   3.2891106   5.8743827   9.1763621  )
        32           Ti1 tau(  32) = (   0.0006254   4.4649316   9.2693709  )
        33           O1  tau(  33) = (   3.3000731   2.9737533  11.3293525  )
        34           O1  tau(  34) = (   0.0092240   2.9805883  10.6323155  )
        35           O1  tau(  35) = (   1.3001503   4.4664650  12.6348062  )
        36           O1  tau(  36) = (   5.2875254   4.4541756  12.6228532  )
        37           Ti1 tau(  37) = (   0.0765437   0.0243871  12.5594496  )
        38           Ti1 tau(  38) = (   3.3883988   4.4566399  12.4818539  )
        39           O1  tau(  39) = (   0.0169469   2.9261715  14.6451004  )
        40           O1  tau(  40) = (   3.3035743   2.9719493  13.9037931  )
        41           O1  tau(  41) = (   4.5445893   4.4635849  16.0933648  )
        42           O1  tau(  42) = (   2.0554864   4.4706235  16.0676963  )
        43           Ti1 tau(  43) = (   3.3300396   0.0018144  15.7250798  )
        44           Ti1 tau(  44) = (   0.0441581   4.6348571  16.0952712  )
        45           O1  tau(  45) = (   3.2900926   2.9813045   4.7018136  )
        46           O1  tau(  46) = (   1.3039711   4.4726057   6.0039043  )
        47           O1  tau(  47) = (   5.2763189   4.4711207   6.0039473  )
        48           N1  tau(  48) = (   1.0252718   2.8101955  18.5330041  )
        49           N1  tau(  49) = (   6.5702222   2.9467621  17.4444712  )
        50           C1  tau(  50) = (   1.2122298   3.5280882  19.5702009  )
        51           H1  tau(  51) = (   0.5037382   4.3646449  19.6222421  )
        52           H1  tau(  52) = (   1.5745460   1.9874866  18.3412699  )
        53           H1  tau(  53) = (   5.6894004   2.9582294  17.9538253  )

     number of k points=    10  Fermi-Dirac smearing, width (Ry)=  0.0073
                       cart. coord. in units 2pi/alat
        k(    1) = (   0.0000000   0.0000000   0.0000000), wk =   0.1250000
        k(    2) = (   0.0000000   0.0419351   0.0000000), wk =   0.2500000
        k(    3) = (   0.0000000  -0.0838702   0.0000000), wk =   0.1250000
        k(    4) = (   0.0379955   0.0000049   0.0000000), wk =   0.2500000
        k(    5) = (   0.0379955   0.0419400   0.0000000), wk =   0.2500000
        k(    6) = (   0.0379955  -0.0838652   0.0000000), wk =   0.2500000
        k(    7) = (   0.0379955  -0.0419301   0.0000000), wk =   0.2500000
        k(    8) = (  -0.0759910  -0.0000099   0.0000000), wk =   0.1250000
        k(    9) = (  -0.0759910   0.0419252   0.0000000), wk =   0.2500000
        k(   10) = (  -0.0759910  -0.0838800   0.0000000), wk =   0.1250000

     Initial potential from superposition of free atoms

     starting charge  378.99916, renormalised to  395.00000

     negative rho (up, down):  1.643E-02 0.000E+00

     %%%%%%%%%%%%%%%%%%%%%%%%%%%%%%%%%%%%%%%%%%%%%%%%%%%%%%%%%%%%%%%%%%%%%%%%
     %                                                                      %
     % You are using vdW-DF, which was implemented by the Thonhauser group. %
     % Please cite the following two papers that made this development      %
     % possible and the two reviews that describe the various versions:     %
     %                                                                      %
     %   T. Thonhauser et al., PRL 115, 136402 (2015).                      %
     %   T. Thonhauser et al., PRB 76, 125112 (2007).                       %
     %   K. Berland et al., Rep. Prog. Phys. 78, 066501 (2015).             %
     %   D.C. Langreth et al., J. Phys.: Condens. Matter 21, 084203 (2009). %
     %                                                                      %
     %                                                                      %
     % If you are calculating the stress with vdW-DF, please also cite:     %
     %                                                                      %
     %   R. Sabatini et al., J. Phys.: Condens. Matter 24, 424209 (2012).   %
     %                                                                      %
     %%%%%%%%%%%%%%%%%%%%%%%%%%%%%%%%%%%%%%%%%%%%%%%%%%%%%%%%%%%%%%%%%%%%%%%%

     Adding external electric field

     Computed dipole along edir(3) :
        Dipole               -8.5017 Ry au,        -21.6093 Debye
        Dipole field         -0.0160 Ry au,

        Potential amp.        1.4872 Ry
        Total length         46.3494 bohr

     Starting wfcs are  299 atomic wfcs
  @ DRIVER MODE: Message from server: STATUS
  @ DRIVER MODE: Message from server: POSDATA
  @ DRIVER MODE: Reading and sharing cell
  @ DRIVER MODE: Reading and sharing positions
  @ DRIVER MODE: Received positions

     Self-consistent Calculation

     iteration #  1     ecut=    29.40 Ry     beta= 0.05
     Davidson diagonalization with overlap
     c_bands:  1 eigenvalues not converged
     c_bands:  1 eigenvalues not converged
     c_bands:  2 eigenvalues not converged
     c_bands:  3 eigenvalues not converged
     c_bands:  3 eigenvalues not converged
     c_bands:  1 eigenvalues not converged
     c_bands:  1 eigenvalues not converged
     ethr =  1.00E-05,  avg # of iterations = 19.2

[...]

     total energy              =   -2621.16481415 Ry
     estimated scf accuracy    <    3530.50272375 Ry

[...]

     iteration #  3     ecut=    29.40 Ry     beta= 0.05
     Davidson diagonalization with overlap
     ethr =  1.00E-02,  avg # of iterations = 14.8

[...]

     iteration # 42     ecut=    29.40 Ry     beta= 0.05
     Davidson diagonalization with overlap
     c_bands:  1 eigenvalues not converged
     ethr =  1.65E-07,  avg # of iterations =  9.5

[...]

     total energy              =   -2939.04802251 Ry
     estimated scf accuracy    <       0.00000013 Ry

     iteration # 66     ecut=    29.40 Ry     beta= 0.05
     Davidson diagonalization with overlap
     ethr =  3.32E-11,  avg # of iterations =  8.6

     negative rho (up, down):  1.570E-02 0.000E+00

     Adding external electric field

     Computed dipole along edir(3) :
        Dipole                0.0420 Ry au,          0.1067 Debye
        Dipole field          0.0001 Ry au,

        Potential amp.       -0.0073 Ry
        Total length         46.3494 bohr

     End of self-consistent calculation

          k = 0.0000 0.0000 0.0000 ( 18029 PWs)   bands (ev):

   -56.2409 -56.2347 -56.2068 -56.1987 -56.1494 -56.0779 -56.0772 -56.0490
   -56.0417 -56.0150 -56.0131 -55.9795 -55.7872 -55.5223 -55.2178 -55.1837
   -32.7911 -32.7230 -32.5908 -32.5786 -32.5589 -32.5477 -32.5340 -32.5037
   -32.4833 -32.4816 -32.4557 -32.4438 -32.4159 -32.3929 -32.3873 -32.3763
   -32.3758 -32.3449 -32.3296 -32.2979 -32.2902 -32.2876 -32.2635 -32.2439
   -32.2394 -32.2363 -32.2362 -32.2234 -32.2159 -32.1999 -32.1937 -32.1918
   -32.1880 -32.1794 -32.1660 -32.1558 -32.1253 -32.0395 -31.9768 -31.8007
   -31.7841 -31.7235 -31.6248 -31.5366 -31.5142 -31.4416 -31.3551 -31.2440
   -17.3154 -16.9897 -16.7173 -16.5083 -16.3965 -16.3645 -16.2647 -16.0817
   -15.9579 -15.9275 -15.8279 -15.8004 -15.7768 -15.7654 -15.7437 -15.7333
   -15.6867 -15.6824 -15.6698 -15.6545 -15.6013 -15.5763 -15.5473 -15.4382
   -15.4317 -15.3985 -15.3729 -15.2967 -15.2904 -14.8298 -13.7202 -13.6039
   -12.7646  -8.6907  -5.3286  -4.3650  -4.2203  -4.1928  -4.1460  -4.0939
    -3.8762  -3.8124  -3.7535  -3.6081  -3.4697  -3.4280  -3.4153  -3.3992
    -3.3698  -3.1435  -3.1179  -3.0545  -3.0309  -3.0252  -3.0142  -3.0045
    -2.9835  -2.9663  -2.8934  -2.7894  -2.7159  -2.6674  -2.6197  -2.6106
    -2.5526  -2.5073  -2.5017  -2.4843  -2.4796  -2.4710  -2.4335  -2.4248
    -2.2885  -2.2278  -2.0951  -2.0582  -2.0380  -1.8889  -1.8477  -1.7524
    -1.6864  -1.6692  -1.6597  -1.6312  -1.5458  -1.5239  -1.4039  -1.3813
    -1.3408  -1.2678  -1.2562  -1.2348  -1.1323  -1.1169  -1.0119  -1.0045
    -0.9980  -0.9809  -0.9230  -0.7339  -0.7128  -0.6818  -0.6623  -0.6293
    -0.5528  -0.5225  -0.4319  -0.4188  -0.3605  -0.3406  -0.3159  -0.2663
    -0.2602  -0.2482  -0.2443  -0.2284  -0.0528   0.0084   0.0656   0.1165
     0.1320   0.2890   0.3386   0.4167   0.5024   0.7298   0.8043   0.8403
     0.8929   0.9964   1.3755   1.4211   2.4357   2.8998   2.9802   3.0301
     3.0404   3.1348   3.1409   3.3481   3.3699   3.3760   3.4397

[...]

          k = 0.0380-0.0419 0.0000 ( 17876 PWs)   bands (ev):

[...]

          k =-0.0760-0.0000 0.0000 ( 17886 PWs)   bands (ev):

[...]

          k =-0.0760-0.0839 0.0000 ( 17948 PWs)   bands (ev):

   -56.2242 -56.2233 -56.2174 -56.2158 -56.1449 -56.0822 -56.0639 -56.0549
   -56.0329 -56.0306 -55.9966 -55.9961 -55.7862 -55.5232 -55.2007 -55.2006
   -32.5961 -32.5933 -32.5386 -32.5380 -32.5273 -32.5197 -32.5189 -32.5002
   -32.4426 -32.4412 -32.4356 -32.4326 -32.4075 -32.3723 -32.3615 -32.3572
   -32.3500 -32.3462 -32.3440 -32.3435 -32.3427 -32.3358 -32.3336 -32.2855
   -32.2845 -32.2737 -32.2558 -32.2455 -32.2314 -32.2309 -32.2284 -32.2280
   -32.2116 -32.2108 -32.2031 -32.2008 -32.1310 -32.0419 -31.9720 -31.8576
   -31.7931 -31.7486 -31.5269 -31.5268 -31.4376 -31.4375 -31.3984 -31.3983
   -17.2984 -16.4404 -16.4089 -16.1827 -16.1723 -16.1576 -16.1543 -16.0169
   -15.9493 -15.9461 -15.9395 -15.9073 -15.8795 -15.8415 -15.7968 -15.7751
   -15.7745 -15.7627 -15.7560 -15.7029 -15.6977 -15.6760 -15.6691 -15.5670
   -15.5561 -15.5527 -15.4989 -15.4106 -15.2814 -15.0041 -13.7057 -13.7055
   -12.7754  -8.6960  -5.3263  -3.8731  -3.7313  -3.6942  -3.5413  -3.4117
    -3.4082  -3.3972  -3.3242  -3.1566  -3.1422  -3.1194  -3.0953  -3.0684
    -3.0683  -3.0534  -3.0479  -3.0291  -3.0050  -2.9697  -2.9307  -2.9270
    -2.9054  -2.8956  -2.8697  -2.8558  -2.8259  -2.8139  -2.7984  -2.7802
    -2.7615  -2.7460  -2.5921  -2.4728  -2.4394  -2.3771  -2.3688  -2.3492
    -2.3146  -2.3041  -2.2911  -2.2290  -2.1275  -1.9915  -1.9441  -1.9376
    -1.9050  -1.8254  -1.8132  -1.6681  -1.6538  -1.6261  -1.5875  -1.5339
    -1.5173  -1.4666  -1.4040  -1.3914  -1.3595  -1.3307  -1.2538  -1.2036
    -1.2008  -1.1827  -1.1233  -1.0355  -1.0272  -1.0106  -1.0027  -0.9530
    -0.8755  -0.8618  -0.8299  -0.7450  -0.7276  -0.6294  -0.5457  -0.3462
    -0.2614  -0.2143  -0.1682  -0.1347  -0.0317   0.0144   0.0303   0.0664
     0.0794   0.1264   0.1855   0.2919   0.2987   0.3600   0.4695   0.8056
     1.1679   1.1688   1.2408   1.2410   2.3938   3.1601   3.1685   3.2240
     3.2463   3.3970   3.4026   3.4270   3.4281   3.5488   3.5666

     the Fermi energy is     2.8946 ev

!    total energy              =   -2939.04804449 Ry
     estimated scf accuracy    <       0.00000003 Ry
     smearing contrib. (-TS)   =      -0.02294249 Ry
     internal energy E=F+TS    =   -2939.02510200 Ry

     The total energy is F=E-TS. E is the sum of the following terms:
     one-electron contribution =  -24314.88301447 Ry
     hartree contribution      =   12241.27677026 Ry
     xc contribution           =    -485.13142532 Ry
     ewald contribution        =    9619.71256421 Ry
     electric field correction =       0.00000332 Ry

     convergence has been achieved in  66 iterations

     Forces acting on atoms (cartesian axes, Ry/au):

     atom    1 type  1   force =     0.00025975   -0.00024275    0.09665094
     atom    2 type  1   force =    -0.00018399   -0.00052635   -0.17529568
     atom    3 type  2   force =    -0.00000558   -0.00007691   -0.02503387
     atom    4 type  2   force =     0.00005868   -0.00154495    0.05297698
     atom    5 type  2   force =    -0.01216489   -0.00104575    0.00344076
     atom    6 type  2   force =     0.01404373   -0.00028681    0.00273141
     atom    7 type  1   force =    -0.00095375    0.00050593   -0.01193031
     atom    8 type  1   force =     0.00044227    0.00876622    0.02924017
     atom    9 type  2   force =     0.00051129    0.00031038   -0.00017679
     atom   10 type  2   force =    -0.00090546   -0.00020224   -0.01711603
     atom   11 type  2   force =     0.00036256    0.00017561    0.00035236
     atom   12 type  2   force =    -0.00106337    0.00082320    0.00048810
     atom   13 type  1   force =     0.00146168    0.00081494   -0.00001362
     atom   14 type  1   force =    -0.00124159    0.00035446   -0.00025047
     atom   15 type  2   force =    -0.00065189    0.00070769    0.00049235
     atom   16 type  2   force =     0.00032042   -0.00036198   -0.00019608
     atom   17 type  2   force =     0.00061453    0.00018646   -0.00019082
     atom   18 type  2   force =    -0.00066170    0.00007883   -0.00028475
     atom   19 type  1   force =    -0.00009257   -0.00059194    0.00008919
     atom   20 type  1   force =    -0.00001898    0.00001491    0.00033962
     atom   21 type  2   force =     0.00007979   -0.00006061    0.10318287
     atom   22 type  2   force =     0.00004097    0.00166328    0.00044063
     atom   23 type  2   force =    -0.07149652   -0.00015547   -0.02776414
     atom   24 type  2   force =     0.07144382    0.00026441   -0.02776546
     atom   25 type  1   force =     0.00007800   -0.00022247    0.09649965
     atom   26 type  1   force =    -0.00013252   -0.00033708   -0.17547959
     atom   27 type  2   force =     0.00006313   -0.00023826   -0.02406472
     atom   28 type  2   force =     0.00011721   -0.00128204    0.05274935
     atom   29 type  2   force =    -0.01227575    0.00002149    0.00300943
     atom   30 type  2   force =     0.01404407    0.00040115    0.00237780
     atom   31 type  1   force =    -0.00094325    0.00316180   -0.01287769
     atom   32 type  1   force =     0.00028961   -0.01003396    0.02992842
     atom   33 type  2   force =     0.00025604   -0.00014247    0.00046955
     atom   34 type  2   force =    -0.00003413   -0.00000065   -0.02438756
     atom   35 type  2   force =    -0.00034131    0.00022219   -0.00027787
     atom   36 type  2   force =    -0.00114503    0.00053918   -0.00007235
     atom   37 type  1   force =     0.00123576   -0.00092610    0.00048744
     atom   38 type  1   force =    -0.00091342   -0.00056945   -0.00003173
     atom   39 type  2   force =    -0.00020985   -0.00059214    0.00062344
     atom   40 type  2   force =     0.00008573    0.00054594    0.00011747
     atom   41 type  2   force =    -0.00113284   -0.00006758   -0.00028051
     atom   42 type  2   force =     0.00162126   -0.00022812   -0.00023323
     atom   43 type  1   force =    -0.00052527    0.00035338   -0.00039610
     atom   44 type  1   force =    -0.00014404   -0.00004076    0.00007554
     atom   45 type  2   force =     0.00005426   -0.00008547    0.10318251
     atom   46 type  2   force =    -0.07152368   -0.00015974   -0.02774978
     atom   47 type  2   force =     0.07149415    0.00033796   -0.02778751
     atom   48 type  3   force =    -0.00615936    0.00755505    0.00137604
     atom   49 type  3   force =    -0.00110456    0.00014795   -0.00033145
     atom   50 type  4   force =     0.00086978    0.00019626    0.00018356
     atom   51 type  5   force =     0.00014240    0.00093782   -0.00063707
     atom   52 type  5   force =     0.00686243   -0.00845441   -0.00140403
     atom   53 type  5   force =    -0.00082803   -0.00061000    0.00052362

     Total force =     0.368657     Total SCF correction =     0.000528
  @ DRIVER MODE: Message from server: STATUS
  @ DRIVER MODE: Message from server: GETFORCE
  @ DRIVER MODE: Returning v,forces,stress,ensemble

     Writing output data file ./calc.save/
  @ DRIVER MODE: Message from server: EXIT
  @ DRIVE MODE: Exiting

     General routines

     Parallel routines

   This run was terminated on:  18:49:46  10Sep2021

   JOB DONE.