     Program PWSCF v.6.7GPU starts on  2Aug2021 at 12:51:24

     R & G space division:  proc/nbgrp/npool/nimage =      16
     Reading input from /storage/home/hcoda1/3/ntian30/research/carbon/02Aug_vib_paired/ads_slab/CH3NNHH_a/out_0003/pw.inp
Warning: card &CELL ignored
Warning: card   CELL_DYNAMICS='IPI', ignored
Warning: card / ignored

     Current dimensions of program PWSCF are:
     Max number of different atomic species (ntypx) = 10
     Max number of k-points (npk) =  40000
     Max angular momentum in pseudopotentials (lmaxx) =  3
     Presently no symmetry can be used with electric field

     Message from routine cell_base_init:
     DEPRECATED: use true lattice parameter, not A to a.u. conversion factor

     IMPORTANT: XC functional enforced from input :
     Exchange-correlation= BEEF-VDW
                           (   1   4  43  14   2   0   0)
     Any further DFT definition will be discarded
     Please, verify this is what you really want

  @ DRIVER MODE: Connecting to
 qe_1139763_2482543.sched-torque.pace.gatech.edu_d63er_f_scratch
  using UNIX socket
  @ DRIVER MODE: Message from server: STATUS
  @ DRIVER MODE: Message from server: INIT
  @ DRIVER MODE: Receiving replica           0          -1
  @ DRIVER MODE: Receiving encoded integer          25
  @ DRIVER MODE:  SCF:  T  FORCE:  T  STRESS:  F  VC:  F  ENSEMBLE:  F
  @ DRIVER MODE:  SCF:  T  FORCE:  T  STRESS:  F  VC:  F  ENSEMBLE:  F

     Using Slab Decomposition

     bravais-lattice index     =            0
     lattice parameter (alat)  =       1.8897  a.u.
     unit-cell volume          =    6658.9804 (a.u.)^3
     number of atoms/cell      =           55
     number of atomic types    =            5
     number of electrons       =       397.00
     number of Kohn-Sham states=          208
     kinetic-energy cutoff     =      29.3995  Ry
     charge density cutoff     =     293.9946  Ry
     scf convergence threshold =      7.3E-08
     mixing beta               =       0.0500
     number of iterations used =            8  plain     mixing
     Exchange-correlation= BEEF-VDW
                           (   1   4  43  14   2   0   0)

     celldm(1)=   1.889726  celldm(2)=   0.000000  celldm(3)=   0.000000
     celldm(4)=   0.000000  celldm(5)=   0.000000  celldm(6)=   0.000000

     crystal axes: (cart. coord. in units of alat)
               a(1) = (   6.579727   0.000000   0.000000 )
               a(2) = (  -0.000775   5.961596   0.000000 )
               a(3) = (   0.000000   0.000000  25.155947 )

     reciprocal axes: (cart. coord. in units 2 pi/alat)
               b(1) = (  0.151982  0.000020  0.000000 )
               b(2) = (  0.000000  0.167740  0.000000 )
               b(3) = (  0.000000  0.000000  0.039752 )

     PseudoPot. # 1 for Ti read from file:
     /storage/coda1/p-amedford6/0/shared/rich_project_chbe-medford/medford-share/data/pseudos_module/espresso/nninc/pbe/van/Ti.UPF
     MD5 check sum: 8e4df49b7f0d34bbd5052bf3f5ea0213
     Pseudo is Ultrasoft, Zval = 12.0
     Generated by new atomic code, or converted to UPF format
     Using radial grid of  851 points,  6 beta functions with:
                l(1) =   0
                l(2) =   0
                l(3) =   1
                l(4) =   1
                l(5) =   2
                l(6) =   2
     Q(r) pseudized with  8 coefficients,  rinner =    1.000   1.000   1.000
                                                       1.000   1.000

     PseudoPot. # 2 for O  read from file:
     /storage/coda1/p-amedford6/0/shared/rich_project_chbe-medford/medford-share/data/pseudos_module/espresso/nninc/pbe/van/O.UPF
     MD5 check sum: 78c19812648e8988a0fe644b0f25305e
     Pseudo is Ultrasoft, Zval =  6.0
     Generated by new atomic code, or converted to UPF format
     Using radial grid of  737 points,  4 beta functions with:
                l(1) =   0
                l(2) =   0
                l(3) =   1
                l(4) =   1
     Q(r) pseudized with  8 coefficients,  rinner =    0.800   0.800   0.800

     PseudoPot. # 3 for N  read from file:
     /storage/coda1/p-amedford6/0/shared/rich_project_chbe-medford/medford-share/data/pseudos_module/espresso/nninc/pbe/van/N.UPF
     MD5 check sum: 90d10febe142ad51ac9d5be1deb811c4
     Pseudo is Ultrasoft, Zval =  5.0
     Generated by new atomic code, or converted to UPF format
     Using radial grid of  729 points,  4 beta functions with:
                l(1) =   0
                l(2) =   0
                l(3) =   1
                l(4) =   1
     Q(r) pseudized with  8 coefficients,  rinner =    0.800   0.800   0.800

     PseudoPot. # 4 for C  read from file:
     /storage/coda1/p-amedford6/0/shared/rich_project_chbe-medford/medford-share/data/pseudos_module/espresso/nninc/pbe/van/C.UPF
     MD5 check sum: 1a69bf6b8db32088f5b2163dbdb77a27
     Pseudo is Ultrasoft, Zval =  4.0
     Generated by new atomic code, or converted to UPF format
     Using radial grid of  721 points,  4 beta functions with:
                l(1) =   0
                l(2) =   0
                l(3) =   1
                l(4) =   1
     Q(r) pseudized with  8 coefficients,  rinner =    0.800   0.800   0.800

     PseudoPot. # 5 for H  read from file:
     /storage/coda1/p-amedford6/0/shared/rich_project_chbe-medford/medford-share/data/pseudos_module/espresso/nninc/pbe/van/H.UPF
     MD5 check sum: b5ee9d7bfd3a09ee7748110bda690ff7
     Pseudo is Ultrasoft, Zval =  1.0
     Generated by new atomic code, or converted to UPF format
     Using radial grid of  615 points,  1 beta functions with:
                l(1) =   0
     Q(r) pseudized with  8 coefficients,  rinner =    0.800

     atomic species   valence    mass     pseudopotential
        Ti1           12.00    47.86700     Ti( 1.00)
        O1             6.00    15.99900     O ( 1.00)
        N1             5.00    14.00700     N ( 1.00)
        C1             4.00    12.01100     C ( 1.00)
        H1             1.00     1.00800     H ( 1.00)

     No symmetry found

   Cartesian axes

     site n.     atom                  positions (alat units)
         1           Ti1 tau(   1) = (   0.0004258   2.9801865   6.0000000  )
         2           Ti1 tau(   2) = (   3.2906075   1.4906267   6.0002472  )
         3           O1  tau(   3) = (   0.0006271   0.0005054   7.9858123  )
         4           O1  tau(   4) = (   3.2906025   0.0005020   7.3038282  )
         5           O1  tau(   5) = (   4.5942328   1.4918067   9.2879030  )
         6           O1  tau(   6) = (   1.9868534   1.4903216   9.2879459  )
         7           Ti1 tau(   7) = (   3.2907910   2.8959150   9.1758416  )
         8           Ti1 tau(   8) = (   0.0015273   1.4827037   9.2680791  )
         9           O1  tau(   9) = (   3.3049802   0.0007868  11.3057318  )
        10           O1  tau(  10) = (   0.0116148   5.9584955  10.6183126  )
        11           O1  tau(  11) = (   1.3244024   1.4905818  12.6109357  )
        12           O1  tau(  12) = (   5.3168099   1.4893704  12.6271843  )
        13           Ti1 tau(  13) = (   6.5373159   3.0114403  12.6515439  )
        14           Ti1 tau(  14) = (   3.2156784   1.4952808  12.4541107  )
        15           O1  tau(  15) = (   0.0550716   5.9579553  14.6769760  )
        16           O1  tau(  16) = (   3.3119233   0.0240268  13.8744051  )
        17           O1  tau(  17) = (   4.5754650   1.5399768  16.1198157  )
        18           O1  tau(  18) = (   2.0928293   1.5118261  15.9950610  )
        19           Ti1 tau(  19) = (   3.3312717   3.0210965  15.6459898  )
        20           Ti1 tau(  20) = (   0.0837956   1.4057146  15.8023643  )
        21           O1  tau(  21) = (   3.2904802   0.0005063   4.7018136  )
        22           O1  tau(  22) = (   0.0662678   0.0194342  17.2484716  )
        23           O1  tau(  23) = (   1.3043587   1.4918075   6.0039043  )
        24           O1  tau(  24) = (   5.2767064   1.4903225   6.0039473  )
        25           Ti1 tau(  25) = (   0.0000382   5.9609847   6.0000000  )
        26           Ti1 tau(  26) = (   3.2902200   4.4714249   6.0002472  )
        27           O1  tau(  27) = (   0.0002396   2.9813036   7.9858123  )
        28           O1  tau(  28) = (   3.2902150   2.9813002   7.3038282  )
        29           O1  tau(  29) = (   4.5938453   4.4726049   9.2879030  )
        30           O1  tau(  30) = (   1.9864658   4.4711199   9.2879459  )
        31           Ti1 tau(  31) = (   3.2891106   5.8743827   9.1763621  )
        32           Ti1 tau(  32) = (   0.0006254   4.4649316   9.2693709  )
        33           O1  tau(  33) = (   3.3066024   2.9928613  11.3071500  )
        34           O1  tau(  34) = (   0.0092240   2.9805883  10.6323155  )
        35           O1  tau(  35) = (   1.3207996   4.4694119  12.6241097  )
        36           O1  tau(  36) = (   5.3140488   4.4801720  12.6365454  )
        37           Ti1 tau(  37) = (   6.5381296   0.0208815  12.5444857  )
        38           Ti1 tau(  38) = (   3.2183512   4.4801350  12.4586296  )
        39           O1  tau(  39) = (   0.0202472   2.9427232  14.7250097  )
        40           O1  tau(  40) = (   3.3152672   2.9848540  13.8607131  )
        41           O1  tau(  41) = (   4.5737023   4.5140360  15.9163038  )
        42           O1  tau(  42) = (   2.1295162   4.4918226  16.0779194  )
        43           Ti1 tau(  43) = (   3.3279662   0.0229233  15.6733299  )
        44           Ti1 tau(  44) = (   6.5520288   4.5036137  16.2892914  )
        45           O1  tau(  45) = (   3.2900926   2.9813045   4.7018136  )
        46           O1  tau(  46) = (   1.3039711   4.4726057   6.0039043  )
        47           O1  tau(  47) = (   5.2763189   4.4711207   6.0039473  )
        48           N1  tau(  48) = (   0.3708600   2.9781754  17.6030774  )
        49           C1  tau(  49) = (   1.3543844   2.7351176  18.6431602  )
        50           H1  tau(  50) = (   1.5086739   3.6319226  19.2591966  )
        51           H1  tau(  51) = (   1.0320479   1.9069190  19.2840631  )
        52           H1  tau(  52) = (   2.3019873   2.4496563  18.1994378  )
        53           N1  tau(  53) = (   5.7269228   3.4566738  18.1314761  )
        54           H1  tau(  54) = (   5.8315057   4.0292447  18.9662490  )
        55           H1  tau(  55) = (   5.0361168   2.7172796  18.2515220  )

     number of k points=    10  Fermi-Dirac smearing, width (Ry)=  0.0073
                       cart. coord. in units 2pi/alat
        k(    1) = (   0.0000000   0.0000000   0.0000000), wk =   0.1250000
        k(    2) = (   0.0000000   0.0419351   0.0000000), wk =   0.2500000
        k(    3) = (   0.0000000  -0.0838702   0.0000000), wk =   0.1250000
        k(    4) = (   0.0379955   0.0000049   0.0000000), wk =   0.2500000
        k(    5) = (   0.0379955   0.0419400   0.0000000), wk =   0.2500000
        k(    6) = (   0.0379955  -0.0838652   0.0000000), wk =   0.2500000
        k(    7) = (   0.0379955  -0.0419301   0.0000000), wk =   0.2500000
        k(    8) = (  -0.0759910  -0.0000099   0.0000000), wk =   0.1250000
        k(    9) = (  -0.0759910   0.0419252   0.0000000), wk =   0.2500000
        k(   10) = (  -0.0759910  -0.0838800   0.0000000), wk =   0.1250000

     Initial potential from superposition of free atoms

     starting charge  380.99914, renormalised to  397.00000

     negative rho (up, down):  1.665E-02 0.000E+00

     %%%%%%%%%%%%%%%%%%%%%%%%%%%%%%%%%%%%%%%%%%%%%%%%%%%%%%%%%%%%%%%%%%%%%%%%
     %                                                                      %
     % You are using vdW-DF, which was implemented by the Thonhauser group. %
     % Please cite the following two papers that made this development      %
     % possible and the two reviews that describe the various versions:     %
     %                                                                      %
     %   T. Thonhauser et al., PRL 115, 136402 (2015).                      %
     %   T. Thonhauser et al., PRB 76, 125112 (2007).                       %
     %   K. Berland et al., Rep. Prog. Phys. 78, 066501 (2015).             %
     %   D.C. Langreth et al., J. Phys.: Condens. Matter 21, 084203 (2009). %
     %                                                                      %
     %                                                                      %
     % If you are calculating the stress with vdW-DF, please also cite:     %
     %                                                                      %
     %   R. Sabatini et al., J. Phys.: Condens. Matter 24, 424209 (2012).   %
     %                                                                      %
     %%%%%%%%%%%%%%%%%%%%%%%%%%%%%%%%%%%%%%%%%%%%%%%%%%%%%%%%%%%%%%%%%%%%%%%%

     Adding external electric field

     Computed dipole along edir(3) :
        Dipole               -9.2540 Ry au,        -23.5213 Debye
        Dipole field         -0.0175 Ry au,

        Potential amp.        1.6188 Ry
        Total length         46.3494 bohr

     Starting wfcs are  301 atomic wfcs
  @ DRIVER MODE: Message from server: STATUS
  @ DRIVER MODE: Message from server: POSDATA
  @ DRIVER MODE: Reading and sharing cell
  @ DRIVER MODE: Reading and sharing positions
  @ DRIVER MODE: Received positions

     Self-consistent Calculation

     iteration #  1     ecut=    29.40 Ry     beta= 0.05
     Davidson diagonalization with overlap
     c_bands:  1 eigenvalues not converged
     c_bands:  2 eigenvalues not converged
     c_bands:  1 eigenvalues not converged
     c_bands:  2 eigenvalues not converged
     c_bands:  2 eigenvalues not converged
     c_bands:  1 eigenvalues not converged
     c_bands:  2 eigenvalues not converged
     c_bands:  2 eigenvalues not converged
     c_bands:  4 eigenvalues not converged
     ethr =  1.00E-05,  avg # of iterations = 19.7

[...]

     total energy              =   -2525.59583226 Ry
     estimated scf accuracy    <    4612.72625641 Ry

     iteration #  2     ecut=    29.40 Ry     beta= 0.05
     Davidson diagonalization with overlap
     ethr =  1.00E-02,  avg # of iterations = 22.9

[...]

     iteration # 54     ecut=    29.40 Ry     beta= 0.05
     Davidson diagonalization with overlap
     c_bands:  1 eigenvalues not converged
     ethr =  6.82E-08,  avg # of iterations = 15.7

[...]

     total energy              =   -2941.63746259 Ry
     estimated scf accuracy    <       0.00000010 Ry

     iteration # 68     ecut=    29.40 Ry     beta= 0.05
     Davidson diagonalization with overlap
     ethr =  2.46E-11,  avg # of iterations =  9.0

     negative rho (up, down):  1.675E-02 0.000E+00

     Adding external electric field

     Computed dipole along edir(3) :
        Dipole                1.1495 Ry au,          2.9217 Debye
        Dipole field          0.0022 Ry au,

        Potential amp.       -0.2011 Ry
        Total length         46.3494 bohr

     End of self-consistent calculation

          k = 0.0000 0.0000 0.0000 ( 18029 PWs)   bands (ev):

   -55.5725 -55.5695 -55.5357 -55.5355 -55.4588 -55.4225 -55.4209 -55.3874
   -55.3702 -55.3361 -55.3252 -55.2914 -55.0301 -54.8919 -54.5360 -54.5020
   -32.1352 -32.0506 -31.9560 -31.8919 -31.8869 -31.8722 -31.8622 -31.8178
   -31.8103 -31.8038 -31.7834 -31.7583 -31.7545 -31.7250 -31.7219 -31.7144
   -31.6726 -31.6595 -31.6567 -31.6478 -31.6469 -31.6270 -31.6106 -31.5949
   -31.5681 -31.5672 -31.5657 -31.5578 -31.5555 -31.5290 -31.5054 -31.5043
   -31.4986 -31.4918 -31.4798 -31.4736 -31.4389 -31.3067 -31.2554 -31.1612
   -31.1425 -31.0512 -30.9424 -30.8559 -30.8334 -30.7595 -30.6730 -30.5617
   -17.5661 -16.3612 -16.0480 -15.8368 -15.7257 -15.7212 -15.6373 -15.4163
   -15.2962 -15.2807 -15.1645 -15.1596 -15.1008 -15.0604 -15.0540 -15.0482
   -15.0134 -15.0014 -14.9828 -14.9525 -14.9142 -14.8966 -14.8766 -14.7704
   -14.7083 -14.6985 -14.6827 -14.6160 -14.5720 -14.2083 -13.0380 -12.9218
   -12.5560  -9.1933  -6.3413  -5.0897  -4.1982  -3.7395  -3.5485  -3.4728
    -3.4381  -3.3731  -3.3514  -3.1817  -3.1744  -2.7965  -2.7756  -2.7565
    -2.7349  -2.7322  -2.4643  -2.4104  -2.3947  -2.3922  -2.3744  -2.3572
    -2.3357  -2.3251  -2.2968  -2.2901  -2.1555  -2.1106  -2.0316  -2.0010
    -1.9909  -1.8778  -1.8544  -1.8329  -1.8220  -1.8078  -1.7790  -1.7715
    -1.7512  -1.6424  -1.5332  -1.4599  -1.4117  -1.3595  -1.3386  -1.1618
    -1.1113  -1.0513  -1.0264  -1.0020  -0.9871  -0.9535  -0.8796  -0.8564
    -0.7132  -0.6754  -0.6220  -0.5961  -0.5654  -0.5121  -0.4749  -0.4468
    -0.3518  -0.3375  -0.3258  -0.3129  -0.2534  -0.0650  -0.0179   0.0004
     0.0162   0.1159   0.1558   0.1782   0.2156   0.2714   0.2974   0.3642
     0.3939   0.4137   0.4238   0.4479   0.4699   0.6013   0.6277   0.6593
     0.7181   0.7720   0.8480   0.9594   1.0464   1.0997   1.2010   1.4193
     1.4865   1.5705   1.6802   1.7122   2.0560   2.1010   3.5655   3.6559
     3.6941   3.7080   3.8149   3.8665   4.0145   4.0243   4.0670   4.0962

[...]

          k = 0.0380-0.0419 0.0000 ( 17876 PWs)   bands (ev):

[...]

          k =-0.0760-0.0000 0.0000 ( 17886 PWs)   bands (ev):

[...]

          k =-0.0760-0.0839 0.0000 ( 17948 PWs)   bands (ev):

   -55.5573 -55.5530 -55.5518 -55.5507 -55.4479 -55.4317 -55.4074 -55.4023
   -55.3546 -55.3513 -55.3099 -55.3068 -55.0286 -54.8932 -54.5190 -54.5189
   -31.9402 -31.9314 -31.8664 -31.8656 -31.8481 -31.8471 -31.8423 -31.8271
   -31.8002 -31.7866 -31.7671 -31.7483 -31.7202 -31.7116 -31.7065 -31.6816
   -31.6794 -31.6728 -31.6714 -31.6672 -31.6639 -31.6514 -31.6482 -31.6439
   -31.6248 -31.6126 -31.6025 -31.6005 -31.5520 -31.5498 -31.5427 -31.5410
   -31.5339 -31.5303 -31.5253 -31.5237 -31.4129 -31.3204 -31.2572 -31.2206
   -31.1485 -31.0639 -30.8461 -30.8460 -30.7553 -30.7551 -30.7163 -30.7163
   -17.5540 -15.8189 -15.7833 -15.5257 -15.5181 -15.5163 -15.4747 -15.3521
   -15.3036 -15.2771 -15.2652 -15.2466 -15.2398 -15.1352 -15.1226 -15.1053
   -15.0955 -15.0697 -15.0260 -15.0202 -15.0127 -15.0027 -14.9908 -14.9265
   -14.8715 -14.8677 -14.7586 -14.6645 -14.5219 -14.4390 -13.0238 -13.0236
   -12.5752  -9.1544  -6.3001  -5.1188  -4.1312  -3.4219  -3.1200  -3.0761
    -2.7875  -2.7683  -2.7545  -2.6382  -2.5180  -2.5090  -2.4844  -2.4611
    -2.4284  -2.4140  -2.4057  -2.3973  -2.3788  -2.3603  -2.3493  -2.3106
    -2.2413  -2.2338  -2.2249  -2.2165  -2.2000  -2.1760  -2.1660  -2.1379
    -2.1135  -2.0803  -2.0211  -1.9903  -1.8395  -1.7933  -1.7358  -1.6951
    -1.6865  -1.6572  -1.6238  -1.6163  -1.5080  -1.4946  -1.4594  -1.3285
    -1.2675  -1.2595  -1.2270  -1.1414  -1.1014  -0.9725  -0.9586  -0.9231
    -0.8684  -0.8586  -0.8212  -0.7835  -0.7322  -0.6798  -0.6369  -0.6128
    -0.5939  -0.5233  -0.5226  -0.4775  -0.4193  -0.3495  -0.3257  -0.3176
    -0.2868  -0.2419  -0.1968  -0.1319  -0.0578  -0.0397  -0.0213   0.0757
     0.1516   0.3668   0.4139   0.5156   0.5357   0.5586   0.6238   0.6729
     0.7422   0.7564   0.7856   0.8590   0.8798   0.9725   0.9831   0.9992
     1.1781   1.6473   1.8519   1.8529   1.9207   1.9212   3.8596   3.8732
     3.8993   3.9232   4.0847   4.0885   4.1008   4.1035   4.2244   4.2542

     the Fermi energy is     3.5643 ev

!    total energy              =   -2941.63749881 Ry
     estimated scf accuracy    <       0.00000004 Ry
     smearing contrib. (-TS)   =      -0.02170751 Ry
     internal energy E=F+TS    =   -2941.61579130 Ry

     The total energy is F=E-TS. E is the sum of the following terms:
     one-electron contribution =  -24405.17744475 Ry
     hartree contribution      =   12294.53893885 Ry
     xc contribution           =    -486.94184690 Ry
     ewald contribution        =    9655.96206807 Ry
     electric field correction =       0.00249343 Ry

     convergence has been achieved in  68 iterations

     Forces acting on atoms (cartesian axes, Ry/au):

     atom    1 type  1   force =     0.00002637   -0.00019588    0.09683781
     atom    2 type  1   force =     0.00010690   -0.00067498   -0.17457150
     atom    3 type  2   force =     0.00020197   -0.00005329   -0.02506943
     atom    4 type  2   force =     0.00001542   -0.00122281    0.05111594
     atom    5 type  2   force =    -0.01108445   -0.00078960    0.00213051
     atom    6 type  2   force =     0.01303299   -0.00029274    0.00280742
     atom    7 type  1   force =     0.00114740    0.00020290   -0.01335801
     atom    8 type  1   force =    -0.00018350    0.01541158    0.02795871
     atom    9 type  2   force =    -0.00011474    0.00045385    0.00000396
     atom   10 type  2   force =    -0.00221439    0.00097772   -0.01127954
     atom   11 type  2   force =     0.00029170   -0.00011276    0.00017335
     atom   12 type  2   force =    -0.00027246   -0.00011510    0.00039304
     atom   13 type  1   force =    -0.00008608   -0.00027841    0.00012207
     atom   14 type  1   force =     0.00012264    0.00013021   -0.00005114
     atom   15 type  2   force =     0.00003383   -0.00104878   -0.00032258
     atom   16 type  2   force =    -0.00044348    0.00016103    0.00029201
     atom   17 type  2   force =    -0.00025266   -0.00004848   -0.00013925
     atom   18 type  2   force =    -0.00021923   -0.00009603    0.00006310
     atom   19 type  1   force =    -0.00006087    0.00020593   -0.00030158
     atom   20 type  1   force =    -0.00030409    0.00049408    0.00070148
     atom   21 type  2   force =     0.00004934   -0.00009761    0.10294977
     atom   22 type  2   force =    -0.00061953   -0.00150968    0.00023904
     atom   23 type  2   force =    -0.07181173   -0.00022088   -0.02778799
     atom   24 type  2   force =     0.07178311    0.00023632   -0.02784241
     atom   25 type  1   force =     0.00003966   -0.00022955    0.09637947
     atom   26 type  1   force =    -0.00000370   -0.00030956   -0.17484899
     atom   27 type  2   force =     0.00020232   -0.00025634   -0.02391477
     atom   28 type  2   force =     0.00007628   -0.00096175    0.05133965
     atom   29 type  2   force =    -0.01108291    0.00095564    0.00149221
     atom   30 type  2   force =     0.01288479    0.00119679    0.00212328
     atom   31 type  1   force =     0.00115776    0.00257432   -0.01566979
     atom   32 type  1   force =    -0.00002025   -0.01666955    0.02887146
     atom   33 type  2   force =    -0.00017897   -0.00045182    0.00043027
     atom   34 type  2   force =    -0.00258468    0.00114433   -0.01890889
     atom   35 type  2   force =    -0.00010488   -0.00011978    0.00003291
     atom   36 type  2   force =    -0.00004042   -0.00019350    0.00022546
     atom   37 type  1   force =    -0.00024926   -0.00018793    0.00053400
     atom   38 type  1   force =     0.00009713   -0.00053964    0.00034382
     atom   39 type  2   force =     0.00001688    0.00051550    0.00018838
     atom   40 type  2   force =    -0.00031926   -0.00012405   -0.00069056
     atom   41 type  2   force =     0.00038339   -0.00001167    0.00010797
     atom   42 type  2   force =    -0.00032501    0.00018689    0.00034308
     atom   43 type  1   force =     0.00000740   -0.00031722   -0.00077169
     atom   44 type  1   force =    -0.00031843    0.00046852    0.00068202
     atom   45 type  2   force =     0.00006263   -0.00011392    0.10295464
     atom   46 type  2   force =    -0.07182996   -0.00016897   -0.02780552
     atom   47 type  2   force =     0.07178866    0.00021630   -0.02785002
     atom   48 type  3   force =    -0.00336068    0.00507070   -0.00093274
     atom   49 type  4   force =     0.00059050   -0.00116359    0.00118970
     atom   50 type  5   force =    -0.00038047    0.00019017   -0.00023958
     atom   51 type  5   force =    -0.00010856   -0.00075873    0.00077619
     atom   52 type  5   force =     0.00159299   -0.00039341    0.00021156
     atom   53 type  3   force =     0.00189866   -0.00195463   -0.00112126
     atom   54 type  5   force =     0.00145355   -0.00058532    0.00100422
     atom   55 type  5   force =    -0.00048959    0.00147518   -0.00154123

     Total force =     0.367182     Total SCF correction =     0.000553
  @ DRIVER MODE: Message from server: STATUS
  @ DRIVER MODE: Message from server: GETFORCE
  @ DRIVER MODE: Returning v,forces,stress,ensemble

     Writing output data file ./calc.save/
  @ DRIVER MODE: Message from server: EXIT
  @ DRIVE MODE: Exiting

     General routines

     Parallel routines

   This run was terminated on:  13: 7:54   2Aug2021

   JOB DONE.