     Program PWSCF v.6.7GPU starts on 23Sep2021 at  2:17:28

     R & G space division:  proc/nbgrp/npool/nimage =      10
     Reading input from /storage/home/hcoda1/3/ntian30/research/carbon/CxH_vib/H2O_calc/ads_slab/CHNHNHHO_b/out_0031/pw.inp
Warning: card &CELL ignored
Warning: card   CELL_DYNAMICS='IPI', ignored
Warning: card / ignored

     Current dimensions of program PWSCF are:
     Max number of different atomic species (ntypx) = 10
     Max number of k-points (npk) =  40000
     Max angular momentum in pseudopotentials (lmaxx) =  3
     Presently no symmetry can be used with electric field

     Message from routine cell_base_init:
     DEPRECATED: use true lattice parameter, not A to a.u. conversion factor

     IMPORTANT: XC functional enforced from input :
     Exchange-correlation= BEEF-VDW
                           (   1   4  43  14   2   0   0)
     Any further DFT definition will be discarded
     Please, verify this is what you really want

  @ DRIVER MODE: Connecting to
 qe_1139763_2937316.sched-torque.pace.gatech.edumma7idf__scratch
  using UNIX socket
  @ DRIVER MODE: Message from server: STATUS
  @ DRIVER MODE: Message from server: INIT
  @ DRIVER MODE: Receiving replica           0          -1
  @ DRIVER MODE: Receiving encoded integer          25
  @ DRIVER MODE:  SCF:  T  FORCE:  T  STRESS:  F  VC:  F  ENSEMBLE:  F
  @ DRIVER MODE:  SCF:  T  FORCE:  T  STRESS:  F  VC:  F  ENSEMBLE:  F

     Using Slab Decomposition

     bravais-lattice index     =            0
     lattice parameter (alat)  =       1.8897  a.u.
     unit-cell volume          =    6658.9804 (a.u.)^3
     number of atoms/cell      =           55
     number of atomic types    =            5
     number of electrons       =       402.00
     number of Kohn-Sham states=          211
     kinetic-energy cutoff     =      29.3995  Ry
     charge density cutoff     =     293.9946  Ry
     scf convergence threshold =      7.3E-08
     mixing beta               =       0.0500
     number of iterations used =            8  plain     mixing
     Exchange-correlation= BEEF-VDW
                           (   1   4  43  14   2   0   0)

     celldm(1)=   1.889726  celldm(2)=   0.000000  celldm(3)=   0.000000
     celldm(4)=   0.000000  celldm(5)=   0.000000  celldm(6)=   0.000000

     crystal axes: (cart. coord. in units of alat)
               a(1) = (   6.579727   0.000000   0.000000 )
               a(2) = (  -0.000775   5.961596   0.000000 )
               a(3) = (   0.000000   0.000000  25.155947 )

     reciprocal axes: (cart. coord. in units 2 pi/alat)
               b(1) = (  0.151982  0.000020  0.000000 )
               b(2) = (  0.000000  0.167740  0.000000 )
               b(3) = (  0.000000  0.000000  0.039752 )

     PseudoPot. # 1 for Ti read from file:
     /storage/coda1/p-amedford6/0/shared/rich_project_chbe-medford/medford-share/data/pseudos_module/espresso/nninc/pbe/van/Ti.UPF
     MD5 check sum: 8e4df49b7f0d34bbd5052bf3f5ea0213
     Pseudo is Ultrasoft, Zval = 12.0
     Generated by new atomic code, or converted to UPF format
     Using radial grid of  851 points,  6 beta functions with:
                l(1) =   0
                l(2) =   0
                l(3) =   1
                l(4) =   1
                l(5) =   2
                l(6) =   2
     Q(r) pseudized with  8 coefficients,  rinner =    1.000   1.000   1.000
                                                       1.000   1.000

     PseudoPot. # 2 for O  read from file:
     /storage/coda1/p-amedford6/0/shared/rich_project_chbe-medford/medford-share/data/pseudos_module/espresso/nninc/pbe/van/O.UPF
     MD5 check sum: 78c19812648e8988a0fe644b0f25305e
     Pseudo is Ultrasoft, Zval =  6.0
     Generated by new atomic code, or converted to UPF format
     Using radial grid of  737 points,  4 beta functions with:
                l(1) =   0
                l(2) =   0
                l(3) =   1
                l(4) =   1
     Q(r) pseudized with  8 coefficients,  rinner =    0.800   0.800   0.800

     PseudoPot. # 3 for N  read from file:
     /storage/coda1/p-amedford6/0/shared/rich_project_chbe-medford/medford-share/data/pseudos_module/espresso/nninc/pbe/van/N.UPF
     MD5 check sum: 90d10febe142ad51ac9d5be1deb811c4
     Pseudo is Ultrasoft, Zval =  5.0
     Generated by new atomic code, or converted to UPF format
     Using radial grid of  729 points,  4 beta functions with:
                l(1) =   0
                l(2) =   0
                l(3) =   1
                l(4) =   1
     Q(r) pseudized with  8 coefficients,  rinner =    0.800   0.800   0.800

     PseudoPot. # 4 for C  read from file:
     /storage/coda1/p-amedford6/0/shared/rich_project_chbe-medford/medford-share/data/pseudos_module/espresso/nninc/pbe/van/C.UPF
     MD5 check sum: 1a69bf6b8db32088f5b2163dbdb77a27
     Pseudo is Ultrasoft, Zval =  4.0
     Generated by new atomic code, or converted to UPF format
     Using radial grid of  721 points,  4 beta functions with:
                l(1) =   0
                l(2) =   0
                l(3) =   1
                l(4) =   1
     Q(r) pseudized with  8 coefficients,  rinner =    0.800   0.800   0.800

     PseudoPot. # 5 for H  read from file:
     /storage/coda1/p-amedford6/0/shared/rich_project_chbe-medford/medford-share/data/pseudos_module/espresso/nninc/pbe/van/H.UPF
     MD5 check sum: b5ee9d7bfd3a09ee7748110bda690ff7
     Pseudo is Ultrasoft, Zval =  1.0
     Generated by new atomic code, or converted to UPF format
     Using radial grid of  615 points,  1 beta functions with:
                l(1) =   0
     Q(r) pseudized with  8 coefficients,  rinner =    0.800

     atomic species   valence    mass     pseudopotential
        Ti1           12.00    47.86700     Ti( 1.00)
        O1             6.00    15.99900     O ( 1.00)
        N1             5.00    14.00700     N ( 1.00)
        C1             4.00    12.01100     C ( 1.00)
        H1             1.00     1.00800     H ( 1.00)

     No symmetry found

   Cartesian axes

     site n.     atom                  positions (alat units)
         1           Ti1 tau(   1) = (   0.0004258   2.9801865   6.0000000  )
         2           Ti1 tau(   2) = (   3.2906075   1.4906267   6.0002472  )
         3           O1  tau(   3) = (   0.0006271   0.0005054   7.9858123  )
         4           O1  tau(   4) = (   3.2906025   0.0005020   7.3038282  )
         5           O1  tau(   5) = (   4.5942328   1.4918067   9.2879030  )
         6           O1  tau(   6) = (   1.9868534   1.4903216   9.2879459  )
         7           Ti1 tau(   7) = (   3.2907910   2.8959150   9.1758416  )
         8           Ti1 tau(   8) = (   0.0015273   1.4827037   9.2680791  )
         9           O1  tau(   9) = (   3.2644249   0.0086278  11.2869930  )
        10           O1  tau(  10) = (   0.0116148   5.9584955  10.6183126  )
        11           O1  tau(  11) = (   1.2700591   1.4733127  12.6309263  )
        12           O1  tau(  12) = (   5.2751843   1.4954020  12.5848179  )
        13           Ti1 tau(  13) = (   6.5455424   3.1153876  12.7101385  )
        14           Ti1 tau(  14) = (   3.2833704   1.6184148  12.4736748  )
        15           O1  tau(  15) = (   6.4599305   0.0050319  14.6091115  )
        16           O1  tau(  16) = (   3.3300269   5.9263713  13.9180617  )
        17           O1  tau(  17) = (   4.5165145   1.5716339  16.0125648  )
        18           O1  tau(  18) = (   1.9127028   1.4417528  15.8564018  )
        19           Ti1 tau(  19) = (   3.2288969   3.0847727  15.7886749  )
        20           Ti1 tau(  20) = (   6.4478006   1.4606891  15.8161894  )
        21           O1  tau(  21) = (   3.2904802   0.0005063   4.7018136  )
        22           O1  tau(  22) = (   6.4882405   0.0114324  17.1415363  )
        23           O1  tau(  23) = (   1.3043587   1.4918075   6.0039043  )
        24           O1  tau(  24) = (   5.2767064   1.4903225   6.0039473  )
        25           Ti1 tau(  25) = (   0.0000382   5.9609847   6.0000000  )
        26           Ti1 tau(  26) = (   3.2902200   4.4714249   6.0002472  )
        27           O1  tau(  27) = (   0.0002396   2.9813036   7.9858123  )
        28           O1  tau(  28) = (   3.2902150   2.9813002   7.3038282  )
        29           O1  tau(  29) = (   4.5938453   4.4726049   9.2879030  )
        30           O1  tau(  30) = (   1.9864658   4.4711199   9.2879459  )
        31           Ti1 tau(  31) = (   3.2891106   5.8743827   9.1763621  )
        32           Ti1 tau(  32) = (   0.0006254   4.4649316   9.2693709  )
        33           O1  tau(  33) = (   3.2692249   2.9538419  11.2423542  )
        34           O1  tau(  34) = (   0.0092240   2.9805883  10.6323155  )
        35           O1  tau(  35) = (   1.2565178   4.4877289  12.6449601  )
        36           O1  tau(  36) = (   5.2732762   4.4628510  12.5929129  )
        37           Ti1 tau(  37) = (   6.5734634   0.1294159  12.5697125  )
        38           Ti1 tau(  38) = (   3.2704022   4.6437612  12.6513646  )
        39           O1  tau(  39) = (   6.5063912   2.9643141  14.6466205  )
        40           O1  tau(  40) = (   3.2471416   2.9787476  13.8564769  )
        41           O1  tau(  41) = (   4.5405411   4.3625105  16.0593999  )
        42           O1  tau(  42) = (   1.9254132   4.5167653  15.8604027  )
        43           Ti1 tau(  43) = (   3.1528194   0.1083906  16.0566338  )
        44           Ti1 tau(  44) = (   6.5270785   4.6226534  15.9816197  )
        45           O1  tau(  45) = (   3.2900926   2.9813045   4.7018136  )
        46           O1  tau(  46) = (   1.3039711   4.4726057   6.0039043  )
        47           O1  tau(  47) = (   5.2763189   4.4711207   6.0039473  )
        48           N1  tau(  48) = (   1.2829970   2.9130689  18.3045482  )
        49           N1  tau(  49) = (   0.1654257   2.9641015  17.4510142  )
        50           C1  tau(  50) = (   2.5260228   2.9473648  17.9488278  )
        51           H1  tau(  51) = (   3.1619500   2.8785295  18.8336233  )
        52           H1  tau(  52) = (   1.0209804   2.8219014  19.2831343  )
        53           H1  tau(  53) = (   5.9203595   2.9248499  18.0583253  )
        54           O1  tau(  54) = (   3.2854906   0.0173217  17.9285145  )
        55           H1  tau(  55) = (   4.1908827   5.7946650  18.2246816  )

     number of k points=    10  Fermi-Dirac smearing, width (Ry)=  0.0073
                       cart. coord. in units 2pi/alat
        k(    1) = (   0.0000000   0.0000000   0.0000000), wk =   0.1250000
        k(    2) = (   0.0000000   0.0419351   0.0000000), wk =   0.2500000
        k(    3) = (   0.0000000  -0.0838702   0.0000000), wk =   0.1250000
        k(    4) = (   0.0379955   0.0000049   0.0000000), wk =   0.2500000
        k(    5) = (   0.0379955   0.0419400   0.0000000), wk =   0.2500000
        k(    6) = (   0.0379955  -0.0838652   0.0000000), wk =   0.2500000
        k(    7) = (   0.0379955  -0.0419301   0.0000000), wk =   0.2500000
        k(    8) = (  -0.0759910  -0.0000099   0.0000000), wk =   0.1250000
        k(    9) = (  -0.0759910   0.0419252   0.0000000), wk =   0.2500000
        k(   10) = (  -0.0759910  -0.0838800   0.0000000), wk =   0.1250000

     Initial potential from superposition of free atoms

     starting charge  385.99915, renormalised to  402.00000

     negative rho (up, down):  1.797E-02 0.000E+00

     %%%%%%%%%%%%%%%%%%%%%%%%%%%%%%%%%%%%%%%%%%%%%%%%%%%%%%%%%%%%%%%%%%%%%%%%
     %                                                                      %
     % You are using vdW-DF, which was implemented by the Thonhauser group. %
     % Please cite the following two papers that made this development      %
     % possible and the two reviews that describe the various versions:     %
     %                                                                      %
     %   T. Thonhauser et al., PRL 115, 136402 (2015).                      %
     %   T. Thonhauser et al., PRB 76, 125112 (2007).                       %
     %   K. Berland et al., Rep. Prog. Phys. 78, 066501 (2015).             %
     %   D.C. Langreth et al., J. Phys.: Condens. Matter 21, 084203 (2009). %
     %                                                                      %
     %                                                                      %
     % If you are calculating the stress with vdW-DF, please also cite:     %
     %                                                                      %
     %   R. Sabatini et al., J. Phys.: Condens. Matter 24, 424209 (2012).   %
     %                                                                      %
     %%%%%%%%%%%%%%%%%%%%%%%%%%%%%%%%%%%%%%%%%%%%%%%%%%%%%%%%%%%%%%%%%%%%%%%%

     Adding external electric field

     Computed dipole along edir(3) :
        Dipole              -10.6951 Ry au,        -27.1842 Debye
        Dipole field         -0.0202 Ry au,

        Potential amp.        1.8709 Ry
        Total length         46.3494 bohr

     Starting wfcs are  304 atomic wfcs
  @ DRIVER MODE: Message from server: STATUS
  @ DRIVER MODE: Message from server: POSDATA
  @ DRIVER MODE: Reading and sharing cell
  @ DRIVER MODE: Reading and sharing positions
  @ DRIVER MODE: Received positions

     Self-consistent Calculation

     iteration #  1     ecut=    29.40 Ry     beta= 0.05
     Davidson diagonalization with overlap
     c_bands:  2 eigenvalues not converged
     c_bands:  4 eigenvalues not converged
     c_bands:  4 eigenvalues not converged
     c_bands:  3 eigenvalues not converged
     c_bands:  3 eigenvalues not converged
     c_bands:  3 eigenvalues not converged
     c_bands:  2 eigenvalues not converged
     c_bands:  4 eigenvalues not converged
     c_bands:  4 eigenvalues not converged
     ethr =  1.00E-05,  avg # of iterations = 21.9

[...]

     total energy              =   -2414.34660442 Ry
     estimated scf accuracy    <    6226.53935326 Ry

     iteration #  2     ecut=    29.40 Ry     beta= 0.05
     Davidson diagonalization with overlap
     ethr =  1.00E-02,  avg # of iterations = 25.3

[...]

     iteration # 40     ecut=    29.40 Ry     beta= 0.05
     Davidson diagonalization with overlap
     c_bands:  1 eigenvalues not converged
     c_bands:  1 eigenvalues not converged
     c_bands:  1 eigenvalues not converged
     ethr =  6.85E-06,  avg # of iterations = 16.3

[...]

     total energy              =   -2972.68736939 Ry
     estimated scf accuracy    <       0.00000009 Ry

     iteration # 77     ecut=    29.40 Ry     beta= 0.05
     Davidson diagonalization with overlap
     ethr =  2.13E-11,  avg # of iterations =  1.4

     negative rho (up, down):  1.822E-02 0.000E+00

     Adding external electric field

     Computed dipole along edir(3) :
        Dipole                0.6931 Ry au,          1.7617 Debye
        Dipole field          0.0013 Ry au,

        Potential amp.       -0.1212 Ry
        Total length         46.3494 bohr

     End of self-consistent calculation

          k = 0.0000 0.0000 0.0000 ( 18029 PWs)   bands (ev):

   -56.6065 -56.5730 -55.7181 -55.6844 -55.4146 -55.3708 -55.1428 -55.1090
   -54.9715 -54.9630 -54.9323 -54.8930 -54.8131 -54.7846 -54.7815 -54.7094
   -33.0247 -32.8788 -32.8508 -32.7847 -32.6945 -32.6519 -32.2067 -31.9406
   -31.9027 -31.9013 -31.8649 -31.8535 -31.8285 -31.6437 -31.6343 -31.6067
   -31.5719 -31.5273 -31.5142 -31.4912 -31.4669 -31.4667 -31.4486 -31.3788
   -31.3454 -31.2874 -31.2753 -31.2662 -31.2323 -31.2284 -31.1776 -31.1644
   -31.1546 -31.1131 -31.1079 -31.0946 -31.0686 -31.0619 -31.0605 -31.0230
   -31.0083 -31.0050 -30.9972 -30.9856 -30.9427 -30.9212 -30.9167 -30.9023
   -18.0568 -16.7066 -16.1529 -15.9190 -15.7963 -15.7789 -15.7693 -15.7531
   -15.5608 -15.5099 -15.4068 -15.3287 -15.3060 -15.0724 -15.0473 -14.9752
   -14.8433 -14.8084 -14.7249 -14.6987 -14.6892 -14.6087 -14.5946 -14.5085
   -14.4585 -14.4412 -14.3537 -14.2453 -14.1916 -14.0803 -14.0358 -13.6404
   -13.5339 -12.9370  -8.2613  -6.7597  -4.2806  -3.8388  -3.6182  -3.4602
    -3.2994  -3.2664  -3.1173  -3.0845  -3.0430  -3.0113  -2.9529  -2.9367
    -2.8640  -2.8440  -2.7426  -2.7023  -2.6578  -2.6394  -2.4087  -2.3507
    -2.3144  -2.3127  -2.2080  -2.1331  -2.1107  -2.1058  -2.0365  -1.9668
    -1.9085  -1.8628  -1.8450  -1.8241  -1.7998  -1.7007  -1.6150  -1.6026
    -1.5962  -1.5530  -1.4399  -1.4143  -1.3923  -1.3303  -1.2654  -1.1989
    -1.1736  -1.1506  -1.0519  -1.0411  -0.9384  -0.9105  -0.8743  -0.8199
    -0.7412  -0.7150  -0.5951  -0.5845  -0.4769  -0.4700  -0.4427  -0.4369
    -0.3372  -0.2575  -0.2031  -0.1514  -0.1269  -0.1058  -0.0470  -0.0405
    -0.0035   0.0325   0.1083   0.2004   0.2633   0.2986   0.3414   0.4966
     0.5382   0.5681   0.5824   0.6708   0.7145   0.7364   0.7697   0.8475
     0.8750   0.8782   0.9768   1.0147   1.0548   1.0788   1.1380   1.1748
     1.2034   1.3807   1.4128   1.4335   1.4547   1.5304   1.7651   1.7994
     1.9345   2.6882   2.8616   3.1310   3.2874   3.6537   3.6737   3.6923
     3.6934   3.9717   4.1416

[...]

          k = 0.0380-0.0419 0.0000 ( 17876 PWs)   bands (ev):

[...]

          k =-0.0760-0.0000 0.0000 ( 17886 PWs)   bands (ev):

[...]

          k =-0.0760-0.0839 0.0000 ( 17948 PWs)   bands (ev):

   -56.5899 -56.5894 -55.7029 -55.6994 -55.4066 -55.3787 -55.1259 -55.1258
   -54.9697 -54.9586 -54.9306 -54.8973 -54.8104 -54.7855 -54.7837 -54.7120
   -32.8648 -32.8644 -32.8425 -32.8415 -32.7382 -32.7382 -32.0295 -32.0253
   -31.9002 -31.8924 -31.8767 -31.8758 -31.7195 -31.6980 -31.6315 -31.6235
   -31.6052 -31.6001 -31.4797 -31.4797 -31.3851 -31.3450 -31.3447 -31.3064
   -31.3059 -31.2911 -31.2703 -31.2456 -31.2224 -31.2079 -31.1950 -31.1888
   -31.1723 -31.1465 -31.1442 -31.1326 -31.1184 -31.0998 -31.0785 -31.0617
   -31.0496 -31.0400 -31.0251 -31.0145 -31.0086 -30.9612 -30.9217 -30.9099
   -18.0517 -16.0713 -16.0683 -16.0166 -16.0159 -15.7688 -15.7614 -15.7024
   -15.4582 -15.4529 -15.2655 -15.1527 -15.1306 -15.0724 -15.0684 -14.9364
   -14.9165 -14.8982 -14.8103 -14.7603 -14.7270 -14.7051 -14.6414 -14.5717
   -14.4610 -14.4430 -14.4291 -14.3932 -14.3376 -14.2438 -14.2060 -13.6388
   -13.6378 -12.9578  -8.2531  -6.6773  -3.9924  -3.2944  -3.1349  -3.1339
    -3.1334  -3.1121  -2.9087  -2.8928  -2.8844  -2.7139  -2.6204  -2.6147
    -2.6099  -2.4738  -2.4417  -2.4243  -2.4166  -2.3955  -2.3273  -2.3130
    -2.3086  -2.2739  -2.2511  -2.0972  -2.0891  -2.0398  -1.9712  -1.9620
    -1.9398  -1.9062  -1.8415  -1.8036  -1.7984  -1.7814  -1.7638  -1.7436
    -1.6986  -1.6443  -1.4471  -1.3998  -1.3830  -1.3633  -1.3184  -1.3096
    -1.2903  -1.2323  -1.1948  -1.1853  -1.1604  -1.1329  -1.0603  -1.0406
    -0.9948  -0.8624  -0.8141  -0.7865  -0.7502  -0.6577  -0.6177  -0.5889
    -0.5557  -0.4695  -0.4124  -0.3794  -0.3017  -0.2639  -0.2188  -0.1928
    -0.1695  -0.1240  -0.1032   0.0030   0.0588   0.0904   0.1134   0.1987
     0.3281   0.3442   0.3981   0.4467   0.5392   0.5780   0.6559   0.6982
     0.7805   0.8584   0.9291   1.0797   1.1154   1.1712   1.2377   1.2549
     1.2567   1.2855   1.2964   1.3399   1.3615   1.4456   1.5206   1.6802
     1.7008   3.2831   3.2846   3.3422   3.3457   3.6510   3.6571   3.7599
     3.7669   4.0780   4.1282

     the Fermi energy is     2.3652 ev

!    total energy              =   -2972.68738695 Ry
     estimated scf accuracy    <       0.00000006 Ry
     smearing contrib. (-TS)   =      -0.00152090 Ry
     internal energy E=F+TS    =   -2972.68586605 Ry

     The total energy is F=E-TS. E is the sum of the following terms:
     one-electron contribution =  -24519.49703836 Ry
     hartree contribution      =   12356.04587613 Ry
     xc contribution           =    -493.18527747 Ry
     ewald contribution        =    9683.94966707 Ry
     electric field correction =       0.00090658 Ry

     convergence has been achieved in  77 iterations

     Forces acting on atoms (cartesian axes, Ry/au):

     atom    1 type  1   force =     0.00016184   -0.00061222    0.12521148
     atom    2 type  1   force =     0.00002446    0.00002843   -0.15412472
     atom    3 type  2   force =    -0.00002893   -0.00028331   -0.06549670
     atom    4 type  2   force =    -0.00011320    0.00074004    0.01449265
     atom    5 type  2   force =     0.00023149   -0.00325737   -0.01521687
     atom    6 type  2   force =     0.00028166   -0.00242164   -0.01818166
     atom    7 type  1   force =    -0.00129681   -0.00082527    0.06316325
     atom    8 type  1   force =     0.00165356    0.01846907    0.09183617
     atom    9 type  2   force =     0.00018310   -0.00020506   -0.00008678
     atom   10 type  2   force =    -0.00307437    0.00125794   -0.06786211
     atom   11 type  2   force =    -0.00035645   -0.00020772   -0.00022835
     atom   12 type  2   force =    -0.00028615    0.00043039    0.00014319
     atom   13 type  1   force =     0.00102748    0.00024907   -0.00004527
     atom   14 type  1   force =    -0.00051030    0.00061460   -0.00060270
     atom   15 type  2   force =    -0.00003435    0.00062757    0.00012031
     atom   16 type  2   force =     0.00008067    0.00019072   -0.00018342
     atom   17 type  2   force =    -0.00033421    0.00020936   -0.00014022
     atom   18 type  2   force =     0.00086617   -0.00063062    0.00004051
     atom   19 type  1   force =    -0.00041280   -0.00033153   -0.00028201
     atom   20 type  1   force =     0.00068186   -0.00034438   -0.00016859
     atom   21 type  2   force =     0.00008232    0.00004913    0.09751938
     atom   22 type  2   force =    -0.00021905    0.00023467    0.00043937
     atom   23 type  2   force =    -0.08326156    0.00000958   -0.03310131
     atom   24 type  2   force =     0.08317601    0.00045161   -0.03312027
     atom   25 type  1   force =     0.00015185   -0.00036699    0.12544621
     atom   26 type  1   force =    -0.00002273   -0.00122626   -0.15379372
     atom   27 type  2   force =    -0.00002086   -0.00014902   -0.06358310
     atom   28 type  2   force =     0.00000339    0.00070825    0.01024902
     atom   29 type  2   force =    -0.00228143    0.00250933   -0.01350962
     atom   30 type  2   force =     0.00266862    0.00282607   -0.01639307
     atom   31 type  1   force =    -0.00126585   -0.00143501    0.06109549
     atom   32 type  1   force =     0.00158167   -0.01942630    0.09388903
     atom   33 type  2   force =     0.00026046   -0.00000041   -0.00020046
     atom   34 type  2   force =    -0.00075904    0.00124506   -0.07929145
     atom   35 type  2   force =     0.00029211   -0.00003031    0.00008193
     atom   36 type  2   force =    -0.00053063    0.00015840    0.00039747
     atom   37 type  1   force =     0.00094437    0.00012055    0.00035466
     atom   38 type  1   force =    -0.00055690   -0.00027486   -0.00007448
     atom   39 type  2   force =     0.00033007    0.00014685   -0.00006706
     atom   40 type  2   force =    -0.00014594    0.00011605    0.00044628
     atom   41 type  2   force =    -0.00025975   -0.00006811   -0.00040114
     atom   42 type  2   force =     0.00054752   -0.00024394    0.00025786
     atom   43 type  1   force =    -0.00102652   -0.00039754   -0.00056361
     atom   44 type  1   force =     0.00035170    0.00082713   -0.00017458
     atom   45 type  2   force =     0.00007291    0.00005772    0.09737925
     atom   46 type  2   force =    -0.08320416   -0.00003518   -0.03308579
     atom   47 type  2   force =     0.08315243    0.00037909   -0.03309168
     atom   48 type  3   force =    -0.00091496   -0.00020531    0.00104911
     atom   49 type  3   force =    -0.00924712   -0.00047215    0.00594330
     atom   50 type  4   force =     0.00032394   -0.00023748   -0.00019273
     atom   51 type  5   force =    -0.00029048   -0.00023022   -0.00030139
     atom   52 type  5   force =     0.00019808   -0.00013447   -0.00058429
     atom   53 type  5   force =     0.01080524    0.00014926   -0.00589008
     atom   54 type  2   force =     0.00005431    0.00046647    0.00060382
     atom   55 type  5   force =     0.00026528    0.00078024   -0.00012049

     Total force =     0.420104     Total SCF correction =     0.000647
  @ DRIVER MODE: Message from server: STATUS
  @ DRIVER MODE: Message from server: GETFORCE
  @ DRIVER MODE: Returning v,forces,stress,ensemble

     Writing output data file ./calc.save/
  @ DRIVER MODE: Message from server: EXIT
  @ DRIVE MODE: Exiting

     General routines

     Parallel routines

   This run was terminated on:   2:38:50  23Sep2021

   JOB DONE.