     Program PWSCF v.6.7GPU starts on 22Sep2021 at 23: 5:28

     R & G space division:  proc/nbgrp/npool/nimage =      10
     Reading input from /storage/home/hcoda1/3/ntian30/research/carbon/CxH_vib/H2O_calc/ads_slab/CH3NHO_a/out_0022/pw.inp
Warning: card &CELL ignored
Warning: card   CELL_DYNAMICS='IPI', ignored
Warning: card / ignored

     Current dimensions of program PWSCF are:
     Max number of different atomic species (ntypx) = 10
     Max number of k-points (npk) =  40000
     Max angular momentum in pseudopotentials (lmaxx) =  3
     Presently no symmetry can be used with electric field

     Message from routine cell_base_init:
     DEPRECATED: use true lattice parameter, not A to a.u. conversion factor

     IMPORTANT: XC functional enforced from input :
     Exchange-correlation= BEEF-VDW
                           (   1   4  43  14   2   0   0)
     Any further DFT definition will be discarded
     Please, verify this is what you really want

  @ DRIVER MODE: Connecting to
 qe_1139763_2937319.sched-torque.pace.gatech.eduel2bg756_scratch
  using UNIX socket
  @ DRIVER MODE: Message from server: STATUS
  @ DRIVER MODE: Message from server: INIT
  @ DRIVER MODE: Receiving replica           0          -1
  @ DRIVER MODE: Receiving encoded integer          25
  @ DRIVER MODE:  SCF:  T  FORCE:  T  STRESS:  F  VC:  F  ENSEMBLE:  F
  @ DRIVER MODE:  SCF:  T  FORCE:  T  STRESS:  F  VC:  F  ENSEMBLE:  F

     Using Slab Decomposition

     bravais-lattice index     =            0
     lattice parameter (alat)  =       1.8897  a.u.
     unit-cell volume          =    6658.9804 (a.u.)^3
     number of atoms/cell      =           54
     number of atomic types    =            5
     number of electrons       =       397.00
     number of Kohn-Sham states=          208
     kinetic-energy cutoff     =      29.3995  Ry
     charge density cutoff     =     293.9946  Ry
     scf convergence threshold =      7.3E-08
     mixing beta               =       0.0500
     number of iterations used =            8  plain     mixing
     Exchange-correlation= BEEF-VDW
                           (   1   4  43  14   2   0   0)

     celldm(1)=   1.889726  celldm(2)=   0.000000  celldm(3)=   0.000000
     celldm(4)=   0.000000  celldm(5)=   0.000000  celldm(6)=   0.000000

     crystal axes: (cart. coord. in units of alat)
               a(1) = (   6.579727   0.000000   0.000000 )
               a(2) = (  -0.000775   5.961596   0.000000 )
               a(3) = (   0.000000   0.000000  25.155947 )

     reciprocal axes: (cart. coord. in units 2 pi/alat)
               b(1) = (  0.151982  0.000020  0.000000 )
               b(2) = (  0.000000  0.167740  0.000000 )
               b(3) = (  0.000000  0.000000  0.039752 )

     PseudoPot. # 1 for Ti read from file:
     /storage/coda1/p-amedford6/0/shared/rich_project_chbe-medford/medford-share/data/pseudos_module/espresso/nninc/pbe/van/Ti.UPF
     MD5 check sum: 8e4df49b7f0d34bbd5052bf3f5ea0213
     Pseudo is Ultrasoft, Zval = 12.0
     Generated by new atomic code, or converted to UPF format
     Using radial grid of  851 points,  6 beta functions with:
                l(1) =   0
                l(2) =   0
                l(3) =   1
                l(4) =   1
                l(5) =   2
                l(6) =   2
     Q(r) pseudized with  8 coefficients,  rinner =    1.000   1.000   1.000
                                                       1.000   1.000

     PseudoPot. # 2 for O  read from file:
     /storage/coda1/p-amedford6/0/shared/rich_project_chbe-medford/medford-share/data/pseudos_module/espresso/nninc/pbe/van/O.UPF
     MD5 check sum: 78c19812648e8988a0fe644b0f25305e
     Pseudo is Ultrasoft, Zval =  6.0
     Generated by new atomic code, or converted to UPF format
     Using radial grid of  737 points,  4 beta functions with:
                l(1) =   0
                l(2) =   0
                l(3) =   1
                l(4) =   1
     Q(r) pseudized with  8 coefficients,  rinner =    0.800   0.800   0.800

     PseudoPot. # 3 for N  read from file:
     /storage/coda1/p-amedford6/0/shared/rich_project_chbe-medford/medford-share/data/pseudos_module/espresso/nninc/pbe/van/N.UPF
     MD5 check sum: 90d10febe142ad51ac9d5be1deb811c4
     Pseudo is Ultrasoft, Zval =  5.0
     Generated by new atomic code, or converted to UPF format
     Using radial grid of  729 points,  4 beta functions with:
                l(1) =   0
                l(2) =   0
                l(3) =   1
                l(4) =   1
     Q(r) pseudized with  8 coefficients,  rinner =    0.800   0.800   0.800

     PseudoPot. # 4 for C  read from file:
     /storage/coda1/p-amedford6/0/shared/rich_project_chbe-medford/medford-share/data/pseudos_module/espresso/nninc/pbe/van/C.UPF
     MD5 check sum: 1a69bf6b8db32088f5b2163dbdb77a27
     Pseudo is Ultrasoft, Zval =  4.0
     Generated by new atomic code, or converted to UPF format
     Using radial grid of  721 points,  4 beta functions with:
                l(1) =   0
                l(2) =   0
                l(3) =   1
                l(4) =   1
     Q(r) pseudized with  8 coefficients,  rinner =    0.800   0.800   0.800

     PseudoPot. # 5 for H  read from file:
     /storage/coda1/p-amedford6/0/shared/rich_project_chbe-medford/medford-share/data/pseudos_module/espresso/nninc/pbe/van/H.UPF
     MD5 check sum: b5ee9d7bfd3a09ee7748110bda690ff7
     Pseudo is Ultrasoft, Zval =  1.0
     Generated by new atomic code, or converted to UPF format
     Using radial grid of  615 points,  1 beta functions with:
                l(1) =   0
     Q(r) pseudized with  8 coefficients,  rinner =    0.800

     atomic species   valence    mass     pseudopotential
        Ti1           12.00    47.86700     Ti( 1.00)
        O1             6.00    15.99900     O ( 1.00)
        N1             5.00    14.00700     N ( 1.00)
        C1             4.00    12.01100     C ( 1.00)
        H1             1.00     1.00800     H ( 1.00)

     No symmetry found

   Cartesian axes

     site n.     atom                  positions (alat units)
         1           Ti1 tau(   1) = (   0.0004258   2.9801865   6.0000000  )
         2           Ti1 tau(   2) = (   3.2906075   1.4906267   6.0002472  )
         3           O1  tau(   3) = (   0.0006271   0.0005054   7.9858123  )
         4           O1  tau(   4) = (   3.2906025   0.0005020   7.3038282  )
         5           O1  tau(   5) = (   4.5942328   1.4918067   9.2879030  )
         6           O1  tau(   6) = (   1.9868534   1.4903216   9.2879459  )
         7           Ti1 tau(   7) = (   3.2907910   2.8959150   9.1758416  )
         8           Ti1 tau(   8) = (   0.0015273   1.4827037   9.2680791  )
         9           O1  tau(   9) = (   3.2880966   5.9442215  11.2779904  )
        10           O1  tau(  10) = (   0.0116148   5.9584955  10.6183126  )
        11           O1  tau(  11) = (   1.2901275   1.4920942  12.6240107  )
        12           O1  tau(  12) = (   5.2966278   1.4852543  12.6143030  )
        13           Ti1 tau(  13) = (   0.0031916   3.1007002  12.7073671  )
        14           Ti1 tau(  14) = (   3.2978183   1.3116672  12.6600973  )
        15           O1  tau(  15) = (   6.5743189   0.0224225  14.6379036  )
        16           O1  tau(  16) = (   3.2931419   0.0435670  13.8892854  )
        17           O1  tau(  17) = (   4.5409235   1.5821231  16.0748620  )
        18           O1  tau(  18) = (   2.0417342   1.5698890  16.0900686  )
        19           Ti1 tau(  19) = (   3.2746960   3.0378214  15.6558348  )
        20           Ti1 tau(  20) = (   6.4705883   1.5381531  15.9030332  )
        21           O1  tau(  21) = (   3.2904802   0.0005063   4.7018136  )
        22           O1  tau(  22) = (   6.5584422   0.0457650  17.1906971  )
        23           O1  tau(  23) = (   1.3043587   1.4918075   6.0039043  )
        24           O1  tau(  24) = (   5.2767064   1.4903225   6.0039473  )
        25           Ti1 tau(  25) = (   0.0000382   5.9609847   6.0000000  )
        26           Ti1 tau(  26) = (   3.2902200   4.4714249   6.0002472  )
        27           O1  tau(  27) = (   0.0002396   2.9813036   7.9858123  )
        28           O1  tau(  28) = (   3.2902150   2.9813002   7.3038282  )
        29           O1  tau(  29) = (   4.5938453   4.4726049   9.2879030  )
        30           O1  tau(  30) = (   1.9864658   4.4711199   9.2879459  )
        31           Ti1 tau(  31) = (   3.2891106   5.8743827   9.1763621  )
        32           Ti1 tau(  32) = (   0.0006254   4.4649316   9.2693709  )
        33           O1  tau(  33) = (   3.2918970   3.0256722  11.2465752  )
        34           O1  tau(  34) = (   0.0092240   2.9805883  10.6323155  )
        35           O1  tau(  35) = (   1.2932338   4.4650182  12.6342030  )
        36           O1  tau(  36) = (   5.2897350   4.4662865  12.6224893  )
        37           Ti1 tau(  37) = (   0.0112454   0.1207271  12.6557084  )
        38           Ti1 tau(  38) = (   3.2993242   4.4067673  12.4119285  )
        39           O1  tau(  39) = (   6.5542949   2.9732608  14.6543823  )
        40           O1  tau(  40) = (   3.2957262   2.9928748  13.8751945  )
        41           O1  tau(  41) = (   4.5169628   4.4726675  16.1294972  )
        42           O1  tau(  42) = (   2.0179035   4.4711894  16.0655614  )
        43           Ti1 tau(  43) = (   3.1791666   0.0518155  16.3463265  )
        44           Ti1 tau(  44) = (   6.5235282   4.6410908  16.0777984  )
        45           O1  tau(  45) = (   3.2900926   2.9813045   4.7018136  )
        46           O1  tau(  46) = (   1.3039711   4.4726057   6.0039043  )
        47           O1  tau(  47) = (   5.2763189   4.4711207   6.0039473  )
        48           N1  tau(  48) = (   0.0679940   2.9882472  17.3287890  )
        49           C1  tau(  49) = (   0.3445104   2.8919884  18.7043053  )
        50           H1  tau(  50) = (   0.5935414   3.8503421  19.1719745  )
        51           H1  tau(  51) = (   6.0379261   2.4744003  19.2136804  )
        52           H1  tau(  52) = (   1.1315070   2.1426081  18.8955932  )
        53           O1  tau(  53) = (   3.2362511   0.0690349  18.1809703  )
        54           H1  tau(  54) = (   3.8186072   5.4079590  18.6400750  )

     number of k points=    10  Fermi-Dirac smearing, width (Ry)=  0.0073
                       cart. coord. in units 2pi/alat
        k(    1) = (   0.0000000   0.0000000   0.0000000), wk =   0.1250000
        k(    2) = (   0.0000000   0.0419351   0.0000000), wk =   0.2500000
        k(    3) = (   0.0000000  -0.0838702   0.0000000), wk =   0.1250000
        k(    4) = (   0.0379955   0.0000049   0.0000000), wk =   0.2500000
        k(    5) = (   0.0379955   0.0419400   0.0000000), wk =   0.2500000
        k(    6) = (   0.0379955  -0.0838652   0.0000000), wk =   0.2500000
        k(    7) = (   0.0379955  -0.0419301   0.0000000), wk =   0.2500000
        k(    8) = (  -0.0759910  -0.0000099   0.0000000), wk =   0.1250000
        k(    9) = (  -0.0759910   0.0419252   0.0000000), wk =   0.2500000
        k(   10) = (  -0.0759910  -0.0838800   0.0000000), wk =   0.1250000

     Initial potential from superposition of free atoms

     starting charge  380.99916, renormalised to  397.00000

     negative rho (up, down):  1.676E-02 0.000E+00

     %%%%%%%%%%%%%%%%%%%%%%%%%%%%%%%%%%%%%%%%%%%%%%%%%%%%%%%%%%%%%%%%%%%%%%%%
     %                                                                      %
     % You are using vdW-DF, which was implemented by the Thonhauser group. %
     % Please cite the following two papers that made this development      %
     % possible and the two reviews that describe the various versions:     %
     %                                                                      %
     %   T. Thonhauser et al., PRL 115, 136402 (2015).                      %
     %   T. Thonhauser et al., PRB 76, 125112 (2007).                       %
     %   K. Berland et al., Rep. Prog. Phys. 78, 066501 (2015).             %
     %   D.C. Langreth et al., J. Phys.: Condens. Matter 21, 084203 (2009). %
     %                                                                      %
     %                                                                      %
     % If you are calculating the stress with vdW-DF, please also cite:     %
     %                                                                      %
     %   R. Sabatini et al., J. Phys.: Condens. Matter 24, 424209 (2012).   %
     %                                                                      %
     %%%%%%%%%%%%%%%%%%%%%%%%%%%%%%%%%%%%%%%%%%%%%%%%%%%%%%%%%%%%%%%%%%%%%%%%

     Adding external electric field

     Computed dipole along edir(3) :
        Dipole               -8.2921 Ry au,        -21.0764 Debye
        Dipole field         -0.0156 Ry au,

        Potential amp.        1.4506 Ry
        Total length         46.3494 bohr

     Starting wfcs are  300 atomic wfcs
  @ DRIVER MODE: Message from server: STATUS
  @ DRIVER MODE: Message from server: POSDATA
  @ DRIVER MODE: Reading and sharing cell
  @ DRIVER MODE: Reading and sharing positions
  @ DRIVER MODE: Received positions

     Self-consistent Calculation

     iteration #  1     ecut=    29.40 Ry     beta= 0.05
     Davidson diagonalization with overlap
     c_bands:  1 eigenvalues not converged
     c_bands:  1 eigenvalues not converged
     c_bands:  1 eigenvalues not converged
     c_bands:  3 eigenvalues not converged
     c_bands:  2 eigenvalues not converged
     c_bands:  1 eigenvalues not converged
     c_bands:  1 eigenvalues not converged
     ethr =  1.00E-05,  avg # of iterations = 19.2

[...]

     total energy              =   -2606.53670213 Ry
     estimated scf accuracy    <    3819.83440322 Ry

     iteration #  2     ecut=    29.40 Ry     beta= 0.05
     Davidson diagonalization with overlap
     ethr =  1.00E-02,  avg # of iterations = 24.9

[...]

     iteration # 50     ecut=    29.40 Ry     beta= 0.05
     Davidson diagonalization with overlap
     c_bands:  1 eigenvalues not converged
     ethr =  1.07E-06,  avg # of iterations =  5.4

[...]

     total energy              =   -2952.64746124 Ry
     estimated scf accuracy    <       0.00000015 Ry

     iteration # 78     ecut=    29.40 Ry     beta= 0.05
     Davidson diagonalization with overlap
     ethr =  2.62E-11,  avg # of iterations =  6.0

     negative rho (up, down):  1.696E-02 0.000E+00

     Adding external electric field

     Computed dipole along edir(3) :
        Dipole                0.3601 Ry au,          0.9154 Debye
        Dipole field          0.0007 Ry au,

        Potential amp.       -0.0630 Ry
        Total length         46.3494 bohr

     End of self-consistent calculation

          k = 0.0000 0.0000 0.0000 ( 18029 PWs)   bands (ev):

   -56.8766 -56.8431 -55.9467 -55.9112 -55.7362 -55.6715 -55.5491 -55.4279
   -55.3940 -55.3135 -55.3114 -55.2408 -55.2191 -55.1155 -55.0474 -54.9194
   -33.2953 -33.1468 -33.1187 -33.0564 -32.9662 -32.9224 -32.4279 -32.2115
   -32.1669 -32.1467 -32.0912 -32.0828 -32.0573 -31.9700 -31.9486 -31.9064
   -31.8906 -31.8741 -31.8337 -31.8058 -31.7951 -31.7936 -31.7804 -31.7749
   -31.7504 -31.7303 -31.6654 -31.6320 -31.5910 -31.5824 -31.5517 -31.5285
   -31.5159 -31.5082 -31.4749 -31.4659 -31.4403 -31.4305 -31.4084 -31.3942
   -31.3562 -31.3061 -31.2987 -31.2829 -31.2511 -31.1913 -31.1560 -31.1027
   -16.9793 -16.4634 -16.4173 -16.1928 -16.0703 -16.0645 -16.0190 -15.9568
   -15.7839 -15.7296 -15.6899 -15.6265 -15.4751 -15.3648 -15.2679 -15.0718
   -15.0367 -15.0052 -15.0031 -14.9898 -14.9589 -14.9466 -14.8710 -14.8202
   -14.7893 -14.7073 -14.7003 -14.5393 -14.3102 -14.2871 -13.9256 -13.8186
   -13.7974  -8.0392  -4.5551  -4.0907  -3.8857  -3.7106  -3.5612  -3.4817
    -3.4622  -3.3951  -3.3812  -3.2582  -3.2359  -3.2318  -3.2233  -3.1389
    -3.0733  -3.0162  -2.9269  -2.9114  -2.8207  -2.7702  -2.6112  -2.5762
    -2.4888  -2.4104  -2.4048  -2.3385  -2.3191  -2.2775  -2.2420  -2.2114
    -2.1815  -2.1387  -2.0838  -2.0743  -1.9794  -1.9724  -1.8908  -1.8750
    -1.8687  -1.7471  -1.7086  -1.6489  -1.5091  -1.4878  -1.4704  -1.4395
    -1.4008  -1.3408  -1.2354  -1.1785  -1.1493  -1.0958  -1.0258  -0.9692
    -0.9488  -0.8751  -0.8481  -0.7738  -0.7297  -0.7152  -0.6950  -0.6697
    -0.5319  -0.4498  -0.4150  -0.3625  -0.3474  -0.3085  -0.2835  -0.2283
    -0.1703  -0.1486  -0.0494  -0.0475   0.0894   0.1573   0.1597   0.2580
     0.3024   0.3088   0.3657   0.4343   0.4460   0.5098   0.5299   0.5880
     0.5932   0.6363   0.7198   0.7969   0.8401   0.8698   0.9104   0.9308
     1.0427   1.0676   1.1306   1.1870   1.4999   1.5700   2.1764   2.4178
     2.5898   2.8672   3.0628   3.3624   3.4038   3.4220   3.4222   3.7323

[...]

          k = 0.0380-0.0419 0.0000 ( 17876 PWs)   bands (ev):

[...]

          k =-0.0760-0.0000 0.0000 ( 17886 PWs)   bands (ev):

[...]

          k =-0.0760-0.0839 0.0000 ( 17948 PWs)   bands (ev):

   -56.8605 -56.8590 -55.9347 -55.9230 -55.7314 -55.6762 -55.5483 -55.4115
   -55.4103 -55.3141 -55.3068 -55.2450 -55.2177 -55.1140 -55.0489 -54.9208
   -33.1333 -33.1318 -33.1133 -33.1118 -33.0105 -33.0093 -32.2530 -32.2428
   -32.1293 -32.1251 -32.1172 -32.1162 -32.0296 -31.9890 -31.9632 -31.9494
   -31.9018 -31.9003 -31.8341 -31.7917 -31.7715 -31.7639 -31.7630 -31.6863
   -31.6364 -31.6317 -31.6303 -31.6050 -31.5948 -31.5917 -31.5905 -31.5842
   -31.5355 -31.5276 -31.5110 -31.4853 -31.4805 -31.4649 -31.4351 -31.4105
   -31.3940 -31.3590 -31.3082 -31.2929 -31.2599 -31.2569 -31.1584 -31.1404
   -16.4527 -16.3371 -16.3353 -16.2927 -16.2913 -16.0276 -16.0231 -15.7750
   -15.7459 -15.5700 -15.4583 -15.4361 -15.3945 -15.3540 -15.2764 -15.2254
   -15.2122 -15.1842 -15.1577 -15.0854 -15.0515 -14.9504 -14.9148 -14.8530
   -14.8183 -14.7450 -14.7047 -14.6763 -14.4808 -14.4202 -13.9231 -13.9226
   -13.8207  -8.0380  -4.0944  -3.4631  -3.4142  -3.4098  -3.3743  -3.3673
    -3.3052  -3.1629  -3.1596  -3.0438  -2.9587  -2.9318  -2.9021  -2.8481
    -2.8343  -2.7383  -2.6887  -2.6838  -2.6683  -2.6339  -2.6028  -2.5957
    -2.5380  -2.4112  -2.3666  -2.3295  -2.2897  -2.2218  -2.1904  -2.1825
    -2.1499  -2.1106  -2.0921  -2.0631  -2.0507  -2.0440  -2.0335  -1.9465
    -1.7994  -1.7724  -1.6793  -1.6765  -1.6664  -1.6266  -1.5970  -1.5829
    -1.5628  -1.5290  -1.4525  -1.4266  -1.3625  -1.2264  -1.2134  -1.1790
    -1.1253  -1.0225  -1.0078  -0.9119  -0.8941  -0.8840  -0.8195  -0.7976
    -0.7808  -0.7185  -0.6809  -0.5609  -0.4895  -0.4810  -0.4632  -0.4541
    -0.4036  -0.3559  -0.2833  -0.2796  -0.2631  -0.1550  -0.0590   0.0358
     0.0414   0.1098   0.1257   0.1803   0.3378   0.3484   0.3902   0.4517
     0.5680   0.6596   0.7134   0.8130   0.8460   0.9518   0.9702   0.9752
     0.9945   1.0033   1.0474   1.1030   1.1665   1.4814   1.9759   3.0106
     3.0138   3.0721   3.0777   3.3889   3.3911   3.5033   3.5082   3.8288

     the Fermi energy is     2.0738 ev

!    total energy              =   -2952.64747217 Ry
     estimated scf accuracy    <       0.00000003 Ry
     smearing contrib. (-TS)   =      -0.01069034 Ry
     internal energy E=F+TS    =   -2952.63678183 Ry

     The total energy is F=E-TS. E is the sum of the following terms:
     one-electron contribution =  -24061.20739813 Ry
     hartree contribution      =   12121.04908927 Ry
     xc contribution           =    -487.77972043 Ry
     ewald contribution        =    9475.30100271 Ry
     electric field correction =       0.00024475 Ry

     convergence has been achieved in  78 iterations

     Forces acting on atoms (cartesian axes, Ry/au):

     atom    1 type  1   force =     0.00005839   -0.00036831    0.12635302
     atom    2 type  1   force =    -0.00006070    0.00038895   -0.15472417
     atom    3 type  2   force =     0.00003734    0.00023132   -0.06868011
     atom    4 type  2   force =     0.00004390    0.00001499    0.01721672
     atom    5 type  2   force =    -0.00541854   -0.00183226   -0.01283668
     atom    6 type  2   force =     0.00700158   -0.00107164   -0.01373733
     atom    7 type  1   force =    -0.00029600   -0.00640979    0.05894226
     atom    8 type  1   force =     0.00058368    0.00674809    0.10096660
     atom    9 type  2   force =     0.00031933    0.00036244    0.00013004
     atom   10 type  2   force =    -0.00198492    0.00132202   -0.06337374
     atom   11 type  2   force =    -0.00016498   -0.00065936    0.00024025
     atom   12 type  2   force =    -0.00037014   -0.00040401    0.00005832
     atom   13 type  1   force =     0.00057823   -0.00073188    0.00028728
     atom   14 type  1   force =    -0.00003116   -0.00055095    0.00121208
     atom   15 type  2   force =    -0.00000243   -0.00000481    0.00023375
     atom   16 type  2   force =     0.00005856   -0.00020865   -0.00085028
     atom   17 type  2   force =    -0.00041322   -0.00053044   -0.00042991
     atom   18 type  2   force =    -0.00038081   -0.00059293   -0.00062507
     atom   19 type  1   force =     0.00124492    0.00039001   -0.00081757
     atom   20 type  1   force =    -0.00073720    0.00091728   -0.00062373
     atom   21 type  2   force =     0.00009641    0.00015192    0.09785124
     atom   22 type  2   force =    -0.00011378   -0.00006183   -0.00037861
     atom   23 type  2   force =    -0.08272937    0.00003191   -0.03314421
     atom   24 type  2   force =     0.08269871    0.00046280   -0.03320801
     atom   25 type  1   force =     0.00005128   -0.00039990    0.12672166
     atom   26 type  1   force =    -0.00004892   -0.00139223   -0.15488287
     atom   27 type  2   force =     0.00012000   -0.00036970   -0.06708266
     atom   28 type  2   force =     0.00007193    0.00176949    0.01243635
     atom   29 type  2   force =    -0.00384073    0.00476825   -0.01597877
     atom   30 type  2   force =     0.00537059    0.00500788   -0.01690702
     atom   31 type  1   force =    -0.00028956    0.00187821    0.04203365
     atom   32 type  1   force =     0.00074772   -0.00886688    0.10189639
     atom   33 type  2   force =    -0.00004758   -0.00034700   -0.00059086
     atom   34 type  2   force =    -0.00187789    0.00206037   -0.07569816
     atom   35 type  2   force =     0.00013724   -0.00012867   -0.00047314
     atom   36 type  2   force =    -0.00030848    0.00006892   -0.00019315
     atom   37 type  1   force =     0.00046912    0.00053482    0.00039687
     atom   38 type  1   force =    -0.00035024   -0.00073877   -0.00035400
     atom   39 type  2   force =     0.00001921   -0.00049076    0.00058966
     atom   40 type  2   force =    -0.00008665   -0.00056338   -0.00044980
     atom   41 type  2   force =     0.00043843   -0.00036011   -0.00066214
     atom   42 type  2   force =    -0.00136094    0.00017717   -0.00006248
     atom   43 type  1   force =     0.00081496   -0.00067525   -0.00067182
     atom   44 type  1   force =    -0.00115786   -0.00064571   -0.00010481
     atom   45 type  2   force =     0.00008430   -0.00002825    0.09770187
     atom   46 type  2   force =    -0.08276494    0.00001823   -0.03315560
     atom   47 type  2   force =     0.08272948    0.00043223   -0.03320324
     atom   48 type  3   force =     0.00021966   -0.00072204   -0.00124195
     atom   49 type  4   force =     0.00239295    0.00191648   -0.00148655
     atom   50 type  5   force =     0.00065101    0.00033237    0.00026863
     atom   51 type  5   force =    -0.00250056   -0.00260625    0.00142193
     atom   52 type  5   force =    -0.00125734    0.00055309    0.00048207
     atom   53 type  2   force =     0.00034116    0.00027660   -0.00089866
     atom   54 type  5   force =     0.00121485    0.00094594    0.00008644

     Total force =     0.421187     Total SCF correction =     0.000542
  @ DRIVER MODE: Message from server: STATUS
  @ DRIVER MODE: Message from server: GETFORCE
  @ DRIVER MODE: Returning v,forces,stress,ensemble

     Writing output data file ./calc.save/
  @ DRIVER MODE: Message from server: EXIT
  @ DRIVE MODE: Exiting

     General routines

     Parallel routines

   This run was terminated on:  23:25:22  22Sep2021

   JOB DONE.