     Program PWSCF v.6.7GPU starts on 26Sep2021 at  9:11:31

     R & G space division:  proc/nbgrp/npool/nimage =       8
     Reading input from /storage/home/hcoda1/3/ntian30/research/carbon/CxH_vib/H2O_calc/ads_slab/CH2OHN2HO_a/out_0033/pw.inp
Warning: card &CELL ignored
Warning: card   CELL_DYNAMICS='IPI', ignored
Warning: card / ignored

     Current dimensions of program PWSCF are:
     Max number of different atomic species (ntypx) = 10
     Max number of k-points (npk) =  40000
     Max angular momentum in pseudopotentials (lmaxx) =  3
     Presently no symmetry can be used with electric field

     Message from routine cell_base_init:
     DEPRECATED: use true lattice parameter, not A to a.u. conversion factor

     IMPORTANT: XC functional enforced from input :
     Exchange-correlation= BEEF-VDW
                           (   1   4  43  14   2   0   0)
     Any further DFT definition will be discarded
     Please, verify this is what you really want

  @ DRIVER MODE: Connecting to
 qe_1139763_2971670.sched-torque.pace.gatech.eduybh2wmz3_scratch
  using UNIX socket
  @ DRIVER MODE: Message from server: STATUS
  @ DRIVER MODE: Message from server: INIT
  @ DRIVER MODE: Receiving replica           0          -1
  @ DRIVER MODE: Receiving encoded integer          25
  @ DRIVER MODE:  SCF:  T  FORCE:  T  STRESS:  F  VC:  F  ENSEMBLE:  F
  @ DRIVER MODE:  SCF:  T  FORCE:  T  STRESS:  F  VC:  F  ENSEMBLE:  F

     Using Slab Decomposition

     bravais-lattice index     =            0
     lattice parameter (alat)  =       1.8897  a.u.
     unit-cell volume          =    6658.9804 (a.u.)^3
     number of atoms/cell      =           56
     number of atomic types    =            5
     number of electrons       =       408.00
     number of Kohn-Sham states=          214
     kinetic-energy cutoff     =      29.3995  Ry
     charge density cutoff     =     293.9946  Ry
     scf convergence threshold =      7.3E-08
     mixing beta               =       0.0500
     number of iterations used =            8  plain     mixing
     Exchange-correlation= BEEF-VDW
                           (   1   4  43  14   2   0   0)

     celldm(1)=   1.889726  celldm(2)=   0.000000  celldm(3)=   0.000000
     celldm(4)=   0.000000  celldm(5)=   0.000000  celldm(6)=   0.000000

     crystal axes: (cart. coord. in units of alat)
               a(1) = (   6.579727   0.000000   0.000000 )
               a(2) = (  -0.000775   5.961596   0.000000 )
               a(3) = (   0.000000   0.000000  25.155947 )

     reciprocal axes: (cart. coord. in units 2 pi/alat)
               b(1) = (  0.151982  0.000020  0.000000 )
               b(2) = (  0.000000  0.167740  0.000000 )
               b(3) = (  0.000000  0.000000  0.039752 )

     PseudoPot. # 1 for C  read from file:
     /storage/coda1/p-amedford6/0/shared/rich_project_chbe-medford/medford-share/data/pseudos_module/espresso/nninc/pbe/van/C.UPF
     MD5 check sum: 1a69bf6b8db32088f5b2163dbdb77a27
     Pseudo is Ultrasoft, Zval =  4.0
     Generated by new atomic code, or converted to UPF format
     Using radial grid of  721 points,  4 beta functions with:
                l(1) =   0
                l(2) =   0
                l(3) =   1
                l(4) =   1
     Q(r) pseudized with  8 coefficients,  rinner =    0.800   0.800   0.800

     PseudoPot. # 2 for H  read from file:
     /storage/coda1/p-amedford6/0/shared/rich_project_chbe-medford/medford-share/data/pseudos_module/espresso/nninc/pbe/van/H.UPF
     MD5 check sum: b5ee9d7bfd3a09ee7748110bda690ff7
     Pseudo is Ultrasoft, Zval =  1.0
     Generated by new atomic code, or converted to UPF format
     Using radial grid of  615 points,  1 beta functions with:
                l(1) =   0
     Q(r) pseudized with  8 coefficients,  rinner =    0.800

     PseudoPot. # 3 for O  read from file:
     /storage/coda1/p-amedford6/0/shared/rich_project_chbe-medford/medford-share/data/pseudos_module/espresso/nninc/pbe/van/O.UPF
     MD5 check sum: 78c19812648e8988a0fe644b0f25305e
     Pseudo is Ultrasoft, Zval =  6.0
     Generated by new atomic code, or converted to UPF format
     Using radial grid of  737 points,  4 beta functions with:
                l(1) =   0
                l(2) =   0
                l(3) =   1
                l(4) =   1
     Q(r) pseudized with  8 coefficients,  rinner =    0.800   0.800   0.800

     PseudoPot. # 4 for Ti read from file:
     /storage/coda1/p-amedford6/0/shared/rich_project_chbe-medford/medford-share/data/pseudos_module/espresso/nninc/pbe/van/Ti.UPF
     MD5 check sum: 8e4df49b7f0d34bbd5052bf3f5ea0213
     Pseudo is Ultrasoft, Zval = 12.0
     Generated by new atomic code, or converted to UPF format
     Using radial grid of  851 points,  6 beta functions with:
                l(1) =   0
                l(2) =   0
                l(3) =   1
                l(4) =   1
                l(5) =   2
                l(6) =   2
     Q(r) pseudized with  8 coefficients,  rinner =    1.000   1.000   1.000
                                                       1.000   1.000

     PseudoPot. # 5 for N  read from file:
     /storage/coda1/p-amedford6/0/shared/rich_project_chbe-medford/medford-share/data/pseudos_module/espresso/nninc/pbe/van/N.UPF
     MD5 check sum: 90d10febe142ad51ac9d5be1deb811c4
     Pseudo is Ultrasoft, Zval =  5.0
     Generated by new atomic code, or converted to UPF format
     Using radial grid of  729 points,  4 beta functions with:
                l(1) =   0
                l(2) =   0
                l(3) =   1
                l(4) =   1
     Q(r) pseudized with  8 coefficients,  rinner =    0.800   0.800   0.800

     atomic species   valence    mass     pseudopotential
        C1             4.00    12.01100     C ( 1.00)
        H1             1.00     1.00800     H ( 1.00)
        O1             6.00    15.99900     O ( 1.00)
        Ti1           12.00    47.86700     Ti( 1.00)
        N1             5.00    14.00700     N ( 1.00)

     No symmetry found

   Cartesian axes

     site n.     atom                  positions (alat units)
         1           C1  tau(   1) = (   4.4694424   3.1333252  19.5683752  )
         2           H1  tau(   2) = (   3.5225350   3.1610456  19.0510688  )
         3           H1  tau(   3) = (   5.8501665   2.9975095  17.9951248  )
         4           H1  tau(   4) = (   4.8161173   2.2403860  20.0673745  )
         5           O1  tau(   5) = (   0.0006271   0.0005054   7.9858123  )
         6           O1  tau(   6) = (   3.2906025   0.0005020   7.3038282  )
         7           O1  tau(   7) = (   4.5942328   1.4918067   9.2879030  )
         8           O1  tau(   8) = (   1.9868534   1.4903216   9.2879459  )
         9           O1  tau(   9) = (   3.2658522   0.0207364  11.3165592  )
        10           O1  tau(  10) = (   0.0022773   0.0111808  10.5833539  )
        11           O1  tau(  11) = (   1.2584498   1.5025451  12.6333345  )
        12           O1  tau(  12) = (   5.2827793   1.4879884  12.6049259  )
        13           O1  tau(  13) = (   6.5229081   0.0016576  14.6697044  )
        14           O1  tau(  14) = (   3.2671471   5.9223268  13.9212949  )
        15           O1  tau(  15) = (   4.5038562   1.5078053  16.0770842  )
        16           O1  tau(  16) = (   1.9713840   1.5400684  15.9915579  )
        17           O1  tau(  17) = (   3.2904802   0.0005063   4.7018136  )
        18           O1  tau(  18) = (   0.0083768   5.9574009  17.1899481  )
        19           O1  tau(  19) = (   1.3043587   1.4918075   6.0039043  )
        20           O1  tau(  20) = (   5.2767064   1.4903225   6.0039473  )
        21           O1  tau(  21) = (   0.0002396   2.9813036   7.9858123  )
        22           O1  tau(  22) = (   3.2902150   2.9813002   7.3038282  )
        23           O1  tau(  23) = (   4.5938453   4.4726049   9.2879030  )
        24           O1  tau(  24) = (   1.9864658   4.4711199   9.2879459  )
        25           O1  tau(  25) = (   3.2699439   2.9592623  11.2883102  )
        26           O1  tau(  26) = (   0.0014687   2.9942081  10.5424492  )
        27           O1  tau(  27) = (   1.2624719   4.4656417  12.6394791  )
        28           O1  tau(  28) = (   5.2897987   4.4902883  12.6063686  )
        29           O1  tau(  29) = (   6.5205774   2.9949485  14.6561412  )
        30           O1  tau(  30) = (   3.3050662   2.9767913  13.8748461  )
        31           O1  tau(  31) = (   4.4950179   4.4323158  16.0974573  )
        32           O1  tau(  32) = (   1.9671975   4.4064719  15.9829847  )
        33           O1  tau(  33) = (   3.2900926   2.9813045   4.7018136  )
        34           O1  tau(  34) = (   1.3039711   4.4726057   6.0039043  )
        35           O1  tau(  35) = (   5.2763189   4.4711207   6.0039473  )
        36           O1  tau(  36) = (   6.5424668   2.9800173  17.2949776  )
        37           Ti1 tau(  37) = (   0.0004258   2.9801865   6.0000000  )
        38           Ti1 tau(  38) = (   3.2906075   1.4906267   6.0002472  )
        39           Ti1 tau(  39) = (   3.3167600   3.1006338   9.2159236  )
        40           Ti1 tau(  40) = (   0.0391818   1.5627686   9.3440282  )
        41           Ti1 tau(  41) = (   6.5783755   3.0458713  12.7937554  )
        42           Ti1 tau(  42) = (   3.2318486   1.5634082  12.4209175  )
        43           Ti1 tau(  43) = (   3.2670811   2.9501284  15.6494465  )
        44           Ti1 tau(  44) = (   0.0280251   1.4030395  16.0254105  )
        45           Ti1 tau(  45) = (   0.0000382   5.9609847   6.0000000  )
        46           Ti1 tau(  46) = (   3.2902200   4.4714249   6.0002472  )
        47           Ti1 tau(  47) = (   3.3194908   0.1157174   9.1781592  )
        48           Ti1 tau(  48) = (   0.0398790   4.5135925   9.3581580  )
        49           Ti1 tau(  49) = (   6.5007586   0.0629955  12.6074658  )
        50           Ti1 tau(  50) = (   3.2510718   4.6571100  12.6672192  )
        51           Ti1 tau(  51) = (   3.3282601   5.9350673  16.2366838  )
        52           Ti1 tau(  52) = (   0.0495319   4.5308688  15.9870001  )
        53           N1  tau(  53) = (   5.2748021   5.2635043  20.4272172  )
        54           N1  tau(  54) = (   4.8779203   4.2732533  20.0576380  )
        55           O1  tau(  55) = (   3.0402417   5.9484128  18.0530970  )
        56           H1  tau(  56) = (   2.1234608   0.1014992  18.3542784  )

     number of k points=    10  Fermi-Dirac smearing, width (Ry)=  0.0073
                       cart. coord. in units 2pi/alat
        k(    1) = (   0.0000000   0.0000000   0.0000000), wk =   0.1250000
        k(    2) = (   0.0000000   0.0419351   0.0000000), wk =   0.2500000
        k(    3) = (   0.0000000  -0.0838702   0.0000000), wk =   0.1250000
        k(    4) = (   0.0379955   0.0000049   0.0000000), wk =   0.2500000
        k(    5) = (   0.0379955   0.0419400   0.0000000), wk =   0.2500000
        k(    6) = (   0.0379955  -0.0838652   0.0000000), wk =   0.2500000
        k(    7) = (   0.0379955  -0.0419301   0.0000000), wk =   0.2500000
        k(    8) = (  -0.0759910  -0.0000099   0.0000000), wk =   0.1250000
        k(    9) = (  -0.0759910   0.0419252   0.0000000), wk =   0.2500000
        k(   10) = (  -0.0759910  -0.0838800   0.0000000), wk =   0.1250000

     Initial potential from superposition of free atoms

     starting charge  391.99915, renormalised to  408.00000

     negative rho (up, down):  1.414E-02 0.000E+00

     %%%%%%%%%%%%%%%%%%%%%%%%%%%%%%%%%%%%%%%%%%%%%%%%%%%%%%%%%%%%%%%%%%%%%%%%
     %                                                                      %
     % You are using vdW-DF, which was implemented by the Thonhauser group. %
     % Please cite the following two papers that made this development      %
     % possible and the two reviews that describe the various versions:     %
     %                                                                      %
     %   T. Thonhauser et al., PRL 115, 136402 (2015).                      %
     %   T. Thonhauser et al., PRB 76, 125112 (2007).                       %
     %   K. Berland et al., Rep. Prog. Phys. 78, 066501 (2015).             %
     %   D.C. Langreth et al., J. Phys.: Condens. Matter 21, 084203 (2009). %
     %                                                                      %
     %                                                                      %
     % If you are calculating the stress with vdW-DF, please also cite:     %
     %                                                                      %
     %   R. Sabatini et al., J. Phys.: Condens. Matter 24, 424209 (2012).   %
     %                                                                      %
     %%%%%%%%%%%%%%%%%%%%%%%%%%%%%%%%%%%%%%%%%%%%%%%%%%%%%%%%%%%%%%%%%%%%%%%%

     Adding external electric field

     Computed dipole along edir(3) :
        Dipole              -15.5929 Ry au,        -39.6331 Debye
        Dipole field         -0.0294 Ry au,

        Potential amp.        2.7277 Ry
        Total length         46.3494 bohr

     Starting wfcs are  308 atomic wfcs
  @ DRIVER MODE: Message from server: STATUS
  @ DRIVER MODE: Message from server: POSDATA
  @ DRIVER MODE: Reading and sharing cell
  @ DRIVER MODE: Reading and sharing positions
  @ DRIVER MODE: Received positions

     Self-consistent Calculation

     iteration #  1     ecut=    29.40 Ry     beta= 0.05
     Davidson diagonalization with overlap
     c_bands:  3 eigenvalues not converged
     c_bands:  1 eigenvalues not converged
     c_bands:  1 eigenvalues not converged
     c_bands:  2 eigenvalues not converged
     c_bands:  4 eigenvalues not converged
     c_bands:  2 eigenvalues not converged
     ethr =  1.00E-05,  avg # of iterations = 30.1

[...]

     total energy              =   -2234.20296646 Ry
     estimated scf accuracy    <    8817.51107996 Ry

     iteration #  2     ecut=    29.40 Ry     beta= 0.05
     Davidson diagonalization with overlap
     ethr =  1.00E-02,  avg # of iterations = 30.0

[...]

     iteration # 34     ecut=    29.40 Ry     beta= 0.05
     Davidson diagonalization with overlap
     c_bands:  2 eigenvalues not converged
     c_bands:  2 eigenvalues not converged
     ethr =  2.08E-06,  avg # of iterations = 17.7

[...]

     total energy              =   -3005.15856184 Ry
     estimated scf accuracy    <       0.00000042 Ry

     iteration # 55     ecut=    29.40 Ry     beta= 0.05
     Davidson diagonalization with overlap
     ethr =  4.66E-11,  avg # of iterations =  5.0

     negative rho (up, down):  1.448E-02 0.000E+00

     Adding external electric field

     Computed dipole along edir(3) :
        Dipole                0.5033 Ry au,          1.2793 Debye
        Dipole field          0.0009 Ry au,

        Potential amp.       -0.0881 Ry
        Total length         46.3494 bohr

     End of self-consistent calculation

          k = 0.0000 0.0000 0.0000 ( 18029 PWs)   bands (ev):

   -56.1912 -56.1448 -55.6482 -55.6423 -55.6241 -55.5775 -55.5658 -55.5252
   -55.5136 -55.4850 -55.4409 -55.3985 -55.3943 -55.2711 -54.8156 -54.7817
   -32.6054 -32.4545 -32.4058 -32.3715 -32.2771 -32.2318 -32.1420 -32.0826
   -32.0731 -32.0186 -31.9516 -31.9393 -31.9370 -31.8822 -31.8815 -31.8740
   -31.8592 -31.8402 -31.8254 -31.8069 -31.7977 -31.7893 -31.7530 -31.7291
   -31.7257 -31.7080 -31.7029 -31.6990 -31.6983 -31.6900 -31.6839 -31.6763
   -31.6646 -31.6468 -31.6437 -31.6022 -31.5934 -31.5861 -31.5604 -31.5249
   -31.4846 -31.4729 -31.2105 -31.1549 -31.1306 -31.0274 -30.9425 -30.8315
   -20.7685 -16.8378 -16.4156 -16.3545 -16.2116 -15.9814 -15.8444 -15.7600
   -15.5291 -15.5124 -15.3995 -15.3908 -15.3477 -15.2356 -15.2213 -15.1845
   -15.1789 -15.1651 -15.1520 -15.1173 -15.1126 -15.1053 -15.0380 -15.0102
   -14.9827 -14.9388 -14.8841 -14.8435 -14.7739 -14.7684 -14.7240 -14.5202
   -13.7712 -13.3164 -13.2073  -6.3316  -5.4172  -4.8574  -4.3276  -4.0114
    -3.8797  -3.6640  -3.5692  -3.5600  -3.4053  -3.3689  -3.2716  -3.0520
    -2.9190  -2.8364  -2.8060  -2.7459  -2.7231  -2.6531  -2.6189  -2.6097
    -2.5693  -2.5195  -2.4733  -2.4560  -2.4476  -2.4197  -2.3833  -2.3513
    -2.3353  -2.3320  -2.2920  -2.1453  -2.1322  -2.0744  -2.0653  -2.0188
    -2.0125  -1.9840  -1.9734  -1.9276  -1.8904  -1.7510  -1.7332  -1.7193
    -1.6517  -1.4333  -1.3987  -1.3018  -1.2422  -1.2078  -1.1117  -1.1103
    -1.0785  -1.0482  -0.9995  -0.9193  -0.8856  -0.8294  -0.7839  -0.7768
    -0.7277  -0.6608  -0.6114  -0.5527  -0.5161  -0.4773  -0.3984  -0.3468
    -0.2808  -0.2616  -0.2117  -0.1729  -0.0816  -0.0476  -0.0191   0.0334
     0.0580   0.1228   0.1264   0.1671   0.1853   0.2648   0.2937   0.3114
     0.3613   0.3870   0.4023   0.4644   0.5272   0.5706   0.6160   0.7179
     0.7623   0.7878   0.8582   0.9346   1.1031   1.2029   1.2317   1.4271
     1.4595   1.7565   1.8045   1.8650   3.1068   3.2716   3.5594   3.6476
     3.6859   3.7170   3.8141   3.8440   4.0000   4.0531

[...]

          k = 0.0380-0.0419 0.0000 ( 17876 PWs)   bands (ev):

[...]

          k =-0.0760-0.0000 0.0000 ( 17886 PWs)   bands (ev):

[...]

          k =-0.0760-0.0839 0.0000 ( 17948 PWs)   bands (ev):

   -56.1840 -56.1519 -55.6464 -55.6403 -55.6187 -55.5713 -55.5707 -55.5318
   -55.5150 -55.4867 -55.4325 -55.4069 -55.3920 -55.2733 -54.7988 -54.7984
   -32.4498 -32.4359 -32.4101 -32.4085 -32.3364 -32.3092 -32.0314 -31.9491
   -31.9486 -31.9210 -31.9163 -31.8825 -31.8807 -31.8696 -31.8606 -31.8491
   -31.8399 -31.8275 -31.8133 -31.8050 -31.7986 -31.7961 -31.7872 -31.7849
   -31.7785 -31.7782 -31.7662 -31.7491 -31.7197 -31.7164 -31.7069 -31.6976
   -31.6963 -31.6718 -31.6550 -31.6448 -31.6400 -31.6211 -31.5910 -31.5850
   -31.5247 -31.4764 -31.1437 -31.1435 -31.0260 -31.0243 -30.9847 -30.9838
   -20.7678 -16.7610 -16.3913 -15.7959 -15.6659 -15.6579 -15.6571 -15.6218
   -15.5810 -15.5283 -15.5012 -15.4471 -15.3785 -15.3515 -15.3346 -15.3095
   -15.2655 -15.2336 -15.2193 -15.1461 -15.1088 -15.0968 -15.0817 -15.0708
   -15.0276 -15.0245 -15.0054 -14.9988 -14.9902 -14.9345 -14.8371 -14.6610
   -13.7780 -13.3115 -13.3104  -6.2656  -5.4594  -4.8117  -4.2922  -3.9853
    -3.4986  -3.0235  -2.9217  -2.8433  -2.8357  -2.7476  -2.7067  -2.6760
    -2.6563  -2.6380  -2.6110  -2.5622  -2.5380  -2.5024  -2.4927  -2.4914
    -2.4723  -2.4660  -2.4445  -2.4202  -2.4072  -2.3921  -2.3807  -2.3572
    -2.3488  -2.3420  -2.3329  -2.2950  -2.2446  -2.2235  -2.0467  -2.0148
    -2.0077  -2.0068  -1.9396  -1.9354  -1.8771  -1.8041  -1.7879  -1.7667
    -1.7481  -1.6347  -1.4978  -1.4497  -1.3932  -1.3719  -1.3037  -1.2516
    -1.1555  -1.1367  -1.1259  -1.1078  -1.0640  -1.0599  -0.9741  -0.9201
    -0.8765  -0.8724  -0.8518  -0.8080  -0.6887  -0.6797  -0.6417  -0.6185
    -0.6043  -0.5023  -0.4702  -0.4501  -0.4354  -0.4236  -0.3194  -0.2699
    -0.2239  -0.1760  -0.1155  -0.0569   0.0663   0.0912   0.1850   0.2160
     0.2559   0.3904   0.4159   0.4648   0.5006   0.5539   0.5918   0.6073
     0.7333   0.7893   0.8075   0.8739   0.8945   0.9332   0.9569   1.5953
     1.6013   1.6086   1.6111   1.8039   3.6492   3.6755   3.6818   3.7162
     3.8993   3.9285   4.0074   4.0310   4.0459   4.0562

     the Fermi energy is     2.5684 ev

!    total energy              =   -3005.15864175 Ry
     estimated scf accuracy    <       0.00000006 Ry
     smearing contrib. (-TS)   =      -0.00024376 Ry
     internal energy E=F+TS    =   -3005.15839800 Ry

     The total energy is F=E-TS. E is the sum of the following terms:
     one-electron contribution =  -22952.59307635 Ry
     hartree contribution      =   11572.23887567 Ry
     xc contribution           =    -500.32356699 Ry
     ewald contribution        =    8875.51889159 Ry
     electric field correction =       0.00047809 Ry

     convergence has been achieved in  55 iterations

     Forces acting on atoms (cartesian axes, Ry/au):

     atom    1 type  1   force =    -0.00014331   -0.00220466   -0.00144031
     atom    2 type  2   force =    -0.00005029    0.00024829    0.00020436
     atom    3 type  2   force =    -0.00040022   -0.00001417    0.00006359
     atom    4 type  2   force =    -0.00051870    0.00019199    0.00025898
     atom    5 type  3   force =     0.00027629   -0.00316438   -0.05386322
     atom    6 type  3   force =     0.00044273    0.00120233    0.04056670
     atom    7 type  3   force =    -0.00981675   -0.00221583    0.00042880
     atom    8 type  3   force =     0.00889067   -0.00512110   -0.00067238
     atom    9 type  3   force =     0.00010378    0.00003874    0.00002479
     atom   10 type  3   force =    -0.00010445    0.00004460    0.00001259
     atom   11 type  3   force =     0.00013649   -0.00000704   -0.00010005
     atom   12 type  3   force =     0.00002433    0.00013946    0.00001644
     atom   13 type  3   force =     0.00001369    0.00002921   -0.00002946
     atom   14 type  3   force =     0.00006581   -0.00009477    0.00036283
     atom   15 type  3   force =    -0.00006341    0.00002795    0.00009175
     atom   16 type  3   force =     0.00001948   -0.00012561   -0.00000233
     atom   17 type  3   force =    -0.00007034    0.00016359    0.09946193
     atom   18 type  3   force =     0.00006292   -0.00007601    0.00021398
     atom   19 type  3   force =    -0.08024920    0.00059078   -0.03417480
     atom   20 type  3   force =     0.08001602    0.00110756   -0.03419935
     atom   21 type  3   force =     0.00051702    0.00001917   -0.05294274
     atom   22 type  3   force =     0.00037967    0.00049193    0.04231601
     atom   23 type  3   force =    -0.01095146    0.00575984    0.00234381
     atom   24 type  3   force =     0.01007334    0.00213248    0.00120289
     atom   25 type  3   force =     0.00007954   -0.00000469    0.00010351
     atom   26 type  3   force =     0.00000478    0.00006683    0.00000991
     atom   27 type  3   force =     0.00007690    0.00008198   -0.00000433
     atom   28 type  3   force =     0.00005679   -0.00002191    0.00007364
     atom   29 type  3   force =     0.00013370   -0.00013855    0.00007658
     atom   30 type  3   force =    -0.00002670   -0.00005329    0.00003357
     atom   31 type  3   force =     0.00007039   -0.00000347   -0.00007124
     atom   32 type  3   force =     0.00000441   -0.00015204    0.00013555
     atom   33 type  3   force =    -0.00008325    0.00025274    0.09902514
     atom   34 type  3   force =    -0.08024758   -0.00144867   -0.03417655
     atom   35 type  3   force =     0.08002410   -0.00092468   -0.03422485
     atom   36 type  3   force =     0.00031011   -0.00012105   -0.00027956
     atom   37 type  4   force =     0.00020086    0.00016589    0.13338393
     atom   38 type  4   force =     0.00003374    0.00800123   -0.15912461
     atom   39 type  4   force =    -0.00006221   -0.00006474   -0.00003250
     atom   40 type  4   force =    -0.00008652    0.00016809    0.00002118
     atom   41 type  4   force =    -0.00029305   -0.00003619   -0.00006587
     atom   42 type  4   force =    -0.00007312    0.00012998   -0.00007185
     atom   43 type  4   force =     0.00014190   -0.00003920    0.00003802
     atom   44 type  4   force =     0.00017800    0.00013703   -0.00007442
     atom   45 type  4   force =    -0.00024307   -0.00008429    0.14213787
     atom   46 type  4   force =    -0.00018751   -0.00647456   -0.15857855
     atom   47 type  4   force =     0.00010941   -0.00007897    0.00001532
     atom   48 type  4   force =    -0.00014270    0.00016923    0.00010588
     atom   49 type  4   force =    -0.00012572   -0.00001010    0.00010039
     atom   50 type  4   force =    -0.00010030   -0.00009155   -0.00004422
     atom   51 type  4   force =     0.00023134    0.00006826    0.00004928
     atom   52 type  4   force =     0.00009948   -0.00023075    0.00010430
     atom   53 type  5   force =     0.01406738    0.03555403    0.01263653
     atom   54 type  5   force =    -0.01309481   -0.03387417   -0.01152316
     atom   55 type  3   force =    -0.00010059    0.00029085   -0.00021164
     atom   56 type  2   force =     0.00039020   -0.00039762    0.00028792

     Total force =     0.389029     Total SCF correction =     0.000520
  @ DRIVER MODE: Message from server: STATUS
  @ DRIVER MODE: Message from server: GETFORCE
  @ DRIVER MODE: Returning v,forces,stress,ensemble

     Writing output data file ./calc.save/
  @ DRIVER MODE: Message from server: EXIT
  @ DRIVE MODE: Exiting

     General routines

     Parallel routines

   This run was terminated on:   9:38:53  26Sep2021

   JOB DONE.