     Program PWSCF v.6.7GPU starts on 16Jul2021 at 14:55:55

     R & G space division:  proc/nbgrp/npool/nimage =      16
     Reading input from /storage/home/hcoda1/3/ntian30/research/carbon/15Jul_vib/ads_slab/CH3N2H_a/out_0031/pw.inp
Warning: card &CELL ignored
Warning: card   CELL_DYNAMICS='IPI', ignored
Warning: card / ignored

     Current dimensions of program PWSCF are:
     Max number of different atomic species (ntypx) = 10
     Max number of k-points (npk) =  40000
     Max angular momentum in pseudopotentials (lmaxx) =  3
     Presently no symmetry can be used with electric field

     Message from routine cell_base_init:
     DEPRECATED: use true lattice parameter, not A to a.u. conversion factor

     IMPORTANT: XC functional enforced from input :
     Exchange-correlation= BEEF-VDW
                           (   1   4  43  14   2   0   0)
     Any further DFT definition will be discarded
     Please, verify this is what you really want

  @ DRIVER MODE: Connecting to
 qe_1139763_2351646.sched-torque.pace.gatech.edu35xyjuoj_scratch
  using UNIX socket
  @ DRIVER MODE: Message from server: STATUS
  @ DRIVER MODE: Message from server: INIT
  @ DRIVER MODE: Receiving replica           0          -1
  @ DRIVER MODE: Receiving encoded integer          25
  @ DRIVER MODE:  SCF:  T  FORCE:  T  STRESS:  F  VC:  F  ENSEMBLE:  F
  @ DRIVER MODE:  SCF:  T  FORCE:  T  STRESS:  F  VC:  F  ENSEMBLE:  F

     Using Slab Decomposition

     bravais-lattice index     =            0
     lattice parameter (alat)  =       1.8897  a.u.
     unit-cell volume          =    6658.9804 (a.u.)^3
     number of atoms/cell      =           54
     number of atomic types    =            5
     number of electrons       =       396.00
     number of Kohn-Sham states=          208
     kinetic-energy cutoff     =      29.3995  Ry
     charge density cutoff     =     293.9946  Ry
     scf convergence threshold =      7.3E-08
     mixing beta               =       0.0500
     number of iterations used =            8  plain     mixing
     Exchange-correlation= BEEF-VDW
                           (   1   4  43  14   2   0   0)

     celldm(1)=   1.889726  celldm(2)=   0.000000  celldm(3)=   0.000000
     celldm(4)=   0.000000  celldm(5)=   0.000000  celldm(6)=   0.000000

     crystal axes: (cart. coord. in units of alat)
               a(1) = (   6.579727   0.000000   0.000000 )
               a(2) = (  -0.000775   5.961596   0.000000 )
               a(3) = (   0.000000   0.000000  25.155947 )

     reciprocal axes: (cart. coord. in units 2 pi/alat)
               b(1) = (  0.151982  0.000020  0.000000 )
               b(2) = (  0.000000  0.167740  0.000000 )
               b(3) = (  0.000000  0.000000  0.039752 )

     PseudoPot. # 1 for Ti read from file:
     /storage/coda1/p-amedford6/0/shared/rich_project_chbe-medford/medford-share/data/pseudos_module/espresso/nninc/pbe/van/Ti.UPF
     MD5 check sum: 8e4df49b7f0d34bbd5052bf3f5ea0213
     Pseudo is Ultrasoft, Zval = 12.0
     Generated by new atomic code, or converted to UPF format
     Using radial grid of  851 points,  6 beta functions with:
                l(1) =   0
                l(2) =   0
                l(3) =   1
                l(4) =   1
                l(5) =   2
                l(6) =   2
     Q(r) pseudized with  8 coefficients,  rinner =    1.000   1.000   1.000
                                                       1.000   1.000

     PseudoPot. # 2 for O  read from file:
     /storage/coda1/p-amedford6/0/shared/rich_project_chbe-medford/medford-share/data/pseudos_module/espresso/nninc/pbe/van/O.UPF
     MD5 check sum: 78c19812648e8988a0fe644b0f25305e
     Pseudo is Ultrasoft, Zval =  6.0
     Generated by new atomic code, or converted to UPF format
     Using radial grid of  737 points,  4 beta functions with:
                l(1) =   0
                l(2) =   0
                l(3) =   1
                l(4) =   1
     Q(r) pseudized with  8 coefficients,  rinner =    0.800   0.800   0.800

     PseudoPot. # 3 for N  read from file:
     /storage/coda1/p-amedford6/0/shared/rich_project_chbe-medford/medford-share/data/pseudos_module/espresso/nninc/pbe/van/N.UPF
     MD5 check sum: 90d10febe142ad51ac9d5be1deb811c4
     Pseudo is Ultrasoft, Zval =  5.0
     Generated by new atomic code, or converted to UPF format
     Using radial grid of  729 points,  4 beta functions with:
                l(1) =   0
                l(2) =   0
                l(3) =   1
                l(4) =   1
     Q(r) pseudized with  8 coefficients,  rinner =    0.800   0.800   0.800

     PseudoPot. # 4 for C  read from file:
     /storage/coda1/p-amedford6/0/shared/rich_project_chbe-medford/medford-share/data/pseudos_module/espresso/nninc/pbe/van/C.UPF
     MD5 check sum: 1a69bf6b8db32088f5b2163dbdb77a27
     Pseudo is Ultrasoft, Zval =  4.0
     Generated by new atomic code, or converted to UPF format
     Using radial grid of  721 points,  4 beta functions with:
                l(1) =   0
                l(2) =   0
                l(3) =   1
                l(4) =   1
     Q(r) pseudized with  8 coefficients,  rinner =    0.800   0.800   0.800

     PseudoPot. # 5 for H  read from file:
     /storage/coda1/p-amedford6/0/shared/rich_project_chbe-medford/medford-share/data/pseudos_module/espresso/nninc/pbe/van/H.UPF
     MD5 check sum: b5ee9d7bfd3a09ee7748110bda690ff7
     Pseudo is Ultrasoft, Zval =  1.0
     Generated by new atomic code, or converted to UPF format
     Using radial grid of  615 points,  1 beta functions with:
                l(1) =   0
     Q(r) pseudized with  8 coefficients,  rinner =    0.800

     atomic species   valence    mass     pseudopotential
        Ti1           12.00    47.86700     Ti( 1.00)
        O1             6.00    15.99900     O ( 1.00)
        N1             5.00    14.00700     N ( 1.00)
        C1             4.00    12.01100     C ( 1.00)
        H1             1.00     1.00800     H ( 1.00)

     Starting magnetic structure
     atomic species   magnetization
        Ti1          0.000
        O1           0.000
        N1           0.000
        C1           0.025
        H1           0.000

     No symmetry found

   Cartesian axes

     site n.     atom                  positions (alat units)
         1           Ti1 tau(   1) = (   0.0004258   2.9801865   6.0000000  )
         2           Ti1 tau(   2) = (   3.2906075   1.4906267   6.0002472  )
         3           O1  tau(   3) = (   0.0006271   0.0005054   7.9858123  )
         4           O1  tau(   4) = (   3.2906025   0.0005020   7.3038282  )
         5           O1  tau(   5) = (   4.5942328   1.4918067   9.2879030  )
         6           O1  tau(   6) = (   1.9868534   1.4903216   9.2879459  )
         7           Ti1 tau(   7) = (   3.2907910   2.8959150   9.1758416  )
         8           Ti1 tau(   8) = (   0.0015273   1.4827037   9.2680791  )
         9           O1  tau(   9) = (   3.3106937   0.0084137  11.2927479  )
        10           O1  tau(  10) = (   0.0116148   5.9584955  10.6183126  )
        11           O1  tau(  11) = (   1.3255326   1.5151957  12.5859258  )
        12           O1  tau(  12) = (   5.3246634   1.4871208  12.6441624  )
        13           Ti1 tau(  13) = (   6.5358624   2.9940264  12.7507449  )
        14           Ti1 tau(  14) = (   3.1828407   1.5032771  12.4528579  )
        15           O1  tau(  15) = (   0.1336207   0.0073438  14.6266748  )
        16           O1  tau(  16) = (   3.2550344   0.0288700  13.8306396  )
        17           O1  tau(  17) = (   4.6334483   1.5013943  15.9792279  )
        18           O1  tau(  18) = (   2.1409664   1.5470880  15.9954950  )
        19           Ti1 tau(  19) = (   3.4798582   3.0305884  15.6593850  )
        20           Ti1 tau(  20) = (   0.1386493   1.3724552  15.8613965  )
        21           O1  tau(  21) = (   3.2904802   0.0005063   4.7018136  )
        22           O1  tau(  22) = (   0.1429122   0.0333940  17.1908172  )
        23           O1  tau(  23) = (   1.3043587   1.4918075   6.0039043  )
        24           O1  tau(  24) = (   5.2767064   1.4903225   6.0039473  )
        25           Ti1 tau(  25) = (   0.0000382   5.9609847   6.0000000  )
        26           Ti1 tau(  26) = (   3.2902200   4.4714249   6.0002472  )
        27           O1  tau(  27) = (   0.0002396   2.9813036   7.9858123  )
        28           O1  tau(  28) = (   3.2902150   2.9813002   7.3038282  )
        29           O1  tau(  29) = (   4.5938453   4.4726049   9.2879030  )
        30           O1  tau(  30) = (   1.9864658   4.4711199   9.2879459  )
        31           Ti1 tau(  31) = (   3.2891106   5.8743827   9.1763621  )
        32           Ti1 tau(  32) = (   0.0006254   4.4649316   9.2693709  )
        33           O1  tau(  33) = (   3.3137399   2.9960163  11.2943833  )
        34           O1  tau(  34) = (   0.0092240   2.9805883  10.6323155  )
        35           O1  tau(  35) = (   1.3234708   4.4688006  12.5930975  )
        36           O1  tau(  36) = (   5.3222282   4.4932535  12.6449723  )
        37           Ti1 tau(  37) = (   6.5041614   0.0053836  12.5833808  )
        38           Ti1 tau(  38) = (   3.1843229   4.4812189  12.4522442  )
        39           O1  tau(  39) = (   0.0584892   2.9792810  14.6723703  )
        40           O1  tau(  40) = (   3.3232524   2.9928384  13.8523860  )
        41           O1  tau(  41) = (   4.6237859   4.5837569  15.7472905  )
        42           O1  tau(  42) = (   2.1882403   4.4693611  16.1038286  )
        43           Ti1 tau(  43) = (   3.3015484   0.0242660  15.6383815  )
        44           Ti1 tau(  44) = (   0.0181797   4.4930750  16.1931172  )
        45           O1  tau(  45) = (   3.2900926   2.9813045   4.7018136  )
        46           O1  tau(  46) = (   1.3039711   4.4726057   6.0039043  )
        47           O1  tau(  47) = (   5.2763189   4.4711207   6.0039473  )
        48           N1  tau(  48) = (   0.2677213   2.8760844  17.5655548  )
        49           C1  tau(  49) = (   1.2271684   2.7639891  18.6598760  )
        50           H1  tau(  50) = (   1.2930054   3.7106696  19.2072709  )
        51           H1  tau(  51) = (   0.8976878   1.9730418  19.3402421  )
        52           H1  tau(  52) = (   2.2102292   2.4972526  18.2850250  )
        53           N1  tau(  53) = (   5.6632178   3.4927010  17.8452151  )
        54           H1  tau(  54) = (   5.7345573   4.0058295  18.7343860  )

     number of k points=    10  Fermi-Dirac smearing, width (Ry)=  0.0073
                       cart. coord. in units 2pi/alat
        k(    1) = (   0.0000000   0.0000000   0.0000000), wk =   0.0625000
        k(    2) = (   0.0000000   0.0419351   0.0000000), wk =   0.1250000
        k(    3) = (   0.0000000  -0.0838702   0.0000000), wk =   0.0625000
        k(    4) = (   0.0379955   0.0000049   0.0000000), wk =   0.1250000
        k(    5) = (   0.0379955   0.0419400   0.0000000), wk =   0.1250000
        k(    6) = (   0.0379955  -0.0838652   0.0000000), wk =   0.1250000
        k(    7) = (   0.0379955  -0.0419301   0.0000000), wk =   0.1250000
[...]
     %                                                                      %
     % You are using vdW-DF, which was implemented by the Thonhauser group. %
     % Please cite the following two papers that made this development      %
     % possible and the two reviews that describe the various versions:     %
     %                                                                      %
     %   T. Thonhauser et al., PRL 115, 136402 (2015).                      %
     %   T. Thonhauser et al., PRB 76, 125112 (2007).                       %
     %   K. Berland et al., Rep. Prog. Phys. 78, 066501 (2015).             %
     %   D.C. Langreth et al., J. Phys.: Condens. Matter 21, 084203 (2009). %
     %                                                                      %
     %                                                                      %
     % If you are calculating the stress with vdW-DF, please also cite:     %
     %                                                                      %
     %   R. Sabatini et al., J. Phys.: Condens. Matter 24, 424209 (2012).   %
     %                                                                      %
     %%%%%%%%%%%%%%%%%%%%%%%%%%%%%%%%%%%%%%%%%%%%%%%%%%%%%%%%%%%%%%%%%%%%%%%%

     Adding external electric field

     Computed dipole along edir(3) :
        Dipole               -8.2222 Ry au,        -20.8988 Debye
        Dipole field         -0.0155 Ry au,

        Potential amp.        1.4384 Ry
        Total length         46.3494 bohr

[...]

     Starting wfcs are  300 atomic wfcs
  @ DRIVER MODE: Message from server: STATUS
  @ DRIVER MODE: Message from server: POSDATA
  @ DRIVER MODE: Reading and sharing cell
  @ DRIVER MODE: Reading and sharing positions
  @ DRIVER MODE: Received positions

     Self-consistent Calculation

     iteration #  1     ecut=    29.40 Ry     beta= 0.05
     Davidson diagonalization with overlap
     c_bands:  1 eigenvalues not converged
     c_bands:  1 eigenvalues not converged
     c_bands:  1 eigenvalues not converged
     c_bands:  1 eigenvalues not converged
     c_bands:  4 eigenvalues not converged
     c_bands:  1 eigenvalues not converged
     c_bands:  4 eigenvalues not converged
     c_bands:  2 eigenvalues not converged
     c_bands:  1 eigenvalues not converged
     c_bands:  1 eigenvalues not converged
     c_bands:  1 eigenvalues not converged
     c_bands:  1 eigenvalues not converged
     c_bands:  1 eigenvalues not converged
     c_bands:  1 eigenvalues not converged
     c_bands:  4 eigenvalues not converged
     c_bands:  1 eigenvalues not converged
     c_bands:  4 eigenvalues not converged
     c_bands:  2 eigenvalues not converged
     c_bands:  1 eigenvalues not converged
     c_bands:  1 eigenvalues not converged
     ethr =  1.00E-05,  avg # of iterations = 20.0

[...]

     total energy              =   -2607.59498431 Ry
     estimated scf accuracy    <    3675.39240814 Ry

     total magnetization       =     0.00 Bohr mag/cell
     absolute magnetization    =     0.03 Bohr mag/cell

[...]

     iteration #  3     ecut=    29.40 Ry     beta= 0.05
     Davidson diagonalization with overlap
     ethr =  1.00E-02,  avg # of iterations = 13.9

[...]

     iteration # 68     ecut=    29.40 Ry     beta= 0.05
     Davidson diagonalization with overlap
     c_bands:  1 eigenvalues not converged
     ethr =  7.18E-07,  avg # of iterations =  6.5

[...]

     total energy              =   -2940.35361416 Ry
     estimated scf accuracy    <       0.00000008 Ry

[...]

     iteration #143     ecut=    29.40 Ry     beta= 0.05
     Davidson diagonalization with overlap
     ethr =  2.01E-11,  avg # of iterations =  3.2

     negative rho (up, down):  8.759E-03 8.770E-03

[...]

     Adding external electric field

     Computed dipole along edir(3) :
        Dipole                0.7686 Ry au,          1.9536 Debye
        Dipole field          0.0015 Ry au,

        Potential amp.       -0.1345 Ry
        Total length         46.3494 bohr

     Magnetic moment per site  (integrated on atomic sphere of radius R)
     atom   1 (R=0.746)  charge=  8.1025  magn= -0.0008
     atom   2 (R=0.746)  charge=  8.0882  magn= -0.0000
     atom   3 (R=0.746)  charge=  5.0689  magn=  0.0000
     atom   4 (R=0.746)  charge=  5.1050  magn=  0.0000
     atom   5 (R=0.746)  charge=  5.0706  magn=  0.0000
     atom   6 (R=0.746)  charge=  5.0718  magn=  0.0000
     atom   7 (R=0.746)  charge=  8.0837  magn=  0.0000
     atom   8 (R=0.746)  charge=  8.0703  magn=  0.0001
     atom   9 (R=0.746)  charge=  5.0891  magn= -0.0001
     atom  10 (R=0.746)  charge=  5.0576  magn= -0.0001
     atom  11 (R=0.746)  charge=  5.0764  magn= -0.0002
     atom  12 (R=0.746)  charge=  5.0718  magn= -0.0001
     atom  13 (R=0.746)  charge=  8.0706  magn=  0.0006
     atom  14 (R=0.746)  charge=  8.0893  magn=  0.0006
     atom  15 (R=0.746)  charge=  5.0553  magn= -0.0036
     atom  16 (R=0.746)  charge=  5.0986  magn= -0.0002
     atom  17 (R=0.746)  charge=  5.0496  magn= -0.0009
     atom  18 (R=0.746)  charge=  5.0673  magn= -0.0005
     atom  19 (R=0.746)  charge=  8.1078  magn=  0.0000
     atom  20 (R=0.746)  charge=  8.0955  magn= -0.0017
     atom  21 (R=0.746)  charge=  4.9490  magn=  0.0000
     atom  22 (R=0.746)  charge=  5.0409  magn= -0.0051
     atom  23 (R=0.746)  charge=  5.0611  magn=  0.0001
     atom  24 (R=0.746)  charge=  5.0612  magn=  0.0001
     atom  25 (R=0.746)  charge=  8.1024  magn= -0.0008
     atom  26 (R=0.746)  charge=  8.0882  magn= -0.0000
     atom  27 (R=0.746)  charge=  5.0670  magn=  0.0000
     atom  28 (R=0.746)  charge=  5.1051  magn=  0.0000
     atom  29 (R=0.746)  charge=  5.0715  magn=  0.0000
     atom  30 (R=0.746)  charge=  5.0726  magn= -0.0000
     atom  31 (R=0.746)  charge=  8.0845  magn=  0.0000
     atom  32 (R=0.746)  charge=  8.0707  magn= -0.0000
     atom  33 (R=0.746)  charge=  5.0888  magn= -0.0001
     atom  34 (R=0.746)  charge=  5.0201  magn= -0.0001
     atom  35 (R=0.746)  charge=  5.0760  magn= -0.0002
     atom  36 (R=0.746)  charge=  5.0724  magn= -0.0002
     atom  37 (R=0.746)  charge=  8.0777  magn=  0.0012
     atom  38 (R=0.746)  charge=  8.0894  magn=  0.0004
     atom  39 (R=0.746)  charge=  5.0528  magn= -0.0008
     atom  40 (R=0.746)  charge=  5.0890  magn= -0.0006
     atom  41 (R=0.746)  charge=  5.0853  magn= -0.0000
     atom  42 (R=0.746)  charge=  5.0440  magn= -0.0042
     atom  43 (R=0.746)  charge=  8.1146  magn= -0.0001
     atom  44 (R=0.746)  charge=  8.1330  magn= -0.0564
     atom  45 (R=0.746)  charge=  4.9490  magn=  0.0000
     atom  46 (R=0.746)  charge=  5.0611  magn=  0.0001
     atom  47 (R=0.746)  charge=  5.0612  magn=  0.0001
     atom  48 (R=0.424)  charge=  1.3507  magn= -0.0461
     atom  49 (R=0.448)  charge=  0.8421  magn=  0.0017
     atom  50 (R=0.424)  charge=  0.4512  magn= -0.0023
     atom  51 (R=0.424)  charge=  0.4498  magn= -0.0033
     atom  52 (R=0.424)  charge=  0.4564  magn= -0.0002
     atom  53 (R=0.424)  charge=  1.3499  magn= -0.0553
     atom  54 (R=0.424)  charge=  0.4596  magn= -0.0012

     End of self-consistent calculation

 ------ SPIN UP ------------

          k = 0.0000 0.0000 0.0000 ( 18029 PWs)   bands (ev):

   -55.9831 -55.9491 -55.7956 -55.7571 -55.6923 -55.6609 -55.6578 -55.6269
   -55.6097 -55.5995 -55.5750 -55.5165 -55.2764 -54.8849 -54.8509 -54.8067
   -32.4510 -32.3383 -32.2769 -32.2540 -32.1634 -32.1587 -32.1374 -32.0993
   -32.0927 -32.0737 -32.0434 -32.0428 -32.0383 -31.9753 -31.9653 -31.9445
   -31.9401 -31.9227 -31.9107 -31.8826 -31.8803 -31.8643 -31.8378 -31.8342
   -31.8310 -31.8249 -31.8204 -31.8104 -31.7987 -31.7958 -31.7866 -31.7734
   -31.7636 -31.7223 -31.7142 -31.6968 -31.6392 -31.5011 -31.5000 -31.2884
   -31.2469 -31.2086 -31.1857 -31.1056 -31.0196 -31.0002 -30.9202 -30.9084
   -17.1712 -16.5483 -16.3430 -16.0544 -15.9214 -15.9180 -15.7869 -15.6703
   -15.5812 -15.4777 -15.4542 -15.3760 -15.3643 -15.3580 -15.3048 -15.2610
   -15.2430 -15.2028 -15.2007 -15.1572 -15.1497 -15.0824 -15.0730 -15.0714
   -14.9810 -14.9226 -14.8779 -14.7711 -14.5968 -14.4745 -13.3860 -13.2711
   -11.5389  -8.2962  -4.9876  -4.0060  -3.9321  -3.8438  -3.7930  -3.7628
    -3.6741  -3.4455  -3.4085  -3.3569  -3.0438  -3.0097  -2.9893  -2.9792
    -2.8913  -2.7274  -2.7033  -2.6538  -2.6426  -2.6165  -2.6101  -2.5867
    -2.5394  -2.5031  -2.4803  -2.4157  -2.2820  -2.2609  -2.2524  -2.2413
    -2.1723  -2.1538  -2.0918  -2.0639  -2.0446  -2.0155  -1.9988  -1.8780
    -1.8388  -1.7781  -1.6943  -1.5906  -1.5037  -1.4699  -1.3899  -1.3500
    -1.3005  -1.2321  -1.2118  -1.1732  -1.1250  -1.0688  -1.0373  -0.9823
    -0.8797  -0.8657  -0.8144  -0.7483  -0.6970  -0.6873  -0.6401  -0.6212
    -0.6126  -0.5983  -0.5873  -0.4145  -0.3594  -0.2212  -0.1745  -0.1573
    -0.1049  -0.0718  -0.0369   0.0014   0.0064   0.0606   0.0733   0.1059
     0.1497   0.1724   0.1977   0.2762   0.3187   0.3658   0.4991   0.5190
     0.6003   0.6767   0.7595   0.8075   0.8493   0.9573   1.0784   1.0959
     1.1375   1.3420   1.4247   1.7019   1.7446   3.1692   3.2081   3.3034
     3.4058   3.5225   3.5763   3.6457   3.7908   3.8087   3.8607   3.9378

[...]

          k =-0.0760-0.0000 0.0000 ( 17886 PWs)   bands (ev):

[...]

 ------ SPIN DOWN ----------

[...]

          k = 0.0380-0.0419 0.0000 ( 17876 PWs)   bands (ev):

[...]

          k =-0.0760-0.0839 0.0000 ( 17948 PWs)   bands (ev):

   -55.9688 -55.9666 -55.7824 -55.7684 -55.6786 -55.6712 -55.6429 -55.6417
   -55.5963 -55.5959 -55.5883 -55.5203 -55.2787 -54.9026 -54.8680 -54.8678
   -32.2680 -32.2670 -32.2645 -32.2627 -32.1448 -32.1332 -32.0915 -32.0892
   -32.0432 -32.0308 -32.0199 -32.0083 -31.9912 -31.9834 -31.9495 -31.9406
   -31.9384 -31.9362 -31.9302 -31.8971 -31.8751 -31.8716 -31.8683 -31.8657
   -31.8585 -31.8543 -31.8493 -31.8270 -31.8196 -31.8191 -31.8109 -31.8089
   -31.8057 -31.7934 -31.7874 -31.7276 -31.6460 -31.5081 -31.5033 -31.3253
   -31.1986 -31.1985 -31.1262 -31.1018 -31.1015 -31.0628 -31.0627 -31.0463
   -17.3158 -15.9734 -15.9445 -15.8086 -15.7879 -15.7183 -15.7037 -15.5833
   -15.5785 -15.5698 -15.5086 -15.4444 -15.4337 -15.3894 -15.3470 -15.3363
   -15.3010 -15.2876 -15.2811 -15.2771 -15.2701 -15.2140 -15.1668 -15.1615
   -15.1374 -15.0771 -14.9286 -14.8805 -14.7083 -14.5996 -13.3734 -13.3730
   -11.6502  -8.4030  -5.0584  -3.9801  -3.9109  -3.2755  -3.2399  -3.0013
    -2.9887  -2.9674  -2.9197  -2.7479  -2.7418  -2.7217  -2.7043  -2.6988
    -2.6672  -2.6499  -2.6372  -2.5753  -2.5669  -2.5304  -2.5166  -2.5116
    -2.5023  -2.4856  -2.4827  -2.4603  -2.4530  -2.4201  -2.3676  -2.3382
    -2.3055  -2.2101  -2.0975  -2.0310  -1.9975  -1.9896  -1.9763  -1.9652
    -1.9427  -1.9295  -1.8413  -1.6928  -1.6398  -1.5682  -1.5360  -1.5298
    -1.5031  -1.4367  -1.4210  -1.3250  -1.2586  -1.1812  -1.1610  -1.1272
    -1.1074  -1.0302  -0.9787  -0.9577  -0.9382  -0.8954  -0.8748  -0.8704
    -0.8142  -0.7414  -0.6999  -0.6451  -0.6259  -0.5997  -0.5858  -0.5675
    -0.4828  -0.3888  -0.3470  -0.3104  -0.2788  -0.2220  -0.1077  -0.0858
     0.0601   0.1833   0.2197   0.2631   0.3645   0.4141   0.4344   0.4582
     0.5187   0.5943   0.6263   0.6893   0.7251   0.7434   0.8031   0.9475
     1.0848   1.5110   1.5126   1.5629   1.5639   2.7031   3.6832   3.7024
     3.7070   3.7229   3.7370   3.7508   3.7958   3.8291   3.9554   3.9726

     the Fermi energy is     3.1731 ev

!    total energy              =   -2940.35361425 Ry
     estimated scf accuracy    <       0.00000006 Ry
     smearing contrib. (-TS)   =      -0.01689030 Ry
     internal energy E=F+TS    =   -2940.33672395 Ry

     The total energy is F=E-TS. E is the sum of the following terms:
     one-electron contribution =  -24661.46378638 Ry
     hartree contribution      =   12419.93910785 Ry
     xc contribution           =    -486.04694026 Ry
     ewald contribution        =    9787.23378001 Ry
     electric field correction =       0.00111484 Ry

     total magnetization       =    -0.46 Bohr mag/cell
     absolute magnetization    =     0.52 Bohr mag/cell

     convergence has been achieved in 143 iterations

     Forces acting on atoms (cartesian axes, Ry/au):

     atom    1 type  1   force =     0.00022895   -0.00035919    0.10123223
     atom    2 type  1   force =     0.00001519   -0.00086385   -0.17161252
     atom    3 type  2   force =     0.00029528    0.00021193   -0.03280857
     atom    4 type  2   force =     0.00003224   -0.00080932    0.04520894
     atom    5 type  2   force =    -0.01201743   -0.00024046   -0.00209246
     atom    6 type  2   force =     0.01443740    0.00034637   -0.00088625
     atom    7 type  1   force =     0.00140814   -0.00126018   -0.00526545
     atom    8 type  1   force =    -0.00076046    0.02224379    0.05510866
     atom    9 type  2   force =    -0.00002134   -0.00029336    0.00134255
     atom   10 type  2   force =    -0.00271546    0.00206444   -0.02420415
     atom   11 type  2   force =    -0.00015695    0.00025146    0.00046244
     atom   12 type  2   force =     0.00002359    0.00078957    0.00050383
     atom   13 type  1   force =     0.00002334    0.00022980   -0.00276349
     atom   14 type  1   force =     0.00044419    0.00026990   -0.00155078
     atom   15 type  2   force =     0.00037684    0.00016521    0.00215205
     atom   16 type  2   force =     0.00000236   -0.00013910    0.00248800
     atom   17 type  2   force =     0.00006224   -0.00084751    0.00020922
     atom   18 type  2   force =     0.00011867   -0.00067351    0.00058860
     atom   19 type  1   force =    -0.00022405   -0.00078360   -0.00156026
     atom   20 type  1   force =    -0.00007675   -0.00032233   -0.00221343
     atom   21 type  2   force =     0.00006280   -0.00001227    0.10213278
     atom   22 type  2   force =    -0.00043215   -0.00125752    0.00020891
     atom   23 type  2   force =    -0.07318189   -0.00016342   -0.02881444
     atom   24 type  2   force =     0.07313212    0.00033500   -0.02886019
     atom   25 type  1   force =    -0.00026269   -0.00029887    0.10165635
     atom   26 type  1   force =     0.00003251   -0.00020145   -0.17161819
     atom   27 type  2   force =     0.00035671   -0.00023095   -0.03153617
     atom   28 type  2   force =     0.00009157   -0.00059591    0.04583218
     atom   29 type  2   force =    -0.01216299    0.00210934   -0.00264564
     atom   30 type  2   force =     0.01446198    0.00227374   -0.00138142
     atom   31 type  1   force =     0.00158528    0.00098626   -0.00657189
     atom   32 type  1   force =    -0.00059196   -0.02477317    0.05613588
     atom   33 type  2   force =     0.00012234    0.00033715    0.00152174
     atom   34 type  2   force =    -0.00424601    0.00210131   -0.04679936
     atom   35 type  2   force =     0.00038847   -0.00060945    0.00050176
     atom   36 type  2   force =    -0.00046234   -0.00081929    0.00061768
     atom   37 type  1   force =     0.00014363    0.00059275   -0.00305236
     atom   38 type  1   force =     0.00022848   -0.00003602   -0.00159416
     atom   39 type  2   force =     0.00031651   -0.00011731    0.00191316
     atom   40 type  2   force =     0.00001710   -0.00003965    0.00162480
     atom   41 type  2   force =     0.00048965    0.00078870   -0.00036581
     atom   42 type  2   force =    -0.00055235    0.00036918    0.00101530
     atom   43 type  1   force =    -0.00016491    0.00017101   -0.00138781
     atom   44 type  1   force =    -0.00065636    0.00000410   -0.00014104
     atom   45 type  2   force =     0.00004567   -0.00005034    0.10219888
     atom   46 type  2   force =    -0.07318530   -0.00009504   -0.02878371
     atom   47 type  2   force =     0.07313809    0.00027436   -0.02882237
     atom   48 type  3   force =    -0.00901920    0.00506896    0.00056143
     atom   49 type  4   force =    -0.00183796   -0.00020928    0.00083517
     atom   50 type  5   force =     0.00012944   -0.00029455   -0.00010647
     atom   51 type  5   force =    -0.00032785   -0.00037421    0.00051526
     atom   52 type  5   force =    -0.00030128   -0.00033629   -0.00005160
     atom   53 type  3   force =     0.01291059   -0.00421657    0.00189888
     atom   54 type  5   force =    -0.00176367   -0.00066037   -0.00097671

     Total force =     0.377623     Total SCF correction =     0.000652
  @ DRIVER MODE: Message from server: STATUS
  @ DRIVER MODE: Message from server: GETFORCE
  @ DRIVER MODE: Returning v,forces,stress,ensemble

     Writing output data file ./calc.save/
  @ DRIVER MODE: Message from server: EXIT
  @ DRIVE MODE: Exiting

     General routines

     Parallel routines

   This run was terminated on:  15:49:26  16Jul2021

   JOB DONE.