     Program PWSCF v.6.7GPU starts on 24Sep2021 at 13:34:54

     R & G space division:  proc/nbgrp/npool/nimage =       8
     Reading input from /storage/home/hcoda1/3/ntian30/research/carbon/CxH_vib/H2O_calc/ads_slab/CH3NHNH2HO_a/out_0052/pw.inp
Warning: card &CELL ignored
Warning: card   CELL_DYNAMICS='IPI', ignored
Warning: card / ignored

     Current dimensions of program PWSCF are:
     Max number of different atomic species (ntypx) = 10
     Max number of k-points (npk) =  40000
     Max angular momentum in pseudopotentials (lmaxx) =  3
     Presently no symmetry can be used with electric field

     Message from routine cell_base_init:
     DEPRECATED: use true lattice parameter, not A to a.u. conversion factor

     IMPORTANT: XC functional enforced from input :
     Exchange-correlation= BEEF-VDW
                           (   1   4  43  14   2   0   0)
     Any further DFT definition will be discarded
     Please, verify this is what you really want

  @ DRIVER MODE: Connecting to
 qe_1139763_2947307.sched-torque.pace.gatech.edumfxa09vs_scratch
  using UNIX socket
  @ DRIVER MODE: Message from server: STATUS
  @ DRIVER MODE: Message from server: INIT
  @ DRIVER MODE: Receiving replica           0          -1
  @ DRIVER MODE: Receiving encoded integer          25
  @ DRIVER MODE:  SCF:  T  FORCE:  T  STRESS:  F  VC:  F  ENSEMBLE:  F
  @ DRIVER MODE:  SCF:  T  FORCE:  T  STRESS:  F  VC:  F  ENSEMBLE:  F

     Using Slab Decomposition

     bravais-lattice index     =            0
     lattice parameter (alat)  =       1.8897  a.u.
     unit-cell volume          =    6658.9804 (a.u.)^3
     number of atoms/cell      =           58
     number of atomic types    =            5
     number of electrons       =       405.00
     number of Kohn-Sham states=          212
     kinetic-energy cutoff     =      29.3995  Ry
     charge density cutoff     =     293.9946  Ry
     scf convergence threshold =      7.3E-08
     mixing beta               =       0.0500
     number of iterations used =            8  plain     mixing
     Exchange-correlation= BEEF-VDW
                           (   1   4  43  14   2   0   0)

     celldm(1)=   1.889726  celldm(2)=   0.000000  celldm(3)=   0.000000
     celldm(4)=   0.000000  celldm(5)=   0.000000  celldm(6)=   0.000000

     crystal axes: (cart. coord. in units of alat)
               a(1) = (   6.579727   0.000000   0.000000 )
               a(2) = (  -0.000775   5.961596   0.000000 )
               a(3) = (   0.000000   0.000000  25.155947 )

     reciprocal axes: (cart. coord. in units 2 pi/alat)
               b(1) = (  0.151982  0.000020  0.000000 )
               b(2) = (  0.000000  0.167740  0.000000 )
               b(3) = (  0.000000  0.000000  0.039752 )

     PseudoPot. # 1 for Ti read from file:
     /storage/coda1/p-amedford6/0/shared/rich_project_chbe-medford/medford-share/data/pseudos_module/espresso/nninc/pbe/van/Ti.UPF
     MD5 check sum: 8e4df49b7f0d34bbd5052bf3f5ea0213
     Pseudo is Ultrasoft, Zval = 12.0
     Generated by new atomic code, or converted to UPF format
     Using radial grid of  851 points,  6 beta functions with:
                l(1) =   0
                l(2) =   0
                l(3) =   1
                l(4) =   1
                l(5) =   2
                l(6) =   2
     Q(r) pseudized with  8 coefficients,  rinner =    1.000   1.000   1.000
                                                       1.000   1.000

     PseudoPot. # 2 for O  read from file:
     /storage/coda1/p-amedford6/0/shared/rich_project_chbe-medford/medford-share/data/pseudos_module/espresso/nninc/pbe/van/O.UPF
     MD5 check sum: 78c19812648e8988a0fe644b0f25305e
     Pseudo is Ultrasoft, Zval =  6.0
     Generated by new atomic code, or converted to UPF format
     Using radial grid of  737 points,  4 beta functions with:
                l(1) =   0
                l(2) =   0
                l(3) =   1
                l(4) =   1
     Q(r) pseudized with  8 coefficients,  rinner =    0.800   0.800   0.800

     PseudoPot. # 3 for N  read from file:
     /storage/coda1/p-amedford6/0/shared/rich_project_chbe-medford/medford-share/data/pseudos_module/espresso/nninc/pbe/van/N.UPF
     MD5 check sum: 90d10febe142ad51ac9d5be1deb811c4
     Pseudo is Ultrasoft, Zval =  5.0
     Generated by new atomic code, or converted to UPF format
     Using radial grid of  729 points,  4 beta functions with:
                l(1) =   0
                l(2) =   0
                l(3) =   1
                l(4) =   1
     Q(r) pseudized with  8 coefficients,  rinner =    0.800   0.800   0.800

     PseudoPot. # 4 for C  read from file:
     /storage/coda1/p-amedford6/0/shared/rich_project_chbe-medford/medford-share/data/pseudos_module/espresso/nninc/pbe/van/C.UPF
     MD5 check sum: 1a69bf6b8db32088f5b2163dbdb77a27
     Pseudo is Ultrasoft, Zval =  4.0
     Generated by new atomic code, or converted to UPF format
     Using radial grid of  721 points,  4 beta functions with:
                l(1) =   0
                l(2) =   0
                l(3) =   1
                l(4) =   1
     Q(r) pseudized with  8 coefficients,  rinner =    0.800   0.800   0.800

     PseudoPot. # 5 for H  read from file:
     /storage/coda1/p-amedford6/0/shared/rich_project_chbe-medford/medford-share/data/pseudos_module/espresso/nninc/pbe/van/H.UPF
     MD5 check sum: b5ee9d7bfd3a09ee7748110bda690ff7
     Pseudo is Ultrasoft, Zval =  1.0
     Generated by new atomic code, or converted to UPF format
     Using radial grid of  615 points,  1 beta functions with:
                l(1) =   0
     Q(r) pseudized with  8 coefficients,  rinner =    0.800

     atomic species   valence    mass     pseudopotential
        Ti1           12.00    47.86700     Ti( 1.00)
        O1             6.00    15.99900     O ( 1.00)
        N1             5.00    14.00700     N ( 1.00)
        C1             4.00    12.01100     C ( 1.00)
        H1             1.00     1.00800     H ( 1.00)

     No symmetry found

   Cartesian axes

     site n.     atom                  positions (alat units)
         1           Ti1 tau(   1) = (   0.0004258   2.9801865   6.0000000  )
         2           Ti1 tau(   2) = (   3.2906075   1.4906267   6.0002472  )
         3           O1  tau(   3) = (   0.0006271   0.0005054   7.9858123  )
         4           O1  tau(   4) = (   3.2906025   0.0005020   7.3038282  )
         5           O1  tau(   5) = (   4.5942328   1.4918067   9.2879030  )
         6           O1  tau(   6) = (   1.9868534   1.4903216   9.2879459  )
         7           Ti1 tau(   7) = (   3.2907910   2.8959150   9.1758416  )
         8           Ti1 tau(   8) = (   0.0015273   1.4827037   9.2680791  )
         9           O1  tau(   9) = (   3.3003128   0.0493987  11.3625472  )
        10           O1  tau(  10) = (   0.0116148   5.9584955  10.6183126  )
        11           O1  tau(  11) = (   1.2863924   1.5188706  12.6959087  )
        12           O1  tau(  12) = (   5.3173592   1.5183023  12.6957539  )
        13           Ti1 tau(  13) = (   0.0130489   2.9571150  12.5182267  )
        14           Ti1 tau(  14) = (   3.3124343   1.5987737  12.4587140  )
        15           O1  tau(  15) = (   0.0455642   5.8537743  14.6515032  )
        16           O1  tau(  16) = (   3.3135256   5.8999501  14.0036581  )
        17           O1  tau(  17) = (   4.5824137   1.5787328  16.0473457  )
        18           O1  tau(  18) = (   2.0456054   1.5356268  16.0652349  )
        19           Ti1 tau(  19) = (   3.2855744   2.9948502  15.7047272  )
        20           Ti1 tau(  20) = (   0.0729980   1.3194477  15.7501807  )
        21           O1  tau(  21) = (   3.2904802   0.0005063   4.7018136  )
        22           O1  tau(  22) = (   6.5643345   0.1786488  17.1561759  )
        23           O1  tau(  23) = (   1.3043587   1.4918075   6.0039043  )
        24           O1  tau(  24) = (   5.2767064   1.4903225   6.0039473  )
        25           Ti1 tau(  25) = (   0.0000382   5.9609847   6.0000000  )
        26           Ti1 tau(  26) = (   3.2902200   4.4714249   6.0002472  )
        27           O1  tau(  27) = (   0.0002396   2.9813036   7.9858123  )
        28           O1  tau(  28) = (   3.2902150   2.9813002   7.3038282  )
        29           O1  tau(  29) = (   4.5938453   4.4726049   9.2879030  )
        30           O1  tau(  30) = (   1.9864658   4.4711199   9.2879459  )
        31           Ti1 tau(  31) = (   3.2891106   5.8743827   9.1763621  )
        32           Ti1 tau(  32) = (   0.0006254   4.4649316   9.2693709  )
        33           O1  tau(  33) = (   3.3044115   2.9646987  11.3227374  )
        34           O1  tau(  34) = (   0.0092240   2.9805883  10.6323155  )
        35           O1  tau(  35) = (   1.2889249   4.4812606  12.6373974  )
        36           O1  tau(  36) = (   5.3198440   4.4849614  12.6453916  )
        37           Ti1 tau(  37) = (   0.0274371   5.9167426  12.5032498  )
        38           Ti1 tau(  38) = (   3.3124303   4.6827448  12.7121475  )
        39           O1  tau(  39) = (   0.0064664   3.0605765  14.9143048  )
        40           O1  tau(  40) = (   3.2921723   3.0190953  13.9337278  )
        41           O1  tau(  41) = (   4.5343043   4.4484976  16.2223827  )
        42           O1  tau(  42) = (   2.0055671   4.4324605  16.2273083  )
        43           Ti1 tau(  43) = (   3.3963104   0.0511244  16.3072024  )
        44           Ti1 tau(  44) = (   0.1011521   4.5293608  16.0606835  )
        45           O1  tau(  45) = (   3.2900926   2.9813045   4.7018136  )
        46           O1  tau(  46) = (   1.3039711   4.4726057   6.0039043  )
        47           O1  tau(  47) = (   5.2763189   4.4711207   6.0039473  )
        48           N1  tau(  48) = (   0.7799224   3.1460235  19.0808133  )
        49           N1  tau(  49) = (   6.3029119   3.3142126  18.0946246  )
        50           C1  tau(  50) = (   0.9829876   4.3811599  19.8296872  )
        51           H1  tau(  51) = (   0.0599524   4.7630682  20.2995108  )
        52           H1  tau(  52) = (   1.7087173   4.1728717  20.6153690  )
        53           H1  tau(  53) = (   1.3778604   5.1510331  19.1745456  )
        54           H1  tau(  54) = (   0.4845774   2.4057476  19.7140978  )
        55           H1  tau(  55) = (   5.5451363   3.8924421  18.4761980  )
        56           H1  tau(  56) = (   5.8791802   2.4031312  17.9634808  )
        57           O1  tau(  57) = (   3.3895457   0.1916509  18.1699706  )
        58           H1  tau(  58) = (   3.8128180   5.4341384  18.6581559  )

     number of k points=    10  Fermi-Dirac smearing, width (Ry)=  0.0073
                       cart. coord. in units 2pi/alat
        k(    1) = (   0.0000000   0.0000000   0.0000000), wk =   0.1250000
        k(    2) = (   0.0000000   0.0419351   0.0000000), wk =   0.2500000
        k(    3) = (   0.0000000  -0.0838702   0.0000000), wk =   0.1250000
        k(    4) = (   0.0379955   0.0000049   0.0000000), wk =   0.2500000
        k(    5) = (   0.0379955   0.0419400   0.0000000), wk =   0.2500000
        k(    6) = (   0.0379955  -0.0838652   0.0000000), wk =   0.2500000
        k(    7) = (   0.0379955  -0.0419301   0.0000000), wk =   0.2500000
        k(    8) = (  -0.0759910  -0.0000099   0.0000000), wk =   0.1250000
        k(    9) = (  -0.0759910   0.0419252   0.0000000), wk =   0.2500000
        k(   10) = (  -0.0759910  -0.0838800   0.0000000), wk =   0.1250000

     Initial potential from superposition of free atoms

     starting charge  388.99913, renormalised to  405.00000

     negative rho (up, down):  1.368E-02 0.000E+00

     %%%%%%%%%%%%%%%%%%%%%%%%%%%%%%%%%%%%%%%%%%%%%%%%%%%%%%%%%%%%%%%%%%%%%%%%
     %                                                                      %
     % You are using vdW-DF, which was implemented by the Thonhauser group. %
     % Please cite the following two papers that made this development      %
     % possible and the two reviews that describe the various versions:     %
     %                                                                      %
     %   T. Thonhauser et al., PRL 115, 136402 (2015).                      %
     %   T. Thonhauser et al., PRB 76, 125112 (2007).                       %
     %   K. Berland et al., Rep. Prog. Phys. 78, 066501 (2015).             %
     %   D.C. Langreth et al., J. Phys.: Condens. Matter 21, 084203 (2009). %
     %                                                                      %
     %                                                                      %
     % If you are calculating the stress with vdW-DF, please also cite:     %
     %                                                                      %
     %   R. Sabatini et al., J. Phys.: Condens. Matter 24, 424209 (2012).   %
     %                                                                      %
     %%%%%%%%%%%%%%%%%%%%%%%%%%%%%%%%%%%%%%%%%%%%%%%%%%%%%%%%%%%%%%%%%%%%%%%%

     Adding external electric field

     Computed dipole along edir(3) :
        Dipole              -14.8124 Ry au,        -37.6493 Debye
        Dipole field         -0.0280 Ry au,

        Potential amp.        2.5912 Ry
        Total length         46.3494 bohr

     Starting wfcs are  307 atomic wfcs
  @ DRIVER MODE: Message from server: STATUS
  @ DRIVER MODE: Message from server: POSDATA
  @ DRIVER MODE: Reading and sharing cell
  @ DRIVER MODE: Reading and sharing positions
  @ DRIVER MODE: Received positions

     Self-consistent Calculation

     iteration #  1     ecut=    29.40 Ry     beta= 0.05
     Davidson diagonalization with overlap
     c_bands:  4 eigenvalues not converged
     c_bands:  4 eigenvalues not converged
     c_bands:  5 eigenvalues not converged
     c_bands:  2 eigenvalues not converged
     c_bands:  3 eigenvalues not converged
     c_bands:  4 eigenvalues not converged
     c_bands:  2 eigenvalues not converged
     ethr =  1.00E-05,  avg # of iterations = 22.9

[...]

     total energy              =   -2202.95496117 Ry
     estimated scf accuracy    <    8803.92130141 Ry

     iteration #  2     ecut=    29.40 Ry     beta= 0.05
     Davidson diagonalization with overlap
     ethr =  1.00E-02,  avg # of iterations = 30.3

[...]

     iteration # 42     ecut=    29.40 Ry     beta= 0.05
     Davidson diagonalization with overlap
     c_bands:  1 eigenvalues not converged
     c_bands:  1 eigenvalues not converged
     c_bands:  1 eigenvalues not converged
     ethr =  5.17E-07,  avg # of iterations = 12.7

[...]

     total energy              =   -2976.46387636 Ry
     estimated scf accuracy    <       0.00000008 Ry

     iteration # 61     ecut=    29.40 Ry     beta= 0.05
     Davidson diagonalization with overlap
     ethr =  2.09E-11,  avg # of iterations = 11.3

     negative rho (up, down):  1.441E-02 0.000E+00

     Adding external electric field

     Computed dipole along edir(3) :
        Dipole                1.2269 Ry au,          3.1183 Debye
        Dipole field          0.0023 Ry au,

        Potential amp.       -0.2146 Ry
        Total length         46.3494 bohr

     End of self-consistent calculation

          k = 0.0000 0.0000 0.0000 ( 18029 PWs)   bands (ev):

   -55.4447 -55.3564 -55.3224 -55.2175 -55.2148 -55.1872 -55.1850 -55.1774
   -55.1532 -55.1301 -55.0870 -54.9851 -54.9360 -54.8935 -54.3314 -54.2973
   -31.8416 -31.7910 -31.7211 -31.7041 -31.6900 -31.6753 -31.6546 -31.6472
   -31.6162 -31.6026 -31.5966 -31.5090 -31.4940 -31.4867 -31.4671 -31.4635
   -31.4596 -31.4501 -31.4496 -31.4202 -31.4139 -31.3923 -31.3853 -31.3754
   -31.3704 -31.3545 -31.3535 -31.3216 -31.3205 -31.3147 -31.3139 -31.3081
   -31.2999 -31.2818 -31.2579 -31.2395 -31.1741 -31.1518 -31.1408 -31.1317
   -31.1117 -31.1026 -30.7373 -30.6510 -30.6285 -30.5548 -30.4684 -30.3567
   -17.7594 -16.3670 -16.0105 -15.8466 -15.6319 -15.5391 -15.5121 -15.3133
   -15.2184 -15.1602 -14.9582 -14.9315 -14.8941 -14.8811 -14.8724 -14.8513
   -14.8477 -14.7961 -14.7807 -14.7708 -14.7673 -14.7370 -14.7099 -14.6706
   -14.6112 -14.5973 -14.4947 -14.4393 -14.3994 -14.1581 -14.1365 -13.2046
   -12.8299 -12.7135  -9.4453  -6.4733  -5.7457  -4.2779  -3.9339  -3.3686
    -3.2672  -3.2556  -3.1993  -3.1316  -2.9874  -2.8838  -2.7822  -2.7428
    -2.6113  -2.5972  -2.4919  -2.4432  -2.3701  -2.3240  -2.2827  -2.2479
    -2.2204  -2.1646  -2.1420  -2.1164  -2.1048  -2.0320  -2.0138  -1.9238
    -1.8911  -1.8775  -1.7599  -1.7253  -1.6908  -1.6777  -1.6684  -1.6630
    -1.6191  -1.6081  -1.5974  -1.5561  -1.4552  -1.4471  -1.4294  -1.3387
    -1.2425  -0.9916  -0.9600  -0.9093  -0.8978  -0.8198  -0.7811  -0.7495
    -0.7168  -0.6468  -0.6359  -0.6095  -0.5486  -0.4730  -0.4188  -0.3710
    -0.3367  -0.2250  -0.1748  -0.1311  -0.0983  -0.0615   0.0015   0.0411
     0.0652   0.1082   0.1959   0.2591   0.2867   0.3034   0.3536   0.3955
     0.4334   0.4742   0.5457   0.5682   0.5783   0.6176   0.6262   0.6471
     0.7426   0.7610   0.8205   0.8479   0.9356   0.9667   1.0108   1.1806
     1.2503   1.3083   1.3861   1.4752   1.6406   1.6951   1.7201   1.8891
     2.2624   2.3078   3.7273   3.8747   3.8910   3.9687   3.9856   4.0498
     4.2162   4.2754   4.4141   4.4234

[...]

          k = 0.0380-0.0419 0.0000 ( 17876 PWs)   bands (ev):

[...]

          k =-0.0760-0.0000 0.0000 ( 17886 PWs)   bands (ev):

[...]

          k =-0.0760-0.0839 0.0000 ( 17948 PWs)   bands (ev):

   -55.4439 -55.3396 -55.3391 -55.2162 -55.2032 -55.1890 -55.1857 -55.1714
   -55.1687 -55.1221 -55.0952 -54.9820 -54.9371 -54.8965 -54.3143 -54.3143
   -31.7297 -31.6693 -31.6570 -31.6567 -31.6557 -31.6415 -31.6330 -31.6325
   -31.5755 -31.5306 -31.5092 -31.4984 -31.4930 -31.4877 -31.4651 -31.4594
   -31.4587 -31.4556 -31.4494 -31.4368 -31.4300 -31.4271 -31.4156 -31.3898
   -31.3849 -31.3831 -31.3757 -31.3679 -31.3493 -31.3440 -31.3406 -31.3403
   -31.3371 -31.3173 -31.3157 -31.2511 -31.2341 -31.2055 -31.1783 -31.1541
   -31.1487 -31.1074 -30.6413 -30.6412 -30.5504 -30.5500 -30.5117 -30.5116
   -17.7554 -16.3570 -15.5909 -15.4462 -15.3379 -15.3275 -15.2036 -15.1363
   -15.1266 -15.0928 -15.0702 -15.0484 -15.0297 -15.0147 -14.9598 -14.9201
   -14.8888 -14.8614 -14.8568 -14.8138 -14.8041 -14.7927 -14.7748 -14.7633
   -14.7081 -14.6719 -14.6622 -14.6037 -14.4646 -14.4422 -14.2883 -13.2059
   -12.8155 -12.8152  -9.4642  -6.4579  -5.7521  -4.2632  -3.9228  -2.9734
    -2.8007  -2.6578  -2.6067  -2.5624  -2.4488  -2.4249  -2.3666  -2.3161
    -2.2921  -2.2704  -2.2185  -2.2084  -2.1630  -2.1465  -2.1224  -2.1074
    -2.0909  -2.0844  -2.0569  -2.0408  -2.0303  -2.0193  -1.9903  -1.9793
    -1.9609  -1.9324  -1.9121  -1.9030  -1.8700  -1.8270  -1.7660  -1.6561
    -1.5818  -1.5711  -1.5268  -1.5018  -1.4856  -1.4446  -1.4320  -1.3910
    -1.3736  -1.3074  -1.1493  -1.1241  -1.1098  -0.9674  -0.9602  -0.9312
    -0.8571  -0.8154  -0.7935  -0.7357  -0.7051  -0.6648  -0.5887  -0.5454
    -0.4911  -0.4250  -0.3251  -0.3175  -0.3014  -0.2815  -0.2653  -0.2574
    -0.2244  -0.1870  -0.1140  -0.0674  -0.0587  -0.0527  -0.0016   0.0783
     0.1292   0.2437   0.3899   0.3942   0.4614   0.4621   0.6618   0.6704
     0.7475   0.7827   0.8172   0.8443   0.9381   0.9561   0.9937   1.0773
     1.1401   1.1696   1.1905   1.1953   1.2484   1.4568   2.0574   2.0652
     2.1281   2.1282   3.9684   4.2015   4.2417   4.2549   4.2734   4.2997
     4.3134   4.3274   4.3979   4.4244

     the Fermi energy is     3.7646 ev

!    total energy              =   -2976.46394749 Ry
     estimated scf accuracy    <       0.00000007 Ry
     smearing contrib. (-TS)   =      -0.01955549 Ry
     internal energy E=F+TS    =   -2976.44439200 Ry

     The total energy is F=E-TS. E is the sum of the following terms:
     one-electron contribution =  -23037.36062443 Ry
     hartree contribution      =   11616.40896395 Ry
     xc contribution           =    -495.73277271 Ry
     ewald contribution        =    8940.23720075 Ry
     electric field correction =       0.00284044 Ry

     convergence has been achieved in  61 iterations

     Forces acting on atoms (cartesian axes, Ry/au):

     atom    1 type  1   force =     0.00016182   -0.00022182    0.09418114
     atom    2 type  1   force =    -0.00010034    0.00018326   -0.17535013
     atom    3 type  2   force =     0.00005343   -0.00049480   -0.02103537
     atom    4 type  2   force =    -0.00002556   -0.00093631    0.05424044
     atom    5 type  2   force =    -0.00488210   -0.00215627    0.00106567
     atom    6 type  2   force =     0.00670622   -0.00138302    0.00107932
     atom    7 type  1   force =     0.00005620    0.00332059    0.00865529
     atom    8 type  1   force =    -0.00010260    0.00119682    0.00270955
     atom    9 type  2   force =    -0.00021897   -0.00030376   -0.00059079
     atom   10 type  2   force =    -0.00112147    0.00429264   -0.01026313
     atom   11 type  2   force =    -0.00007544   -0.00055199   -0.00011382
     atom   12 type  2   force =     0.00061747   -0.00031728   -0.00027687
     atom   13 type  1   force =    -0.00144329    0.00019844   -0.00056724
     atom   14 type  1   force =     0.00071428    0.00018096   -0.00047273
     atom   15 type  2   force =     0.00013385   -0.00004807    0.00000869
     atom   16 type  2   force =    -0.00009358   -0.00069129   -0.00029793
     atom   17 type  2   force =    -0.00043114    0.00075644    0.00011830
     atom   18 type  2   force =    -0.00074261    0.00033077   -0.00020373
     atom   19 type  1   force =     0.00040213   -0.00096270    0.00057290
     atom   20 type  1   force =    -0.00073139   -0.00025689    0.00065087
     atom   21 type  2   force =     0.00003791   -0.00001040    0.10319709
     atom   22 type  2   force =    -0.00007077    0.00000770    0.00032296
     atom   23 type  2   force =    -0.07199821   -0.00018940   -0.02727006
     atom   24 type  2   force =     0.07187600    0.00026527   -0.02734197
     atom   25 type  1   force =     0.00007313   -0.00016655    0.09390022
     atom   26 type  1   force =    -0.00011938   -0.00137323   -0.17549323
     atom   27 type  2   force =     0.00011094   -0.00005608   -0.01985281
     atom   28 type  2   force =     0.00006580   -0.00105024    0.04978907
     atom   29 type  2   force =    -0.00746655    0.00209569    0.00338753
     atom   30 type  2   force =     0.00907103    0.00223633    0.00330627
     atom   31 type  1   force =     0.00019351    0.00151970    0.00004759
     atom   32 type  1   force =    -0.00008808   -0.00227111    0.00302001
     atom   33 type  2   force =    -0.00017601   -0.00031589   -0.00003002
     atom   34 type  2   force =    -0.00117171   -0.00218614   -0.00965558
     atom   35 type  2   force =     0.00063767    0.00005156   -0.00022911
     atom   36 type  2   force =     0.00037628    0.00011309   -0.00035535
     atom   37 type  1   force =    -0.00097485    0.00026211    0.00036948
     atom   38 type  1   force =     0.00096922   -0.00025778    0.00019933
     atom   39 type  2   force =    -0.00017728   -0.00052971    0.00011104
     atom   40 type  2   force =    -0.00020236   -0.00019060   -0.00017643
     atom   41 type  2   force =     0.00026790   -0.00036791   -0.00005246
     atom   42 type  2   force =    -0.00064373    0.00004201   -0.00008813
     atom   43 type  1   force =     0.00023262    0.00097807    0.00047817
     atom   44 type  1   force =    -0.00037344    0.00106152    0.00008572
     atom   45 type  2   force =     0.00002570    0.00003475    0.10301691
     atom   46 type  2   force =    -0.07194747   -0.00009065   -0.02722552
     atom   47 type  2   force =     0.07183861    0.00034455   -0.02730650
     atom   48 type  3   force =    -0.00016958   -0.00126784   -0.00095419
     atom   49 type  3   force =     0.00429293    0.01277678    0.00159974
     atom   50 type  4   force =     0.00001271   -0.00013317    0.00017318
     atom   51 type  5   force =    -0.00102935   -0.00018982    0.00047558
     atom   52 type  5   force =     0.00057306   -0.00010320    0.00035957
     atom   53 type  5   force =    -0.00022676    0.00063919   -0.00048089
     atom   54 type  5   force =     0.00060100   -0.00033273   -0.00001313
     atom   55 type  5   force =     0.00097924    0.00019928    0.00003362
     atom   56 type  5   force =    -0.00419429   -0.01345656   -0.00183760
     atom   57 type  2   force =     0.00071571   -0.00119160    0.00015795
     atom   58 type  5   force =    -0.00079806    0.00096729    0.00022153

     Total force =     0.362516     Total SCF correction =     0.000658
  @ DRIVER MODE: Message from server: STATUS
  @ DRIVER MODE: Message from server: GETFORCE
  @ DRIVER MODE: Returning v,forces,stress,ensemble

     Writing output data file ./calc.save/
  @ DRIVER MODE: Message from server: EXIT
  @ DRIVE MODE: Exiting

     General routines

     Parallel routines

   This run was terminated on:  14:10:47  24Sep2021

   JOB DONE.