     Program PWSCF v.6.7GPU starts on 15Sep2021 at 23:55: 8

     R & G space division:  proc/nbgrp/npool/nimage =      10
     Reading input from /storage/home/hcoda1/3/ntian30/research/carbon/CxH_vib/H2O_calc/ads_slab/CH2H2O_a/out_0028/pw.inp
Warning: card &CELL ignored
Warning: card   CELL_DYNAMICS='IPI', ignored
Warning: card / ignored

     Current dimensions of program PWSCF are:
     Max number of different atomic species (ntypx) = 10
     Max number of k-points (npk) =  40000
     Max angular momentum in pseudopotentials (lmaxx) =  3
     Presently no symmetry can be used with electric field

     Message from routine cell_base_init:
     DEPRECATED: use true lattice parameter, not A to a.u. conversion factor

     IMPORTANT: XC functional enforced from input :
     Exchange-correlation= BEEF-VDW
                           (   1   4  43  14   2   0   0)
     Any further DFT definition will be discarded
     Please, verify this is what you really want

  @ DRIVER MODE: Connecting to
 qe_1139763_2852604.sched-torque.pace.gatech.edu958v8100_scratch
  using UNIX socket
  @ DRIVER MODE: Message from server: STATUS
  @ DRIVER MODE: Message from server: INIT
  @ DRIVER MODE: Receiving replica           0          -1
  @ DRIVER MODE: Receiving encoded integer          25
  @ DRIVER MODE:  SCF:  T  FORCE:  T  STRESS:  F  VC:  F  ENSEMBLE:  F
  @ DRIVER MODE:  SCF:  T  FORCE:  T  STRESS:  F  VC:  F  ENSEMBLE:  F

     Using Slab Decomposition

     bravais-lattice index     =            0
     lattice parameter (alat)  =       1.8897  a.u.
     unit-cell volume          =    6658.9804 (a.u.)^3
     number of atoms/cell      =           53
     number of atomic types    =            4
     number of electrons       =       392.00
     number of Kohn-Sham states=          206
     kinetic-energy cutoff     =      29.3995  Ry
     charge density cutoff     =     293.9946  Ry
     scf convergence threshold =      7.3E-08
     mixing beta               =       0.0500
     number of iterations used =            8  plain     mixing
     Exchange-correlation= BEEF-VDW
                           (   1   4  43  14   2   0   0)

     celldm(1)=   1.889726  celldm(2)=   0.000000  celldm(3)=   0.000000
     celldm(4)=   0.000000  celldm(5)=   0.000000  celldm(6)=   0.000000

     crystal axes: (cart. coord. in units of alat)
               a(1) = (   6.579727   0.000000   0.000000 )
               a(2) = (  -0.000775   5.961596   0.000000 )
               a(3) = (   0.000000   0.000000  25.155947 )

     reciprocal axes: (cart. coord. in units 2 pi/alat)
               b(1) = (  0.151982  0.000020  0.000000 )
               b(2) = (  0.000000  0.167740  0.000000 )
               b(3) = (  0.000000  0.000000  0.039752 )

     PseudoPot. # 1 for Ti read from file:
     /storage/coda1/p-amedford6/0/shared/rich_project_chbe-medford/medford-share/data/pseudos_module/espresso/nninc/pbe/van/Ti.UPF
     MD5 check sum: 8e4df49b7f0d34bbd5052bf3f5ea0213
     Pseudo is Ultrasoft, Zval = 12.0
     Generated by new atomic code, or converted to UPF format
     Using radial grid of  851 points,  6 beta functions with:
                l(1) =   0
                l(2) =   0
                l(3) =   1
                l(4) =   1
                l(5) =   2
                l(6) =   2
     Q(r) pseudized with  8 coefficients,  rinner =    1.000   1.000   1.000
                                                       1.000   1.000

     PseudoPot. # 2 for O  read from file:
     /storage/coda1/p-amedford6/0/shared/rich_project_chbe-medford/medford-share/data/pseudos_module/espresso/nninc/pbe/van/O.UPF
     MD5 check sum: 78c19812648e8988a0fe644b0f25305e
     Pseudo is Ultrasoft, Zval =  6.0
     Generated by new atomic code, or converted to UPF format
     Using radial grid of  737 points,  4 beta functions with:
                l(1) =   0
                l(2) =   0
                l(3) =   1
                l(4) =   1
     Q(r) pseudized with  8 coefficients,  rinner =    0.800   0.800   0.800

     PseudoPot. # 3 for C  read from file:
     /storage/coda1/p-amedford6/0/shared/rich_project_chbe-medford/medford-share/data/pseudos_module/espresso/nninc/pbe/van/C.UPF
     MD5 check sum: 1a69bf6b8db32088f5b2163dbdb77a27
     Pseudo is Ultrasoft, Zval =  4.0
     Generated by new atomic code, or converted to UPF format
     Using radial grid of  721 points,  4 beta functions with:
                l(1) =   0
                l(2) =   0
                l(3) =   1
                l(4) =   1
     Q(r) pseudized with  8 coefficients,  rinner =    0.800   0.800   0.800

     PseudoPot. # 4 for H  read from file:
     /storage/coda1/p-amedford6/0/shared/rich_project_chbe-medford/medford-share/data/pseudos_module/espresso/nninc/pbe/van/H.UPF
     MD5 check sum: b5ee9d7bfd3a09ee7748110bda690ff7
     Pseudo is Ultrasoft, Zval =  1.0
     Generated by new atomic code, or converted to UPF format
     Using radial grid of  615 points,  1 beta functions with:
                l(1) =   0
     Q(r) pseudized with  8 coefficients,  rinner =    0.800

     atomic species   valence    mass     pseudopotential
        Ti1           12.00    47.86700     Ti( 1.00)
        O1             6.00    15.99900     O ( 1.00)
        C1             4.00    12.01100     C ( 1.00)
        H1             1.00     1.00800     H ( 1.00)

     No symmetry found

   Cartesian axes

     site n.     atom                  positions (alat units)
         1           Ti1 tau(   1) = (   0.0004258   2.9801865   6.0000000  )
         2           Ti1 tau(   2) = (   3.2906075   1.4906267   6.0002472  )
         3           O1  tau(   3) = (   0.0006271   0.0005054   7.9858123  )
         4           O1  tau(   4) = (   3.2906025   0.0005020   7.3038282  )
         5           O1  tau(   5) = (   4.5942328   1.4918067   9.2879030  )
         6           O1  tau(   6) = (   1.9868534   1.4903216   9.2879459  )
         7           Ti1 tau(   7) = (   3.2791254   2.8632543   9.1696858  )
         8           Ti1 tau(   8) = (   6.5716288   1.4291880   9.3745659  )
         9           O1  tau(   9) = (   3.2719631   5.9564768  11.3413791  )
        10           O1  tau(  10) = (   6.5766582   5.9454684  10.5603319  )
        11           O1  tau(  11) = (   1.2606928   1.4857163  12.6338655  )
        12           O1  tau(  12) = (   5.2561023   1.4877827  12.6114660  )
        13           Ti1 tau(  13) = (   0.0646731   2.9540699  12.8218634  )
        14           Ti1 tau(  14) = (   3.3836270   1.4660460  12.4955168  )
        15           O1  tau(  15) = (   6.5457659   5.9184216  14.5915085  )
        16           O1  tau(  16) = (   3.2744135   0.0171945  13.9516778  )
        17           O1  tau(  17) = (   4.5159629   1.5536209  16.0418326  )
        18           O1  tau(  18) = (   1.9981799   1.5541948  16.0447984  )
        19           Ti1 tau(  19) = (   3.2528476   3.0136947  15.6822407  )
        20           Ti1 tau(  20) = (   6.5571992   1.6159626  16.1493948  )
        21           O1  tau(  21) = (   3.2904802   0.0005063   4.7018136  )
        22           O1  tau(  22) = (   6.5499432   0.0285508  17.2403840  )
        23           O1  tau(  23) = (   1.3043587   1.4918075   6.0039043  )
        24           O1  tau(  24) = (   5.2767064   1.4903225   6.0039473  )
        25           Ti1 tau(  25) = (   0.0000382   5.9609847   6.0000000  )
        26           Ti1 tau(  26) = (   3.2902200   4.4714249   6.0002472  )
        27           O1  tau(  27) = (   0.0002396   2.9813036   7.9858123  )
        28           O1  tau(  28) = (   3.2902150   2.9813002   7.3038282  )
        29           O1  tau(  29) = (   4.5938453   4.4726049   9.2879030  )
        30           O1  tau(  30) = (   1.9864658   4.4711199   9.2879459  )
        31           Ti1 tau(  31) = (   3.2865685   5.8444178   9.1628351  )
        32           Ti1 tau(  32) = (   6.5743218   4.4049426   9.3738558  )
        33           O1  tau(  33) = (   3.2769956   2.9705820  11.3381082  )
        34           O1  tau(  34) = (   6.5775985   2.9640992  10.5572898  )
        35           O1  tau(  35) = (   1.2629977   4.4457513  12.6272354  )
        36           O1  tau(  36) = (   5.2537740   4.4534837  12.6036699  )
        37           Ti1 tau(  37) = (   0.0534783   5.9329931  12.7718795  )
        38           Ti1 tau(  38) = (   3.3808541   4.4548706  12.4760825  )
        39           O1  tau(  39) = (   6.5578179   2.9671967  14.6759119  )
        40           O1  tau(  40) = (   3.2646438   2.9894133  13.8927730  )
        41           O1  tau(  41) = (   4.5094683   4.4833613  16.0328582  )
        42           O1  tau(  42) = (   2.0033084   4.4836886  16.0339364  )
        43           Ti1 tau(  43) = (   3.2772676   0.0291193  15.7865657  )
        44           Ti1 tau(  44) = (   6.5620481   4.6241259  16.1080240  )
        45           O1  tau(  45) = (   3.2900926   2.9813045   4.7018136  )
        46           O1  tau(  46) = (   1.3039711   4.4726057   6.0039043  )
        47           O1  tau(  47) = (   5.2763189   4.4711207   6.0039473  )
        48           C1  tau(  48) = (   6.5362552   2.9989010  17.5868729  )
        49           H1  tau(  49) = (   0.8535040   3.1223538  18.1993289  )
        50           H1  tau(  50) = (   5.6240823   3.1149880  18.1772116  )
        51           O1  tau(  51) = (   3.2614802   0.0224742  18.1496266  )
        52           H1  tau(  52) = (   4.0536690   0.0054879  18.7024920  )
        53           H1  tau(  53) = (   2.4635753   0.0005096  18.6943540  )

     number of k points=    10  Fermi-Dirac smearing, width (Ry)=  0.0073
                       cart. coord. in units 2pi/alat
        k(    1) = (   0.0000000   0.0000000   0.0000000), wk =   0.1250000
        k(    2) = (   0.0000000   0.0419351   0.0000000), wk =   0.2500000
        k(    3) = (   0.0000000  -0.0838702   0.0000000), wk =   0.1250000
        k(    4) = (   0.0379955   0.0000049   0.0000000), wk =   0.2500000
        k(    5) = (   0.0379955   0.0419400   0.0000000), wk =   0.2500000
        k(    6) = (   0.0379955  -0.0838652   0.0000000), wk =   0.2500000
        k(    7) = (   0.0379955  -0.0419301   0.0000000), wk =   0.2500000
        k(    8) = (  -0.0759910  -0.0000099   0.0000000), wk =   0.1250000
        k(    9) = (  -0.0759910   0.0419252   0.0000000), wk =   0.2500000
        k(   10) = (  -0.0759910  -0.0838800   0.0000000), wk =   0.1250000

     Initial potential from superposition of free atoms

     starting charge  375.99917, renormalised to  392.00000

     negative rho (up, down):  1.851E-02 0.000E+00

     %%%%%%%%%%%%%%%%%%%%%%%%%%%%%%%%%%%%%%%%%%%%%%%%%%%%%%%%%%%%%%%%%%%%%%%%
     %                                                                      %
     % You are using vdW-DF, which was implemented by the Thonhauser group. %
     % Please cite the following two papers that made this development      %
     % possible and the two reviews that describe the various versions:     %
     %                                                                      %
     %   T. Thonhauser et al., PRL 115, 136402 (2015).                      %
     %   T. Thonhauser et al., PRB 76, 125112 (2007).                       %
     %   K. Berland et al., Rep. Prog. Phys. 78, 066501 (2015).             %
     %   D.C. Langreth et al., J. Phys.: Condens. Matter 21, 084203 (2009). %
     %                                                                      %
     %                                                                      %
     % If you are calculating the stress with vdW-DF, please also cite:     %
     %                                                                      %
     %   R. Sabatini et al., J. Phys.: Condens. Matter 24, 424209 (2012).   %
     %                                                                      %
     %%%%%%%%%%%%%%%%%%%%%%%%%%%%%%%%%%%%%%%%%%%%%%%%%%%%%%%%%%%%%%%%%%%%%%%%

     Adding external electric field

     Computed dipole along edir(3) :
        Dipole               -5.1805 Ry au,        -13.1674 Debye
        Dipole field         -0.0098 Ry au,

        Potential amp.        0.9062 Ry
        Total length         46.3494 bohr

     Starting wfcs are  296 atomic wfcs
  @ DRIVER MODE: Message from server: STATUS
  @ DRIVER MODE: Message from server: POSDATA
  @ DRIVER MODE: Reading and sharing cell
  @ DRIVER MODE: Reading and sharing positions
  @ DRIVER MODE: Received positions

     Self-consistent Calculation

     iteration #  1     ecut=    29.40 Ry     beta= 0.05
     Davidson diagonalization with overlap
     c_bands:  5 eigenvalues not converged
     c_bands:  3 eigenvalues not converged
     c_bands:  4 eigenvalues not converged
     c_bands:  1 eigenvalues not converged
     c_bands:  2 eigenvalues not converged
     c_bands:  1 eigenvalues not converged
     c_bands:  3 eigenvalues not converged
     c_bands:  1 eigenvalues not converged
     ethr =  1.00E-05,  avg # of iterations = 19.5

[...]

     total energy              =   -2834.20310632 Ry
     estimated scf accuracy    <    1088.24364768 Ry

     iteration #  2     ecut=    29.40 Ry     beta= 0.05
     Davidson diagonalization with overlap
     ethr =  1.00E-02,  avg # of iterations = 15.8

[...]

     iteration # 46     ecut=    29.40 Ry     beta= 0.05
     Davidson diagonalization with overlap
     c_bands:  1 eigenvalues not converged
     c_bands:  1 eigenvalues not converged
     ethr =  1.01E-06,  avg # of iterations =  8.8

[...]

     total energy              =   -2932.56458180 Ry
     estimated scf accuracy    <       0.00000022 Ry

     iteration # 79     ecut=    29.40 Ry     beta= 0.05
     Davidson diagonalization with overlap
     ethr =  3.86E-11,  avg # of iterations =  5.0

     negative rho (up, down):  1.822E-02 0.000E+00

     Adding external electric field

     Computed dipole along edir(3) :
        Dipole                0.9002 Ry au,          2.2880 Debye
        Dipole field          0.0017 Ry au,

        Potential amp.       -0.1575 Ry
        Total length         46.3494 bohr

     End of self-consistent calculation

          k = 0.0000 0.0000 0.0000 ( 18029 PWs)   bands (ev):

   -56.1845 -56.1504 -55.8902 -55.8411 -55.8032 -55.6982 -55.5895 -55.5616
   -55.5276 -55.5082 -55.4915 -55.4557 -55.1246 -54.9927 -54.9692 -54.9352
   -32.6124 -32.4357 -32.4068 -32.3816 -32.3737 -32.2900 -32.2823 -32.2391
   -32.1765 -32.1098 -32.1033 -32.0681 -32.0570 -32.0539 -32.0476 -32.0225
   -31.9980 -31.9963 -31.9659 -31.8942 -31.8704 -31.8387 -31.8216 -31.8089
   -31.8068 -31.7780 -31.7483 -31.7316 -31.7241 -31.7205 -31.6786 -31.6711
   -31.6703 -31.6638 -31.6494 -31.5952 -31.5731 -31.4207 -31.3722 -31.3690
   -31.3226 -31.2957 -31.2719 -31.1874 -31.1679 -31.1025 -31.0374 -30.9905
   -19.2297 -16.5187 -16.3490 -16.1130 -15.9785 -15.8970 -15.7368 -15.5559
   -15.5473 -15.4585 -15.4352 -15.3589 -15.3503 -15.3159 -15.3036 -15.2957
   -15.2806 -15.2571 -15.2113 -15.1998 -15.1993 -15.1505 -15.0959 -15.0028
   -14.9907 -14.9430 -14.8249 -14.8177 -14.7832 -14.6376 -13.4629 -13.3492
    -8.0679  -7.2728  -3.9965  -3.9288  -3.8112  -3.7191  -3.6941  -3.5791
    -3.3396  -3.2697  -3.0123  -2.9808  -2.9379  -2.8923  -2.8776  -2.7973
    -2.7048  -2.6899  -2.6619  -2.6366  -2.6015  -2.5939  -2.5306  -2.5211
    -2.4986  -2.4929  -2.4288  -2.4143  -2.3721  -2.2357  -2.1858  -2.1608
    -2.1483  -2.1091  -2.0740  -2.0117  -1.9887  -1.9610  -1.9028  -1.7534
    -1.7298  -1.6492  -1.6210  -1.5494  -1.4598  -1.4461  -1.2995  -1.2810
    -1.2454  -1.2343  -1.2067  -1.1545  -1.1346  -1.0278  -0.8973  -0.8180
    -0.7856  -0.7639  -0.7505  -0.7037  -0.6675  -0.6138  -0.6058  -0.5625
    -0.4872  -0.4782  -0.4028  -0.2175  -0.2037  -0.1926  -0.1757  -0.1334
    -0.1043  -0.0822  -0.0385   0.0065   0.0309   0.0894   0.0997   0.1312
     0.1486   0.2259   0.2745   0.3303   0.3364   0.4493   0.5604   0.6227
     0.6405   0.6710   0.7719   0.7835   0.9897   1.0081   1.0586   1.2703
     1.3157   1.6441   1.7158   2.1721   3.0846   3.2598   3.4628   3.5612
     3.5812   3.6765   3.6892   3.8210   3.8782   3.9267

[...]

          k = 0.0380-0.0419 0.0000 ( 17876 PWs)   bands (ev):

[...]

          k =-0.0760-0.0000 0.0000 ( 17886 PWs)   bands (ev):

[...]

          k =-0.0760-0.0839 0.0000 ( 17948 PWs)   bands (ev):

   -56.1704 -56.1644 -55.8886 -55.8286 -55.8156 -55.6997 -55.5856 -55.5455
   -55.5435 -55.5120 -55.4773 -55.4699 -55.1224 -54.9948 -54.9522 -54.9521
   -32.4324 -32.4274 -32.4244 -32.4171 -32.3288 -32.3238 -32.1959 -32.1833
   -32.1689 -32.1577 -32.1058 -32.0911 -32.0522 -32.0322 -32.0282 -32.0164
   -31.9981 -31.9019 -31.9017 -31.8758 -31.8752 -31.8392 -31.8168 -31.8070
   -31.8041 -31.7967 -31.7901 -31.7870 -31.7580 -31.7562 -31.7544 -31.7388
   -31.6927 -31.6856 -31.6824 -31.6756 -31.4830 -31.4193 -31.3761 -31.2951
   -31.2848 -31.2848 -31.2788 -31.1834 -31.1831 -31.1451 -31.1450 -31.0504
   -19.2290 -16.0083 -15.8981 -15.7453 -15.7053 -15.6618 -15.6613 -15.6310
   -15.5975 -15.5620 -15.5557 -15.4657 -15.4342 -15.4207 -15.4084 -15.3435
   -15.3377 -15.3329 -15.3294 -15.2685 -15.2618 -15.1477 -15.1398 -15.0600
   -15.0496 -15.0199 -14.9978 -14.9545 -14.9480 -14.7883 -13.4517 -13.4513
    -8.0724  -7.2659  -3.9170  -3.3088  -3.0904  -2.9692  -2.9304  -2.8046
    -2.7933  -2.7872  -2.7796  -2.7672  -2.7280  -2.6729  -2.6527  -2.6412
    -2.6158  -2.6025  -2.5749  -2.5668  -2.5397  -2.5379  -2.5323  -2.5281
    -2.5097  -2.4922  -2.4356  -2.4272  -2.4111  -2.3815  -2.3023  -2.2872
    -2.1966  -2.1100  -2.0777  -2.0764  -2.0159  -1.9809  -1.8988  -1.8903
    -1.8738  -1.8685  -1.8049  -1.6113  -1.5563  -1.5511  -1.5139  -1.4790
    -1.3179  -1.2803  -1.2181  -1.1773  -1.1454  -1.1337  -1.0580  -1.0469
    -1.0213  -0.9674  -0.9630  -0.9557  -0.9400  -0.8589  -0.8422  -0.8157
    -0.7413  -0.7001  -0.6839  -0.6581  -0.6274  -0.5745  -0.4901  -0.4670
    -0.4546  -0.4401  -0.3113  -0.2736  -0.2444  -0.2061  -0.1575   0.1076
     0.1172   0.1993   0.2999   0.3931   0.4342   0.5359   0.5539   0.5605
     0.6868   0.6999   0.7054   0.7144   0.8149   0.8217   0.8584   1.4437
     1.4460   1.4985   1.4999   2.4417   3.6077   3.6148   3.6263   3.6315
     3.6543   3.6844   3.7039   3.7352   4.0267   4.0596

     the Fermi energy is     2.7919 ev

!    total energy              =   -2932.56459151 Ry
     estimated scf accuracy    <       0.00000006 Ry
     smearing contrib. (-TS)   =      -0.00167225 Ry
     internal energy E=F+TS    =   -2932.56291926 Ry

     The total energy is F=E-TS. E is the sum of the following terms:
     one-electron contribution =  -24523.11489936 Ry
     hartree contribution      =   12349.15607619 Ry
     xc contribution           =    -482.74455983 Ry
     ewald contribution        =    9724.13893465 Ry
     electric field correction =       0.00152910 Ry

     convergence has been achieved in  79 iterations

     Forces acting on atoms (cartesian axes, Ry/au):

     atom    1 type  1   force =     0.00030222   -0.00016799    0.14550115
     atom    2 type  1   force =     0.00005355    0.00072526   -0.16925181
     atom    3 type  2   force =     0.00003663    0.00235356   -0.06020891
     atom    4 type  2   force =    -0.00017135   -0.00141762    0.03907356
     atom    5 type  2   force =    -0.02193802   -0.00032870    0.00359761
     atom    6 type  2   force =     0.01962784   -0.00081735    0.00220685
     atom    7 type  1   force =     0.00012234   -0.00001274    0.00040271
     atom    8 type  1   force =     0.00006839    0.00010601    0.00106958
     atom    9 type  2   force =    -0.00007773   -0.00028656    0.00029155
     atom   10 type  2   force =     0.00010486    0.00014876   -0.00060601
     atom   11 type  2   force =     0.00007414    0.00001763    0.00100149
     atom   12 type  2   force =     0.00072908    0.00009698    0.00105602
     atom   13 type  1   force =    -0.00073167   -0.00015805   -0.00047045
     atom   14 type  1   force =     0.00037449   -0.00105029   -0.00000420
     atom   15 type  2   force =     0.00019342   -0.00016155    0.00096673
     atom   16 type  2   force =    -0.00005375   -0.00027772    0.00145647
     atom   17 type  2   force =     0.00012304   -0.00057783    0.00026654
     atom   18 type  2   force =    -0.00011947   -0.00066905    0.00019653
     atom   19 type  1   force =     0.00079876   -0.00061631   -0.00025356
     atom   20 type  1   force =    -0.00024999    0.00043850   -0.00025357
     atom   21 type  2   force =     0.00012921   -0.00007867    0.10219436
     atom   22 type  2   force =     0.00015103    0.00002571   -0.00001044
     atom   23 type  2   force =    -0.07475667    0.00032262   -0.03449525
     atom   24 type  2   force =     0.07483045    0.00076973   -0.03456494
     atom   25 type  1   force =     0.00009723   -0.00007034    0.14711023
     atom   26 type  1   force =     0.00001176   -0.00210956   -0.16943359
     atom   27 type  2   force =     0.00001543    0.00193162   -0.05937139
     atom   28 type  2   force =    -0.00028752   -0.00139771    0.03995477
     atom   29 type  2   force =    -0.02158093    0.00107299    0.00382160
     atom   30 type  2   force =     0.02032940   -0.00011201    0.00243169
     atom   31 type  1   force =     0.00013206    0.00017283    0.00129875
     atom   32 type  1   force =     0.00006602   -0.00021720    0.00116492
     atom   33 type  2   force =    -0.00010569   -0.00006539   -0.00060075
     atom   34 type  2   force =     0.00010700    0.00009976   -0.00066384
     atom   35 type  2   force =     0.00027084   -0.00038139    0.00076549
     atom   36 type  2   force =     0.00036026   -0.00045482    0.00083553
     atom   37 type  1   force =    -0.00059315   -0.00015537   -0.00057264
     atom   38 type  1   force =     0.00049205    0.00060262   -0.00034812
     atom   39 type  2   force =     0.00028666   -0.00002377   -0.00020423
     atom   40 type  2   force =    -0.00009647   -0.00014026    0.00178238
     atom   41 type  2   force =     0.00010313    0.00047422    0.00028387
     atom   42 type  2   force =    -0.00012559    0.00057124    0.00042918
     atom   43 type  1   force =     0.00042348    0.00055009   -0.00020151
     atom   44 type  1   force =    -0.00040789    0.00021499   -0.00012924
     atom   45 type  2   force =     0.00012075   -0.00010427    0.10211140
     atom   46 type  2   force =    -0.07474749   -0.00002610   -0.03446597
     atom   47 type  2   force =     0.07483569    0.00043162   -0.03456433
     atom   48 type  3   force =    -0.00002717   -0.00030898    0.00032022
     atom   49 type  4   force =     0.00008946   -0.00020307   -0.00041553
     atom   50 type  4   force =     0.00039783   -0.00003259   -0.00034348
     atom   51 type  2   force =    -0.00015406    0.00076912   -0.00125507
     atom   52 type  4   force =     0.00092008    0.00019696    0.00065370
     atom   53 type  4   force =    -0.00055400    0.00033044    0.00044393

     Total force =     0.400358     Total SCF correction =     0.000507
  @ DRIVER MODE: Message from server: STATUS
  @ DRIVER MODE: Message from server: GETFORCE
  @ DRIVER MODE: Returning v,forces,stress,ensemble

     Writing output data file ./calc.save/
  @ DRIVER MODE: Message from server: EXIT
  @ DRIVE MODE: Exiting

     General routines

     Parallel routines

   This run was terminated on:   0:13:59  16Sep2021

   JOB DONE.