     Program PWSCF v.6.7GPU starts on 16Sep2021 at  4: 6:50

     R & G space division:  proc/nbgrp/npool/nimage =      10
     Reading input from /storage/home/hcoda1/3/ntian30/research/carbon/CxH_vib/H2O_calc/ads_slab/CH3OHH2O_e/out_0039/pw.inp
Warning: card &CELL ignored
Warning: card   CELL_DYNAMICS='IPI', ignored
Warning: card / ignored

     Current dimensions of program PWSCF are:
     Max number of different atomic species (ntypx) = 10
     Max number of k-points (npk) =  40000
     Max angular momentum in pseudopotentials (lmaxx) =  3
     Presently no symmetry can be used with electric field

     Message from routine cell_base_init:
     DEPRECATED: use true lattice parameter, not A to a.u. conversion factor

     IMPORTANT: XC functional enforced from input :
     Exchange-correlation= BEEF-VDW
                           (   1   4  43  14   2   0   0)
     Any further DFT definition will be discarded
     Please, verify this is what you really want

  @ DRIVER MODE: Connecting to
 qe_1139763_2852623.sched-torque.pace.gatech.edu06sa3y5r_scratch
  using UNIX socket
  @ DRIVER MODE: Message from server: STATUS
  @ DRIVER MODE: Message from server: INIT
  @ DRIVER MODE: Receiving replica           0          -1
  @ DRIVER MODE: Receiving encoded integer          25
  @ DRIVER MODE:  SCF:  T  FORCE:  T  STRESS:  F  VC:  F  ENSEMBLE:  F
  @ DRIVER MODE:  SCF:  T  FORCE:  T  STRESS:  F  VC:  F  ENSEMBLE:  F

     Using Slab Decomposition

     bravais-lattice index     =            0
     lattice parameter (alat)  =       1.8897  a.u.
     unit-cell volume          =    6658.9804 (a.u.)^3
     number of atoms/cell      =           56
     number of atomic types    =            4
     number of electrons       =       400.00
     number of Kohn-Sham states=          210
     kinetic-energy cutoff     =      29.3995  Ry
     charge density cutoff     =     293.9946  Ry
     scf convergence threshold =      7.3E-08
     mixing beta               =       0.0500
     number of iterations used =            8  plain     mixing
     Exchange-correlation= BEEF-VDW
                           (   1   4  43  14   2   0   0)

     celldm(1)=   1.889726  celldm(2)=   0.000000  celldm(3)=   0.000000
     celldm(4)=   0.000000  celldm(5)=   0.000000  celldm(6)=   0.000000

     crystal axes: (cart. coord. in units of alat)
               a(1) = (   6.579727   0.000000   0.000000 )
               a(2) = (  -0.000775   5.961596   0.000000 )
               a(3) = (   0.000000   0.000000  25.155947 )

     reciprocal axes: (cart. coord. in units 2 pi/alat)
               b(1) = (  0.151982  0.000020  0.000000 )
               b(2) = (  0.000000  0.167740  0.000000 )
               b(3) = (  0.000000  0.000000  0.039752 )

     PseudoPot. # 1 for Ti read from file:
     /storage/coda1/p-amedford6/0/shared/rich_project_chbe-medford/medford-share/data/pseudos_module/espresso/nninc/pbe/van/Ti.UPF
     MD5 check sum: 8e4df49b7f0d34bbd5052bf3f5ea0213
     Pseudo is Ultrasoft, Zval = 12.0
     Generated by new atomic code, or converted to UPF format
     Using radial grid of  851 points,  6 beta functions with:
                l(1) =   0
                l(2) =   0
                l(3) =   1
                l(4) =   1
                l(5) =   2
                l(6) =   2
     Q(r) pseudized with  8 coefficients,  rinner =    1.000   1.000   1.000
                                                       1.000   1.000

     PseudoPot. # 2 for O  read from file:
     /storage/coda1/p-amedford6/0/shared/rich_project_chbe-medford/medford-share/data/pseudos_module/espresso/nninc/pbe/van/O.UPF
     MD5 check sum: 78c19812648e8988a0fe644b0f25305e
     Pseudo is Ultrasoft, Zval =  6.0
     Generated by new atomic code, or converted to UPF format
     Using radial grid of  737 points,  4 beta functions with:
                l(1) =   0
                l(2) =   0
                l(3) =   1
                l(4) =   1
     Q(r) pseudized with  8 coefficients,  rinner =    0.800   0.800   0.800

     PseudoPot. # 3 for C  read from file:
     /storage/coda1/p-amedford6/0/shared/rich_project_chbe-medford/medford-share/data/pseudos_module/espresso/nninc/pbe/van/C.UPF
     MD5 check sum: 1a69bf6b8db32088f5b2163dbdb77a27
     Pseudo is Ultrasoft, Zval =  4.0
     Generated by new atomic code, or converted to UPF format
     Using radial grid of  721 points,  4 beta functions with:
                l(1) =   0
                l(2) =   0
                l(3) =   1
                l(4) =   1
     Q(r) pseudized with  8 coefficients,  rinner =    0.800   0.800   0.800

     PseudoPot. # 4 for H  read from file:
     /storage/coda1/p-amedford6/0/shared/rich_project_chbe-medford/medford-share/data/pseudos_module/espresso/nninc/pbe/van/H.UPF
     MD5 check sum: b5ee9d7bfd3a09ee7748110bda690ff7
     Pseudo is Ultrasoft, Zval =  1.0
     Generated by new atomic code, or converted to UPF format
     Using radial grid of  615 points,  1 beta functions with:
                l(1) =   0
     Q(r) pseudized with  8 coefficients,  rinner =    0.800

     atomic species   valence    mass     pseudopotential
        Ti1           12.00    47.86700     Ti( 1.00)
        O1             6.00    15.99900     O ( 1.00)
        C1             4.00    12.01100     C ( 1.00)
        H1             1.00     1.00800     H ( 1.00)

     No symmetry found

   Cartesian axes

     site n.     atom                  positions (alat units)
         1           Ti1 tau(   1) = (   0.0004258   2.9801865   6.0000000  )
         2           Ti1 tau(   2) = (   3.2906075   1.4906267   6.0002472  )
         3           O1  tau(   3) = (   0.0006271   0.0005054   7.9858123  )
         4           O1  tau(   4) = (   3.2906025   0.0005020   7.3038282  )
         5           O1  tau(   5) = (   4.5942328   1.4918067   9.2879030  )
         6           O1  tau(   6) = (   1.9868534   1.4903216   9.2879459  )
         7           Ti1 tau(   7) = (   3.3179988   2.9667087   9.1587561  )
         8           Ti1 tau(   8) = (   0.0368451   1.4888401   9.2646154  )
         9           O1  tau(   9) = (   3.2981896   5.9413050  11.3756853  )
        10           O1  tau(  10) = (   0.0022081   5.9550161  10.6068466  )
        11           O1  tau(  11) = (   1.2930414   1.4711740  12.6526869  )
        12           O1  tau(  12) = (   5.2963464   1.4745835  12.6500758  )
        13           Ti1 tau(  13) = (   0.0229324   2.9590759  12.5385950  )
        14           Ti1 tau(  14) = (   3.3157970   1.4644123  12.5194148  )
        15           O1  tau(  15) = (   6.5691168   5.9481840  14.6869282  )
        16           O1  tau(  16) = (   3.2964787   5.9455965  14.0277316  )
        17           O1  tau(  17) = (   4.5665908   1.5027878  16.2081754  )
        18           O1  tau(  18) = (   2.0283028   1.5092035  16.1774433  )
        19           Ti1 tau(  19) = (   3.2999954   2.9453206  15.7178785  )
        20           Ti1 tau(  20) = (   6.5724188   1.3235339  15.9896992  )
        21           O1  tau(  21) = (   3.2904802   0.0005063   4.7018136  )
        22           O1  tau(  22) = (   0.0286320   5.9425150  17.2304330  )
        23           O1  tau(  23) = (   1.3043587   1.4918075   6.0039043  )
        24           O1  tau(  24) = (   5.2767064   1.4903225   6.0039473  )
        25           Ti1 tau(  25) = (   0.0000382   5.9609847   6.0000000  )
        26           Ti1 tau(  26) = (   3.2902200   4.4714249   6.0002472  )
        27           O1  tau(  27) = (   0.0002396   2.9813036   7.9858123  )
        28           O1  tau(  28) = (   3.2902150   2.9813002   7.3038282  )
        29           O1  tau(  29) = (   4.5938453   4.4726049   9.2879030  )
        30           O1  tau(  30) = (   1.9864658   4.4711199   9.2879459  )
        31           Ti1 tau(  31) = (   3.3176359   5.9492212   9.1540102  )
        32           Ti1 tau(  32) = (   0.0367062   4.4560090   9.2708352  )
        33           O1  tau(  33) = (   3.2951800   2.9650663  11.3684769  )
        34           O1  tau(  34) = (   0.0080098   2.9764013  10.6279654  )
        35           O1  tau(  35) = (   1.2931912   4.4560454  12.6592269  )
        36           O1  tau(  36) = (   5.2946864   4.4524020  12.6579832  )
        37           Ti1 tau(  37) = (   0.0159028   5.9413441  12.4831893  )
        38           Ti1 tau(  38) = (   3.3151975   4.4500431  12.5204281  )
        39           O1  tau(  39) = (   0.0034497   2.9621527  14.8596962  )
        40           O1  tau(  40) = (   3.2989893   2.9535984  13.9376031  )
        41           O1  tau(  41) = (   4.5724332   4.4114593  16.1445292  )
        42           O1  tau(  42) = (   2.0255208   4.3883007  16.1585022  )
        43           Ti1 tau(  43) = (   3.2821299   5.9114753  15.8432964  )
        44           Ti1 tau(  44) = (   6.5414858   4.5242847  15.8739915  )
        45           O1  tau(  45) = (   3.2900926   2.9813045   4.7018136  )
        46           O1  tau(  46) = (   1.3039711   4.4726057   6.0039043  )
        47           O1  tau(  47) = (   5.2763189   4.4711207   6.0039473  )
        48           C1  tau(  48) = (   5.9754720   3.1749164  18.9278073  )
        49           O1  tau(  49) = (   0.1533887   3.0270296  17.7012840  )
        50           H1  tau(  50) = (   4.9293134   3.0706859  18.6584277  )
        51           H1  tau(  51) = (   1.0910173   3.2466920  17.8500278  )
        52           H1  tau(  52) = (   6.2690755   2.3937635  19.6305738  )
        53           H1  tau(  53) = (   6.1431946   4.1694627  19.3379575  )
        54           O1  tau(  54) = (   3.1723115   5.9328592  18.3689464  )
        55           H1  tau(  55) = (   3.8852673   0.6353712  18.4582360  )
        56           H1  tau(  56) = (   2.3406934   0.4831942  18.3201771  )

     number of k points=    10  Fermi-Dirac smearing, width (Ry)=  0.0073
                       cart. coord. in units 2pi/alat
        k(    1) = (   0.0000000   0.0000000   0.0000000), wk =   0.1250000
        k(    2) = (   0.0000000   0.0419351   0.0000000), wk =   0.2500000
        k(    3) = (   0.0000000  -0.0838702   0.0000000), wk =   0.1250000
        k(    4) = (   0.0379955   0.0000049   0.0000000), wk =   0.2500000
        k(    5) = (   0.0379955   0.0419400   0.0000000), wk =   0.2500000
        k(    6) = (   0.0379955  -0.0838652   0.0000000), wk =   0.2500000
        k(    7) = (   0.0379955  -0.0419301   0.0000000), wk =   0.2500000
        k(    8) = (  -0.0759910  -0.0000099   0.0000000), wk =   0.1250000
        k(    9) = (  -0.0759910   0.0419252   0.0000000), wk =   0.2500000
        k(   10) = (  -0.0759910  -0.0838800   0.0000000), wk =   0.1250000

     Initial potential from superposition of free atoms

     starting charge  383.99915, renormalised to  400.00000

     negative rho (up, down):  1.599E-02 0.000E+00

     %%%%%%%%%%%%%%%%%%%%%%%%%%%%%%%%%%%%%%%%%%%%%%%%%%%%%%%%%%%%%%%%%%%%%%%%
     %                                                                      %
     % You are using vdW-DF, which was implemented by the Thonhauser group. %
     % Please cite the following two papers that made this development      %
     % possible and the two reviews that describe the various versions:     %
     %                                                                      %
     %   T. Thonhauser et al., PRL 115, 136402 (2015).                      %
     %   T. Thonhauser et al., PRB 76, 125112 (2007).                       %
     %   K. Berland et al., Rep. Prog. Phys. 78, 066501 (2015).             %
     %   D.C. Langreth et al., J. Phys.: Condens. Matter 21, 084203 (2009). %
     %                                                                      %
     %                                                                      %
     % If you are calculating the stress with vdW-DF, please also cite:     %
     %                                                                      %
     %   R. Sabatini et al., J. Phys.: Condens. Matter 24, 424209 (2012).   %
     %                                                                      %
     %%%%%%%%%%%%%%%%%%%%%%%%%%%%%%%%%%%%%%%%%%%%%%%%%%%%%%%%%%%%%%%%%%%%%%%%

     Adding external electric field

     Computed dipole along edir(3) :
        Dipole              -11.7400 Ry au,        -29.8402 Debye
        Dipole field         -0.0222 Ry au,

        Potential amp.        2.0537 Ry
        Total length         46.3494 bohr

     Starting wfcs are  302 atomic wfcs
  @ DRIVER MODE: Message from server: STATUS
  @ DRIVER MODE: Message from server: POSDATA
  @ DRIVER MODE: Reading and sharing cell
  @ DRIVER MODE: Reading and sharing positions
  @ DRIVER MODE: Received positions

     Self-consistent Calculation

     iteration #  1     ecut=    29.40 Ry     beta= 0.05
     Davidson diagonalization with overlap
     c_bands:  2 eigenvalues not converged
     c_bands:  2 eigenvalues not converged
     c_bands:  4 eigenvalues not converged
     c_bands:  3 eigenvalues not converged
     c_bands:  4 eigenvalues not converged
     c_bands:  4 eigenvalues not converged
     c_bands:  3 eigenvalues not converged
     c_bands:  2 eigenvalues not converged
     ethr =  1.00E-05,  avg # of iterations = 21.3

[...]

     total energy              =   -2420.25048500 Ry
     estimated scf accuracy    <    6189.16255212 Ry

     iteration #  2     ecut=    29.40 Ry     beta= 0.05
     Davidson diagonalization with overlap
     ethr =  1.00E-02,  avg # of iterations = 28.8

[...]

     iteration # 58     ecut=    29.40 Ry     beta= 0.05
     Davidson diagonalization with overlap
     c_bands:  1 eigenvalues not converged
     c_bands:  1 eigenvalues not converged
     c_bands:  1 eigenvalues not converged
     ethr =  2.18E-10,  avg # of iterations = 14.5

[...]

     total energy              =   -2967.47583305 Ry
     estimated scf accuracy    <       0.00000008 Ry

     iteration # 64     ecut=    29.40 Ry     beta= 0.05
     Davidson diagonalization with overlap
     ethr =  2.09E-11,  avg # of iterations = 11.1

     negative rho (up, down):  1.588E-02 0.000E+00

     Adding external electric field

     Computed dipole along edir(3) :
        Dipole                1.3777 Ry au,          3.5017 Debye
        Dipole field          0.0026 Ry au,

        Potential amp.       -0.2410 Ry
        Total length         46.3494 bohr

     End of self-consistent calculation

          k = 0.0000 0.0000 0.0000 ( 18029 PWs)   bands (ev):

   -55.2504 -55.2228 -55.2144 -55.1885 -55.1567 -55.1487 -55.1433 -55.0964
   -55.0960 -55.0900 -55.0557 -55.0379 -55.0081 -55.0039 -54.3123 -54.2782
   -31.8171 -31.7664 -31.7180 -31.6277 -31.5654 -31.5552 -31.5505 -31.5480
   -31.5115 -31.4822 -31.4660 -31.4638 -31.4524 -31.4427 -31.4285 -31.4140
   -31.3969 -31.3906 -31.3875 -31.3830 -31.3767 -31.3681 -31.3453 -31.3405
   -31.3388 -31.3189 -31.3163 -31.3142 -31.2936 -31.2799 -31.2643 -31.2438
   -31.2422 -31.2415 -31.2303 -31.2212 -31.2026 -31.1893 -31.1773 -31.1727
   -31.1596 -31.1491 -30.7243 -30.6219 -30.6003 -30.5407 -30.4543 -30.3432
   -20.1688 -19.0332 -16.0799 -15.8328 -15.6930 -15.5945 -15.4736 -15.3401
   -15.2799 -15.1651 -15.0741 -14.9840 -14.9693 -14.9509 -14.9211 -14.8987
   -14.8738 -14.8356 -14.8094 -14.7657 -14.7568 -14.7404 -14.7336 -14.6968
   -14.6942 -14.6488 -14.6404 -14.4834 -14.4132 -14.3531 -14.1307 -12.8128
   -12.6934 -11.1871  -6.9226  -6.7536  -5.1362  -5.0155  -3.4195  -3.2629
    -3.2270  -3.2124  -3.1839  -3.1566  -3.0589  -2.9609  -2.7920  -2.6793
    -2.5416  -2.5347  -2.4888  -2.4614  -2.4044  -2.3223  -2.2340  -2.2075
    -2.1712  -2.1396  -2.1362  -2.1204  -2.1098  -2.0538  -2.0178  -1.9603
    -1.8638  -1.8135  -1.7724  -1.7557  -1.6953  -1.6515  -1.6151  -1.5888
    -1.5824  -1.5759  -1.5174  -1.5154  -1.5073  -1.4960  -1.4785  -1.2897
    -1.2499  -1.1175  -1.0266  -0.9859  -0.9712  -0.8179  -0.8111  -0.7666
    -0.7332  -0.6994  -0.6588  -0.6013  -0.5037  -0.4706  -0.4217  -0.3835
    -0.2755  -0.2433  -0.2115  -0.1584  -0.0503  -0.0419  -0.0162   0.0029
     0.0773   0.1729   0.2020   0.2233   0.3004   0.3054   0.3668   0.4075
     0.4408   0.5160   0.5612   0.5724   0.6642   0.6810   0.6947   0.7213
     0.7247   0.8233   0.8593   0.9039   0.9224   1.0740   1.1687   1.3078
     1.3365   1.6031   1.6984   1.7138   1.8741   2.2997   2.3545   3.8407
     3.9091   3.9474   3.9553   3.9685   4.0480   4.3317   4.3471   4.3590
     4.3687   4.3868

[...]

          k = 0.0380-0.0419 0.0000 ( 17876 PWs)   bands (ev):

[...]

          k =-0.0760-0.0000 0.0000 ( 17886 PWs)   bands (ev):

[...]

          k =-0.0760-0.0839 0.0000 ( 17948 PWs)   bands (ev):

   -55.2333 -55.2312 -55.2075 -55.2037 -55.1536 -55.1428 -55.1359 -55.1038
   -55.1027 -55.0740 -55.0714 -55.0227 -55.0192 -55.0100 -54.2953 -54.2952
   -31.6834 -31.6241 -31.6172 -31.5346 -31.5311 -31.5172 -31.5057 -31.5005
   -31.4932 -31.4725 -31.4542 -31.4488 -31.4447 -31.4309 -31.4054 -31.4029
   -31.3913 -31.3890 -31.3817 -31.3808 -31.3773 -31.3741 -31.3613 -31.3475
   -31.3395 -31.3345 -31.3336 -31.3272 -31.3243 -31.3240 -31.3235 -31.3053
   -31.2979 -31.2954 -31.2770 -31.2725 -31.2718 -31.2477 -31.2441 -31.2088
   -31.2047 -31.1917 -30.6129 -30.6129 -30.5371 -30.5368 -30.4976 -30.4974
   -20.1655 -19.0325 -15.6381 -15.5396 -15.3892 -15.2660 -15.2537 -15.2411
   -15.1889 -15.1246 -15.1110 -15.0608 -15.0478 -15.0173 -15.0012 -14.9953
   -14.9592 -14.8507 -14.8466 -14.8363 -14.8156 -14.7706 -14.7596 -14.7525
   -14.7402 -14.7042 -14.6957 -14.6815 -14.6711 -14.5792 -14.4399 -12.7948
   -12.7941 -11.1890  -6.9211  -6.7516  -5.1377  -4.9936  -3.2050  -2.9893
    -2.8077  -2.7286  -2.6316  -2.4838  -2.4693  -2.3881  -2.3761  -2.3256
    -2.2547  -2.2519  -2.2483  -2.1669  -2.1549  -2.1546  -2.1334  -2.1132
    -2.0738  -2.0650  -2.0404  -2.0309  -1.9897  -1.9589  -1.9458  -1.9281
    -1.9183  -1.9144  -1.8832  -1.8683  -1.8524  -1.8119  -1.7895  -1.7283
    -1.6409  -1.6034  -1.4804  -1.4781  -1.4410  -1.4119  -1.3875  -1.3471
    -1.3271  -1.2794  -1.2594  -1.2336  -1.0502  -1.0342  -0.9792  -0.9389
    -0.9195  -0.9066  -0.8446  -0.7727  -0.7455  -0.7144  -0.6488  -0.5755
    -0.4791  -0.4552  -0.4469  -0.3401  -0.2887  -0.2491  -0.2448  -0.2353
    -0.2117  -0.1630  -0.1432  -0.0813  -0.0423   0.0013   0.0267   0.0436
     0.2246   0.2632   0.3216   0.4132   0.4420   0.5864   0.6356   0.6871
     0.7477   0.8241   0.8352   0.9011   1.0154   1.0277   1.0578   1.1345
     1.1779   1.1836   1.2087   2.0651   2.0672   2.1687   2.1717   3.9706
     4.0780   4.0967   4.1756   4.2417   4.3498   4.3629   4.3922   4.4026
     4.4478   4.4796

     the Fermi energy is     3.8972 ev

!    total energy              =   -2967.47586872 Ry
     estimated scf accuracy    <       0.00000002 Ry
     smearing contrib. (-TS)   =      -0.03654090 Ry
     internal energy E=F+TS    =   -2967.43932782 Ry

     The total energy is F=E-TS. E is the sum of the following terms:
     one-electron contribution =  -23962.67778339 Ry
     hartree contribution      =   12076.93902080 Ry
     xc contribution           =    -491.84897116 Ry
     ewald contribution        =    9410.14482425 Ry
     electric field correction =       0.00358167 Ry

     convergence has been achieved in  64 iterations

     Forces acting on atoms (cartesian axes, Ry/au):

     atom    1 type  1   force =    -0.00026910    0.00019303    0.09242924
     atom    2 type  1   force =    -0.00034875    0.00104774   -0.18341771
     atom    3 type  2   force =     0.00050457   -0.00072690   -0.02348967
     atom    4 type  2   force =     0.00072364   -0.00018531    0.05069946
     atom    5 type  2   force =    -0.01405425   -0.00130930    0.00495646
     atom    6 type  2   force =     0.01522158   -0.00064621    0.00509959
     atom    7 type  1   force =    -0.00048486    0.00105408   -0.00012262
     atom    8 type  1   force =     0.00016657   -0.00053348    0.00040198
     atom    9 type  2   force =    -0.00044172    0.00017691    0.00040844
     atom   10 type  2   force =     0.00040753    0.00016382    0.00047839
     atom   11 type  2   force =     0.00035793    0.00043757    0.00034357
     atom   12 type  2   force =     0.00005349    0.00014010    0.00027044
     atom   13 type  1   force =    -0.00088278   -0.00118880   -0.00011023
     atom   14 type  1   force =     0.00059231   -0.00005452    0.00020224
     atom   15 type  2   force =     0.00051353    0.00077476    0.00005971
     atom   16 type  2   force =    -0.00061534   -0.00036198    0.00003705
     atom   17 type  2   force =    -0.00005290    0.00015727   -0.00022594
     atom   18 type  2   force =    -0.00003669    0.00019898    0.00009137
     atom   19 type  1   force =     0.00065096    0.00015874   -0.00033970
     atom   20 type  1   force =    -0.00004978    0.00012774   -0.00010244
     atom   21 type  2   force =    -0.00004075    0.00015783    0.10496814
     atom   22 type  2   force =    -0.00037741    0.00061284   -0.00098496
     atom   23 type  2   force =    -0.06799395    0.00011813   -0.02681600
     atom   24 type  2   force =     0.06770746    0.00051145   -0.02687679
     atom   25 type  1   force =    -0.00038931   -0.00008510    0.09626390
     atom   26 type  1   force =    -0.00035650   -0.00099636   -0.18321370
     atom   27 type  2   force =     0.00041947   -0.00125399   -0.02224815
     atom   28 type  2   force =     0.00069914   -0.00033436    0.05102079
     atom   29 type  2   force =    -0.01424448   -0.00106410    0.00467096
     atom   30 type  2   force =     0.01519075    0.00020802    0.00485301
     atom   31 type  1   force =    -0.00050642   -0.00146329    0.00018695
     atom   32 type  1   force =     0.00014204    0.00070675   -0.00027504
     atom   33 type  2   force =     0.00002222   -0.00020582    0.00007338
     atom   34 type  2   force =     0.00002312   -0.00006967   -0.00007890
     atom   35 type  2   force =     0.00021286    0.00008661    0.00030937
     atom   36 type  2   force =     0.00039644    0.00045359    0.00005614
     atom   37 type  1   force =    -0.00106777    0.00124605   -0.00005910
     atom   38 type  1   force =     0.00037880    0.00011439   -0.00044549
     atom   39 type  2   force =     0.00039116    0.00019529   -0.00033469
     atom   40 type  2   force =    -0.00008349    0.00018932    0.00007971
     atom   41 type  2   force =    -0.00017576    0.00012082   -0.00062206
     atom   42 type  2   force =     0.00007872   -0.00013031    0.00002503
     atom   43 type  1   force =    -0.00059160   -0.00012368    0.00024611
     atom   44 type  1   force =    -0.00003722    0.00006811   -0.00080685
     atom   45 type  2   force =    -0.00005626    0.00015205    0.10490485
     atom   46 type  2   force =    -0.06803266   -0.00036892   -0.02679980
     atom   47 type  2   force =     0.06775672    0.00006295   -0.02688684
     atom   48 type  3   force =    -0.00002752    0.00051563   -0.00023273
     atom   49 type  2   force =    -0.00111222    0.00031485    0.00089788
     atom   50 type  4   force =     0.00048008    0.00058451    0.00007226
     atom   51 type  4   force =     0.00072533    0.00088726   -0.00002871
     atom   52 type  4   force =    -0.00042733    0.00060078   -0.00023886
     atom   53 type  4   force =    -0.00019025   -0.00024584    0.00010037
     atom   54 type  2   force =     0.00175182    0.01582544    0.00177988
     atom   55 type  4   force =    -0.00798355   -0.00978807   -0.00160153
     atom   56 type  4   force =     0.00536239   -0.00722739    0.00037186

     Total force =     0.368869     Total SCF correction =     0.000441
  @ DRIVER MODE: Message from server: STATUS
  @ DRIVER MODE: Message from server: GETFORCE
  @ DRIVER MODE: Returning v,forces,stress,ensemble

     Writing output data file ./calc.save/
  @ DRIVER MODE: Message from server: EXIT
  @ DRIVE MODE: Exiting

     General routines

     Parallel routines

   This run was terminated on:   4:24:24  16Sep2021

   JOB DONE.