     Program PWSCF v.6.7GPU starts on 13Oct2021 at  0: 5:16

     R & G space division:  proc/nbgrp/npool/nimage =       8
     Reading input from /storage/home/hcoda1/3/ntian30/research/carbon/ACS_vib/ads_slab/N2H6/out_0036/pw.inp
Warning: card &CELL ignored
Warning: card   CELL_DYNAMICS='IPI', ignored
Warning: card / ignored

     Current dimensions of program PWSCF are:
     Max number of different atomic species (ntypx) = 10
     Max number of k-points (npk) =  40000
     Max angular momentum in pseudopotentials (lmaxx) =  3
     Presently no symmetry can be used with electric field

     Message from routine cell_base_init:
     DEPRECATED: use true lattice parameter, not A to a.u. conversion factor

     IMPORTANT: XC functional enforced from input :
     Exchange-correlation= BEEF-VDW
                           (   1   4  43  14   2   0   0)
     Any further DFT definition will be discarded
     Please, verify this is what you really want

  @ DRIVER MODE: Connecting to
 qe_1139763_3181315.sched-torque.pace.gatech.edu0lpgqinn_scratch
  using UNIX socket
  @ DRIVER MODE: Message from server: STATUS
  @ DRIVER MODE: Message from server: INIT
  @ DRIVER MODE: Receiving replica           0          -1
  @ DRIVER MODE: Receiving encoded integer          25
  @ DRIVER MODE:  SCF:  T  FORCE:  T  STRESS:  F  VC:  F  ENSEMBLE:  F
  @ DRIVER MODE:  SCF:  T  FORCE:  T  STRESS:  F  VC:  F  ENSEMBLE:  F

     Using Slab Decomposition

     bravais-lattice index     =            0
     lattice parameter (alat)  =       1.8897  a.u.
     unit-cell volume          =    6658.9804 (a.u.)^3
     number of atoms/cell      =           55
     number of atomic types    =            4
     number of electrons       =       394.00
     number of Kohn-Sham states=          207
     kinetic-energy cutoff     =      29.3995  Ry
     charge density cutoff     =     293.9946  Ry
     scf convergence threshold =      7.3E-08
     mixing beta               =       0.0500
     number of iterations used =            8  plain     mixing
     Exchange-correlation= BEEF-VDW
                           (   1   4  43  14   2   0   0)

     celldm(1)=   1.889726  celldm(2)=   0.000000  celldm(3)=   0.000000
     celldm(4)=   0.000000  celldm(5)=   0.000000  celldm(6)=   0.000000

     crystal axes: (cart. coord. in units of alat)
               a(1) = (   6.579727   0.000000   0.000000 )
               a(2) = (  -0.000775   5.961596   0.000000 )
               a(3) = (   0.000000   0.000000  25.155947 )

     reciprocal axes: (cart. coord. in units 2 pi/alat)
               b(1) = (  0.151982  0.000020  0.000000 )
               b(2) = (  0.000000  0.167740  0.000000 )
               b(3) = (  0.000000  0.000000  0.039752 )

     PseudoPot. # 1 for Ti read from file:
     /storage/coda1/p-amedford6/0/shared/rich_project_chbe-medford/medford-share/data/pseudos_module/espresso/nninc/pbe/van/Ti.UPF
     MD5 check sum: 8e4df49b7f0d34bbd5052bf3f5ea0213
     Pseudo is Ultrasoft, Zval = 12.0
     Generated by new atomic code, or converted to UPF format
     Using radial grid of  851 points,  6 beta functions with:
                l(1) =   0
                l(2) =   0
                l(3) =   1
                l(4) =   1
                l(5) =   2
                l(6) =   2
     Q(r) pseudized with  8 coefficients,  rinner =    1.000   1.000   1.000
                                                       1.000   1.000

     PseudoPot. # 2 for O  read from file:
     /storage/coda1/p-amedford6/0/shared/rich_project_chbe-medford/medford-share/data/pseudos_module/espresso/nninc/pbe/van/O.UPF
     MD5 check sum: 78c19812648e8988a0fe644b0f25305e
     Pseudo is Ultrasoft, Zval =  6.0
     Generated by new atomic code, or converted to UPF format
     Using radial grid of  737 points,  4 beta functions with:
                l(1) =   0
                l(2) =   0
                l(3) =   1
                l(4) =   1
     Q(r) pseudized with  8 coefficients,  rinner =    0.800   0.800   0.800

     PseudoPot. # 3 for N  read from file:
     /storage/coda1/p-amedford6/0/shared/rich_project_chbe-medford/medford-share/data/pseudos_module/espresso/nninc/pbe/van/N.UPF
     MD5 check sum: 90d10febe142ad51ac9d5be1deb811c4
     Pseudo is Ultrasoft, Zval =  5.0
     Generated by new atomic code, or converted to UPF format
     Using radial grid of  729 points,  4 beta functions with:
                l(1) =   0
                l(2) =   0
                l(3) =   1
                l(4) =   1
     Q(r) pseudized with  8 coefficients,  rinner =    0.800   0.800   0.800

     PseudoPot. # 4 for H  read from file:
     /storage/coda1/p-amedford6/0/shared/rich_project_chbe-medford/medford-share/data/pseudos_module/espresso/nninc/pbe/van/H.UPF
     MD5 check sum: b5ee9d7bfd3a09ee7748110bda690ff7
     Pseudo is Ultrasoft, Zval =  1.0
     Generated by new atomic code, or converted to UPF format
     Using radial grid of  615 points,  1 beta functions with:
                l(1) =   0
     Q(r) pseudized with  8 coefficients,  rinner =    0.800

     atomic species   valence    mass     pseudopotential
        Ti1           12.00    47.86700     Ti( 1.00)
        O1             6.00    15.99900     O ( 1.00)
        N1             5.00    14.00700     N ( 1.00)
        H1             1.00     1.00800     H ( 1.00)

     No symmetry found

   Cartesian axes

     site n.     atom                  positions (alat units)
         1           Ti1 tau(   1) = (   0.0004258   2.9801865   6.0000000  )
         2           Ti1 tau(   2) = (   3.2906075   1.4906267   6.0002472  )
         3           O1  tau(   3) = (   0.0006271   0.0005054   7.9858123  )
         4           O1  tau(   4) = (   3.2906025   0.0005020   7.3038282  )
         5           O1  tau(   5) = (   4.5942328   1.4918067   9.2879030  )
         6           O1  tau(   6) = (   1.9868534   1.4903216   9.2879459  )
         7           Ti1 tau(   7) = (   3.2905188   2.9817269   9.1608671  )
         8           Ti1 tau(   8) = (   0.0008727   1.4903491   9.2579811  )
         9           O1  tau(   9) = (   3.2897677   5.9391746  11.3820438  )
        10           O1  tau(  10) = (  -0.0000005   5.9544960  10.6146985  )
        11           O1  tau(  11) = (   1.2884133   1.4789655  12.6516217  )
        12           O1  tau(  12) = (   5.2921206   1.4788385  12.6515509  )
        13           Ti1 tau(  13) = (   0.0005720   2.9629092  12.4975245  )
        14           Ti1 tau(  14) = (   3.2903801   1.4745319  12.5205501  )
        15           O1  tau(  15) = (   0.0004407   0.0388239  14.7059933  )
        16           O1  tau(  16) = (   3.2897445   5.9465346  14.0037610  )
        17           O1  tau(  17) = (   4.5472543   1.4569283  16.2215039  )
        18           O1  tau(  18) = (   2.0329396   1.4568822  16.2213506  )
        19           Ti1 tau(  19) = (   3.2899346   2.9358424  15.7577366  )
        20           Ti1 tau(  20) = (   0.0004932   1.4309995  16.0137732  )
        21           O1  tau(  21) = (   3.2904802   0.0005063   4.7018136  )
        22           O1  tau(  22) = (  -0.0003511   5.7889056  17.2622344  )
        23           O1  tau(  23) = (   1.3043587   1.4918075   6.0039043  )
        24           O1  tau(  24) = (   5.2767064   1.4903225   6.0039473  )
        25           Ti1 tau(  25) = (   0.0000382   5.9609847   6.0000000  )
        26           Ti1 tau(  26) = (   3.2902200   4.4714249   6.0002472  )
        27           O1  tau(  27) = (   0.0002396   2.9813036   7.9858123  )
        28           O1  tau(  28) = (   3.2902150   2.9813002   7.3038282  )
        29           O1  tau(  29) = (   4.5938453   4.4726049   9.2879030  )
        30           O1  tau(  30) = (   1.9864658   4.4711199   9.2879459  )
        31           Ti1 tau(  31) = (   3.2908958   0.0009406   9.1591437  )
        32           Ti1 tau(  32) = (   0.0004876   4.4725358   9.2579169  )
        33           O1  tau(  33) = (   3.2901541   2.9707129  11.3740276  )
        34           O1  tau(  34) = (   0.0003862   2.9798045  10.6274311  )
        35           O1  tau(  35) = (   1.2860740   4.4511954  12.6821393  )
        36           O1  tau(  36) = (   5.2936768   4.4510845  12.6820400  )
        37           Ti1 tau(  37) = (   0.0001324   5.9497034  12.4914426  )
        38           Ti1 tau(  38) = (   3.2900283   4.4525324  12.5305491  )
        39           O1  tau(  39) = (   0.0000299   2.9046373  14.9484161  )
        40           O1  tau(  40) = (   3.2901113   2.9423191  13.9685580  )
        41           O1  tau(  41) = (   4.5465916   4.4073028  16.1601725  )
        42           O1  tau(  42) = (   2.0329218   4.4072560  16.1600144  )
        43           Ti1 tau(  43) = (   3.2897320   5.9176933  15.7983882  )
        44           Ti1 tau(  44) = (   0.0000796   4.6311109  15.9036278  )
        45           O1  tau(  45) = (   3.2900926   2.9813045   4.7018136  )
        46           O1  tau(  46) = (   1.3039711   4.4726057   6.0039043  )
        47           O1  tau(  47) = (   5.2763189   4.4711207   6.0039473  )
        48           N1  tau(  48) = (   6.5791966   2.5420708  18.0661808  )
        49           H1  tau(  49) = (   6.5785613   1.6509345  18.5577087  )
        50           H1  tau(  50) = (   0.8131443   3.0604954  18.3807411  )
        51           H1  tau(  51) = (   5.7641953   3.0602838  18.3787844  )
        52           N1  tau(  52) = (  -0.0000615   4.8677125  20.5088556  )
        53           H1  tau(  53) = (   6.5774456   5.1124690  21.5035560  )
        54           H1  tau(  54) = (   0.8078797   5.3121143  20.0844266  )
        55           H1  tau(  55) = (   5.7710899   5.3082688  20.0816402  )

     number of k points=    10  Fermi-Dirac smearing, width (Ry)=  0.0073
                       cart. coord. in units 2pi/alat
        k(    1) = (   0.0000000   0.0000000   0.0000000), wk =   0.1250000
        k(    2) = (   0.0000000   0.0419351   0.0000000), wk =   0.2500000
        k(    3) = (   0.0000000  -0.0838702   0.0000000), wk =   0.1250000
        k(    4) = (   0.0379955   0.0000049   0.0000000), wk =   0.2500000
        k(    5) = (   0.0379955   0.0419400   0.0000000), wk =   0.2500000
        k(    6) = (   0.0379955  -0.0838652   0.0000000), wk =   0.2500000
        k(    7) = (   0.0379955  -0.0419301   0.0000000), wk =   0.2500000
        k(    8) = (  -0.0759910  -0.0000099   0.0000000), wk =   0.1250000
        k(    9) = (  -0.0759910   0.0419252   0.0000000), wk =   0.2500000
        k(   10) = (  -0.0759910  -0.0838800   0.0000000), wk =   0.1250000

     Initial potential from superposition of free atoms

     starting charge  377.99918, renormalised to  394.00000

     negative rho (up, down):  1.300E-02 0.000E+00

     %%%%%%%%%%%%%%%%%%%%%%%%%%%%%%%%%%%%%%%%%%%%%%%%%%%%%%%%%%%%%%%%%%%%%%%%
     %                                                                      %
     % You are using vdW-DF, which was implemented by the Thonhauser group. %
     % Please cite the following two papers that made this development      %
     % possible and the two reviews that describe the various versions:     %
     %                                                                      %
     %   T. Thonhauser et al., PRL 115, 136402 (2015).                      %
     %   T. Thonhauser et al., PRB 76, 125112 (2007).                       %
     %   K. Berland et al., Rep. Prog. Phys. 78, 066501 (2015).             %
     %   D.C. Langreth et al., J. Phys.: Condens. Matter 21, 084203 (2009). %
     %                                                                      %
     %                                                                      %
     % If you are calculating the stress with vdW-DF, please also cite:     %
     %                                                                      %
     %   R. Sabatini et al., J. Phys.: Condens. Matter 24, 424209 (2012).   %
     %                                                                      %
     %%%%%%%%%%%%%%%%%%%%%%%%%%%%%%%%%%%%%%%%%%%%%%%%%%%%%%%%%%%%%%%%%%%%%%%%

     Adding external electric field

     Computed dipole along edir(3) :
        Dipole               -9.7184 Ry au,        -24.7017 Debye
        Dipole field         -0.0183 Ry au,

        Potential amp.        1.7001 Ry
        Total length         46.3494 bohr

     Starting wfcs are  298 atomic wfcs
  @ DRIVER MODE: Message from server: STATUS
  @ DRIVER MODE: Message from server: POSDATA
  @ DRIVER MODE: Reading and sharing cell
  @ DRIVER MODE: Reading and sharing positions
  @ DRIVER MODE: Received positions

     Self-consistent Calculation

     iteration #  1     ecut=    29.40 Ry     beta= 0.05
     Davidson diagonalization with overlap
     c_bands:  1 eigenvalues not converged
     c_bands:  1 eigenvalues not converged
     c_bands:  1 eigenvalues not converged
     c_bands:  2 eigenvalues not converged
     ethr =  1.00E-05,  avg # of iterations = 18.0

[...]

     total energy              =   -2595.68483951 Ry
     estimated scf accuracy    <    3746.19664163 Ry

     iteration #  2     ecut=    29.40 Ry     beta= 0.05
     Davidson diagonalization with overlap
     ethr =  1.00E-02,  avg # of iterations = 23.6

[...]

     iteration # 78     ecut=    29.40 Ry     beta= 0.05
     Davidson diagonalization with overlap
     c_bands:  1 eigenvalues not converged
     ethr =  2.50E-11,  avg # of iterations = 10.0

[...]

     total energy              =   -2931.48016045 Ry
     estimated scf accuracy    <       0.00000008 Ry

     iteration # 79     ecut=    29.40 Ry     beta= 0.05
     Davidson diagonalization with overlap
     ethr =  1.91E-11,  avg # of iterations = 13.9

     negative rho (up, down):  1.425E-02 0.000E+00

     Adding external electric field

     Computed dipole along edir(3) :
        Dipole                1.3632 Ry au,          3.4650 Debye
        Dipole field          0.0026 Ry au,

        Potential amp.       -0.2385 Ry
        Total length         46.3494 bohr

     End of self-consistent calculation

          k = 0.0000 0.0000 0.0000 ( 18029 PWs)   bands (ev):

   -55.2813 -55.2448 -55.2331 -55.2027 -55.1989 -55.1664 -55.1528 -55.1184
   -55.1114 -55.0825 -55.0772 -55.0598 -55.0257 -54.9505 -54.3235 -54.2895
   -31.8493 -31.7361 -31.7322 -31.6390 -31.5990 -31.5882 -31.5853 -31.5715
   -31.5254 -31.5233 -31.4880 -31.4879 -31.4781 -31.4734 -31.4539 -31.4393
   -31.4341 -31.4214 -31.4170 -31.3907 -31.3847 -31.3756 -31.3653 -31.3528
   -31.3502 -31.3370 -31.3320 -31.3190 -31.2890 -31.2839 -31.2672 -31.2628
   -31.2571 -31.2539 -31.2505 -31.2432 -31.2099 -31.2053 -31.1920 -31.1739
   -31.1535 -31.1527 -30.7355 -30.6337 -30.6121 -30.5515 -30.4651 -30.3542
   -16.1129 -15.8756 -15.7455 -15.5873 -15.4970 -15.4567 -15.3575 -15.3322
   -15.2235 -15.1479 -15.0149 -14.9810 -14.9395 -14.9323 -14.9244 -14.9047
   -14.8989 -14.8277 -14.7985 -14.7898 -14.7716 -14.7669 -14.7661 -14.7467
   -14.7172 -14.6641 -14.6443 -14.5150 -14.4334 -14.3755 -14.1262 -12.8249
   -12.7057  -5.6482  -5.5088  -4.9131  -4.8013  -3.4438  -3.2899  -3.2551
    -3.2041  -3.1931  -3.0397  -2.8790  -2.7298  -2.7104  -2.5608  -2.5317
    -2.4798  -2.4579  -2.3065  -2.2811  -2.2366  -2.2106  -2.1611  -2.1506
    -2.1434  -2.1315  -2.0528  -2.0415  -2.0261  -1.8901  -1.8702  -1.7590
    -1.7187  -1.6629  -1.6491  -1.6442  -1.6103  -1.5921  -1.5518  -1.5410
    -1.5244  -1.4990  -1.4892  -1.3246  -1.2983  -1.1997  -1.1389  -1.0482
    -1.0317  -0.8876  -0.8523  -0.7635  -0.7448  -0.7273  -0.7129  -0.6797
    -0.6316  -0.5238  -0.4343  -0.4128  -0.3521  -0.3277  -0.2891  -0.2014
    -0.0976  -0.0689  -0.0363  -0.0338   0.0826   0.1072   0.1524   0.2188
     0.2388   0.2460   0.2633   0.3534   0.3674   0.4655   0.4891   0.4963
     0.5451   0.6340   0.6382   0.6525   0.6624   0.6890   0.7594   0.7659
     0.8657   0.8887   1.0051   1.2161   1.2877   1.3138   1.5927   1.6529
     1.7018   1.8645   2.2849   2.3373   3.8170   3.8835   3.9166   3.9498
     3.9860   4.0269   4.3143   4.3222   4.3347   4.3392   4.3757

[...]

          k = 0.0380-0.0419 0.0000 ( 17876 PWs)   bands (ev):

[...]

          k =-0.0760-0.0000 0.0000 ( 17886 PWs)   bands (ev):

[...]

          k =-0.0760-0.0839 0.0000 ( 17948 PWs)   bands (ev):

   -55.2658 -55.2601 -55.2160 -55.2159 -55.2012 -55.1629 -55.1364 -55.1347
   -55.0955 -55.0927 -55.0860 -55.0450 -55.0406 -54.9517 -54.3065 -54.3064
   -31.6545 -31.6503 -31.6502 -31.5700 -31.5470 -31.5469 -31.5406 -31.5087
   -31.5084 -31.4824 -31.4822 -31.4786 -31.4750 -31.4564 -31.4360 -31.4164
   -31.4117 -31.4100 -31.4099 -31.4039 -31.4025 -31.3997 -31.3607 -31.3597
   -31.3562 -31.3531 -31.3506 -31.3496 -31.3475 -31.3344 -31.3344 -31.3298
   -31.3273 -31.2929 -31.2909 -31.2754 -31.2723 -31.2671 -31.2303 -31.2291
   -31.2249 -31.1573 -30.6247 -30.6247 -30.5481 -30.5480 -30.5084 -30.5083
   -15.6326 -15.5198 -15.5113 -15.4740 -15.3209 -15.2999 -15.2625 -15.2477
   -15.1293 -15.0934 -15.0741 -15.0580 -15.0257 -15.0215 -15.0144 -14.9779
   -14.8941 -14.8743 -14.8688 -14.8566 -14.7924 -14.7871 -14.7804 -14.7794
   -14.7758 -14.7444 -14.7409 -14.6992 -14.6957 -14.6904 -14.3749 -12.8068
   -12.8067  -5.6258  -5.5117  -4.8808  -4.8101  -2.7928  -2.7365  -2.7364
    -2.5458  -2.4748  -2.4576  -2.4407  -2.3578  -2.3181  -2.2888  -2.2653
    -2.2343  -2.1924  -2.1887  -2.1673  -2.1587  -2.1430  -2.0976  -2.0792
    -2.0536  -2.0000  -1.9753  -1.9671  -1.9550  -1.9459  -1.9413  -1.9180
    -1.9160  -1.8899  -1.8784  -1.8230  -1.6715  -1.6559  -1.5777  -1.5089
    -1.5042  -1.5025  -1.4191  -1.3989  -1.3442  -1.3355  -1.3290  -1.0862
    -1.0640  -1.0639  -1.0586  -1.0265  -0.9122  -0.9028  -0.8303  -0.8009
    -0.7823  -0.6754  -0.6648  -0.6049  -0.6011  -0.4939  -0.4920  -0.4335
    -0.3052  -0.2988  -0.2855  -0.2604  -0.2586  -0.2171  -0.2130  -0.1056
    -0.0695  -0.0187  -0.0073   0.0249   0.1865   0.2301   0.2502   0.2724
     0.4059   0.4265   0.5605   0.5680   0.6229   0.7326   0.7626   0.8017
     0.8297   0.9788   0.9897   1.0109   1.1024   1.1165   1.1543   1.1608
     2.0526   2.0540   2.1554   2.1557   3.9775   4.0592   4.0847   4.1241
     4.2293   4.3274   4.3424   4.3435   4.3774   4.3804   4.4765

     the Fermi energy is     3.8806 ev

!    total energy              =   -2931.48017336 Ry
     estimated scf accuracy    <       0.00000006 Ry
     smearing contrib. (-TS)   =      -0.03684973 Ry
     internal energy E=F+TS    =   -2931.44332363 Ry

     The total energy is F=E-TS. E is the sum of the following terms:
     one-electron contribution =  -23480.77328929 Ry
     hartree contribution      =   11831.08033685 Ry
     xc contribution           =    -484.15969004 Ry
     ewald contribution        =    9202.40581172 Ry
     electric field correction =       0.00350713 Ry

     convergence has been achieved in  79 iterations

     Forces acting on atoms (cartesian axes, Ry/au):

     atom    1 type  1   force =     0.00008564   -0.00009779    0.09072347
     atom    2 type  1   force =    -0.00005178    0.00053128   -0.18274729
     atom    3 type  2   force =     0.00005406   -0.00002817   -0.02344881
     atom    4 type  2   force =     0.00001843   -0.00005950    0.05277446
     atom    5 type  2   force =    -0.01299648   -0.00096648    0.00605418
     atom    6 type  2   force =     0.01294177   -0.00047475    0.00604249
     atom    7 type  1   force =    -0.00000090    0.00067204   -0.00331125
     atom    8 type  1   force =     0.00001827   -0.00014703    0.00138091
     atom    9 type  2   force =    -0.00003113   -0.00015966   -0.00049057
     atom   10 type  2   force =     0.00001857   -0.00005521   -0.00021911
     atom   11 type  2   force =     0.00016861    0.00017624    0.00018040
     atom   12 type  2   force =    -0.00008561    0.00017257    0.00015840
     atom   13 type  1   force =    -0.00019816   -0.00019798    0.00004171
     atom   14 type  1   force =     0.00014894    0.00045546   -0.00095415
     atom   15 type  2   force =     0.00002321   -0.00058342    0.00010520
     atom   16 type  2   force =    -0.00002807    0.00001092    0.00044571
     atom   17 type  2   force =     0.00044912    0.00000586    0.00049072
     atom   18 type  2   force =    -0.00048122    0.00000069    0.00049062
     atom   19 type  1   force =     0.00006224    0.00003294    0.00031754
     atom   20 type  1   force =    -0.00003192   -0.00082052    0.00028626
     atom   21 type  2   force =     0.00005545    0.00012402    0.10488501
     atom   22 type  2   force =     0.00000773    0.00015797    0.00109440
     atom   23 type  2   force =    -0.06825596   -0.00022044   -0.02627946
     atom   24 type  2   force =     0.06816878    0.00021492   -0.02632575
     atom   25 type  1   force =     0.00009187    0.00004481    0.09035975
     atom   26 type  1   force =    -0.00005499   -0.00044585   -0.18291905
     atom   27 type  2   force =     0.00005165   -0.00093463   -0.02255876
     atom   28 type  2   force =     0.00001945   -0.00006718    0.05255084
     atom   29 type  2   force =    -0.01329169   -0.00073763    0.00527820
     atom   30 type  2   force =     0.01322959   -0.00024560    0.00526424
     atom   31 type  1   force =     0.00000933   -0.00072082   -0.00311036
     atom   32 type  1   force =     0.00001420   -0.00007100    0.00149926
     atom   33 type  2   force =    -0.00002925   -0.00015706    0.00019097
     atom   34 type  2   force =     0.00002049    0.00007408   -0.00046729
     atom   35 type  2   force =     0.00013770   -0.00014079    0.00025019
     atom   36 type  2   force =    -0.00005960   -0.00015438    0.00022593
     atom   37 type  1   force =    -0.00019307    0.00005161    0.00094103
     atom   38 type  1   force =     0.00014321   -0.00029203   -0.00094203
     atom   39 type  2   force =     0.00001311    0.00025448   -0.00014059
     atom   40 type  2   force =    -0.00003082   -0.00001765    0.00107778
     atom   41 type  2   force =     0.00059054   -0.00016541    0.00025184
     atom   42 type  2   force =    -0.00063617   -0.00016274    0.00026292
     atom   43 type  1   force =     0.00007032    0.00009755    0.00065995
     atom   44 type  1   force =    -0.00004053    0.00102104   -0.00110965
     atom   45 type  2   force =     0.00005444    0.00014261    0.10485873
     atom   46 type  2   force =    -0.06825432   -0.00009168   -0.02631284
     atom   47 type  2   force =     0.06815927    0.00034350   -0.02635461
     atom   48 type  3   force =    -0.00049752   -0.00000864   -0.00028681
     atom   49 type  4   force =     0.00002084   -0.00006076    0.00080038
     atom   50 type  4   force =     0.00094917    0.00098940    0.00005702
     atom   51 type  4   force =    -0.00049584    0.00071230   -0.00014136
     atom   52 type  3   force =    -0.00003420    0.00315003    0.01468948
     atom   53 type  4   force =     0.00001112   -0.00179598   -0.01689252
     atom   54 type  4   force =     0.00023461    0.00031471    0.00015656
     atom   55 type  4   force =    -0.00026252    0.00032976    0.00016572

     Total force =     0.366894     Total SCF correction =     0.000754
  @ DRIVER MODE: Message from server: STATUS
  @ DRIVER MODE: Message from server: GETFORCE
  @ DRIVER MODE: Returning v,forces,stress,ensemble

     Writing output data file ./calc.save/
  @ DRIVER MODE: Message from server: EXIT
  @ DRIVE MODE: Exiting

     General routines

     Parallel routines

   This run was terminated on:   0:32:51  13Oct2021

   JOB DONE.