     Program PWSCF v.6.7GPU starts on 27Sep2021 at  1:56:43

     R & G space division:  proc/nbgrp/npool/nimage =       8
     Reading input from /storage/home/hcoda1/3/ntian30/research/carbon/CxH_vib/H2O_calc/ads_slab/CH3OHN2HO_a/out_0060/pw.inp
Warning: card &CELL ignored
Warning: card   CELL_DYNAMICS='IPI', ignored
Warning: card / ignored

     Current dimensions of program PWSCF are:
     Max number of different atomic species (ntypx) = 10
     Max number of k-points (npk) =  40000
     Max angular momentum in pseudopotentials (lmaxx) =  3
     Presently no symmetry can be used with electric field

     Message from routine cell_base_init:
     DEPRECATED: use true lattice parameter, not A to a.u. conversion factor

     IMPORTANT: XC functional enforced from input :
     Exchange-correlation= BEEF-VDW
                           (   1   4  43  14   2   0   0)
     Any further DFT definition will be discarded
     Please, verify this is what you really want

  @ DRIVER MODE: Connecting to
 qe_1139763_2971668.sched-torque.pace.gatech.eduqltm0gth_scratch
  using UNIX socket
  @ DRIVER MODE: Message from server: STATUS
  @ DRIVER MODE: Message from server: INIT
  @ DRIVER MODE: Receiving replica           0          -1
  @ DRIVER MODE: Receiving encoded integer          25
  @ DRIVER MODE:  SCF:  T  FORCE:  T  STRESS:  F  VC:  F  ENSEMBLE:  F
  @ DRIVER MODE:  SCF:  T  FORCE:  T  STRESS:  F  VC:  F  ENSEMBLE:  F

     Using Slab Decomposition

     bravais-lattice index     =            0
     lattice parameter (alat)  =       1.8897  a.u.
     unit-cell volume          =    6658.9804 (a.u.)^3
     number of atoms/cell      =           57
     number of atomic types    =            5
     number of electrons       =       409.00
     number of Kohn-Sham states=          214
     kinetic-energy cutoff     =      29.3995  Ry
     charge density cutoff     =     293.9946  Ry
     scf convergence threshold =      7.3E-08
     mixing beta               =       0.0500
     number of iterations used =            8  plain     mixing
     Exchange-correlation= BEEF-VDW
                           (   1   4  43  14   2   0   0)

     celldm(1)=   1.889726  celldm(2)=   0.000000  celldm(3)=   0.000000
     celldm(4)=   0.000000  celldm(5)=   0.000000  celldm(6)=   0.000000

     crystal axes: (cart. coord. in units of alat)
               a(1) = (   6.579727   0.000000   0.000000 )
               a(2) = (  -0.000775   5.961596   0.000000 )
               a(3) = (   0.000000   0.000000  25.155947 )

     reciprocal axes: (cart. coord. in units 2 pi/alat)
               b(1) = (  0.151982  0.000020  0.000000 )
               b(2) = (  0.000000  0.167740  0.000000 )
               b(3) = (  0.000000  0.000000  0.039752 )

     PseudoPot. # 1 for Ti read from file:
     /storage/coda1/p-amedford6/0/shared/rich_project_chbe-medford/medford-share/data/pseudos_module/espresso/nninc/pbe/van/Ti.UPF
     MD5 check sum: 8e4df49b7f0d34bbd5052bf3f5ea0213
     Pseudo is Ultrasoft, Zval = 12.0
     Generated by new atomic code, or converted to UPF format
     Using radial grid of  851 points,  6 beta functions with:
                l(1) =   0
                l(2) =   0
                l(3) =   1
                l(4) =   1
                l(5) =   2
                l(6) =   2
     Q(r) pseudized with  8 coefficients,  rinner =    1.000   1.000   1.000
                                                       1.000   1.000

     PseudoPot. # 2 for O  read from file:
     /storage/coda1/p-amedford6/0/shared/rich_project_chbe-medford/medford-share/data/pseudos_module/espresso/nninc/pbe/van/O.UPF
     MD5 check sum: 78c19812648e8988a0fe644b0f25305e
     Pseudo is Ultrasoft, Zval =  6.0
     Generated by new atomic code, or converted to UPF format
     Using radial grid of  737 points,  4 beta functions with:
                l(1) =   0
                l(2) =   0
                l(3) =   1
                l(4) =   1
     Q(r) pseudized with  8 coefficients,  rinner =    0.800   0.800   0.800

     PseudoPot. # 3 for C  read from file:
     /storage/coda1/p-amedford6/0/shared/rich_project_chbe-medford/medford-share/data/pseudos_module/espresso/nninc/pbe/van/C.UPF
     MD5 check sum: 1a69bf6b8db32088f5b2163dbdb77a27
     Pseudo is Ultrasoft, Zval =  4.0
     Generated by new atomic code, or converted to UPF format
     Using radial grid of  721 points,  4 beta functions with:
                l(1) =   0
                l(2) =   0
                l(3) =   1
                l(4) =   1
     Q(r) pseudized with  8 coefficients,  rinner =    0.800   0.800   0.800

     PseudoPot. # 4 for H  read from file:
     /storage/coda1/p-amedford6/0/shared/rich_project_chbe-medford/medford-share/data/pseudos_module/espresso/nninc/pbe/van/H.UPF
     MD5 check sum: b5ee9d7bfd3a09ee7748110bda690ff7
     Pseudo is Ultrasoft, Zval =  1.0
     Generated by new atomic code, or converted to UPF format
     Using radial grid of  615 points,  1 beta functions with:
                l(1) =   0
     Q(r) pseudized with  8 coefficients,  rinner =    0.800

     PseudoPot. # 5 for N  read from file:
     /storage/coda1/p-amedford6/0/shared/rich_project_chbe-medford/medford-share/data/pseudos_module/espresso/nninc/pbe/van/N.UPF
     MD5 check sum: 90d10febe142ad51ac9d5be1deb811c4
     Pseudo is Ultrasoft, Zval =  5.0
     Generated by new atomic code, or converted to UPF format
     Using radial grid of  729 points,  4 beta functions with:
                l(1) =   0
                l(2) =   0
                l(3) =   1
                l(4) =   1
     Q(r) pseudized with  8 coefficients,  rinner =    0.800   0.800   0.800

     atomic species   valence    mass     pseudopotential
        Ti1           12.00    47.86700     Ti( 1.00)
        O1             6.00    15.99900     O ( 1.00)
        C1             4.00    12.01100     C ( 1.00)
        H1             1.00     1.00800     H ( 1.00)
        N1             5.00    14.00700     N ( 1.00)

     No symmetry found

   Cartesian axes

     site n.     atom                  positions (alat units)
         1           Ti1 tau(   1) = (   0.0004258   2.9801865   6.0000000  )
         2           Ti1 tau(   2) = (   3.2906075   1.4906267   6.0002472  )
         3           O1  tau(   3) = (   0.0006271   0.0005054   7.9858123  )
         4           O1  tau(   4) = (   3.2906025   0.0005020   7.3038282  )
         5           O1  tau(   5) = (   4.5942328   1.4918067   9.2879030  )
         6           O1  tau(   6) = (   1.9868534   1.4903216   9.2879459  )
         7           Ti1 tau(   7) = (   3.3371032   3.0268772   9.1887580  )
         8           Ti1 tau(   8) = (   0.0611061   1.5258697   9.2809523  )
         9           O1  tau(   9) = (   3.3143856   0.0188946  11.3581724  )
        10           O1  tau(  10) = (   0.0164151   0.0031400  10.5895864  )
        11           O1  tau(  11) = (   1.3088961   1.4994640  12.6347600  )
        12           O1  tau(  12) = (   5.3347766   1.4946156  12.6347356  )
        13           Ti1 tau(  13) = (   0.0202478   3.0292801  12.5720800  )
        14           Ti1 tau(  14) = (   3.3188568   1.5851219  12.4260843  )
        15           O1  tau(  15) = (   0.0445434   5.9450813  14.6510506  )
        16           O1  tau(  16) = (   3.3207065   5.8849141  14.0104376  )
        17           O1  tau(  17) = (   4.6249962   1.5116716  16.1313945  )
        18           O1  tau(  18) = (   2.0639035   1.5439872  16.0680944  )
        19           Ti1 tau(  19) = (   3.3360141   2.9454253  15.6763505  )
        20           Ti1 tau(  20) = (   0.0686920   1.3314864  15.9334539  )
        21           O1  tau(  21) = (   3.2904802   0.0005063   4.7018136  )
        22           O1  tau(  22) = (   0.0979609   0.0039778  17.1657837  )
        23           O1  tau(  23) = (   1.3043587   1.4918075   6.0039043  )
        24           O1  tau(  24) = (   5.2767064   1.4903225   6.0039473  )
        25           Ti1 tau(  25) = (   0.0000382   5.9609847   6.0000000  )
        26           Ti1 tau(  26) = (   3.2902200   4.4714249   6.0002472  )
        27           O1  tau(  27) = (   0.0002396   2.9813036   7.9858123  )
        28           O1  tau(  28) = (   3.2902150   2.9813002   7.3038282  )
        29           O1  tau(  29) = (   4.5938453   4.4726049   9.2879030  )
        30           O1  tau(  30) = (   1.9864658   4.4711199   9.2879459  )
        31           Ti1 tau(  31) = (   3.3368545   0.0404040   9.1664313  )
        32           Ti1 tau(  32) = (   0.0604674   4.4799263   9.2696248  )
        33           O1  tau(  33) = (   3.3137611   2.9662427  11.3084074  )
        34           O1  tau(  34) = (   0.0134136   2.9850836  10.6046154  )
        35           O1  tau(  35) = (   1.3054726   4.4719986  12.6384794  )
        36           O1  tau(  36) = (   5.3362180   4.4781181  12.6390536  )
        37           Ti1 tau(  37) = (   0.0365240   0.0487139  12.4702884  )
        38           Ti1 tau(  38) = (   3.3180881   4.6653017  12.7087268  )
        39           O1  tau(  39) = (   0.0228105   2.9918545  14.7761892  )
        40           O1  tau(  40) = (   3.3431522   2.9700269  13.9040455  )
        41           O1  tau(  41) = (   4.6265974   4.4152401  16.1544535  )
        42           O1  tau(  42) = (   2.0571238   4.3592187  16.1146037  )
        43           Ti1 tau(  43) = (   3.3848590   5.9294639  16.2700006  )
        44           Ti1 tau(  44) = (   0.0517009   4.5268197  15.8466567  )
        45           O1  tau(  45) = (   3.2900926   2.9813045   4.7018136  )
        46           O1  tau(  46) = (   1.3039711   4.4726057   6.0039043  )
        47           O1  tau(  47) = (   5.2763189   4.4711207   6.0039473  )
        48           C1  tau(  48) = (   5.9450987   3.0517216  18.8599509  )
        49           O1  tau(  49) = (   0.1802289   3.0084098  17.6484507  )
        50           H1  tau(  50) = (   4.9625852   2.6832861  18.5889656  )
        51           H1  tau(  51) = (   1.1163247   3.1442434  17.8758057  )
        52           H1  tau(  52) = (   6.3899442   2.3914015  19.6026461  )
        53           H1  tau(  53) = (   5.8846647   4.0795385  19.2151274  )
        54           N1  tau(  54) = (   5.7598779   3.1323611  22.9045362  )
        55           N1  tau(  55) = (   4.9845974   3.1850264  22.1203839  )
        56           O1  tau(  56) = (   3.1467188   0.0118795  18.1166202  )
        57           H1  tau(  57) = (   2.2164505   0.0865285  18.3968412  )

     number of k points=    10  Fermi-Dirac smearing, width (Ry)=  0.0073
                       cart. coord. in units 2pi/alat
        k(    1) = (   0.0000000   0.0000000   0.0000000), wk =   0.1250000
        k(    2) = (   0.0000000   0.0419351   0.0000000), wk =   0.2500000
        k(    3) = (   0.0000000  -0.0838702   0.0000000), wk =   0.1250000
        k(    4) = (   0.0379955   0.0000049   0.0000000), wk =   0.2500000
        k(    5) = (   0.0379955   0.0419400   0.0000000), wk =   0.2500000
        k(    6) = (   0.0379955  -0.0838652   0.0000000), wk =   0.2500000
        k(    7) = (   0.0379955  -0.0419301   0.0000000), wk =   0.2500000
        k(    8) = (  -0.0759910  -0.0000099   0.0000000), wk =   0.1250000
        k(    9) = (  -0.0759910   0.0419252   0.0000000), wk =   0.2500000
        k(   10) = (  -0.0759910  -0.0838800   0.0000000), wk =   0.1250000

     Initial potential from superposition of free atoms

     starting charge  392.99914, renormalised to  409.00000

     negative rho (up, down):  9.136E-03 0.000E+00

     %%%%%%%%%%%%%%%%%%%%%%%%%%%%%%%%%%%%%%%%%%%%%%%%%%%%%%%%%%%%%%%%%%%%%%%%
     %                                                                      %
     % You are using vdW-DF, which was implemented by the Thonhauser group. %
     % Please cite the following two papers that made this development      %
     % possible and the two reviews that describe the various versions:     %
     %                                                                      %
     %   T. Thonhauser et al., PRL 115, 136402 (2015).                      %
     %   T. Thonhauser et al., PRB 76, 125112 (2007).                       %
     %   K. Berland et al., Rep. Prog. Phys. 78, 066501 (2015).             %
     %   D.C. Langreth et al., J. Phys.: Condens. Matter 21, 084203 (2009). %
     %                                                                      %
     %                                                                      %
     % If you are calculating the stress with vdW-DF, please also cite:     %
     %                                                                      %
     %   R. Sabatini et al., J. Phys.: Condens. Matter 24, 424209 (2012).   %
     %                                                                      %
     %%%%%%%%%%%%%%%%%%%%%%%%%%%%%%%%%%%%%%%%%%%%%%%%%%%%%%%%%%%%%%%%%%%%%%%%

     Adding external electric field

     Computed dipole along edir(3) :
        Dipole              -18.8694 Ry au,        -47.9613 Debye
        Dipole field         -0.0356 Ry au,

        Potential amp.        3.3009 Ry
        Total length         46.3494 bohr

     Starting wfcs are  309 atomic wfcs
  @ DRIVER MODE: Message from server: STATUS
  @ DRIVER MODE: Message from server: POSDATA
  @ DRIVER MODE: Reading and sharing cell
  @ DRIVER MODE: Reading and sharing positions
  @ DRIVER MODE: Received positions

     Self-consistent Calculation

     iteration #  1     ecut=    29.40 Ry     beta= 0.05
     Davidson diagonalization with overlap
     c_bands:  5 eigenvalues not converged
     c_bands:  5 eigenvalues not converged
     c_bands:  1 eigenvalues not converged
     c_bands:  4 eigenvalues not converged
     c_bands:  1 eigenvalues not converged
     c_bands:  3 eigenvalues not converged
     ethr =  1.00E-05,  avg # of iterations = 27.3

[...]

     total energy              =   -2113.20706581 Ry
     estimated scf accuracy    <   10331.10518904 Ry

     iteration #  2     ecut=    29.40 Ry     beta= 0.05
     Davidson diagonalization with overlap
     ethr =  1.00E-02,  avg # of iterations = 30.2

[...]

     iteration # 58     ecut=    29.40 Ry     beta= 0.05
     Davidson diagonalization with overlap
     c_bands:  1 eigenvalues not converged
     ethr =  1.06E-07,  avg # of iterations = 11.3

[...]

     total energy              =   -3006.45828247 Ry
     estimated scf accuracy    <       0.00000014 Ry

     iteration # 76     ecut=    29.40 Ry     beta= 0.05
     Davidson diagonalization with overlap
     ethr =  3.39E-11,  avg # of iterations =  9.8

     negative rho (up, down):  1.063E-02 0.000E+00

     Adding external electric field

     Computed dipole along edir(3) :
        Dipole                1.0540 Ry au,          2.6789 Debye
        Dipole field          0.0020 Ry au,

        Potential amp.       -0.1844 Ry
        Total length         46.3494 bohr

     End of self-consistent calculation

          k = 0.0000 0.0000 0.0000 ( 18029 PWs)   bands (ev):

   -55.3262 -55.2498 -55.2146 -55.1406 -55.1185 -55.0840 -55.0478 -55.0428
   -55.0410 -55.0222 -55.0123 -54.9822 -54.8955 -54.8196 -54.2095 -54.1754
   -31.7279 -31.7190 -31.6323 -31.6202 -31.5798 -31.5654 -31.5409 -31.5388
   -31.5042 -31.4925 -31.4812 -31.4165 -31.4035 -31.4034 -31.3768 -31.3585
   -31.3500 -31.3329 -31.3317 -31.3204 -31.3134 -31.3085 -31.2628 -31.2603
   -31.2586 -31.2520 -31.2489 -31.2362 -31.2300 -31.2107 -31.2044 -31.1938
   -31.1921 -31.1722 -31.1677 -31.1596 -31.1580 -31.1244 -31.0843 -31.0649
   -31.0338 -31.0234 -30.6155 -30.5294 -30.5068 -30.4325 -30.3462 -30.2346
   -21.5128 -19.7109 -16.1154 -15.9011 -15.7220 -15.5203 -15.4636 -15.3973
   -15.2101 -15.1367 -14.9808 -14.8554 -14.8411 -14.7842 -14.7826 -14.7731
   -14.7442 -14.7192 -14.6739 -14.6626 -14.6572 -14.6536 -14.5921 -14.5496
   -14.5468 -14.5198 -14.4992 -14.3720 -14.3251 -14.2705 -14.1007 -14.0781
   -12.7091 -12.5930 -10.5730  -6.6925  -6.4097  -4.6717  -4.6365  -4.5932
    -4.4090  -3.6501  -3.3770  -3.2512  -3.1507  -3.1320  -3.0674  -3.0166
    -2.8015  -2.6967  -2.6323  -2.5197  -2.3925  -2.3564  -2.3057  -2.2742
    -2.1824  -2.1643  -2.1324  -2.1028  -2.0470  -2.0192  -2.0117  -1.9989
    -1.9233  -1.9165  -1.7871  -1.7818  -1.7252  -1.6334  -1.6156  -1.5928
    -1.5855  -1.5512  -1.5489  -1.5065  -1.4826  -1.4589  -1.4307  -1.3553
    -1.3362  -1.2729  -1.2354  -1.0034  -0.8487  -0.8241  -0.7436  -0.7276
    -0.6969  -0.6674  -0.6474  -0.6361  -0.5996  -0.5842  -0.4796  -0.3770
    -0.3681  -0.3081  -0.2701  -0.2658  -0.1306  -0.0846  -0.0115   0.0113
     0.0440   0.0651   0.1490   0.1978   0.2191   0.2861   0.3182   0.4229
     0.4603   0.4795   0.5208   0.5761   0.6367   0.6705   0.7099   0.7133
     0.7461   0.7952   0.8247   0.8593   0.8820   0.9286   1.0315   1.0690
     1.0795   1.2201   1.2317   1.3137   1.4381   1.4901   1.7630   1.8155
     1.8622   2.0079   2.3841   2.4310   3.8740   3.9767   3.9977   4.0189
     4.0866   4.1684   4.3338   4.3570   4.4214   4.5224

[...]

          k = 0.0380-0.0419 0.0000 ( 17876 PWs)   bands (ev):

[...]

          k =-0.0760-0.0000 0.0000 ( 17886 PWs)   bands (ev):

[...]

          k =-0.0760-0.0839 0.0000 ( 17948 PWs)   bands (ev):

   -55.3254 -55.2367 -55.2275 -55.1346 -55.1141 -55.0897 -55.0466 -55.0420
   -55.0339 -55.0256 -55.0132 -54.9915 -54.8918 -54.8232 -54.1926 -54.1921
   -31.6386 -31.5760 -31.5662 -31.5478 -31.5389 -31.5385 -31.5328 -31.5168
   -31.4549 -31.4499 -31.4114 -31.3898 -31.3783 -31.3731 -31.3566 -31.3543
   -31.3508 -31.3488 -31.3422 -31.3365 -31.3314 -31.3294 -31.3141 -31.3121
   -31.2930 -31.2825 -31.2526 -31.2461 -31.2438 -31.2396 -31.2317 -31.2300
   -31.2237 -31.2190 -31.2151 -31.2107 -31.2082 -31.1700 -31.1513 -31.0884
   -31.0709 -31.0273 -30.5197 -30.5194 -30.4293 -30.4278 -30.3895 -30.3886
   -21.5127 -19.7071 -16.0904 -15.5317 -15.3751 -15.2043 -15.1905 -15.1112
   -15.0196 -15.0018 -14.9713 -14.9579 -14.9407 -14.9164 -14.9081 -14.8725
   -14.8102 -14.7683 -14.7452 -14.7370 -14.6900 -14.6847 -14.6812 -14.6184
   -14.6112 -14.5930 -14.5683 -14.5084 -14.4993 -14.3990 -14.3834 -14.2121
   -12.6953 -12.6944 -10.5750  -6.6928  -6.4116  -4.6680  -4.6434  -4.5802
    -4.4013  -3.6160  -3.3675  -2.6802  -2.5958  -2.5361  -2.4281  -2.3498
    -2.2963  -2.2465  -2.2253  -2.1804  -2.1593  -2.0898  -2.0552  -2.0463
    -2.0269  -2.0248  -1.9943  -1.9789  -1.9660  -1.9449  -1.9166  -1.8993
    -1.8887  -1.8678  -1.8479  -1.8221  -1.8099  -1.8000  -1.7851  -1.7692
    -1.6581  -1.6415  -1.6088  -1.4465  -1.4350  -1.3657  -1.3341  -1.3076
    -1.3039  -1.2736  -1.2585  -1.2165  -1.1113  -1.0831  -1.0334  -0.9941
    -0.8994  -0.8836  -0.8325  -0.7817  -0.7360  -0.7073  -0.6767  -0.6616
    -0.6075  -0.4696  -0.4488  -0.4034  -0.2845  -0.2112  -0.1956  -0.1830
    -0.1611  -0.1381  -0.0915  -0.0835  -0.0216  -0.0086   0.0624   0.0661
     0.0949   0.1164   0.2189   0.3413   0.4197   0.4635   0.5081   0.5577
     0.5920   0.6761   0.7504   0.8364   0.9125   0.9421   0.9557   1.0735
     1.1063   1.1589   1.2044   1.2245   1.2829   1.3186   1.3589   1.3920
     2.1766   2.1903   2.2463   2.2520   4.0546   4.3047   4.3647   4.3818
     4.3915   4.4239   4.4449   4.4965   4.5132   4.5370

     the Fermi energy is     3.8841 ev

!    total energy              =   -3006.45830517 Ry
     estimated scf accuracy    <       0.00000007 Ry
     smearing contrib. (-TS)   =      -0.02082963 Ry
     internal energy E=F+TS    =   -3006.43747554 Ry

     The total energy is F=E-TS. E is the sum of the following terms:
     one-electron contribution =  -22317.31997230 Ry
     hartree contribution      =   11258.20771738 Ry
     xc contribution           =    -501.14267368 Ry
     ewald contribution        =    8553.81535672 Ry
     electric field correction =       0.00209634 Ry

     convergence has been achieved in  76 iterations

     Forces acting on atoms (cartesian axes, Ry/au):

     atom    1 type  1   force =    -0.00037935   -0.00017012    0.09500243
     atom    2 type  1   force =    -0.00034953    0.00512968   -0.17479765
     atom    3 type  2   force =     0.00070728    0.00012844   -0.02672820
     atom    4 type  2   force =     0.00129017    0.00083084    0.05206574
     atom    5 type  2   force =    -0.01095571   -0.00255854    0.00077566
     atom    6 type  2   force =     0.01192712   -0.00381010    0.00178567
     atom    7 type  1   force =    -0.00021902    0.00039135    0.00066107
     atom    8 type  1   force =     0.00013532    0.00022779    0.00015486
     atom    9 type  2   force =     0.00025100    0.00074235   -0.00064207
     atom   10 type  2   force =    -0.00039235    0.00016027    0.00013716
     atom   11 type  2   force =     0.00045091   -0.00014887    0.00010088
     atom   12 type  2   force =    -0.00085687   -0.00014929    0.00035713
     atom   13 type  1   force =     0.00043434    0.00034957   -0.00021227
     atom   14 type  1   force =    -0.00033791   -0.00067223    0.00094030
     atom   15 type  2   force =    -0.00014374   -0.00053614   -0.00099097
     atom   16 type  2   force =    -0.00027434    0.00000511   -0.00012783
     atom   17 type  2   force =    -0.00098752    0.00031897   -0.00000581
     atom   18 type  2   force =     0.00050061    0.00074983   -0.00013589
     atom   19 type  1   force =     0.00018987   -0.00083221    0.00019681
     atom   20 type  1   force =    -0.00017863    0.00001415    0.00039556
     atom   21 type  2   force =    -0.00000446    0.00007578    0.10303319
     atom   22 type  2   force =    -0.00011807   -0.00013712    0.00094151
     atom   23 type  2   force =    -0.07195102    0.00014051   -0.02802313
     atom   24 type  2   force =     0.07178909    0.00063713   -0.02812400
     atom   25 type  1   force =    -0.00036130    0.00025755    0.10244800
     atom   26 type  1   force =    -0.00011235   -0.00475566   -0.17504190
     atom   27 type  2   force =     0.00084838    0.00117191   -0.02484226
     atom   28 type  2   force =     0.00119756    0.00025493    0.05170287
     atom   29 type  2   force =    -0.01191571    0.00381447    0.00171959
     atom   30 type  2   force =     0.01375548    0.00146412    0.00244961
     atom   31 type  1   force =    -0.00029158   -0.00017049    0.00080352
     atom   32 type  1   force =     0.00028744    0.00028689    0.00059508
     atom   33 type  2   force =     0.00000763    0.00021006    0.00010392
     atom   34 type  2   force =    -0.00027274   -0.00032136   -0.00057183
     atom   35 type  2   force =    -0.00021506    0.00004822   -0.00047892
     atom   36 type  2   force =    -0.00039473    0.00009474   -0.00009700
     atom   37 type  1   force =    -0.00006040   -0.00035285    0.00004273
     atom   38 type  1   force =    -0.00056814    0.00023520   -0.00000987
     atom   39 type  2   force =    -0.00026266   -0.00025038    0.00077907
     atom   40 type  2   force =    -0.00019472    0.00012416    0.00026470
     atom   41 type  2   force =    -0.00140260   -0.00028801   -0.00005332
     atom   42 type  2   force =     0.00109840   -0.00018108   -0.00053987
     atom   43 type  1   force =    -0.00066043    0.00060170    0.00055092
     atom   44 type  1   force =    -0.00002497    0.00018938    0.00006920
     atom   45 type  2   force =    -0.00000027    0.00013967    0.10260797
     atom   46 type  2   force =    -0.07184553   -0.00062763   -0.02796932
     atom   47 type  2   force =     0.07170376   -0.00013808   -0.02804399
     atom   48 type  3   force =    -0.00028651   -0.00014016   -0.00005189
     atom   49 type  2   force =    -0.00124880   -0.00079213    0.00029412
     atom   50 type  4   force =    -0.00007489   -0.00044653   -0.00021211
     atom   51 type  4   force =     0.00036315    0.00039839   -0.00071793
     atom   52 type  4   force =    -0.00020325    0.00007760   -0.00045396
     atom   53 type  4   force =    -0.00002643   -0.00039062   -0.00106390
     atom   54 type  5   force =     0.00016705   -0.00007803    0.00037098
     atom   55 type  5   force =    -0.00050909    0.00006306   -0.00032803
     atom   56 type  2   force =    -0.00411350   -0.00015489    0.00246902
     atom   57 type  4   force =     0.00508964   -0.00123131   -0.00355536

     Total force =     0.364885     Total SCF correction =     0.000438
  @ DRIVER MODE: Message from server: STATUS
  @ DRIVER MODE: Message from server: GETFORCE
  @ DRIVER MODE: Returning v,forces,stress,ensemble

     Writing output data file ./calc.save/
  @ DRIVER MODE: Message from server: EXIT
  @ DRIVE MODE: Exiting

     General routines

     Parallel routines

   This run was terminated on:   2:27:59  27Sep2021

   JOB DONE.