     Program PWSCF v.6.7GPU starts on 26Sep2021 at  9:53:49

     R & G space division:  proc/nbgrp/npool/nimage =       8
     Reading input from /storage/home/hcoda1/3/ntian30/research/carbon/CxH_vib/H2O_calc/ads_slab/CH3OHN2HO_a/out_0034/pw.inp
Warning: card &CELL ignored
Warning: card   CELL_DYNAMICS='IPI', ignored
Warning: card / ignored

     Current dimensions of program PWSCF are:
     Max number of different atomic species (ntypx) = 10
     Max number of k-points (npk) =  40000
     Max angular momentum in pseudopotentials (lmaxx) =  3
     Presently no symmetry can be used with electric field

     Message from routine cell_base_init:
     DEPRECATED: use true lattice parameter, not A to a.u. conversion factor

     IMPORTANT: XC functional enforced from input :
     Exchange-correlation= BEEF-VDW
                           (   1   4  43  14   2   0   0)
     Any further DFT definition will be discarded
     Please, verify this is what you really want

  @ DRIVER MODE: Connecting to
 qe_1139763_2971668.sched-torque.pace.gatech.eduu6yzgmqn_scratch
  using UNIX socket
  @ DRIVER MODE: Message from server: STATUS
  @ DRIVER MODE: Message from server: INIT
  @ DRIVER MODE: Receiving replica           0          -1
  @ DRIVER MODE: Receiving encoded integer          25
  @ DRIVER MODE:  SCF:  T  FORCE:  T  STRESS:  F  VC:  F  ENSEMBLE:  F
  @ DRIVER MODE:  SCF:  T  FORCE:  T  STRESS:  F  VC:  F  ENSEMBLE:  F

     Using Slab Decomposition

     bravais-lattice index     =            0
     lattice parameter (alat)  =       1.8897  a.u.
     unit-cell volume          =    6658.9804 (a.u.)^3
     number of atoms/cell      =           57
     number of atomic types    =            5
     number of electrons       =       409.00
     number of Kohn-Sham states=          214
     kinetic-energy cutoff     =      29.3995  Ry
     charge density cutoff     =     293.9946  Ry
     scf convergence threshold =      7.3E-08
     mixing beta               =       0.0500
     number of iterations used =            8  plain     mixing
     Exchange-correlation= BEEF-VDW
                           (   1   4  43  14   2   0   0)

     celldm(1)=   1.889726  celldm(2)=   0.000000  celldm(3)=   0.000000
     celldm(4)=   0.000000  celldm(5)=   0.000000  celldm(6)=   0.000000

     crystal axes: (cart. coord. in units of alat)
               a(1) = (   6.579727   0.000000   0.000000 )
               a(2) = (  -0.000775   5.961596   0.000000 )
               a(3) = (   0.000000   0.000000  25.155947 )

     reciprocal axes: (cart. coord. in units 2 pi/alat)
               b(1) = (  0.151982  0.000020  0.000000 )
               b(2) = (  0.000000  0.167740  0.000000 )
               b(3) = (  0.000000  0.000000  0.039752 )

     PseudoPot. # 1 for Ti read from file:
     /storage/coda1/p-amedford6/0/shared/rich_project_chbe-medford/medford-share/data/pseudos_module/espresso/nninc/pbe/van/Ti.UPF
     MD5 check sum: 8e4df49b7f0d34bbd5052bf3f5ea0213
     Pseudo is Ultrasoft, Zval = 12.0
     Generated by new atomic code, or converted to UPF format
     Using radial grid of  851 points,  6 beta functions with:
                l(1) =   0
                l(2) =   0
                l(3) =   1
                l(4) =   1
                l(5) =   2
                l(6) =   2
     Q(r) pseudized with  8 coefficients,  rinner =    1.000   1.000   1.000
                                                       1.000   1.000

     PseudoPot. # 2 for O  read from file:
     /storage/coda1/p-amedford6/0/shared/rich_project_chbe-medford/medford-share/data/pseudos_module/espresso/nninc/pbe/van/O.UPF
     MD5 check sum: 78c19812648e8988a0fe644b0f25305e
     Pseudo is Ultrasoft, Zval =  6.0
     Generated by new atomic code, or converted to UPF format
     Using radial grid of  737 points,  4 beta functions with:
                l(1) =   0
                l(2) =   0
                l(3) =   1
                l(4) =   1
     Q(r) pseudized with  8 coefficients,  rinner =    0.800   0.800   0.800

     PseudoPot. # 3 for C  read from file:
     /storage/coda1/p-amedford6/0/shared/rich_project_chbe-medford/medford-share/data/pseudos_module/espresso/nninc/pbe/van/C.UPF
     MD5 check sum: 1a69bf6b8db32088f5b2163dbdb77a27
     Pseudo is Ultrasoft, Zval =  4.0
     Generated by new atomic code, or converted to UPF format
     Using radial grid of  721 points,  4 beta functions with:
                l(1) =   0
                l(2) =   0
                l(3) =   1
                l(4) =   1
     Q(r) pseudized with  8 coefficients,  rinner =    0.800   0.800   0.800

     PseudoPot. # 4 for H  read from file:
     /storage/coda1/p-amedford6/0/shared/rich_project_chbe-medford/medford-share/data/pseudos_module/espresso/nninc/pbe/van/H.UPF
     MD5 check sum: b5ee9d7bfd3a09ee7748110bda690ff7
     Pseudo is Ultrasoft, Zval =  1.0
     Generated by new atomic code, or converted to UPF format
     Using radial grid of  615 points,  1 beta functions with:
                l(1) =   0
     Q(r) pseudized with  8 coefficients,  rinner =    0.800

     PseudoPot. # 5 for N  read from file:
     /storage/coda1/p-amedford6/0/shared/rich_project_chbe-medford/medford-share/data/pseudos_module/espresso/nninc/pbe/van/N.UPF
     MD5 check sum: 90d10febe142ad51ac9d5be1deb811c4
     Pseudo is Ultrasoft, Zval =  5.0
     Generated by new atomic code, or converted to UPF format
     Using radial grid of  729 points,  4 beta functions with:
                l(1) =   0
                l(2) =   0
                l(3) =   1
                l(4) =   1
     Q(r) pseudized with  8 coefficients,  rinner =    0.800   0.800   0.800

     atomic species   valence    mass     pseudopotential
        Ti1           12.00    47.86700     Ti( 1.00)
        O1             6.00    15.99900     O ( 1.00)
        C1             4.00    12.01100     C ( 1.00)
        H1             1.00     1.00800     H ( 1.00)
        N1             5.00    14.00700     N ( 1.00)

     No symmetry found

   Cartesian axes

     site n.     atom                  positions (alat units)
         1           Ti1 tau(   1) = (   0.0004258   2.9801865   6.0000000  )
         2           Ti1 tau(   2) = (   3.2906075   1.4906267   6.0002472  )
         3           O1  tau(   3) = (   0.0006271   0.0005054   7.9858123  )
         4           O1  tau(   4) = (   3.2906025   0.0005020   7.3038282  )
         5           O1  tau(   5) = (   4.5942328   1.4918067   9.2879030  )
         6           O1  tau(   6) = (   1.9868534   1.4903216   9.2879459  )
         7           Ti1 tau(   7) = (   3.3371032   3.0268772   9.1887580  )
         8           Ti1 tau(   8) = (   0.0611061   1.5258697   9.2809523  )
         9           O1  tau(   9) = (   3.3143856   0.0188946  11.3581724  )
        10           O1  tau(  10) = (   0.0164151   0.0031400  10.5895864  )
        11           O1  tau(  11) = (   1.3088961   1.4994640  12.6347600  )
        12           O1  tau(  12) = (   5.3347766   1.4946156  12.6347356  )
        13           Ti1 tau(  13) = (   0.0202478   3.0292801  12.5720800  )
        14           Ti1 tau(  14) = (   3.3188568   1.5851219  12.4260843  )
        15           O1  tau(  15) = (   0.0445434   5.9450813  14.6510506  )
        16           O1  tau(  16) = (   3.3207065   5.8849141  14.0104376  )
        17           O1  tau(  17) = (   4.6249962   1.5116716  16.1313945  )
        18           O1  tau(  18) = (   2.0639035   1.5439872  16.0680944  )
        19           Ti1 tau(  19) = (   3.3360141   2.9454253  15.6763505  )
        20           Ti1 tau(  20) = (   0.0686920   1.3314864  15.9334539  )
        21           O1  tau(  21) = (   3.2904802   0.0005063   4.7018136  )
        22           O1  tau(  22) = (   0.0979609   0.0039778  17.1657837  )
        23           O1  tau(  23) = (   1.3043587   1.4918075   6.0039043  )
        24           O1  tau(  24) = (   5.2767064   1.4903225   6.0039473  )
        25           Ti1 tau(  25) = (   0.0000382   5.9609847   6.0000000  )
        26           Ti1 tau(  26) = (   3.2902200   4.4714249   6.0002472  )
        27           O1  tau(  27) = (   0.0002396   2.9813036   7.9858123  )
        28           O1  tau(  28) = (   3.2902150   2.9813002   7.3038282  )
        29           O1  tau(  29) = (   4.5938453   4.4726049   9.2879030  )
        30           O1  tau(  30) = (   1.9864658   4.4711199   9.2879459  )
        31           Ti1 tau(  31) = (   3.3368545   0.0404040   9.1664313  )
        32           Ti1 tau(  32) = (   0.0604674   4.4799263   9.2696248  )
        33           O1  tau(  33) = (   3.3137611   2.9662427  11.3084074  )
        34           O1  tau(  34) = (   0.0134136   2.9850836  10.6046154  )
        35           O1  tau(  35) = (   1.3054726   4.4719986  12.6384794  )
        36           O1  tau(  36) = (   5.3362180   4.4781181  12.6390536  )
        37           Ti1 tau(  37) = (   0.0365240   0.0487139  12.4702884  )
        38           Ti1 tau(  38) = (   3.3180881   4.6653017  12.7087268  )
        39           O1  tau(  39) = (   0.0228105   2.9918545  14.7761892  )
        40           O1  tau(  40) = (   3.3431522   2.9700269  13.9040455  )
        41           O1  tau(  41) = (   4.6265974   4.4152401  16.1544535  )
        42           O1  tau(  42) = (   2.0571238   4.3592187  16.1146037  )
        43           Ti1 tau(  43) = (   3.3848590   5.9294639  16.2700006  )
        44           Ti1 tau(  44) = (   0.0517009   4.5268197  15.8466567  )
        45           O1  tau(  45) = (   3.2900926   2.9813045   4.7018136  )
        46           O1  tau(  46) = (   1.3039711   4.4726057   6.0039043  )
        47           O1  tau(  47) = (   5.2763189   4.4711207   6.0039473  )
        48           C1  tau(  48) = (   5.9450987   3.0517216  18.8599509  )
        49           O1  tau(  49) = (   0.1802289   3.0084098  17.6484507  )
        50           H1  tau(  50) = (   4.9625852   2.6832861  18.5889656  )
        51           H1  tau(  51) = (   1.1163247   3.1442434  17.8758057  )
        52           H1  tau(  52) = (   6.3899442   2.3914015  19.6026461  )
        53           H1  tau(  53) = (   5.8846647   4.0895385  19.2151274  )
        54           N1  tau(  54) = (   5.7598779   3.1323611  22.9045362  )
        55           N1  tau(  55) = (   4.9845974   3.1850264  22.1203839  )
        56           O1  tau(  56) = (   3.1467188   0.0118795  18.1166202  )
        57           H1  tau(  57) = (   2.2164505   0.0865285  18.3868412  )

     number of k points=    10  Fermi-Dirac smearing, width (Ry)=  0.0073
                       cart. coord. in units 2pi/alat
        k(    1) = (   0.0000000   0.0000000   0.0000000), wk =   0.1250000
        k(    2) = (   0.0000000   0.0419351   0.0000000), wk =   0.2500000
        k(    3) = (   0.0000000  -0.0838702   0.0000000), wk =   0.1250000
        k(    4) = (   0.0379955   0.0000049   0.0000000), wk =   0.2500000
        k(    5) = (   0.0379955   0.0419400   0.0000000), wk =   0.2500000
        k(    6) = (   0.0379955  -0.0838652   0.0000000), wk =   0.2500000
        k(    7) = (   0.0379955  -0.0419301   0.0000000), wk =   0.2500000
        k(    8) = (  -0.0759910  -0.0000099   0.0000000), wk =   0.1250000
        k(    9) = (  -0.0759910   0.0419252   0.0000000), wk =   0.2500000
        k(   10) = (  -0.0759910  -0.0838800   0.0000000), wk =   0.1250000

     Initial potential from superposition of free atoms

     starting charge  392.99914, renormalised to  409.00000

     negative rho (up, down):  9.138E-03 0.000E+00

     %%%%%%%%%%%%%%%%%%%%%%%%%%%%%%%%%%%%%%%%%%%%%%%%%%%%%%%%%%%%%%%%%%%%%%%%
     %                                                                      %
     % You are using vdW-DF, which was implemented by the Thonhauser group. %
     % Please cite the following two papers that made this development      %
     % possible and the two reviews that describe the various versions:     %
     %                                                                      %
     %   T. Thonhauser et al., PRL 115, 136402 (2015).                      %
     %   T. Thonhauser et al., PRB 76, 125112 (2007).                       %
     %   K. Berland et al., Rep. Prog. Phys. 78, 066501 (2015).             %
     %   D.C. Langreth et al., J. Phys.: Condens. Matter 21, 084203 (2009). %
     %                                                                      %
     %                                                                      %
     % If you are calculating the stress with vdW-DF, please also cite:     %
     %                                                                      %
     %   R. Sabatini et al., J. Phys.: Condens. Matter 24, 424209 (2012).   %
     %                                                                      %
     %%%%%%%%%%%%%%%%%%%%%%%%%%%%%%%%%%%%%%%%%%%%%%%%%%%%%%%%%%%%%%%%%%%%%%%%

     Adding external electric field

     Computed dipole along edir(3) :
        Dipole              -18.8687 Ry au,        -47.9594 Debye
        Dipole field         -0.0356 Ry au,

        Potential amp.        3.3008 Ry
        Total length         46.3494 bohr

     Starting wfcs are  309 atomic wfcs
  @ DRIVER MODE: Message from server: STATUS
  @ DRIVER MODE: Message from server: POSDATA
  @ DRIVER MODE: Reading and sharing cell
  @ DRIVER MODE: Reading and sharing positions
  @ DRIVER MODE: Received positions

     Self-consistent Calculation

     iteration #  1     ecut=    29.40 Ry     beta= 0.05
     Davidson diagonalization with overlap
     c_bands:  5 eigenvalues not converged
     c_bands:  5 eigenvalues not converged
     c_bands:  1 eigenvalues not converged
     c_bands:  4 eigenvalues not converged
     c_bands:  1 eigenvalues not converged
     c_bands:  3 eigenvalues not converged
     ethr =  1.00E-05,  avg # of iterations = 27.3

[...]

     total energy              =   -2113.21822930 Ry
     estimated scf accuracy    <   10331.01622117 Ry

     iteration #  2     ecut=    29.40 Ry     beta= 0.05
     Davidson diagonalization with overlap
     ethr =  1.00E-02,  avg # of iterations = 30.3

[...]

     iteration # 99     ecut=    29.40 Ry     beta= 0.05
     Davidson diagonalization with overlap
     c_bands:  1 eigenvalues not converged
     ethr =  2.75E-10,  avg # of iterations = 14.8

[...]

     total energy              =   -3006.45822568 Ry
     estimated scf accuracy    <       0.00000008 Ry

     iteration #105     ecut=    29.40 Ry     beta= 0.05
     Davidson diagonalization with overlap
     ethr =  1.94E-11,  avg # of iterations =  6.3

     negative rho (up, down):  1.063E-02 0.000E+00

     Adding external electric field

     Computed dipole along edir(3) :
        Dipole                1.0485 Ry au,          2.6649 Debye
        Dipole field          0.0020 Ry au,

        Potential amp.       -0.1834 Ry
        Total length         46.3494 bohr

     End of self-consistent calculation

          k = 0.0000 0.0000 0.0000 ( 18029 PWs)   bands (ev):

   -55.3297 -55.2540 -55.2188 -55.1447 -55.1227 -55.0881 -55.0519 -55.0473
   -55.0456 -55.0264 -55.0164 -54.9864 -54.8999 -54.8236 -54.2138 -54.1798
   -31.7320 -31.7233 -31.6359 -31.6243 -31.5832 -31.5696 -31.5450 -31.5432
   -31.5084 -31.4969 -31.4857 -31.4208 -31.4077 -31.4077 -31.3810 -31.3626
   -31.3542 -31.3371 -31.3360 -31.3247 -31.3176 -31.3128 -31.2670 -31.2647
   -31.2628 -31.2562 -31.2532 -31.2404 -31.2341 -31.2153 -31.2086 -31.1980
   -31.1963 -31.1763 -31.1720 -31.1638 -31.1625 -31.1286 -31.0887 -31.0690
   -31.0379 -31.0275 -30.6200 -30.5337 -30.5111 -30.4369 -30.3506 -30.2391
   -21.5029 -19.7126 -16.1362 -15.9061 -15.7268 -15.5249 -15.4681 -15.4017
   -15.2144 -15.1410 -14.9851 -14.8600 -14.8453 -14.7885 -14.7875 -14.7774
   -14.7484 -14.7235 -14.6782 -14.6668 -14.6614 -14.6578 -14.5963 -14.5538
   -14.5513 -14.5241 -14.5034 -14.3763 -14.3293 -14.2747 -14.1047 -14.0830
   -12.7135 -12.5973 -10.5556  -6.6825  -6.4015  -4.6656  -4.6263  -4.5881
    -4.3925  -3.6524  -3.3669  -3.2554  -3.1550  -3.1363  -3.0716  -3.0207
    -2.8059  -2.6981  -2.6364  -2.5238  -2.3967  -2.3599  -2.3067  -2.2783
    -2.1866  -2.1676  -2.1367  -2.1068  -2.0512  -2.0234  -2.0159  -2.0027
    -1.9272  -1.9208  -1.7910  -1.7859  -1.7299  -1.6376  -1.6199  -1.5969
    -1.5892  -1.5555  -1.5527  -1.5107  -1.4870  -1.4627  -1.4326  -1.3588
    -1.3397  -1.2766  -1.2397  -1.0061  -0.8525  -0.8281  -0.7478  -0.7313
    -0.6996  -0.6718  -0.6517  -0.6407  -0.6037  -0.5883  -0.4847  -0.3812
    -0.3725  -0.3129  -0.2753  -0.2704  -0.1348  -0.0898  -0.0157   0.0069
     0.0394   0.0603   0.1446   0.1935   0.2151   0.2817   0.3132   0.4186
     0.4560   0.4753   0.5166   0.5719   0.6324   0.6661   0.7057   0.7090
     0.7418   0.7910   0.8204   0.8551   0.8774   0.9244   1.0273   1.0645
     1.0751   1.2158   1.2267   1.3090   1.4338   1.4856   1.7586   1.8111
     1.8579   2.0035   2.3799   2.4268   3.8698   3.9725   3.9935   4.0147
     4.0825   4.1643   4.3297   4.3528   4.4171   4.5184

[...]

          k = 0.0380-0.0419 0.0000 ( 17876 PWs)   bands (ev):

[...]

          k =-0.0760-0.0000 0.0000 ( 17886 PWs)   bands (ev):

[...]

          k =-0.0760-0.0839 0.0000 ( 17948 PWs)   bands (ev):

   -55.3289 -55.2409 -55.2318 -55.1388 -55.1183 -55.0938 -55.0511 -55.0466
   -55.0380 -55.0298 -55.0175 -54.9957 -54.8962 -54.8271 -54.1970 -54.1965
   -31.6429 -31.5793 -31.5695 -31.5519 -31.5431 -31.5428 -31.5370 -31.5212
   -31.4591 -31.4543 -31.4154 -31.3941 -31.3824 -31.3773 -31.3609 -31.3587
   -31.3552 -31.3532 -31.3464 -31.3407 -31.3356 -31.3335 -31.3182 -31.3163
   -31.2973 -31.2867 -31.2571 -31.2507 -31.2480 -31.2437 -31.2358 -31.2345
   -31.2279 -31.2231 -31.2193 -31.2149 -31.2124 -31.1741 -31.1556 -31.0927
   -31.0749 -31.0314 -30.5240 -30.5237 -30.4338 -30.4323 -30.3939 -30.3930
   -21.5028 -19.7088 -16.1126 -15.5361 -15.3796 -15.2085 -15.1948 -15.1154
   -15.0239 -15.0061 -14.9755 -14.9623 -14.9451 -14.9206 -14.9125 -14.8774
   -14.8144 -14.7725 -14.7494 -14.7412 -14.6942 -14.6889 -14.6854 -14.6226
   -14.6153 -14.5972 -14.5725 -14.5126 -14.5037 -14.4031 -14.3886 -14.2160
   -12.6996 -12.6988 -10.5576  -6.6828  -6.4033  -4.6608  -4.6332  -4.5757
    -4.3849  -3.6173  -3.3574  -2.6845  -2.5998  -2.5339  -2.4323  -2.3541
    -2.3002  -2.2504  -2.2296  -2.1847  -2.1635  -2.0941  -2.0594  -2.0506
    -2.0312  -2.0291  -1.9984  -1.9832  -1.9704  -1.9491  -1.9208  -1.9035
    -1.8930  -1.8720  -1.8521  -1.8260  -1.8142  -1.8043  -1.7893  -1.7732
    -1.6627  -1.6455  -1.6132  -1.4495  -1.4385  -1.3699  -1.3383  -1.3118
    -1.3079  -1.2777  -1.2623  -1.2199  -1.1151  -1.0869  -1.0381  -0.9927
    -0.9040  -0.8878  -0.8369  -0.7862  -0.7402  -0.7116  -0.6811  -0.6657
    -0.6121  -0.4738  -0.4530  -0.4079  -0.2888  -0.2155  -0.1998  -0.1873
    -0.1655  -0.1424  -0.0959  -0.0877  -0.0258  -0.0133   0.0575   0.0615
     0.0906   0.1122   0.2147   0.3368   0.4154   0.4591   0.5040   0.5535
     0.5873   0.6696   0.7458   0.8322   0.9082   0.9377   0.9515   1.0692
     1.1016   1.1541   1.2002   1.2203   1.2786   1.3144   1.3546   1.3878
     2.1722   2.1858   2.2422   2.2478   4.0506   4.3006   4.3605   4.3777
     4.3874   4.4197   4.4408   4.4921   4.5087   4.5325

     the Fermi energy is     3.8800 ev

!    total energy              =   -3006.45823558 Ry
     estimated scf accuracy    <       0.00000004 Ry
     smearing contrib. (-TS)   =      -0.02082799 Ry
     internal energy E=F+TS    =   -3006.43740759 Ry

     The total energy is F=E-TS. E is the sum of the following terms:
     one-electron contribution =  -22317.70964144 Ry
     hartree contribution      =   11258.36624872 Ry
     xc contribution           =    -501.13935656 Ry
     ewald contribution        =    8554.04326725 Ry
     electric field correction =       0.00207444 Ry

     convergence has been achieved in 105 iterations

     Forces acting on atoms (cartesian axes, Ry/au):

     atom    1 type  1   force =    -0.00037563   -0.00016728    0.09498325
     atom    2 type  1   force =    -0.00035520    0.00512755   -0.17480685
     atom    3 type  2   force =     0.00070864    0.00012919   -0.02673357
     atom    4 type  2   force =     0.00129065    0.00083320    0.05206864
     atom    5 type  2   force =    -0.01096544   -0.00256047    0.00077464
     atom    6 type  2   force =     0.01193468   -0.00381041    0.00178310
     atom    7 type  1   force =    -0.00021817    0.00039701    0.00067333
     atom    8 type  1   force =     0.00013717    0.00022619    0.00017095
     atom    9 type  2   force =     0.00024962    0.00075589   -0.00066410
     atom   10 type  2   force =    -0.00038972    0.00016026    0.00013348
     atom   11 type  2   force =     0.00043762   -0.00015063    0.00009558
     atom   12 type  2   force =    -0.00084617   -0.00014827    0.00034899
     atom   13 type  1   force =     0.00043526    0.00035446   -0.00023028
     atom   14 type  1   force =    -0.00033733   -0.00069840    0.00093385
     atom   15 type  2   force =    -0.00014146   -0.00054176   -0.00098810
     atom   16 type  2   force =    -0.00027845   -0.00000583   -0.00023788
     atom   17 type  2   force =    -0.00097563    0.00030937   -0.00000717
     atom   18 type  2   force =     0.00048475    0.00068941   -0.00008083
     atom   19 type  1   force =     0.00025765   -0.00081944    0.00019961
     atom   20 type  1   force =    -0.00025069    0.00010803    0.00037561
     atom   21 type  2   force =    -0.00000375    0.00007523    0.10303290
     atom   22 type  2   force =    -0.00003187   -0.00015254    0.00100932
     atom   23 type  2   force =    -0.07194428    0.00013992   -0.02801919
     atom   24 type  2   force =     0.07178001    0.00063625   -0.02812379
     atom   25 type  1   force =    -0.00036438    0.00026059    0.10244407
     atom   26 type  1   force =    -0.00011592   -0.00474870   -0.17504478
     atom   27 type  2   force =     0.00084966    0.00117078   -0.02485220
     atom   28 type  2   force =     0.00119658    0.00025539    0.05169725
     atom   29 type  2   force =    -0.01192669    0.00381362    0.00171937
     atom   30 type  2   force =     0.01376539    0.00146323    0.00245120
     atom   31 type  1   force =    -0.00029071   -0.00016431    0.00081398
     atom   32 type  1   force =     0.00028158    0.00028538    0.00060500
     atom   33 type  2   force =     0.00000595    0.00020131    0.00008682
     atom   34 type  2   force =    -0.00027252   -0.00032127   -0.00057334
     atom   35 type  2   force =    -0.00023340    0.00004852   -0.00048860
     atom   36 type  2   force =    -0.00037703    0.00009492   -0.00010561
     atom   37 type  1   force =    -0.00005176   -0.00034996    0.00003258
     atom   38 type  1   force =    -0.00056632    0.00027616    0.00000332
     atom   39 type  2   force =    -0.00025560   -0.00024644    0.00078541
     atom   40 type  2   force =    -0.00019798    0.00011853    0.00028318
     atom   41 type  2   force =    -0.00140224   -0.00025774   -0.00006505
     atom   42 type  2   force =     0.00107333   -0.00013302   -0.00050169
     atom   43 type  1   force =    -0.00019074    0.00053683    0.00019165
     atom   44 type  1   force =    -0.00007436    0.00011445    0.00007576
     atom   45 type  2   force =    -0.00000020    0.00014055    0.10261764
     atom   46 type  2   force =    -0.07183863   -0.00062695   -0.02796581
     atom   47 type  2   force =     0.07169573   -0.00013594   -0.02803798
     atom   48 type  3   force =    -0.00062759    0.01040108    0.00277621
     atom   49 type  2   force =    -0.00128889   -0.00103831    0.00020684
     atom   50 type  4   force =    -0.00012487   -0.00015476   -0.00015719
     atom   51 type  4   force =     0.00036007    0.00039571   -0.00065202
     atom   52 type  4   force =    -0.00015543    0.00061155   -0.00025099
     atom   53 type  4   force =     0.00037252   -0.01152531   -0.00409029
     atom   54 type  5   force =     0.00016692   -0.00007656    0.00036960
     atom   55 type  5   force =    -0.00052487    0.00005729   -0.00032965
     atom   56 type  2   force =     0.00081195   -0.00054910    0.00045083
     atom   57 type  4   force =    -0.00030182   -0.00080448   -0.00118701

     Total force =     0.365163     Total SCF correction =     0.000710
  @ DRIVER MODE: Message from server: STATUS
  @ DRIVER MODE: Message from server: GETFORCE
  @ DRIVER MODE: Returning v,forces,stress,ensemble

     Writing output data file ./calc.save/
  @ DRIVER MODE: Message from server: EXIT
  @ DRIVE MODE: Exiting

     General routines

     Parallel routines

   This run was terminated on:  10:47:14  26Sep2021

   JOB DONE.