     Program PWSCF v.6.7GPU starts on 22Jul2021 at 18:26:55

     R & G space division:  proc/nbgrp/npool/nimage =      16
     Reading input from /storage/home/hcoda1/3/ntian30/research/carbon/1Jul_vib/slab/rutile_O_br_vacant/out_0007/pw.inp
Warning: card &CELL ignored
Warning: card   CELL_DYNAMICS='IPI', ignored
Warning: card / ignored

     Current dimensions of program PWSCF are:
     Max number of different atomic species (ntypx) = 10
     Max number of k-points (npk) =  40000
     Max angular momentum in pseudopotentials (lmaxx) =  3
     Presently no symmetry can be used with electric field

     Message from routine cell_base_init:
     DEPRECATED: use true lattice parameter, not A to a.u. conversion factor

     IMPORTANT: XC functional enforced from input :
     Exchange-correlation= BEEF-VDW
                           (   1   4  43  14   2   0   0)
     Any further DFT definition will be discarded
     Please, verify this is what you really want

  @ DRIVER MODE: Connecting to
 qe_1139763_2402406.sched-torque.pace.gatech.eduqy21bg20_scratch
  using UNIX socket
  @ DRIVER MODE: Message from server: STATUS
  @ DRIVER MODE: Message from server: INIT
  @ DRIVER MODE: Receiving replica           0          -1
  @ DRIVER MODE: Receiving encoded integer          25
  @ DRIVER MODE:  SCF:  T  FORCE:  T  STRESS:  F  VC:  F  ENSEMBLE:  F
  @ DRIVER MODE:  SCF:  T  FORCE:  T  STRESS:  F  VC:  F  ENSEMBLE:  F

     Using Slab Decomposition

     bravais-lattice index     =            0
     lattice parameter (alat)  =       1.8897  a.u.
     unit-cell volume          =    6658.9804 (a.u.)^3
     number of atoms/cell      =           47
     number of atomic types    =            2
     number of electrons       =       378.00
     number of Kohn-Sham states=          199
     kinetic-energy cutoff     =      29.3995  Ry
     charge density cutoff     =     293.9946  Ry
     scf convergence threshold =      7.3E-08
     mixing beta               =       0.0500
     number of iterations used =            8  plain     mixing
     Exchange-correlation= BEEF-VDW
                           (   1   4  43  14   2   0   0)

     celldm(1)=   1.889726  celldm(2)=   0.000000  celldm(3)=   0.000000
     celldm(4)=   0.000000  celldm(5)=   0.000000  celldm(6)=   0.000000

     crystal axes: (cart. coord. in units of alat)
               a(1) = (   6.579727   0.000000   0.000000 )
               a(2) = (  -0.000775   5.961596   0.000000 )
               a(3) = (   0.000000   0.000000  25.155947 )

     reciprocal axes: (cart. coord. in units 2 pi/alat)
               b(1) = (  0.151982  0.000020  0.000000 )
               b(2) = (  0.000000  0.167740  0.000000 )
               b(3) = (  0.000000  0.000000  0.039752 )

     PseudoPot. # 1 for Ti read from file:
     /storage/coda1/p-amedford6/0/shared/rich_project_chbe-medford/medford-share/data/pseudos_module/espresso/nninc/pbe/van/Ti.UPF
     MD5 check sum: 8e4df49b7f0d34bbd5052bf3f5ea0213
     Pseudo is Ultrasoft, Zval = 12.0
     Generated by new atomic code, or converted to UPF format
     Using radial grid of  851 points,  6 beta functions with:
                l(1) =   0
                l(2) =   0
                l(3) =   1
                l(4) =   1
                l(5) =   2
                l(6) =   2
     Q(r) pseudized with  8 coefficients,  rinner =    1.000   1.000   1.000
                                                       1.000   1.000

     PseudoPot. # 2 for O  read from file:
     /storage/coda1/p-amedford6/0/shared/rich_project_chbe-medford/medford-share/data/pseudos_module/espresso/nninc/pbe/van/O.UPF
     MD5 check sum: 78c19812648e8988a0fe644b0f25305e
     Pseudo is Ultrasoft, Zval =  6.0
     Generated by new atomic code, or converted to UPF format
     Using radial grid of  737 points,  4 beta functions with:
                l(1) =   0
                l(2) =   0
                l(3) =   1
                l(4) =   1
     Q(r) pseudized with  8 coefficients,  rinner =    0.800   0.800   0.800

     atomic species   valence    mass     pseudopotential
        Ti1           12.00    47.86700     Ti( 1.00)
        O1             6.00    15.99900     O ( 1.00)

     Starting magnetic structure
     atomic species   magnetization
        Ti1          0.000
        O1           0.000

     No symmetry found

   Cartesian axes

     site n.     atom                  positions (alat units)
         1           Ti1 tau(   1) = (   0.0004258   2.9801865   6.0000000  )
         2           Ti1 tau(   2) = (   3.2906075   1.4906267   6.0002472  )
         3           O1  tau(   3) = (   0.0006271   0.0005054   7.9858123  )
         4           O1  tau(   4) = (   3.2906025   0.0005020   7.3038282  )
         5           O1  tau(   5) = (   4.5942328   1.4918067   9.2879030  )
         6           O1  tau(   6) = (   1.9868534   1.4903216   9.2879459  )
         7           Ti1 tau(   7) = (   3.2895655   2.9803496   9.1561551  )
         8           Ti1 tau(   8) = (   6.5792279   1.4901203   9.2542590  )
         9           O1  tau(   9) = (   3.2908496   0.0003861  11.3974292  )
        10           O1  tau(  10) = (   0.0009741   0.0005107  10.6121890  )
        11           O1  tau(  11) = (   1.2851668   1.4970119  12.6717501  )
        12           O1  tau(  12) = (   5.2960956   1.4969944  12.6716611  )
        13           Ti1 tau(  13) = (   0.0014209   2.9817635  12.4865077  )
        14           Ti1 tau(  14) = (   3.2920103   1.4923710  12.5431595  )
        15           O1  tau(  15) = (   0.0005111   0.0003601  14.6908606  )
        16           O1  tau(  16) = (   3.2907661   0.0003422  14.0280135  )
        17           O1  tau(  17) = (   4.5563287   1.5043111  16.1972802  )
        18           O1  tau(  18) = (   2.0238984   1.5042417  16.1969189  )
        19           Ti1 tau(  19) = (   3.2900530   2.9812534  15.7923096  )
        20           Ti1 tau(  20) = (   0.0002900   1.3462356  15.9516996  )
        21           O1  tau(  21) = (   3.2904802   0.0005063   4.7018136  )
        22           O1  tau(  22) = (   0.0005067   0.0002908  17.2230471  )
        23           O1  tau(  23) = (   1.3043587   1.4918075   6.0039043  )
        24           O1  tau(  24) = (   5.2767064   1.4903225   6.0039473  )
        25           Ti1 tau(  25) = (   0.0000382   5.9609847   6.0000000  )
        26           Ti1 tau(  26) = (   3.2902200   4.4714249   6.0002472  )
        27           O1  tau(  27) = (   0.0002396   2.9813036   7.9858123  )
        28           O1  tau(  28) = (   3.2902150   2.9813002   7.3038282  )
        29           O1  tau(  29) = (   4.5938453   4.4726049   9.2879030  )
        30           O1  tau(  30) = (   1.9864658   4.4711199   9.2879459  )
        31           Ti1 tau(  31) = (   3.2890184   5.9611387   9.1545655  )
        32           Ti1 tau(  32) = (   6.5788211   4.4731772   9.2541010  )
        33           O1  tau(  33) = (   3.2904314   2.9811918  11.3932170  )
        34           O1  tau(  34) = (   0.0006808   2.9813391  10.6259032  )
        35           O1  tau(  35) = (   1.2847872   4.4655815  12.6717948  )
        36           O1  tau(  36) = (   5.2956760   4.4653813  12.6716352  )
        37           Ti1 tau(  37) = (   0.0020938   0.0010105  12.4782417  )
        38           Ti1 tau(  38) = (   3.2917349   4.4701355  12.5431901  )
        39           O1  tau(  39) = (   0.0000992   2.9811129  15.0245885  )
        40           O1  tau(  40) = (   3.2903432   2.9811263  13.9978513  )
        41           O1  tau(  41) = (   4.5559250   4.4580163  16.1971803  )
        42           O1  tau(  42) = (   2.0234811   4.4579909  16.1969720  )
        43           Ti1 tau(  43) = (   3.2804469   0.0004528  15.8318627  )
        44           Ti1 tau(  44) = (   0.0000435   4.6159127  15.9515978  )
        45           O1  tau(  45) = (   3.2900926   2.9813045   4.7018136  )
        46           O1  tau(  46) = (   1.3039711   4.4726057   6.0039043  )
        47           O1  tau(  47) = (   5.2763189   4.4711207   6.0039473  )

     number of k points=    10  Fermi-Dirac smearing, width (Ry)=  0.0073
                       cart. coord. in units 2pi/alat
        k(    1) = (   0.0000000   0.0000000   0.0000000), wk =   0.0625000
        k(    2) = (   0.0000000   0.0419351   0.0000000), wk =   0.1250000
        k(    3) = (   0.0000000  -0.0838702   0.0000000), wk =   0.0625000
        k(    4) = (   0.0379955   0.0000049   0.0000000), wk =   0.1250000
        k(    5) = (   0.0379955   0.0419400   0.0000000), wk =   0.1250000
        k(    6) = (   0.0379955  -0.0838652   0.0000000), wk =   0.1250000
        k(    7) = (   0.0379955  -0.0419301   0.0000000), wk =   0.1250000
        k(    8) = (  -0.0759910  -0.0000099   0.0000000), wk =   0.0625000
        k(    9) = (  -0.0759910   0.0419252   0.0000000), wk =   0.1250000
        k(   10) = (  -0.0759910  -0.0838800   0.0000000), wk =   0.0625000

     Initial potential from superposition of free atoms

     starting charge  361.99925, renormalised to  378.00000

     negative rho (up, down):  1.185E-02 1.185E-02

     %%%%%%%%%%%%%%%%%%%%%%%%%%%%%%%%%%%%%%%%%%%%%%%%%%%%%%%%%%%%%%%%%%%%%%%%
     %                                                                      %
     % You are using vdW-DF, which was implemented by the Thonhauser group. %
     % Please cite the following two papers that made this development      %
     % possible and the two reviews that describe the various versions:     %
     %                                                                      %
     %   T. Thonhauser et al., PRL 115, 136402 (2015).                      %
     %   T. Thonhauser et al., PRB 76, 125112 (2007).                       %
     %   K. Berland et al., Rep. Prog. Phys. 78, 066501 (2015).             %
     %   D.C. Langreth et al., J. Phys.: Condens. Matter 21, 084203 (2009). %
     %                                                                      %
     %                                                                      %
     % If you are calculating the stress with vdW-DF, please also cite:     %
     %                                                                      %
     %   R. Sabatini et al., J. Phys.: Condens. Matter 24, 424209 (2012).   %
     %                                                                      %
     %%%%%%%%%%%%%%%%%%%%%%%%%%%%%%%%%%%%%%%%%%%%%%%%%%%%%%%%%%%%%%%%%%%%%%%%

     Adding external electric field

     Computed dipole along edir(3) :
        Dipole                1.1416 Ry au,          2.9015 Debye
        Dipole field          0.0022 Ry au,

        Potential amp.       -0.1997 Ry
        Total length         46.3494 bohr

[...]

     Starting wfcs are  284 atomic wfcs
  @ DRIVER MODE: Message from server: STATUS
  @ DRIVER MODE: Message from server: POSDATA
  @ DRIVER MODE: Reading and sharing cell
  @ DRIVER MODE: Reading and sharing positions
  @ DRIVER MODE: Received positions

     Self-consistent Calculation

     iteration #  1     ecut=    29.40 Ry     beta= 0.05
     Davidson diagonalization with overlap
     c_bands:  2 eigenvalues not converged
     c_bands:  3 eigenvalues not converged
     c_bands:  2 eigenvalues not converged
     c_bands:  3 eigenvalues not converged
     c_bands:  1 eigenvalues not converged
     c_bands:  2 eigenvalues not converged
     c_bands:  1 eigenvalues not converged
     c_bands:  1 eigenvalues not converged
     c_bands:  3 eigenvalues not converged
     c_bands:  2 eigenvalues not converged
     c_bands:  2 eigenvalues not converged
     c_bands:  3 eigenvalues not converged
     c_bands:  2 eigenvalues not converged
     c_bands:  3 eigenvalues not converged
     c_bands:  1 eigenvalues not converged
     c_bands:  2 eigenvalues not converged
     c_bands:  1 eigenvalues not converged
     c_bands:  1 eigenvalues not converged
     c_bands:  3 eigenvalues not converged
     c_bands:  2 eigenvalues not converged
     ethr =  1.00E-05,  avg # of iterations = 20.0

[...]

     total energy              =   -2885.09642523 Ry
     estimated scf accuracy    <      12.51198634 Ry

     total magnetization       =    -0.00 Bohr mag/cell
     absolute magnetization    =     0.00 Bohr mag/cell

     iteration #  2     ecut=    29.40 Ry     beta= 0.05
     Davidson diagonalization with overlap
     ethr =  3.31E-03,  avg # of iterations =  1.0

[...]

     iteration # 57     ecut=    29.40 Ry     beta= 0.05
     Davidson diagonalization with overlap
     c_bands:  1 eigenvalues not converged
     c_bands:  1 eigenvalues not converged
     ethr =  6.89E-10,  avg # of iterations = 17.0

[...]

     total energy              =   -2883.85322984 Ry
     estimated scf accuracy    <       0.00000017 Ry

[...]

     iteration # 63     ecut=    29.40 Ry     beta= 0.05
     Davidson diagonalization with overlap
     ethr =  3.45E-11,  avg # of iterations = 10.8

     negative rho (up, down):  1.072E-02 1.072E-02

[...]

     Adding external electric field

     Computed dipole along edir(3) :
        Dipole                0.5581 Ry au,          1.4186 Debye
        Dipole field          0.0011 Ry au,

        Potential amp.       -0.0976 Ry
        Total length         46.3494 bohr

     Magnetic moment per site  (integrated on atomic sphere of radius R)
     atom   1 (R=0.740)  charge=  8.0666  magn=  0.0000
     atom   2 (R=0.740)  charge=  8.0461  magn=  0.0000
     atom   3 (R=0.740)  charge=  5.0351  magn= -0.0000
     atom   4 (R=0.740)  charge=  5.0740  magn=  0.0000
     atom   5 (R=0.740)  charge=  5.0337  magn= -0.0000
     atom   6 (R=0.740)  charge=  5.0338  magn= -0.0000
     atom   7 (R=0.740)  charge=  8.0460  magn=  0.0000
     atom   8 (R=0.740)  charge=  8.0494  magn=  0.0000
     atom   9 (R=0.740)  charge=  5.0395  magn= -0.0000
     atom  10 (R=0.740)  charge=  5.0478  magn= -0.0000
     atom  11 (R=0.740)  charge=  5.0325  magn= -0.0000
     atom  12 (R=0.740)  charge=  5.0325  magn= -0.0000
     atom  13 (R=0.740)  charge=  8.0562  magn=  0.0000
     atom  14 (R=0.740)  charge=  8.0499  magn= -0.0000
     atom  15 (R=0.740)  charge=  5.0483  magn= -0.0000
     atom  16 (R=0.740)  charge=  5.0335  magn=  0.0000
     atom  17 (R=0.740)  charge=  5.0136  magn= -0.0000
     atom  18 (R=0.740)  charge=  5.0167  magn= -0.0000
     atom  19 (R=0.740)  charge=  8.0776  magn=  0.0000
     atom  20 (R=0.740)  charge=  8.0902  magn=  0.0000
     atom  21 (R=0.740)  charge=  4.9132  magn= -0.0000
     atom  22 (R=0.740)  charge=  4.9955  magn=  0.0000
     atom  23 (R=0.740)  charge=  5.0274  magn= -0.0000
     atom  24 (R=0.740)  charge=  5.0275  magn=  0.0000
     atom  25 (R=0.740)  charge=  8.0667  magn=  0.0000
     atom  26 (R=0.740)  charge=  8.0461  magn= -0.0000
     atom  27 (R=0.740)  charge=  5.0346  magn= -0.0000
     atom  28 (R=0.740)  charge=  5.0735  magn= -0.0000
     atom  29 (R=0.740)  charge=  5.0337  magn= -0.0000
     atom  30 (R=0.740)  charge=  5.0338  magn= -0.0000
     atom  31 (R=0.740)  charge=  8.0465  magn=  0.0000
     atom  32 (R=0.740)  charge=  8.0494  magn=  0.0000
     atom  33 (R=0.740)  charge=  5.0395  magn= -0.0000
     atom  34 (R=0.740)  charge=  5.0426  magn= -0.0000
     atom  35 (R=0.740)  charge=  5.0324  magn= -0.0000
     atom  36 (R=0.740)  charge=  5.0325  magn= -0.0000
     atom  37 (R=0.740)  charge=  8.0520  magn=  0.0000
     atom  38 (R=0.740)  charge=  8.0499  magn=  0.0000
     atom  39 (R=0.740)  charge=  5.0311  magn= -0.0000
     atom  40 (R=0.740)  charge=  5.0467  magn=  0.0000
     atom  41 (R=0.740)  charge=  5.0136  magn= -0.0000
     atom  42 (R=0.740)  charge=  5.0167  magn= -0.0000
     atom  43 (R=0.740)  charge=  8.0769  magn= -0.0000
     atom  44 (R=0.740)  charge=  8.0902  magn= -0.0000
     atom  45 (R=0.740)  charge=  4.9131  magn=  0.0000
     atom  46 (R=0.740)  charge=  5.0274  magn=  0.0000
     atom  47 (R=0.740)  charge=  5.0275  magn=  0.0000

     End of self-consistent calculation

 ------ SPIN UP ------------

          k = 0.0000 0.0000 0.0000 ( 18029 PWs)   bands (ev):

   -56.2745 -56.2386 -56.2233 -56.1891 -56.1549 -56.1415 -56.1124 -56.1068
   -56.0889 -56.0800 -56.0783 -56.0521 -56.0250 -56.0181 -55.3379 -55.3038
   -32.8366 -32.7910 -32.7255 -32.6264 -32.5851 -32.5801 -32.5768 -32.5667
   -32.5136 -32.5006 -32.4798 -32.4735 -32.4686 -32.4448 -32.4438 -32.4244
   -32.4118 -32.4106 -32.3978 -32.3881 -32.3758 -32.3749 -32.3719 -32.3707
   -32.3459 -32.3439 -32.3219 -32.2784 -32.2721 -32.2629 -32.2621 -32.2561
   -32.2498 -32.2407 -32.2400 -32.2351 -32.2306 -32.2095 -32.2008 -32.1850
   -32.1675 -32.1072 -31.7506 -31.6459 -31.6246 -31.5665 -31.4801 -31.3694
   -17.1057 -16.8831 -16.7407 -16.6046 -16.5023 -16.3990 -16.2754 -16.2246
   -16.1713 -16.0246 -15.9650 -15.9397 -15.9024 -15.8814 -15.8762 -15.8389
   -15.8303 -15.8142 -15.7936 -15.7852 -15.7694 -15.7688 -15.7206 -15.6682
   -15.5745 -15.5073 -15.4366 -15.3794 -15.0545 -13.8386 -13.7189  -4.4260
    -4.2908  -4.2165  -4.2014  -4.1504  -4.0398  -3.8195  -3.7958  -3.7301
    -3.5741  -3.5259  -3.4687  -3.4090  -3.3393  -3.2826  -3.2715  -3.1702
    -3.1458  -3.1411  -3.1349  -3.0543  -3.0531  -3.0247  -3.0019  -2.9630
    -2.8713  -2.7517  -2.7073  -2.6733  -2.6523  -2.6441  -2.6217  -2.5924
    -2.5605  -2.5263  -2.5248  -2.4896  -2.4483  -2.3237  -2.1766  -2.1326
    -2.0627  -1.9709  -1.8996  -1.8342  -1.7941  -1.7561  -1.7313  -1.6819
    -1.6511  -1.6186  -1.5410  -1.4522  -1.4100  -1.3063  -1.2901  -1.2226
    -1.1869  -1.1137  -1.0707  -1.0696  -1.0265  -0.9382  -0.9111  -0.7878
    -0.7606  -0.7518  -0.7398  -0.7303  -0.6200  -0.5168  -0.4874  -0.4784
    -0.4755  -0.3919  -0.3419  -0.3347  -0.3200  -0.3126  -0.2631  -0.1874
    -0.1469  -0.0960   0.0468   0.2733   0.2734   0.3389   0.5716   0.6422
     0.6884   0.8453   1.2742   1.3277   2.8236   2.8892   2.9205   2.9539
     2.9819   3.0301   3.3204   3.3340   3.3575   3.3854   3.4031

[...]

          k =-0.0760-0.0000 0.0000 ( 17886 PWs)   bands (ev):

[...]

 ------ SPIN DOWN ----------

[...]

          k = 0.0380-0.0419 0.0000 ( 17876 PWs)   bands (ev):

[...]

          k =-0.0760-0.0839 0.0000 ( 17948 PWs)   bands (ev):

   -56.2567 -56.2562 -56.2064 -56.2059 -56.1506 -56.1263 -56.1219 -56.0959
   -56.0944 -56.0841 -56.0824 -56.0353 -56.0349 -56.0314 -55.3207 -55.3207
   -32.7145 -32.6423 -32.6394 -32.5404 -32.5400 -32.5400 -32.5255 -32.4989
   -32.4989 -32.4721 -32.4684 -32.4680 -32.4619 -32.4194 -32.4169 -32.4162
   -32.4105 -32.4098 -32.3959 -32.3903 -32.3892 -32.3853 -32.3739 -32.3584
   -32.3549 -32.3525 -32.3507 -32.3464 -32.3241 -32.3238 -32.3189 -32.3146
   -32.2917 -32.2905 -32.2652 -32.2650 -32.2648 -32.2639 -32.2340 -32.2208
   -32.2206 -32.2120 -31.6371 -31.6371 -31.5633 -31.5631 -31.5234 -31.5233
   -16.8134 -16.4588 -16.4201 -16.3345 -16.3269 -16.2278 -16.2081 -16.1191
   -16.0776 -16.0549 -16.0538 -16.0058 -15.9741 -15.9737 -15.9419 -15.8942
   -15.8791 -15.8503 -15.8476 -15.7928 -15.7902 -15.7891 -15.7878 -15.7518
   -15.7488 -15.7101 -15.7069 -15.6047 -15.4380 -13.8198 -13.8197  -3.8298
    -3.7279  -3.6733  -3.5575  -3.4834  -3.4478  -3.4014  -3.3920  -3.3180
    -3.2745  -3.2706  -3.1877  -3.1765  -3.1763  -3.1631  -3.1016  -3.0866
    -3.0620  -3.0407  -3.0076  -2.9831  -2.9709  -2.9693  -2.9488  -2.9400
    -2.9204  -2.9178  -2.8889  -2.8657  -2.8401  -2.8255  -2.6656  -2.6613
    -2.5755  -2.5156  -2.5143  -2.4349  -2.4267  -2.3825  -2.3487  -2.2924
    -2.2535  -2.0978  -2.0755  -2.0733  -2.0068  -1.9808  -1.9123  -1.8540
    -1.8390  -1.7912  -1.7341  -1.6183  -1.5962  -1.5734  -1.4670  -1.4663
    -1.3918  -1.3172  -1.2733  -1.2679  -1.2646  -1.2361  -1.2307  -1.2290
    -1.1190  -1.0665  -1.0196  -1.0123  -0.9992  -0.7957  -0.7362  -0.7223
    -0.6097  -0.5566  -0.3755  -0.3641  -0.3254  -0.2109  -0.2084  -0.2079
    -0.1562  -0.0319  -0.0201   0.0474   0.0901   0.1031   0.1423   0.1439
     1.0369   1.0380   1.1455   1.1460   2.9946   3.0767   3.0824   3.1315
     3.2720   3.3231   3.3287   3.3744   3.3756   3.3793   3.4816

     the Fermi energy is     2.8892 ev

!    total energy              =   -2883.85325758 Ry
     estimated scf accuracy    <       0.00000004 Ry
     smearing contrib. (-TS)   =      -0.03660373 Ry
     internal energy E=F+TS    =   -2883.81665385 Ry

     The total energy is F=E-TS. E is the sum of the following terms:
     one-electron contribution =  -24914.68736928 Ry
     hartree contribution      =   12532.19762849 Ry
     xc contribution           =    -468.94619626 Ry
     ewald contribution        =    9967.61869533 Ry
     electric field correction =       0.00058787 Ry

     total magnetization       =     0.00 Bohr mag/cell
     absolute magnetization    =     0.00 Bohr mag/cell

     convergence has been achieved in  63 iterations

     Forces acting on atoms (cartesian axes, Ry/au):

     atom    1 type  1   force =     0.00011511    0.00000112    0.08982529
     atom    2 type  1   force =    -0.00003999    0.00031334   -0.18453869
     atom    3 type  2   force =     0.00003207   -0.00000414   -0.02424791
     atom    4 type  2   force =    -0.00000905   -0.00002189    0.05194638
     atom    5 type  2   force =    -0.01337117   -0.00027548    0.00585329
     atom    6 type  2   force =     0.01335465    0.00020249    0.00582595
     atom    7 type  1   force =    -0.00002917    0.00002378    0.00043456
     atom    8 type  1   force =     0.00003438    0.00041641    0.00042269
     atom    9 type  2   force =     0.00000475    0.00001732    0.00084843
     atom   10 type  2   force =     0.00000717    0.00000808   -0.00041073
     atom   11 type  2   force =     0.00018087   -0.00023949    0.00051696
     atom   12 type  2   force =    -0.00018266   -0.00025263    0.00046823
     atom   13 type  1   force =    -0.00008849   -0.00000513   -0.00073494
     atom   14 type  1   force =     0.00013401   -0.00074613    0.00054252
     atom   15 type  2   force =     0.00031943   -0.00001444   -0.00072173
     atom   16 type  2   force =    -0.00059950    0.00001271    0.00014356
     atom   17 type  2   force =    -0.00091752    0.00020200   -0.00030613
     atom   18 type  2   force =    -0.00084781    0.00032241    0.00036144
     atom   19 type  1   force =     0.00315985   -0.00000813   -0.00080797
     atom   20 type  1   force =    -0.00228798    0.00016823   -0.00004341
     atom   21 type  2   force =     0.00006373    0.00007507    0.10526634
     atom   22 type  2   force =     0.00041759   -0.00000216    0.00048123
     atom   23 type  2   force =    -0.06757386   -0.00026472   -0.02600012
     atom   24 type  2   force =     0.06748953    0.00016855   -0.02603501
     atom   25 type  1   force =     0.00008859    0.00001420    0.08891210
     atom   26 type  1   force =    -0.00006656   -0.00041093   -0.18454114
     atom   27 type  2   force =     0.00004133   -0.00002276   -0.02319025
     atom   28 type  2   force =    -0.00000093   -0.00002095    0.05199068
     atom   29 type  2   force =    -0.01338048   -0.00026813    0.00585223
     atom   30 type  2   force =     0.01335879    0.00023249    0.00582203
     atom   31 type  1   force =    -0.00001917    0.00001784    0.00076923
     atom   32 type  1   force =     0.00003275   -0.00041326    0.00044163
     atom   33 type  2   force =     0.00002171    0.00001119   -0.00031219
     atom   34 type  2   force =    -0.00000791    0.00000188    0.00009183
     atom   35 type  2   force =     0.00017331    0.00026354    0.00051812
     atom   36 type  2   force =    -0.00017640    0.00025352    0.00047238
     atom   37 type  1   force =    -0.00009022   -0.00002235    0.00079677
     atom   38 type  1   force =     0.00012363    0.00076405    0.00053057
     atom   39 type  2   force =     0.00040338   -0.00000024   -0.00041272
     atom   40 type  2   force =    -0.00013914    0.00001359   -0.00048384
     atom   41 type  2   force =    -0.00091696   -0.00019626   -0.00030355
     atom   42 type  2   force =    -0.00084123   -0.00031954    0.00035807
     atom   43 type  1   force =     0.00438097    0.00001264    0.00043551
     atom   44 type  1   force =    -0.00233207   -0.00016730   -0.00003311
     atom   45 type  2   force =     0.00006565    0.00007495    0.10522996
     atom   46 type  2   force =    -0.06757308   -0.00017774   -0.02599645
     atom   47 type  2   force =     0.06748810    0.00026241   -0.02603810

     Total force =     0.366906     Total SCF correction =     0.000432
  @ DRIVER MODE: Message from server: STATUS
  @ DRIVER MODE: Message from server: GETFORCE
  @ DRIVER MODE: Returning v,forces,stress,ensemble

     Writing output data file ./calc.save/
  @ DRIVER MODE: Message from server: EXIT
  @ DRIVE MODE: Exiting

     General routines

     Parallel routines

   This run was terminated on:  18:58:36  22Jul2021

   JOB DONE.