     Program PWSCF v.6.7GPU starts on 16Sep2021 at  0:14: 0

     R & G space division:  proc/nbgrp/npool/nimage =      10
     Reading input from /storage/home/hcoda1/3/ntian30/research/carbon/CxH_vib/H2O_calc/ads_slab/CH2H2O_a/out_0029/pw.inp
Warning: card &CELL ignored
Warning: card   CELL_DYNAMICS='IPI', ignored
Warning: card / ignored

     Current dimensions of program PWSCF are:
     Max number of different atomic species (ntypx) = 10
     Max number of k-points (npk) =  40000
     Max angular momentum in pseudopotentials (lmaxx) =  3
     Presently no symmetry can be used with electric field

     Message from routine cell_base_init:
     DEPRECATED: use true lattice parameter, not A to a.u. conversion factor

     IMPORTANT: XC functional enforced from input :
     Exchange-correlation= BEEF-VDW
                           (   1   4  43  14   2   0   0)
     Any further DFT definition will be discarded
     Please, verify this is what you really want

  @ DRIVER MODE: Connecting to
 qe_1139763_2852604.sched-torque.pace.gatech.edu8kbf7ukk_scratch
  using UNIX socket
  @ DRIVER MODE: Message from server: STATUS
  @ DRIVER MODE: Message from server: INIT
  @ DRIVER MODE: Receiving replica           0          -1
  @ DRIVER MODE: Receiving encoded integer          25
  @ DRIVER MODE:  SCF:  T  FORCE:  T  STRESS:  F  VC:  F  ENSEMBLE:  F
  @ DRIVER MODE:  SCF:  T  FORCE:  T  STRESS:  F  VC:  F  ENSEMBLE:  F

     Using Slab Decomposition

     bravais-lattice index     =            0
     lattice parameter (alat)  =       1.8897  a.u.
     unit-cell volume          =    6658.9804 (a.u.)^3
     number of atoms/cell      =           53
     number of atomic types    =            4
     number of electrons       =       392.00
     number of Kohn-Sham states=          206
     kinetic-energy cutoff     =      29.3995  Ry
     charge density cutoff     =     293.9946  Ry
     scf convergence threshold =      7.3E-08
     mixing beta               =       0.0500
     number of iterations used =            8  plain     mixing
     Exchange-correlation= BEEF-VDW
                           (   1   4  43  14   2   0   0)

     celldm(1)=   1.889726  celldm(2)=   0.000000  celldm(3)=   0.000000
     celldm(4)=   0.000000  celldm(5)=   0.000000  celldm(6)=   0.000000

     crystal axes: (cart. coord. in units of alat)
               a(1) = (   6.579727   0.000000   0.000000 )
               a(2) = (  -0.000775   5.961596   0.000000 )
               a(3) = (   0.000000   0.000000  25.155947 )

     reciprocal axes: (cart. coord. in units 2 pi/alat)
               b(1) = (  0.151982  0.000020  0.000000 )
               b(2) = (  0.000000  0.167740  0.000000 )
               b(3) = (  0.000000  0.000000  0.039752 )

     PseudoPot. # 1 for Ti read from file:
     /storage/coda1/p-amedford6/0/shared/rich_project_chbe-medford/medford-share/data/pseudos_module/espresso/nninc/pbe/van/Ti.UPF
     MD5 check sum: 8e4df49b7f0d34bbd5052bf3f5ea0213
     Pseudo is Ultrasoft, Zval = 12.0
     Generated by new atomic code, or converted to UPF format
     Using radial grid of  851 points,  6 beta functions with:
                l(1) =   0
                l(2) =   0
                l(3) =   1
                l(4) =   1
                l(5) =   2
                l(6) =   2
     Q(r) pseudized with  8 coefficients,  rinner =    1.000   1.000   1.000
                                                       1.000   1.000

     PseudoPot. # 2 for O  read from file:
     /storage/coda1/p-amedford6/0/shared/rich_project_chbe-medford/medford-share/data/pseudos_module/espresso/nninc/pbe/van/O.UPF
     MD5 check sum: 78c19812648e8988a0fe644b0f25305e
     Pseudo is Ultrasoft, Zval =  6.0
     Generated by new atomic code, or converted to UPF format
     Using radial grid of  737 points,  4 beta functions with:
                l(1) =   0
                l(2) =   0
                l(3) =   1
                l(4) =   1
     Q(r) pseudized with  8 coefficients,  rinner =    0.800   0.800   0.800

     PseudoPot. # 3 for C  read from file:
     /storage/coda1/p-amedford6/0/shared/rich_project_chbe-medford/medford-share/data/pseudos_module/espresso/nninc/pbe/van/C.UPF
     MD5 check sum: 1a69bf6b8db32088f5b2163dbdb77a27
     Pseudo is Ultrasoft, Zval =  4.0
     Generated by new atomic code, or converted to UPF format
     Using radial grid of  721 points,  4 beta functions with:
                l(1) =   0
                l(2) =   0
                l(3) =   1
                l(4) =   1
     Q(r) pseudized with  8 coefficients,  rinner =    0.800   0.800   0.800

     PseudoPot. # 4 for H  read from file:
     /storage/coda1/p-amedford6/0/shared/rich_project_chbe-medford/medford-share/data/pseudos_module/espresso/nninc/pbe/van/H.UPF
     MD5 check sum: b5ee9d7bfd3a09ee7748110bda690ff7
     Pseudo is Ultrasoft, Zval =  1.0
     Generated by new atomic code, or converted to UPF format
     Using radial grid of  615 points,  1 beta functions with:
                l(1) =   0
     Q(r) pseudized with  8 coefficients,  rinner =    0.800

     atomic species   valence    mass     pseudopotential
        Ti1           12.00    47.86700     Ti( 1.00)
        O1             6.00    15.99900     O ( 1.00)
        C1             4.00    12.01100     C ( 1.00)
        H1             1.00     1.00800     H ( 1.00)

     No symmetry found

   Cartesian axes

     site n.     atom                  positions (alat units)
         1           Ti1 tau(   1) = (   0.0004258   2.9801865   6.0000000  )
         2           Ti1 tau(   2) = (   3.2906075   1.4906267   6.0002472  )
         3           O1  tau(   3) = (   0.0006271   0.0005054   7.9858123  )
         4           O1  tau(   4) = (   3.2906025   0.0005020   7.3038282  )
         5           O1  tau(   5) = (   4.5942328   1.4918067   9.2879030  )
         6           O1  tau(   6) = (   1.9868534   1.4903216   9.2879459  )
         7           Ti1 tau(   7) = (   3.2791254   2.8632543   9.1696858  )
         8           Ti1 tau(   8) = (   6.5716288   1.4291880   9.3745659  )
         9           O1  tau(   9) = (   3.2719631   5.9564768  11.3413791  )
        10           O1  tau(  10) = (   6.5766582   5.9454684  10.5603319  )
        11           O1  tau(  11) = (   1.2606928   1.4857163  12.6338655  )
        12           O1  tau(  12) = (   5.2561023   1.4877827  12.6114660  )
        13           Ti1 tau(  13) = (   0.0646731   2.9540699  12.8218634  )
        14           Ti1 tau(  14) = (   3.3836270   1.4660460  12.4955168  )
        15           O1  tau(  15) = (   6.5457659   5.9184216  14.5915085  )
        16           O1  tau(  16) = (   3.2744135   0.0171945  13.9516778  )
        17           O1  tau(  17) = (   4.5159629   1.5536209  16.0418326  )
        18           O1  tau(  18) = (   1.9981799   1.5541948  16.0447984  )
        19           Ti1 tau(  19) = (   3.2528476   3.0136947  15.6822407  )
        20           Ti1 tau(  20) = (   6.5571992   1.6159626  16.1493948  )
        21           O1  tau(  21) = (   3.2904802   0.0005063   4.7018136  )
        22           O1  tau(  22) = (   6.5499432   0.0285508  17.2403840  )
        23           O1  tau(  23) = (   1.3043587   1.4918075   6.0039043  )
        24           O1  tau(  24) = (   5.2767064   1.4903225   6.0039473  )
        25           Ti1 tau(  25) = (   0.0000382   5.9609847   6.0000000  )
        26           Ti1 tau(  26) = (   3.2902200   4.4714249   6.0002472  )
        27           O1  tau(  27) = (   0.0002396   2.9813036   7.9858123  )
        28           O1  tau(  28) = (   3.2902150   2.9813002   7.3038282  )
        29           O1  tau(  29) = (   4.5938453   4.4726049   9.2879030  )
        30           O1  tau(  30) = (   1.9864658   4.4711199   9.2879459  )
        31           Ti1 tau(  31) = (   3.2865685   5.8444178   9.1628351  )
        32           Ti1 tau(  32) = (   6.5743218   4.4049426   9.3738558  )
        33           O1  tau(  33) = (   3.2769956   2.9705820  11.3381082  )
        34           O1  tau(  34) = (   6.5775985   2.9640992  10.5572898  )
        35           O1  tau(  35) = (   1.2629977   4.4457513  12.6272354  )
        36           O1  tau(  36) = (   5.2537740   4.4534837  12.6036699  )
        37           Ti1 tau(  37) = (   0.0534783   5.9329931  12.7718795  )
        38           Ti1 tau(  38) = (   3.3808541   4.4548706  12.4760825  )
        39           O1  tau(  39) = (   6.5578179   2.9671967  14.6759119  )
        40           O1  tau(  40) = (   3.2646438   2.9894133  13.8927730  )
        41           O1  tau(  41) = (   4.5094683   4.4833613  16.0328582  )
        42           O1  tau(  42) = (   2.0033084   4.4836886  16.0339364  )
        43           Ti1 tau(  43) = (   3.2772676   0.0291193  15.7865657  )
        44           Ti1 tau(  44) = (   6.5620481   4.6241259  16.1080240  )
        45           O1  tau(  45) = (   3.2900926   2.9813045   4.7018136  )
        46           O1  tau(  46) = (   1.3039711   4.4726057   6.0039043  )
        47           O1  tau(  47) = (   5.2763189   4.4711207   6.0039473  )
        48           C1  tau(  48) = (   6.5362552   2.9989010  17.5868729  )
        49           H1  tau(  49) = (   0.8535040   3.1223538  18.1993289  )
        50           H1  tau(  50) = (   5.6240823   3.1149880  18.1772116  )
        51           O1  tau(  51) = (   3.2614802   0.0224742  18.1496266  )
        52           H1  tau(  52) = (   4.0528939   5.9570843  18.6924920  )
        53           H1  tau(  53) = (   2.4635753   0.0005096  18.6943540  )

     number of k points=    10  Fermi-Dirac smearing, width (Ry)=  0.0073
                       cart. coord. in units 2pi/alat
        k(    1) = (   0.0000000   0.0000000   0.0000000), wk =   0.1250000
        k(    2) = (   0.0000000   0.0419351   0.0000000), wk =   0.2500000
        k(    3) = (   0.0000000  -0.0838702   0.0000000), wk =   0.1250000
        k(    4) = (   0.0379955   0.0000049   0.0000000), wk =   0.2500000
        k(    5) = (   0.0379955   0.0419400   0.0000000), wk =   0.2500000
        k(    6) = (   0.0379955  -0.0838652   0.0000000), wk =   0.2500000
        k(    7) = (   0.0379955  -0.0419301   0.0000000), wk =   0.2500000
        k(    8) = (  -0.0759910  -0.0000099   0.0000000), wk =   0.1250000
        k(    9) = (  -0.0759910   0.0419252   0.0000000), wk =   0.2500000
        k(   10) = (  -0.0759910  -0.0838800   0.0000000), wk =   0.1250000

     Initial potential from superposition of free atoms

     starting charge  375.99917, renormalised to  392.00000

     negative rho (up, down):  1.852E-02 0.000E+00

     %%%%%%%%%%%%%%%%%%%%%%%%%%%%%%%%%%%%%%%%%%%%%%%%%%%%%%%%%%%%%%%%%%%%%%%%
     %                                                                      %
     % You are using vdW-DF, which was implemented by the Thonhauser group. %
     % Please cite the following two papers that made this development      %
     % possible and the two reviews that describe the various versions:     %
     %                                                                      %
     %   T. Thonhauser et al., PRL 115, 136402 (2015).                      %
     %   T. Thonhauser et al., PRB 76, 125112 (2007).                       %
     %   K. Berland et al., Rep. Prog. Phys. 78, 066501 (2015).             %
     %   D.C. Langreth et al., J. Phys.: Condens. Matter 21, 084203 (2009). %
     %                                                                      %
     %                                                                      %
     % If you are calculating the stress with vdW-DF, please also cite:     %
     %                                                                      %
     %   R. Sabatini et al., J. Phys.: Condens. Matter 24, 424209 (2012).   %
     %                                                                      %
     %%%%%%%%%%%%%%%%%%%%%%%%%%%%%%%%%%%%%%%%%%%%%%%%%%%%%%%%%%%%%%%%%%%%%%%%

     Adding external electric field

     Computed dipole along edir(3) :
        Dipole               -5.1797 Ry au,        -13.1654 Debye
        Dipole field         -0.0098 Ry au,

        Potential amp.        0.9061 Ry
        Total length         46.3494 bohr

     Starting wfcs are  296 atomic wfcs
  @ DRIVER MODE: Message from server: STATUS
  @ DRIVER MODE: Message from server: POSDATA
  @ DRIVER MODE: Reading and sharing cell
  @ DRIVER MODE: Reading and sharing positions
  @ DRIVER MODE: Received positions

     Self-consistent Calculation

     iteration #  1     ecut=    29.40 Ry     beta= 0.05
     Davidson diagonalization with overlap
     c_bands:  5 eigenvalues not converged
     c_bands:  3 eigenvalues not converged
     c_bands:  4 eigenvalues not converged
     c_bands:  1 eigenvalues not converged
     c_bands:  2 eigenvalues not converged
     c_bands:  2 eigenvalues not converged
     c_bands:  3 eigenvalues not converged
     c_bands:  1 eigenvalues not converged
     ethr =  1.00E-05,  avg # of iterations = 19.5

[...]

     total energy              =   -2834.31028230 Ry
     estimated scf accuracy    <    1087.08984530 Ry

     iteration #  2     ecut=    29.40 Ry     beta= 0.05
     Davidson diagonalization with overlap
     ethr =  1.00E-02,  avg # of iterations = 15.7

[...]

     iteration # 55     ecut=    29.40 Ry     beta= 0.05
     Davidson diagonalization with overlap
     c_bands:  1 eigenvalues not converged
     ethr =  9.30E-11,  avg # of iterations =  9.4

[...]

     total energy              =   -2932.56449006 Ry
     estimated scf accuracy    <       0.00000012 Ry

     iteration # 68     ecut=    29.40 Ry     beta= 0.05
     Davidson diagonalization with overlap
     ethr =  2.93E-11,  avg # of iterations =  5.0

     negative rho (up, down):  1.823E-02 0.000E+00

     Adding external electric field

     Computed dipole along edir(3) :
        Dipole                0.8967 Ry au,          2.2792 Debye
        Dipole field          0.0017 Ry au,

        Potential amp.       -0.1569 Ry
        Total length         46.3494 bohr

     End of self-consistent calculation

          k = 0.0000 0.0000 0.0000 ( 18029 PWs)   bands (ev):

   -56.1864 -56.1523 -55.8918 -55.8426 -55.8047 -55.7002 -55.5912 -55.5636
   -55.5295 -55.5100 -55.4932 -55.4574 -55.1267 -54.9945 -54.9709 -54.9369
   -32.6143 -32.4376 -32.4087 -32.3831 -32.3755 -32.2918 -32.2842 -32.2409
   -32.1780 -32.1114 -32.1050 -32.0697 -32.0588 -32.0557 -32.0493 -32.0241
   -31.9996 -31.9980 -31.9674 -31.8961 -31.8724 -31.8406 -31.8233 -31.8108
   -31.8086 -31.7800 -31.7501 -31.7333 -31.7259 -31.7224 -31.6804 -31.6729
   -31.6721 -31.6655 -31.6511 -31.5969 -31.5751 -31.4228 -31.3739 -31.3707
   -31.3247 -31.2973 -31.2735 -31.1891 -31.1698 -31.1042 -31.0393 -30.9922
   -19.2547 -16.5204 -16.3509 -16.1149 -15.9803 -15.8987 -15.7384 -15.5578
   -15.5489 -15.4602 -15.4371 -15.3608 -15.3519 -15.3176 -15.3053 -15.2976
   -15.2825 -15.2588 -15.2130 -15.2015 -15.2010 -15.1524 -15.0975 -15.0047
   -14.9926 -14.9447 -14.8266 -14.8195 -14.7850 -14.6399 -13.4648 -13.3511
    -8.0697  -7.3231  -3.9912  -3.9297  -3.8102  -3.7206  -3.6941  -3.5799
    -3.3413  -3.2714  -3.0140  -2.9825  -2.9396  -2.8939  -2.8793  -2.7991
    -2.7066  -2.6916  -2.6637  -2.6382  -2.6032  -2.5957  -2.5322  -2.5229
    -2.5004  -2.4948  -2.4309  -2.4161  -2.3739  -2.2374  -2.1876  -2.1626
    -2.1502  -2.1108  -2.0760  -2.0134  -1.9904  -1.9629  -1.9047  -1.7552
    -1.7317  -1.6512  -1.6230  -1.5511  -1.4612  -1.4480  -1.3026  -1.2849
    -1.2474  -1.2361  -1.2085  -1.1562  -1.1364  -1.0296  -0.8990  -0.8198
    -0.7872  -0.7654  -0.7522  -0.7056  -0.6688  -0.6156  -0.6078  -0.5642
    -0.4889  -0.4805  -0.4046  -0.2194  -0.2055  -0.1946  -0.1776  -0.1354
    -0.1061  -0.0841  -0.0403   0.0047   0.0291   0.0875   0.0979   0.1294
     0.1469   0.2241   0.2727   0.3285   0.3346   0.4474   0.5586   0.6209
     0.6384   0.6692   0.7702   0.7818   0.9879   1.0063   1.0567   1.2684
     1.3139   1.6423   1.7140   2.1700   3.0827   3.2580   3.4610   3.5595
     3.5795   3.6747   3.6874   3.8193   3.8766   3.9244

[...]

          k = 0.0380-0.0419 0.0000 ( 17876 PWs)   bands (ev):

[...]

          k =-0.0760-0.0000 0.0000 ( 17886 PWs)   bands (ev):

[...]

          k =-0.0760-0.0839 0.0000 ( 17948 PWs)   bands (ev):

   -56.1722 -56.1662 -55.8902 -55.8300 -55.8172 -55.7017 -55.5873 -55.5474
   -55.5454 -55.5138 -55.4790 -55.4716 -55.1245 -54.9965 -54.9538 -54.9538
   -32.4343 -32.4292 -32.4263 -32.4190 -32.3306 -32.3256 -32.1974 -32.1849
   -32.1706 -32.1591 -32.1075 -32.0928 -32.0537 -32.0338 -32.0299 -32.0181
   -32.0001 -31.9038 -31.9036 -31.8776 -31.8770 -31.8410 -31.8185 -31.8087
   -31.8058 -31.7988 -31.7918 -31.7890 -31.7599 -31.7581 -31.7561 -31.7407
   -31.6945 -31.6873 -31.6842 -31.6773 -31.4851 -31.4214 -31.3778 -31.2971
   -31.2864 -31.2864 -31.2807 -31.1851 -31.1848 -31.1468 -31.1466 -31.0523
   -19.2540 -16.0100 -15.8998 -15.7471 -15.7071 -15.6636 -15.6632 -15.6329
   -15.5992 -15.5638 -15.5575 -15.4675 -15.4362 -15.4224 -15.4102 -15.3452
   -15.3394 -15.3347 -15.3311 -15.2702 -15.2635 -15.1493 -15.1415 -15.0617
   -15.0513 -15.0217 -14.9996 -14.9563 -14.9498 -14.7908 -13.4535 -13.4534
    -8.0743  -7.3163  -3.9058  -3.3105  -3.0911  -2.9709  -2.9321  -2.8064
    -2.7951  -2.7891  -2.7814  -2.7690  -2.7297  -2.6746  -2.6544  -2.6429
    -2.6175  -2.6044  -2.5767  -2.5686  -2.5414  -2.5397  -2.5340  -2.5298
    -2.5117  -2.4941  -2.4373  -2.4289  -2.4128  -2.3833  -2.3039  -2.2891
    -2.1985  -2.1120  -2.0796  -2.0782  -2.0176  -1.9826  -1.9005  -1.8921
    -1.8755  -1.8703  -1.8063  -1.6130  -1.5580  -1.5529  -1.5158  -1.4808
    -1.3199  -1.2827  -1.2205  -1.1791  -1.1486  -1.1360  -1.0601  -1.0488
    -1.0231  -0.9692  -0.9647  -0.9575  -0.9416  -0.8608  -0.8440  -0.8176
    -0.7429  -0.7019  -0.6857  -0.6599  -0.6292  -0.5766  -0.4919  -0.4688
    -0.4564  -0.4420  -0.3131  -0.2754  -0.2466  -0.2078  -0.1593   0.1057
     0.1154   0.1974   0.2981   0.3913   0.4321   0.5341   0.5521   0.5587
     0.6850   0.6982   0.7037   0.7126   0.8132   0.8200   0.8565   1.4419
     1.4442   1.4967   1.4980   2.4397   3.6060   3.6132   3.6245   3.6296
     3.6526   3.6826   3.7021   3.7335   4.0242   4.0439

     the Fermi energy is     2.7899 ev

!    total energy              =   -2932.56450895 Ry
     estimated scf accuracy    <       0.00000005 Ry
     smearing contrib. (-TS)   =      -0.00167100 Ry
     internal energy E=F+TS    =   -2932.56283795 Ry

     The total energy is F=E-TS. E is the sum of the following terms:
     one-electron contribution =  -24523.61260789 Ry
     hartree contribution      =   12349.37825915 Ry
     xc contribution           =    -482.74968028 Ry
     ewald contribution        =    9724.41967371 Ry
     electric field correction =       0.00151737 Ry

     convergence has been achieved in  68 iterations

     Forces acting on atoms (cartesian axes, Ry/au):

     atom    1 type  1   force =     0.00030237   -0.00016565    0.14552493
     atom    2 type  1   force =     0.00005320    0.00071643   -0.16923980
     atom    3 type  2   force =     0.00003698    0.00235230   -0.06023772
     atom    4 type  2   force =    -0.00017058   -0.00142016    0.03904854
     atom    5 type  2   force =    -0.02196023   -0.00032228    0.00359176
     atom    6 type  2   force =     0.01965132   -0.00081161    0.00220187
     atom    7 type  1   force =     0.00012381   -0.00001658    0.00039592
     atom    8 type  1   force =     0.00006991    0.00009158    0.00105711
     atom    9 type  2   force =    -0.00007715   -0.00028804    0.00030423
     atom   10 type  2   force =     0.00010554    0.00014825   -0.00061262
     atom   11 type  2   force =     0.00007349    0.00001875    0.00101445
     atom   12 type  2   force =     0.00072322    0.00009705    0.00106645
     atom   13 type  1   force =    -0.00072412   -0.00016286   -0.00046747
     atom   14 type  1   force =     0.00037347   -0.00106339    0.00000779
     atom   15 type  2   force =     0.00019023   -0.00015945    0.00099838
     atom   16 type  2   force =    -0.00005273   -0.00028146    0.00141365
     atom   17 type  2   force =     0.00015572   -0.00058527    0.00026416
     atom   18 type  2   force =    -0.00012887   -0.00066094    0.00020934
     atom   19 type  1   force =     0.00073322   -0.00065804   -0.00027421
     atom   20 type  1   force =    -0.00025241    0.00049145   -0.00026815
     atom   21 type  2   force =     0.00012854   -0.00008028    0.10216675
     atom   22 type  2   force =     0.00010104    0.00001559    0.00004251
     atom   23 type  2   force =    -0.07475272    0.00032037   -0.03449755
     atom   24 type  2   force =     0.07482942    0.00076944   -0.03456675
     atom   25 type  1   force =     0.00009706   -0.00007416    0.14712866
     atom   26 type  1   force =     0.00001307   -0.00209960   -0.16942555
     atom   27 type  2   force =     0.00001521    0.00193337   -0.05939773
     atom   28 type  2   force =    -0.00028668   -0.00139904    0.03993350
     atom   29 type  2   force =    -0.02160335    0.00107791    0.00381525
     atom   30 type  2   force =     0.02035287   -0.00010705    0.00242577
     atom   31 type  1   force =     0.00013346    0.00016127    0.00129533
     atom   32 type  1   force =     0.00006616   -0.00021804    0.00114977
     atom   33 type  2   force =    -0.00010661   -0.00006492   -0.00058918
     atom   34 type  2   force =     0.00010826    0.00010423   -0.00067749
     atom   35 type  2   force =     0.00026856   -0.00037872    0.00077436
     atom   36 type  2   force =     0.00035335   -0.00045291    0.00084474
     atom   37 type  1   force =    -0.00058915   -0.00015005   -0.00057413
     atom   38 type  1   force =     0.00048623    0.00061516   -0.00034157
     atom   39 type  2   force =     0.00028125   -0.00003084   -0.00017530
     atom   40 type  2   force =    -0.00009375   -0.00013971    0.00180512
     atom   41 type  2   force =     0.00013040    0.00050966    0.00039128
     atom   42 type  2   force =    -0.00016210    0.00049573    0.00036103
     atom   43 type  1   force =     0.00023769    0.00058727   -0.00010270
     atom   44 type  1   force =    -0.00030722    0.00015774   -0.00019372
     atom   45 type  2   force =     0.00012012   -0.00010295    0.10209221
     atom   46 type  2   force =    -0.07474156   -0.00002315   -0.03446703
     atom   47 type  2   force =     0.07483095    0.00043611   -0.03456697
     atom   48 type  3   force =    -0.00002942   -0.00027831    0.00028629
     atom   49 type  4   force =     0.00007757   -0.00020584   -0.00041762
     atom   50 type  4   force =     0.00040982   -0.00007562   -0.00033642
     atom   51 type  2   force =    -0.00932817    0.00137445   -0.00896611
     atom   52 type  4   force =     0.00932400   -0.00016973    0.00789875
     atom   53 type  4   force =     0.00040933    0.00017254    0.00088587

     Total force =     0.400753     Total SCF correction =     0.000378
  @ DRIVER MODE: Message from server: STATUS
  @ DRIVER MODE: Message from server: GETFORCE
  @ DRIVER MODE: Returning v,forces,stress,ensemble

     Writing output data file ./calc.save/
  @ DRIVER MODE: Message from server: EXIT
  @ DRIVE MODE: Exiting

     General routines

     Parallel routines

   This run was terminated on:   0:31: 2  16Sep2021

   JOB DONE.