     Program PWSCF v.6.7GPU starts on 23Sep2021 at 13:49:33

     R & G space division:  proc/nbgrp/npool/nimage =       8
     Reading input from /storage/home/hcoda1/3/ntian30/research/carbon/CxH_vib/H2O_calc/ads_slab/CH2NHNH2HO_a/out_0007/pw.inp
Warning: card &CELL ignored
Warning: card   CELL_DYNAMICS='IPI', ignored
Warning: card / ignored

     Current dimensions of program PWSCF are:
     Max number of different atomic species (ntypx) = 10
     Max number of k-points (npk) =  40000
     Max angular momentum in pseudopotentials (lmaxx) =  3
     Presently no symmetry can be used with electric field

     Message from routine cell_base_init:
     DEPRECATED: use true lattice parameter, not A to a.u. conversion factor

     IMPORTANT: XC functional enforced from input :
     Exchange-correlation= BEEF-VDW
                           (   1   4  43  14   2   0   0)
     Any further DFT definition will be discarded
     Please, verify this is what you really want

  @ DRIVER MODE: Connecting to
 qe_1139763_2947313.sched-torque.pace.gatech.edusc5s081n_scratch
  using UNIX socket
  @ DRIVER MODE: Message from server: STATUS
  @ DRIVER MODE: Message from server: INIT
  @ DRIVER MODE: Receiving replica           0          -1
  @ DRIVER MODE: Receiving encoded integer          25
  @ DRIVER MODE:  SCF:  T  FORCE:  T  STRESS:  F  VC:  F  ENSEMBLE:  F
  @ DRIVER MODE:  SCF:  T  FORCE:  T  STRESS:  F  VC:  F  ENSEMBLE:  F

     Using Slab Decomposition

     bravais-lattice index     =            0
     lattice parameter (alat)  =       1.8897  a.u.
     unit-cell volume          =    6658.9804 (a.u.)^3
     number of atoms/cell      =           57
     number of atomic types    =            5
     number of electrons       =       404.00
     number of Kohn-Sham states=          212
     kinetic-energy cutoff     =      29.3995  Ry
     charge density cutoff     =     293.9946  Ry
     scf convergence threshold =      7.3E-08
     mixing beta               =       0.0500
     number of iterations used =            8  plain     mixing
     Exchange-correlation= BEEF-VDW
                           (   1   4  43  14   2   0   0)

     celldm(1)=   1.889726  celldm(2)=   0.000000  celldm(3)=   0.000000
     celldm(4)=   0.000000  celldm(5)=   0.000000  celldm(6)=   0.000000

     crystal axes: (cart. coord. in units of alat)
               a(1) = (   6.579727   0.000000   0.000000 )
               a(2) = (  -0.000775   5.961596   0.000000 )
               a(3) = (   0.000000   0.000000  25.155947 )

     reciprocal axes: (cart. coord. in units 2 pi/alat)
               b(1) = (  0.151982  0.000020  0.000000 )
               b(2) = (  0.000000  0.167740  0.000000 )
               b(3) = (  0.000000  0.000000  0.039752 )

     PseudoPot. # 1 for Ti read from file:
     /storage/coda1/p-amedford6/0/shared/rich_project_chbe-medford/medford-share/data/pseudos_module/espresso/nninc/pbe/van/Ti.UPF
     MD5 check sum: 8e4df49b7f0d34bbd5052bf3f5ea0213
     Pseudo is Ultrasoft, Zval = 12.0
     Generated by new atomic code, or converted to UPF format
     Using radial grid of  851 points,  6 beta functions with:
                l(1) =   0
                l(2) =   0
                l(3) =   1
                l(4) =   1
                l(5) =   2
                l(6) =   2
     Q(r) pseudized with  8 coefficients,  rinner =    1.000   1.000   1.000
                                                       1.000   1.000

     PseudoPot. # 2 for O  read from file:
     /storage/coda1/p-amedford6/0/shared/rich_project_chbe-medford/medford-share/data/pseudos_module/espresso/nninc/pbe/van/O.UPF
     MD5 check sum: 78c19812648e8988a0fe644b0f25305e
     Pseudo is Ultrasoft, Zval =  6.0
     Generated by new atomic code, or converted to UPF format
     Using radial grid of  737 points,  4 beta functions with:
                l(1) =   0
                l(2) =   0
                l(3) =   1
                l(4) =   1
     Q(r) pseudized with  8 coefficients,  rinner =    0.800   0.800   0.800

     PseudoPot. # 3 for N  read from file:
     /storage/coda1/p-amedford6/0/shared/rich_project_chbe-medford/medford-share/data/pseudos_module/espresso/nninc/pbe/van/N.UPF
     MD5 check sum: 90d10febe142ad51ac9d5be1deb811c4
     Pseudo is Ultrasoft, Zval =  5.0
     Generated by new atomic code, or converted to UPF format
     Using radial grid of  729 points,  4 beta functions with:
                l(1) =   0
                l(2) =   0
                l(3) =   1
                l(4) =   1
     Q(r) pseudized with  8 coefficients,  rinner =    0.800   0.800   0.800

     PseudoPot. # 4 for C  read from file:
     /storage/coda1/p-amedford6/0/shared/rich_project_chbe-medford/medford-share/data/pseudos_module/espresso/nninc/pbe/van/C.UPF
     MD5 check sum: 1a69bf6b8db32088f5b2163dbdb77a27
     Pseudo is Ultrasoft, Zval =  4.0
     Generated by new atomic code, or converted to UPF format
     Using radial grid of  721 points,  4 beta functions with:
                l(1) =   0
                l(2) =   0
                l(3) =   1
                l(4) =   1
     Q(r) pseudized with  8 coefficients,  rinner =    0.800   0.800   0.800

     PseudoPot. # 5 for H  read from file:
     /storage/coda1/p-amedford6/0/shared/rich_project_chbe-medford/medford-share/data/pseudos_module/espresso/nninc/pbe/van/H.UPF
     MD5 check sum: b5ee9d7bfd3a09ee7748110bda690ff7
     Pseudo is Ultrasoft, Zval =  1.0
     Generated by new atomic code, or converted to UPF format
     Using radial grid of  615 points,  1 beta functions with:
                l(1) =   0
     Q(r) pseudized with  8 coefficients,  rinner =    0.800

     atomic species   valence    mass     pseudopotential
        Ti1           12.00    47.86700     Ti( 1.00)
        O1             6.00    15.99900     O ( 1.00)
        N1             5.00    14.00700     N ( 1.00)
        C1             4.00    12.01100     C ( 1.00)
        H1             1.00     1.00800     H ( 1.00)

     No symmetry found

   Cartesian axes

     site n.     atom                  positions (alat units)
         1           Ti1 tau(   1) = (   0.0004258   2.9801865   6.0000000  )
         2           Ti1 tau(   2) = (   3.2906075   1.4906267   6.0002472  )
         3           O1  tau(   3) = (   0.0006271   0.0005054   7.9858123  )
         4           O1  tau(   4) = (   3.2906025   0.0005020   7.3038282  )
         5           O1  tau(   5) = (   4.5942328   1.4918067   9.2879030  )
         6           O1  tau(   6) = (   1.9868534   1.4903216   9.2879459  )
         7           Ti1 tau(   7) = (   3.2907910   2.8959150   9.1758416  )
         8           Ti1 tau(   8) = (   0.0015273   1.4827037   9.2680791  )
         9           O1  tau(   9) = (   3.2769995   5.9424463  11.3879711  )
        10           O1  tau(  10) = (   0.0116148   5.9584955  10.6183126  )
        11           O1  tau(  11) = (   1.2559300   1.4809235  12.6914295  )
        12           O1  tau(  12) = (   5.2914439   1.4888754  12.6824943  )
        13           Ti1 tau(  13) = (   6.5693074   2.9549812  12.5071532  )
        14           Ti1 tau(  14) = (   3.2720578   1.2926143  12.7373905  )
        15           O1  tau(  15) = (   6.5263330   5.9075480  14.6758232  )
        16           O1  tau(  16) = (   3.2750150   0.0724425  14.0538047  )
        17           O1  tau(  17) = (   4.5404297   1.6145126  16.1214498  )
        18           O1  tau(  18) = (   1.9612862   1.5681812  16.1371236  )
        19           Ti1 tau(  19) = (   3.2615978   3.0295928  15.7214328  )
        20           Ti1 tau(  20) = (   6.4910920   1.3289874  15.8500745  )
        21           O1  tau(  21) = (   3.2904802   0.0005063   4.7018136  )
        22           O1  tau(  22) = (   6.5149858   0.1606772  17.2625446  )
        23           O1  tau(  23) = (   1.3043587   1.4918075   6.0039043  )
        24           O1  tau(  24) = (   5.2767064   1.4903225   6.0039473  )
        25           Ti1 tau(  25) = (   0.0000382   5.9609847   6.0000000  )
        26           Ti1 tau(  26) = (   3.2902200   4.4714249   6.0002472  )
        27           O1  tau(  27) = (   0.0002396   2.9813036   7.9858123  )
        28           O1  tau(  28) = (   3.2902150   2.9813002   7.3038282  )
        29           O1  tau(  29) = (   4.5938453   4.4726049   9.2879030  )
        30           O1  tau(  30) = (   1.9864658   4.4711199   9.2879459  )
        31           Ti1 tau(  31) = (   3.2891106   5.8743827   9.1763621  )
        32           Ti1 tau(  32) = (   0.0006254   4.4649316   9.2693709  )
        33           O1  tau(  33) = (   3.2749377   2.9871965  11.3337082  )
        34           O1  tau(  34) = (   0.0092240   2.9805883  10.6323155  )
        35           O1  tau(  35) = (   1.2597673   4.4587344  12.6634223  )
        36           O1  tau(  36) = (   5.2866262   4.4511231  12.6493885  )
        37           Ti1 tau(  37) = (   6.5604603   5.9292220  12.4937940  )
        38           Ti1 tau(  38) = (   3.2724722   4.3622713  12.4512132  )
        39           O1  tau(  39) = (   6.5737517   3.0258615  14.9025115  )
        40           O1  tau(  40) = (   3.2593133   3.0063273  13.9441864  )
        41           O1  tau(  41) = (   4.5441350   4.4310557  16.1689449  )
        42           O1  tau(  42) = (   1.9655774   4.4762250  16.2070539  )
        43           Ti1 tau(  43) = (   3.1776431   0.0563557  16.2565842  )
        44           Ti1 tau(  44) = (   6.5216753   4.5226504  15.9439936  )
        45           O1  tau(  45) = (   3.2900926   2.9813045   4.7018136  )
        46           O1  tau(  46) = (   1.3039711   4.4726057   6.0039043  )
        47           O1  tau(  47) = (   5.2763189   4.4711207   6.0039473  )
        48           N1  tau(  48) = (   0.8157702   2.5297039  18.7633901  )
        49           N1  tau(  49) = (   6.4202604   3.3580032  18.1334362  )
        50           C1  tau(  50) = (   1.9549655   3.0231469  19.2293773  )
        51           H1  tau(  51) = (   2.0901252   4.0892486  19.3254668  )
        52           H1  tau(  52) = (   2.7239663   2.3052050  19.4587972  )
        53           H1  tau(  53) = (   0.7490178   1.5515861  18.4517582  )
        54           H1  tau(  54) = (   6.4535031   4.2829477  18.5696568  )
        55           H1  tau(  55) = (   5.5068980   2.9516776  18.2836589  )
        56           O1  tau(  56) = (   3.3967406   0.0908776  18.1493316  )
        57           H1  tau(  57) = (   4.3453859   0.1513423  18.3540861  )

     number of k points=    10  Fermi-Dirac smearing, width (Ry)=  0.0073
                       cart. coord. in units 2pi/alat
        k(    1) = (   0.0000000   0.0000000   0.0000000), wk =   0.1250000
        k(    2) = (   0.0000000   0.0419351   0.0000000), wk =   0.2500000
        k(    3) = (   0.0000000  -0.0838702   0.0000000), wk =   0.1250000
        k(    4) = (   0.0379955   0.0000049   0.0000000), wk =   0.2500000
        k(    5) = (   0.0379955   0.0419400   0.0000000), wk =   0.2500000
        k(    6) = (   0.0379955  -0.0838652   0.0000000), wk =   0.2500000
        k(    7) = (   0.0379955  -0.0419301   0.0000000), wk =   0.2500000
        k(    8) = (  -0.0759910  -0.0000099   0.0000000), wk =   0.1250000
        k(    9) = (  -0.0759910   0.0419252   0.0000000), wk =   0.2500000
        k(   10) = (  -0.0759910  -0.0838800   0.0000000), wk =   0.1250000

     Initial potential from superposition of free atoms

     starting charge  387.99913, renormalised to  404.00000

     negative rho (up, down):  1.608E-02 0.000E+00

     %%%%%%%%%%%%%%%%%%%%%%%%%%%%%%%%%%%%%%%%%%%%%%%%%%%%%%%%%%%%%%%%%%%%%%%%
     %                                                                      %
     % You are using vdW-DF, which was implemented by the Thonhauser group. %
     % Please cite the following two papers that made this development      %
     % possible and the two reviews that describe the various versions:     %
     %                                                                      %
     %   T. Thonhauser et al., PRL 115, 136402 (2015).                      %
     %   T. Thonhauser et al., PRB 76, 125112 (2007).                       %
     %   K. Berland et al., Rep. Prog. Phys. 78, 066501 (2015).             %
     %   D.C. Langreth et al., J. Phys.: Condens. Matter 21, 084203 (2009). %
     %                                                                      %
     %                                                                      %
     % If you are calculating the stress with vdW-DF, please also cite:     %
     %                                                                      %
     %   R. Sabatini et al., J. Phys.: Condens. Matter 24, 424209 (2012).   %
     %                                                                      %
     %%%%%%%%%%%%%%%%%%%%%%%%%%%%%%%%%%%%%%%%%%%%%%%%%%%%%%%%%%%%%%%%%%%%%%%%

     Adding external electric field

     Computed dipole along edir(3) :
        Dipole              -13.8429 Ry au,        -35.1851 Debye
        Dipole field         -0.0261 Ry au,

        Potential amp.        2.4216 Ry
        Total length         46.3494 bohr

     Starting wfcs are  306 atomic wfcs
  @ DRIVER MODE: Message from server: STATUS
  @ DRIVER MODE: Message from server: POSDATA
  @ DRIVER MODE: Reading and sharing cell
  @ DRIVER MODE: Reading and sharing positions
  @ DRIVER MODE: Received positions

     Self-consistent Calculation

     iteration #  1     ecut=    29.40 Ry     beta= 0.05
     Davidson diagonalization with overlap
     c_bands:  1 eigenvalues not converged
     c_bands:  2 eigenvalues not converged
     c_bands:  1 eigenvalues not converged
     c_bands:  1 eigenvalues not converged
     c_bands:  1 eigenvalues not converged
     c_bands:  2 eigenvalues not converged
     c_bands:  5 eigenvalues not converged
     c_bands:  3 eigenvalues not converged
     ethr =  1.00E-05,  avg # of iterations = 32.8

[...]

     total energy              =   -2231.89721673 Ry
     estimated scf accuracy    <    8426.05882699 Ry

     iteration #  2     ecut=    29.40 Ry     beta= 0.05
     Davidson diagonalization with overlap
     ethr =  1.00E-02,  avg # of iterations = 30.6

[...]

     iteration # 77     ecut=    29.40 Ry     beta= 0.05
     Davidson diagonalization with overlap
     c_bands:  1 eigenvalues not converged
     c_bands:  1 eigenvalues not converged
     c_bands:  2 eigenvalues not converged
     c_bands:  1 eigenvalues not converged
     ethr =  1.50E-09,  avg # of iterations = 18.0

[...]

     total energy              =   -2975.14992692 Ry
     estimated scf accuracy    <       0.00000015 Ry

     iteration # 85     ecut=    29.40 Ry     beta= 0.05
     Davidson diagonalization with overlap
     ethr =  3.70E-11,  avg # of iterations =  2.4

     negative rho (up, down):  1.524E-02 0.000E+00

     Adding external electric field

     Computed dipole along edir(3) :
        Dipole                1.1814 Ry au,          3.0029 Debye
        Dipole field          0.0022 Ry au,

        Potential amp.       -0.2067 Ry
        Total length         46.3494 bohr

     End of self-consistent calculation

          k = 0.0000 0.0000 0.0000 ( 18029 PWs)   bands (ev):

   -55.4170 -55.3345 -55.3004 -55.2296 -55.1915 -55.1805 -55.1650 -55.1647
   -55.1497 -55.1301 -55.1018 -55.0305 -55.0224 -54.9962 -54.3286 -54.2945
   -31.8225 -31.7719 -31.7434 -31.7155 -31.6690 -31.6684 -31.6333 -31.6242
   -31.6209 -31.6081 -31.5798 -31.5416 -31.5044 -31.4873 -31.4714 -31.4638
   -31.4471 -31.4442 -31.4428 -31.4079 -31.3919 -31.3805 -31.3746 -31.3712
   -31.3660 -31.3603 -31.3569 -31.3345 -31.3294 -31.3262 -31.3260 -31.3025
   -31.2944 -31.2906 -31.2786 -31.2544 -31.2359 -31.2325 -31.2103 -31.2001
   -31.1968 -31.1934 -30.7356 -30.6467 -30.6244 -30.5529 -30.4664 -30.3548
   -19.3205 -16.2701 -16.0495 -15.8839 -15.6685 -15.6223 -15.5321 -15.3698
   -15.2577 -15.1874 -15.0784 -15.0030 -14.9289 -14.8944 -14.8854 -14.8717
   -14.8664 -14.8153 -14.8064 -14.7927 -14.7839 -14.7776 -14.7717 -14.7308
   -14.6967 -14.6485 -14.6226 -14.4934 -14.4548 -14.4183 -14.2947 -14.2752
   -12.8276 -12.7108 -10.1717  -7.8299  -6.5490  -5.4251  -4.1657  -3.8063
    -3.6626  -3.3921  -3.2838  -3.2524  -3.1878  -3.1573  -2.9027  -2.8033
    -2.7844  -2.6481  -2.5296  -2.4828  -2.4223  -2.3517  -2.3203  -2.2973
    -2.2719  -2.2154  -2.1522  -2.1382  -2.1242  -2.0479  -2.0435  -1.9688
    -1.9200  -1.9073  -1.8024  -1.7295  -1.6985  -1.6854  -1.6738  -1.6573
    -1.6324  -1.6254  -1.6016  -1.5395  -1.4740  -1.4650  -1.3992  -1.3732
    -1.1023  -1.0367  -0.9718  -0.9423  -0.8660  -0.8320  -0.8097  -0.7871
    -0.7428  -0.7400  -0.7213  -0.6578  -0.5604  -0.5049  -0.4745  -0.4551
    -0.4024  -0.2888  -0.2685  -0.1579  -0.1293  -0.1216  -0.0829  -0.0348
     0.0065   0.0458   0.1083   0.1781   0.2280   0.2789   0.3113   0.3372
     0.3776   0.4134   0.4732   0.5507   0.5746   0.6191   0.6492   0.6694
     0.6790   0.7357   0.7527   0.8405   0.9213   0.9327   1.0312   1.0626
     1.1124   1.2975   1.3344   1.6335   1.6799   1.6977   1.8862   2.2674
     2.3138   3.7327   3.8573   3.8872   3.8974   3.9355   3.9695   4.0253
     4.2199   4.2314   4.3430   4.4557

[...]

          k = 0.0380-0.0419 0.0000 ( 17876 PWs)   bands (ev):

[...]

          k =-0.0760-0.0000 0.0000 ( 17886 PWs)   bands (ev):

[...]

          k =-0.0760-0.0839 0.0000 ( 17948 PWs)   bands (ev):

   -55.4162 -55.3176 -55.3172 -55.2183 -55.2026 -55.1780 -55.1659 -55.1471
   -55.1468 -55.1433 -55.1086 -55.0245 -55.0192 -55.0074 -54.3120 -54.3110
   -31.6842 -31.6747 -31.6563 -31.6378 -31.6376 -31.6216 -31.6098 -31.6094
   -31.5680 -31.5372 -31.5215 -31.4965 -31.4871 -31.4789 -31.4666 -31.4545
   -31.4530 -31.4474 -31.4443 -31.4373 -31.4370 -31.4274 -31.4115 -31.4036
   -31.3995 -31.3813 -31.3679 -31.3675 -31.3613 -31.3588 -31.3531 -31.3438
   -31.3294 -31.3253 -31.3241 -31.3205 -31.2858 -31.2850 -31.2463 -31.2393
   -31.2143 -31.2059 -30.6374 -30.6367 -30.5490 -30.5478 -30.5100 -30.5093
   -19.3158 -16.2410 -15.7540 -15.4856 -15.3606 -15.3488 -15.2274 -15.2110
   -15.1488 -15.1409 -15.1114 -15.0980 -15.0872 -15.0434 -15.0144 -14.9309
   -14.9152 -14.8744 -14.8710 -14.8252 -14.8230 -14.8213 -14.7996 -14.7780
   -14.7721 -14.7472 -14.7408 -14.6840 -14.6706 -14.5333 -14.4466 -14.3983
   -12.8129 -12.8123 -10.1431  -7.7937  -6.5433  -5.5080  -4.1241  -3.8231
    -3.6230  -2.8413  -2.6984  -2.5971  -2.4871  -2.4549  -2.4064  -2.3573
    -2.3437  -2.3121  -2.2405  -2.2120  -2.1966  -2.1609  -2.1595  -2.1365
    -2.1266  -2.1070  -2.0784  -2.0589  -2.0490  -2.0425  -2.0156  -1.9997
    -1.9858  -1.9603  -1.9326  -1.9116  -1.8983  -1.8905  -1.8397  -1.7343
    -1.6459  -1.5670  -1.5308  -1.5052  -1.4938  -1.4461  -1.4328  -1.4207
    -1.3856  -1.3624  -1.2277  -1.2057  -1.0681  -1.0125  -0.9786  -0.9326
    -0.8788  -0.8700  -0.8543  -0.8136  -0.7739  -0.6412  -0.6110  -0.5760
    -0.5117  -0.4442  -0.3571  -0.3428  -0.3191  -0.3017  -0.2660  -0.2469
    -0.2325  -0.2024  -0.1730  -0.0950  -0.0609  -0.0488  -0.0300   0.0689
     0.1681   0.2087   0.2722   0.3417   0.3832   0.4081   0.4370   0.6222
     0.6515   0.7949   0.8037   0.8081   0.9533   0.9536   1.0021   1.0511
     1.0810   1.1231   1.1521   1.1668   1.2018   2.0565   2.0649   2.1340
     2.1342   3.7691   3.9357   4.1583   4.1805   4.2389   4.2503   4.2810
     4.3067   4.3360   4.3765   4.3960

     the Fermi energy is     3.7826 ev

!    total energy              =   -2975.14993188 Ry
     estimated scf accuracy    <       0.00000006 Ry
     smearing contrib. (-TS)   =      -0.03327982 Ry
     internal energy E=F+TS    =   -2975.11665206 Ry

     The total energy is F=E-TS. E is the sum of the following terms:
     one-electron contribution =  -23379.64200444 Ry
     hartree contribution      =   11787.07373868 Ry
     xc contribution           =    -494.90339284 Ry
     ewald contribution        =    9112.35237251 Ry
     electric field correction =       0.00263404 Ry

     convergence has been achieved in  85 iterations

     Forces acting on atoms (cartesian axes, Ry/au):

     atom    1 type  1   force =     0.00028193   -0.00019842    0.09346725
     atom    2 type  1   force =    -0.00006194    0.00053317   -0.17632520
     atom    3 type  2   force =     0.00004374   -0.00029589   -0.02070719
     atom    4 type  2   force =     0.00001631   -0.00222345    0.05687128
     atom    5 type  2   force =    -0.00785180   -0.00263392    0.00512855
     atom    6 type  2   force =     0.00891799   -0.00211836    0.00324715
     atom    7 type  1   force =    -0.00077900   -0.00333658    0.00575695
     atom    8 type  1   force =     0.00086305    0.00108152   -0.00173715
     atom    9 type  2   force =    -0.00018688    0.00015339    0.00004643
     atom   10 type  2   force =    -0.00341750    0.00105737   -0.00644294
     atom   11 type  2   force =     0.00018394   -0.00013637    0.00032018
     atom   12 type  2   force =    -0.00012254   -0.00022736    0.00003995
     atom   13 type  1   force =     0.00001389   -0.00006016   -0.00020881
     atom   14 type  1   force =     0.00053365   -0.00037007   -0.00025299
     atom   15 type  2   force =    -0.00004839   -0.00105400   -0.00046782
     atom   16 type  2   force =     0.00020193    0.00063007    0.00083961
     atom   17 type  2   force =    -0.00133029    0.00033087   -0.00041182
     atom   18 type  2   force =     0.00137215   -0.00001950   -0.00073774
     atom   19 type  1   force =     0.00011637    0.00058888   -0.00005282
     atom   20 type  1   force =     0.00052158    0.00031041   -0.00043880
     atom   21 type  2   force =     0.00011590    0.00005294    0.10357344
     atom   22 type  2   force =     0.00015382    0.00005989    0.00056930
     atom   23 type  2   force =    -0.07136103   -0.00017508   -0.02699904
     atom   24 type  2   force =     0.07135727    0.00027408   -0.02702938
     atom   25 type  1   force =     0.00007157   -0.00018119    0.09323196
     atom   26 type  1   force =     0.00008184   -0.00126179   -0.17652102
     atom   27 type  2   force =     0.00007712   -0.00015072   -0.01947655
     atom   28 type  2   force =     0.00001940   -0.00060054    0.05223467
     atom   29 type  2   force =    -0.00742117    0.00176782    0.00488882
     atom   30 type  2   force =     0.00835072    0.00235367    0.00299088
     atom   31 type  1   force =    -0.00098002    0.00885875   -0.00436951
     atom   32 type  1   force =     0.00094782   -0.00222411   -0.00239923
     atom   33 type  2   force =    -0.00022336   -0.00135487   -0.00065580
     atom   34 type  2   force =    -0.00214474   -0.00210163   -0.00764611
     atom   35 type  2   force =    -0.00001624    0.00016557    0.00027484
     atom   36 type  2   force =     0.00017964    0.00016038    0.00021544
     atom   37 type  1   force =     0.00002633   -0.00030660    0.00015383
     atom   38 type  1   force =     0.00035457    0.00047735    0.00019868
     atom   39 type  2   force =     0.00000984    0.00075142   -0.00021143
     atom   40 type  2   force =     0.00020947   -0.00015938    0.00040216
     atom   41 type  2   force =    -0.00067645   -0.00005109    0.00004638
     atom   42 type  2   force =     0.00066647   -0.00030826    0.00016077
     atom   43 type  1   force =     0.00041921   -0.00064356   -0.00016765
     atom   44 type  1   force =    -0.00016657    0.00089333    0.00044969
     atom   45 type  2   force =     0.00010220   -0.00008966    0.10333452
     atom   46 type  2   force =    -0.07140222   -0.00003087   -0.02703311
     atom   47 type  2   force =     0.07137904    0.00038398   -0.02706594
     atom   48 type  3   force =    -0.00632735    0.00103973   -0.00234744
     atom   49 type  3   force =     0.02268950    0.00418550    0.00115620
     atom   50 type  4   force =    -0.00089882    0.00146803   -0.00082047
     atom   51 type  5   force =     0.00059754   -0.00089319   -0.00030615
     atom   52 type  5   force =    -0.00007675   -0.00001190   -0.00037916
     atom   53 type  5   force =    -0.00014163    0.00059650    0.00003720
     atom   54 type  5   force =    -0.00244208   -0.00032847   -0.00104409
     atom   55 type  5   force =    -0.01273027   -0.00486132    0.00355405
     atom   56 type  2   force =     0.00078678    0.00092791   -0.00015669
     atom   57 type  5   force =    -0.00085552   -0.00069421   -0.00077812

     Total force =     0.364158     Total SCF correction =     0.000564
  @ DRIVER MODE: Message from server: STATUS
  @ DRIVER MODE: Message from server: GETFORCE
  @ DRIVER MODE: Returning v,forces,stress,ensemble

     Writing output data file ./calc.save/
  @ DRIVER MODE: Message from server: EXIT
  @ DRIVE MODE: Exiting

     General routines

     Parallel routines

   This run was terminated on:  14:18: 0  23Sep2021

   JOB DONE.