     Program PWSCF v.6.7GPU starts on  2Aug2021 at 12:31:20

     R & G space division:  proc/nbgrp/npool/nimage =      16
     Reading input from /storage/home/hcoda1/3/ntian30/research/carbon/02Aug_vib_paired/ads_slab/CH3NH_b/out_0002/pw.inp
Warning: card &CELL ignored
Warning: card   CELL_DYNAMICS='IPI', ignored
Warning: card / ignored

     Current dimensions of program PWSCF are:
     Max number of different atomic species (ntypx) = 10
     Max number of k-points (npk) =  40000
     Max angular momentum in pseudopotentials (lmaxx) =  3
     Presently no symmetry can be used with electric field

     Message from routine cell_base_init:
     DEPRECATED: use true lattice parameter, not A to a.u. conversion factor

     IMPORTANT: XC functional enforced from input :
     Exchange-correlation= BEEF-VDW
                           (   1   4  43  14   2   0   0)
     Any further DFT definition will be discarded
     Please, verify this is what you really want

  @ DRIVER MODE: Connecting to
 qe_1139763_2482541.sched-torque.pace.gatech.edun3mql78z_scratch
  using UNIX socket
  @ DRIVER MODE: Message from server: STATUS
  @ DRIVER MODE: Message from server: INIT
  @ DRIVER MODE: Receiving replica           0          -1
  @ DRIVER MODE: Receiving encoded integer          25
  @ DRIVER MODE:  SCF:  T  FORCE:  T  STRESS:  F  VC:  F  ENSEMBLE:  F
  @ DRIVER MODE:  SCF:  T  FORCE:  T  STRESS:  F  VC:  F  ENSEMBLE:  F

     Using Slab Decomposition

     bravais-lattice index     =            0
     lattice parameter (alat)  =       1.8897  a.u.
     unit-cell volume          =    6658.9804 (a.u.)^3
     number of atoms/cell      =           53
     number of atomic types    =            5
     number of electrons       =       391.00
     number of Kohn-Sham states=          205
     kinetic-energy cutoff     =      29.3995  Ry
     charge density cutoff     =     293.9946  Ry
     scf convergence threshold =      7.3E-08
     mixing beta               =       0.0500
     number of iterations used =            8  plain     mixing
     Exchange-correlation= BEEF-VDW
                           (   1   4  43  14   2   0   0)

     celldm(1)=   1.889726  celldm(2)=   0.000000  celldm(3)=   0.000000
     celldm(4)=   0.000000  celldm(5)=   0.000000  celldm(6)=   0.000000

     crystal axes: (cart. coord. in units of alat)
               a(1) = (   6.579727   0.000000   0.000000 )
               a(2) = (  -0.000775   5.961596   0.000000 )
               a(3) = (   0.000000   0.000000  25.155947 )

     reciprocal axes: (cart. coord. in units 2 pi/alat)
               b(1) = (  0.151982  0.000020  0.000000 )
               b(2) = (  0.000000  0.167740  0.000000 )
               b(3) = (  0.000000  0.000000  0.039752 )

     PseudoPot. # 1 for Ti read from file:
     /storage/coda1/p-amedford6/0/shared/rich_project_chbe-medford/medford-share/data/pseudos_module/espresso/nninc/pbe/van/Ti.UPF
     MD5 check sum: 8e4df49b7f0d34bbd5052bf3f5ea0213
     Pseudo is Ultrasoft, Zval = 12.0
     Generated by new atomic code, or converted to UPF format
     Using radial grid of  851 points,  6 beta functions with:
                l(1) =   0
                l(2) =   0
                l(3) =   1
                l(4) =   1
                l(5) =   2
                l(6) =   2
     Q(r) pseudized with  8 coefficients,  rinner =    1.000   1.000   1.000
                                                       1.000   1.000

     PseudoPot. # 2 for O  read from file:
     /storage/coda1/p-amedford6/0/shared/rich_project_chbe-medford/medford-share/data/pseudos_module/espresso/nninc/pbe/van/O.UPF
     MD5 check sum: 78c19812648e8988a0fe644b0f25305e
     Pseudo is Ultrasoft, Zval =  6.0
     Generated by new atomic code, or converted to UPF format
     Using radial grid of  737 points,  4 beta functions with:
                l(1) =   0
                l(2) =   0
                l(3) =   1
                l(4) =   1
     Q(r) pseudized with  8 coefficients,  rinner =    0.800   0.800   0.800

     PseudoPot. # 3 for H  read from file:
     /storage/coda1/p-amedford6/0/shared/rich_project_chbe-medford/medford-share/data/pseudos_module/espresso/nninc/pbe/van/H.UPF
     MD5 check sum: b5ee9d7bfd3a09ee7748110bda690ff7
     Pseudo is Ultrasoft, Zval =  1.0
     Generated by new atomic code, or converted to UPF format
     Using radial grid of  615 points,  1 beta functions with:
                l(1) =   0
     Q(r) pseudized with  8 coefficients,  rinner =    0.800

     PseudoPot. # 4 for N  read from file:
     /storage/coda1/p-amedford6/0/shared/rich_project_chbe-medford/medford-share/data/pseudos_module/espresso/nninc/pbe/van/N.UPF
     MD5 check sum: 90d10febe142ad51ac9d5be1deb811c4
     Pseudo is Ultrasoft, Zval =  5.0
     Generated by new atomic code, or converted to UPF format
     Using radial grid of  729 points,  4 beta functions with:
                l(1) =   0
                l(2) =   0
                l(3) =   1
                l(4) =   1
     Q(r) pseudized with  8 coefficients,  rinner =    0.800   0.800   0.800

     PseudoPot. # 5 for C  read from file:
     /storage/coda1/p-amedford6/0/shared/rich_project_chbe-medford/medford-share/data/pseudos_module/espresso/nninc/pbe/van/C.UPF
     MD5 check sum: 1a69bf6b8db32088f5b2163dbdb77a27
     Pseudo is Ultrasoft, Zval =  4.0
     Generated by new atomic code, or converted to UPF format
     Using radial grid of  721 points,  4 beta functions with:
                l(1) =   0
                l(2) =   0
                l(3) =   1
                l(4) =   1
     Q(r) pseudized with  8 coefficients,  rinner =    0.800   0.800   0.800

     atomic species   valence    mass     pseudopotential
        Ti1           12.00    47.86700     Ti( 1.00)
        O1             6.00    15.99900     O ( 1.00)
        H1             1.00     1.00800     H ( 1.00)
        N1             5.00    14.00700     N ( 1.00)
        C1             4.00    12.01100     C ( 1.00)

     No symmetry found

   Cartesian axes

     site n.     atom                  positions (alat units)
         1           Ti1 tau(   1) = (   0.0004258   2.9801865   6.0000000  )
         2           Ti1 tau(   2) = (   3.2906075   1.4906267   6.0002472  )
         3           O1  tau(   3) = (   0.0006271   0.0005054   7.9858123  )
         4           O1  tau(   4) = (   3.2906025   0.0005020   7.3038282  )
         5           O1  tau(   5) = (   4.5942328   1.4918067   9.2879030  )
         6           O1  tau(   6) = (   1.9868534   1.4903216   9.2879459  )
         7           Ti1 tau(   7) = (   3.2907910   2.8959150   9.1758416  )
         8           Ti1 tau(   8) = (   0.0015273   1.4827037   9.2680791  )
         9           O1  tau(   9) = (   3.2906183   5.9580730  11.3246990  )
        10           O1  tau(  10) = (   0.0116148   5.9584955  10.6183126  )
        11           O1  tau(  11) = (   1.3160896   1.4863360  12.6200149  )
        12           O1  tau(  12) = (   5.2947061   1.4800608  12.6053981  )
        13           Ti1 tau(  13) = (   6.5224157   2.9421717  12.6196007  )
        14           Ti1 tau(  14) = (   3.2076970   1.4879367  12.4696142  )
        15           O1  tau(  15) = (   6.5517659   0.0158556  14.6493665  )
        16           O1  tau(  16) = (   3.3109316   0.0069331  13.9179417  )
        17           O1  tau(  17) = (   4.5083530   1.5297238  16.0872293  )
        18           O1  tau(  18) = (   2.0274073   1.5273405  16.0409094  )
        19           Ti1 tau(  19) = (   3.2920608   3.0081397  15.6838061  )
        20           Ti1 tau(  20) = (   0.0536170   1.5416865  15.8648894  )
        21           O1  tau(  21) = (   3.2904802   0.0005063   4.7018136  )
        22           O1  tau(  22) = (   0.0122827   0.0301012  17.2134340  )
        23           O1  tau(  23) = (   1.3043587   1.4918075   6.0039043  )
        24           O1  tau(  24) = (   5.2767064   1.4903225   6.0039473  )
        25           Ti1 tau(  25) = (   0.0000382   5.9609847   6.0000000  )
        26           Ti1 tau(  26) = (   3.2902200   4.4714249   6.0002472  )
        27           O1  tau(  27) = (   0.0002396   2.9813036   7.9858123  )
        28           O1  tau(  28) = (   3.2902150   2.9813002   7.3038282  )
        29           O1  tau(  29) = (   4.5938453   4.4726049   9.2879030  )
        30           O1  tau(  30) = (   1.9864658   4.4711199   9.2879459  )
        31           Ti1 tau(  31) = (   3.2891106   5.8743827   9.1763621  )
        32           Ti1 tau(  32) = (   0.0006254   4.4649316   9.2693709  )
        33           O1  tau(  33) = (   3.2866862   2.9837957  11.3234553  )
        34           O1  tau(  34) = (   0.0092240   2.9805883  10.6323155  )
        35           O1  tau(  35) = (   1.3095649   4.4762946  12.6335636  )
        36           O1  tau(  36) = (   5.2963019   4.4650584  12.6194355  )
        37           Ti1 tau(  37) = (   6.5192018   5.9199268  12.5733442  )
        38           Ti1 tau(  38) = (   3.2055211   4.4685508  12.4747853  )
        39           O1  tau(  39) = (   6.5624772   2.9349094  14.6472044  )
        40           O1  tau(  40) = (   3.3065106   2.9879112  13.8942307  )
        41           O1  tau(  41) = (   4.5199725   4.4841037  16.0899424  )
        42           O1  tau(  42) = (   2.0389375   4.4882992  16.0664246  )
        43           Ti1 tau(  43) = (   3.3279474   0.0221627  15.7114356  )
        44           Ti1 tau(  44) = (   0.0314192   4.6578676  16.1055029  )
        45           O1  tau(  45) = (   3.2900926   2.9813045   4.7018136  )
        46           O1  tau(  46) = (   1.3039711   4.4726057   6.0039043  )
        47           O1  tau(  47) = (   5.2763189   4.4711207   6.0039473  )
        48           H1  tau(  48) = (   5.5851926   2.9245997  17.7795037  )
        49           N1  tau(  49) = (   6.5345126   2.9709300  17.4463781  )
        50           C1  tau(  50) = (   0.8205834   2.9192471  18.6315588  )
        51           H1  tau(  51) = (   0.6379014   3.7726647  19.2931901  )
        52           H1  tau(  52) = (   0.6616828   1.9903841  19.1881566  )
        53           H1  tau(  53) = (   1.8691752   2.9530840  18.3388921  )

     number of k points=    10  Fermi-Dirac smearing, width (Ry)=  0.0073
                       cart. coord. in units 2pi/alat
        k(    1) = (   0.0000000   0.0000000   0.0000000), wk =   0.1250000
        k(    2) = (   0.0000000   0.0419351   0.0000000), wk =   0.2500000
        k(    3) = (   0.0000000  -0.0838702   0.0000000), wk =   0.1250000
        k(    4) = (   0.0379955   0.0000049   0.0000000), wk =   0.2500000
        k(    5) = (   0.0379955   0.0419400   0.0000000), wk =   0.2500000
        k(    6) = (   0.0379955  -0.0838652   0.0000000), wk =   0.2500000
        k(    7) = (   0.0379955  -0.0419301   0.0000000), wk =   0.2500000
        k(    8) = (  -0.0759910  -0.0000099   0.0000000), wk =   0.1250000
        k(    9) = (  -0.0759910   0.0419252   0.0000000), wk =   0.2500000
        k(   10) = (  -0.0759910  -0.0838800   0.0000000), wk =   0.1250000

     Initial potential from superposition of free atoms

     starting charge  374.99916, renormalised to  391.00000

     negative rho (up, down):  1.779E-02 0.000E+00

     %%%%%%%%%%%%%%%%%%%%%%%%%%%%%%%%%%%%%%%%%%%%%%%%%%%%%%%%%%%%%%%%%%%%%%%%
     %                                                                      %
     % You are using vdW-DF, which was implemented by the Thonhauser group. %
     % Please cite the following two papers that made this development      %
     % possible and the two reviews that describe the various versions:     %
     %                                                                      %
     %   T. Thonhauser et al., PRL 115, 136402 (2015).                      %
     %   T. Thonhauser et al., PRB 76, 125112 (2007).                       %
     %   K. Berland et al., Rep. Prog. Phys. 78, 066501 (2015).             %
     %   D.C. Langreth et al., J. Phys.: Condens. Matter 21, 084203 (2009). %
     %                                                                      %
     %                                                                      %
     % If you are calculating the stress with vdW-DF, please also cite:     %
     %                                                                      %
     %   R. Sabatini et al., J. Phys.: Condens. Matter 24, 424209 (2012).   %
     %                                                                      %
     %%%%%%%%%%%%%%%%%%%%%%%%%%%%%%%%%%%%%%%%%%%%%%%%%%%%%%%%%%%%%%%%%%%%%%%%

     Adding external electric field

     Computed dipole along edir(3) :
        Dipole               -5.8162 Ry au,        -14.7834 Debye
        Dipole field         -0.0110 Ry au,

        Potential amp.        1.0175 Ry
        Total length         46.3494 bohr

     Starting wfcs are  296 atomic wfcs
  @ DRIVER MODE: Message from server: STATUS
  @ DRIVER MODE: Message from server: POSDATA
  @ DRIVER MODE: Reading and sharing cell
  @ DRIVER MODE: Reading and sharing positions
  @ DRIVER MODE: Received positions

     Self-consistent Calculation

     iteration #  1     ecut=    29.40 Ry     beta= 0.05
     Davidson diagonalization with overlap
     c_bands:  3 eigenvalues not converged
     c_bands:  1 eigenvalues not converged
     c_bands:  1 eigenvalues not converged
     c_bands:  3 eigenvalues not converged
     c_bands:  4 eigenvalues not converged
     c_bands:  2 eigenvalues not converged
     c_bands:  1 eigenvalues not converged
     c_bands:  1 eigenvalues not converged
     c_bands:  2 eigenvalues not converged
     ethr =  1.00E-05,  avg # of iterations = 19.6

[...]

     total energy              =   -2770.89921629 Ry
     estimated scf accuracy    <    1638.90139503 Ry

[...]

     iteration #  3     ecut=    29.40 Ry     beta= 0.05
     Davidson diagonalization with overlap
     ethr =  1.00E-02,  avg # of iterations = 15.0

[...]

     iteration # 65     ecut=    29.40 Ry     beta= 0.05
     Davidson diagonalization with overlap
     c_bands:  1 eigenvalues not converged
     ethr =  3.73E-09,  avg # of iterations = 14.9

[...]

     total energy              =   -2920.42394860 Ry
     estimated scf accuracy    <       0.00000009 Ry

     iteration # 80     ecut=    29.40 Ry     beta= 0.05
     Davidson diagonalization with overlap
     ethr =  2.28E-11,  avg # of iterations = 10.1

     negative rho (up, down):  1.814E-02 0.000E+00

     Adding external electric field

     Computed dipole along edir(3) :
        Dipole                0.6846 Ry au,          1.7401 Debye
        Dipole field          0.0013 Ry au,

        Potential amp.       -0.1198 Ry
        Total length         46.3494 bohr

     End of self-consistent calculation

          k = 0.0000 0.0000 0.0000 ( 18029 PWs)   bands (ev):

   -55.9959 -55.9883 -55.9618 -55.9522 -55.9030 -55.8385 -55.8384 -55.8041
   -55.7995 -55.7656 -55.7599 -55.7263 -55.5400 -55.2727 -54.9681 -54.9341
   -32.5473 -32.4773 -32.3504 -32.3403 -32.3158 -32.2990 -32.2890 -32.2510
   -32.2370 -32.2363 -32.2122 -32.2048 -32.1710 -32.1480 -32.1404 -32.1344
   -32.1308 -32.0993 -32.0780 -32.0530 -32.0490 -32.0414 -32.0260 -31.9990
   -31.9919 -31.9914 -31.9859 -31.9781 -31.9633 -31.9578 -31.9543 -31.9444
   -31.9363 -31.9293 -31.9131 -31.9068 -31.8725 -31.8093 -31.7113 -31.5476
   -31.5427 -31.4679 -31.3750 -31.2873 -31.2649 -31.1918 -31.1053 -30.9942
   -16.7563 -16.4730 -16.2935 -16.1504 -16.1183 -16.0328 -15.8319 -15.7051
   -15.6930 -15.5893 -15.5563 -15.5300 -15.5232 -15.4967 -15.4919 -15.4310
   -15.4290 -15.4156 -15.4062 -15.3492 -15.3246 -15.2714 -15.1917 -15.1589
   -15.1535 -15.1258 -15.0439 -15.0388 -14.5863 -14.2071 -13.4706 -13.3543
    -8.9473  -4.3743  -4.1274  -3.9531  -3.9133  -3.8982  -3.8483  -3.5941
    -3.5791  -3.3311  -3.2277  -3.1937  -3.1786  -3.1694  -3.1494  -3.1384
    -2.8919  -2.8251  -2.8102  -2.7881  -2.7803  -2.7741  -2.7620  -2.7615
    -2.7219  -2.6591  -2.5336  -2.4985  -2.4205  -2.3833  -2.3534  -2.3053
    -2.2612  -2.2542  -2.2435  -2.2246  -2.2124  -2.1881  -2.1716  -2.0380
    -1.9720  -1.8364  -1.8017  -1.7823  -1.5963  -1.5379  -1.4728  -1.4343
    -1.4209  -1.4139  -1.3821  -1.3005  -1.2085  -1.1528  -1.1432  -1.0865
    -1.0089  -0.9974  -0.8901  -0.8849  -0.8596  -0.7668  -0.7565  -0.7452
    -0.7261  -0.6641  -0.5575  -0.4805  -0.4353  -0.4059  -0.3751  -0.3052
    -0.2751  -0.1730  -0.1572  -0.1091  -0.1040  -0.0624  -0.0171  -0.0077
     0.0011   0.0090   0.0341   0.1767   0.2877   0.3424   0.3828   0.3884
     0.5433   0.5706   0.6679   0.7562   0.9809   1.0538   1.1470   1.2468
     1.3202   1.6246   1.6699   3.1474   3.2261   3.2800   3.2887   3.3913
     3.3969   3.5970   3.6068   3.6196   3.6873

[...]

          k = 0.0380-0.0419 0.0000 ( 17876 PWs)   bands (ev):

[...]

          k =-0.0760-0.0000 0.0000 ( 17886 PWs)   bands (ev):

[...]

          k =-0.0760-0.0839 0.0000 ( 17948 PWs)   bands (ev):

   -55.9792 -55.9784 -55.9715 -55.9688 -55.8980 -55.8433 -55.8220 -55.8205
   -55.7832 -55.7814 -55.7437 -55.7427 -55.5390 -55.2736 -54.9511 -54.9510
   -32.3523 -32.3486 -32.2929 -32.2923 -32.2817 -32.2748 -32.2740 -32.2607
   -32.1989 -32.1979 -32.1929 -32.1885 -32.1651 -32.1340 -32.1193 -32.1150
   -32.1019 -32.0997 -32.0986 -32.0979 -32.0945 -32.0835 -32.0811 -32.0494
   -32.0417 -32.0406 -32.0110 -31.9999 -31.9803 -31.9799 -31.9764 -31.9755
   -31.9586 -31.9579 -31.9564 -31.9535 -31.8785 -31.8118 -31.7067 -31.6121
   -31.5446 -31.4925 -31.2776 -31.2775 -31.1879 -31.1877 -31.1486 -31.1485
   -16.2100 -16.1749 -15.9381 -15.9269 -15.9202 -15.9046 -15.7588 -15.7119
   -15.7003 -15.6932 -15.6703 -15.6472 -15.5896 -15.5610 -15.5319 -15.5232
   -15.5172 -15.5150 -15.4533 -15.4481 -15.4250 -15.4181 -15.3045 -15.3007
   -15.2913 -15.2153 -15.1607 -15.0211 -14.7473 -14.2314 -13.4562 -13.4561
    -8.9521  -4.3853  -3.5042  -3.4640  -3.2820  -3.2450  -3.1789  -3.1623
    -3.1381  -3.0697  -2.9057  -2.8888  -2.8775  -2.8622  -2.8201  -2.8139
    -2.8034  -2.7910  -2.7842  -2.7651  -2.7317  -2.6990  -2.6605  -2.6531
    -2.6445  -2.6196  -2.6085  -2.5870  -2.5752  -2.5442  -2.5352  -2.5177
    -2.4881  -2.2268  -2.2070  -2.1960  -2.1245  -2.1178  -2.0844  -2.0665
    -2.0567  -2.0435  -1.9866  -1.8826  -1.7257  -1.6943  -1.6863  -1.6692
    -1.5862  -1.5769  -1.4231  -1.4025  -1.3815  -1.3449  -1.2909  -1.2684
    -1.2274  -1.1688  -1.1514  -1.0875  -1.0703  -1.0115  -0.9563  -0.9544
    -0.9337  -0.8578  -0.7767  -0.7609  -0.7481  -0.7090  -0.6990  -0.6115
    -0.5879  -0.4945  -0.4804  -0.4252  -0.3976  -0.2959  -0.1391  -0.0116
     0.0420   0.0681   0.1256   0.2241   0.2684   0.2801   0.3242   0.3304
     0.3920   0.4323   0.5456   0.5515   0.6263   0.7175   1.2573   1.4182
     1.4189   1.4897   1.4898   3.4106   3.4158   3.4631   3.4924   3.6476
     3.6522   3.6741   3.6752   3.8016   3.8340

     the Fermi energy is     3.1404 ev

!    total energy              =   -2920.42395383 Ry
     estimated scf accuracy    <       0.00000003 Ry
     smearing contrib. (-TS)   =      -0.02203142 Ry
     internal energy E=F+TS    =   -2920.40192241 Ry

     The total energy is F=E-TS. E is the sum of the following terms:
     one-electron contribution =  -24701.85178996 Ry
     hartree contribution      =   12435.52633639 Ry
     xc contribution           =    -480.87894387 Ry
     ewald contribution        =    9826.80159051 Ry
     electric field correction =       0.00088452 Ry

     convergence has been achieved in  80 iterations

     Forces acting on atoms (cartesian axes, Ry/au):

     atom    1 type  1   force =     0.00012901   -0.00026223    0.09686329
     atom    2 type  1   force =     0.00002077   -0.00053328   -0.17508049
     atom    3 type  2   force =     0.00013367   -0.00007798   -0.02546125
     atom    4 type  2   force =    -0.00000871   -0.00136497    0.05231885
     atom    5 type  2   force =    -0.01235455   -0.00013522    0.00302895
     atom    6 type  2   force =     0.01378027    0.00023133    0.00239013
     atom    7 type  1   force =     0.00058260    0.00032495   -0.01263348
     atom    8 type  1   force =     0.00045666    0.00595681    0.03111231
     atom    9 type  2   force =    -0.00033431    0.00024003    0.00041821
     atom   10 type  2   force =    -0.00269415    0.00069404   -0.01622682
     atom   11 type  2   force =    -0.00040469    0.00012597    0.00017303
     atom   12 type  2   force =     0.00012465    0.00013570    0.00020062
     atom   13 type  1   force =    -0.00011009    0.00024838    0.00021238
     atom   14 type  1   force =    -0.00002713   -0.00021424   -0.00014676
     atom   15 type  2   force =     0.00020575    0.00010127    0.00035736
     atom   16 type  2   force =    -0.00006345    0.00027638    0.00023296
     atom   17 type  2   force =     0.00003565   -0.00017703   -0.00020291
     atom   18 type  2   force =     0.00033488   -0.00011828    0.00020416
     atom   19 type  1   force =    -0.00000399    0.00018382    0.00003098
     atom   20 type  1   force =     0.00000573   -0.00010061   -0.00048537
     atom   21 type  2   force =     0.00007293   -0.00005783    0.10308926
     atom   22 type  2   force =    -0.00013708   -0.00000943    0.00023880
     atom   23 type  2   force =    -0.07162691   -0.00016015   -0.02783159
     atom   24 type  2   force =     0.07154501    0.00032337   -0.02789208
     atom   25 type  1   force =     0.00010841   -0.00024581    0.09666823
     atom   26 type  1   force =     0.00011699   -0.00028084   -0.17526059
     atom   27 type  2   force =     0.00013179   -0.00022875   -0.02453359
     atom   28 type  2   force =     0.00002990   -0.00112734    0.05223514
     atom   29 type  2   force =    -0.01247680    0.00014348    0.00268210
     atom   30 type  2   force =     0.01378996    0.00069089    0.00202609
     atom   31 type  1   force =     0.00052019    0.00290734   -0.01337709
     atom   32 type  1   force =     0.00028372   -0.00822836    0.03150272
     atom   33 type  2   force =    -0.00005729   -0.00006571   -0.00009498
     atom   34 type  2   force =    -0.00183930    0.00056478   -0.02454542
     atom   35 type  2   force =    -0.00013347    0.00010068    0.00004955
     atom   36 type  2   force =    -0.00025631    0.00020196    0.00012504
     atom   37 type  1   force =    -0.00005025    0.00031188    0.00023389
     atom   38 type  1   force =    -0.00023078   -0.00006243   -0.00015803
     atom   39 type  2   force =     0.00006255    0.00020046   -0.00012572
     atom   40 type  2   force =    -0.00017075    0.00026854   -0.00014877
     atom   41 type  2   force =     0.00013678    0.00004124    0.00026121
     atom   42 type  2   force =    -0.00010535    0.00000511    0.00036001
     atom   43 type  1   force =    -0.00021451   -0.00019638    0.00048821
     atom   44 type  1   force =     0.00037731   -0.00019565    0.00004136
     atom   45 type  2   force =     0.00005323   -0.00006707    0.10309751
     atom   46 type  2   force =    -0.07163260   -0.00008878   -0.02782810
     atom   47 type  2   force =     0.07156343    0.00033913   -0.02790937
     atom   48 type  3   force =    -0.01564636   -0.00048286    0.00434806
     atom   49 type  4   force =     0.01436679    0.00017147   -0.00459607
     atom   50 type  5   force =     0.00231956    0.00041103   -0.00043939
     atom   51 type  3   force =    -0.00059972   -0.00117338   -0.00037231
     atom   52 type  3   force =     0.00024632    0.00063213   -0.00007397
     atom   53 type  3   force =    -0.00035595   -0.00017755    0.00043375

     Total force =     0.369036     Total SCF correction =     0.000423
  @ DRIVER MODE: Message from server: STATUS
  @ DRIVER MODE: Message from server: GETFORCE
  @ DRIVER MODE: Returning v,forces,stress,ensemble

     Writing output data file ./calc.save/
  @ DRIVER MODE: Message from server: EXIT
  @ DRIVE MODE: Exiting

     General routines

     Parallel routines

   This run was terminated on:  12:47: 8   2Aug2021

   JOB DONE.