     Program PWSCF v.6.7GPU starts on 16Sep2021 at  6:27:47

     R & G space division:  proc/nbgrp/npool/nimage =      10
     Reading input from /storage/home/hcoda1/3/ntian30/research/carbon/CxH_vib/H2O_calc/ads_slab/CHNHHH2O_a/out_0046/pw.inp
Warning: card &CELL ignored
Warning: card   CELL_DYNAMICS='IPI', ignored
Warning: card / ignored

     Current dimensions of program PWSCF are:
     Max number of different atomic species (ntypx) = 10
     Max number of k-points (npk) =  40000
     Max angular momentum in pseudopotentials (lmaxx) =  3
     Presently no symmetry can be used with electric field

     Message from routine cell_base_init:
     DEPRECATED: use true lattice parameter, not A to a.u. conversion factor

     IMPORTANT: XC functional enforced from input :
     Exchange-correlation= BEEF-VDW
                           (   1   4  43  14   2   0   0)
     Any further DFT definition will be discarded
     Please, verify this is what you really want

  @ DRIVER MODE: Connecting to
 qe_1139763_2852629.sched-torque.pace.gatech.edu500_eqv5_scratch
  using UNIX socket
  @ DRIVER MODE: Message from server: STATUS
  @ DRIVER MODE: Message from server: INIT
  @ DRIVER MODE: Receiving replica           0          -1
  @ DRIVER MODE: Receiving encoded integer          25
  @ DRIVER MODE:  SCF:  T  FORCE:  T  STRESS:  F  VC:  F  ENSEMBLE:  F
  @ DRIVER MODE:  SCF:  T  FORCE:  T  STRESS:  F  VC:  F  ENSEMBLE:  F

     Using Slab Decomposition

     bravais-lattice index     =            0
     lattice parameter (alat)  =       1.8897  a.u.
     unit-cell volume          =    6658.9804 (a.u.)^3
     number of atoms/cell      =           55
     number of atomic types    =            5
     number of electrons       =       398.00
     number of Kohn-Sham states=          209
     kinetic-energy cutoff     =      29.3995  Ry
     charge density cutoff     =     293.9946  Ry
     scf convergence threshold =      7.3E-08
     mixing beta               =       0.0500
     number of iterations used =            8  plain     mixing
     Exchange-correlation= BEEF-VDW
                           (   1   4  43  14   2   0   0)

     celldm(1)=   1.889726  celldm(2)=   0.000000  celldm(3)=   0.000000
     celldm(4)=   0.000000  celldm(5)=   0.000000  celldm(6)=   0.000000

     crystal axes: (cart. coord. in units of alat)
               a(1) = (   6.579727   0.000000   0.000000 )
               a(2) = (  -0.000775   5.961596   0.000000 )
               a(3) = (   0.000000   0.000000  25.155947 )

     reciprocal axes: (cart. coord. in units 2 pi/alat)
               b(1) = (  0.151982  0.000020  0.000000 )
               b(2) = (  0.000000  0.167740  0.000000 )
               b(3) = (  0.000000  0.000000  0.039752 )

     PseudoPot. # 1 for Ti read from file:
     /storage/coda1/p-amedford6/0/shared/rich_project_chbe-medford/medford-share/data/pseudos_module/espresso/nninc/pbe/van/Ti.UPF
     MD5 check sum: 8e4df49b7f0d34bbd5052bf3f5ea0213
     Pseudo is Ultrasoft, Zval = 12.0
     Generated by new atomic code, or converted to UPF format
     Using radial grid of  851 points,  6 beta functions with:
                l(1) =   0
                l(2) =   0
                l(3) =   1
                l(4) =   1
                l(5) =   2
                l(6) =   2
     Q(r) pseudized with  8 coefficients,  rinner =    1.000   1.000   1.000
                                                       1.000   1.000

     PseudoPot. # 2 for O  read from file:
     /storage/coda1/p-amedford6/0/shared/rich_project_chbe-medford/medford-share/data/pseudos_module/espresso/nninc/pbe/van/O.UPF
     MD5 check sum: 78c19812648e8988a0fe644b0f25305e
     Pseudo is Ultrasoft, Zval =  6.0
     Generated by new atomic code, or converted to UPF format
     Using radial grid of  737 points,  4 beta functions with:
                l(1) =   0
                l(2) =   0
                l(3) =   1
                l(4) =   1
     Q(r) pseudized with  8 coefficients,  rinner =    0.800   0.800   0.800

     PseudoPot. # 3 for N  read from file:
     /storage/coda1/p-amedford6/0/shared/rich_project_chbe-medford/medford-share/data/pseudos_module/espresso/nninc/pbe/van/N.UPF
     MD5 check sum: 90d10febe142ad51ac9d5be1deb811c4
     Pseudo is Ultrasoft, Zval =  5.0
     Generated by new atomic code, or converted to UPF format
     Using radial grid of  729 points,  4 beta functions with:
                l(1) =   0
                l(2) =   0
                l(3) =   1
                l(4) =   1
     Q(r) pseudized with  8 coefficients,  rinner =    0.800   0.800   0.800

     PseudoPot. # 4 for C  read from file:
     /storage/coda1/p-amedford6/0/shared/rich_project_chbe-medford/medford-share/data/pseudos_module/espresso/nninc/pbe/van/C.UPF
     MD5 check sum: 1a69bf6b8db32088f5b2163dbdb77a27
     Pseudo is Ultrasoft, Zval =  4.0
     Generated by new atomic code, or converted to UPF format
     Using radial grid of  721 points,  4 beta functions with:
                l(1) =   0
                l(2) =   0
                l(3) =   1
                l(4) =   1
     Q(r) pseudized with  8 coefficients,  rinner =    0.800   0.800   0.800

     PseudoPot. # 5 for H  read from file:
     /storage/coda1/p-amedford6/0/shared/rich_project_chbe-medford/medford-share/data/pseudos_module/espresso/nninc/pbe/van/H.UPF
     MD5 check sum: b5ee9d7bfd3a09ee7748110bda690ff7
     Pseudo is Ultrasoft, Zval =  1.0
     Generated by new atomic code, or converted to UPF format
     Using radial grid of  615 points,  1 beta functions with:
                l(1) =   0
     Q(r) pseudized with  8 coefficients,  rinner =    0.800

     atomic species   valence    mass     pseudopotential
        Ti1           12.00    47.86700     Ti( 1.00)
        O1             6.00    15.99900     O ( 1.00)
        N1             5.00    14.00700     N ( 1.00)
        C1             4.00    12.01100     C ( 1.00)
        H1             1.00     1.00800     H ( 1.00)

     No symmetry found

   Cartesian axes

     site n.     atom                  positions (alat units)
         1           Ti1 tau(   1) = (   0.0004258   2.9801865   6.0000000  )
         2           Ti1 tau(   2) = (   3.2906075   1.4906267   6.0002472  )
         3           O1  tau(   3) = (   0.0006271   0.0005054   7.9858123  )
         4           O1  tau(   4) = (   3.2906025   0.0005020   7.3038282  )
         5           O1  tau(   5) = (   4.5942328   1.4918067   9.2879030  )
         6           O1  tau(   6) = (   1.9868534   1.4903216   9.2879459  )
         7           Ti1 tau(   7) = (   3.2907910   2.8959150   9.1758416  )
         8           Ti1 tau(   8) = (   0.0015273   1.4827037   9.2680791  )
         9           O1  tau(   9) = (   3.2943807   5.9438157  11.3430345  )
        10           O1  tau(  10) = (   0.0116148   5.9584955  10.6183126  )
        11           O1  tau(  11) = (   1.2953376   1.4759649  12.6292060  )
        12           O1  tau(  12) = (   5.2846356   1.4785235  12.6176154  )
        13           Ti1 tau(  13) = (   0.0556596   2.9564334  12.6140783  )
        14           Ti1 tau(  14) = (   3.3658323   1.4657407  12.4949608  )
        15           O1  tau(  15) = (   6.5664030   0.0209144  14.6477191  )
        16           O1  tau(  16) = (   3.3113265   5.9542485  13.9698242  )
        17           O1  tau(  17) = (   4.5454210   1.5146250  16.1225105  )
        18           O1  tau(  18) = (   2.0305911   1.5113983  16.0894517  )
        19           Ti1 tau(  19) = (   3.2587399   2.9544808  15.6767922  )
        20           Ti1 tau(  20) = (   6.5654577   1.5458692  15.9193722  )
        21           O1  tau(  21) = (   3.2904802   0.0005063   4.7018136  )
        22           O1  tau(  22) = (   0.0418464   5.8849155  17.2380659  )
        23           O1  tau(  23) = (   1.3043587   1.4918075   6.0039043  )
        24           O1  tau(  24) = (   5.2767064   1.4903225   6.0039473  )
        25           Ti1 tau(  25) = (   0.0000382   5.9609847   6.0000000  )
        26           Ti1 tau(  26) = (   3.2902200   4.4714249   6.0002472  )
        27           O1  tau(  27) = (   0.0002396   2.9813036   7.9858123  )
        28           O1  tau(  28) = (   3.2902150   2.9813002   7.3038282  )
        29           O1  tau(  29) = (   4.5938453   4.4726049   9.2879030  )
        30           O1  tau(  30) = (   1.9864658   4.4711199   9.2879459  )
        31           Ti1 tau(  31) = (   3.2891106   5.8743827   9.1763621  )
        32           Ti1 tau(  32) = (   0.0006254   4.4649316   9.2693709  )
        33           O1  tau(  33) = (   3.2978316   2.9705197  11.3397625  )
        34           O1  tau(  34) = (   0.0092240   2.9805883  10.6323155  )
        35           O1  tau(  35) = (   1.2936985   4.4655287  12.6460247  )
        36           O1  tau(  36) = (   5.2856521   4.4646452  12.6308247  )
        37           Ti1 tau(  37) = (   0.0515089   5.9379728  12.5308627  )
        38           Ti1 tau(  38) = (   3.3654372   4.4547101  12.4935900  )
        39           O1  tau(  39) = (   6.5748852   2.9443291  14.6951209  )
        40           O1  tau(  40) = (   3.2957406   2.9584624  13.8938737  )
        41           O1  tau(  41) = (   4.5486474   4.4154460  16.0876977  )
        42           O1  tau(  42) = (   2.0388008   4.4257786  16.0448984  )
        43           Ti1 tau(  43) = (   3.3137362   5.9209902  15.7922403  )
        44           Ti1 tau(  44) = (   0.0032603   4.6697478  15.9558853  )
        45           O1  tau(  45) = (   3.2900926   2.9813045   4.7018136  )
        46           O1  tau(  46) = (   1.3039711   4.4726057   6.0039043  )
        47           O1  tau(  47) = (   5.2763189   4.4711207   6.0039473  )
        48           N1  tau(  48) = (   5.6270067   3.1633449  18.6203826  )
        49           C1  tau(  49) = (   0.0237924   2.7940403  17.7774691  )
        50           H1  tau(  50) = (   0.9584034   2.6460975  18.3247808  )
        51           H1  tau(  51) = (   4.7713523   3.5531088  18.2436842  )
        52           H1  tau(  52) = (   5.8168525   3.4166350  19.5804594  )
        53           O1  tau(  53) = (   3.2115967   5.9081562  18.2546127  )
        54           H1  tau(  54) = (   3.8106726   0.6855978  18.4519937  )
        55           H1  tau(  55) = (   2.3006756   0.2928797  18.3268221  )

     number of k points=    10  Fermi-Dirac smearing, width (Ry)=  0.0073
                       cart. coord. in units 2pi/alat
        k(    1) = (   0.0000000   0.0000000   0.0000000), wk =   0.1250000
        k(    2) = (   0.0000000   0.0419351   0.0000000), wk =   0.2500000
        k(    3) = (   0.0000000  -0.0838702   0.0000000), wk =   0.1250000
        k(    4) = (   0.0379955   0.0000049   0.0000000), wk =   0.2500000
        k(    5) = (   0.0379955   0.0419400   0.0000000), wk =   0.2500000
        k(    6) = (   0.0379955  -0.0838652   0.0000000), wk =   0.2500000
        k(    7) = (   0.0379955  -0.0419301   0.0000000), wk =   0.2500000
        k(    8) = (  -0.0759910  -0.0000099   0.0000000), wk =   0.1250000
        k(    9) = (  -0.0759910   0.0419252   0.0000000), wk =   0.2500000
        k(   10) = (  -0.0759910  -0.0838800   0.0000000), wk =   0.1250000

     Initial potential from superposition of free atoms

     starting charge  381.99915, renormalised to  398.00000

     negative rho (up, down):  1.708E-02 0.000E+00

     %%%%%%%%%%%%%%%%%%%%%%%%%%%%%%%%%%%%%%%%%%%%%%%%%%%%%%%%%%%%%%%%%%%%%%%%
     %                                                                      %
     % You are using vdW-DF, which was implemented by the Thonhauser group. %
     % Please cite the following two papers that made this development      %
     % possible and the two reviews that describe the various versions:     %
     %                                                                      %
     %   T. Thonhauser et al., PRL 115, 136402 (2015).                      %
     %   T. Thonhauser et al., PRB 76, 125112 (2007).                       %
     %   K. Berland et al., Rep. Prog. Phys. 78, 066501 (2015).             %
     %   D.C. Langreth et al., J. Phys.: Condens. Matter 21, 084203 (2009). %
     %                                                                      %
     %                                                                      %
     % If you are calculating the stress with vdW-DF, please also cite:     %
     %                                                                      %
     %   R. Sabatini et al., J. Phys.: Condens. Matter 24, 424209 (2012).   %
     %                                                                      %
     %%%%%%%%%%%%%%%%%%%%%%%%%%%%%%%%%%%%%%%%%%%%%%%%%%%%%%%%%%%%%%%%%%%%%%%%

     Adding external electric field

     Computed dipole along edir(3) :
        Dipole              -10.1352 Ry au,        -25.7611 Debye
        Dipole field         -0.0191 Ry au,

        Potential amp.        1.7730 Ry
        Total length         46.3494 bohr

     Starting wfcs are  301 atomic wfcs
  @ DRIVER MODE: Message from server: STATUS
  @ DRIVER MODE: Message from server: POSDATA
  @ DRIVER MODE: Reading and sharing cell
  @ DRIVER MODE: Reading and sharing positions
  @ DRIVER MODE: Received positions

     Self-consistent Calculation

     iteration #  1     ecut=    29.40 Ry     beta= 0.05
     Davidson diagonalization with overlap
     c_bands:  2 eigenvalues not converged
     c_bands:  1 eigenvalues not converged
     c_bands:  1 eigenvalues not converged
     c_bands:  3 eigenvalues not converged
     c_bands:  1 eigenvalues not converged
     c_bands:  3 eigenvalues not converged
     c_bands:  3 eigenvalues not converged
     c_bands:  3 eigenvalues not converged
     c_bands:  1 eigenvalues not converged
     ethr =  1.00E-05,  avg # of iterations = 19.8

[...]

     total energy              =   -2497.72067176 Ry
     estimated scf accuracy    <    5094.08974273 Ry

     iteration #  2     ecut=    29.40 Ry     beta= 0.05
     Davidson diagonalization with overlap
     ethr =  1.00E-02,  avg # of iterations = 25.8

[...]

     iteration # 65     ecut=    29.40 Ry     beta= 0.05
     Davidson diagonalization with overlap
     c_bands:  1 eigenvalues not converged
     ethr =  2.07E-11,  avg # of iterations = 11.8

[...]

     total energy              =   -2953.88248735 Ry
     estimated scf accuracy    <       0.00000009 Ry

     iteration # 66     ecut=    29.40 Ry     beta= 0.05
     Davidson diagonalization with overlap
     ethr =  2.07E-11,  avg # of iterations =  9.4

     negative rho (up, down):  1.666E-02 0.000E+00

     Adding external electric field

     Computed dipole along edir(3) :
        Dipole                1.2945 Ry au,          3.2903 Debye
        Dipole field          0.0024 Ry au,

        Potential amp.       -0.2265 Ry
        Total length         46.3494 bohr

     End of self-consistent calculation

          k = 0.0000 0.0000 0.0000 ( 18029 PWs)   bands (ev):

   -55.4426 -55.4364 -55.4170 -55.4085 -55.4003 -55.2989 -55.2570 -55.2506
   -55.2355 -55.2332 -55.2159 -55.1998 -54.8591 -54.7667 -54.4291 -54.3951
   -31.9925 -31.9265 -31.8181 -31.7940 -31.7536 -31.7494 -31.7339 -31.7238
   -31.6855 -31.6838 -31.6541 -31.6382 -31.6272 -31.6166 -31.5956 -31.5831
   -31.5739 -31.5483 -31.5442 -31.5089 -31.5005 -31.4976 -31.4635 -31.4519
   -31.4455 -31.4432 -31.4350 -31.4343 -31.4343 -31.4084 -31.4082 -31.4025
   -31.3858 -31.3818 -31.3574 -31.3499 -31.3428 -31.1911 -31.0764 -31.0244
   -30.9653 -30.9287 -30.8366 -30.7473 -30.7249 -30.6533 -30.5667 -30.4557
   -19.0499 -16.4585 -16.2002 -15.9388 -15.7551 -15.6259 -15.5985 -15.4247
   -15.2897 -15.1876 -15.1255 -15.0687 -15.0488 -15.0009 -14.9985 -14.9862
   -14.9833 -14.9523 -14.9041 -14.8832 -14.8634 -14.8220 -14.8129 -14.7961
   -14.7469 -14.7085 -14.6135 -14.5816 -14.5553 -14.5152 -14.0304 -12.9315
   -12.8149  -9.0193  -6.8318  -6.6865  -4.2595  -3.5713  -3.4088  -3.3548
    -3.3480  -3.3210  -3.2412  -3.0915  -2.9566  -2.7210  -2.6588  -2.6231
    -2.5907  -2.5535  -2.4367  -2.3858  -2.3741  -2.3087  -2.2614  -2.2533
    -2.2405  -2.2193  -2.2038  -2.1432  -2.1301  -2.0296  -1.9871  -1.9176
    -1.8576  -1.8252  -1.7747  -1.7596  -1.7162  -1.7130  -1.6977  -1.6791
    -1.6653  -1.6495  -1.5906  -1.5299  -1.4521  -1.2671  -1.2344  -1.1182
    -1.0892  -1.0580  -1.0143  -0.9304  -0.9035  -0.8813  -0.8418  -0.7510
    -0.7252  -0.6783  -0.5896  -0.5000  -0.4534  -0.4282  -0.3487  -0.3136
    -0.2853  -0.2187  -0.2114  -0.1997  -0.1235  -0.0689   0.0381   0.0745
     0.1088   0.1244   0.1387   0.2236   0.2623   0.3195   0.3636   0.4165
     0.4527   0.4674   0.5035   0.5247   0.5394   0.5666   0.5784   0.7611
     0.8024   0.8315   0.8621   0.9473   1.0488   1.1158   1.1991   1.2685
     1.5158   1.5933   1.6461   1.7837   2.1654   2.2116   3.6284   3.7568
     3.7752   3.7934   3.8247   3.8874   3.9504   4.1396   4.1619   4.1833
     4.2118

[...]

          k = 0.0380-0.0419 0.0000 ( 17876 PWs)   bands (ev):

[...]

          k =-0.0760-0.0000 0.0000 ( 17886 PWs)   bands (ev):

[...]

          k =-0.0760-0.0839 0.0000 ( 17948 PWs)   bands (ev):

   -55.4260 -55.4250 -55.4201 -55.4169 -55.4149 -55.2901 -55.2657 -55.2370
   -55.2354 -55.2303 -55.2183 -55.2153 -54.8560 -54.7697 -54.4121 -54.4119
   -31.8020 -31.7914 -31.7421 -31.7413 -31.7268 -31.7198 -31.7188 -31.7027
   -31.6876 -31.6464 -31.6390 -31.6336 -31.6237 -31.6056 -31.5696 -31.5592
   -31.5546 -31.5545 -31.5521 -31.5461 -31.5456 -31.5450 -31.5419 -31.5027
   -31.4815 -31.4759 -31.4648 -31.4510 -31.4458 -31.4417 -31.4401 -31.4395
   -31.4328 -31.4295 -31.4105 -31.4051 -31.2518 -31.1930 -31.0698 -31.0424
   -31.0256 -30.9654 -30.7377 -30.7375 -30.6494 -30.6492 -30.6101 -30.6100
   -19.0489 -16.4482 -15.6901 -15.5607 -15.4320 -15.3744 -15.3689 -15.3104
   -15.3063 -15.1928 -15.1833 -15.1549 -15.1298 -15.1129 -15.0850 -15.0657
   -15.0036 -14.9830 -14.9796 -14.9495 -14.9202 -14.9074 -14.9027 -14.8878
   -14.8840 -14.8298 -14.7739 -14.7707 -14.6596 -14.5568 -14.1869 -12.9168
   -12.9164  -9.0289  -6.8116  -6.7097  -4.2270  -3.2518  -2.9743  -2.7942
    -2.6873  -2.6314  -2.5681  -2.5492  -2.3829  -2.3679  -2.3581  -2.3210
    -2.3048  -2.2835  -2.2730  -2.2683  -2.2420  -2.2301  -2.2120  -2.1804
    -2.1473  -2.1291  -2.1210  -2.1147  -2.0983  -2.0796  -2.0568  -2.0357
    -2.0313  -2.0045  -1.9649  -1.9412  -1.8816  -1.7460  -1.7088  -1.6683
    -1.5982  -1.5917  -1.5380  -1.5219  -1.4948  -1.4672  -1.4032  -1.3808
    -1.2325  -1.1680  -1.1518  -1.1357  -1.1214  -0.9996  -0.9590  -0.8903
    -0.8638  -0.7942  -0.7640  -0.7522  -0.7056  -0.6038  -0.5912  -0.5392
    -0.5276  -0.4306  -0.4081  -0.3970  -0.3620  -0.3176  -0.2495  -0.2083
    -0.1936  -0.1841  -0.1507  -0.1437  -0.1034   0.0168   0.0768   0.1382
     0.2094   0.3125   0.4242   0.4365   0.5856   0.6118   0.6259   0.7317
     0.8179   0.8484   0.8684   0.8958   0.8989   1.0239   1.0710   1.0807
     1.0823   1.2330   1.9554   1.9568   2.0311   2.0316   3.7363   3.9363
     3.9576   3.9997   4.0461   4.1777   4.1867   4.2211   4.2223   4.3059
     4.3394

     the Fermi energy is     3.6878 ev

!    total energy              =   -2953.88252298 Ry
     estimated scf accuracy    <       0.00000003 Ry
     smearing contrib. (-TS)   =      -0.03290756 Ry
     internal energy E=F+TS    =   -2953.84961542 Ry

     The total energy is F=E-TS. E is the sum of the following terms:
     one-electron contribution =  -24258.41983803 Ry
     hartree contribution      =   12222.76386938 Ry
     xc contribution           =    -488.84028842 Ry
     ewald contribution        =    9570.64347931 Ry
     electric field correction =       0.00316234 Ry

     convergence has been achieved in  66 iterations

     Forces acting on atoms (cartesian axes, Ry/au):

     atom    1 type  1   force =     0.00020775   -0.00020408    0.09616172
     atom    2 type  1   force =    -0.00010947   -0.00027359   -0.17606718
     atom    3 type  2   force =     0.00002669    0.00001941   -0.02488365
     atom    4 type  2   force =     0.00003402   -0.00160124    0.05415686
     atom    5 type  2   force =    -0.01177910   -0.00148639    0.00428049
     atom    6 type  2   force =     0.01354428   -0.00070874    0.00348768
     atom    7 type  1   force =    -0.00083744    0.00087851   -0.01027251
     atom    8 type  1   force =     0.00025022    0.01222839    0.02352323
     atom    9 type  2   force =    -0.00035893   -0.00008540   -0.00022527
     atom   10 type  2   force =    -0.00088346   -0.00045220   -0.01484579
     atom   11 type  2   force =     0.00042196    0.00008276    0.00018228
     atom   12 type  2   force =    -0.00040436   -0.00007655    0.00003269
     atom   13 type  1   force =    -0.00066092   -0.00007204   -0.00158185
     atom   14 type  1   force =     0.00058429    0.00018201    0.00031356
     atom   15 type  2   force =     0.00058021    0.00044614    0.00008742
     atom   16 type  2   force =    -0.00028339    0.00006292    0.00036146
     atom   17 type  2   force =    -0.00015756   -0.00024800   -0.00044754
     atom   18 type  2   force =     0.00010232   -0.00012273    0.00001113
     atom   19 type  1   force =     0.00080133    0.00011771    0.00054180
     atom   20 type  1   force =    -0.00045748   -0.00064842    0.00009163
     atom   21 type  2   force =     0.00006114    0.00004393    0.10335212
     atom   22 type  2   force =     0.00032629    0.00082717   -0.00032960
     atom   23 type  2   force =    -0.07131171   -0.00007809   -0.02764733
     atom   24 type  2   force =     0.07126874    0.00035958   -0.02768408
     atom   25 type  1   force =    -0.00006341   -0.00014554    0.09568073
     atom   26 type  1   force =    -0.00020073   -0.00031515   -0.17600840
     atom   27 type  2   force =     0.00012311   -0.00040216   -0.02389162
     atom   28 type  2   force =     0.00009690   -0.00126700    0.05362161
     atom   29 type  2   force =    -0.01201095    0.00045069    0.00380602
     atom   30 type  2   force =     0.01365536    0.00069346    0.00308891
     atom   31 type  1   force =    -0.00061069    0.00370680   -0.01331010
     atom   32 type  1   force =     0.00020714   -0.01324989    0.02339054
     atom   33 type  2   force =    -0.00007736   -0.00005636   -0.00027823
     atom   34 type  2   force =    -0.00008425    0.00021756   -0.01832075
     atom   35 type  2   force =     0.00034426   -0.00048584    0.00025160
     atom   36 type  2   force =    -0.00031687   -0.00016245    0.00011570
     atom   37 type  1   force =    -0.00083421   -0.00023257   -0.00009408
     atom   38 type  1   force =     0.00047236    0.00009279    0.00064552
     atom   39 type  2   force =    -0.00001727    0.00081431   -0.00001578
     atom   40 type  2   force =    -0.00023157   -0.00018504   -0.00062603
     atom   41 type  2   force =     0.00032394    0.00045268    0.00007908
     atom   42 type  2   force =    -0.00076532    0.00016333    0.00000589
     atom   43 type  1   force =     0.00075093    0.00007591   -0.00004536
     atom   44 type  1   force =    -0.00031214   -0.00088396    0.00051979
     atom   45 type  2   force =     0.00005982    0.00003716    0.10331060
     atom   46 type  2   force =    -0.07129308   -0.00002046   -0.02761543
     atom   47 type  2   force =     0.07124197    0.00040209   -0.02763598
     atom   48 type  3   force =    -0.00028998    0.00102694   -0.00032138
     atom   49 type  4   force =    -0.00009893    0.00085876   -0.00057120
     atom   50 type  5   force =     0.00065549    0.00000710    0.00099345
     atom   51 type  5   force =     0.00055904    0.00038228    0.00007925
     atom   52 type  5   force =    -0.00010097    0.00012861    0.00028577
     atom   53 type  2   force =    -0.00795541    0.00261497    0.00025130
     atom   54 type  5   force =     0.00063384    0.00049615    0.00038244
     atom   55 type  5   force =     0.00517356   -0.00440625   -0.00037311

     Total force =     0.367757     Total SCF correction =     0.000482
  @ DRIVER MODE: Message from server: STATUS
  @ DRIVER MODE: Message from server: GETFORCE
  @ DRIVER MODE: Returning v,forces,stress,ensemble

     Writing output data file ./calc.save/
  @ DRIVER MODE: Message from server: EXIT
  @ DRIVE MODE: Exiting

     General routines

     Parallel routines

   This run was terminated on:   6:46: 5  16Sep2021

   JOB DONE.