     Program PWSCF v.6.7GPU starts on 23Sep2021 at  1:18:15

     R & G space division:  proc/nbgrp/npool/nimage =      10
     Reading input from /storage/home/hcoda1/3/ntian30/research/carbon/CxH_vib/H2O_calc/ads_slab/CH2NHNHH2O_b/out_0026/pw.inp
Warning: card &CELL ignored
Warning: card   CELL_DYNAMICS='IPI', ignored
Warning: card / ignored

     Current dimensions of program PWSCF are:
     Max number of different atomic species (ntypx) = 10
     Max number of k-points (npk) =  40000
     Max angular momentum in pseudopotentials (lmaxx) =  3
     Presently no symmetry can be used with electric field

     Message from routine cell_base_init:
     DEPRECATED: use true lattice parameter, not A to a.u. conversion factor

     IMPORTANT: XC functional enforced from input :
     Exchange-correlation= BEEF-VDW
                           (   1   4  43  14   2   0   0)
     Any further DFT definition will be discarded
     Please, verify this is what you really want

  @ DRIVER MODE: Connecting to
 qe_1139763_2937310.sched-torque.pace.gatech.edu2lnzfy42_scratch
  using UNIX socket
  @ DRIVER MODE: Message from server: STATUS
  @ DRIVER MODE: Message from server: INIT
  @ DRIVER MODE: Receiving replica           0          -1
  @ DRIVER MODE: Receiving encoded integer          25
  @ DRIVER MODE:  SCF:  T  FORCE:  T  STRESS:  F  VC:  F  ENSEMBLE:  F
  @ DRIVER MODE:  SCF:  T  FORCE:  T  STRESS:  F  VC:  F  ENSEMBLE:  F

     Using Slab Decomposition

     bravais-lattice index     =            0
     lattice parameter (alat)  =       1.8897  a.u.
     unit-cell volume          =    6658.9804 (a.u.)^3
     number of atoms/cell      =           57
     number of atomic types    =            5
     number of electrons       =       404.00
     number of Kohn-Sham states=          212
     kinetic-energy cutoff     =      29.3995  Ry
     charge density cutoff     =     293.9946  Ry
     scf convergence threshold =      7.3E-08
     mixing beta               =       0.0500
     number of iterations used =            8  plain     mixing
     Exchange-correlation= BEEF-VDW
                           (   1   4  43  14   2   0   0)

     celldm(1)=   1.889726  celldm(2)=   0.000000  celldm(3)=   0.000000
     celldm(4)=   0.000000  celldm(5)=   0.000000  celldm(6)=   0.000000

     crystal axes: (cart. coord. in units of alat)
               a(1) = (   6.579727   0.000000   0.000000 )
               a(2) = (  -0.000775   5.961596   0.000000 )
               a(3) = (   0.000000   0.000000  25.155947 )

     reciprocal axes: (cart. coord. in units 2 pi/alat)
               b(1) = (  0.151982  0.000020  0.000000 )
               b(2) = (  0.000000  0.167740  0.000000 )
               b(3) = (  0.000000  0.000000  0.039752 )

     PseudoPot. # 1 for Ti read from file:
     /storage/coda1/p-amedford6/0/shared/rich_project_chbe-medford/medford-share/data/pseudos_module/espresso/nninc/pbe/van/Ti.UPF
     MD5 check sum: 8e4df49b7f0d34bbd5052bf3f5ea0213
     Pseudo is Ultrasoft, Zval = 12.0
     Generated by new atomic code, or converted to UPF format
     Using radial grid of  851 points,  6 beta functions with:
                l(1) =   0
                l(2) =   0
                l(3) =   1
                l(4) =   1
                l(5) =   2
                l(6) =   2
     Q(r) pseudized with  8 coefficients,  rinner =    1.000   1.000   1.000
                                                       1.000   1.000

     PseudoPot. # 2 for O  read from file:
     /storage/coda1/p-amedford6/0/shared/rich_project_chbe-medford/medford-share/data/pseudos_module/espresso/nninc/pbe/van/O.UPF
     MD5 check sum: 78c19812648e8988a0fe644b0f25305e
     Pseudo is Ultrasoft, Zval =  6.0
     Generated by new atomic code, or converted to UPF format
     Using radial grid of  737 points,  4 beta functions with:
                l(1) =   0
                l(2) =   0
                l(3) =   1
                l(4) =   1
     Q(r) pseudized with  8 coefficients,  rinner =    0.800   0.800   0.800

     PseudoPot. # 3 for N  read from file:
     /storage/coda1/p-amedford6/0/shared/rich_project_chbe-medford/medford-share/data/pseudos_module/espresso/nninc/pbe/van/N.UPF
     MD5 check sum: 90d10febe142ad51ac9d5be1deb811c4
     Pseudo is Ultrasoft, Zval =  5.0
     Generated by new atomic code, or converted to UPF format
     Using radial grid of  729 points,  4 beta functions with:
                l(1) =   0
                l(2) =   0
                l(3) =   1
                l(4) =   1
     Q(r) pseudized with  8 coefficients,  rinner =    0.800   0.800   0.800

     PseudoPot. # 4 for C  read from file:
     /storage/coda1/p-amedford6/0/shared/rich_project_chbe-medford/medford-share/data/pseudos_module/espresso/nninc/pbe/van/C.UPF
     MD5 check sum: 1a69bf6b8db32088f5b2163dbdb77a27
     Pseudo is Ultrasoft, Zval =  4.0
     Generated by new atomic code, or converted to UPF format
     Using radial grid of  721 points,  4 beta functions with:
                l(1) =   0
                l(2) =   0
                l(3) =   1
                l(4) =   1
     Q(r) pseudized with  8 coefficients,  rinner =    0.800   0.800   0.800

     PseudoPot. # 5 for H  read from file:
     /storage/coda1/p-amedford6/0/shared/rich_project_chbe-medford/medford-share/data/pseudos_module/espresso/nninc/pbe/van/H.UPF
     MD5 check sum: b5ee9d7bfd3a09ee7748110bda690ff7
     Pseudo is Ultrasoft, Zval =  1.0
     Generated by new atomic code, or converted to UPF format
     Using radial grid of  615 points,  1 beta functions with:
                l(1) =   0
     Q(r) pseudized with  8 coefficients,  rinner =    0.800

     atomic species   valence    mass     pseudopotential
        Ti1           12.00    47.86700     Ti( 1.00)
        O1             6.00    15.99900     O ( 1.00)
        N1             5.00    14.00700     N ( 1.00)
        C1             4.00    12.01100     C ( 1.00)
        H1             1.00     1.00800     H ( 1.00)

     No symmetry found

   Cartesian axes

     site n.     atom                  positions (alat units)
         1           Ti1 tau(   1) = (   0.0004258   2.9801865   6.0000000  )
         2           Ti1 tau(   2) = (   3.2906075   1.4906267   6.0002472  )
         3           O1  tau(   3) = (   0.0006271   0.0005054   7.9858123  )
         4           O1  tau(   4) = (   3.2906025   0.0005020   7.3038282  )
         5           O1  tau(   5) = (   4.5942328   1.4918067   9.2879030  )
         6           O1  tau(   6) = (   1.9868534   1.4903216   9.2879459  )
         7           Ti1 tau(   7) = (   3.2907910   2.8959150   9.1758416  )
         8           Ti1 tau(   8) = (   0.0015273   1.4827037   9.2680791  )
         9           O1  tau(   9) = (   3.2740695   5.9399032  11.3612631  )
        10           O1  tau(  10) = (   0.0116148   5.9584955  10.6183126  )
        11           O1  tau(  11) = (   1.2665466   1.4659349  12.6457467  )
        12           O1  tau(  12) = (   5.2636777   1.4644475  12.6520517  )
        13           Ti1 tau(  13) = (   0.0254019   2.9535957  12.5508080  )
        14           Ti1 tau(  14) = (   3.3235577   1.4585364  12.5144190  )
        15           O1  tau(  15) = (   0.0066209   5.9388471  14.7046414  )
        16           O1  tau(  16) = (   3.2471877   5.9405099  14.0100224  )
        17           O1  tau(  17) = (   4.5302733   1.5208160  16.0462967  )
        18           O1  tau(  18) = (   1.9955500   1.4995475  16.2009832  )
        19           Ti1 tau(  19) = (   3.2567830   2.9699832  15.6929747  )
        20           Ti1 tau(  20) = (   6.4949666   1.4732860  15.8443191  )
        21           O1  tau(  21) = (   3.2904802   0.0005063   4.7018136  )
        22           O1  tau(  22) = (   6.4419287   5.8812218  17.2824568  )
        23           O1  tau(  23) = (   1.3043587   1.4918075   6.0039043  )
        24           O1  tau(  24) = (   5.2767064   1.4903225   6.0039473  )
        25           Ti1 tau(  25) = (   0.0000382   5.9609847   6.0000000  )
        26           Ti1 tau(  26) = (   3.2902200   4.4714249   6.0002472  )
        27           O1  tau(  27) = (   0.0002396   2.9813036   7.9858123  )
        28           O1  tau(  28) = (   3.2902150   2.9813002   7.3038282  )
        29           O1  tau(  29) = (   4.5938453   4.4726049   9.2879030  )
        30           O1  tau(  30) = (   1.9864658   4.4711199   9.2879459  )
        31           Ti1 tau(  31) = (   3.2891106   5.8743827   9.1763621  )
        32           Ti1 tau(  32) = (   0.0006254   4.4649316   9.2693709  )
        33           O1  tau(  33) = (   3.2800166   2.9600013  11.3546200  )
        34           O1  tau(  34) = (   0.0092240   2.9805883  10.6323155  )
        35           O1  tau(  35) = (   1.2663080   4.4508225  12.6496728  )
        36           O1  tau(  36) = (   5.2650692   4.4524444  12.6537221  )
        37           Ti1 tau(  37) = (   0.0180281   5.9297397  12.5120547  )
        38           Ti1 tau(  38) = (   3.3242103   4.4456960  12.5094407  )
        39           O1  tau(  39) = (   0.0028395   2.9305241  14.7702868  )
        40           O1  tau(  40) = (   3.2369197   2.9632653  13.9133312  )
        41           O1  tau(  41) = (   4.5259019   4.3784886  16.1008109  )
        42           O1  tau(  42) = (   2.0017919   4.4285960  16.1845674  )
        43           Ti1 tau(  43) = (   3.2453488   5.9423767  15.8283900  )
        44           Ti1 tau(  44) = (   6.5728488   4.6138345  16.0446011  )
        45           O1  tau(  45) = (   3.2900926   2.9813045   4.7018136  )
        46           O1  tau(  46) = (   1.3039711   4.4726057   6.0039043  )
        47           O1  tau(  47) = (   5.2763189   4.4711207   6.0039473  )
        48           N1  tau(  48) = (   0.9567011   2.5879941  18.4848429  )
        49           N1  tau(  49) = (   6.5185693   2.8362889  17.6364570  )
        50           C1  tau(  50) = (   1.0658718   2.8740630  19.7563100  )
        51           H1  tau(  51) = (   1.9437682   2.5238050  20.2723566  )
        52           H1  tau(  52) = (   0.2909834   3.4210577  20.2544045  )
        53           H1  tau(  53) = (   1.7014144   2.0656717  17.9989220  )
        54           H1  tau(  54) = (   5.6742842   3.0275795  18.1730567  )
        55           O1  tau(  55) = (   3.7618585   0.1297276  18.3074903  )
        56           H1  tau(  56) = (   4.7330396   0.0541995  18.1289380  )
        57           H1  tau(  57) = (   3.4892521   5.2388606  18.6788193  )

     number of k points=    10  Fermi-Dirac smearing, width (Ry)=  0.0073
                       cart. coord. in units 2pi/alat
        k(    1) = (   0.0000000   0.0000000   0.0000000), wk =   0.1250000
        k(    2) = (   0.0000000   0.0419351   0.0000000), wk =   0.2500000
        k(    3) = (   0.0000000  -0.0838702   0.0000000), wk =   0.1250000
        k(    4) = (   0.0379955   0.0000049   0.0000000), wk =   0.2500000
        k(    5) = (   0.0379955   0.0419400   0.0000000), wk =   0.2500000
        k(    6) = (   0.0379955  -0.0838652   0.0000000), wk =   0.2500000
        k(    7) = (   0.0379955  -0.0419301   0.0000000), wk =   0.2500000
        k(    8) = (  -0.0759910  -0.0000099   0.0000000), wk =   0.1250000
        k(    9) = (  -0.0759910   0.0419252   0.0000000), wk =   0.2500000
        k(   10) = (  -0.0759910  -0.0838800   0.0000000), wk =   0.1250000

     Initial potential from superposition of free atoms

     starting charge  387.99913, renormalised to  404.00000

     negative rho (up, down):  1.394E-02 0.000E+00

     %%%%%%%%%%%%%%%%%%%%%%%%%%%%%%%%%%%%%%%%%%%%%%%%%%%%%%%%%%%%%%%%%%%%%%%%
     %                                                                      %
     % You are using vdW-DF, which was implemented by the Thonhauser group. %
     % Please cite the following two papers that made this development      %
     % possible and the two reviews that describe the various versions:     %
     %                                                                      %
     %   T. Thonhauser et al., PRL 115, 136402 (2015).                      %
     %   T. Thonhauser et al., PRB 76, 125112 (2007).                       %
     %   K. Berland et al., Rep. Prog. Phys. 78, 066501 (2015).             %
     %   D.C. Langreth et al., J. Phys.: Condens. Matter 21, 084203 (2009). %
     %                                                                      %
     %                                                                      %
     % If you are calculating the stress with vdW-DF, please also cite:     %
     %                                                                      %
     %   R. Sabatini et al., J. Phys.: Condens. Matter 24, 424209 (2012).   %
     %                                                                      %
     %%%%%%%%%%%%%%%%%%%%%%%%%%%%%%%%%%%%%%%%%%%%%%%%%%%%%%%%%%%%%%%%%%%%%%%%

     Adding external electric field

     Computed dipole along edir(3) :
        Dipole              -14.1772 Ry au,        -36.0349 Debye
        Dipole field         -0.0268 Ry au,

        Potential amp.        2.4801 Ry
        Total length         46.3494 bohr

     Starting wfcs are  306 atomic wfcs
  @ DRIVER MODE: Message from server: STATUS
  @ DRIVER MODE: Message from server: POSDATA
  @ DRIVER MODE: Reading and sharing cell
  @ DRIVER MODE: Reading and sharing positions
  @ DRIVER MODE: Received positions

     Self-consistent Calculation

     iteration #  1     ecut=    29.40 Ry     beta= 0.05
     Davidson diagonalization with overlap
     c_bands:  4 eigenvalues not converged
     c_bands:  5 eigenvalues not converged
     c_bands:  2 eigenvalues not converged
     c_bands:  2 eigenvalues not converged
     c_bands:  1 eigenvalues not converged
     c_bands:  1 eigenvalues not converged
     c_bands:  4 eigenvalues not converged
     c_bands:  1 eigenvalues not converged
     c_bands:  1 eigenvalues not converged
     ethr =  1.00E-05,  avg # of iterations = 28.9

[...]

     total energy              =   -2249.23566242 Ry
     estimated scf accuracy    <    8255.78284098 Ry

     iteration #  2     ecut=    29.40 Ry     beta= 0.05
     Davidson diagonalization with overlap
     ethr =  1.00E-02,  avg # of iterations = 27.0

[...]

     iteration # 67     ecut=    29.40 Ry     beta= 0.05
     Davidson diagonalization with overlap
     ethr =  5.74E-11,  avg # of iterations =  9.5

[...]

     total energy              =   -2975.20154095 Ry
     estimated scf accuracy    <       0.00000020 Ry

     iteration # 69     ecut=    29.40 Ry     beta= 0.05
     Davidson diagonalization with overlap
     c_bands:  1 eigenvalues not converged
     ethr =  2.95E-11,  avg # of iterations = 10.6

     negative rho (up, down):  1.355E-02 0.000E+00

     Adding external electric field

     Computed dipole along edir(3) :
        Dipole                1.4217 Ry au,          3.6136 Debye
        Dipole field          0.0027 Ry au,

        Potential amp.       -0.2487 Ry
        Total length         46.3494 bohr

     End of self-consistent calculation

          k = 0.0000 0.0000 0.0000 ( 18029 PWs)   bands (ev):

   -55.1452 -55.1169 -55.1085 -55.0828 -55.0799 -55.0311 -54.9892 -54.9566
   -54.9416 -54.9254 -54.9213 -54.9179 -54.9085 -54.8361 -54.1294 -54.0954
   -31.7081 -31.6067 -31.5242 -31.4808 -31.4607 -31.4558 -31.4457 -31.4436
   -31.4067 -31.3863 -31.3644 -31.3612 -31.3447 -31.3226 -31.3056 -31.2920
   -31.2862 -31.2697 -31.2669 -31.2577 -31.2283 -31.2151 -31.2112 -31.1863
   -31.1793 -31.1739 -31.1642 -31.1584 -31.1569 -31.1497 -31.1382 -31.1362
   -31.1142 -31.1058 -31.1019 -31.0933 -31.0852 -31.0728 -31.0703 -31.0524
   -31.0496 -31.0161 -30.5380 -30.4459 -30.4237 -30.3545 -30.2678 -30.1569
   -19.2625 -18.5906 -15.9622 -15.6974 -15.5664 -15.4007 -15.3371 -15.1658
   -15.0852 -15.0199 -14.9345 -14.8757 -14.8614 -14.8553 -14.7634 -14.7454
   -14.6927 -14.6800 -14.6733 -14.6424 -14.6342 -14.5768 -14.5721 -14.5670
   -14.5328 -14.5200 -14.4904 -14.3724 -14.2918 -14.2350 -14.0243 -13.6706
   -12.6321 -12.5150 -10.0309  -6.8285  -6.5039  -6.3654  -4.0743  -3.9104
    -3.3136  -3.1721  -3.1522  -3.0695  -3.0460  -2.9236  -2.8674  -2.7064
    -2.5984  -2.5007  -2.4109  -2.3412  -2.3333  -2.3049  -2.1886  -2.1259
    -2.0798  -2.0366  -2.0180  -2.0052  -1.9567  -1.9208  -1.9184  -1.8516
    -1.8499  -1.7125  -1.6182  -1.6136  -1.5797  -1.5635  -1.4749  -1.4521
    -1.4424  -1.4365  -1.4301  -1.4226  -1.3883  -1.3439  -1.3187  -1.2357
    -1.1816  -1.1379  -1.0070  -0.9051  -0.8317  -0.7748  -0.6865  -0.6831
    -0.6155  -0.5500  -0.5358  -0.5339  -0.4734  -0.3522  -0.3062  -0.2555
    -0.2345  -0.2094  -0.1201  -0.1030  -0.0332   0.0397   0.0680   0.0780
     0.0997   0.2730   0.2807   0.3099   0.3287   0.4183   0.4706   0.5123
     0.5188   0.5414   0.6076   0.6461   0.7376   0.7850   0.7958   0.8165
     0.8381   0.8775   0.9542   0.9641   1.0051   1.0284   1.1692   1.2050
     1.2589   1.4747   1.4768   1.8059   1.8461   1.8930   2.0793   2.4674
     2.5148   3.9542   4.0438   4.0829   4.0847   4.1037   4.1893   4.3228
     4.4353   4.4458   4.4579   4.4799

[...]

          k = 0.0380-0.0419 0.0000 ( 17876 PWs)   bands (ev):

[...]

          k =-0.0760-0.0000 0.0000 ( 17886 PWs)   bands (ev):

[...]

          k =-0.0760-0.0839 0.0000 ( 17948 PWs)   bands (ev):

   -55.1304 -55.1231 -55.1000 -55.0996 -55.0779 -55.0221 -54.9982 -54.9416
   -54.9353 -54.9268 -54.9258 -54.9249 -54.9147 -54.8396 -54.1125 -54.1123
   -31.5166 -31.5083 -31.4229 -31.4220 -31.4217 -31.4061 -31.3923 -31.3919
   -31.3676 -31.3653 -31.3602 -31.3536 -31.3425 -31.3121 -31.2824 -31.2756
   -31.2749 -31.2743 -31.2701 -31.2645 -31.2575 -31.2393 -31.2253 -31.2227
   -31.2196 -31.2194 -31.2189 -31.1974 -31.1749 -31.1663 -31.1646 -31.1555
   -31.1495 -31.1471 -31.1450 -31.1438 -31.1421 -31.1126 -31.1065 -31.1048
   -31.0902 -31.0598 -30.4364 -30.4363 -30.3507 -30.3505 -30.3112 -30.3111
   -19.2599 -18.5901 -15.4564 -15.2995 -15.2862 -15.1347 -15.1204 -15.1122
   -15.0874 -15.0121 -14.9931 -14.9292 -14.9166 -14.8729 -14.8464 -14.8336
   -14.8227 -14.7292 -14.7219 -14.7157 -14.6997 -14.6492 -14.6371 -14.6200
   -14.5968 -14.5927 -14.5559 -14.4913 -14.4881 -14.4561 -14.2255 -13.6815
   -12.6167 -12.6165 -10.0338  -6.8225  -6.5064  -6.3579  -4.0500  -3.8972
    -2.9358  -2.7214  -2.5286  -2.5080  -2.4648  -2.3677  -2.3266  -2.2858
    -2.1897  -2.1403  -2.1248  -2.1027  -2.0892  -2.0298  -2.0254  -2.0228
    -1.9865  -1.9783  -1.9640  -1.9391  -1.9165  -1.8830  -1.8690  -1.8582
    -1.8454  -1.8063  -1.7866  -1.7582  -1.7451  -1.7158  -1.6994  -1.6304
    -1.5262  -1.4964  -1.4430  -1.3506  -1.3320  -1.3262  -1.2412  -1.2085
    -1.1954  -1.1801  -1.1663  -1.1043  -0.9693  -0.8804  -0.8703  -0.8184
    -0.7529  -0.7191  -0.6766  -0.6494  -0.6217  -0.5673  -0.5180  -0.4937
    -0.4201  -0.3667  -0.3606  -0.3283  -0.1824  -0.1583  -0.1111  -0.1089
    -0.0945  -0.0856   0.0042   0.0209   0.0653   0.0851   0.1250   0.1435
     0.2165   0.2330   0.3524   0.4219   0.4839   0.5902   0.7310   0.7442
     0.8160   0.8775   0.9162   0.9820   1.0395   1.0724   1.1552   1.1653
     1.1814   1.2830   1.3324   1.3390   1.3558   2.2516   2.2532   2.3347
     2.3348   4.1165   4.1391   4.2282   4.2420   4.2942   4.3770   4.4664
     4.4929   4.5287   4.5323   4.6099

     the Fermi energy is     4.0024 ev

!    total energy              =   -2975.20158919 Ry
     estimated scf accuracy    <       0.00000006 Ry
     smearing contrib. (-TS)   =      -0.03820577 Ry
     internal energy E=F+TS    =   -2975.16338341 Ry

     The total energy is F=E-TS. E is the sum of the following terms:
     one-electron contribution =  -23646.37877490 Ry
     hartree contribution      =   11921.35157792 Ry
     xc contribution           =    -494.98046489 Ry
     ewald contribution        =    9244.84046419 Ry
     electric field correction =       0.00381427 Ry

     convergence has been achieved in  69 iterations

     Forces acting on atoms (cartesian axes, Ry/au):

     atom    1 type  1   force =     0.00013261   -0.00013721    0.09421722
     atom    2 type  1   force =    -0.00023117   -0.00027043   -0.17728710
     atom    3 type  2   force =     0.00001775   -0.00026491   -0.02169857
     atom    4 type  2   force =    -0.00004283   -0.00184824    0.05694416
     atom    5 type  2   force =    -0.01107238   -0.00171817    0.00686928
     atom    6 type  2   force =     0.01216139   -0.00091327    0.00493592
     atom    7 type  1   force =    -0.00122287    0.00156485   -0.01218876
     atom    8 type  1   force =     0.00072941    0.00495465    0.00604369
     atom    9 type  2   force =     0.00027073    0.00050459    0.00032389
     atom   10 type  2   force =    -0.00307142   -0.00067454   -0.00505676
     atom   11 type  2   force =     0.00080938    0.00021452   -0.00024394
     atom   12 type  2   force =    -0.00006835    0.00051146    0.00000449
     atom   13 type  1   force =    -0.00023028    0.00011061   -0.00007527
     atom   14 type  1   force =    -0.00000832    0.00012052   -0.00008473
     atom   15 type  2   force =    -0.00006074    0.00003783    0.00025731
     atom   16 type  2   force =     0.00040605    0.00035558   -0.00015225
     atom   17 type  2   force =     0.00019958   -0.00009300    0.00032738
     atom   18 type  2   force =     0.00007768   -0.00019590    0.00014883
     atom   19 type  1   force =     0.00030910    0.00033809   -0.00008616
     atom   20 type  1   force =     0.00001241    0.00047850    0.00018389
     atom   21 type  2   force =     0.00005099    0.00002401    0.10367019
     atom   22 type  2   force =     0.00056638   -0.00001635   -0.00016245
     atom   23 type  2   force =    -0.07083277   -0.00008700   -0.02718853
     atom   24 type  2   force =     0.07066270    0.00039608   -0.02722652
     atom   25 type  1   force =    -0.00006527   -0.00027950    0.09391963
     atom   26 type  1   force =    -0.00031905   -0.00035694   -0.17746546
     atom   27 type  2   force =     0.00000933   -0.00023316   -0.02074081
     atom   28 type  2   force =     0.00003640   -0.00148842    0.05597601
     atom   29 type  2   force =    -0.01134584   -0.00053133    0.00690423
     atom   30 type  2   force =     0.01230771   -0.00025359    0.00492454
     atom   31 type  1   force =    -0.00121528    0.00505700   -0.01497734
     atom   32 type  1   force =     0.00092577   -0.00601455    0.00587052
     atom   33 type  2   force =     0.00035824   -0.00013385    0.00011444
     atom   34 type  2   force =    -0.00260959   -0.00151684   -0.00576752
     atom   35 type  2   force =     0.00036723    0.00029923   -0.00031145
     atom   36 type  2   force =     0.00043919    0.00040471   -0.00007309
     atom   37 type  1   force =    -0.00017155   -0.00014397   -0.00016618
     atom   38 type  1   force =     0.00005638    0.00032784    0.00045709
     atom   39 type  2   force =     0.00007873    0.00086947   -0.00077793
     atom   40 type  2   force =     0.00004081   -0.00008542    0.00002708
     atom   41 type  2   force =     0.00091774    0.00041292    0.00053319
     atom   42 type  2   force =    -0.00082201    0.00021329   -0.00008967
     atom   43 type  1   force =     0.00045133   -0.00071256    0.00007463
     atom   44 type  1   force =     0.00014153   -0.00001241   -0.00054893
     atom   45 type  2   force =     0.00001580   -0.00002322    0.10366641
     atom   46 type  2   force =    -0.07082228   -0.00000832   -0.02720564
     atom   47 type  2   force =     0.07064826    0.00039542   -0.02719959
     atom   48 type  3   force =    -0.00084620    0.00017186    0.00047603
     atom   49 type  3   force =     0.00019882    0.00018319   -0.00085318
     atom   50 type  4   force =     0.00806733   -0.00492390   -0.00345197
     atom   51 type  5   force =     0.00018436   -0.00034794   -0.00024719
     atom   52 type  5   force =    -0.00750410    0.00428458    0.00361706
     atom   53 type  5   force =    -0.00060379    0.00056850    0.00047644
     atom   54 type  5   force =     0.00092737    0.00048209    0.00017196
     atom   55 type  2   force =     0.00010165    0.00017735    0.00003544
     atom   56 type  5   force =     0.00069163   -0.00019586   -0.00052631
     atom   57 type  5   force =    -0.00020568    0.00002207    0.00068234

     Total force =     0.365916     Total SCF correction =     0.000554
  @ DRIVER MODE: Message from server: STATUS
  @ DRIVER MODE: Message from server: GETFORCE
  @ DRIVER MODE: Returning v,forces,stress,ensemble

     Writing output data file ./calc.save/
  @ DRIVER MODE: Message from server: EXIT
  @ DRIVE MODE: Exiting

     General routines

     Parallel routines

   This run was terminated on:   1:37:24  23Sep2021

   JOB DONE.