     Program PWSCF v.6.7GPU starts on 18Oct2021 at 14:12:57

     R & G space division:  proc/nbgrp/npool/nimage =       8
     Reading input from /storage/home/hcoda1/3/ntian30/research/carbon/CxH_vib/Thiel_calc/ads_slab/N2HH_perslab/out_0005/pw.inp
Warning: card &CELL ignored
Warning: card   CELL_DYNAMICS='IPI', ignored
Warning: card / ignored

     Current dimensions of program PWSCF are:
     Max number of different atomic species (ntypx) = 10
     Max number of k-points (npk) =  40000
     Max angular momentum in pseudopotentials (lmaxx) =  3
     Presently no symmetry can be used with electric field

     Message from routine cell_base_init:
     DEPRECATED: use true lattice parameter, not A to a.u. conversion factor

     IMPORTANT: XC functional enforced from input :
     Exchange-correlation= BEEF-VDW
                           (   1   4  43  14   2   0   0)
     Any further DFT definition will be discarded
     Please, verify this is what you really want

  @ DRIVER MODE: Connecting to
 qe_1139763_3255130.sched-torque.pace.gatech.eduzy9r0oxn_scratch
  using UNIX socket
  @ DRIVER MODE: Message from server: STATUS
  @ DRIVER MODE: Message from server: INIT
  @ DRIVER MODE: Receiving replica           0          -1
  @ DRIVER MODE: Receiving encoded integer          25
  @ DRIVER MODE:  SCF:  T  FORCE:  T  STRESS:  F  VC:  F  ENSEMBLE:  F
  @ DRIVER MODE:  SCF:  T  FORCE:  T  STRESS:  F  VC:  F  ENSEMBLE:  F

     Using Slab Decomposition

     bravais-lattice index     =            0
     lattice parameter (alat)  =       1.8897  a.u.
     unit-cell volume          =    9988.4706 (a.u.)^3
     number of atoms/cell      =           57
     number of atomic types    =            4
     number of electrons       =       438.00
     number of Kohn-Sham states=          229
     kinetic-energy cutoff     =      29.3995  Ry
     charge density cutoff     =     293.9946  Ry
     scf convergence threshold =      7.3E-08
     mixing beta               =       0.0500
     number of iterations used =            8  plain     mixing
     Exchange-correlation= BEEF-VDW
                           (   1   4  43  14   2   0   0)

     celldm(1)=   1.889726  celldm(2)=   0.000000  celldm(3)=   0.000000
     celldm(4)=   0.000000  celldm(5)=   0.000000  celldm(6)=   0.000000

     crystal axes: (cart. coord. in units of alat)
               a(1) = (   6.579727   0.000000   0.000000 )
               a(2) = (  -0.001163   8.942395   0.000000 )
               a(3) = (   0.000000   0.000000  25.155947 )

     reciprocal axes: (cart. coord. in units 2 pi/alat)
               b(1) = (  0.151982  0.000020  0.000000 )
               b(2) = (  0.000000  0.111827  0.000000 )
               b(3) = (  0.000000  0.000000  0.039752 )

     PseudoPot. # 1 for O  read from file:
     /storage/coda1/p-amedford6/0/shared/rich_project_chbe-medford/medford-share/data/pseudos_module/espresso/nninc/pbe/van/O.UPF
     MD5 check sum: 78c19812648e8988a0fe644b0f25305e
     Pseudo is Ultrasoft, Zval =  6.0
     Generated by new atomic code, or converted to UPF format
     Using radial grid of  737 points,  4 beta functions with:
                l(1) =   0
                l(2) =   0
                l(3) =   1
                l(4) =   1
     Q(r) pseudized with  8 coefficients,  rinner =    0.800   0.800   0.800

     PseudoPot. # 2 for Ti read from file:
     /storage/coda1/p-amedford6/0/shared/rich_project_chbe-medford/medford-share/data/pseudos_module/espresso/nninc/pbe/van/Ti.UPF
     MD5 check sum: 8e4df49b7f0d34bbd5052bf3f5ea0213
     Pseudo is Ultrasoft, Zval = 12.0
     Generated by new atomic code, or converted to UPF format
     Using radial grid of  851 points,  6 beta functions with:
                l(1) =   0
                l(2) =   0
                l(3) =   1
                l(4) =   1
                l(5) =   2
                l(6) =   2
     Q(r) pseudized with  8 coefficients,  rinner =    1.000   1.000   1.000
                                                       1.000   1.000

     PseudoPot. # 3 for H  read from file:
     /storage/coda1/p-amedford6/0/shared/rich_project_chbe-medford/medford-share/data/pseudos_module/espresso/nninc/pbe/van/H.UPF
     MD5 check sum: b5ee9d7bfd3a09ee7748110bda690ff7
     Pseudo is Ultrasoft, Zval =  1.0
     Generated by new atomic code, or converted to UPF format
     Using radial grid of  615 points,  1 beta functions with:
                l(1) =   0
     Q(r) pseudized with  8 coefficients,  rinner =    0.800

     PseudoPot. # 4 for N  read from file:
     /storage/coda1/p-amedford6/0/shared/rich_project_chbe-medford/medford-share/data/pseudos_module/espresso/nninc/pbe/van/N.UPF
     MD5 check sum: 90d10febe142ad51ac9d5be1deb811c4
     Pseudo is Ultrasoft, Zval =  5.0
     Generated by new atomic code, or converted to UPF format
     Using radial grid of  729 points,  4 beta functions with:
                l(1) =   0
                l(2) =   0
                l(3) =   1
                l(4) =   1
     Q(r) pseudized with  8 coefficients,  rinner =    0.800   0.800   0.800

     atomic species   valence    mass     pseudopotential
        O1             6.00    15.99900     O ( 1.00)
        Ti1           12.00    47.86700     Ti( 1.00)
        H1             1.00     1.00800     H ( 1.00)
        N1             5.00    14.00700     N ( 1.00)

     No symmetry found

   Cartesian axes

     site n.     atom                  positions (alat units)
         1           O1  tau(   1) = (   0.0007354   0.0005023  10.5931620  )
         2           O1  tau(   2) = (   3.3150156   8.9360210  13.9574341  )
         3           O1  tau(   3) = (   6.5771809   0.1322222  17.3752006  )
         4           O1  tau(   4) = (   0.0006271   0.0005054   7.9858123  )
         5           O1  tau(   5) = (   3.2854428   8.9395983  11.2048121  )
         6           O1  tau(   6) = (   6.5534721   0.0059909  14.6304568  )
         7           O1  tau(   7) = (   1.9868534   1.4903216   9.2879459  )
         8           O1  tau(   8) = (   5.2434221   1.6171961  12.5999149  )
         9           O1  tau(   9) = (   1.9662201   1.5518754  16.1237639  )
        10           Ti1 tau(  10) = (   0.0007404   1.4906270   9.2895810  )
        11           Ti1 tau(  11) = (   3.2893977   1.3594553  12.5356033  )
        12           Ti1 tau(  12) = (   0.0178951   1.3769434  15.7441411  )
        13           O1  tau(  13) = (   4.5942328   1.4918067   9.2879030  )
        14           O1  tau(  14) = (   1.3385959   1.6247007  12.6234478  )
        15           O1  tau(  15) = (   4.5909775   1.5586907  16.1788856  )
        16           Ti1 tau(  16) = (   3.2902859   2.9801868   9.2893338  )
        17           Ti1 tau(  17) = (   6.5767353   2.8476438  12.4354253  )
        18           Ti1 tau(  18) = (   3.2855622   3.0003959  15.7804328  )
        19           O1  tau(  19) = (   0.0003479   2.9813005  10.5931620  )
        20           O1  tau(  20) = (   3.3036998   2.9877085  13.9702655  )
        21           O1  tau(  21) = (   0.0002396   2.9813036   7.9858123  )
        22           O1  tau(  22) = (   3.2849372   2.9737507  11.2063419  )
        23           O1  tau(  23) = (   6.5394694   3.0167582  14.8135819  )
        24           O1  tau(  24) = (   1.9864658   4.4711199   9.2879459  )
        25           O1  tau(  25) = (   5.2427600   4.5794291  12.6037842  )
        26           O1  tau(  26) = (   1.9458942   4.4597853  16.1214517  )
        27           Ti1 tau(  27) = (   0.0003529   4.4714252   9.2895810  )
        28           Ti1 tau(  28) = (   3.2810590   4.3307370  12.5385870  )
        29           Ti1 tau(  29) = (   6.5544800   4.6619433  15.7291082  )
        30           O1  tau(  30) = (   4.5938453   4.4726049   9.2879030  )
        31           O1  tau(  31) = (   1.3254974   4.5864429  12.6215760  )
        32           O1  tau(  32) = (   4.5799584   4.4820416  16.1880388  )
        33           Ti1 tau(  33) = (   3.2898983   5.9609850   9.2893338  )
        34           Ti1 tau(  34) = (   6.5675573   5.8255355  12.4420054  )
        35           Ti1 tau(  35) = (   3.2444431   5.9917870  15.7690220  )
        36           O1  tau(  36) = (  -0.0000397   5.9620987  10.5931620  )
        37           O1  tau(  37) = (   3.2928066   5.9693490  13.9649938  )
        38           O1  tau(  38) = (   6.5603845   5.9023223  17.3786232  )
        39           O1  tau(  39) = (  -0.0001480   5.9621018   7.9858123  )
        40           O1  tau(  40) = (   3.2839194   5.9454927  11.2056182  )
        41           O1  tau(  41) = (   6.5420590   6.0665053  14.6296390  )
        42           O1  tau(  42) = (   1.9860782   7.4519181   9.2879459  )
        43           O1  tau(  43) = (   5.2396418   7.5574700  12.5673505  )
        44           O1  tau(  44) = (   1.9576089   7.5211923  16.0792554  )
        45           Ti1 tau(  45) = (  -0.0000347   7.4522234   9.2895810  )
        46           Ti1 tau(  46) = (   3.2826699   7.3152331  12.5262848  )
        47           Ti1 tau(  47) = (   0.0069763   7.4761561  16.0760502  )
        48           O1  tau(  48) = (   4.5934577   7.4534031   9.2879030  )
        49           O1  tau(  49) = (   1.3370172   7.5712087  12.5877691  )
        50           O1  tau(  50) = (   4.5576284   7.4668559  16.1934357  )
        51           Ti1 tau(  51) = (   3.2895107   8.9417832   9.2893338  )
        52           Ti1 tau(  52) = (   6.5702701   8.7900240  12.4479541  )
        53           Ti1 tau(  53) = (   3.3076380   0.0053799  15.7629688  )
        54           H1  tau(  54) = (   5.7681615   5.8474147  17.9227380  )
        55           H1  tau(  55) = (   5.8019348   0.2260023  17.9463436  )
        56           N1  tau(  56) = (   6.2964029   3.7918275  19.8857669  )
        57           N1  tau(  57) = (   6.3580303   2.9648886  19.1553858  )

     number of k points=    10  Fermi-Dirac smearing, width (Ry)=  0.0073
                       cart. coord. in units 2pi/alat
        k(    1) = (   0.0000000   0.0000000   0.0000000), wk =   0.1250000
        k(    2) = (   0.0000000   0.0279567   0.0000000), wk =   0.2500000
        k(    3) = (   0.0000000  -0.0559134   0.0000000), wk =   0.1250000
        k(    4) = (   0.0379955   0.0000049   0.0000000), wk =   0.2500000
        k(    5) = (   0.0379955   0.0279617   0.0000000), wk =   0.2500000
        k(    6) = (   0.0379955  -0.0559085   0.0000000), wk =   0.2500000
        k(    7) = (   0.0379955  -0.0279518   0.0000000), wk =   0.2500000
        k(    8) = (  -0.0759910  -0.0000099   0.0000000), wk =   0.1250000
        k(    9) = (  -0.0759910   0.0279468   0.0000000), wk =   0.2500000
        k(   10) = (  -0.0759910  -0.0559233   0.0000000), wk =   0.1250000

     Initial potential from superposition of free atoms

     starting charge  419.99912, renormalised to  438.00000

     negative rho (up, down):  3.691E-02 0.000E+00

     %%%%%%%%%%%%%%%%%%%%%%%%%%%%%%%%%%%%%%%%%%%%%%%%%%%%%%%%%%%%%%%%%%%%%%%%
     %                                                                      %
     % You are using vdW-DF, which was implemented by the Thonhauser group. %
     % Please cite the following two papers that made this development      %
     % possible and the two reviews that describe the various versions:     %
     %                                                                      %
     %   T. Thonhauser et al., PRL 115, 136402 (2015).                      %
     %   T. Thonhauser et al., PRB 76, 125112 (2007).                       %
     %   K. Berland et al., Rep. Prog. Phys. 78, 066501 (2015).             %
     %   D.C. Langreth et al., J. Phys.: Condens. Matter 21, 084203 (2009). %
     %                                                                      %
     %                                                                      %
     % If you are calculating the stress with vdW-DF, please also cite:     %
     %                                                                      %
     %   R. Sabatini et al., J. Phys.: Condens. Matter 24, 424209 (2012).   %
     %                                                                      %
     %%%%%%%%%%%%%%%%%%%%%%%%%%%%%%%%%%%%%%%%%%%%%%%%%%%%%%%%%%%%%%%%%%%%%%%%

     Adding external electric field

     Computed dipole along edir(3) :
        Dipole               -6.4262 Ry au,        -16.3338 Debye
        Dipole field         -0.0081 Ry au,

        Potential amp.        0.7494 Ry
        Total length         46.3494 bohr

     Starting wfcs are  330 atomic wfcs
  @ DRIVER MODE: Message from server: STATUS
  @ DRIVER MODE: Message from server: POSDATA
  @ DRIVER MODE: Reading and sharing cell
  @ DRIVER MODE: Reading and sharing positions
  @ DRIVER MODE: Received positions

     Self-consistent Calculation

     iteration #  1     ecut=    29.40 Ry     beta= 0.05
     Davidson diagonalization with overlap
     c_bands:  2 eigenvalues not converged
     c_bands:  2 eigenvalues not converged
     c_bands:  5 eigenvalues not converged
     c_bands:  2 eigenvalues not converged
     c_bands:  4 eigenvalues not converged
     c_bands:  4 eigenvalues not converged
     c_bands:  3 eigenvalues not converged
     c_bands:  4 eigenvalues not converged
     c_bands:  4 eigenvalues not converged
     ethr =  1.00E-05,  avg # of iterations = 20.7

[...]

     total energy              =   -3267.20586296 Ry
     estimated scf accuracy    <     306.72067602 Ry

[...]

     iteration #  3     ecut=    29.40 Ry     beta= 0.05
     Davidson diagonalization with overlap
     ethr =  1.00E-02,  avg # of iterations = 12.6

[...]

     iteration # 42     ecut=    29.40 Ry     beta= 0.05
     Davidson diagonalization with overlap
     ethr =  8.11E-10,  avg # of iterations =  2.7

[...]

     total energy              =   -3290.82345959 Ry
     estimated scf accuracy    <       0.00000014 Ry

     iteration # 51     ecut=    29.40 Ry     beta= 0.05
     Davidson diagonalization with overlap
     c_bands:  1 eigenvalues not converged
     ethr =  3.19E-11,  avg # of iterations = 15.6

     negative rho (up, down):  3.511E-02 0.000E+00

     Adding external electric field

     Computed dipole along edir(3) :
        Dipole                1.4913 Ry au,          3.7905 Debye
        Dipole field          0.0019 Ry au,

        Potential amp.       -0.1739 Ry
        Total length         46.3494 bohr

     End of self-consistent calculation

          k = 0.0000 0.0000 0.0000 ( 26871 PWs)   bands (ev):

   -57.5971 -57.5720 -57.5706 -57.5069 -57.4846 -57.4673 -57.4424 -57.4401
   -57.4210 -57.4155 -57.3991 -57.3879 -57.3801 -57.3572 -57.3532 -56.7237
   -56.6999 -56.6939 -33.9891 -33.9873 -33.9705 -33.9664 -33.9462 -33.9332
   -33.9159 -33.9039 -33.9002 -33.8931 -33.8906 -33.8782 -33.8461 -33.8385
   -33.8208 -33.7952 -33.7665 -33.7427 -33.7378 -33.7360 -33.7225 -33.7191
   -33.7160 -33.7095 -33.6992 -33.6986 -33.6948 -33.6940 -33.6746 -33.6683
   -33.6414 -33.6382 -33.6336 -33.6297 -33.6236 -33.6164 -33.6019 -33.5990
   -33.5844 -33.5623 -33.5367 -33.5332 -33.5280 -33.4979 -33.4835 -33.0441
   -33.0360 -33.0298 -33.0145 -33.0094 -32.9540 -32.8926 -32.8857 -32.7530
   -23.7116 -19.5627 -19.4056 -18.4830 -18.1121 -17.9402 -17.9283 -17.9057
   -17.8717 -17.7276 -17.7017 -17.6580 -17.6284 -17.6119 -17.4626 -17.4430
   -17.4263 -17.4235 -17.3766 -17.3718 -17.3655 -17.3363 -17.3295 -17.3178
   -17.2944 -17.2668 -17.1664 -17.1475 -17.1423 -17.1097 -17.0708 -17.0690
   -16.7646 -15.1880 -15.1282 -15.1235  -8.9442  -7.2173  -7.0787  -6.8482
    -6.8387  -5.8040  -5.6737  -5.6127  -5.5610  -5.4292  -5.1326  -5.0938
    -5.0596  -5.0394  -5.0227  -4.9699  -4.9187  -4.9101  -4.8917  -4.8617
    -4.8555  -4.7920  -4.7740  -4.7594  -4.6693  -4.6336  -4.6264  -4.5915
    -4.5694  -4.5051  -4.4935  -4.4732  -4.4358  -4.4273  -4.4009  -4.3839
    -4.2701  -4.1592  -4.1386  -4.0952  -4.0777  -3.9670  -3.9513  -3.9156
    -3.8948  -3.8348  -3.7982  -3.7771  -3.7603  -3.6919  -3.6383  -3.6144
    -3.5769  -3.5227  -3.4721  -3.4497  -3.4286  -3.4116  -3.3527  -3.2963
    -3.2611  -3.1935  -3.1436  -3.0552  -3.0502  -2.9636  -2.9129  -2.7818
    -2.7449  -2.6859  -2.6683  -2.6192  -2.5984  -2.4522  -2.4390  -2.4234
    -2.4201  -2.3862  -2.3317  -2.3113  -2.3088  -2.2872  -2.2583  -2.2103
    -2.1926  -2.1258  -2.0850  -2.0612  -2.0458  -2.0120  -1.9492  -1.9225
    -1.8428  -1.7825  -1.7613  -1.6655  -1.5512  -1.5338  -1.5334  -1.4209
    -1.3971  -1.0236  -0.7969  -0.4994  -0.4340  -0.4319  -0.1472  -0.1420
    -0.0036   1.3406   1.4140   1.5849   1.6082   1.6737   1.8141   1.8375
     1.9171   1.9563   1.9743   1.9873   1.9951

[...]

          k = 0.0380-0.0280 0.0000 ( 26873 PWs)   bands (ev):

[...]

          k =-0.0760-0.0000 0.0000 ( 26902 PWs)   bands (ev):

[...]

          k =-0.0760-0.0559 0.0000 ( 26868 PWs)   bands (ev):

   -57.5892 -57.5877 -57.5628 -57.5033 -57.4905 -57.4646 -57.4385 -57.4384
   -57.4269 -57.4189 -57.3968 -57.3862 -57.3739 -57.3701 -57.3469 -56.7179
   -56.7115 -56.6881 -34.0824 -34.0293 -33.9855 -33.9717 -33.9514 -33.9284
   -33.9124 -33.9085 -33.9059 -33.8871 -33.8638 -33.8206 -33.8120 -33.7973
   -33.7951 -33.7497 -33.7400 -33.7382 -33.7375 -33.7256 -33.7198 -33.7070
   -33.7059 -33.6854 -33.6767 -33.6740 -33.6708 -33.6704 -33.6671 -33.6640
   -33.6617 -33.6583 -33.6540 -33.6433 -33.6376 -33.6317 -33.6231 -33.6029
   -33.5821 -33.5768 -33.5739 -33.5628 -33.5606 -33.5128 -33.4975 -33.1316
   -33.0314 -33.0258 -33.0033 -32.9361 -32.9289 -32.8678 -32.8535 -32.8463
   -23.7116 -19.5477 -19.4102 -18.1345 -18.1012 -17.9818 -17.9191 -17.7990
   -17.7819 -17.7017 -17.6887 -17.6799 -17.6445 -17.6065 -17.5672 -17.5516
   -17.4743 -17.4442 -17.4181 -17.4068 -17.3970 -17.3903 -17.3836 -17.3689
   -17.2631 -17.2609 -17.2562 -17.2260 -17.1584 -17.1048 -17.0522 -17.0367
   -16.7969 -15.1855 -15.1801 -15.0646  -8.9441  -7.2573  -7.0533  -6.8490
    -6.8426  -5.6505  -5.4029  -5.3412  -5.3196  -5.2722  -5.1721  -5.1040
    -5.0612  -5.0034  -4.9433  -4.8919  -4.8592  -4.7955  -4.7818  -4.7692
    -4.7581  -4.7088  -4.6686  -4.6517  -4.6373  -4.6217  -4.6052  -4.5770
    -4.5665  -4.5348  -4.4678  -4.4288  -4.3405  -4.3322  -4.3015  -4.2650
    -4.2400  -4.2192  -4.1610  -4.1457  -4.1167  -4.0924  -3.9732  -3.8568
    -3.8423  -3.8070  -3.8009  -3.7708  -3.7320  -3.7258  -3.6244  -3.5489
    -3.4124  -3.3859  -3.3826  -3.3698  -3.3496  -3.2818  -3.2721  -3.2364
    -3.2039  -3.1893  -3.1683  -3.1138  -3.0860  -3.0072  -2.9752  -2.9176
    -2.8641  -2.8316  -2.7731  -2.7623  -2.7396  -2.7286  -2.7239  -2.7122
    -2.6924  -2.6458  -2.6362  -2.4872  -2.4529  -2.4507  -2.4343  -2.3241
    -2.3061  -2.2077  -2.1991  -2.1649  -2.1536  -2.0652  -2.0466  -1.9393
    -1.9194  -1.8608  -1.8136  -1.7649  -1.4522  -1.4408  -1.4123  -1.3794
    -1.2935  -1.2870  -1.0367  -0.6348  -0.3758  -0.3563  -0.3107  -0.1390
    -0.1371   1.4664   1.5333   1.5579   1.5754   1.6734   1.6861   1.7112
     1.7269   1.7638   1.7763   1.8816   1.9459

     the Fermi energy is     1.4852 ev

!    total energy              =   -3290.82354784 Ry
     estimated scf accuracy    <       0.00000007 Ry
     smearing contrib. (-TS)   =      -0.05469311 Ry
     internal energy E=F+TS    =   -3290.76885473 Ry

     The total energy is F=E-TS. E is the sum of the following terms:
     one-electron contribution =  -33576.18400511 Ry
     hartree contribution      =   16851.76011266 Ry
     xc contribution           =    -540.39991262 Ry
     ewald contribution        =   13974.05215235 Ry
     electric field correction =       0.00279799 Ry

     convergence has been achieved in  51 iterations

     Forces acting on atoms (cartesian axes, Ry/au):

     atom    1 type  1   force =     0.00049281    0.00768055    0.05386838
     atom    2 type  1   force =     0.00022878    0.00347710    0.00201177
     atom    3 type  1   force =    -0.00217770   -0.00161736   -0.00186911
     atom    4 type  1   force =     0.00004373    0.00062956    0.10810140
     atom    5 type  1   force =     0.00011911   -0.00051901    0.01007974
     atom    6 type  1   force =    -0.00051148   -0.00867533   -0.00246093
     atom    7 type  1   force =     0.06411731    0.00023326   -0.02868444
     atom    8 type  1   force =     0.00332819   -0.02901185    0.00414348
     atom    9 type  1   force =     0.01267121   -0.00963076   -0.00139868
     atom   10 type  2   force =     0.00006198   -0.00637437   -0.19200980
     atom   11 type  2   force =    -0.00025019    0.01996178   -0.01154133
     atom   12 type  2   force =    -0.00129247    0.01559212    0.01043013
     atom   13 type  1   force =    -0.06424983   -0.00019854   -0.02810436
     atom   14 type  1   force =    -0.00398872   -0.02855361    0.00377633
     atom   15 type  1   force =    -0.01070851   -0.01192204    0.00080839
     atom   16 type  2   force =    -0.00027647   -0.00085616    0.07231675
     atom   17 type  2   force =     0.00033125    0.03631372    0.00478458
     atom   18 type  2   force =    -0.00027962    0.00079941   -0.00725715
     atom   19 type  1   force =     0.00076789    0.00327106    0.05938739
     atom   20 type  1   force =    -0.00031317    0.00182726   -0.00317773
     atom   21 type  1   force =     0.00006615    0.00073741    0.10923213
     atom   22 type  1   force =     0.00005691   -0.00032225    0.01009643
     atom   23 type  1   force =    -0.00004510    0.00083493    0.00150682
     atom   24 type  1   force =     0.06378919   -0.00057955   -0.02865162
     atom   25 type  1   force =     0.00305696   -0.02881749    0.00379579
     atom   26 type  1   force =     0.01001268    0.01241353    0.00068303
     atom   27 type  2   force =     0.00003546    0.00225230   -0.19417827
     atom   28 type  2   force =     0.00014167    0.01853016   -0.01071388
     atom   29 type  2   force =     0.00032597   -0.01708276    0.00877328
     atom   30 type  1   force =    -0.06394810   -0.00100904   -0.02802398
     atom   31 type  1   force =    -0.00268261   -0.02913830    0.00377094
     atom   32 type  1   force =    -0.01227417    0.00764289   -0.00155140
     atom   33 type  2   force =    -0.00026539   -0.00103447    0.07252753
     atom   34 type  2   force =    -0.00010641    0.03449789    0.00417828
     atom   35 type  2   force =     0.00277405   -0.01384278   -0.00298904
     atom   36 type  1   force =     0.00026447    0.00299958    0.05371240
     atom   37 type  1   force =    -0.00022560    0.00129988    0.00204809
     atom   38 type  1   force =     0.00831221    0.00150994   -0.00730489
     atom   39 type  1   force =     0.00007676   -0.00111653    0.10847629
     atom   40 type  1   force =     0.00000127   -0.00028296    0.00992472
     atom   41 type  1   force =     0.00094118    0.00809147   -0.00132220
     atom   42 type  1   force =     0.06452784   -0.00059681   -0.02831326
     atom   43 type  1   force =     0.00210600   -0.02819402    0.00290807
     atom   44 type  1   force =     0.01351716   -0.00753758    0.00866446
     atom   45 type  2   force =     0.00016010    0.00153494   -0.18905030
     atom   46 type  2   force =    -0.00007183    0.01914653   -0.01213974
     atom   47 type  2   force =     0.00051728    0.00416764   -0.00969772
     atom   48 type  1   force =    -0.06469914   -0.00108507   -0.02775253
     atom   49 type  1   force =    -0.00262679   -0.02847416    0.00284848
     atom   50 type  1   force =    -0.01357272    0.00189509    0.00429233
     atom   51 type  2   force =    -0.00025892   -0.00041283    0.07291631
     atom   52 type  2   force =     0.00057176    0.03496195    0.00442995
     atom   53 type  2   force =    -0.00221689    0.01516274   -0.00245308
     atom   54 type  3   force =    -0.00745298   -0.00041508    0.00574020
     atom   55 type  3   force =     0.00095806   -0.00009833   -0.00039340
     atom   56 type  4   force =     0.00019460   -0.00273970   -0.00053030
     atom   57 type  4   force =    -0.00007516    0.00267401    0.00133524

     Total force =     0.463066     Total SCF correction =     0.000757
  @ DRIVER MODE: Message from server: STATUS
  @ DRIVER MODE: Message from server: GETFORCE
  @ DRIVER MODE: Returning v,forces,stress,ensemble

     Writing output data file ./calc.save/
  @ DRIVER MODE: Message from server: EXIT
  @ DRIVE MODE: Exiting

     General routines

     Parallel routines

   This run was terminated on:  14:40:46  18Oct2021

   JOB DONE.