     Program PWSCF v.6.7GPU starts on 22Sep2021 at 12:38: 7

     R & G space division:  proc/nbgrp/npool/nimage =      10
     Reading input from /storage/home/hcoda1/3/ntian30/research/carbon/CxH_vib/CH_calc/ads_slab/CHN2OH_a/out_0006/pw.inp
Warning: card &CELL ignored
Warning: card   CELL_DYNAMICS='IPI', ignored
Warning: card / ignored

     Current dimensions of program PWSCF are:
     Max number of different atomic species (ntypx) = 10
     Max number of k-points (npk) =  40000
     Max angular momentum in pseudopotentials (lmaxx) =  3
     Presently no symmetry can be used with electric field

     Message from routine cell_base_init:
     DEPRECATED: use true lattice parameter, not A to a.u. conversion factor

     IMPORTANT: XC functional enforced from input :
     Exchange-correlation= BEEF-VDW
                           (   1   4  43  14   2   0   0)
     Any further DFT definition will be discarded
     Please, verify this is what you really want

  @ DRIVER MODE: Connecting to
 qe_1139763_2934093.sched-torque.pace.gatech.edufughpisw_scratch
  using UNIX socket
  @ DRIVER MODE: Message from server: STATUS
  @ DRIVER MODE: Message from server: INIT
  @ DRIVER MODE: Receiving replica           0          -1
  @ DRIVER MODE: Receiving encoded integer          25
  @ DRIVER MODE:  SCF:  T  FORCE:  T  STRESS:  F  VC:  F  ENSEMBLE:  F
  @ DRIVER MODE:  SCF:  T  FORCE:  T  STRESS:  F  VC:  F  ENSEMBLE:  F

     Using Slab Decomposition

     bravais-lattice index     =            0
     lattice parameter (alat)  =       1.8897  a.u.
     unit-cell volume          =    6658.9804 (a.u.)^3
     number of atoms/cell      =           53
     number of atomic types    =            5
     number of electrons       =       400.00
     number of Kohn-Sham states=          210
     kinetic-energy cutoff     =      29.3995  Ry
     charge density cutoff     =     293.9946  Ry
     scf convergence threshold =      7.3E-08
     mixing beta               =       0.0500
     number of iterations used =            8  plain     mixing
     Exchange-correlation= BEEF-VDW
                           (   1   4  43  14   2   0   0)

     celldm(1)=   1.889726  celldm(2)=   0.000000  celldm(3)=   0.000000
     celldm(4)=   0.000000  celldm(5)=   0.000000  celldm(6)=   0.000000

     crystal axes: (cart. coord. in units of alat)
               a(1) = (   6.579727   0.000000   0.000000 )
               a(2) = (  -0.000775   5.961596   0.000000 )
               a(3) = (   0.000000   0.000000  25.155947 )

     reciprocal axes: (cart. coord. in units 2 pi/alat)
               b(1) = (  0.151982  0.000020  0.000000 )
               b(2) = (  0.000000  0.167740  0.000000 )
               b(3) = (  0.000000  0.000000  0.039752 )

     PseudoPot. # 1 for Ti read from file:
     /storage/coda1/p-amedford6/0/shared/rich_project_chbe-medford/medford-share/data/pseudos_module/espresso/nninc/pbe/van/Ti.UPF
     MD5 check sum: 8e4df49b7f0d34bbd5052bf3f5ea0213
     Pseudo is Ultrasoft, Zval = 12.0
     Generated by new atomic code, or converted to UPF format
     Using radial grid of  851 points,  6 beta functions with:
                l(1) =   0
                l(2) =   0
                l(3) =   1
                l(4) =   1
                l(5) =   2
                l(6) =   2
     Q(r) pseudized with  8 coefficients,  rinner =    1.000   1.000   1.000
                                                       1.000   1.000

     PseudoPot. # 2 for O  read from file:
     /storage/coda1/p-amedford6/0/shared/rich_project_chbe-medford/medford-share/data/pseudos_module/espresso/nninc/pbe/van/O.UPF
     MD5 check sum: 78c19812648e8988a0fe644b0f25305e
     Pseudo is Ultrasoft, Zval =  6.0
     Generated by new atomic code, or converted to UPF format
     Using radial grid of  737 points,  4 beta functions with:
                l(1) =   0
                l(2) =   0
                l(3) =   1
                l(4) =   1
     Q(r) pseudized with  8 coefficients,  rinner =    0.800   0.800   0.800

     PseudoPot. # 3 for N  read from file:
     /storage/coda1/p-amedford6/0/shared/rich_project_chbe-medford/medford-share/data/pseudos_module/espresso/nninc/pbe/van/N.UPF
     MD5 check sum: 90d10febe142ad51ac9d5be1deb811c4
     Pseudo is Ultrasoft, Zval =  5.0
     Generated by new atomic code, or converted to UPF format
     Using radial grid of  729 points,  4 beta functions with:
                l(1) =   0
                l(2) =   0
                l(3) =   1
                l(4) =   1
     Q(r) pseudized with  8 coefficients,  rinner =    0.800   0.800   0.800

     PseudoPot. # 4 for C  read from file:
     /storage/coda1/p-amedford6/0/shared/rich_project_chbe-medford/medford-share/data/pseudos_module/espresso/nninc/pbe/van/C.UPF
     MD5 check sum: 1a69bf6b8db32088f5b2163dbdb77a27
     Pseudo is Ultrasoft, Zval =  4.0
     Generated by new atomic code, or converted to UPF format
     Using radial grid of  721 points,  4 beta functions with:
                l(1) =   0
                l(2) =   0
                l(3) =   1
                l(4) =   1
     Q(r) pseudized with  8 coefficients,  rinner =    0.800   0.800   0.800

     PseudoPot. # 5 for H  read from file:
     /storage/coda1/p-amedford6/0/shared/rich_project_chbe-medford/medford-share/data/pseudos_module/espresso/nninc/pbe/van/H.UPF
     MD5 check sum: b5ee9d7bfd3a09ee7748110bda690ff7
     Pseudo is Ultrasoft, Zval =  1.0
     Generated by new atomic code, or converted to UPF format
     Using radial grid of  615 points,  1 beta functions with:
                l(1) =   0
     Q(r) pseudized with  8 coefficients,  rinner =    0.800

     atomic species   valence    mass     pseudopotential
        Ti1           12.00    47.86700     Ti( 1.00)
        O1             6.00    15.99900     O ( 1.00)
        N1             5.00    14.00700     N ( 1.00)
        C1             4.00    12.01100     C ( 1.00)
        H1             1.00     1.00800     H ( 1.00)

     No symmetry found

   Cartesian axes

     site n.     atom                  positions (alat units)
         1           Ti1 tau(   1) = (   0.0004258   2.9801865   6.0000000  )
         2           Ti1 tau(   2) = (   3.2906075   1.4906267   6.0002472  )
         3           O1  tau(   3) = (   0.0006271   0.0005054   7.9858123  )
         4           O1  tau(   4) = (   3.2906025   0.0005020   7.3038282  )
         5           O1  tau(   5) = (   4.5942328   1.4918067   9.2879030  )
         6           O1  tau(   6) = (   1.9868534   1.4903216   9.2879459  )
         7           Ti1 tau(   7) = (   3.2907910   2.8959150   9.1758416  )
         8           Ti1 tau(   8) = (   0.0015273   1.4827037   9.2680791  )
         9           O1  tau(   9) = (   3.2947431   5.9554071  11.2675382  )
        10           O1  tau(  10) = (   0.0116148   5.9584955  10.6183126  )
        11           O1  tau(  11) = (   1.2939190   1.5012022  12.6324650  )
        12           O1  tau(  12) = (   5.3075194   1.4952059  12.6199201  )
        13           Ti1 tau(  13) = (   0.0106221   2.8553259  12.7114016  )
        14           Ti1 tau(  14) = (   3.3038960   1.3182849  12.6556579  )
        15           O1  tau(  15) = (   6.5780848   0.0092190  14.6493773  )
        16           O1  tau(  16) = (   3.3025004   0.0387551  13.8658611  )
        17           O1  tau(  17) = (   4.5583283   1.5306594  16.0644060  )
        18           O1  tau(  18) = (   2.0361898   1.5392772  16.0217891  )
        19           Ti1 tau(  19) = (   3.3091865   3.0111069  15.6373089  )
        20           Ti1 tau(  20) = (   0.0377650   1.3505479  16.0707495  )
        21           O1  tau(  21) = (   3.2904802   0.0005063   4.7018136  )
        22           O1  tau(  22) = (   0.0439016   5.9493915  17.1867805  )
        23           O1  tau(  23) = (   1.3043587   1.4918075   6.0039043  )
        24           O1  tau(  24) = (   5.2767064   1.4903225   6.0039473  )
        25           Ti1 tau(  25) = (   0.0000382   5.9609847   6.0000000  )
        26           Ti1 tau(  26) = (   3.2902200   4.4714249   6.0002472  )
        27           O1  tau(  27) = (   0.0002396   2.9813036   7.9858123  )
        28           O1  tau(  28) = (   3.2902150   2.9813002   7.3038282  )
        29           O1  tau(  29) = (   4.5938453   4.4726049   9.2879030  )
        30           O1  tau(  30) = (   1.9864658   4.4711199   9.2879459  )
        31           Ti1 tau(  31) = (   3.2891106   5.8743827   9.1763621  )
        32           Ti1 tau(  32) = (   0.0006254   4.4649316   9.2693709  )
        33           O1  tau(  33) = (   3.2958776   3.0336607  11.2353185  )
        34           O1  tau(  34) = (   0.0092240   2.9805883  10.6323155  )
        35           O1  tau(  35) = (   1.3000586   4.4853303  12.6229424  )
        36           O1  tau(  36) = (   5.2993189   4.4901910  12.6110906  )
        37           Ti1 tau(  37) = (   0.0093010   5.8444503  12.6145921  )
        38           Ti1 tau(  38) = (   3.2999333   4.4129019  12.4053696  )
        39           O1  tau(  39) = (   6.5685983   3.0141634  14.6646344  )
        40           O1  tau(  40) = (   3.3157979   2.9893391  13.8470085  )
        41           O1  tau(  41) = (   4.5469136   4.4558096  16.0384726  )
        42           O1  tau(  42) = (   2.0285042   4.4377151  15.9822253  )
        43           Ti1 tau(  43) = (   3.3362675   0.0317196  16.2890182  )
        44           Ti1 tau(  44) = (   0.0499865   4.4862307  15.8577502  )
        45           O1  tau(  45) = (   3.2900926   2.9813045   4.7018136  )
        46           O1  tau(  46) = (   1.3039711   4.4726057   6.0039043  )
        47           O1  tau(  47) = (   5.2763189   4.4711207   6.0039473  )
        48           N1  tau(  48) = (   0.0045878   3.1533891  18.6064175  )
        49           N1  tau(  49) = (   0.0147781   3.0160983  17.3860304  )
        50           C1  tau(  50) = (   0.1535999   3.3096653  19.7680592  )
        51           H1  tau(  51) = (   6.1193577   3.4501394  20.6313668  )
        52           O1  tau(  52) = (   3.1701150   5.9596689  18.1025665  )
        53           H1  tau(  53) = (   2.2867615   0.0439400  18.5018857  )

     number of k points=    10  Fermi-Dirac smearing, width (Ry)=  0.0073
                       cart. coord. in units 2pi/alat
        k(    1) = (   0.0000000   0.0000000   0.0000000), wk =   0.1250000
        k(    2) = (   0.0000000   0.0419351   0.0000000), wk =   0.2500000
        k(    3) = (   0.0000000  -0.0838702   0.0000000), wk =   0.1250000
        k(    4) = (   0.0379955   0.0000049   0.0000000), wk =   0.2500000
        k(    5) = (   0.0379955   0.0419400   0.0000000), wk =   0.2500000
        k(    6) = (   0.0379955  -0.0838652   0.0000000), wk =   0.2500000
        k(    7) = (   0.0379955  -0.0419301   0.0000000), wk =   0.2500000
        k(    8) = (  -0.0759910  -0.0000099   0.0000000), wk =   0.1250000
        k(    9) = (  -0.0759910   0.0419252   0.0000000), wk =   0.2500000
        k(   10) = (  -0.0759910  -0.0838800   0.0000000), wk =   0.1250000

     Initial potential from superposition of free atoms

     starting charge  383.99917, renormalised to  400.00000

     negative rho (up, down):  1.460E-02 0.000E+00

     %%%%%%%%%%%%%%%%%%%%%%%%%%%%%%%%%%%%%%%%%%%%%%%%%%%%%%%%%%%%%%%%%%%%%%%%
     %                                                                      %
     % You are using vdW-DF, which was implemented by the Thonhauser group. %
     % Please cite the following two papers that made this development      %
     % possible and the two reviews that describe the various versions:     %
     %                                                                      %
     %   T. Thonhauser et al., PRL 115, 136402 (2015).                      %
     %   T. Thonhauser et al., PRB 76, 125112 (2007).                       %
     %   K. Berland et al., Rep. Prog. Phys. 78, 066501 (2015).             %
     %   D.C. Langreth et al., J. Phys.: Condens. Matter 21, 084203 (2009). %
     %                                                                      %
     %                                                                      %
     % If you are calculating the stress with vdW-DF, please also cite:     %
     %                                                                      %
     %   R. Sabatini et al., J. Phys.: Condens. Matter 24, 424209 (2012).   %
     %                                                                      %
     %%%%%%%%%%%%%%%%%%%%%%%%%%%%%%%%%%%%%%%%%%%%%%%%%%%%%%%%%%%%%%%%%%%%%%%%

     Adding external electric field

     Computed dipole along edir(3) :
        Dipole              -10.4190 Ry au,        -26.4825 Debye
        Dipole field         -0.0197 Ry au,

        Potential amp.        1.8227 Ry
        Total length         46.3494 bohr

     Starting wfcs are  302 atomic wfcs
  @ DRIVER MODE: Message from server: STATUS
  @ DRIVER MODE: Message from server: POSDATA
  @ DRIVER MODE: Reading and sharing cell
  @ DRIVER MODE: Reading and sharing positions
  @ DRIVER MODE: Received positions

     Self-consistent Calculation

     iteration #  1     ecut=    29.40 Ry     beta= 0.05
     Davidson diagonalization with overlap
     c_bands:  1 eigenvalues not converged
     c_bands:  2 eigenvalues not converged
     c_bands:  1 eigenvalues not converged
     c_bands:  1 eigenvalues not converged
     c_bands:  3 eigenvalues not converged
     c_bands:  2 eigenvalues not converged
     c_bands:  3 eigenvalues not converged
     c_bands:  2 eigenvalues not converged
     c_bands:  1 eigenvalues not converged
     c_bands:  2 eigenvalues not converged
     ethr =  1.00E-05,  avg # of iterations = 20.0

[...]

     total energy              =   -2487.09733356 Ry
     estimated scf accuracy    <    5380.90240605 Ry

     iteration #  2     ecut=    29.40 Ry     beta= 0.05
     Davidson diagonalization with overlap
     ethr =  1.00E-02,  avg # of iterations = 22.4

[...]

     iteration # 32     ecut=    29.40 Ry     beta= 0.05
     Davidson diagonalization with overlap
     c_bands:  1 eigenvalues not converged
     ethr =  2.82E-05,  avg # of iterations = 12.6

[...]

     total energy              =   -2970.22348311 Ry
     estimated scf accuracy    <       0.00000012 Ry

     iteration # 64     ecut=    29.40 Ry     beta= 0.05
     Davidson diagonalization with overlap
     ethr =  3.09E-11,  avg # of iterations =  5.0

     negative rho (up, down):  1.524E-02 0.000E+00

     Adding external electric field

     Computed dipole along edir(3) :
        Dipole                0.3270 Ry au,          0.8311 Debye
        Dipole field          0.0006 Ry au,

        Potential amp.       -0.0572 Ry
        Total length         46.3494 bohr

     End of self-consistent calculation

          k = 0.0000 0.0000 0.0000 ( 18029 PWs)   bands (ev):

   -56.8354 -56.8018 -55.9909 -55.9557 -55.7315 -55.6670 -55.4029 -55.3721
   -55.3690 -55.3543 -55.2919 -55.2406 -55.2336 -55.2240 -55.0466 -55.0343
   -33.2567 -33.1106 -33.0825 -33.0113 -32.9209 -32.8834 -32.4753 -32.2116
   -32.2094 -32.1808 -32.1318 -32.1298 -32.1011 -31.9631 -31.9510 -31.8987
   -31.8720 -31.8528 -31.8313 -31.7838 -31.7491 -31.7247 -31.7217 -31.7206
   -31.7012 -31.6373 -31.6352 -31.6085 -31.6023 -31.5894 -31.5826 -31.5273
   -31.5086 -31.4901 -31.4887 -31.4638 -31.4559 -31.4385 -31.4315 -31.4156
   -31.3984 -31.3789 -31.3071 -31.2902 -31.2855 -31.2557 -31.2521 -31.2390
   -18.9032 -16.9553 -16.4294 -16.1746 -16.1623 -16.0665 -16.0399 -16.0268
   -15.9412 -15.7534 -15.6894 -15.6168 -15.5890 -15.4958 -15.3759 -15.2794
   -15.1444 -15.0702 -15.0071 -15.0017 -14.9874 -14.9675 -14.8546 -14.8474
   -14.8420 -14.7982 -14.7588 -14.5977 -14.5059 -14.3460 -14.3155 -13.9005
   -13.7931 -13.6769  -6.3149  -5.0230  -4.5251  -3.9116  -3.9005  -3.8327
    -3.7283  -3.5591  -3.5450  -3.4247  -3.3647  -3.2365  -3.2289  -3.2127
    -3.1354  -3.1276  -2.9824  -2.9314  -2.9159  -2.8086  -2.7777  -2.6257
    -2.5962  -2.5026  -2.4524  -2.4186  -2.3664  -2.3365  -2.2610  -2.2545
    -2.2344  -2.1508  -2.1482  -2.1110  -2.0423  -2.0199  -1.9549  -1.9052
    -1.8731  -1.8076  -1.7793  -1.7104  -1.7075  -1.5813  -1.5069  -1.4634
    -1.4213  -1.4136  -1.3531  -1.2957  -1.1876  -1.1619  -1.0743  -1.0247
    -1.0101  -0.9618  -0.8717  -0.8450  -0.7753  -0.7037  -0.6903  -0.5973
    -0.5671  -0.5481  -0.4427  -0.4202  -0.3692  -0.3427  -0.3128  -0.2968
    -0.2210  -0.1031  -0.0899  -0.0246   0.0260   0.0545   0.1461   0.2364
     0.2860   0.3356   0.3670   0.3841   0.4595   0.4873   0.5094   0.5596
     0.5929   0.6186   0.6287   0.7318   0.7644   0.8250   0.8886   0.9016
     1.0140   1.0545   1.1115   1.1562   1.1968   1.5447   1.6192   1.8783
     2.4526   2.6195   2.8954   3.0303   3.3557   3.4391   3.4482   3.4537
     3.6947   3.8314

[...]

          k = 0.0380-0.0419 0.0000 ( 17876 PWs)   bands (ev):

[...]

          k =-0.0760-0.0000 0.0000 ( 17886 PWs)   bands (ev):

[...]

          k =-0.0760-0.0839 0.0000 ( 17948 PWs)   bands (ev):

   -56.8191 -56.8179 -55.9785 -55.9679 -55.7266 -55.6718 -55.3865 -55.3853
   -55.3682 -55.3528 -55.2956 -55.2391 -55.2319 -55.2256 -55.0479 -55.0356
   -33.0969 -33.0957 -33.0744 -33.0731 -32.9651 -32.9643 -32.3000 -32.2914
   -32.1735 -32.1614 -32.1586 -32.1516 -32.0338 -31.9900 -31.9565 -31.9473
   -31.8995 -31.8943 -31.7382 -31.7373 -31.6997 -31.6440 -31.6411 -31.6354
   -31.6254 -31.6156 -31.6072 -31.6055 -31.5921 -31.5871 -31.5726 -31.5684
   -31.5675 -31.5583 -31.5313 -31.5026 -31.4910 -31.4800 -31.4408 -31.4385
   -31.4300 -31.4235 -31.3955 -31.3593 -31.3118 -31.2731 -31.2597 -31.2417
   -18.9007 -16.3212 -16.3186 -16.2637 -16.2621 -16.1554 -16.0217 -16.0160
   -15.7669 -15.7372 -15.5356 -15.4996 -15.4516 -15.3979 -15.3577 -15.3554
   -15.2147 -15.2048 -15.0992 -15.0183 -14.9963 -14.9641 -14.9530 -14.9342
   -14.9270 -14.8522 -14.7735 -14.7073 -14.6970 -14.5230 -14.4484 -13.8976
   -13.8970 -13.6818  -6.3136  -4.9903  -3.9201  -3.7538  -3.5668  -3.3854
    -3.3844  -3.3795  -3.3703  -3.1423  -3.1319  -2.9547  -2.9491  -2.9237
    -2.8627  -2.8503  -2.7440  -2.6753  -2.6720  -2.6632  -2.6340  -2.6111
    -2.6052  -2.5390  -2.4785  -2.3729  -2.3485  -2.3131  -2.2928  -2.2800
    -2.1602  -2.1367  -2.1248  -2.0951  -2.0813  -2.0653  -2.0255  -2.0008
    -1.8468  -1.8132  -1.7051  -1.6908  -1.6726  -1.6269  -1.6099  -1.5908
    -1.5613  -1.5305  -1.5253  -1.4416  -1.4163  -1.3575  -1.2732  -1.1969
    -1.1451  -1.1357  -1.0722  -1.0190  -0.9132  -0.8904  -0.8538  -0.8287
    -0.8038  -0.7464  -0.7104  -0.6094  -0.5242  -0.4941  -0.4718  -0.4678
    -0.4315  -0.3992  -0.3766  -0.2620  -0.2488  -0.2383  -0.1383  -0.0424
     0.0424   0.1039   0.1156   0.1971   0.2916   0.3360   0.4002   0.4646
     0.5076   0.5244   0.6952   0.7485   0.8706   0.8909   0.9245   0.9868
     0.9951   0.9993   1.0231   1.0345   1.0619   1.1436   1.5416   1.7908
     3.0403   3.0431   3.0994   3.1055   3.4095   3.4129   3.5182   3.5209
     3.8062   3.8174

     the Fermi energy is     2.2244 ev

!    total energy              =   -2970.22351422 Ry
     estimated scf accuracy    <       0.00000004 Ry
     smearing contrib. (-TS)   =      -0.00316362 Ry
     internal energy E=F+TS    =   -2970.22035060 Ry

     The total energy is F=E-TS. E is the sum of the following terms:
     one-electron contribution =  -23872.74717922 Ry
     hartree contribution      =   12027.69727772 Ry
     xc contribution           =    -491.46101846 Ry
     ewald contribution        =    9366.29036758 Ry
     electric field correction =       0.00020178 Ry

     convergence has been achieved in  64 iterations

     Forces acting on atoms (cartesian axes, Ry/au):

     atom    1 type  1   force =     0.00005572   -0.00041324    0.12353533
     atom    2 type  1   force =    -0.00003839    0.00025755   -0.15529395
     atom    3 type  2   force =     0.00001007   -0.00007246   -0.06337682
     atom    4 type  2   force =     0.00000867    0.00024753    0.01777632
     atom    5 type  2   force =    -0.00299331   -0.00167911   -0.01293522
     atom    6 type  2   force =     0.00467544   -0.00105837   -0.01340837
     atom    7 type  1   force =    -0.00007389   -0.00670462    0.05774648
     atom    8 type  1   force =     0.00033116    0.01201563    0.09314715
     atom    9 type  2   force =    -0.00005461   -0.00008950   -0.00029714
     atom   10 type  2   force =    -0.00146654    0.00206569   -0.05886372
     atom   11 type  2   force =    -0.00002027    0.00036120   -0.00017587
     atom   12 type  2   force =    -0.00007308    0.00058209   -0.00011508
     atom   13 type  1   force =    -0.00017722    0.00092169    0.00016814
     atom   14 type  1   force =    -0.00007584    0.00068802   -0.00021504
     atom   15 type  2   force =    -0.00000520   -0.00068544   -0.00087723
     atom   16 type  2   force =    -0.00012556    0.00009905   -0.00120824
     atom   17 type  2   force =    -0.00038302   -0.00074050   -0.00044898
     atom   18 type  2   force =     0.00022805    0.00023517   -0.00056975
     atom   19 type  1   force =     0.00038186   -0.00023822    0.00138186
     atom   20 type  1   force =    -0.00042886    0.00156258    0.00158212
     atom   21 type  2   force =     0.00002860    0.00021310    0.09796466
     atom   22 type  2   force =     0.00044576   -0.00006626    0.00096663
     atom   23 type  2   force =    -0.08225126    0.00004507   -0.03278253
     atom   24 type  2   force =     0.08213459    0.00048032   -0.03285379
     atom   25 type  1   force =     0.00009230   -0.00060081    0.12355424
     atom   26 type  1   force =    -0.00016199   -0.00151276   -0.15585221
     atom   27 type  2   force =     0.00007083   -0.00069524   -0.06159604
     atom   28 type  2   force =     0.00002228    0.00206048    0.01303540
     atom   29 type  2   force =    -0.00127572    0.00547208   -0.01611041
     atom   30 type  2   force =     0.00294725    0.00580502   -0.01655984
     atom   31 type  1   force =    -0.00011079    0.00211417    0.04157012
     atom   32 type  1   force =     0.00053135   -0.01543759    0.09282649
     atom   33 type  2   force =    -0.00021126   -0.00077657   -0.00076486
     atom   34 type  2   force =    -0.00141078    0.00203369   -0.07269986
     atom   35 type  2   force =     0.00021203   -0.00081532   -0.00002396
     atom   36 type  2   force =    -0.00025228   -0.00092580    0.00002386
     atom   37 type  1   force =    -0.00023390   -0.00109930    0.00015419
     atom   38 type  1   force =    -0.00008115   -0.00150581    0.00093954
     atom   39 type  2   force =     0.00037163   -0.00053294   -0.00016803
     atom   40 type  2   force =    -0.00003596   -0.00067739   -0.00156574
     atom   41 type  2   force =     0.00000820    0.00045078   -0.00000110
     atom   42 type  2   force =     0.00026470    0.00050615    0.00048016
     atom   43 type  1   force =    -0.00008822    0.00001795    0.00013180
     atom   44 type  1   force =    -0.00028525   -0.00054905    0.00071452
     atom   45 type  2   force =     0.00002000    0.00002843    0.09773894
     atom   46 type  2   force =    -0.08231772   -0.00001256   -0.03281145
     atom   47 type  2   force =     0.08217305    0.00043464   -0.03282916
     atom   48 type  3   force =    -0.00160722   -0.00740134   -0.05845573
     atom   49 type  3   force =    -0.00043361    0.00276030    0.02260719
     atom   50 type  4   force =     0.00170467    0.00464847    0.03223223
     atom   51 type  5   force =     0.00018353   -0.00043729    0.00211391
     atom   52 type  2   force =    -0.00044373   -0.00045312    0.00062279
     atom   53 type  5   force =     0.00021494   -0.00092624   -0.00015397

     Total force =     0.418768     Total SCF correction =     0.000380
  @ DRIVER MODE: Message from server: STATUS
  @ DRIVER MODE: Message from server: GETFORCE
  @ DRIVER MODE: Returning v,forces,stress,ensemble

     Writing output data file ./calc.save/
  @ DRIVER MODE: Message from server: EXIT
  @ DRIVE MODE: Exiting

     General routines

     Parallel routines

   This run was terminated on:  12:56:17  22Sep2021

   JOB DONE.