     Program PWSCF v.6.7GPU starts on 18Aug2021 at 15:21:52

     R & G space division:  proc/nbgrp/npool/nimage =       6
     Reading input from /storage/home/hcoda1/3/ntian30/research/carbon/CH3_vib_side_on/ads_slab/CH3N2_c/out_0008/pw.inp
Warning: card &CELL ignored
Warning: card   CELL_DYNAMICS='IPI', ignored
Warning: card / ignored

     Current dimensions of program PWSCF are:
     Max number of different atomic species (ntypx) = 10
     Max number of k-points (npk) =  40000
     Max angular momentum in pseudopotentials (lmaxx) =  3
     Presently no symmetry can be used with electric field

     Message from routine cell_base_init:
     DEPRECATED: use true lattice parameter, not A to a.u. conversion factor

     IMPORTANT: XC functional enforced from input :
     Exchange-correlation= BEEF-VDW
                           (   1   4  43  14   2   0   0)
     Any further DFT definition will be discarded
     Please, verify this is what you really want

  @ DRIVER MODE: Connecting to
 qe_1139763_2594174.sched-torque.pace.gatech.edu5p8gg99c_scratch
  using UNIX socket
  @ DRIVER MODE: Message from server: STATUS
  @ DRIVER MODE: Message from server: INIT
  @ DRIVER MODE: Receiving replica           0          -1
  @ DRIVER MODE: Receiving encoded integer          25
  @ DRIVER MODE:  SCF:  T  FORCE:  T  STRESS:  F  VC:  F  ENSEMBLE:  F
  @ DRIVER MODE:  SCF:  T  FORCE:  T  STRESS:  F  VC:  F  ENSEMBLE:  F

     Using Slab Decomposition

     bravais-lattice index     =            0
     lattice parameter (alat)  =       1.8897  a.u.
     unit-cell volume          =    6658.9804 (a.u.)^3
     number of atoms/cell      =           53
     number of atomic types    =            5
     number of electrons       =       395.00
     number of Kohn-Sham states=          207
     kinetic-energy cutoff     =      29.3995  Ry
     charge density cutoff     =     293.9946  Ry
     scf convergence threshold =      7.3E-08
     mixing beta               =       0.0500
     number of iterations used =            8  plain     mixing
     Exchange-correlation= BEEF-VDW
                           (   1   4  43  14   2   0   0)

     celldm(1)=   1.889726  celldm(2)=   0.000000  celldm(3)=   0.000000
     celldm(4)=   0.000000  celldm(5)=   0.000000  celldm(6)=   0.000000

     crystal axes: (cart. coord. in units of alat)
               a(1) = (   6.579727   0.000000   0.000000 )
               a(2) = (  -0.000775   5.961596   0.000000 )
               a(3) = (   0.000000   0.000000  25.155947 )

     reciprocal axes: (cart. coord. in units 2 pi/alat)
               b(1) = (  0.151982  0.000020  0.000000 )
               b(2) = (  0.000000  0.167740  0.000000 )
               b(3) = (  0.000000  0.000000  0.039752 )

     PseudoPot. # 1 for Ti read from file:
     /storage/coda1/p-amedford6/0/shared/rich_project_chbe-medford/medford-share/data/pseudos_module/espresso/nninc/pbe/van/Ti.UPF
     MD5 check sum: 8e4df49b7f0d34bbd5052bf3f5ea0213
     Pseudo is Ultrasoft, Zval = 12.0
     Generated by new atomic code, or converted to UPF format
     Using radial grid of  851 points,  6 beta functions with:
                l(1) =   0
                l(2) =   0
                l(3) =   1
                l(4) =   1
                l(5) =   2
                l(6) =   2
     Q(r) pseudized with  8 coefficients,  rinner =    1.000   1.000   1.000
                                                       1.000   1.000

     PseudoPot. # 2 for O  read from file:
     /storage/coda1/p-amedford6/0/shared/rich_project_chbe-medford/medford-share/data/pseudos_module/espresso/nninc/pbe/van/O.UPF
     MD5 check sum: 78c19812648e8988a0fe644b0f25305e
     Pseudo is Ultrasoft, Zval =  6.0
     Generated by new atomic code, or converted to UPF format
     Using radial grid of  737 points,  4 beta functions with:
                l(1) =   0
                l(2) =   0
                l(3) =   1
                l(4) =   1
     Q(r) pseudized with  8 coefficients,  rinner =    0.800   0.800   0.800

     PseudoPot. # 3 for N  read from file:
     /storage/coda1/p-amedford6/0/shared/rich_project_chbe-medford/medford-share/data/pseudos_module/espresso/nninc/pbe/van/N.UPF
     MD5 check sum: 90d10febe142ad51ac9d5be1deb811c4
     Pseudo is Ultrasoft, Zval =  5.0
     Generated by new atomic code, or converted to UPF format
     Using radial grid of  729 points,  4 beta functions with:
                l(1) =   0
                l(2) =   0
                l(3) =   1
                l(4) =   1
     Q(r) pseudized with  8 coefficients,  rinner =    0.800   0.800   0.800

     PseudoPot. # 4 for C  read from file:
     /storage/coda1/p-amedford6/0/shared/rich_project_chbe-medford/medford-share/data/pseudos_module/espresso/nninc/pbe/van/C.UPF
     MD5 check sum: 1a69bf6b8db32088f5b2163dbdb77a27
     Pseudo is Ultrasoft, Zval =  4.0
     Generated by new atomic code, or converted to UPF format
     Using radial grid of  721 points,  4 beta functions with:
                l(1) =   0
                l(2) =   0
                l(3) =   1
                l(4) =   1
     Q(r) pseudized with  8 coefficients,  rinner =    0.800   0.800   0.800

     PseudoPot. # 5 for H  read from file:
     /storage/coda1/p-amedford6/0/shared/rich_project_chbe-medford/medford-share/data/pseudos_module/espresso/nninc/pbe/van/H.UPF
     MD5 check sum: b5ee9d7bfd3a09ee7748110bda690ff7
     Pseudo is Ultrasoft, Zval =  1.0
     Generated by new atomic code, or converted to UPF format
     Using radial grid of  615 points,  1 beta functions with:
                l(1) =   0
     Q(r) pseudized with  8 coefficients,  rinner =    0.800

     atomic species   valence    mass     pseudopotential
        Ti1           12.00    47.86700     Ti( 1.00)
        O1             6.00    15.99900     O ( 1.00)
        N1             5.00    14.00700     N ( 1.00)
        C1             4.00    12.01100     C ( 1.00)
        H1             1.00     1.00800     H ( 1.00)

     No symmetry found

   Cartesian axes

     site n.     atom                  positions (alat units)
         1           Ti1 tau(   1) = (   0.0004258   2.9801865   6.0000000  )
         2           Ti1 tau(   2) = (   3.2906075   1.4906267   6.0002472  )
         3           O1  tau(   3) = (   0.0006271   0.0005054   7.9858123  )
         4           O1  tau(   4) = (   3.2906025   0.0005020   7.3038282  )
         5           O1  tau(   5) = (   4.5942328   1.4918067   9.2879030  )
         6           O1  tau(   6) = (   1.9868534   1.4903216   9.2879459  )
         7           Ti1 tau(   7) = (   3.2907910   2.8959150   9.1758416  )
         8           Ti1 tau(   8) = (   0.0015273   1.4827037   9.2680791  )
         9           O1  tau(   9) = (   3.2868105   5.9447858  11.3346005  )
        10           O1  tau(  10) = (   0.0116148   5.9584955  10.6183126  )
        11           O1  tau(  11) = (   1.2897616   1.4699164  12.6258314  )
        12           O1  tau(  12) = (   5.2713851   1.4716199  12.6109895  )
        13           Ti1 tau(  13) = (   0.0629619   2.9460495  12.6207869  )
        14           Ti1 tau(  14) = (   3.3778125   1.4702366  12.4807322  )
        15           O1  tau(  15) = (   6.5741670   5.9392046  14.6271830  )
        16           O1  tau(  16) = (   3.2925211   5.9405975  13.9303826  )
        17           O1  tau(  17) = (   4.5331425   1.4971777  16.0590535  )
        18           O1  tau(  18) = (   2.0416154   1.4974824  16.0477615  )
        19           Ti1 tau(  19) = (   3.2901388   2.9722967  15.7036181  )
        20           Ti1 tau(  20) = (   6.5714728   1.5019933  15.8140906  )
        21           O1  tau(  21) = (   3.2904802   0.0005063   4.7018136  )
        22           O1  tau(  22) = (   6.5775371   0.0159386  17.1814867  )
        23           O1  tau(  23) = (   1.3043587   1.4918075   6.0039043  )
        24           O1  tau(  24) = (   5.2767064   1.4903225   6.0039473  )
        25           Ti1 tau(  25) = (   0.0000382   5.9609847   6.0000000  )
        26           Ti1 tau(  26) = (   3.2902200   4.4714249   6.0002472  )
        27           O1  tau(  27) = (   0.0002396   2.9813036   7.9858123  )
        28           O1  tau(  28) = (   3.2902150   2.9813002   7.3038282  )
        29           O1  tau(  29) = (   4.5938453   4.4726049   9.2879030  )
        30           O1  tau(  30) = (   1.9864658   4.4711199   9.2879459  )
        31           Ti1 tau(  31) = (   3.2891106   5.8743827   9.1763621  )
        32           Ti1 tau(  32) = (   0.0006254   4.4649316   9.2693709  )
        33           O1  tau(  33) = (   3.2909631   2.9655588  11.3316111  )
        34           O1  tau(  34) = (   0.0092240   2.9805883  10.6323155  )
        35           O1  tau(  35) = (   1.2884032   4.4536117  12.6269208  )
        36           O1  tau(  36) = (   5.2752684   4.4605011  12.6109535  )
        37           Ti1 tau(  37) = (   0.0626277   5.9200555  12.5524633  )
        38           Ti1 tau(  38) = (   3.3797810   4.4486816  12.4846537  )
        39           O1  tau(  39) = (   6.5720240   2.9440667  14.6479771  )
        40           O1  tau(  40) = (   3.2941106   2.9728877  13.9057494  )
        41           O1  tau(  41) = (   4.5311790   4.4530262  16.1020043  )
        42           O1  tau(  42) = (   2.0427069   4.4534008  16.0946336  )
        43           Ti1 tau(  43) = (   3.2818950   5.9508925  15.7274921  )
        44           Ti1 tau(  44) = (   6.5750914   4.6476268  16.0792144  )
        45           O1  tau(  45) = (   3.2900926   2.9813045   4.7018136  )
        46           O1  tau(  46) = (   1.3039711   4.4726057   6.0039043  )
        47           O1  tau(  47) = (   5.2763189   4.4711207   6.0039473  )
        48           N1  tau(  48) = (   0.0795740   2.6614725  18.6386781  )
        49           N1  tau(  49) = (   0.0232033   2.8794178  17.4383708  )
        50           C1  tau(  50) = (   0.1510961   3.8031638  19.5808395  )
        51           H1  tau(  51) = (   6.4701351   4.7592986  19.1328852  )
        52           H1  tau(  52) = (   6.0910372   3.5604803  20.4266230  )
        53           H1  tau(  53) = (   1.1812797   3.8285794  19.9476819  )

     number of k points=    10  Fermi-Dirac smearing, width (Ry)=  0.0073
                       cart. coord. in units 2pi/alat
        k(    1) = (   0.0000000   0.0000000   0.0000000), wk =   0.1250000
        k(    2) = (   0.0000000   0.0419351   0.0000000), wk =   0.2500000
        k(    3) = (   0.0000000  -0.0838702   0.0000000), wk =   0.1250000
        k(    4) = (   0.0379955   0.0000049   0.0000000), wk =   0.2500000
        k(    5) = (   0.0379955   0.0419400   0.0000000), wk =   0.2500000
        k(    6) = (   0.0379955  -0.0838652   0.0000000), wk =   0.2500000
        k(    7) = (   0.0379955  -0.0419301   0.0000000), wk =   0.2500000
        k(    8) = (  -0.0759910  -0.0000099   0.0000000), wk =   0.1250000
        k(    9) = (  -0.0759910   0.0419252   0.0000000), wk =   0.2500000
        k(   10) = (  -0.0759910  -0.0838800   0.0000000), wk =   0.1250000

     Initial potential from superposition of free atoms

     starting charge  378.99916, renormalised to  395.00000

     negative rho (up, down):  1.506E-02 0.000E+00

     %%%%%%%%%%%%%%%%%%%%%%%%%%%%%%%%%%%%%%%%%%%%%%%%%%%%%%%%%%%%%%%%%%%%%%%%
     %                                                                      %
     % You are using vdW-DF, which was implemented by the Thonhauser group. %
     % Please cite the following two papers that made this development      %
     % possible and the two reviews that describe the various versions:     %
     %                                                                      %
     %   T. Thonhauser et al., PRL 115, 136402 (2015).                      %
     %   T. Thonhauser et al., PRB 76, 125112 (2007).                       %
     %   K. Berland et al., Rep. Prog. Phys. 78, 066501 (2015).             %
     %   D.C. Langreth et al., J. Phys.: Condens. Matter 21, 084203 (2009). %
     %                                                                      %
     %                                                                      %
     % If you are calculating the stress with vdW-DF, please also cite:     %
     %                                                                      %
     %   R. Sabatini et al., J. Phys.: Condens. Matter 24, 424209 (2012).   %
     %                                                                      %
     %%%%%%%%%%%%%%%%%%%%%%%%%%%%%%%%%%%%%%%%%%%%%%%%%%%%%%%%%%%%%%%%%%%%%%%%

     Adding external electric field

     Computed dipole along edir(3) :
        Dipole               -8.8495 Ry au,        -22.4931 Debye
        Dipole field         -0.0167 Ry au,

        Potential amp.        1.5481 Ry
        Total length         46.3494 bohr

     Starting wfcs are  299 atomic wfcs
  @ DRIVER MODE: Message from server: STATUS
  @ DRIVER MODE: Message from server: POSDATA
  @ DRIVER MODE: Reading and sharing cell
  @ DRIVER MODE: Reading and sharing positions
  @ DRIVER MODE: Received positions

     Self-consistent Calculation

     iteration #  1     ecut=    29.40 Ry     beta= 0.05
     Davidson diagonalization with overlap
     c_bands:  1 eigenvalues not converged
     c_bands:  2 eigenvalues not converged
     c_bands:  1 eigenvalues not converged
     c_bands:  3 eigenvalues not converged
     c_bands:  3 eigenvalues not converged
     c_bands:  1 eigenvalues not converged
     ethr =  1.00E-05,  avg # of iterations = 18.9

[...]

     total energy              =   -2605.54808451 Ry
     estimated scf accuracy    <    3700.42465783 Ry

     iteration #  2     ecut=    29.40 Ry     beta= 0.05
     Davidson diagonalization with overlap
     ethr =  1.00E-02,  avg # of iterations = 22.3

[...]

     iteration # 63     ecut=    29.40 Ry     beta= 0.05
     Davidson diagonalization with overlap
     c_bands:  1 eigenvalues not converged
     ethr =  2.41E-09,  avg # of iterations = 12.1

[...]

     total energy              =   -2939.15477455 Ry
     estimated scf accuracy    <       0.00000011 Ry

     iteration # 73     ecut=    29.40 Ry     beta= 0.05
     Davidson diagonalization with overlap
     ethr =  2.69E-11,  avg # of iterations =  7.8

     negative rho (up, down):  1.565E-02 0.000E+00

     Adding external electric field

     Computed dipole along edir(3) :
        Dipole                0.7077 Ry au,          1.7989 Debye
        Dipole field          0.0013 Ry au,

        Potential amp.       -0.1238 Ry
        Total length         46.3494 bohr

     End of self-consistent calculation

          k = 0.0000 0.0000 0.0000 ( 18029 PWs)   bands (ev):

   -55.8951 -55.8800 -55.8610 -55.8441 -55.7955 -55.7300 -55.7042 -55.7035
   -55.6934 -55.6696 -55.6687 -55.6351 -55.2856 -55.0951 -54.8722 -54.8382
   -32.4342 -32.3773 -32.2300 -32.2276 -32.2022 -32.1989 -32.1880 -32.1592
   -32.1375 -32.1242 -32.1023 -32.0666 -32.0607 -32.0471 -32.0334 -32.0197
   -32.0176 -31.9992 -31.9849 -31.9521 -31.9440 -31.9396 -31.8987 -31.8937
   -31.8914 -31.8878 -31.8798 -31.8750 -31.8707 -31.8439 -31.8434 -31.8344
   -31.8332 -31.8216 -31.8100 -31.7809 -31.7775 -31.5659 -31.4591 -31.3573
   -31.3553 -31.3108 -31.2794 -31.1910 -31.1686 -31.0961 -31.0095 -30.8986
   -18.4588 -16.6327 -16.3679 -16.1392 -16.0453 -16.0130 -15.8949 -15.7326
   -15.6150 -15.5602 -15.4627 -15.4433 -15.4303 -15.3984 -15.3802 -15.3747
   -15.3409 -15.3367 -15.3182 -15.3030 -15.2547 -15.2310 -15.2092 -15.1098
   -15.0637 -15.0298 -15.0147 -14.9515 -14.9464 -14.4418 -13.3748 -13.2584
   -11.3618  -6.9292  -4.3493  -4.0026  -3.8957  -3.8633  -3.8473  -3.8004
    -3.7437  -3.6244  -3.4989  -3.4367  -3.1259  -3.0781  -3.0621  -3.0450
    -3.0071  -2.7997  -2.7485  -2.7083  -2.6838  -2.6764  -2.6653  -2.6577
    -2.6461  -2.6075  -2.5054  -2.4362  -2.4300  -2.3422  -2.2935  -2.2699
    -2.2068  -2.1871  -2.1652  -2.1422  -2.1307  -2.1099  -2.0898  -2.0787
    -1.9740  -1.8828  -1.7504  -1.6943  -1.6730  -1.6594  -1.6443  -1.5025
    -1.3694  -1.3378  -1.3297  -1.3200  -1.2864  -1.2741  -1.1916  -1.0629
    -1.0520  -1.0124  -0.9599  -0.9018  -0.8767  -0.7749  -0.7380  -0.6612
    -0.6561  -0.6392  -0.5862  -0.5352  -0.3763  -0.3343  -0.3086  -0.2863
    -0.2618  -0.1909  -0.1693  -0.0532  -0.0355  -0.0180   0.0422   0.0655
     0.0784   0.0882   0.1061   0.1242   0.1413   0.3087   0.3812   0.4335
     0.4568   0.5148   0.6399   0.7088   0.7638   0.8642   1.0754   1.1497
     1.2423   1.3418   1.7210   1.7666   2.6499   3.2443   3.3250   3.3740
     3.3888   3.4858   3.5194   3.6959   3.6974   3.7259   3.7960

[...]

          k = 0.0380-0.0419 0.0000 ( 17876 PWs)   bands (ev):

[...]

          k =-0.0760-0.0000 0.0000 ( 17886 PWs)   bands (ev):

[...]

          k =-0.0760-0.0839 0.0000 ( 17948 PWs)   bands (ev):

   -55.8785 -55.8774 -55.8622 -55.8617 -55.7921 -55.7180 -55.7074 -55.7054
   -55.6873 -55.6852 -55.6526 -55.6514 -55.2842 -55.0964 -54.8552 -54.8551
   -32.2388 -32.2369 -32.1929 -32.1922 -32.1739 -32.1729 -32.1694 -32.1340
   -32.0884 -32.0854 -32.0794 -32.0789 -32.0422 -32.0127 -32.0051 -32.0044
   -31.9981 -31.9979 -31.9974 -31.9968 -31.9930 -31.9914 -31.9889 -31.9377
   -31.9239 -31.9120 -31.9108 -31.8995 -31.8865 -31.8861 -31.8835 -31.8826
   -31.8671 -31.8664 -31.8571 -31.8544 -31.6943 -31.5676 -31.4675 -31.4142
   -31.3571 -31.3363 -31.1813 -31.1812 -31.0922 -31.0921 -31.0528 -31.0528
   -18.4546 -16.0684 -16.0425 -15.8425 -15.8094 -15.8053 -15.7908 -15.6821
   -15.5973 -15.5902 -15.5874 -15.5211 -15.4910 -15.4752 -15.4345 -15.4218
   -15.4146 -15.4029 -15.3928 -15.3555 -15.3482 -15.3309 -15.3235 -15.2394
   -15.2115 -15.2074 -15.1817 -15.0637 -14.9323 -14.6180 -13.3603 -13.3601
   -11.3595  -6.9409  -4.2592  -3.9041  -3.8374  -3.3579  -3.3290  -3.0888
    -3.0500  -3.0363  -2.9831  -2.8215  -2.7913  -2.7655  -2.7539  -2.7223
    -2.7170  -2.7049  -2.6998  -2.6798  -2.6386  -2.6175  -2.5994  -2.5817
    -2.5624  -2.5484  -2.5327  -2.5158  -2.5063  -2.4671  -2.4434  -2.4320
    -2.4131  -2.4016  -2.2450  -2.1221  -2.0876  -2.0331  -2.0228  -2.0011
    -1.9613  -1.9575  -1.9458  -1.8815  -1.8096  -1.6522  -1.6150  -1.5941
    -1.5758  -1.5569  -1.5003  -1.4600  -1.3727  -1.2985  -1.2748  -1.2703
    -1.2020  -1.1146  -1.1073  -1.0601  -1.0169  -1.0077  -0.9528  -0.8881
    -0.8573  -0.8530  -0.8007  -0.7320  -0.7136  -0.6633  -0.6564  -0.6120
    -0.5572  -0.5488  -0.5284  -0.4869  -0.4049  -0.3813  -0.2429  -0.1630
    -0.0406   0.0740   0.1681   0.1825   0.2624   0.3144   0.3982   0.4157
     0.4262   0.4353   0.4785   0.5617   0.6373   0.6520   0.6979   0.8189
     1.5134   1.5141   1.5862   1.5865   2.7069   3.4916   3.5360   3.5784
     3.6105   3.7170   3.7493   3.7729   3.7742   3.8025   3.9161

     the Fermi energy is     3.2396 ev

!    total energy              =   -2939.15479742 Ry
     estimated scf accuracy    <       0.00000004 Ry
     smearing contrib. (-TS)   =      -0.02244990 Ry
     internal energy E=F+TS    =   -2939.13234752 Ry

     The total energy is F=E-TS. E is the sum of the following terms:
     one-electron contribution =  -24176.18309059 Ry
     hartree contribution      =   12175.33249291 Ry
     xc contribution           =    -485.18515302 Ry
     ewald contribution        =    9546.90245791 Ry
     electric field correction =       0.00094527 Ry

     convergence has been achieved in  73 iterations

     Forces acting on atoms (cartesian axes, Ry/au):

     atom    1 type  1   force =     0.00012071   -0.00025591    0.09667647
     atom    2 type  1   force =    -0.00013192   -0.00050163   -0.17523735
     atom    3 type  2   force =     0.00000127   -0.00009907   -0.02499601
     atom    4 type  2   force =     0.00005147   -0.00149989    0.05300142
     atom    5 type  2   force =    -0.01216847   -0.00108532    0.00360737
     atom    6 type  2   force =     0.01372129   -0.00027656    0.00228007
     atom    7 type  1   force =    -0.00117875    0.00036605   -0.01148313
     atom    8 type  1   force =     0.00055925    0.00942921    0.02851907
     atom    9 type  2   force =     0.00020236    0.00053370   -0.00014923
     atom   10 type  2   force =    -0.00113840    0.00027837   -0.01823951
     atom   11 type  2   force =    -0.00012299    0.00001099   -0.00014156
     atom   12 type  2   force =     0.00013677    0.00020572    0.00018424
     atom   13 type  1   force =     0.00010268   -0.00029289    0.00017454
     atom   14 type  1   force =     0.00021214    0.00017564    0.00020412
     atom   15 type  2   force =     0.00049325   -0.00006339   -0.00008576
     atom   16 type  2   force =    -0.00031679    0.00033981    0.00037331
     atom   17 type  2   force =     0.00017055    0.00058511    0.00007457
     atom   18 type  2   force =     0.00044110    0.00000208    0.00003273
     atom   19 type  1   force =    -0.00035236    0.00016641    0.00004896
     atom   20 type  1   force =    -0.00042364   -0.00023373    0.00018988
     atom   21 type  2   force =     0.00008535    0.00001641    0.10321286
     atom   22 type  2   force =    -0.00033008    0.00025820    0.00081456
     atom   23 type  2   force =    -0.07145116   -0.00007012   -0.02770455
     atom   24 type  2   force =     0.07142139    0.00035034   -0.02771194
     atom   25 type  1   force =     0.00006400   -0.00021788    0.09639867
     atom   26 type  1   force =    -0.00022583   -0.00026051   -0.17565036
     atom   27 type  2   force =     0.00006703   -0.00024899   -0.02400029
     atom   28 type  2   force =     0.00009497   -0.00126069    0.05287077
     atom   29 type  2   force =    -0.01240927    0.00003854    0.00351704
     atom   30 type  2   force =     0.01387802    0.00033388    0.00216263
     atom   31 type  1   force =    -0.00114708    0.00333552   -0.01190555
     atom   32 type  1   force =     0.00066128   -0.01118198    0.02911951
     atom   33 type  2   force =     0.00011564   -0.00020171   -0.00040876
     atom   34 type  2   force =    -0.00090447   -0.00092961   -0.02482914
     atom   35 type  2   force =    -0.00039388    0.00026875    0.00001448
     atom   36 type  2   force =     0.00072962    0.00030160    0.00034205
     atom   37 type  1   force =    -0.00000491   -0.00023116    0.00004703
     atom   38 type  1   force =    -0.00002722    0.00010174   -0.00000856
     atom   39 type  2   force =     0.00022688    0.00034057   -0.00044632
     atom   40 type  2   force =    -0.00029307    0.00010224    0.00016122
     atom   41 type  2   force =    -0.00006372    0.00034225    0.00036675
     atom   42 type  2   force =     0.00038916    0.00063237    0.00021036
     atom   43 type  1   force =    -0.00025282    0.00038669    0.00039857
     atom   44 type  1   force =    -0.00016247    0.00022291    0.00070541
     atom   45 type  2   force =     0.00008110   -0.00002923    0.10321660
     atom   46 type  2   force =    -0.07148678   -0.00003352   -0.02772016
     atom   47 type  2   force =     0.07145139    0.00038770   -0.02774529
     atom   48 type  3   force =     0.00115267   -0.00113115    0.00073245
     atom   49 type  3   force =    -0.00150741    0.00032685   -0.00150154
     atom   50 type  4   force =     0.00160903    0.00044195   -0.00013220
     atom   51 type  5   force =     0.00023305    0.00071361   -0.00048357
     atom   52 type  5   force =    -0.00121928   -0.00078941    0.00096831
     atom   53 type  5   force =    -0.00076065   -0.00010091   -0.00004524

     Total force =     0.368333     Total SCF correction =     0.000700
  @ DRIVER MODE: Message from server: STATUS
  @ DRIVER MODE: Message from server: GETFORCE
  @ DRIVER MODE: Returning v,forces,stress,ensemble

     Writing output data file ./calc.save/
  @ DRIVER MODE: Message from server: EXIT
  @ DRIVE MODE: Exiting

     General routines

     Parallel routines

   This run was terminated on:  15:54:12  18Aug2021

   JOB DONE.