     Program PWSCF v.6.7GPU starts on 15Sep2021 at 17: 4:25

     R & G space division:  proc/nbgrp/npool/nimage =      10
     Reading input from /storage/home/hcoda1/3/ntian30/research/carbon/CxH_vib/H2O_calc/ads_slab/CH3NNHHHH2O_a/out_0004/pw.inp
Warning: card &CELL ignored
Warning: card   CELL_DYNAMICS='IPI', ignored
Warning: card / ignored

     Current dimensions of program PWSCF are:
     Max number of different atomic species (ntypx) = 10
     Max number of k-points (npk) =  40000
     Max angular momentum in pseudopotentials (lmaxx) =  3
     Presently no symmetry can be used with electric field

     Message from routine cell_base_init:
     DEPRECATED: use true lattice parameter, not A to a.u. conversion factor

     IMPORTANT: XC functional enforced from input :
     Exchange-correlation= BEEF-VDW
                           (   1   4  43  14   2   0   0)
     Any further DFT definition will be discarded
     Please, verify this is what you really want

  @ DRIVER MODE: Connecting to
 qe_1139763_2852622.sched-torque.pace.gatech.edur_q4po9b_scratch
  using UNIX socket
  @ DRIVER MODE: Message from server: STATUS
  @ DRIVER MODE: Message from server: INIT
  @ DRIVER MODE: Receiving replica           0          -1
  @ DRIVER MODE: Receiving encoded integer          25
  @ DRIVER MODE:  SCF:  T  FORCE:  T  STRESS:  F  VC:  F  ENSEMBLE:  F
  @ DRIVER MODE:  SCF:  T  FORCE:  T  STRESS:  F  VC:  F  ENSEMBLE:  F

     Using Slab Decomposition

     bravais-lattice index     =            0
     lattice parameter (alat)  =       1.8897  a.u.
     unit-cell volume          =    6658.9804 (a.u.)^3
     number of atoms/cell      =           59
     number of atomic types    =            5
     number of electrons       =       406.00
     number of Kohn-Sham states=          213
     kinetic-energy cutoff     =      29.3995  Ry
     charge density cutoff     =     293.9946  Ry
     scf convergence threshold =      7.3E-08
     mixing beta               =       0.0500
     number of iterations used =            8  plain     mixing
     Exchange-correlation= BEEF-VDW
                           (   1   4  43  14   2   0   0)

     celldm(1)=   1.889726  celldm(2)=   0.000000  celldm(3)=   0.000000
     celldm(4)=   0.000000  celldm(5)=   0.000000  celldm(6)=   0.000000

     crystal axes: (cart. coord. in units of alat)
               a(1) = (   6.579727   0.000000   0.000000 )
               a(2) = (  -0.000775   5.961596   0.000000 )
               a(3) = (   0.000000   0.000000  25.155947 )

     reciprocal axes: (cart. coord. in units 2 pi/alat)
               b(1) = (  0.151982  0.000020  0.000000 )
               b(2) = (  0.000000  0.167740  0.000000 )
               b(3) = (  0.000000  0.000000  0.039752 )

     PseudoPot. # 1 for Ti read from file:
     /storage/coda1/p-amedford6/0/shared/rich_project_chbe-medford/medford-share/data/pseudos_module/espresso/nninc/pbe/van/Ti.UPF
     MD5 check sum: 8e4df49b7f0d34bbd5052bf3f5ea0213
     Pseudo is Ultrasoft, Zval = 12.0
     Generated by new atomic code, or converted to UPF format
     Using radial grid of  851 points,  6 beta functions with:
                l(1) =   0
                l(2) =   0
                l(3) =   1
                l(4) =   1
                l(5) =   2
                l(6) =   2
     Q(r) pseudized with  8 coefficients,  rinner =    1.000   1.000   1.000
                                                       1.000   1.000

     PseudoPot. # 2 for O  read from file:
     /storage/coda1/p-amedford6/0/shared/rich_project_chbe-medford/medford-share/data/pseudos_module/espresso/nninc/pbe/van/O.UPF
     MD5 check sum: 78c19812648e8988a0fe644b0f25305e
     Pseudo is Ultrasoft, Zval =  6.0
     Generated by new atomic code, or converted to UPF format
     Using radial grid of  737 points,  4 beta functions with:
                l(1) =   0
                l(2) =   0
                l(3) =   1
                l(4) =   1
     Q(r) pseudized with  8 coefficients,  rinner =    0.800   0.800   0.800

     PseudoPot. # 3 for N  read from file:
     /storage/coda1/p-amedford6/0/shared/rich_project_chbe-medford/medford-share/data/pseudos_module/espresso/nninc/pbe/van/N.UPF
     MD5 check sum: 90d10febe142ad51ac9d5be1deb811c4
     Pseudo is Ultrasoft, Zval =  5.0
     Generated by new atomic code, or converted to UPF format
     Using radial grid of  729 points,  4 beta functions with:
                l(1) =   0
                l(2) =   0
                l(3) =   1
                l(4) =   1
     Q(r) pseudized with  8 coefficients,  rinner =    0.800   0.800   0.800

     PseudoPot. # 4 for C  read from file:
     /storage/coda1/p-amedford6/0/shared/rich_project_chbe-medford/medford-share/data/pseudos_module/espresso/nninc/pbe/van/C.UPF
     MD5 check sum: 1a69bf6b8db32088f5b2163dbdb77a27
     Pseudo is Ultrasoft, Zval =  4.0
     Generated by new atomic code, or converted to UPF format
     Using radial grid of  721 points,  4 beta functions with:
                l(1) =   0
                l(2) =   0
                l(3) =   1
                l(4) =   1
     Q(r) pseudized with  8 coefficients,  rinner =    0.800   0.800   0.800

     PseudoPot. # 5 for H  read from file:
     /storage/coda1/p-amedford6/0/shared/rich_project_chbe-medford/medford-share/data/pseudos_module/espresso/nninc/pbe/van/H.UPF
     MD5 check sum: b5ee9d7bfd3a09ee7748110bda690ff7
     Pseudo is Ultrasoft, Zval =  1.0
     Generated by new atomic code, or converted to UPF format
     Using radial grid of  615 points,  1 beta functions with:
                l(1) =   0
     Q(r) pseudized with  8 coefficients,  rinner =    0.800

     atomic species   valence    mass     pseudopotential
        Ti1           12.00    47.86700     Ti( 1.00)
        O1             6.00    15.99900     O ( 1.00)
        N1             5.00    14.00700     N ( 1.00)
        C1             4.00    12.01100     C ( 1.00)
        H1             1.00     1.00800     H ( 1.00)

     No symmetry found

   Cartesian axes

     site n.     atom                  positions (alat units)
         1           Ti1 tau(   1) = (   0.0004258   2.9801865   6.0000000  )
         2           Ti1 tau(   2) = (   3.2906075   1.4906267   6.0002472  )
         3           O1  tau(   3) = (   0.0006271   0.0005054   7.9858123  )
         4           O1  tau(   4) = (   3.2906025   0.0005020   7.3038282  )
         5           O1  tau(   5) = (   4.5942328   1.4918067   9.2879030  )
         6           O1  tau(   6) = (   1.9868534   1.4903216   9.2879459  )
         7           Ti1 tau(   7) = (   3.2907910   2.8959150   9.1758416  )
         8           Ti1 tau(   8) = (   0.0015273   1.4827037   9.2680791  )
         9           O1  tau(   9) = (   3.2800960   5.9426830  11.3808346  )
        10           O1  tau(  10) = (   0.0116148   5.9584955  10.6183126  )
        11           O1  tau(  11) = (   1.2797812   1.4911726  12.6624455  )
        12           O1  tau(  12) = (   5.2824698   1.4871998  12.6412817  )
        13           Ti1 tau(  13) = (   0.0041451   2.9720195  12.5119452  )
        14           Ti1 tau(  14) = (   3.3095611   1.4699318  12.5307708  )
        15           O1  tau(  15) = (   6.5436702   0.0697967  14.6864816  )
        16           O1  tau(  16) = (   3.2812162   5.9597207  14.0300411  )
        17           O1  tau(  17) = (   4.5129646   1.5046642  16.2361130  )
        18           O1  tau(  18) = (   1.9708392   1.5012857  16.1671103  )
        19           Ti1 tau(  19) = (   3.2655272   2.9480959  15.7331506  )
        20           Ti1 tau(  20) = (   6.5674642   1.4497656  15.9937491  )
        21           O1  tau(  21) = (   3.2904802   0.0005063   4.7018136  )
        22           O1  tau(  22) = (   6.5217933   5.8323795  17.2454964  )
        23           O1  tau(  23) = (   1.3043587   1.4918075   6.0039043  )
        24           O1  tau(  24) = (   5.2767064   1.4903225   6.0039473  )
        25           Ti1 tau(  25) = (   0.0000382   5.9609847   6.0000000  )
        26           Ti1 tau(  26) = (   3.2902200   4.4714249   6.0002472  )
        27           O1  tau(  27) = (   0.0002396   2.9813036   7.9858123  )
        28           O1  tau(  28) = (   3.2902150   2.9813002   7.3038282  )
        29           O1  tau(  29) = (   4.5938453   4.4726049   9.2879030  )
        30           O1  tau(  30) = (   1.9864658   4.4711199   9.2879459  )
        31           Ti1 tau(  31) = (   3.2891106   5.8743827   9.1763621  )
        32           Ti1 tau(  32) = (   0.0006254   4.4649316   9.2693709  )
        33           O1  tau(  33) = (   3.2830490   2.9749636  11.3746576  )
        34           O1  tau(  34) = (   0.0092240   2.9805883  10.6323155  )
        35           O1  tau(  35) = (   1.2760807   4.4612897  12.6946019  )
        36           O1  tau(  36) = (   5.2846406   4.4647657  12.6742532  )
        37           Ti1 tau(  37) = (   0.0173662   5.9591775  12.4970172  )
        38           Ti1 tau(  38) = (   3.3070294   4.4569304  12.5379467  )
        39           O1  tau(  39) = (   6.5190077   2.9374781  14.9220565  )
        40           O1  tau(  40) = (   3.2909943   2.9519766  13.9498127  )
        41           O1  tau(  41) = (   4.5146313   4.4149292  16.1460290  )
        42           O1  tau(  42) = (   1.9668235   4.4047650  16.1116202  )
        43           Ti1 tau(  43) = (   3.2426406   5.9218513  15.8539982  )
        44           Ti1 tau(  44) = (   6.5337747   4.6515477  15.8702276  )
        45           O1  tau(  45) = (   3.2900926   2.9813045   4.7018136  )
        46           O1  tau(  46) = (   1.3039711   4.4726057   6.0039043  )
        47           O1  tau(  47) = (   5.2763189   4.4711207   6.0039473  )
        48           N1  tau(  48) = (   1.0802268   3.0692680  18.8437747  )
        49           N1  tau(  49) = (   6.4825355   2.6367244  18.1156036  )
        50           C1  tau(  50) = (   0.7269815   3.7261681  20.0984356  )
        51           H1  tau(  51) = (   0.0344531   4.5672025  19.9493712  )
        52           H1  tau(  52) = (   0.2718923   3.0081313  20.7822053  )
        53           H1  tau(  53) = (   1.6424345   4.1087450  20.5485440  )
        54           H1  tau(  54) = (   5.7152520   3.3097272  18.2274121  )
        55           H1  tau(  55) = (   6.1788988   1.7551022  18.5268573  )
        56           H1  tau(  56) = (   1.5478348   3.7306874  18.2371031  )
        57           O1  tau(  57) = (   3.1661568   0.0027346  18.3937517  )
        58           H1  tau(  58) = (   4.0701885   0.3469208  18.4697374  )
        59           H1  tau(  59) = (   2.5798038   0.7742236  18.5044111  )

     number of k points=    10  Fermi-Dirac smearing, width (Ry)=  0.0073
                       cart. coord. in units 2pi/alat
        k(    1) = (   0.0000000   0.0000000   0.0000000), wk =   0.1250000
        k(    2) = (   0.0000000   0.0419351   0.0000000), wk =   0.2500000
        k(    3) = (   0.0000000  -0.0838702   0.0000000), wk =   0.1250000
        k(    4) = (   0.0379955   0.0000049   0.0000000), wk =   0.2500000
        k(    5) = (   0.0379955   0.0419400   0.0000000), wk =   0.2500000
        k(    6) = (   0.0379955  -0.0838652   0.0000000), wk =   0.2500000
        k(    7) = (   0.0379955  -0.0419301   0.0000000), wk =   0.2500000
        k(    8) = (  -0.0759910  -0.0000099   0.0000000), wk =   0.1250000
        k(    9) = (  -0.0759910   0.0419252   0.0000000), wk =   0.2500000
        k(   10) = (  -0.0759910  -0.0838800   0.0000000), wk =   0.1250000

     Initial potential from superposition of free atoms

     starting charge  389.99912, renormalised to  406.00000

     negative rho (up, down):  1.306E-02 0.000E+00

     %%%%%%%%%%%%%%%%%%%%%%%%%%%%%%%%%%%%%%%%%%%%%%%%%%%%%%%%%%%%%%%%%%%%%%%%
     %                                                                      %
     % You are using vdW-DF, which was implemented by the Thonhauser group. %
     % Please cite the following two papers that made this development      %
     % possible and the two reviews that describe the various versions:     %
     %                                                                      %
     %   T. Thonhauser et al., PRL 115, 136402 (2015).                      %
     %   T. Thonhauser et al., PRB 76, 125112 (2007).                       %
     %   K. Berland et al., Rep. Prog. Phys. 78, 066501 (2015).             %
     %   D.C. Langreth et al., J. Phys.: Condens. Matter 21, 084203 (2009). %
     %                                                                      %
     %                                                                      %
     % If you are calculating the stress with vdW-DF, please also cite:     %
     %                                                                      %
     %   R. Sabatini et al., J. Phys.: Condens. Matter 24, 424209 (2012).   %
     %                                                                      %
     %%%%%%%%%%%%%%%%%%%%%%%%%%%%%%%%%%%%%%%%%%%%%%%%%%%%%%%%%%%%%%%%%%%%%%%%

     Adding external electric field

     Computed dipole along edir(3) :
        Dipole              -16.1158 Ry au,        -40.9623 Debye
        Dipole field         -0.0304 Ry au,

        Potential amp.        2.8192 Ry
        Total length         46.3494 bohr

     Starting wfcs are  308 atomic wfcs
  @ DRIVER MODE: Message from server: STATUS
  @ DRIVER MODE: Message from server: POSDATA
  @ DRIVER MODE: Reading and sharing cell
  @ DRIVER MODE: Reading and sharing positions
  @ DRIVER MODE: Received positions

     Self-consistent Calculation

     iteration #  1     ecut=    29.40 Ry     beta= 0.05
     Davidson diagonalization with overlap
     c_bands:  2 eigenvalues not converged
     c_bands:  3 eigenvalues not converged
     c_bands:  2 eigenvalues not converged
     c_bands:  3 eigenvalues not converged
     c_bands:  4 eigenvalues not converged
     c_bands:  2 eigenvalues not converged
     c_bands:  1 eigenvalues not converged
     c_bands:  5 eigenvalues not converged
     c_bands:  1 eigenvalues not converged
     ethr =  1.00E-05,  avg # of iterations = 23.1

[...]

     total energy              =   -2140.62077189 Ry
     estimated scf accuracy    <    9598.84669100 Ry

     iteration #  2     ecut=    29.40 Ry     beta= 0.05
     Davidson diagonalization with overlap
     ethr =  1.00E-02,  avg # of iterations = 32.9

[...]

     iteration # 59     ecut=    29.40 Ry     beta= 0.05
     Davidson diagonalization with overlap
     c_bands:  1 eigenvalues not converged
     ethr =  5.83E-11,  avg # of iterations = 12.4

[...]

     total energy              =   -2977.69996132 Ry
     estimated scf accuracy    <       0.00000010 Ry

     iteration # 60     ecut=    29.40 Ry     beta= 0.05
     Davidson diagonalization with overlap
     ethr =  2.46E-11,  avg # of iterations =  7.8

     negative rho (up, down):  1.407E-02 0.000E+00

     Adding external electric field

     Computed dipole along edir(3) :
        Dipole                1.3383 Ry au,          3.4017 Debye
        Dipole field          0.0025 Ry au,

        Potential amp.       -0.2341 Ry
        Total length         46.3494 bohr

     End of self-consistent calculation

          k = 0.0000 0.0000 0.0000 ( 18029 PWs)   bands (ev):

   -55.1191 -55.0824 -55.0750 -55.0409 -55.0351 -55.0299 -54.9982 -54.9623
   -54.9440 -54.9092 -54.9053 -54.8883 -54.8717 -54.8376 -54.1047 -54.0706
   -31.6809 -31.5947 -31.5674 -31.4872 -31.4331 -31.4302 -31.4167 -31.4108
   -31.3639 -31.3411 -31.3306 -31.3197 -31.3129 -31.3102 -31.2918 -31.2836
   -31.2634 -31.2607 -31.2584 -31.2402 -31.2276 -31.2180 -31.2007 -31.1961
   -31.1888 -31.1769 -31.1740 -31.1448 -31.1322 -31.1290 -31.1243 -31.1039
   -31.1010 -31.0934 -31.0902 -31.0661 -31.0574 -31.0406 -31.0333 -31.0312
   -31.0164 -31.0150 -30.5140 -30.4198 -30.3977 -30.3305 -30.2437 -30.1327
   -18.8080 -17.8051 -15.9500 -15.6947 -15.5581 -15.4570 -15.3225 -15.2161
   -15.1348 -15.0207 -14.9709 -14.8554 -14.8233 -14.8187 -14.7791 -14.7477
   -14.6991 -14.6605 -14.6582 -14.6357 -14.6166 -14.6088 -14.5659 -14.5591
   -14.5194 -14.5175 -14.4977 -14.3613 -14.2800 -14.2100 -14.0275 -13.2308
   -12.6072 -12.4897  -9.7887  -6.5394  -6.3879  -5.4761  -4.9299  -3.5429
    -3.2838  -3.1389  -3.0863  -3.0509  -3.0153  -2.9617  -2.8815  -2.8142
    -2.6511  -2.5817  -2.5561  -2.4039  -2.3298  -2.3202  -2.2635  -2.1637
    -2.1394  -2.0924  -2.0504  -1.9855  -1.9487  -1.9247  -1.9029  -1.8677
    -1.8641  -1.8100  -1.7561  -1.6868  -1.5972  -1.5658  -1.5197  -1.4763
    -1.4546  -1.4518  -1.4112  -1.4048  -1.3963  -1.3496  -1.3442  -1.3136
    -1.2680  -1.1580  -1.0083  -0.9450  -0.8590  -0.7620  -0.7409  -0.7107
    -0.6904  -0.6282  -0.6059  -0.5772  -0.5011  -0.4526  -0.3733  -0.3274
    -0.3046  -0.2249  -0.1201  -0.1031  -0.0961  -0.0079   0.0845   0.0972
     0.1120   0.1216   0.2197   0.2849   0.3194   0.3609   0.4247   0.4338
     0.4921   0.5210   0.5743   0.6385   0.6716   0.7526   0.7916   0.8127
     0.8166   0.8391   0.8631   0.8817   0.9538   0.9607   0.9861   1.0748
     1.1792   1.3336   1.4796   1.4904   1.8237   1.8248   1.9182   2.1018
     2.4943   2.5426   3.9753   4.0510   4.1095   4.1206   4.1261   4.2110
     4.4602   4.4779   4.4893   4.4909   4.5259

[...]

          k = 0.0380-0.0419 0.0000 ( 17876 PWs)   bands (ev):

[...]

          k =-0.0760-0.0000 0.0000 ( 17886 PWs)   bands (ev):

[...]

          k =-0.0760-0.0839 0.0000 ( 17948 PWs)   bands (ev):

   -55.1046 -55.0966 -55.0579 -55.0578 -55.0324 -55.0288 -54.9853 -54.9751
   -54.9295 -54.9232 -54.8902 -54.8890 -54.8882 -54.8393 -54.0876 -54.0876
   -31.5101 -31.4906 -31.4808 -31.3825 -31.3824 -31.3769 -31.3703 -31.3492
   -31.3491 -31.3285 -31.3234 -31.3179 -31.3082 -31.2893 -31.2757 -31.2614
   -31.2569 -31.2558 -31.2521 -31.2457 -31.2437 -31.2400 -31.2280 -31.2269
   -31.1976 -31.1970 -31.1795 -31.1777 -31.1776 -31.1687 -31.1684 -31.1626
   -31.1542 -31.1419 -31.1363 -31.1206 -31.1194 -31.1029 -31.0692 -31.0688
   -31.0672 -31.0437 -30.4104 -30.4104 -30.3265 -30.3264 -30.2872 -30.2871
   -18.8066 -17.8017 -15.5301 -15.3915 -15.2525 -15.1488 -15.1340 -15.0803
   -15.0311 -14.9893 -14.9477 -14.9035 -14.8934 -14.8754 -14.8471 -14.8200
   -14.7957 -14.7364 -14.7200 -14.7044 -14.6821 -14.6355 -14.6277 -14.6249
   -14.6178 -14.5716 -14.5690 -14.5437 -14.4753 -14.4733 -14.2866 -13.2328
   -12.5912 -12.5911  -9.7855  -6.5879  -6.3138  -5.4730  -4.9402  -3.5169
    -2.9569  -2.8287  -2.6536  -2.6178  -2.4720  -2.3717  -2.3265  -2.2986
    -2.2446  -2.1990  -2.1389  -2.1240  -2.1054  -2.0471  -2.0210  -2.0024
    -1.9711  -1.9521  -1.9384  -1.9207  -1.9027  -1.8743  -1.8482  -1.8396
    -1.8350  -1.8101  -1.7902  -1.7508  -1.7438  -1.7363  -1.6933  -1.6810
    -1.6546  -1.5981  -1.4905  -1.4804  -1.3280  -1.3257  -1.2932  -1.2461
    -1.2263  -1.2161  -1.1554  -1.1478  -1.1351  -0.9009  -0.8722  -0.8622
    -0.8351  -0.7771  -0.7603  -0.6965  -0.6873  -0.6031  -0.5886  -0.4862
    -0.4713  -0.4178  -0.3308  -0.3230  -0.3109  -0.1993  -0.1503  -0.1126
    -0.0860  -0.0757  -0.0583  -0.0205  -0.0203   0.0698   0.1129   0.1432
     0.1584   0.1886   0.3528   0.4017   0.4114   0.5502   0.5635   0.7160
     0.7750   0.7893   0.8902   0.9025   0.9874   0.9948   1.0344   1.1739
     1.1855   1.2089   1.2558   1.2842   1.3360   1.3412   2.2745   2.2758
     2.3625   2.3627   4.1077   4.2330   4.2393   4.3000   4.4093   4.4426
     4.4887   4.5223   4.5596   4.5626   4.6322

     the Fermi energy is     4.0373 ev

!    total energy              =   -2977.70001684 Ry
     estimated scf accuracy    <       0.00000007 Ry
     smearing contrib. (-TS)   =      -0.03675318 Ry
     internal energy E=F+TS    =   -2977.66326365 Ry

     The total energy is F=E-TS. E is the sum of the following terms:
     one-electron contribution =  -23082.95499318 Ry
     hartree contribution      =   11640.62201951 Ry
     xc contribution           =    -496.62804367 Ry
     ewald contribution        =    8961.29437355 Ry
     electric field correction =       0.00338013 Ry

     convergence has been achieved in  60 iterations

     Forces acting on atoms (cartesian axes, Ry/au):

     atom    1 type  1   force =     0.00017384   -0.00019431    0.09314042
     atom    2 type  1   force =    -0.00010461   -0.00033495   -0.17818723
     atom    3 type  2   force =     0.00002172   -0.00017691   -0.02035968
     atom    4 type  2   force =    -0.00002688   -0.00200557    0.05898706
     atom    5 type  2   force =    -0.01059229   -0.00142482    0.00861259
     atom    6 type  2   force =     0.01185680   -0.00070712    0.00714352
     atom    7 type  1   force =    -0.00089885    0.00314535   -0.01229329
     atom    8 type  1   force =     0.00054168    0.00112695   -0.00451137
     atom    9 type  2   force =    -0.00007247   -0.00036994    0.00015414
     atom   10 type  2   force =    -0.00129581   -0.00051199   -0.00194484
     atom   11 type  2   force =    -0.00021934   -0.00022138   -0.00004942
     atom   12 type  2   force =     0.00060904   -0.00007754   -0.00023516
     atom   13 type  1   force =    -0.00103483   -0.00062485    0.00022970
     atom   14 type  1   force =     0.00012314   -0.00004228    0.00016181
     atom   15 type  2   force =    -0.00027601   -0.00050203   -0.00004094
     atom   16 type  2   force =    -0.00000800   -0.00007461    0.00068515
     atom   17 type  2   force =    -0.00028013    0.00023932    0.00055982
     atom   18 type  2   force =     0.00021915    0.00004895    0.00033767
     atom   19 type  1   force =     0.00025357    0.00007750    0.00052708
     atom   20 type  1   force =    -0.00015455   -0.00021733    0.00025045
     atom   21 type  2   force =     0.00007279   -0.00001689    0.10396068
     atom   22 type  2   force =     0.00003232   -0.00013144   -0.00115851
     atom   23 type  2   force =    -0.07039719   -0.00011318   -0.02688709
     atom   24 type  2   force =     0.07027626    0.00033505   -0.02692729
     atom   25 type  1   force =     0.00000320   -0.00023182    0.09278630
     atom   26 type  1   force =    -0.00020272   -0.00036608   -0.17829605
     atom   27 type  2   force =     0.00010569   -0.00029041   -0.01934073
     atom   28 type  2   force =     0.00003828   -0.00162611    0.05806050
     atom   29 type  2   force =    -0.01067878   -0.00080826    0.00801092
     atom   30 type  2   force =     0.01179745   -0.00048048    0.00653432
     atom   31 type  1   force =    -0.00073468    0.00505511   -0.01492495
     atom   32 type  1   force =     0.00040476   -0.00139889   -0.00478589
     atom   33 type  2   force =    -0.00010898    0.00021390    0.00030431
     atom   34 type  2   force =    -0.00128915    0.00140422   -0.00089931
     atom   35 type  2   force =     0.00019227    0.00013816    0.00002840
     atom   36 type  2   force =     0.00011825   -0.00001203   -0.00011157
     atom   37 type  1   force =    -0.00103833    0.00056094    0.00003953
     atom   38 type  1   force =     0.00015281   -0.00014703   -0.00002938
     atom   39 type  2   force =    -0.00003253   -0.00015306    0.00010405
     atom   40 type  2   force =    -0.00020501    0.00020722    0.00026122
     atom   41 type  2   force =    -0.00002546   -0.00014013    0.00036905
     atom   42 type  2   force =    -0.00009884   -0.00005902    0.00003810
     atom   43 type  1   force =     0.00012089    0.00027419    0.00033767
     atom   44 type  1   force =    -0.00010041    0.00020436   -0.00031790
     atom   45 type  2   force =     0.00003999   -0.00005043    0.10394863
     atom   46 type  2   force =    -0.07039073   -0.00005501   -0.02691802
     atom   47 type  2   force =     0.07029892    0.00037124   -0.02694954
     atom   48 type  3   force =    -0.00611097   -0.01444741    0.00182550
     atom   49 type  3   force =     0.00147461    0.00308979    0.00096541
     atom   50 type  4   force =     0.00041983    0.00397328    0.00033981
     atom   51 type  5   force =    -0.00028725    0.00027069    0.00126953
     atom   52 type  5   force =     0.00056735   -0.00109642   -0.00010076
     atom   53 type  5   force =     0.00044548    0.00038011    0.00026418
     atom   54 type  5   force =     0.00034831   -0.00067709   -0.00057676
     atom   55 type  5   force =     0.00154412    0.00097334    0.00082651
     atom   56 type  5   force =     0.00372953    0.00786473   -0.00506991
     atom   57 type  2   force =    -0.00039445    0.00065167   -0.00057938
     atom   58 type  5   force =     0.00076799   -0.00043286    0.00013536
     atom   59 type  5   force =     0.00030917   -0.00038638    0.00029556

     Total force =     0.366581     Total SCF correction =     0.000659
  @ DRIVER MODE: Message from server: STATUS
  @ DRIVER MODE: Message from server: GETFORCE
  @ DRIVER MODE: Returning v,forces,stress,ensemble

     Writing output data file ./calc.save/
  @ DRIVER MODE: Message from server: EXIT
  @ DRIVE MODE: Exiting

     General routines

     Parallel routines

   This run was terminated on:  17:22:13  15Sep2021

   JOB DONE.