     Program PWSCF v.6.7GPU starts on  2Aug2021 at 22:31:40

     R & G space division:  proc/nbgrp/npool/nimage =      16
     Reading input from /storage/home/hcoda1/3/ntian30/research/carbon/02Aug_vib_paired/ads_slab/CH3NNHHH_a/out_0038/pw.inp
Warning: card &CELL ignored
Warning: card   CELL_DYNAMICS='IPI', ignored
Warning: card / ignored

     Current dimensions of program PWSCF are:
     Max number of different atomic species (ntypx) = 10
     Max number of k-points (npk) =  40000
     Max angular momentum in pseudopotentials (lmaxx) =  3
     Presently no symmetry can be used with electric field

     Message from routine cell_base_init:
     DEPRECATED: use true lattice parameter, not A to a.u. conversion factor

     IMPORTANT: XC functional enforced from input :
     Exchange-correlation= BEEF-VDW
                           (   1   4  43  14   2   0   0)
     Any further DFT definition will be discarded
     Please, verify this is what you really want

  @ DRIVER MODE: Connecting to
 qe_1139763_2482545.sched-torque.pace.gatech.edu43if3l7p_scratch
  using UNIX socket
  @ DRIVER MODE: Message from server: STATUS
  @ DRIVER MODE: Message from server: INIT
  @ DRIVER MODE: Receiving replica           0          -1
  @ DRIVER MODE: Receiving encoded integer          25
  @ DRIVER MODE:  SCF:  T  FORCE:  T  STRESS:  F  VC:  F  ENSEMBLE:  F
  @ DRIVER MODE:  SCF:  T  FORCE:  T  STRESS:  F  VC:  F  ENSEMBLE:  F

     Using Slab Decomposition

     bravais-lattice index     =            0
     lattice parameter (alat)  =       1.8897  a.u.
     unit-cell volume          =    6658.9804 (a.u.)^3
     number of atoms/cell      =           56
     number of atomic types    =            5
     number of electrons       =       398.00
     number of Kohn-Sham states=          209
     kinetic-energy cutoff     =      29.3995  Ry
     charge density cutoff     =     293.9946  Ry
     scf convergence threshold =      7.3E-08
     mixing beta               =       0.0500
     number of iterations used =            8  plain     mixing
     Exchange-correlation= BEEF-VDW
                           (   1   4  43  14   2   0   0)

     celldm(1)=   1.889726  celldm(2)=   0.000000  celldm(3)=   0.000000
     celldm(4)=   0.000000  celldm(5)=   0.000000  celldm(6)=   0.000000

     crystal axes: (cart. coord. in units of alat)
               a(1) = (   6.579727   0.000000   0.000000 )
               a(2) = (  -0.000775   5.961596   0.000000 )
               a(3) = (   0.000000   0.000000  25.155947 )

     reciprocal axes: (cart. coord. in units 2 pi/alat)
               b(1) = (  0.151982  0.000020  0.000000 )
               b(2) = (  0.000000  0.167740  0.000000 )
               b(3) = (  0.000000  0.000000  0.039752 )

     PseudoPot. # 1 for Ti read from file:
     /storage/coda1/p-amedford6/0/shared/rich_project_chbe-medford/medford-share/data/pseudos_module/espresso/nninc/pbe/van/Ti.UPF
     MD5 check sum: 8e4df49b7f0d34bbd5052bf3f5ea0213
     Pseudo is Ultrasoft, Zval = 12.0
     Generated by new atomic code, or converted to UPF format
     Using radial grid of  851 points,  6 beta functions with:
                l(1) =   0
                l(2) =   0
                l(3) =   1
                l(4) =   1
                l(5) =   2
                l(6) =   2
     Q(r) pseudized with  8 coefficients,  rinner =    1.000   1.000   1.000
                                                       1.000   1.000

     PseudoPot. # 2 for O  read from file:
     /storage/coda1/p-amedford6/0/shared/rich_project_chbe-medford/medford-share/data/pseudos_module/espresso/nninc/pbe/van/O.UPF
     MD5 check sum: 78c19812648e8988a0fe644b0f25305e
     Pseudo is Ultrasoft, Zval =  6.0
     Generated by new atomic code, or converted to UPF format
     Using radial grid of  737 points,  4 beta functions with:
                l(1) =   0
                l(2) =   0
                l(3) =   1
                l(4) =   1
     Q(r) pseudized with  8 coefficients,  rinner =    0.800   0.800   0.800

     PseudoPot. # 3 for N  read from file:
     /storage/coda1/p-amedford6/0/shared/rich_project_chbe-medford/medford-share/data/pseudos_module/espresso/nninc/pbe/van/N.UPF
     MD5 check sum: 90d10febe142ad51ac9d5be1deb811c4
     Pseudo is Ultrasoft, Zval =  5.0
     Generated by new atomic code, or converted to UPF format
     Using radial grid of  729 points,  4 beta functions with:
                l(1) =   0
                l(2) =   0
                l(3) =   1
                l(4) =   1
     Q(r) pseudized with  8 coefficients,  rinner =    0.800   0.800   0.800

     PseudoPot. # 4 for C  read from file:
     /storage/coda1/p-amedford6/0/shared/rich_project_chbe-medford/medford-share/data/pseudos_module/espresso/nninc/pbe/van/C.UPF
     MD5 check sum: 1a69bf6b8db32088f5b2163dbdb77a27
     Pseudo is Ultrasoft, Zval =  4.0
     Generated by new atomic code, or converted to UPF format
     Using radial grid of  721 points,  4 beta functions with:
                l(1) =   0
                l(2) =   0
                l(3) =   1
                l(4) =   1
     Q(r) pseudized with  8 coefficients,  rinner =    0.800   0.800   0.800

     PseudoPot. # 5 for H  read from file:
     /storage/coda1/p-amedford6/0/shared/rich_project_chbe-medford/medford-share/data/pseudos_module/espresso/nninc/pbe/van/H.UPF
     MD5 check sum: b5ee9d7bfd3a09ee7748110bda690ff7
     Pseudo is Ultrasoft, Zval =  1.0
     Generated by new atomic code, or converted to UPF format
     Using radial grid of  615 points,  1 beta functions with:
                l(1) =   0
     Q(r) pseudized with  8 coefficients,  rinner =    0.800

     atomic species   valence    mass     pseudopotential
        Ti1           12.00    47.86700     Ti( 1.00)
        O1             6.00    15.99900     O ( 1.00)
        N1             5.00    14.00700     N ( 1.00)
        C1             4.00    12.01100     C ( 1.00)
        H1             1.00     1.00800     H ( 1.00)

     No symmetry found

   Cartesian axes

     site n.     atom                  positions (alat units)
         1           Ti1 tau(   1) = (   0.0004258   2.9801865   6.0000000  )
         2           Ti1 tau(   2) = (   3.2906075   1.4906267   6.0002472  )
         3           O1  tau(   3) = (   0.0006271   0.0005054   7.9858123  )
         4           O1  tau(   4) = (   3.2906025   0.0005020   7.3038282  )
         5           O1  tau(   5) = (   4.5942328   1.4918067   9.2879030  )
         6           O1  tau(   6) = (   1.9868534   1.4903216   9.2879459  )
         7           Ti1 tau(   7) = (   3.2907910   2.8959150   9.1758416  )
         8           Ti1 tau(   8) = (   0.0015273   1.4827037   9.2680791  )
         9           O1  tau(   9) = (   3.2969863   5.9453513  11.3493076  )
        10           O1  tau(  10) = (   0.0116148   5.9584955  10.6183126  )
        11           O1  tau(  11) = (   1.3059050   1.4736943  12.6642453  )
        12           O1  tau(  12) = (   5.3003793   1.4775083  12.6459419  )
        13           Ti1 tau(  13) = (   0.0167275   2.9625105  12.5508078  )
        14           Ti1 tau(  14) = (   3.3131340   1.4712512  12.4909780  )
        15           O1  tau(  15) = (   6.5517612   5.9325698  14.7566896  )
        16           O1  tau(  16) = (   3.3302114   5.9429442  13.9823395  )
        17           O1  tau(  17) = (   4.5243935   1.5056208  16.2316672  )
        18           O1  tau(  18) = (   2.0170937   1.4633510  16.1378485  )
        19           Ti1 tau(  19) = (   3.2500237   2.9242626  15.6920970  )
        20           Ti1 tau(  20) = (   6.5441017   1.2779805  16.1516014  )
        21           O1  tau(  21) = (   3.2904802   0.0005063   4.7018136  )
        22           O1  tau(  22) = (   6.5540411   5.9581837  17.3465722  )
        23           O1  tau(  23) = (   1.3043587   1.4918075   6.0039043  )
        24           O1  tau(  24) = (   5.2767064   1.4903225   6.0039473  )
        25           Ti1 tau(  25) = (   0.0000382   5.9609847   6.0000000  )
        26           Ti1 tau(  26) = (   3.2902200   4.4714249   6.0002472  )
        27           O1  tau(  27) = (   0.0002396   2.9813036   7.9858123  )
        28           O1  tau(  28) = (   3.2902150   2.9813002   7.3038282  )
        29           O1  tau(  29) = (   4.5938453   4.4726049   9.2879030  )
        30           O1  tau(  30) = (   1.9864658   4.4711199   9.2879459  )
        31           Ti1 tau(  31) = (   3.2891106   5.8743827   9.1763621  )
        32           Ti1 tau(  32) = (   0.0006254   4.4649316   9.2693709  )
        33           O1  tau(  33) = (   3.2962403   2.9651072  11.3429128  )
        34           O1  tau(  34) = (   0.0092240   2.9805883  10.6323155  )
        35           O1  tau(  35) = (   1.3076126   4.4641214  12.6643835  )
        36           O1  tau(  36) = (   5.2981430   4.4591552  12.6429889  )
        37           Ti1 tau(  37) = (   0.0194730   5.9489450  12.5196332  )
        38           Ti1 tau(  38) = (   3.3150505   4.4522436  12.4946186  )
        39           O1  tau(  39) = (   6.5702761   2.9869041  14.8038460  )
        40           O1  tau(  40) = (   3.3119818   2.9576719  13.9204832  )
        41           O1  tau(  41) = (   4.5223198   4.3950437  16.2490866  )
        42           O1  tau(  42) = (   2.0356696   4.4339808  16.1311045  )
        43           Ti1 tau(  43) = (   3.3057863   5.9493229  15.7677403  )
        44           Ti1 tau(  44) = (   0.0958844   4.4293496  15.8701971  )
        45           O1  tau(  45) = (   3.2900926   2.9813045   4.7018136  )
        46           O1  tau(  46) = (   1.3039711   4.4726057   6.0039043  )
        47           O1  tau(  47) = (   5.2763189   4.4711207   6.0039473  )
        48           N1  tau(  48) = (   0.0620580   3.0375546  17.6897758  )
        49           C1  tau(  49) = (   1.1116374   2.9693208  18.6984743  )
        50           H1  tau(  50) = (   1.2951007   3.9532040  19.1583453  )
        51           H1  tau(  51) = (   0.8627774   2.2426413  19.4871689  )
        52           H1  tau(  52) = (   2.0263963   2.6228967  18.2308865  )
        53           N1  tau(  53) = (   5.4279256   3.3744730  18.4033390  )
        54           H1  tau(  54) = (   5.6203604   4.1199394  19.0852601  )
        55           H1  tau(  55) = (   4.7934260   3.8076565  17.6395878  )
        56           H1  tau(  56) = (   5.0090149   2.5598412  18.8678436  )

     number of k points=    10  Fermi-Dirac smearing, width (Ry)=  0.0073
                       cart. coord. in units 2pi/alat
        k(    1) = (   0.0000000   0.0000000   0.0000000), wk =   0.1250000
        k(    2) = (   0.0000000   0.0419351   0.0000000), wk =   0.2500000
        k(    3) = (   0.0000000  -0.0838702   0.0000000), wk =   0.1250000
        k(    4) = (   0.0379955   0.0000049   0.0000000), wk =   0.2500000
        k(    5) = (   0.0379955   0.0419400   0.0000000), wk =   0.2500000
        k(    6) = (   0.0379955  -0.0838652   0.0000000), wk =   0.2500000
        k(    7) = (   0.0379955  -0.0419301   0.0000000), wk =   0.2500000
        k(    8) = (  -0.0759910  -0.0000099   0.0000000), wk =   0.1250000
        k(    9) = (  -0.0759910   0.0419252   0.0000000), wk =   0.2500000
        k(   10) = (  -0.0759910  -0.0838800   0.0000000), wk =   0.1250000

     Initial potential from superposition of free atoms

     starting charge  381.99914, renormalised to  398.00000

     negative rho (up, down):  1.617E-02 0.000E+00

     %%%%%%%%%%%%%%%%%%%%%%%%%%%%%%%%%%%%%%%%%%%%%%%%%%%%%%%%%%%%%%%%%%%%%%%%
     %                                                                      %
     % You are using vdW-DF, which was implemented by the Thonhauser group. %
     % Please cite the following two papers that made this development      %
     % possible and the two reviews that describe the various versions:     %
     %                                                                      %
     %   T. Thonhauser et al., PRL 115, 136402 (2015).                      %
     %   T. Thonhauser et al., PRB 76, 125112 (2007).                       %
     %   K. Berland et al., Rep. Prog. Phys. 78, 066501 (2015).             %
     %   D.C. Langreth et al., J. Phys.: Condens. Matter 21, 084203 (2009). %
     %                                                                      %
     %                                                                      %
     % If you are calculating the stress with vdW-DF, please also cite:     %
     %                                                                      %
     %   R. Sabatini et al., J. Phys.: Condens. Matter 24, 424209 (2012).   %
     %                                                                      %
     %%%%%%%%%%%%%%%%%%%%%%%%%%%%%%%%%%%%%%%%%%%%%%%%%%%%%%%%%%%%%%%%%%%%%%%%

     Adding external electric field

     Computed dipole along edir(3) :
        Dipole              -10.5729 Ry au,        -26.8736 Debye
        Dipole field         -0.0200 Ry au,

        Potential amp.        1.8496 Ry
        Total length         46.3494 bohr

     Starting wfcs are  302 atomic wfcs
  @ DRIVER MODE: Message from server: STATUS
  @ DRIVER MODE: Message from server: POSDATA
  @ DRIVER MODE: Reading and sharing cell
  @ DRIVER MODE: Reading and sharing positions
  @ DRIVER MODE: Received positions

     Self-consistent Calculation

     iteration #  1     ecut=    29.40 Ry     beta= 0.05
     Davidson diagonalization with overlap
     c_bands:  3 eigenvalues not converged
     c_bands:  3 eigenvalues not converged
     c_bands:  1 eigenvalues not converged
     c_bands:  5 eigenvalues not converged
     c_bands:  5 eigenvalues not converged
     c_bands:  5 eigenvalues not converged
     c_bands:  1 eigenvalues not converged
     c_bands:  4 eigenvalues not converged
     c_bands:  3 eigenvalues not converged
     ethr =  1.00E-05,  avg # of iterations = 20.0

[...]

     total energy              =   -2442.74909727 Ry
     estimated scf accuracy    <    5591.60346483 Ry

     iteration #  2     ecut=    29.40 Ry     beta= 0.05
     Davidson diagonalization with overlap
     ethr =  1.00E-02,  avg # of iterations = 24.9

[...]

     iteration # 73     ecut=    29.40 Ry     beta= 0.05
     Davidson diagonalization with overlap
     ethr =  8.03E-11,  avg # of iterations =  6.7

[...]

     total energy              =   -2942.82508258 Ry
     estimated scf accuracy    <       0.00000027 Ry

     iteration # 75     ecut=    29.40 Ry     beta= 0.05
     Davidson diagonalization with overlap
     c_bands:  1 eigenvalues not converged
     ethr =  4.22E-11,  avg # of iterations = 12.6

     negative rho (up, down):  1.412E-02 0.000E+00

     Adding external electric field

     Computed dipole along edir(3) :
        Dipole                1.6041 Ry au,          4.0773 Debye
        Dipole field          0.0030 Ry au,

        Potential amp.       -0.2806 Ry
        Total length         46.3494 bohr

     End of self-consistent calculation

          k = 0.0000 0.0000 0.0000 ( 18029 PWs)   bands (ev):

   -55.1441 -55.1074 -55.1053 -55.0712 -55.0264 -55.0111 -54.9883 -54.9454
   -54.9330 -54.9246 -54.9102 -54.9001 -54.8644 -54.7932 -54.1173 -54.0833
   -31.7239 -31.5950 -31.5127 -31.4809 -31.4363 -31.4353 -31.4330 -31.4027
   -31.3988 -31.3953 -31.3686 -31.3537 -31.3502 -31.3216 -31.3038 -31.2787
   -31.2620 -31.2582 -31.2478 -31.2426 -31.2166 -31.2105 -31.2035 -31.1768
   -31.1624 -31.1556 -31.1484 -31.1411 -31.1409 -31.1297 -31.1277 -31.1212
   -31.1044 -31.0955 -31.0897 -31.0636 -31.0607 -31.0485 -31.0418 -31.0357
   -31.0249 -30.9827 -30.5259 -30.4339 -30.4118 -30.3425 -30.2557 -30.1447
   -18.9350 -16.0077 -15.7527 -15.6178 -15.3831 -15.3313 -15.2747 -15.0675
   -15.0657 -14.9935 -14.9786 -14.9304 -14.9110 -14.8437 -14.7591 -14.7382
   -14.6707 -14.6690 -14.6389 -14.6278 -14.6270 -14.5644 -14.5545 -14.5251
   -14.5122 -14.4868 -14.3686 -14.2844 -14.2259 -13.9736 -13.5873 -12.6200
   -12.5029  -9.7404  -7.7189  -7.2210  -5.4513  -3.8154  -3.3452  -3.2796
    -3.1695  -3.1415  -3.0646  -3.0353  -2.8503  -2.8291  -2.4878  -2.4497
    -2.4016  -2.3835  -2.3619  -2.3448  -2.1763  -2.1507  -2.0780  -2.0442
    -2.0260  -1.9859  -1.9694  -1.9593  -1.9255  -1.9200  -1.9108  -1.7036
    -1.6470  -1.5519  -1.5295  -1.5022  -1.4707  -1.4344  -1.4261  -1.4231
    -1.4171  -1.4034  -1.3906  -1.3107  -1.2509  -1.1713  -1.1617  -1.1260
    -1.0226  -0.9759  -0.7748  -0.7610  -0.7153  -0.6733  -0.6105  -0.5891
    -0.5229  -0.4920  -0.4718  -0.3509  -0.3222  -0.2821  -0.2540  -0.1871
    -0.1559  -0.1115  -0.0265   0.0444   0.0794   0.0977   0.1575   0.2876
     0.2986   0.3276   0.3890   0.4523   0.4933   0.5136   0.5320   0.5691
     0.6183   0.7438   0.7888   0.8083   0.8126   0.8465   0.8699   0.9211
     0.9457   1.0053   1.0109   1.1298   1.1989   1.4296   1.4633   1.4852
     1.8174   1.8410   1.9051   2.0911   2.4792   2.5264   3.9605   4.0211
     4.0780   4.0947   4.1137   4.2024   4.2208   4.4233   4.4506   4.4545
     4.4574

[...]

          k = 0.0380-0.0419 0.0000 ( 17876 PWs)   bands (ev):

[...]

          k =-0.0760-0.0000 0.0000 ( 17886 PWs)   bands (ev):

[...]

          k =-0.0760-0.0839 0.0000 ( 17948 PWs)   bands (ev):

   -55.1285 -55.1228 -55.0882 -55.0882 -55.0157 -55.0075 -54.9989 -54.9292
   -54.9280 -54.9252 -54.9177 -54.9163 -54.8607 -54.7969 -54.1003 -54.1001
   -31.5275 -31.5247 -31.4476 -31.4259 -31.4102 -31.4101 -31.3807 -31.3806
   -31.3549 -31.3493 -31.3464 -31.3457 -31.3110 -31.2767 -31.2703 -31.2659
   -31.2645 -31.2605 -31.2586 -31.2523 -31.2211 -31.2175 -31.2151 -31.2122
   -31.2077 -31.2076 -31.1936 -31.1916 -31.1639 -31.1592 -31.1438 -31.1398
   -31.1375 -31.1369 -31.1352 -31.1271 -31.1023 -31.0988 -31.0960 -31.0729
   -31.0475 -31.0303 -30.4245 -30.4243 -30.3385 -30.3383 -30.2991 -30.2991
   -18.9302 -15.5146 -15.4048 -15.2965 -15.2309 -15.1890 -15.1373 -15.1200
   -15.1097 -15.0639 -15.0342 -14.9652 -14.9013 -14.8486 -14.8476 -14.8125
   -14.7343 -14.7205 -14.7135 -14.7028 -14.6464 -14.6397 -14.6082 -14.5874
   -14.5843 -14.5544 -14.4806 -14.4782 -14.3905 -14.1821 -13.6230 -12.6046
   -12.6044  -9.7093  -7.7153  -7.1673  -5.4545  -3.8374  -3.4335  -2.7635
    -2.6524  -2.4417  -2.4157  -2.3560  -2.3355  -2.2499  -2.1895  -2.1680
    -2.1448  -2.1108  -2.1079  -2.0833  -2.0619  -2.0083  -1.9792  -1.9684
    -1.9623  -1.9474  -1.9348  -1.9144  -1.8581  -1.8480  -1.8407  -1.7984
    -1.7873  -1.7556  -1.7494  -1.7106  -1.6937  -1.6175  -1.5250  -1.5004
    -1.4408  -1.3397  -1.3264  -1.3207  -1.2273  -1.2190  -1.1897  -1.1588
    -1.1034  -1.0039  -0.9489  -0.8736  -0.8703  -0.8399  -0.7525  -0.6894
    -0.6557  -0.6455  -0.6062  -0.5493  -0.5257  -0.4930  -0.4100  -0.3686
    -0.3412  -0.3072  -0.2124  -0.1512  -0.1278  -0.0969  -0.0935  -0.0042
     0.0290   0.0658   0.0865   0.1248   0.1514   0.2177   0.2389   0.3489
     0.4189   0.4494   0.5681   0.5920   0.6562   0.7883   0.8597   0.9008
     0.9541   1.0112   1.0381   1.1684   1.1756   1.2023   1.2942   1.3345
     1.3415   1.3545   2.2638   2.2649   2.3465   2.3467   4.0926   4.1793
     4.2225   4.2600   4.3678   4.4770   4.4956   4.5386   4.5390   4.6145
     4.6202

     the Fermi energy is     4.0128 ev

!    total energy              =   -2942.82510126 Ry
     estimated scf accuracy    <       0.00000006 Ry
     smearing contrib. (-TS)   =      -0.03686928 Ry
     internal energy E=F+TS    =   -2942.78823198 Ry

     The total energy is F=E-TS. E is the sum of the following terms:
     one-electron contribution =  -23972.08121565 Ry
     hartree contribution      =   12081.52237836 Ry
     xc contribution           =    -487.76971000 Ry
     ewald contribution        =    9435.53545921 Ry
     electric field correction =       0.00485610 Ry

     convergence has been achieved in  75 iterations

     Forces acting on atoms (cartesian axes, Ry/au):

     atom    1 type  1   force =     0.00014712   -0.00023593    0.09427227
     atom    2 type  1   force =    -0.00009550   -0.00033456   -0.17742191
     atom    3 type  2   force =     0.00005725   -0.00016521   -0.02133879
     atom    4 type  2   force =    -0.00001520   -0.00172480    0.05657361
     atom    5 type  2   force =    -0.01054719   -0.00127617    0.00624457
     atom    6 type  2   force =     0.01221262   -0.00074174    0.00571578
     atom    7 type  1   force =    -0.00033880    0.00172498   -0.01621941
     atom    8 type  1   force =    -0.00010642    0.00438377    0.00558756
     atom    9 type  2   force =     0.00000795   -0.00004086   -0.00004423
     atom   10 type  2   force =    -0.00074399   -0.00021845   -0.00045327
     atom   11 type  2   force =     0.00034460    0.00012198   -0.00020459
     atom   12 type  2   force =    -0.00052433    0.00000187   -0.00013897
     atom   13 type  1   force =     0.00002167   -0.00033185    0.00020417
     atom   14 type  1   force =     0.00057044    0.00010928   -0.00029668
     atom   15 type  2   force =    -0.00039900    0.00023871   -0.00026409
     atom   16 type  2   force =    -0.00033345    0.00019749   -0.00007116
     atom   17 type  2   force =    -0.00025424    0.00008315    0.00035232
     atom   18 type  2   force =     0.00022309    0.00029491   -0.00018420
     atom   19 type  1   force =     0.00017079    0.00010437    0.00012751
     atom   20 type  1   force =     0.00012654    0.00054662   -0.00012257
     atom   21 type  2   force =     0.00003521    0.00003951    0.10359393
     atom   22 type  2   force =    -0.00001542   -0.00074693   -0.00053614
     atom   23 type  2   force =    -0.07081423   -0.00009996   -0.02718299
     atom   24 type  2   force =     0.07067766    0.00033897   -0.02721592
     atom   25 type  1   force =    -0.00009081   -0.00020979    0.09374382
     atom   26 type  1   force =    -0.00013539   -0.00031606   -0.17732604
     atom   27 type  2   force =     0.00008909   -0.00035303   -0.02045005
     atom   28 type  2   force =     0.00003223   -0.00144049    0.05588589
     atom   29 type  2   force =    -0.01091045   -0.00073491    0.00609263
     atom   30 type  2   force =     0.01246263   -0.00029405    0.00557171
     atom   31 type  1   force =    -0.00015965    0.00465061   -0.01719799
     atom   32 type  1   force =    -0.00003095   -0.00482991    0.00558771
     atom   33 type  2   force =     0.00005937    0.00012154    0.00026873
     atom   34 type  2   force =     0.00005812   -0.00085167   -0.00297954
     atom   35 type  2   force =     0.00023158    0.00003251    0.00006509
     atom   36 type  2   force =    -0.00043047    0.00015550   -0.00007798
     atom   37 type  1   force =    -0.00013423   -0.00011679   -0.00007853
     atom   38 type  1   force =     0.00044682   -0.00028072    0.00040388
     atom   39 type  2   force =    -0.00045092    0.00010780    0.00062864
     atom   40 type  2   force =    -0.00012196    0.00018919   -0.00021359
     atom   41 type  2   force =     0.00000673    0.00028203    0.00005532
     atom   42 type  2   force =    -0.00000271    0.00023238   -0.00013150
     atom   43 type  1   force =    -0.00042363    0.00053984    0.00013236
     atom   44 type  1   force =    -0.00021635    0.00025399   -0.00003720
     atom   45 type  2   force =     0.00002621    0.00000607    0.10360612
     atom   46 type  2   force =    -0.07081617   -0.00004034   -0.02718155
     atom   47 type  2   force =     0.07068063    0.00037440   -0.02718575
     atom   48 type  3   force =     0.00036186   -0.00172183   -0.00098355
     atom   49 type  4   force =    -0.00038014   -0.00004592   -0.00061645
     atom   50 type  5   force =     0.00004246    0.00007359    0.00008526
     atom   51 type  5   force =    -0.00022015   -0.00027334    0.00000972
     atom   52 type  5   force =    -0.00032456    0.00000891    0.00015761
     atom   53 type  3   force =     0.00272074    0.00299223    0.00278167
     atom   54 type  5   force =    -0.00262647   -0.00186120   -0.00169783
     atom   55 type  5   force =     0.00005495    0.00068606   -0.00017957
     atom   56 type  5   force =    -0.00020554    0.00039425    0.00028416

     Total force =     0.365609     Total SCF correction =     0.000704
  @ DRIVER MODE: Message from server: STATUS
  @ DRIVER MODE: Message from server: GETFORCE
  @ DRIVER MODE: Returning v,forces,stress,ensemble

     Writing output data file ./calc.save/
  @ DRIVER MODE: Message from server: EXIT
  @ DRIVE MODE: Exiting

     General routines

     Parallel routines

   This run was terminated on:  22:49:24   2Aug2021

   JOB DONE.