     Program PWSCF v.6.7GPU starts on  9Sep2021 at  5:21:10

     R & G space division:  proc/nbgrp/npool/nimage =      10
     Reading input from /storage/home/hcoda1/3/ntian30/research/carbon/CxH_vib/CH3_calc/ads_slab/CH3NHNH2_a/out_0023/pw.inp
Warning: card &CELL ignored
Warning: card   CELL_DYNAMICS='IPI', ignored
Warning: card / ignored

     Current dimensions of program PWSCF are:
     Max number of different atomic species (ntypx) = 10
     Max number of k-points (npk) =  40000
     Max angular momentum in pseudopotentials (lmaxx) =  3
     Presently no symmetry can be used with electric field

     Message from routine cell_base_init:
     DEPRECATED: use true lattice parameter, not A to a.u. conversion factor

     IMPORTANT: XC functional enforced from input :
     Exchange-correlation= BEEF-VDW
                           (   1   4  43  14   2   0   0)
     Any further DFT definition will be discarded
     Please, verify this is what you really want

  @ DRIVER MODE: Connecting to
 qe_1139763_2767398.sched-torque.pace.gatech.eduy29uckrr_scratch
  using UNIX socket
  @ DRIVER MODE: Message from server: STATUS
  @ DRIVER MODE: Message from server: INIT
  @ DRIVER MODE: Receiving replica           0          -1
  @ DRIVER MODE: Receiving encoded integer          25
  @ DRIVER MODE:  SCF:  T  FORCE:  T  STRESS:  F  VC:  F  ENSEMBLE:  F
  @ DRIVER MODE:  SCF:  T  FORCE:  T  STRESS:  F  VC:  F  ENSEMBLE:  F

     Using Slab Decomposition

     bravais-lattice index     =            0
     lattice parameter (alat)  =       1.8897  a.u.
     unit-cell volume          =    6658.9804 (a.u.)^3
     number of atoms/cell      =           56
     number of atomic types    =            5
     number of electrons       =       398.00
     number of Kohn-Sham states=          209
     kinetic-energy cutoff     =      29.3995  Ry
     charge density cutoff     =     293.9946  Ry
     scf convergence threshold =      7.3E-08
     mixing beta               =       0.0500
     number of iterations used =            8  plain     mixing
     Exchange-correlation= BEEF-VDW
                           (   1   4  43  14   2   0   0)

     celldm(1)=   1.889726  celldm(2)=   0.000000  celldm(3)=   0.000000
     celldm(4)=   0.000000  celldm(5)=   0.000000  celldm(6)=   0.000000

     crystal axes: (cart. coord. in units of alat)
               a(1) = (   6.579727   0.000000   0.000000 )
               a(2) = (  -0.000775   5.961596   0.000000 )
               a(3) = (   0.000000   0.000000  25.155947 )

     reciprocal axes: (cart. coord. in units 2 pi/alat)
               b(1) = (  0.151982  0.000020  0.000000 )
               b(2) = (  0.000000  0.167740  0.000000 )
               b(3) = (  0.000000  0.000000  0.039752 )

     PseudoPot. # 1 for Ti read from file:
     /storage/coda1/p-amedford6/0/shared/rich_project_chbe-medford/medford-share/data/pseudos_module/espresso/nninc/pbe/van/Ti.UPF
     MD5 check sum: 8e4df49b7f0d34bbd5052bf3f5ea0213
     Pseudo is Ultrasoft, Zval = 12.0
     Generated by new atomic code, or converted to UPF format
     Using radial grid of  851 points,  6 beta functions with:
                l(1) =   0
                l(2) =   0
                l(3) =   1
                l(4) =   1
                l(5) =   2
                l(6) =   2
     Q(r) pseudized with  8 coefficients,  rinner =    1.000   1.000   1.000
                                                       1.000   1.000

     PseudoPot. # 2 for O  read from file:
     /storage/coda1/p-amedford6/0/shared/rich_project_chbe-medford/medford-share/data/pseudos_module/espresso/nninc/pbe/van/O.UPF
     MD5 check sum: 78c19812648e8988a0fe644b0f25305e
     Pseudo is Ultrasoft, Zval =  6.0
     Generated by new atomic code, or converted to UPF format
     Using radial grid of  737 points,  4 beta functions with:
                l(1) =   0
                l(2) =   0
                l(3) =   1
                l(4) =   1
     Q(r) pseudized with  8 coefficients,  rinner =    0.800   0.800   0.800

     PseudoPot. # 3 for N  read from file:
     /storage/coda1/p-amedford6/0/shared/rich_project_chbe-medford/medford-share/data/pseudos_module/espresso/nninc/pbe/van/N.UPF
     MD5 check sum: 90d10febe142ad51ac9d5be1deb811c4
     Pseudo is Ultrasoft, Zval =  5.0
     Generated by new atomic code, or converted to UPF format
     Using radial grid of  729 points,  4 beta functions with:
                l(1) =   0
                l(2) =   0
                l(3) =   1
                l(4) =   1
     Q(r) pseudized with  8 coefficients,  rinner =    0.800   0.800   0.800

     PseudoPot. # 4 for C  read from file:
     /storage/coda1/p-amedford6/0/shared/rich_project_chbe-medford/medford-share/data/pseudos_module/espresso/nninc/pbe/van/C.UPF
     MD5 check sum: 1a69bf6b8db32088f5b2163dbdb77a27
     Pseudo is Ultrasoft, Zval =  4.0
     Generated by new atomic code, or converted to UPF format
     Using radial grid of  721 points,  4 beta functions with:
                l(1) =   0
                l(2) =   0
                l(3) =   1
                l(4) =   1
     Q(r) pseudized with  8 coefficients,  rinner =    0.800   0.800   0.800

     PseudoPot. # 5 for H  read from file:
     /storage/coda1/p-amedford6/0/shared/rich_project_chbe-medford/medford-share/data/pseudos_module/espresso/nninc/pbe/van/H.UPF
     MD5 check sum: b5ee9d7bfd3a09ee7748110bda690ff7
     Pseudo is Ultrasoft, Zval =  1.0
     Generated by new atomic code, or converted to UPF format
     Using radial grid of  615 points,  1 beta functions with:
                l(1) =   0
     Q(r) pseudized with  8 coefficients,  rinner =    0.800

     atomic species   valence    mass     pseudopotential
        Ti1           12.00    47.86700     Ti( 1.00)
        O1             6.00    15.99900     O ( 1.00)
        N1             5.00    14.00700     N ( 1.00)
        C1             4.00    12.01100     C ( 1.00)
        H1             1.00     1.00800     H ( 1.00)

     No symmetry found

   Cartesian axes

     site n.     atom                  positions (alat units)
         1           Ti1 tau(   1) = (   0.0004258   2.9801865   6.0000000  )
         2           Ti1 tau(   2) = (   3.2906075   1.4906267   6.0002472  )
         3           O1  tau(   3) = (   0.0006271   0.0005054   7.9858123  )
         4           O1  tau(   4) = (   3.2906025   0.0005020   7.3038282  )
         5           O1  tau(   5) = (   4.5942328   1.4918067   9.2879030  )
         6           O1  tau(   6) = (   1.9868534   1.4903216   9.2879459  )
         7           Ti1 tau(   7) = (   3.2907910   2.8959150   9.1758416  )
         8           Ti1 tau(   8) = (   0.0015273   1.4827037   9.2680791  )
         9           O1  tau(   9) = (   3.2714441   0.0289406  11.3813764  )
        10           O1  tau(  10) = (   0.0116148   5.9584955  10.6183126  )
        11           O1  tau(  11) = (   1.2692032   1.5162281  12.7122965  )
        12           O1  tau(  12) = (   5.2779133   1.5159715  12.6811497  )
        13           Ti1 tau(  13) = (   6.5579218   3.0031650  12.5037829  )
        14           Ti1 tau(  14) = (   3.2791490   1.5128154  12.5375672  )
        15           O1  tau(  15) = (   6.5208524   5.8954130  14.6845636  )
        16           O1  tau(  16) = (   3.2849572   0.0099931  14.0031570  )
        17           O1  tau(  17) = (   4.4884262   1.5607690  16.1641467  )
        18           O1  tau(  18) = (   1.9729656   1.5430890  16.0903287  )
        19           Ti1 tau(  19) = (   3.2372663   3.0309179  15.7728032  )
        20           Ti1 tau(  20) = (   6.5553692   1.3539605  15.8053163  )
        21           O1  tau(  21) = (   3.2904802   0.0005063   4.7018136  )
        22           O1  tau(  22) = (   6.5123495   0.2165906  17.2215032  )
        23           O1  tau(  23) = (   1.3043587   1.4918075   6.0039043  )
        24           O1  tau(  24) = (   5.2767064   1.4903225   6.0039473  )
        25           Ti1 tau(  25) = (   0.0000382   5.9609847   6.0000000  )
        26           Ti1 tau(  26) = (   3.2902200   4.4714249   6.0002472  )
        27           O1  tau(  27) = (   0.0002396   2.9813036   7.9858123  )
        28           O1  tau(  28) = (   3.2902150   2.9813002   7.3038282  )
        29           O1  tau(  29) = (   4.5938453   4.4726049   9.2879030  )
        30           O1  tau(  30) = (   1.9864658   4.4711199   9.2879459  )
        31           Ti1 tau(  31) = (   3.2891106   5.8743827   9.1763621  )
        32           Ti1 tau(  32) = (   0.0006254   4.4649316   9.2693709  )
        33           O1  tau(  33) = (   3.2699379   2.9911670  11.3762017  )
        34           O1  tau(  34) = (   0.0092240   2.9805883  10.6323155  )
        35           O1  tau(  35) = (   1.2730946   4.4825978  12.6662957  )
        36           O1  tau(  36) = (   5.2742290   4.4829497  12.6320226  )
        37           Ti1 tau(  37) = (   6.5783117   0.0079037  12.5026730  )
        38           Ti1 tau(  38) = (   3.2784283   4.4905194  12.5286134  )
        39           O1  tau(  39) = (   6.5033290   3.0824797  14.9867588  )
        40           O1  tau(  40) = (   3.2824109   3.0350539  13.9807796  )
        41           O1  tau(  41) = (   4.4804250   4.5097483  16.2808085  )
        42           O1  tau(  42) = (   1.9642025   4.5165872  16.2225063  )
        43           Ti1 tau(  43) = (   3.2609991   0.0502580  15.7998297  )
        44           Ti1 tau(  44) = (   6.5501253   4.5826093  16.0954727  )
        45           O1  tau(  45) = (   3.2900926   2.9813045   4.7018136  )
        46           O1  tau(  46) = (   1.3039711   4.4726057   6.0039043  )
        47           O1  tau(  47) = (   5.2763189   4.4711207   6.0039473  )
        48           N1  tau(  48) = (   0.8845045   3.2634721  19.1145209  )
        49           N1  tau(  49) = (   6.3504243   3.3997271  18.1887592  )
        50           C1  tau(  50) = (   1.2927081   4.5631590  19.6429350  )
        51           H1  tau(  51) = (   0.4658632   5.1229972  20.0956819  )
        52           H1  tau(  52) = (   2.0600825   4.3818216  20.3958833  )
        53           H1  tau(  53) = (   1.7018904   5.1738364  18.8453250  )
        54           H1  tau(  54) = (   0.5628611   2.6866381  19.8888112  )
        55           H1  tau(  55) = (   5.6051421   3.9827062  18.5884547  )
        56           H1  tau(  56) = (   5.9567982   2.4624696  18.0937858  )

     number of k points=    10  Fermi-Dirac smearing, width (Ry)=  0.0073
                       cart. coord. in units 2pi/alat
        k(    1) = (   0.0000000   0.0000000   0.0000000), wk =   0.1250000
        k(    2) = (   0.0000000   0.0419351   0.0000000), wk =   0.2500000
        k(    3) = (   0.0000000  -0.0838702   0.0000000), wk =   0.1250000
        k(    4) = (   0.0379955   0.0000049   0.0000000), wk =   0.2500000
        k(    5) = (   0.0379955   0.0419400   0.0000000), wk =   0.2500000
        k(    6) = (   0.0379955  -0.0838652   0.0000000), wk =   0.2500000
        k(    7) = (   0.0379955  -0.0419301   0.0000000), wk =   0.2500000
        k(    8) = (  -0.0759910  -0.0000099   0.0000000), wk =   0.1250000
        k(    9) = (  -0.0759910   0.0419252   0.0000000), wk =   0.2500000
        k(   10) = (  -0.0759910  -0.0838800   0.0000000), wk =   0.1250000

     Initial potential from superposition of free atoms

     starting charge  381.99914, renormalised to  398.00000

     negative rho (up, down):  1.416E-02 0.000E+00

     %%%%%%%%%%%%%%%%%%%%%%%%%%%%%%%%%%%%%%%%%%%%%%%%%%%%%%%%%%%%%%%%%%%%%%%%
     %                                                                      %
     % You are using vdW-DF, which was implemented by the Thonhauser group. %
     % Please cite the following two papers that made this development      %
     % possible and the two reviews that describe the various versions:     %
     %                                                                      %
     %   T. Thonhauser et al., PRL 115, 136402 (2015).                      %
     %   T. Thonhauser et al., PRB 76, 125112 (2007).                       %
     %   K. Berland et al., Rep. Prog. Phys. 78, 066501 (2015).             %
     %   D.C. Langreth et al., J. Phys.: Condens. Matter 21, 084203 (2009). %
     %                                                                      %
     %                                                                      %
     % If you are calculating the stress with vdW-DF, please also cite:     %
     %                                                                      %
     %   R. Sabatini et al., J. Phys.: Condens. Matter 24, 424209 (2012).   %
     %                                                                      %
     %%%%%%%%%%%%%%%%%%%%%%%%%%%%%%%%%%%%%%%%%%%%%%%%%%%%%%%%%%%%%%%%%%%%%%%%

     Adding external electric field

     Computed dipole along edir(3) :
        Dipole              -11.7163 Ry au,        -29.7798 Debye
        Dipole field         -0.0221 Ry au,

        Potential amp.        2.0496 Ry
        Total length         46.3494 bohr

     Starting wfcs are  302 atomic wfcs
  @ DRIVER MODE: Message from server: STATUS
  @ DRIVER MODE: Message from server: POSDATA
  @ DRIVER MODE: Reading and sharing cell
  @ DRIVER MODE: Reading and sharing positions
  @ DRIVER MODE: Received positions

     Self-consistent Calculation

     iteration #  1     ecut=    29.40 Ry     beta= 0.05
     Davidson diagonalization with overlap
     c_bands:  3 eigenvalues not converged
     c_bands:  1 eigenvalues not converged
     c_bands:  1 eigenvalues not converged
     c_bands:  4 eigenvalues not converged
     c_bands:  1 eigenvalues not converged
     c_bands:  4 eigenvalues not converged
     c_bands:  5 eigenvalues not converged
     c_bands:  2 eigenvalues not converged
     ethr =  1.00E-05,  avg # of iterations = 21.9

[...]

     total energy              =   -2424.55954588 Ry
     estimated scf accuracy    <    5830.21893005 Ry

     iteration #  2     ecut=    29.40 Ry     beta= 0.05
     Davidson diagonalization with overlap
     ethr =  1.00E-02,  avg # of iterations = 22.2

[...]

     iteration # 84     ecut=    29.40 Ry     beta= 0.05
     Davidson diagonalization with overlap
     c_bands:  1 eigenvalues not converged
     ethr =  4.41E-11,  avg # of iterations = 13.8

[...]

     total energy              =   -2942.84388264 Ry
     estimated scf accuracy    <       0.00000012 Ry

     iteration # 85     ecut=    29.40 Ry     beta= 0.05
     Davidson diagonalization with overlap
     ethr =  3.05E-11,  avg # of iterations =  3.3

     negative rho (up, down):  1.513E-02 0.000E+00

     Adding external electric field

     Computed dipole along edir(3) :
        Dipole                1.4945 Ry au,          3.7986 Debye
        Dipole field          0.0028 Ry au,

        Potential amp.       -0.2614 Ry
        Total length         46.3494 bohr

     End of self-consistent calculation

          k = 0.0000 0.0000 0.0000 ( 18029 PWs)   bands (ev):

   -55.2019 -55.1647 -55.1538 -55.1251 -55.1197 -55.0828 -55.0799 -55.0450
   -55.0259 -55.0127 -54.9915 -54.9865 -54.9529 -54.8562 -54.1861 -54.1521
   -31.7682 -31.6519 -31.6467 -31.5680 -31.5151 -31.5140 -31.5111 -31.4927
   -31.4428 -31.4392 -31.4115 -31.4091 -31.3989 -31.3820 -31.3691 -31.3632
   -31.3563 -31.3464 -31.3393 -31.3222 -31.3064 -31.3037 -31.2718 -31.2680
   -31.2575 -31.2567 -31.2380 -31.2286 -31.2110 -31.2103 -31.2061 -31.1854
   -31.1851 -31.1819 -31.1751 -31.1726 -31.1393 -31.1294 -31.1149 -31.0980
   -31.0694 -31.0501 -30.5957 -30.5010 -30.4790 -30.4119 -30.3251 -30.2144
   -17.9590 -16.0352 -15.7728 -15.6275 -15.5152 -15.4039 -15.2845 -15.2537
   -15.1340 -15.0579 -14.9240 -14.8977 -14.8749 -14.8516 -14.8397 -14.8270
   -14.7513 -14.7448 -14.7289 -14.7006 -14.6985 -14.6535 -14.6437 -14.6043
   -14.5792 -14.5579 -14.4535 -14.3652 -14.2911 -14.0749 -13.4407 -12.6888
   -12.5713  -9.7142  -6.5946  -6.0876  -4.5986  -3.3737  -3.2651  -3.2255
    -3.1387  -3.1049  -3.0959  -2.9976  -2.9490  -2.7920  -2.6496  -2.6242
    -2.4930  -2.4179  -2.4015  -2.3771  -2.2474  -2.2123  -2.1610  -2.1219
    -2.0627  -2.0324  -2.0085  -1.9929  -1.9617  -1.9526  -1.9277  -1.8386
    -1.7789  -1.6861  -1.6688  -1.6013  -1.5934  -1.5606  -1.5396  -1.4942
    -1.4838  -1.4343  -1.4269  -1.4142  -1.3945  -1.2660  -1.2231  -1.1132
    -1.0520  -0.9642  -0.8435  -0.8035  -0.7894  -0.6987  -0.6898  -0.6580
    -0.5813  -0.5785  -0.5477  -0.4394  -0.3744  -0.3108  -0.2519  -0.2256
    -0.1923  -0.1150  -0.0242   0.0120   0.0288   0.0518   0.1521   0.1871
     0.2428   0.3096   0.3211   0.3344   0.4138   0.4552   0.5303   0.5669
     0.5846   0.6734   0.6997   0.7276   0.7281   0.7659   0.7802   0.8198
     0.8685   0.8953   0.9818   1.0475   1.1030   1.3476   1.4000   1.4061
     1.7322   1.7401   1.8366   2.0200   2.4130   2.4614   3.8948   3.9636
     4.0394   4.0443   4.0667   4.1306   4.3683   4.3915   4.4004   4.4026
     4.4292

[...]

          k = 0.0380-0.0419 0.0000 ( 17876 PWs)   bands (ev):

[...]

          k =-0.0760-0.0000 0.0000 ( 17886 PWs)   bands (ev):

[...]

          k =-0.0760-0.0839 0.0000 ( 17948 PWs)   bands (ev):

   -55.1881 -55.1783 -55.1368 -55.1365 -55.1238 -55.0785 -55.0655 -55.0594
   -55.0170 -55.0100 -55.0069 -54.9700 -54.9695 -54.8573 -54.1692 -54.1689
   -31.5764 -31.5753 -31.5685 -31.4836 -31.4619 -31.4617 -31.4587 -31.4281
   -31.4280 -31.4126 -31.4018 -31.4002 -31.3914 -31.3658 -31.3564 -31.3435
   -31.3425 -31.3387 -31.3355 -31.3298 -31.3280 -31.3220 -31.2829 -31.2796
   -31.2793 -31.2779 -31.2603 -31.2588 -31.2565 -31.2562 -31.2514 -31.2431
   -31.2402 -31.2231 -31.2198 -31.2037 -31.2031 -31.2002 -31.1507 -31.1504
   -31.1259 -31.0739 -30.4917 -30.4915 -30.4083 -30.4081 -30.3686 -30.3685
   -17.9557 -15.5602 -15.4302 -15.4011 -15.2447 -15.2085 -15.1752 -15.1618
   -15.0409 -15.0035 -14.9787 -14.9695 -14.9519 -14.9115 -14.9059 -14.8990
   -14.8285 -14.8093 -14.8050 -14.7827 -14.7245 -14.7156 -14.7117 -14.7041
   -14.6534 -14.6498 -14.5693 -14.5591 -14.5559 -14.3765 -13.4440 -12.6728
   -12.6728  -9.7304  -6.5788  -6.0877  -4.5774  -3.2381  -2.9519  -2.6926
    -2.6878  -2.6597  -2.4586  -2.3960  -2.3653  -2.3598  -2.2625  -2.2259
    -2.2013  -2.1978  -2.1325  -2.1178  -2.0868  -2.0570  -2.0407  -2.0269
    -2.0112  -1.9970  -1.9715  -1.9341  -1.9261  -1.9178  -1.8859  -1.8642
    -1.8412  -1.8189  -1.8054  -1.7870  -1.7609  -1.7386  -1.6019  -1.5702
    -1.4997  -1.4570  -1.4135  -1.4091  -1.3374  -1.3009  -1.2507  -1.2385
    -1.2214  -1.0818  -1.0233  -0.9726  -0.9526  -0.9416  -0.8126  -0.7985
    -0.7256  -0.7078  -0.6915  -0.6169  -0.5659  -0.5277  -0.5140  -0.4208
    -0.4052  -0.3389  -0.2368  -0.2140  -0.2001  -0.1594  -0.1564  -0.1093
    -0.1022  -0.0180   0.0262   0.0612   0.0721   0.1079   0.3006   0.3167
     0.3267   0.4797   0.4954   0.6372   0.6808   0.7472   0.8062   0.8451
     0.9067   0.9440   1.0567   1.0873   1.1018   1.1099   1.1714   1.1833
     1.2461   1.2568   2.1927   2.1933   2.2812   2.2815   4.0407   4.1481
     4.1557   4.1974   4.3172   4.3474   4.4098   4.4370   4.4786   4.4819
     4.5417

     the Fermi energy is     3.9581 ev

!    total energy              =   -2942.84389093 Ry
     estimated scf accuracy    <       0.00000007 Ry
     smearing contrib. (-TS)   =      -0.03707858 Ry
     internal energy E=F+TS    =   -2942.80681235 Ry

     The total energy is F=E-TS. E is the sum of the following terms:
     one-electron contribution =  -23367.10089587 Ry
     hartree contribution      =   11777.73084451 Ry
     xc contribution           =    -487.74351547 Ry
     ewald contribution        =    9134.30253966 Ry
     electric field correction =       0.00421483 Ry

     convergence has been achieved in  85 iterations

     Forces acting on atoms (cartesian axes, Ry/au):

     atom    1 type  1   force =     0.00017371   -0.00033697    0.09326589
     atom    2 type  1   force =    -0.00005940   -0.00042663   -0.17822904
     atom    3 type  2   force =     0.00002607   -0.00031966   -0.02004331
     atom    4 type  2   force =     0.00002112   -0.00183401    0.05924983
     atom    5 type  2   force =    -0.01045876   -0.00026748    0.00863494
     atom    6 type  2   force =     0.01147307    0.00040432    0.00644896
     atom    7 type  1   force =    -0.00100089    0.00212676   -0.01400079
     atom    8 type  1   force =     0.00081635   -0.00094312   -0.00573389
     atom    9 type  2   force =    -0.00010186    0.00012706   -0.00003581
     atom   10 type  2   force =    -0.00185347    0.00411580    0.00026801
     atom   11 type  2   force =    -0.00006867   -0.00064628    0.00028501
     atom   12 type  2   force =    -0.00001043   -0.00041561    0.00054132
     atom   13 type  1   force =     0.00003983    0.00010020    0.00033012
     atom   14 type  1   force =    -0.00037597    0.00000350    0.00009007
     atom   15 type  2   force =     0.00051868    0.00024020   -0.00034686
     atom   16 type  2   force =     0.00032278   -0.00035327   -0.00007389
     atom   17 type  2   force =    -0.00056588   -0.00002122   -0.00002019
     atom   18 type  2   force =     0.00052679   -0.00019831   -0.00000043
     atom   19 type  1   force =    -0.00004130   -0.00052868    0.00024536
     atom   20 type  1   force =     0.00069937    0.00013795    0.00092889
     atom   21 type  2   force =     0.00012317   -0.00012931    0.10404462
     atom   22 type  2   force =    -0.00039775    0.00020146   -0.00021480
     atom   23 type  2   force =    -0.07026585   -0.00022003   -0.02685910
     atom   24 type  2   force =     0.07025327    0.00021881   -0.02688495
     atom   25 type  1   force =     0.00008163   -0.00031820    0.09258661
     atom   26 type  1   force =    -0.00003235   -0.00058830   -0.17835192
     atom   27 type  2   force =     0.00012947   -0.00016929   -0.01909414
     atom   28 type  2   force =     0.00005020   -0.00163487    0.05860862
     atom   29 type  2   force =    -0.01106221   -0.00056149    0.00931653
     atom   30 type  2   force =     0.01198077   -0.00002204    0.00720515
     atom   31 type  1   force =    -0.00092890    0.00646390   -0.01506782
     atom   32 type  1   force =     0.00086028    0.00101943   -0.00587103
     atom   33 type  2   force =     0.00017439   -0.00057266   -0.00006590
     atom   34 type  2   force =    -0.00185820   -0.00052613   -0.00049628
     atom   35 type  2   force =    -0.00045741    0.00006479   -0.00043363
     atom   36 type  2   force =     0.00035656   -0.00011506    0.00018239
     atom   37 type  1   force =    -0.00051227   -0.00025680    0.00019602
     atom   38 type  1   force =    -0.00004627   -0.00014745   -0.00007050
     atom   39 type  2   force =     0.00029500   -0.00060728   -0.00001821
     atom   40 type  2   force =    -0.00060118   -0.00050999    0.00023990
     atom   41 type  2   force =    -0.00021418   -0.00073335   -0.00069434
     atom   42 type  2   force =     0.00045648   -0.00009374   -0.00014003
     atom   43 type  1   force =     0.00022087   -0.00021180   -0.00016251
     atom   44 type  1   force =     0.00055006    0.00002990    0.00081870
     atom   45 type  2   force =     0.00013429   -0.00014067    0.10399411
     atom   46 type  2   force =    -0.07026995   -0.00016477   -0.02683390
     atom   47 type  2   force =     0.07023859    0.00025883   -0.02689123
     atom   48 type  3   force =     0.00121317    0.00085147   -0.00075575
     atom   49 type  3   force =    -0.00003991   -0.00097520    0.00006457
     atom   50 type  4   force =     0.00309325   -0.00314737   -0.00313123
     atom   51 type  5   force =    -0.00379401    0.00355753    0.00404799
     atom   52 type  5   force =    -0.00025490    0.00016785    0.00017982
     atom   53 type  5   force =     0.00155933   -0.00000474   -0.00155408
     atom   54 type  5   force =    -0.00007569   -0.00169811    0.00073559
     atom   55 type  5   force =     0.00001703   -0.00053257   -0.00017521
     atom   56 type  5   force =    -0.00105796    0.00028269   -0.00025825

     Total force =     0.366416     Total SCF correction =     0.000678
  @ DRIVER MODE: Message from server: STATUS
  @ DRIVER MODE: Message from server: GETFORCE
  @ DRIVER MODE: Returning v,forces,stress,ensemble

     Writing output data file ./calc.save/
  @ DRIVER MODE: Message from server: EXIT
  @ DRIVE MODE: Exiting

     General routines

     Parallel routines

   This run was terminated on:   5:42:43   9Sep2021

   JOB DONE.