     Program PWSCF v.6.7GPU starts on 23Sep2021 at 11:27:20

     R & G space division:  proc/nbgrp/npool/nimage =       8
     Reading input from /storage/home/hcoda1/3/ntian30/research/carbon/CxH_vib/H2O_calc/ads_slab/CH2OHHO_a/out_0037/pw.inp
Warning: card &CELL ignored
Warning: card   CELL_DYNAMICS='IPI', ignored
Warning: card / ignored

     Current dimensions of program PWSCF are:
     Max number of different atomic species (ntypx) = 10
     Max number of k-points (npk) =  40000
     Max angular momentum in pseudopotentials (lmaxx) =  3
     Presently no symmetry can be used with electric field

     Message from routine cell_base_init:
     DEPRECATED: use true lattice parameter, not A to a.u. conversion factor

     IMPORTANT: XC functional enforced from input :
     Exchange-correlation= BEEF-VDW
                           (   1   4  43  14   2   0   0)
     Any further DFT definition will be discarded
     Please, verify this is what you really want

  @ DRIVER MODE: Connecting to
 qe_1139763_2941013.sched-torque.pace.gatech.eduad31dwuv_scratch
  using UNIX socket
  @ DRIVER MODE: Message from server: STATUS
  @ DRIVER MODE: Message from server: INIT
  @ DRIVER MODE: Receiving replica           0          -1
  @ DRIVER MODE: Receiving encoded integer          25
  @ DRIVER MODE:  SCF:  T  FORCE:  T  STRESS:  F  VC:  F  ENSEMBLE:  F
  @ DRIVER MODE:  SCF:  T  FORCE:  T  STRESS:  F  VC:  F  ENSEMBLE:  F

     Using Slab Decomposition

     bravais-lattice index     =            0
     lattice parameter (alat)  =       1.8897  a.u.
     unit-cell volume          =    6658.9804 (a.u.)^3
     number of atoms/cell      =           54
     number of atomic types    =            4
     number of electrons       =       398.00
     number of Kohn-Sham states=          209
     kinetic-energy cutoff     =      29.3995  Ry
     charge density cutoff     =     293.9946  Ry
     scf convergence threshold =      7.3E-08
     mixing beta               =       0.0500
     number of iterations used =            8  plain     mixing
     Exchange-correlation= BEEF-VDW
                           (   1   4  43  14   2   0   0)

     celldm(1)=   1.889726  celldm(2)=   0.000000  celldm(3)=   0.000000
     celldm(4)=   0.000000  celldm(5)=   0.000000  celldm(6)=   0.000000

     crystal axes: (cart. coord. in units of alat)
               a(1) = (   6.579727   0.000000   0.000000 )
               a(2) = (  -0.000775   5.961596   0.000000 )
               a(3) = (   0.000000   0.000000  25.155947 )

     reciprocal axes: (cart. coord. in units 2 pi/alat)
               b(1) = (  0.151982  0.000020  0.000000 )
               b(2) = (  0.000000  0.167740  0.000000 )
               b(3) = (  0.000000  0.000000  0.039752 )

     PseudoPot. # 1 for Ti read from file:
     /storage/coda1/p-amedford6/0/shared/rich_project_chbe-medford/medford-share/data/pseudos_module/espresso/nninc/pbe/van/Ti.UPF
     MD5 check sum: 8e4df49b7f0d34bbd5052bf3f5ea0213
     Pseudo is Ultrasoft, Zval = 12.0
     Generated by new atomic code, or converted to UPF format
     Using radial grid of  851 points,  6 beta functions with:
                l(1) =   0
                l(2) =   0
                l(3) =   1
                l(4) =   1
                l(5) =   2
                l(6) =   2
     Q(r) pseudized with  8 coefficients,  rinner =    1.000   1.000   1.000
                                                       1.000   1.000

     PseudoPot. # 2 for O  read from file:
     /storage/coda1/p-amedford6/0/shared/rich_project_chbe-medford/medford-share/data/pseudos_module/espresso/nninc/pbe/van/O.UPF
     MD5 check sum: 78c19812648e8988a0fe644b0f25305e
     Pseudo is Ultrasoft, Zval =  6.0
     Generated by new atomic code, or converted to UPF format
     Using radial grid of  737 points,  4 beta functions with:
                l(1) =   0
                l(2) =   0
                l(3) =   1
                l(4) =   1
     Q(r) pseudized with  8 coefficients,  rinner =    0.800   0.800   0.800

     PseudoPot. # 3 for C  read from file:
     /storage/coda1/p-amedford6/0/shared/rich_project_chbe-medford/medford-share/data/pseudos_module/espresso/nninc/pbe/van/C.UPF
     MD5 check sum: 1a69bf6b8db32088f5b2163dbdb77a27
     Pseudo is Ultrasoft, Zval =  4.0
     Generated by new atomic code, or converted to UPF format
     Using radial grid of  721 points,  4 beta functions with:
                l(1) =   0
                l(2) =   0
                l(3) =   1
                l(4) =   1
     Q(r) pseudized with  8 coefficients,  rinner =    0.800   0.800   0.800

     PseudoPot. # 4 for H  read from file:
     /storage/coda1/p-amedford6/0/shared/rich_project_chbe-medford/medford-share/data/pseudos_module/espresso/nninc/pbe/van/H.UPF
     MD5 check sum: b5ee9d7bfd3a09ee7748110bda690ff7
     Pseudo is Ultrasoft, Zval =  1.0
     Generated by new atomic code, or converted to UPF format
     Using radial grid of  615 points,  1 beta functions with:
                l(1) =   0
     Q(r) pseudized with  8 coefficients,  rinner =    0.800

     atomic species   valence    mass     pseudopotential
        Ti1           12.00    47.86700     Ti( 1.00)
        O1             6.00    15.99900     O ( 1.00)
        C1             4.00    12.01100     C ( 1.00)
        H1             1.00     1.00800     H ( 1.00)

     No symmetry found

   Cartesian axes

     site n.     atom                  positions (alat units)
         1           Ti1 tau(   1) = (   0.0004258   2.9801865   6.0000000  )
         2           Ti1 tau(   2) = (   3.2906075   1.4906267   6.0002472  )
         3           O1  tau(   3) = (   0.0006271   0.0005054   7.9858123  )
         4           O1  tau(   4) = (   3.2906025   0.0005020   7.3038282  )
         5           O1  tau(   5) = (   4.5942328   1.4918067   9.2879030  )
         6           O1  tau(   6) = (   1.9868534   1.4903216   9.2879459  )
         7           Ti1 tau(   7) = (   3.2053781   3.0281819   9.2289109  )
         8           Ti1 tau(   8) = (   6.4789090   1.5422439   9.3246958  )
         9           O1  tau(   9) = (   3.3131828   0.0076525  11.3143355  )
        10           O1  tau(  10) = (   0.0036331   0.0073455  10.5537702  )
        11           O1  tau(  11) = (   1.2849538   1.5262321  12.5678262  )
        12           O1  tau(  12) = (   5.3289628   1.4687457  12.6164477  )
        13           Ti1 tau(  13) = (   0.0494698   3.0469090  12.7547230  )
        14           Ti1 tau(  14) = (   3.2845375   1.6334081  12.5308488  )
        15           O1  tau(  15) = (   0.1943872   0.0117586  14.6058021  )
        16           O1  tau(  16) = (   3.1943342   5.9422946  13.9142442  )
        17           O1  tau(  17) = (   4.6623408   1.4089460  15.7678261  )
        18           O1  tau(  18) = (   2.0428328   1.6351894  16.0888801  )
        19           Ti1 tau(  19) = (   3.4388860   2.9458104  15.8736401  )
        20           Ti1 tau(  20) = (   0.1295272   1.3814375  15.8666627  )
        21           O1  tau(  21) = (   3.2904802   0.0005063   4.7018136  )
        22           O1  tau(  22) = (   0.0846747   0.0144810  17.1090220  )
        23           O1  tau(  23) = (   1.3043587   1.4918075   6.0039043  )
        24           O1  tau(  24) = (   5.2767064   1.4903225   6.0039473  )
        25           Ti1 tau(  25) = (   0.0000382   5.9609847   6.0000000  )
        26           Ti1 tau(  26) = (   3.2902200   4.4714249   6.0002472  )
        27           O1  tau(  27) = (   0.0002396   2.9813036   7.9858123  )
        28           O1  tau(  28) = (   3.2902150   2.9813002   7.3038282  )
        29           O1  tau(  29) = (   4.5938453   4.4726049   9.2879030  )
        30           O1  tau(  30) = (   1.9864658   4.4711199   9.2879459  )
        31           Ti1 tau(  31) = (   3.2224821   0.0470802   9.2230333  )
        32           Ti1 tau(  32) = (   6.4759698   4.4664252   9.3127940  )
        33           O1  tau(  33) = (   3.3094535   2.9663607  11.2852029  )
        34           O1  tau(  34) = (   6.5591786   2.9896559  10.5312464  )
        35           O1  tau(  35) = (   1.2916819   4.4480478  12.5709280  )
        36           O1  tau(  36) = (   5.3369627   4.5124161  12.6303246  )
        37           Ti1 tau(  37) = (   6.5569224   0.0640291  12.4639877  )
        38           Ti1 tau(  38) = (   3.2972653   4.6387695  12.6472152  )
        39           O1  tau(  39) = (   0.0654804   2.9943531  14.6628162  )
        40           O1  tau(  40) = (   3.3673531   2.9793459  13.8791815  )
        41           O1  tau(  41) = (   4.6654837   4.5585741  15.7845026  )
        42           O1  tau(  42) = (   2.0434307   4.3527116  16.0649513  )
        43           Ti1 tau(  43) = (   3.4443475   5.9291804  16.0141943  )
        44           Ti1 tau(  44) = (   0.1552736   4.5966999  15.8683145  )
        45           O1  tau(  45) = (   3.2900926   2.9813045   4.7018136  )
        46           O1  tau(  46) = (   1.3039711   4.4726057   6.0039043  )
        47           O1  tau(  47) = (   5.2763189   4.4711207   6.0039473  )
        48           C1  tau(  48) = (   4.6056898   2.9812133  17.8228851  )
        49           O1  tau(  49) = (   6.0966523   2.9907575  17.4046881  )
        50           H1  tau(  50) = (   0.0599730   2.9907033  18.2108262  )
        51           H1  tau(  51) = (   4.4920754   2.0732530  18.4117920  )
        52           H1  tau(  52) = (   4.4771298   3.8877196  18.4106030  )
        53           O1  tau(  53) = (   3.3127961   5.9530928  17.8757943  )
        54           H1  tau(  54) = (   2.4187022   0.1083392  18.2542858  )

     number of k points=    10  Fermi-Dirac smearing, width (Ry)=  0.0073
                       cart. coord. in units 2pi/alat
        k(    1) = (   0.0000000   0.0000000   0.0000000), wk =   0.1250000
        k(    2) = (   0.0000000   0.0419351   0.0000000), wk =   0.2500000
        k(    3) = (   0.0000000  -0.0838702   0.0000000), wk =   0.1250000
        k(    4) = (   0.0379955   0.0000049   0.0000000), wk =   0.2500000
        k(    5) = (   0.0379955   0.0419400   0.0000000), wk =   0.2500000
        k(    6) = (   0.0379955  -0.0838652   0.0000000), wk =   0.2500000
        k(    7) = (   0.0379955  -0.0419301   0.0000000), wk =   0.2500000
        k(    8) = (  -0.0759910  -0.0000099   0.0000000), wk =   0.1250000
        k(    9) = (  -0.0759910   0.0419252   0.0000000), wk =   0.2500000
        k(   10) = (  -0.0759910  -0.0838800   0.0000000), wk =   0.1250000

     Initial potential from superposition of free atoms

     starting charge  381.99917, renormalised to  398.00000

     negative rho (up, down):  1.910E-02 0.000E+00

     %%%%%%%%%%%%%%%%%%%%%%%%%%%%%%%%%%%%%%%%%%%%%%%%%%%%%%%%%%%%%%%%%%%%%%%%
     %                                                                      %
     % You are using vdW-DF, which was implemented by the Thonhauser group. %
     % Please cite the following two papers that made this development      %
     % possible and the two reviews that describe the various versions:     %
     %                                                                      %
     %   T. Thonhauser et al., PRL 115, 136402 (2015).                      %
     %   T. Thonhauser et al., PRB 76, 125112 (2007).                       %
     %   K. Berland et al., Rep. Prog. Phys. 78, 066501 (2015).             %
     %   D.C. Langreth et al., J. Phys.: Condens. Matter 21, 084203 (2009). %
     %                                                                      %
     %                                                                      %
     % If you are calculating the stress with vdW-DF, please also cite:     %
     %                                                                      %
     %   R. Sabatini et al., J. Phys.: Condens. Matter 24, 424209 (2012).   %
     %                                                                      %
     %%%%%%%%%%%%%%%%%%%%%%%%%%%%%%%%%%%%%%%%%%%%%%%%%%%%%%%%%%%%%%%%%%%%%%%%

     Adding external electric field

     Computed dipole along edir(3) :
        Dipole               -7.9392 Ry au,        -20.1794 Debye
        Dipole field         -0.0150 Ry au,

        Potential amp.        1.3888 Ry
        Total length         46.3494 bohr

     Starting wfcs are  300 atomic wfcs
  @ DRIVER MODE: Message from server: STATUS
  @ DRIVER MODE: Message from server: POSDATA
  @ DRIVER MODE: Reading and sharing cell
  @ DRIVER MODE: Reading and sharing positions
  @ DRIVER MODE: Received positions

     Self-consistent Calculation

     iteration #  1     ecut=    29.40 Ry     beta= 0.05
     Davidson diagonalization with overlap
     c_bands:  1 eigenvalues not converged
     c_bands:  2 eigenvalues not converged
     c_bands:  2 eigenvalues not converged
     c_bands:  1 eigenvalues not converged
     c_bands:  1 eigenvalues not converged
     c_bands:  1 eigenvalues not converged
     ethr =  1.00E-05,  avg # of iterations = 18.7

[...]

     total energy              =   -2649.60710564 Ry
     estimated scf accuracy    <    3499.62728618 Ry

[...]

     iteration #  3     ecut=    29.40 Ry     beta= 0.05
     Davidson diagonalization with overlap
     ethr =  1.00E-02,  avg # of iterations = 13.6

[...]

     iteration # 38     ecut=    29.40 Ry     beta= 0.05
     Davidson diagonalization with overlap
     c_bands:  2 eigenvalues not converged
     c_bands:  1 eigenvalues not converged
     ethr =  1.18E-06,  avg # of iterations = 13.6

[...]

     total energy              =   -2964.91866565 Ry
     estimated scf accuracy    <       0.00000062 Ry

     iteration # 71     ecut=    29.40 Ry     beta= 0.05
     Davidson diagonalization with overlap
     ethr =  7.25E-11,  avg # of iterations =  5.0

     negative rho (up, down):  1.875E-02 0.000E+00

     Adding external electric field

     Computed dipole along edir(3) :
        Dipole                0.6454 Ry au,          1.6405 Debye
        Dipole field          0.0012 Ry au,

        Potential amp.       -0.1129 Ry
        Total length         46.3494 bohr

     End of self-consistent calculation

          k = 0.0000 0.0000 0.0000 ( 18029 PWs)   bands (ev):

   -56.4311 -56.3662 -55.7976 -55.7959 -55.7496 -55.7454 -55.7422 -55.7014
   -55.6945 -55.6469 -55.4563 -55.4440 -55.3799 -55.3619 -54.9567 -54.9228
   -32.8335 -32.7068 -32.6299 -32.6021 -32.5002 -32.4582 -32.4115 -32.3222
   -32.2152 -32.1833 -32.1051 -32.0617 -32.0412 -32.0050 -32.0034 -31.9954
   -31.9761 -31.9614 -31.9564 -31.9445 -31.9390 -31.9361 -31.9240 -31.9064
   -31.8936 -31.8916 -31.8734 -31.8641 -31.8519 -31.8339 -31.8240 -31.7991
   -31.7581 -31.7039 -31.6613 -31.6476 -31.6212 -31.5931 -31.5899 -31.5593
   -31.5492 -31.4201 -31.3494 -31.3038 -31.2792 -31.1652 -31.0791 -30.9701
   -19.3239 -16.5888 -16.4327 -16.2914 -16.1468 -15.9528 -15.9233 -15.8232
   -15.7237 -15.6816 -15.6014 -15.5726 -15.4346 -15.3847 -15.3564 -15.3350
   -15.3156 -15.2962 -15.2818 -15.2440 -15.2284 -15.1943 -15.1412 -15.0755
   -15.0542 -15.0016 -14.9706 -14.9548 -14.8698 -14.8052 -14.7240 -13.4639
   -13.3580  -9.1609  -6.1930  -4.0870  -3.9729  -3.9290  -3.8702  -3.7824
    -3.7194  -3.6825  -3.6192  -3.3068  -3.1746  -3.0810  -3.0266  -3.0032
    -2.9279  -2.9266  -2.9127  -2.7944  -2.7354  -2.7088  -2.6475  -2.6310
    -2.5877  -2.5532  -2.5487  -2.5341  -2.4917  -2.4520  -2.4119  -2.3926
    -2.3471  -2.2639  -2.2457  -2.1685  -2.1339  -2.1122  -2.0249  -1.9594
    -1.9503  -1.9128  -1.8890  -1.7821  -1.6061  -1.5195  -1.4618  -1.4074
    -1.3861  -1.3183  -1.3092  -1.2502  -1.1934  -1.1685  -1.1652  -1.0489
    -0.9966  -0.9637  -0.9177  -0.8835  -0.8192  -0.7720  -0.7558  -0.7263
    -0.7121  -0.6036  -0.5168  -0.4977  -0.4689  -0.4356  -0.3144  -0.2684
    -0.2357  -0.2083  -0.1917  -0.1505  -0.1053  -0.0381   0.0068   0.0626
     0.1011   0.1722   0.1822   0.2207   0.2563   0.2921   0.3558   0.3711
     0.4749   0.5039   0.5597   0.5965   0.7415   0.7701   0.9329   0.9914
     1.0539   1.1485   1.2745   1.3367   1.5844   1.6237   1.7824   2.8840
     3.0469   3.3145   3.3592   3.4944   3.5650   3.6225   3.7641   3.7911
     3.8444

[...]

          k = 0.0380-0.0419 0.0000 ( 17876 PWs)   bands (ev):

[...]

          k =-0.0760-0.0000 0.0000 ( 17886 PWs)   bands (ev):

[...]

          k =-0.0760-0.0839 0.0000 ( 17948 PWs)   bands (ev):

   -56.4264 -56.3708 -55.7898 -55.7895 -55.7571 -55.7485 -55.7381 -55.7086
   -55.6873 -55.6541 -55.4531 -55.4392 -55.3847 -55.3649 -54.9398 -54.9395
   -32.7038 -32.6725 -32.6320 -32.6267 -32.5737 -32.5258 -32.3338 -32.1613
   -32.1072 -32.0739 -32.0534 -32.0354 -32.0349 -32.0221 -32.0148 -32.0129
   -31.9976 -31.9819 -31.9764 -31.9567 -31.9555 -31.9529 -31.9498 -31.9370
   -31.9241 -31.9038 -31.8931 -31.8840 -31.8675 -31.8384 -31.7847 -31.7675
   -31.7555 -31.7225 -31.7153 -31.6819 -31.6622 -31.6492 -31.6333 -31.6015
   -31.5964 -31.4211 -31.2924 -31.2922 -31.1631 -31.1627 -31.1223 -31.1221
   -19.3164 -16.1875 -16.1283 -15.9405 -15.9049 -15.8285 -15.8268 -15.7775
   -15.7377 -15.6408 -15.5856 -15.5668 -15.4949 -15.4707 -15.4536 -15.4278
   -15.3770 -15.3523 -15.3287 -15.3177 -15.2722 -15.2495 -15.2460 -15.1988
   -15.1464 -15.1197 -15.1016 -15.0501 -14.9941 -14.9353 -14.8820 -13.4653
   -13.4595  -9.1690  -6.1749  -4.0756  -3.6664  -3.6176  -3.3382  -3.1557
    -2.9763  -2.9645  -2.9509  -2.9431  -2.8743  -2.8675  -2.8186  -2.7784
    -2.7227  -2.7027  -2.6754  -2.6701  -2.6640  -2.6225  -2.6119  -2.5858
    -2.5591  -2.5537  -2.5108  -2.5036  -2.4836  -2.4365  -2.4226  -2.3895
    -2.3598  -2.3333  -2.2810  -2.2244  -2.2052  -2.1919  -2.0643  -1.9959
    -1.9913  -1.9155  -1.9013  -1.8728  -1.8331  -1.7572  -1.6957  -1.6570
    -1.5246  -1.5047  -1.4488  -1.4106  -1.3367  -1.3251  -1.2415  -1.2122
    -1.1674  -1.1391  -1.1064  -1.0853  -1.0651  -1.0614  -0.9377  -0.9062
    -0.8513  -0.8389  -0.8064  -0.7734  -0.7496  -0.6936  -0.6247  -0.6163
    -0.5675  -0.5202  -0.4533  -0.4148  -0.3340  -0.2773  -0.2372  -0.1699
    -0.0636   0.0575   0.0961   0.2008   0.2980   0.3055   0.3713   0.4214
     0.4478   0.4927   0.5776   0.5887   0.6560   0.6674   0.7012   0.7580
     0.8071   0.8799   1.4244   1.4404   1.4619   1.4647   1.7206   3.4276
     3.4543   3.4744   3.5171   3.6635   3.7566   3.7833   3.8496   3.8947
     3.9187

     the Fermi energy is     2.4066 ev

!    total energy              =   -2964.91867965 Ry
     estimated scf accuracy    <       0.00000003 Ry
     smearing contrib. (-TS)   =      -0.00043787 Ry
     internal energy E=F+TS    =   -2964.91824178 Ry

     The total energy is F=E-TS. E is the sum of the following terms:
     one-electron contribution =  -24900.60863603 Ry
     hartree contribution      =   12540.69066006 Ry
     xc contribution           =    -490.06049704 Ry
     ewald contribution        =    9885.05944508 Ry
     electric field correction =       0.00078614 Ry

     convergence has been achieved in  71 iterations

     Forces acting on atoms (cartesian axes, Ry/au):

     atom    1 type  1   force =     0.00009970   -0.00023099    0.12241598
     atom    2 type  1   force =     0.00010561    0.00183499   -0.15181088
     atom    3 type  2   force =    -0.00067953   -0.00092063   -0.05775679
     atom    4 type  2   force =    -0.00119453    0.00051986    0.04763734
     atom    5 type  2   force =    -0.01071500   -0.00519122   -0.00144672
     atom    6 type  2   force =     0.01358752    0.00025553   -0.00015422
     atom    7 type  1   force =    -0.00026820    0.00014467    0.00007604
     atom    8 type  1   force =     0.00040107   -0.00012653   -0.00038233
     atom    9 type  2   force =     0.00001266   -0.00023510    0.00039276
     atom   10 type  2   force =    -0.00012054   -0.00005550    0.00013194
     atom   11 type  2   force =    -0.00046491   -0.00026953    0.00026873
     atom   12 type  2   force =     0.00018073    0.00007900    0.00000075
     atom   13 type  1   force =     0.00040720   -0.00010298   -0.00003563
     atom   14 type  1   force =    -0.00010735   -0.00029842    0.00000367
     atom   15 type  2   force =    -0.00028987   -0.00016710   -0.00019133
     atom   16 type  2   force =     0.00017390    0.00006170   -0.00017866
     atom   17 type  2   force =    -0.00010755   -0.00006986    0.00003649
     atom   18 type  2   force =    -0.00011300   -0.00017643    0.00006849
     atom   19 type  1   force =    -0.00033534    0.00000607   -0.00007758
     atom   20 type  1   force =    -0.00015326    0.00020606   -0.00056831
     atom   21 type  2   force =     0.00026838    0.00012775    0.09729347
     atom   22 type  2   force =    -0.00028233   -0.00032403   -0.00010488
     atom   23 type  2   force =    -0.08312437    0.00238562   -0.03358206
     atom   24 type  2   force =     0.08317394    0.00267421   -0.03364693
     atom   25 type  1   force =     0.00042608    0.00037979    0.13898661
     atom   26 type  1   force =     0.00005440   -0.00119209   -0.15163853
     atom   27 type  2   force =    -0.00069586    0.00143532   -0.05289839
     atom   28 type  2   force =    -0.00117874    0.00017612    0.04595112
     atom   29 type  2   force =    -0.01132516    0.00058619   -0.00074381
     atom   30 type  2   force =     0.01405517    0.00412644    0.00076116
     atom   31 type  1   force =    -0.00049549   -0.00017293    0.00015190
     atom   32 type  1   force =     0.00035329   -0.00005315   -0.00015607
     atom   33 type  2   force =    -0.00024589    0.00012163    0.00007112
     atom   34 type  2   force =     0.00013651    0.00008454    0.00013172
     atom   35 type  2   force =    -0.00020380    0.00054549    0.00034903
     atom   36 type  2   force =     0.00023055   -0.00000768   -0.00016255
     atom   37 type  1   force =    -0.00062834    0.00028511    0.00024069
     atom   38 type  1   force =    -0.00032986   -0.00037252   -0.00016497
     atom   39 type  2   force =     0.00005534   -0.00010665    0.00033763
     atom   40 type  2   force =    -0.00027951   -0.00009715    0.00030998
     atom   41 type  2   force =     0.00000385   -0.00046681    0.00001561
     atom   42 type  2   force =    -0.00043429   -0.00022576    0.00029374
     atom   43 type  1   force =    -0.00023457   -0.00000293   -0.00017424
     atom   44 type  1   force =    -0.00015664   -0.00016136   -0.00004562
     atom   45 type  2   force =     0.00023446    0.00013415    0.09736952
     atom   46 type  2   force =    -0.08304191   -0.00265031   -0.03359750
     atom   47 type  2   force =     0.08307798   -0.00230438   -0.03370284
     atom   48 type  3   force =    -0.00008146   -0.00004354    0.00001474
     atom   49 type  2   force =     0.00003006    0.00001736   -0.00011812
     atom   50 type  4   force =     0.00030050    0.00006745   -0.00024633
     atom   51 type  4   force =     0.00010158   -0.00015879    0.00024122
     atom   52 type  4   force =    -0.00020577    0.00001713   -0.00012761
     atom   53 type  2   force =    -0.01621141    0.00257930    0.00750760
     atom   54 type  4   force =     0.01623397   -0.00266712   -0.00734615

     Total force =     0.378579     Total SCF correction =     0.000878
  @ DRIVER MODE: Message from server: STATUS
  @ DRIVER MODE: Message from server: GETFORCE
  @ DRIVER MODE: Returning v,forces,stress,ensemble

     Writing output data file ./calc.save/
  @ DRIVER MODE: Message from server: EXIT
  @ DRIVE MODE: Exiting

     General routines

     Parallel routines

   This run was terminated on:  11:50:33  23Sep2021

   JOB DONE.