     Program PWSCF v.6.7GPU starts on  9Sep2021 at  2:31:56

     R & G space division:  proc/nbgrp/npool/nimage =      10
     Reading input from /storage/home/hcoda1/3/ntian30/research/carbon/CxH_vib/CH_calc/ads_slab/CHN_a/out_0016/pw.inp
Warning: card &CELL ignored
Warning: card   CELL_DYNAMICS='IPI', ignored
Warning: card / ignored

     Current dimensions of program PWSCF are:
     Max number of different atomic species (ntypx) = 10
     Max number of k-points (npk) =  40000
     Max angular momentum in pseudopotentials (lmaxx) =  3
     Presently no symmetry can be used with electric field

     Message from routine cell_base_init:
     DEPRECATED: use true lattice parameter, not A to a.u. conversion factor

     IMPORTANT: XC functional enforced from input :
     Exchange-correlation= BEEF-VDW
                           (   1   4  43  14   2   0   0)
     Any further DFT definition will be discarded
     Please, verify this is what you really want

  @ DRIVER MODE: Connecting to
 qe_1139763_2767383.sched-torque.pace.gatech.edu4ky_270m_scratch
  using UNIX socket
  @ DRIVER MODE: Message from server: STATUS
  @ DRIVER MODE: Message from server: INIT
  @ DRIVER MODE: Receiving replica           0          -1
  @ DRIVER MODE: Receiving encoded integer          25
  @ DRIVER MODE:  SCF:  T  FORCE:  T  STRESS:  F  VC:  F  ENSEMBLE:  F
  @ DRIVER MODE:  SCF:  T  FORCE:  T  STRESS:  F  VC:  F  ENSEMBLE:  F

     Using Slab Decomposition

     bravais-lattice index     =            0
     lattice parameter (alat)  =       1.8897  a.u.
     unit-cell volume          =    6658.9804 (a.u.)^3
     number of atoms/cell      =           50
     number of atomic types    =            5
     number of electrons       =       388.00
     number of Kohn-Sham states=          204
     kinetic-energy cutoff     =      29.3995  Ry
     charge density cutoff     =     293.9946  Ry
     scf convergence threshold =      7.3E-08
     mixing beta               =       0.0500
     number of iterations used =            8  plain     mixing
     Exchange-correlation= BEEF-VDW
                           (   1   4  43  14   2   0   0)

     celldm(1)=   1.889726  celldm(2)=   0.000000  celldm(3)=   0.000000
     celldm(4)=   0.000000  celldm(5)=   0.000000  celldm(6)=   0.000000

     crystal axes: (cart. coord. in units of alat)
               a(1) = (   6.579727   0.000000   0.000000 )
               a(2) = (  -0.000775   5.961596   0.000000 )
               a(3) = (   0.000000   0.000000  25.155947 )

     reciprocal axes: (cart. coord. in units 2 pi/alat)
               b(1) = (  0.151982  0.000020  0.000000 )
               b(2) = (  0.000000  0.167740  0.000000 )
               b(3) = (  0.000000  0.000000  0.039752 )

     PseudoPot. # 1 for Ti read from file:
     /storage/coda1/p-amedford6/0/shared/rich_project_chbe-medford/medford-share/data/pseudos_module/espresso/nninc/pbe/van/Ti.UPF
     MD5 check sum: 8e4df49b7f0d34bbd5052bf3f5ea0213
     Pseudo is Ultrasoft, Zval = 12.0
     Generated by new atomic code, or converted to UPF format
     Using radial grid of  851 points,  6 beta functions with:
                l(1) =   0
                l(2) =   0
                l(3) =   1
                l(4) =   1
                l(5) =   2
                l(6) =   2
     Q(r) pseudized with  8 coefficients,  rinner =    1.000   1.000   1.000
                                                       1.000   1.000

     PseudoPot. # 2 for O  read from file:
     /storage/coda1/p-amedford6/0/shared/rich_project_chbe-medford/medford-share/data/pseudos_module/espresso/nninc/pbe/van/O.UPF
     MD5 check sum: 78c19812648e8988a0fe644b0f25305e
     Pseudo is Ultrasoft, Zval =  6.0
     Generated by new atomic code, or converted to UPF format
     Using radial grid of  737 points,  4 beta functions with:
                l(1) =   0
                l(2) =   0
                l(3) =   1
                l(4) =   1
     Q(r) pseudized with  8 coefficients,  rinner =    0.800   0.800   0.800

     PseudoPot. # 3 for N  read from file:
     /storage/coda1/p-amedford6/0/shared/rich_project_chbe-medford/medford-share/data/pseudos_module/espresso/nninc/pbe/van/N.UPF
     MD5 check sum: 90d10febe142ad51ac9d5be1deb811c4
     Pseudo is Ultrasoft, Zval =  5.0
     Generated by new atomic code, or converted to UPF format
     Using radial grid of  729 points,  4 beta functions with:
                l(1) =   0
                l(2) =   0
                l(3) =   1
                l(4) =   1
     Q(r) pseudized with  8 coefficients,  rinner =    0.800   0.800   0.800

     PseudoPot. # 4 for C  read from file:
     /storage/coda1/p-amedford6/0/shared/rich_project_chbe-medford/medford-share/data/pseudos_module/espresso/nninc/pbe/van/C.UPF
     MD5 check sum: 1a69bf6b8db32088f5b2163dbdb77a27
     Pseudo is Ultrasoft, Zval =  4.0
     Generated by new atomic code, or converted to UPF format
     Using radial grid of  721 points,  4 beta functions with:
                l(1) =   0
                l(2) =   0
                l(3) =   1
                l(4) =   1
     Q(r) pseudized with  8 coefficients,  rinner =    0.800   0.800   0.800

     PseudoPot. # 5 for H  read from file:
     /storage/coda1/p-amedford6/0/shared/rich_project_chbe-medford/medford-share/data/pseudos_module/espresso/nninc/pbe/van/H.UPF
     MD5 check sum: b5ee9d7bfd3a09ee7748110bda690ff7
     Pseudo is Ultrasoft, Zval =  1.0
     Generated by new atomic code, or converted to UPF format
     Using radial grid of  615 points,  1 beta functions with:
                l(1) =   0
     Q(r) pseudized with  8 coefficients,  rinner =    0.800

     atomic species   valence    mass     pseudopotential
        Ti1           12.00    47.86700     Ti( 1.00)
        O1             6.00    15.99900     O ( 1.00)
        N1             5.00    14.00700     N ( 1.00)
        C1             4.00    12.01100     C ( 1.00)
        H1             1.00     1.00800     H ( 1.00)

     No symmetry found

   Cartesian axes

     site n.     atom                  positions (alat units)
         1           Ti1 tau(   1) = (   0.0004258   2.9801865   6.0000000  )
         2           Ti1 tau(   2) = (   3.2906075   1.4906267   6.0002472  )
         3           O1  tau(   3) = (   0.0006271   0.0005054   7.9858123  )
         4           O1  tau(   4) = (   3.2906025   0.0005020   7.3038282  )
         5           O1  tau(   5) = (   4.5942328   1.4918067   9.2879030  )
         6           O1  tau(   6) = (   1.9868534   1.4903216   9.2879459  )
         7           Ti1 tau(   7) = (   3.2907910   2.8959150   9.1758416  )
         8           Ti1 tau(   8) = (   0.0015273   1.4827037   9.2680791  )
         9           O1  tau(   9) = (   3.3014052   0.0114069  11.3737528  )
        10           O1  tau(  10) = (   0.0116148   5.9584955  10.6183126  )
        11           O1  tau(  11) = (   1.3012034   1.4994444  12.6801950  )
        12           O1  tau(  12) = (   5.3042999   1.4981222  12.6788946  )
        13           Ti1 tau(  13) = (   0.0222102   2.9879630  12.5217794  )
        14           Ti1 tau(  14) = (   3.3166014   1.4969944  12.5290657  )
        15           O1  tau(  15) = (   0.0131148   5.9114811  14.6787674  )
        16           O1  tau(  16) = (   3.3052116   5.9585997  13.9918696  )
        17           O1  tau(  17) = (   4.5573354   1.5165695  16.1403462  )
        18           O1  tau(  18) = (   2.0429717   1.5180214  16.1331141  )
        19           Ti1 tau(  19) = (   3.3061463   3.0045039  15.7576854  )
        20           Ti1 tau(  20) = (   0.0190008   1.3629876  15.8180984  )
        21           O1  tau(  21) = (   3.2904802   0.0005063   4.7018136  )
        22           O1  tau(  22) = (   0.0120025   0.1123878  17.2186474  )
        23           O1  tau(  23) = (   1.3043587   1.4918075   6.0039043  )
        24           O1  tau(  24) = (   5.2767064   1.4903225   6.0039473  )
        25           Ti1 tau(  25) = (   0.0000382   5.9609847   6.0000000  )
        26           Ti1 tau(  26) = (   3.2902200   4.4714249   6.0002472  )
        27           O1  tau(  27) = (   0.0002396   2.9813036   7.9858123  )
        28           O1  tau(  28) = (   3.2902150   2.9813002   7.3038282  )
        29           O1  tau(  29) = (   4.5938453   4.4726049   9.2879030  )
        30           O1  tau(  30) = (   1.9864658   4.4711199   9.2879459  )
        31           Ti1 tau(  31) = (   3.2891106   5.8743827   9.1763621  )
        32           Ti1 tau(  32) = (   0.0006254   4.4649316   9.2693709  )
        33           O1  tau(  33) = (   3.3015003   2.9799855  11.3692792  )
        34           O1  tau(  34) = (   0.0092240   2.9805883  10.6323155  )
        35           O1  tau(  35) = (   1.3024855   4.4701597  12.6493271  )
        36           O1  tau(  36) = (   5.3029933   4.4710749  12.6473438  )
        37           Ti1 tau(  37) = (   0.0213219   5.9581237  12.5009821  )
        38           Ti1 tau(  38) = (   3.3165689   4.4756321  12.5216884  )
        39           O1  tau(  39) = (   0.0062450   3.0260372  14.9395602  )
        40           O1  tau(  40) = (   3.3068494   3.0035608  13.9656762  )
        41           O1  tau(  41) = (   4.5532872   4.4785133  16.2063021  )
        42           O1  tau(  42) = (   2.0453360   4.4758230  16.1992630  )
        43           Ti1 tau(  43) = (   3.3068391   0.0190840  15.7907057  )
        44           Ti1 tau(  44) = (   0.0173475   4.5946531  16.0781683  )
        45           O1  tau(  45) = (   3.2900926   2.9813045   4.7018136  )
        46           O1  tau(  46) = (   1.3039711   4.4726057   6.0039043  )
        47           O1  tau(  47) = (   5.2763189   4.4711207   6.0039473  )
        48           N1  tau(  48) = (   0.0050225   3.2246995  17.9653954  )
        49           C1  tau(  49) = (   6.5749124   2.4458835  18.8135322  )
        50           H1  tau(  50) = (   6.5624368   1.7031146  19.5645906  )

     number of k points=    10  Fermi-Dirac smearing, width (Ry)=  0.0073
                       cart. coord. in units 2pi/alat
        k(    1) = (   0.0000000   0.0000000   0.0000000), wk =   0.1250000
        k(    2) = (   0.0000000   0.0419351   0.0000000), wk =   0.2500000
        k(    3) = (   0.0000000  -0.0838702   0.0000000), wk =   0.1250000
        k(    4) = (   0.0379955   0.0000049   0.0000000), wk =   0.2500000
        k(    5) = (   0.0379955   0.0419400   0.0000000), wk =   0.2500000
        k(    6) = (   0.0379955  -0.0838652   0.0000000), wk =   0.2500000
        k(    7) = (   0.0379955  -0.0419301   0.0000000), wk =   0.2500000
        k(    8) = (  -0.0759910  -0.0000099   0.0000000), wk =   0.1250000
        k(    9) = (  -0.0759910   0.0419252   0.0000000), wk =   0.2500000
        k(   10) = (  -0.0759910  -0.0838800   0.0000000), wk =   0.1250000

     Initial potential from superposition of free atoms

     starting charge  371.99919, renormalised to  388.00000

     negative rho (up, down):  1.809E-02 0.000E+00

     %%%%%%%%%%%%%%%%%%%%%%%%%%%%%%%%%%%%%%%%%%%%%%%%%%%%%%%%%%%%%%%%%%%%%%%%
     %                                                                      %
     % You are using vdW-DF, which was implemented by the Thonhauser group. %
     % Please cite the following two papers that made this development      %
     % possible and the two reviews that describe the various versions:     %
     %                                                                      %
     %   T. Thonhauser et al., PRL 115, 136402 (2015).                      %
     %   T. Thonhauser et al., PRB 76, 125112 (2007).                       %
     %   K. Berland et al., Rep. Prog. Phys. 78, 066501 (2015).             %
     %   D.C. Langreth et al., J. Phys.: Condens. Matter 21, 084203 (2009). %
     %                                                                      %
     %                                                                      %
     % If you are calculating the stress with vdW-DF, please also cite:     %
     %                                                                      %
     %   R. Sabatini et al., J. Phys.: Condens. Matter 24, 424209 (2012).   %
     %                                                                      %
     %%%%%%%%%%%%%%%%%%%%%%%%%%%%%%%%%%%%%%%%%%%%%%%%%%%%%%%%%%%%%%%%%%%%%%%%

     Adding external electric field

     Computed dipole along edir(3) :
        Dipole               -4.8585 Ry au,        -12.3490 Debye
        Dipole field         -0.0092 Ry au,

        Potential amp.        0.8499 Ry
        Total length         46.3494 bohr

     Starting wfcs are  293 atomic wfcs
  @ DRIVER MODE: Message from server: STATUS
  @ DRIVER MODE: Message from server: POSDATA
  @ DRIVER MODE: Reading and sharing cell
  @ DRIVER MODE: Reading and sharing positions
  @ DRIVER MODE: Received positions

     Self-consistent Calculation

     iteration #  1     ecut=    29.40 Ry     beta= 0.05
     Davidson diagonalization with overlap
     c_bands:  5 eigenvalues not converged
     c_bands:  5 eigenvalues not converged
     c_bands:  4 eigenvalues not converged
     c_bands:  5 eigenvalues not converged
     c_bands:  3 eigenvalues not converged
     c_bands:  5 eigenvalues not converged
     c_bands:  4 eigenvalues not converged
     c_bands:  3 eigenvalues not converged
     c_bands:  1 eigenvalues not converged
     ethr =  1.00E-05,  avg # of iterations = 20.0

[...]

     total energy              =   -2846.19825761 Ry
     estimated scf accuracy    <     789.36420852 Ry

     iteration #  2     ecut=    29.40 Ry     beta= 0.05
     Davidson diagonalization with overlap
     ethr =  1.00E-02,  avg # of iterations = 15.4

[...]

     iteration # 50     ecut=    29.40 Ry     beta= 0.05
     Davidson diagonalization with overlap
     c_bands:  1 eigenvalues not converged
     c_bands:  1 eigenvalues not converged
     ethr =  1.92E-09,  avg # of iterations = 13.3

[...]

     total energy              =   -2916.61469054 Ry
     estimated scf accuracy    <       0.00000027 Ry

     iteration # 58     ecut=    29.40 Ry     beta= 0.05
     Davidson diagonalization with overlap
     ethr =  7.04E-11,  avg # of iterations = 11.7

     negative rho (up, down):  1.832E-02 0.000E+00

     Adding external electric field

     Computed dipole along edir(3) :
        Dipole                1.5155 Ry au,          3.8519 Debye
        Dipole field          0.0029 Ry au,

        Potential amp.       -0.2651 Ry
        Total length         46.3494 bohr

     End of self-consistent calculation

          k = 0.0000 0.0000 0.0000 ( 18029 PWs)   bands (ev):

   -55.4460 -55.4100 -55.4028 -55.3687 -55.3250 -55.3213 -55.2854 -55.2648
   -55.2556 -55.2428 -55.2321 -55.2304 -55.1985 -55.1386 -54.4288 -54.3948
   -32.0125 -31.8949 -31.8476 -31.8100 -31.7555 -31.7541 -31.7489 -31.7366
   -31.6919 -31.6777 -31.6550 -31.6475 -31.6414 -31.6163 -31.5998 -31.5874
   -31.5829 -31.5687 -31.5629 -31.5549 -31.5352 -31.5261 -31.5163 -31.5007
   -31.4952 -31.4748 -31.4671 -31.4598 -31.4522 -31.4484 -31.4445 -31.4301
   -31.4245 -31.4160 -31.4131 -31.4125 -31.3787 -31.3635 -31.3604 -31.3454
   -31.3426 -31.2597 -30.8381 -30.7443 -30.7222 -30.6545 -30.5677 -30.4568
   -17.4156 -16.2629 -15.9944 -15.8418 -15.7369 -15.6411 -15.5065 -15.4879
   -15.3628 -15.2722 -15.1505 -15.0970 -15.0780 -15.0597 -15.0512 -15.0350
   -14.9876 -14.9830 -14.9521 -14.9405 -14.9178 -14.8803 -14.8748 -14.8414
   -14.8224 -14.7517 -14.6773 -14.6011 -14.5349 -14.2311 -12.9316 -12.8142
    -9.1098  -4.6865  -3.6054  -3.5068  -3.4584  -3.3583  -3.3408  -3.2666
    -3.2504  -3.1896  -3.0260  -2.8474  -2.7850  -2.7112  -2.6468  -2.6347
    -2.6056  -2.4466  -2.4086  -2.3593  -2.3049  -2.2802  -2.2527  -2.2297
    -2.1951  -2.1771  -2.1729  -2.1655  -2.0093  -1.9387  -1.9052  -1.8547
    -1.8376  -1.7861  -1.7639  -1.7315  -1.7279  -1.7219  -1.6704  -1.6548
    -1.6191  -1.5218  -1.4655  -1.3306  -1.2888  -1.1470  -1.0832  -1.0202
    -1.0080  -0.9291  -0.8913  -0.8834  -0.8271  -0.7974  -0.7823  -0.6590
    -0.5579  -0.5111  -0.4546  -0.4244  -0.3775  -0.3413  -0.2518  -0.2258
    -0.2094  -0.1991  -0.0558  -0.0290   0.0532   0.0787   0.1111   0.1121
     0.2190   0.2331   0.3076   0.3550   0.3857   0.4463   0.4967   0.4997
     0.5215   0.5455   0.5541   0.6474   0.6670   0.6787   0.7507   0.8955
     1.1273   1.1682   1.1803   1.5005   1.5129   1.5937   1.7780   2.1696
     2.2177   3.6520   3.7238   3.7935   3.8025   3.8407   3.8887   4.1210
     4.1330   4.1528   4.1593   4.1936

[...]

          k = 0.0380-0.0419 0.0000 ( 17876 PWs)   bands (ev):

[...]

          k =-0.0760-0.0000 0.0000 ( 17886 PWs)   bands (ev):

[...]

          k =-0.0760-0.0839 0.0000 ( 17948 PWs)   bands (ev):

   -55.4295 -55.4263 -55.3859 -55.3854 -55.3212 -55.3087 -55.2980 -55.2529
   -55.2488 -55.2465 -55.2460 -55.2155 -55.2152 -55.1413 -54.4120 -54.4115
   -31.8175 -31.8149 -31.7714 -31.7213 -31.7102 -31.7097 -31.6974 -31.6774
   -31.6771 -31.6541 -31.6447 -31.6416 -31.6320 -31.5896 -31.5818 -31.5783
   -31.5764 -31.5724 -31.5711 -31.5647 -31.5339 -31.5312 -31.5230 -31.5219
   -31.5135 -31.5053 -31.5051 -31.5042 -31.4909 -31.4816 -31.4801 -31.4788
   -31.4623 -31.4591 -31.4456 -31.4443 -31.4432 -31.4353 -31.3960 -31.3956
   -31.3502 -31.3490 -30.7350 -30.7346 -30.6507 -30.6504 -30.6113 -30.6110
   -17.4101 -15.7776 -15.6672 -15.6345 -15.4530 -15.4425 -15.4062 -15.3944
   -15.2511 -15.2071 -15.2012 -15.1901 -15.1433 -15.1391 -15.1387 -15.1131
   -15.0426 -15.0363 -15.0316 -15.0153 -14.9592 -14.9479 -14.9449 -14.9279
   -14.8966 -14.8926 -14.7985 -14.7953 -14.6875 -14.5870 -12.9157 -12.9157
    -9.1074  -4.6738  -3.4178  -3.2647  -2.9371  -2.9020  -2.8963  -2.6634
    -2.6359  -2.6040  -2.5598  -2.4884  -2.4404  -2.4171  -2.4158  -2.3473
    -2.2991  -2.2919  -2.2834  -2.2659  -2.2588  -2.2379  -2.2039  -2.1709
    -2.1611  -2.1327  -2.1170  -2.0979  -2.0792  -2.0438  -2.0303  -2.0055
    -2.0019  -1.8991  -1.8739  -1.7917  -1.7514  -1.7193  -1.6484  -1.6427
    -1.5401  -1.5363  -1.4835  -1.4719  -1.4312  -1.3258  -1.2405  -1.1898
    -1.1849  -1.1755  -1.0718  -1.0070  -0.9791  -0.9444  -0.9194  -0.8376
    -0.7808  -0.7604  -0.7189  -0.6355  -0.6306  -0.5673  -0.4652  -0.4235
    -0.4074  -0.4019  -0.3806  -0.3284  -0.3171  -0.2552  -0.2119  -0.1769
    -0.1660  -0.1209   0.0900   0.0927   0.1403   0.2522   0.2934   0.4412
     0.5185   0.5369   0.6125   0.6481   0.6721   0.7389   0.8470   0.8648
     0.8783   0.9490   0.9884   1.0123   1.0219   1.9508   1.9514   2.0376
     2.0377   3.7733   3.8876   3.9202   3.9691   4.0139   4.0676   4.1718
     4.1927   4.2352   4.3060   4.3103

     the Fermi energy is     3.7114 ev

!    total energy              =   -2916.61473715 Ry
     estimated scf accuracy    <       0.00000005 Ry
     smearing contrib. (-TS)   =      -0.03747253 Ry
     internal energy E=F+TS    =   -2916.57726463 Ry

     The total energy is F=E-TS. E is the sum of the following terms:
     one-electron contribution =  -24444.72867801 Ry
     hartree contribution      =   12309.82937810 Ry
     xc contribution           =    -478.37699104 Ry
     ewald contribution        =    9696.69469225 Ry
     electric field correction =       0.00433408 Ry

     convergence has been achieved in  58 iterations

     Forces acting on atoms (cartesian axes, Ry/au):

     atom    1 type  1   force =    -0.00000109   -0.00028723    0.09345591
     atom    2 type  1   force =    -0.00017981   -0.00046549   -0.17790370
     atom    3 type  2   force =     0.00002243   -0.00034299   -0.02063092
     atom    4 type  2   force =    -0.00003538   -0.00186476    0.05835104
     atom    5 type  2   force =    -0.01036250   -0.00073475    0.00709412
     atom    6 type  2   force =     0.01202765   -0.00013630    0.00686533
     atom    7 type  1   force =    -0.00011114    0.00193291   -0.01366597
     atom    8 type  1   force =    -0.00009677    0.00176214   -0.00208113
     atom    9 type  2   force =    -0.00004713   -0.00044790   -0.00035222
     atom   10 type  2   force =    -0.00120400    0.00258726   -0.00300301
     atom   11 type  2   force =    -0.00067234   -0.00012824    0.00011962
     atom   12 type  2   force =     0.00051165   -0.00008711   -0.00007248
     atom   13 type  1   force =    -0.00007582   -0.00002417    0.00008866
     atom   14 type  1   force =    -0.00001456   -0.00004697    0.00028129
     atom   15 type  2   force =    -0.00010741    0.00020207    0.00003802
     atom   16 type  2   force =    -0.00002973   -0.00010689   -0.00020132
     atom   17 type  2   force =     0.00061251    0.00003499   -0.00012741
     atom   18 type  2   force =    -0.00016184    0.00001498    0.00024821
     atom   19 type  1   force =    -0.00026713    0.00035440    0.00026923
     atom   20 type  1   force =    -0.00013286    0.00034628    0.00037531
     atom   21 type  2   force =    -0.00002335   -0.00011604    0.10389500
     atom   22 type  2   force =    -0.00007364    0.00025143    0.00028830
     atom   23 type  2   force =    -0.07052571   -0.00020894   -0.02696075
     atom   24 type  2   force =     0.07031510    0.00023207   -0.02701080
     atom   25 type  1   force =     0.00000910   -0.00033713    0.09302358
     atom   26 type  1   force =    -0.00018693   -0.00053298   -0.17810888
     atom   27 type  2   force =     0.00006078   -0.00023282   -0.01964468
     atom   28 type  2   force =     0.00001307   -0.00163898    0.05782833
     atom   29 type  2   force =    -0.01086664   -0.00056671    0.00759230
     atom   30 type  2   force =     0.01239173   -0.00022009    0.00733564
     atom   31 type  1   force =    -0.00004244    0.00594542   -0.01475134
     atom   32 type  1   force =    -0.00011344   -0.00213824   -0.00203724
     atom   33 type  2   force =     0.00002004   -0.00005866   -0.00032422
     atom   34 type  2   force =    -0.00064829   -0.00100157   -0.00064205
     atom   35 type  2   force =    -0.00012279   -0.00006901    0.00011906
     atom   36 type  2   force =    -0.00007127   -0.00000874    0.00019367
     atom   37 type  1   force =     0.00021570   -0.00078840    0.00009716
     atom   38 type  1   force =    -0.00004851   -0.00009225    0.00023095
     atom   39 type  2   force =     0.00011589   -0.00045457    0.00006461
     atom   40 type  2   force =    -0.00021950   -0.00011791   -0.00046239
     atom   41 type  2   force =     0.00033729   -0.00012930   -0.00044054
     atom   42 type  2   force =     0.00008629    0.00009727   -0.00003071
     atom   43 type  1   force =    -0.00016101   -0.00007868    0.00020482
     atom   44 type  1   force =     0.00008232    0.00012141    0.00039655
     atom   45 type  2   force =    -0.00002458   -0.00015276    0.10384859
     atom   46 type  2   force =    -0.07049476   -0.00018220   -0.02694316
     atom   47 type  2   force =     0.07028756    0.00024917   -0.02700089
     atom   48 type  3   force =     0.00026997    0.00003606    0.00036496
     atom   49 type  4   force =    -0.00018552    0.00843452   -0.00756102
     atom   50 type  5   force =    -0.00007116   -0.00880361    0.00728658

     Total force =     0.366226     Total SCF correction =     0.000607
  @ DRIVER MODE: Message from server: STATUS
  @ DRIVER MODE: Message from server: GETFORCE
  @ DRIVER MODE: Returning v,forces,stress,ensemble

     Writing output data file ./calc.save/
  @ DRIVER MODE: Message from server: EXIT
  @ DRIVE MODE: Exiting

     General routines

     Parallel routines

   This run was terminated on:   2:46:47   9Sep2021

   JOB DONE.