     Program PWSCF v.6.7GPU starts on 23Aug2021 at 19:18:10

     R & G space division:  proc/nbgrp/npool/nimage =       6
     Reading input from /storage/home/hcoda1/3/ntian30/research/carbon/CH_vib/ads_slab/CHN_a/out_0014/pw.inp
Warning: card &CELL ignored
Warning: card   CELL_DYNAMICS='IPI', ignored
Warning: card / ignored

     Current dimensions of program PWSCF are:
     Max number of different atomic species (ntypx) = 10
     Max number of k-points (npk) =  40000
     Max angular momentum in pseudopotentials (lmaxx) =  3
     Presently no symmetry can be used with electric field

     Message from routine cell_base_init:
     DEPRECATED: use true lattice parameter, not A to a.u. conversion factor

     IMPORTANT: XC functional enforced from input :
     Exchange-correlation= BEEF-VDW
                           (   1   4  43  14   2   0   0)
     Any further DFT definition will be discarded
     Please, verify this is what you really want

  @ DRIVER MODE: Connecting to
 qe_1139763_2632801.sched-torque.pace.gatech.edumbjkio_4_scratch
  using UNIX socket
  @ DRIVER MODE: Message from server: STATUS
  @ DRIVER MODE: Message from server: INIT
  @ DRIVER MODE: Receiving replica           0          -1
  @ DRIVER MODE: Receiving encoded integer          25
  @ DRIVER MODE:  SCF:  T  FORCE:  T  STRESS:  F  VC:  F  ENSEMBLE:  F
  @ DRIVER MODE:  SCF:  T  FORCE:  T  STRESS:  F  VC:  F  ENSEMBLE:  F

     Using Slab Decomposition

     bravais-lattice index     =            0
     lattice parameter (alat)  =       1.8897  a.u.
     unit-cell volume          =    6658.9804 (a.u.)^3
     number of atoms/cell      =           50
     number of atomic types    =            5
     number of electrons       =       388.00
     number of Kohn-Sham states=          204
     kinetic-energy cutoff     =      29.3995  Ry
     charge density cutoff     =     293.9946  Ry
     scf convergence threshold =      7.3E-08
     mixing beta               =       0.0500
     number of iterations used =            8  plain     mixing
     Exchange-correlation= BEEF-VDW
                           (   1   4  43  14   2   0   0)

     celldm(1)=   1.889726  celldm(2)=   0.000000  celldm(3)=   0.000000
     celldm(4)=   0.000000  celldm(5)=   0.000000  celldm(6)=   0.000000

     crystal axes: (cart. coord. in units of alat)
               a(1) = (   6.579727   0.000000   0.000000 )
               a(2) = (  -0.000775   5.961596   0.000000 )
               a(3) = (   0.000000   0.000000  25.155947 )

     reciprocal axes: (cart. coord. in units 2 pi/alat)
               b(1) = (  0.151982  0.000020  0.000000 )
               b(2) = (  0.000000  0.167740  0.000000 )
               b(3) = (  0.000000  0.000000  0.039752 )

     PseudoPot. # 1 for Ti read from file:
     /storage/coda1/p-amedford6/0/shared/rich_project_chbe-medford/medford-share/data/pseudos_module/espresso/nninc/pbe/van/Ti.UPF
     MD5 check sum: 8e4df49b7f0d34bbd5052bf3f5ea0213
     Pseudo is Ultrasoft, Zval = 12.0
     Generated by new atomic code, or converted to UPF format
     Using radial grid of  851 points,  6 beta functions with:
                l(1) =   0
                l(2) =   0
                l(3) =   1
                l(4) =   1
                l(5) =   2
                l(6) =   2
     Q(r) pseudized with  8 coefficients,  rinner =    1.000   1.000   1.000
                                                       1.000   1.000

     PseudoPot. # 2 for O  read from file:
     /storage/coda1/p-amedford6/0/shared/rich_project_chbe-medford/medford-share/data/pseudos_module/espresso/nninc/pbe/van/O.UPF
     MD5 check sum: 78c19812648e8988a0fe644b0f25305e
     Pseudo is Ultrasoft, Zval =  6.0
     Generated by new atomic code, or converted to UPF format
     Using radial grid of  737 points,  4 beta functions with:
                l(1) =   0
                l(2) =   0
                l(3) =   1
                l(4) =   1
     Q(r) pseudized with  8 coefficients,  rinner =    0.800   0.800   0.800

     PseudoPot. # 3 for N  read from file:
     /storage/coda1/p-amedford6/0/shared/rich_project_chbe-medford/medford-share/data/pseudos_module/espresso/nninc/pbe/van/N.UPF
     MD5 check sum: 90d10febe142ad51ac9d5be1deb811c4
     Pseudo is Ultrasoft, Zval =  5.0
     Generated by new atomic code, or converted to UPF format
     Using radial grid of  729 points,  4 beta functions with:
                l(1) =   0
                l(2) =   0
                l(3) =   1
                l(4) =   1
     Q(r) pseudized with  8 coefficients,  rinner =    0.800   0.800   0.800

     PseudoPot. # 4 for C  read from file:
     /storage/coda1/p-amedford6/0/shared/rich_project_chbe-medford/medford-share/data/pseudos_module/espresso/nninc/pbe/van/C.UPF
     MD5 check sum: 1a69bf6b8db32088f5b2163dbdb77a27
     Pseudo is Ultrasoft, Zval =  4.0
     Generated by new atomic code, or converted to UPF format
     Using radial grid of  721 points,  4 beta functions with:
                l(1) =   0
                l(2) =   0
                l(3) =   1
                l(4) =   1
     Q(r) pseudized with  8 coefficients,  rinner =    0.800   0.800   0.800

     PseudoPot. # 5 for H  read from file:
     /storage/coda1/p-amedford6/0/shared/rich_project_chbe-medford/medford-share/data/pseudos_module/espresso/nninc/pbe/van/H.UPF
     MD5 check sum: b5ee9d7bfd3a09ee7748110bda690ff7
     Pseudo is Ultrasoft, Zval =  1.0
     Generated by new atomic code, or converted to UPF format
     Using radial grid of  615 points,  1 beta functions with:
                l(1) =   0
     Q(r) pseudized with  8 coefficients,  rinner =    0.800

     atomic species   valence    mass     pseudopotential
        Ti1           12.00    47.86700     Ti( 1.00)
        O1             6.00    15.99900     O ( 1.00)
        N1             5.00    14.00700     N ( 1.00)
        C1             4.00    12.01100     C ( 1.00)
        H1             1.00     1.00800     H ( 1.00)

     No symmetry found

   Cartesian axes

     site n.     atom                  positions (alat units)
         1           Ti1 tau(   1) = (   0.0004258   2.9801865   6.0000000  )
         2           Ti1 tau(   2) = (   3.2906075   1.4906267   6.0002472  )
         3           O1  tau(   3) = (   0.0006271   0.0005054   7.9858123  )
         4           O1  tau(   4) = (   3.2906025   0.0005020   7.3038282  )
         5           O1  tau(   5) = (   4.5942328   1.4918067   9.2879030  )
         6           O1  tau(   6) = (   1.9868534   1.4903216   9.2879459  )
         7           Ti1 tau(   7) = (   3.2907910   2.8959150   9.1758416  )
         8           Ti1 tau(   8) = (   0.0015273   1.4827037   9.2680791  )
         9           O1  tau(   9) = (   3.3014052   0.0114069  11.3737528  )
        10           O1  tau(  10) = (   0.0116148   5.9584955  10.6183126  )
        11           O1  tau(  11) = (   1.3012034   1.4994444  12.6801950  )
        12           O1  tau(  12) = (   5.3042999   1.4981222  12.6788946  )
        13           Ti1 tau(  13) = (   0.0222102   2.9879630  12.5217794  )
        14           Ti1 tau(  14) = (   3.3166014   1.4969944  12.5290657  )
        15           O1  tau(  15) = (   0.0131148   5.9114811  14.6787674  )
        16           O1  tau(  16) = (   3.3052116   5.9585997  13.9918696  )
        17           O1  tau(  17) = (   4.5573354   1.5165695  16.1403462  )
        18           O1  tau(  18) = (   2.0429717   1.5180214  16.1331141  )
        19           Ti1 tau(  19) = (   3.3061463   3.0045039  15.7576854  )
        20           Ti1 tau(  20) = (   0.0190008   1.3629876  15.8180984  )
        21           O1  tau(  21) = (   3.2904802   0.0005063   4.7018136  )
        22           O1  tau(  22) = (   0.0120025   0.1123878  17.2186474  )
        23           O1  tau(  23) = (   1.3043587   1.4918075   6.0039043  )
        24           O1  tau(  24) = (   5.2767064   1.4903225   6.0039473  )
        25           Ti1 tau(  25) = (   0.0000382   5.9609847   6.0000000  )
        26           Ti1 tau(  26) = (   3.2902200   4.4714249   6.0002472  )
        27           O1  tau(  27) = (   0.0002396   2.9813036   7.9858123  )
        28           O1  tau(  28) = (   3.2902150   2.9813002   7.3038282  )
        29           O1  tau(  29) = (   4.5938453   4.4726049   9.2879030  )
        30           O1  tau(  30) = (   1.9864658   4.4711199   9.2879459  )
        31           Ti1 tau(  31) = (   3.2891106   5.8743827   9.1763621  )
        32           Ti1 tau(  32) = (   0.0006254   4.4649316   9.2693709  )
        33           O1  tau(  33) = (   3.3015003   2.9799855  11.3692792  )
        34           O1  tau(  34) = (   0.0092240   2.9805883  10.6323155  )
        35           O1  tau(  35) = (   1.3024855   4.4701597  12.6493271  )
        36           O1  tau(  36) = (   5.3029933   4.4710749  12.6473438  )
        37           Ti1 tau(  37) = (   0.0213219   5.9581237  12.5009821  )
        38           Ti1 tau(  38) = (   3.3165689   4.4756321  12.5216884  )
        39           O1  tau(  39) = (   0.0062450   3.0260372  14.9395602  )
        40           O1  tau(  40) = (   3.3068494   3.0035608  13.9656762  )
        41           O1  tau(  41) = (   4.5532872   4.4785133  16.2063021  )
        42           O1  tau(  42) = (   2.0453360   4.4758230  16.1992630  )
        43           Ti1 tau(  43) = (   3.3068391   0.0190840  15.7907057  )
        44           Ti1 tau(  44) = (   0.0173475   4.5946531  16.0781683  )
        45           O1  tau(  45) = (   3.2900926   2.9813045   4.7018136  )
        46           O1  tau(  46) = (   1.3039711   4.4726057   6.0039043  )
        47           O1  tau(  47) = (   5.2763189   4.4711207   6.0039473  )
        48           N1  tau(  48) = (   0.0050225   3.2246995  17.9653954  )
        49           C1  tau(  49) = (   6.5749124   2.4458835  18.8135322  )
        50           H1  tau(  50) = (   6.5724368   1.6931146  19.5645906  )

     number of k points=    10  Fermi-Dirac smearing, width (Ry)=  0.0073
                       cart. coord. in units 2pi/alat
        k(    1) = (   0.0000000   0.0000000   0.0000000), wk =   0.1250000
        k(    2) = (   0.0000000   0.0419351   0.0000000), wk =   0.2500000
        k(    3) = (   0.0000000  -0.0838702   0.0000000), wk =   0.1250000
        k(    4) = (   0.0379955   0.0000049   0.0000000), wk =   0.2500000
        k(    5) = (   0.0379955   0.0419400   0.0000000), wk =   0.2500000
        k(    6) = (   0.0379955  -0.0838652   0.0000000), wk =   0.2500000
        k(    7) = (   0.0379955  -0.0419301   0.0000000), wk =   0.2500000
        k(    8) = (  -0.0759910  -0.0000099   0.0000000), wk =   0.1250000
        k(    9) = (  -0.0759910   0.0419252   0.0000000), wk =   0.2500000
        k(   10) = (  -0.0759910  -0.0838800   0.0000000), wk =   0.1250000

     Initial potential from superposition of free atoms

     starting charge  371.99919, renormalised to  388.00000

     negative rho (up, down):  1.809E-02 0.000E+00

     %%%%%%%%%%%%%%%%%%%%%%%%%%%%%%%%%%%%%%%%%%%%%%%%%%%%%%%%%%%%%%%%%%%%%%%%
     %                                                                      %
     % You are using vdW-DF, which was implemented by the Thonhauser group. %
     % Please cite the following two papers that made this development      %
     % possible and the two reviews that describe the various versions:     %
     %                                                                      %
     %   T. Thonhauser et al., PRL 115, 136402 (2015).                      %
     %   T. Thonhauser et al., PRB 76, 125112 (2007).                       %
     %   K. Berland et al., Rep. Prog. Phys. 78, 066501 (2015).             %
     %   D.C. Langreth et al., J. Phys.: Condens. Matter 21, 084203 (2009). %
     %                                                                      %
     %                                                                      %
     % If you are calculating the stress with vdW-DF, please also cite:     %
     %                                                                      %
     %   R. Sabatini et al., J. Phys.: Condens. Matter 24, 424209 (2012).   %
     %                                                                      %
     %%%%%%%%%%%%%%%%%%%%%%%%%%%%%%%%%%%%%%%%%%%%%%%%%%%%%%%%%%%%%%%%%%%%%%%%

     Adding external electric field

     Computed dipole along edir(3) :
        Dipole               -4.8585 Ry au,        -12.3490 Debye
        Dipole field         -0.0092 Ry au,

        Potential amp.        0.8499 Ry
        Total length         46.3494 bohr

     Starting wfcs are  293 atomic wfcs
  @ DRIVER MODE: Message from server: STATUS
  @ DRIVER MODE: Message from server: POSDATA
  @ DRIVER MODE: Reading and sharing cell
  @ DRIVER MODE: Reading and sharing positions
  @ DRIVER MODE: Received positions

     Self-consistent Calculation

     iteration #  1     ecut=    29.40 Ry     beta= 0.05
     Davidson diagonalization with overlap
     c_bands:  5 eigenvalues not converged
     c_bands:  5 eigenvalues not converged
     c_bands:  4 eigenvalues not converged
     c_bands:  5 eigenvalues not converged
     c_bands:  3 eigenvalues not converged
     c_bands:  5 eigenvalues not converged
     c_bands:  4 eigenvalues not converged
     c_bands:  3 eigenvalues not converged
     c_bands:  1 eigenvalues not converged
     ethr =  1.00E-05,  avg # of iterations = 20.0

[...]

     total energy              =   -2846.14908848 Ry
     estimated scf accuracy    <     789.90881668 Ry

     iteration #  2     ecut=    29.40 Ry     beta= 0.05
     Davidson diagonalization with overlap
     ethr =  1.00E-02,  avg # of iterations = 15.6

[...]

     iteration # 68     ecut=    29.40 Ry     beta= 0.05
     Davidson diagonalization with overlap
     c_bands:  1 eigenvalues not converged
     ethr =  4.31E-11,  avg # of iterations = 11.4

[...]

     total energy              =   -2916.61481393 Ry
     estimated scf accuracy    <       0.00000008 Ry

     iteration # 69     ecut=    29.40 Ry     beta= 0.05
     Davidson diagonalization with overlap
     ethr =  2.17E-11,  avg # of iterations = 12.6

     negative rho (up, down):  1.831E-02 0.000E+00

     Adding external electric field

     Computed dipole along edir(3) :
        Dipole                1.5151 Ry au,          3.8510 Debye
        Dipole field          0.0029 Ry au,

        Potential amp.       -0.2650 Ry
        Total length         46.3494 bohr

     End of self-consistent calculation

          k = 0.0000 0.0000 0.0000 ( 18029 PWs)   bands (ev):

   -55.4463 -55.4102 -55.4027 -55.3686 -55.3250 -55.3213 -55.2853 -55.2651
   -55.2558 -55.2430 -55.2322 -55.2307 -55.1986 -55.1385 -54.4287 -54.3947
   -32.0127 -31.8947 -31.8477 -31.8099 -31.7556 -31.7543 -31.7490 -31.7368
   -31.6920 -31.6778 -31.6551 -31.6475 -31.6416 -31.6165 -31.6000 -31.5874
   -31.5831 -31.5688 -31.5631 -31.5550 -31.5351 -31.5261 -31.5161 -31.5007
   -31.4955 -31.4748 -31.4674 -31.4599 -31.4522 -31.4486 -31.4447 -31.4302
   -31.4245 -31.4162 -31.4134 -31.4127 -31.3789 -31.3637 -31.3605 -31.3454
   -31.3428 -31.2596 -30.8380 -30.7441 -30.7220 -30.6544 -30.5676 -30.4567
   -17.4145 -16.2629 -15.9943 -15.8419 -15.7369 -15.6410 -15.5065 -15.4880
   -15.3628 -15.2721 -15.1505 -15.0970 -15.0780 -15.0598 -15.0514 -15.0351
   -14.9875 -14.9829 -14.9521 -14.9404 -14.9176 -14.8802 -14.8747 -14.8413
   -14.8223 -14.7519 -14.6773 -14.6009 -14.5347 -14.2312 -12.9313 -12.8139
    -9.0572  -4.6844  -3.6054  -3.5041  -3.4584  -3.3584  -3.3407  -3.2669
    -3.2482  -3.1896  -3.0261  -2.8473  -2.7851  -2.7112  -2.6468  -2.6347
    -2.6057  -2.4465  -2.4086  -2.3593  -2.3049  -2.2802  -2.2528  -2.2298
    -2.1952  -2.1771  -2.1729  -2.1656  -2.0093  -1.9388  -1.9053  -1.8546
    -1.8377  -1.7861  -1.7638  -1.7314  -1.7278  -1.7218  -1.6704  -1.6550
    -1.6191  -1.5217  -1.4655  -1.3307  -1.2888  -1.1472  -1.0831  -1.0202
    -1.0080  -0.9291  -0.8915  -0.8834  -0.8270  -0.7974  -0.7823  -0.6589
    -0.5578  -0.5111  -0.4547  -0.4243  -0.3776  -0.3414  -0.2519  -0.2257
    -0.2093  -0.1990  -0.0559  -0.0289   0.0531   0.0786   0.1111   0.1122
     0.2190   0.2331   0.3076   0.3550   0.3857   0.4463   0.4967   0.4997
     0.5215   0.5455   0.5541   0.6475   0.6671   0.6787   0.7507   0.8956
     1.1271   1.1684   1.1803   1.5006   1.5130   1.5940   1.7783   2.1699
     2.2179   3.6518   3.7238   3.7937   3.8024   3.8406   3.8887   4.1212
     4.1329   4.1528   4.1592   4.1936

[...]

          k = 0.0380-0.0419 0.0000 ( 17876 PWs)   bands (ev):

[...]

          k =-0.0760-0.0000 0.0000 ( 17886 PWs)   bands (ev):

[...]

          k =-0.0760-0.0839 0.0000 ( 17948 PWs)   bands (ev):

   -55.4298 -55.4265 -55.3858 -55.3854 -55.3211 -55.3086 -55.2980 -55.2530
   -55.2489 -55.2468 -55.2464 -55.2157 -55.2153 -55.1412 -54.4117 -54.4115
   -31.8177 -31.8151 -31.7715 -31.7213 -31.7099 -31.7096 -31.6976 -31.6774
   -31.6771 -31.6541 -31.6448 -31.6418 -31.6321 -31.5897 -31.5820 -31.5786
   -31.5764 -31.5724 -31.5711 -31.5648 -31.5341 -31.5312 -31.5230 -31.5220
   -31.5135 -31.5054 -31.5051 -31.5041 -31.4909 -31.4818 -31.4802 -31.4792
   -31.4624 -31.4595 -31.4458 -31.4446 -31.4434 -31.4356 -31.3961 -31.3957
   -31.3502 -31.3489 -30.7348 -30.7346 -30.6506 -30.6504 -30.6110 -30.6109
   -17.4090 -15.7776 -15.6672 -15.6346 -15.4529 -15.4424 -15.4062 -15.3944
   -15.2510 -15.2073 -15.2011 -15.1902 -15.1433 -15.1392 -15.1387 -15.1133
   -15.0425 -15.0363 -15.0316 -15.0153 -14.9591 -14.9477 -14.9447 -14.9278
   -14.8964 -14.8924 -14.7984 -14.7952 -14.6874 -14.5873 -12.9154 -12.9153
    -9.0547  -4.6719  -3.4144  -3.2626  -2.9372  -2.9020  -2.8965  -2.6633
    -2.6359  -2.6040  -2.5598  -2.4884  -2.4404  -2.4172  -2.4158  -2.3474
    -2.2991  -2.2919  -2.2834  -2.2659  -2.2588  -2.2380  -2.2040  -2.1709
    -2.1611  -2.1327  -2.1172  -2.0978  -2.0791  -2.0438  -2.0302  -2.0054
    -2.0019  -1.8992  -1.8739  -1.7917  -1.7515  -1.7195  -1.6483  -1.6427
    -1.5401  -1.5363  -1.4834  -1.4719  -1.4314  -1.3258  -1.2406  -1.1899
    -1.1848  -1.1755  -1.0718  -1.0070  -0.9791  -0.9443  -0.9193  -0.8377
    -0.7809  -0.7604  -0.7189  -0.6356  -0.6306  -0.5674  -0.4652  -0.4235
    -0.4074  -0.4018  -0.3807  -0.3284  -0.3171  -0.2552  -0.2118  -0.1768
    -0.1659  -0.1209   0.0901   0.0926   0.1402   0.2523   0.2932   0.4412
     0.5186   0.5368   0.6124   0.6480   0.6722   0.7390   0.8471   0.8649
     0.8782   0.9491   0.9884   1.0125   1.0220   1.9511   1.9516   2.0378
     2.0381   3.7734   3.8873   3.9201   3.9690   4.0133   4.0676   4.1718
     4.1927   4.2349   4.2365   4.3063

     the Fermi energy is     3.7114 ev

!    total energy              =   -2916.61482944 Ry
     estimated scf accuracy    <       0.00000006 Ry
     smearing contrib. (-TS)   =      -0.03748586 Ry
     internal energy E=F+TS    =   -2916.57734358 Ry

     The total energy is F=E-TS. E is the sum of the following terms:
     one-electron contribution =  -24444.69402620 Ry
     hartree contribution      =   12309.81794701 Ry
     xc contribution           =    -478.37193971 Ry
     ewald contribution        =    9696.66634339 Ry
     electric field correction =       0.00433193 Ry

     convergence has been achieved in  69 iterations

     Forces acting on atoms (cartesian axes, Ry/au):

     atom    1 type  1   force =     0.00000551   -0.00029478    0.09341473
     atom    2 type  1   force =    -0.00018008   -0.00047403   -0.17792605
     atom    3 type  2   force =     0.00002225   -0.00034275   -0.02064295
     atom    4 type  2   force =    -0.00003595   -0.00186544    0.05837042
     atom    5 type  2   force =    -0.01033799   -0.00073801    0.00709754
     atom    6 type  2   force =     0.01200174   -0.00013917    0.00686947
     atom    7 type  1   force =    -0.00010904    0.00192719   -0.01366398
     atom    8 type  1   force =    -0.00009534    0.00174513   -0.00206999
     atom    9 type  2   force =    -0.00004709   -0.00044805   -0.00035724
     atom   10 type  2   force =    -0.00120226    0.00258499   -0.00299702
     atom   11 type  2   force =    -0.00067416   -0.00012616    0.00012047
     atom   12 type  2   force =     0.00051424   -0.00008672   -0.00007306
     atom   13 type  1   force =    -0.00007065   -0.00001841    0.00008882
     atom   14 type  1   force =    -0.00001840   -0.00004995    0.00026734
     atom   15 type  2   force =    -0.00009350    0.00017987    0.00002386
     atom   16 type  2   force =    -0.00003012   -0.00011099   -0.00019031
     atom   17 type  2   force =     0.00061149    0.00002738   -0.00013521
     atom   18 type  2   force =    -0.00017928    0.00002191    0.00027547
     atom   19 type  1   force =    -0.00023761    0.00034959    0.00027654
     atom   20 type  1   force =    -0.00017276    0.00036618    0.00035648
     atom   21 type  2   force =    -0.00002286   -0.00012252    0.10391513
     atom   22 type  2   force =    -0.00004756    0.00024901    0.00030867
     atom   23 type  2   force =    -0.07051074   -0.00022179   -0.02695812
     atom   24 type  2   force =     0.07029604    0.00021704   -0.02700655
     atom   25 type  1   force =     0.00001214   -0.00033197    0.09299125
     atom   26 type  1   force =    -0.00019251   -0.00052359   -0.17814054
     atom   27 type  2   force =     0.00006068   -0.00023535   -0.01963157
     atom   28 type  2   force =     0.00001240   -0.00163957    0.05784384
     atom   29 type  2   force =    -0.01083964   -0.00057139    0.00759484
     atom   30 type  2   force =     0.01236622   -0.00022506    0.00733886
     atom   31 type  1   force =    -0.00004063    0.00593626   -0.01475115
     atom   32 type  1   force =    -0.00011893   -0.00211523   -0.00202222
     atom   33 type  2   force =     0.00002102   -0.00005848   -0.00031696
     atom   34 type  2   force =    -0.00064654   -0.00099991   -0.00064645
     atom   35 type  2   force =    -0.00012856   -0.00007217    0.00011769
     atom   36 type  2   force =    -0.00006389   -0.00001284    0.00019363
     atom   37 type  1   force =     0.00022132   -0.00079032    0.00009240
     atom   38 type  1   force =    -0.00005562   -0.00008746    0.00022483
     atom   39 type  2   force =     0.00011796   -0.00046334    0.00006595
     atom   40 type  2   force =    -0.00022003   -0.00011399   -0.00046061
     atom   41 type  2   force =     0.00033727   -0.00011287   -0.00045910
     atom   42 type  2   force =     0.00005558    0.00009545   -0.00000964
     atom   43 type  1   force =    -0.00013174   -0.00008200    0.00020345
     atom   44 type  1   force =     0.00001705    0.00014578    0.00038497
     atom   45 type  2   force =    -0.00002477   -0.00014746    0.10385595
     atom   46 type  2   force =    -0.07049625   -0.00016662   -0.02694522
     atom   47 type  2   force =     0.07029015    0.00026110   -0.02700057
     atom   48 type  3   force =    -0.00011229    0.00046729    0.00028632
     atom   49 type  4   force =     0.00063284    0.00031924   -0.00011894
     atom   50 type  5   force =    -0.00045912   -0.00110503   -0.00005548

     Total force =     0.365886     Total SCF correction =     0.000557
  @ DRIVER MODE: Message from server: STATUS
  @ DRIVER MODE: Message from server: GETFORCE
  @ DRIVER MODE: Returning v,forces,stress,ensemble

     Writing output data file ./calc.save/
  @ DRIVER MODE: Message from server: EXIT
  @ DRIVE MODE: Exiting

     General routines

     Parallel routines

   This run was terminated on:  19:50: 9  23Aug2021

   JOB DONE.