     Program PWSCF v.6.7GPU starts on 14Sep2021 at 22:28:51

     R & G space division:  proc/nbgrp/npool/nimage =      10
     Reading input from /storage/home/hcoda1/3/ntian30/research/carbon/CxH_vib/CH_calc/ads_slab/CHON2_d/out_0027/pw.inp
Warning: card &CELL ignored
Warning: card   CELL_DYNAMICS='IPI', ignored
Warning: card / ignored

     Current dimensions of program PWSCF are:
     Max number of different atomic species (ntypx) = 10
     Max number of k-points (npk) =  40000
     Max angular momentum in pseudopotentials (lmaxx) =  3
     Presently no symmetry can be used with electric field

     Message from routine cell_base_init:
     DEPRECATED: use true lattice parameter, not A to a.u. conversion factor

     IMPORTANT: XC functional enforced from input :
     Exchange-correlation= BEEF-VDW
                           (   1   4  43  14   2   0   0)
     Any further DFT definition will be discarded
     Please, verify this is what you really want

  @ DRIVER MODE: Connecting to
 qe_1139763_2840438.sched-torque.pace.gatech.edu_huaq6yx_scratch
  using UNIX socket
  @ DRIVER MODE: Message from server: STATUS
  @ DRIVER MODE: Message from server: INIT
  @ DRIVER MODE: Receiving replica           0          -1
  @ DRIVER MODE: Receiving encoded integer          25
  @ DRIVER MODE:  SCF:  T  FORCE:  T  STRESS:  F  VC:  F  ENSEMBLE:  F
  @ DRIVER MODE:  SCF:  T  FORCE:  T  STRESS:  F  VC:  F  ENSEMBLE:  F

     Using Slab Decomposition

     bravais-lattice index     =            0
     lattice parameter (alat)  =       1.8897  a.u.
     unit-cell volume          =    6658.9804 (a.u.)^3
     number of atoms/cell      =           52
     number of atomic types    =            5
     number of electrons       =       399.00
     number of Kohn-Sham states=          209
     kinetic-energy cutoff     =      29.3995  Ry
     charge density cutoff     =     293.9946  Ry
     scf convergence threshold =      7.3E-08
     mixing beta               =       0.0500
     number of iterations used =            8  plain     mixing
     Exchange-correlation= BEEF-VDW
                           (   1   4  43  14   2   0   0)

     celldm(1)=   1.889726  celldm(2)=   0.000000  celldm(3)=   0.000000
     celldm(4)=   0.000000  celldm(5)=   0.000000  celldm(6)=   0.000000

     crystal axes: (cart. coord. in units of alat)
               a(1) = (   6.579727   0.000000   0.000000 )
               a(2) = (  -0.000775   5.961596   0.000000 )
               a(3) = (   0.000000   0.000000  25.155947 )

     reciprocal axes: (cart. coord. in units 2 pi/alat)
               b(1) = (  0.151982  0.000020  0.000000 )
               b(2) = (  0.000000  0.167740  0.000000 )
               b(3) = (  0.000000  0.000000  0.039752 )

     PseudoPot. # 1 for O  read from file:
     /storage/coda1/p-amedford6/0/shared/rich_project_chbe-medford/medford-share/data/pseudos_module/espresso/nninc/pbe/van/O.UPF
     MD5 check sum: 78c19812648e8988a0fe644b0f25305e
     Pseudo is Ultrasoft, Zval =  6.0
     Generated by new atomic code, or converted to UPF format
     Using radial grid of  737 points,  4 beta functions with:
                l(1) =   0
                l(2) =   0
                l(3) =   1
                l(4) =   1
     Q(r) pseudized with  8 coefficients,  rinner =    0.800   0.800   0.800

     PseudoPot. # 2 for Ti read from file:
     /storage/coda1/p-amedford6/0/shared/rich_project_chbe-medford/medford-share/data/pseudos_module/espresso/nninc/pbe/van/Ti.UPF
     MD5 check sum: 8e4df49b7f0d34bbd5052bf3f5ea0213
     Pseudo is Ultrasoft, Zval = 12.0
     Generated by new atomic code, or converted to UPF format
     Using radial grid of  851 points,  6 beta functions with:
                l(1) =   0
                l(2) =   0
                l(3) =   1
                l(4) =   1
                l(5) =   2
                l(6) =   2
     Q(r) pseudized with  8 coefficients,  rinner =    1.000   1.000   1.000
                                                       1.000   1.000

     PseudoPot. # 3 for C  read from file:
     /storage/coda1/p-amedford6/0/shared/rich_project_chbe-medford/medford-share/data/pseudos_module/espresso/nninc/pbe/van/C.UPF
     MD5 check sum: 1a69bf6b8db32088f5b2163dbdb77a27
     Pseudo is Ultrasoft, Zval =  4.0
     Generated by new atomic code, or converted to UPF format
     Using radial grid of  721 points,  4 beta functions with:
                l(1) =   0
                l(2) =   0
                l(3) =   1
                l(4) =   1
     Q(r) pseudized with  8 coefficients,  rinner =    0.800   0.800   0.800

     PseudoPot. # 4 for H  read from file:
     /storage/coda1/p-amedford6/0/shared/rich_project_chbe-medford/medford-share/data/pseudos_module/espresso/nninc/pbe/van/H.UPF
     MD5 check sum: b5ee9d7bfd3a09ee7748110bda690ff7
     Pseudo is Ultrasoft, Zval =  1.0
     Generated by new atomic code, or converted to UPF format
     Using radial grid of  615 points,  1 beta functions with:
                l(1) =   0
     Q(r) pseudized with  8 coefficients,  rinner =    0.800

     PseudoPot. # 5 for N  read from file:
     /storage/coda1/p-amedford6/0/shared/rich_project_chbe-medford/medford-share/data/pseudos_module/espresso/nninc/pbe/van/N.UPF
     MD5 check sum: 90d10febe142ad51ac9d5be1deb811c4
     Pseudo is Ultrasoft, Zval =  5.0
     Generated by new atomic code, or converted to UPF format
     Using radial grid of  729 points,  4 beta functions with:
                l(1) =   0
                l(2) =   0
                l(3) =   1
                l(4) =   1
     Q(r) pseudized with  8 coefficients,  rinner =    0.800   0.800   0.800

     atomic species   valence    mass     pseudopotential
        O1             6.00    15.99900     O ( 1.00)
        Ti1           12.00    47.86700     Ti( 1.00)
        C1             4.00    12.01100     C ( 1.00)
        H1             1.00     1.00800     H ( 1.00)
        N1             5.00    14.00700     N ( 1.00)

     No symmetry found

   Cartesian axes

     site n.     atom                  positions (alat units)
         1           O1  tau(   1) = (   3.2904802   0.0005063   4.7018136  )
         2           O1  tau(   2) = (   3.2900926   2.9813045   4.7018136  )
         3           Ti1 tau(   3) = (   0.0004258   2.9801865   6.0000000  )
         4           Ti1 tau(   4) = (   0.0000382   5.9609847   6.0000000  )
         5           Ti1 tau(   5) = (   3.2906075   1.4906267   6.0002472  )
         6           Ti1 tau(   6) = (   3.2902200   4.4714249   6.0002472  )
         7           O1  tau(   7) = (   1.3043587   1.4918075   6.0039043  )
         8           O1  tau(   8) = (   1.3039711   4.4726057   6.0039043  )
         9           O1  tau(   9) = (   5.2767064   1.4903225   6.0039473  )
        10           O1  tau(  10) = (   5.2763189   4.4711207   6.0039473  )
        11           O1  tau(  11) = (   3.2906025   0.0005020   7.3038282  )
        12           O1  tau(  12) = (   3.2902150   2.9813002   7.3038282  )
        13           O1  tau(  13) = (   0.0006271   0.0005054   7.9858123  )
        14           O1  tau(  14) = (   0.0002396   2.9813036   7.9858123  )
        15           Ti1 tau(  15) = (   3.2818399   0.0632074   9.1536190  )
        16           Ti1 tau(  16) = (   3.2594741   3.0397892   9.1577678  )
        17           Ti1 tau(  17) = (   6.5510804   4.5344316   9.2678866  )
        18           O1  tau(  18) = (   4.5942328   1.4918067   9.2879030  )
        19           O1  tau(  19) = (   4.5938453   4.4726049   9.2879030  )
        20           O1  tau(  20) = (   1.9868534   1.4903216   9.2879459  )
        21           O1  tau(  21) = (   1.9864658   4.4711199   9.2879459  )
        22           Ti1 tau(  22) = (   6.5572888   1.6134915   9.3644180  )
        23           O1  tau(  23) = (   0.0036999   2.9964159  10.5720758  )
        24           O1  tau(  24) = (   0.0032988   0.0129995  10.6087427  )
        25           O1  tau(  25) = (   3.3025789   3.0011443  11.3496891  )
        26           O1  tau(  26) = (   3.3069272   0.0203573  11.3499924  )
        27           Ti1 tau(  27) = (   3.3485197   1.5170776  12.4945998  )
        28           Ti1 tau(  28) = (   0.0476823   0.0282983  12.5166062  )
        29           Ti1 tau(  29) = (   3.3474104   4.4962924  12.4903914  )
        30           O1  tau(  30) = (   1.2998870   1.5091839  12.6411902  )
        31           O1  tau(  31) = (   5.2998363   1.5142331  12.6477699  )
        32           O1  tau(  32) = (   1.2995728   4.4957929  12.6443136  )
        33           O1  tau(  33) = (   5.3001588   4.4888893  12.6515721  )
        34           Ti1 tau(  34) = (   0.0405098   3.0100001  12.8178096  )
        35           O1  tau(  35) = (   3.3017622   3.0020563  13.9311684  )
        36           O1  tau(  36) = (   3.3043745   0.0240830  13.9418183  )
        37           O1  tau(  37) = (   0.0425158   3.0055145  14.7122960  )
        38           O1  tau(  38) = (   0.0212564   0.0294349  14.7090242  )
        39           Ti1 tau(  39) = (   3.3143756   3.0090542  15.7253892  )
        40           Ti1 tau(  40) = (   3.3278308   0.0282705  15.7347533  )
        41           Ti1 tau(  41) = (   0.0474550   4.6028283  15.9859659  )
        42           O1  tau(  42) = (   4.5544755   4.4960427  16.0754871  )
        43           O1  tau(  43) = (   2.0560418   4.4875074  16.0954883  )
        44           O1  tau(  44) = (   4.5513302   1.5206081  16.0934294  )
        45           O1  tau(  45) = (   2.0557237   1.5274495  16.1011513  )
        46           Ti1 tau(  46) = (   0.0476892   1.4302431  16.0559646  )
        47           O1  tau(  47) = (   0.0145416   0.0172736  17.2235231  )
        48           O1  tau(  48) = (   6.5187403   2.9994048  17.3870116  )
        49           C1  tau(  49) = (   5.9068627   3.1321688  18.5844627  )
        50           H1  tau(  50) = (   5.7866629   4.0998533  19.0461414  )
        51           N1  tau(  51) = (   5.4444810   2.0886009  19.2066540  )
        52           N1  tau(  52) = (   5.0309896   1.1442324  19.7398597  )

     number of k points=    10  Fermi-Dirac smearing, width (Ry)=  0.0073
                       cart. coord. in units 2pi/alat
        k(    1) = (   0.0000000   0.0000000   0.0000000), wk =   0.1250000
        k(    2) = (   0.0000000   0.0419351   0.0000000), wk =   0.2500000
        k(    3) = (   0.0000000  -0.0838702   0.0000000), wk =   0.1250000
        k(    4) = (   0.0379955   0.0000049   0.0000000), wk =   0.2500000
        k(    5) = (   0.0379955   0.0419400   0.0000000), wk =   0.2500000
        k(    6) = (   0.0379955  -0.0838652   0.0000000), wk =   0.2500000
        k(    7) = (   0.0379955  -0.0419301   0.0000000), wk =   0.2500000
        k(    8) = (  -0.0759910  -0.0000099   0.0000000), wk =   0.1250000
        k(    9) = (  -0.0759910   0.0419252   0.0000000), wk =   0.2500000
        k(   10) = (  -0.0759910  -0.0838800   0.0000000), wk =   0.1250000

     Initial potential from superposition of free atoms

     starting charge  382.99918, renormalised to  399.00000

     negative rho (up, down):  1.730E-02 0.000E+00

     %%%%%%%%%%%%%%%%%%%%%%%%%%%%%%%%%%%%%%%%%%%%%%%%%%%%%%%%%%%%%%%%%%%%%%%%
     %                                                                      %
     % You are using vdW-DF, which was implemented by the Thonhauser group. %
     % Please cite the following two papers that made this development      %
     % possible and the two reviews that describe the various versions:     %
     %                                                                      %
     %   T. Thonhauser et al., PRL 115, 136402 (2015).                      %
     %   T. Thonhauser et al., PRB 76, 125112 (2007).                       %
     %   K. Berland et al., Rep. Prog. Phys. 78, 066501 (2015).             %
     %   D.C. Langreth et al., J. Phys.: Condens. Matter 21, 084203 (2009). %
     %                                                                      %
     %                                                                      %
     % If you are calculating the stress with vdW-DF, please also cite:     %
     %                                                                      %
     %   R. Sabatini et al., J. Phys.: Condens. Matter 24, 424209 (2012).   %
     %                                                                      %
     %%%%%%%%%%%%%%%%%%%%%%%%%%%%%%%%%%%%%%%%%%%%%%%%%%%%%%%%%%%%%%%%%%%%%%%%

     Adding external electric field

     Computed dipole along edir(3) :
        Dipole              -10.9256 Ry au,        -27.7701 Debye
        Dipole field         -0.0206 Ry au,

        Potential amp.        1.9113 Ry
        Total length         46.3494 bohr

     Starting wfcs are  301 atomic wfcs
  @ DRIVER MODE: Message from server: STATUS
  @ DRIVER MODE: Message from server: POSDATA
  @ DRIVER MODE: Reading and sharing cell
  @ DRIVER MODE: Reading and sharing positions
  @ DRIVER MODE: Received positions

     Self-consistent Calculation

     iteration #  1     ecut=    29.40 Ry     beta= 0.05
     Davidson diagonalization with overlap
     c_bands:  1 eigenvalues not converged
     c_bands:  3 eigenvalues not converged
     c_bands:  1 eigenvalues not converged
     c_bands:  2 eigenvalues not converged
     c_bands:  3 eigenvalues not converged
     c_bands:  2 eigenvalues not converged
     c_bands:  2 eigenvalues not converged
     c_bands:  3 eigenvalues not converged
     c_bands:  3 eigenvalues not converged
     ethr =  1.00E-05,  avg # of iterations = 19.6

[...]

     total energy              =   -2496.11989910 Ry
     estimated scf accuracy    <    5311.87126842 Ry

     iteration #  2     ecut=    29.40 Ry     beta= 0.05
     Davidson diagonalization with overlap
     ethr =  1.00E-02,  avg # of iterations = 22.6

[...]

     iteration # 57     ecut=    29.40 Ry     beta= 0.05
     Davidson diagonalization with overlap
     c_bands:  1 eigenvalues not converged
     c_bands:  1 eigenvalues not converged
     ethr =  2.44E-11,  avg # of iterations = 14.0

[...]

     total energy              =   -2969.03710503 Ry
     estimated scf accuracy    <       0.00000011 Ry

     iteration # 58     ecut=    29.40 Ry     beta= 0.05
     Davidson diagonalization with overlap
     ethr =  2.44E-11,  avg # of iterations = 10.4

     negative rho (up, down):  1.693E-02 0.000E+00

     Adding external electric field

     Computed dipole along edir(3) :
        Dipole                0.4318 Ry au,          1.0975 Debye
        Dipole field          0.0008 Ry au,

        Potential amp.       -0.0755 Ry
        Total length         46.3494 bohr

     End of self-consistent calculation

          k = 0.0000 0.0000 0.0000 ( 18029 PWs)   bands (ev):

   -55.9489 -55.9355 -55.9120 -55.8992 -55.8372 -55.8165 -55.7927 -55.7764
   -55.7716 -55.7258 -55.7240 -55.7052 -55.6713 -55.6021 -54.9637 -54.9296
   -32.4998 -32.4175 -32.3345 -32.3054 -32.2730 -32.2492 -32.2417 -32.2197
   -32.1857 -32.1767 -32.1586 -32.1522 -32.1473 -32.1162 -32.1089 -32.0800
   -32.0790 -32.0746 -32.0709 -32.0396 -32.0344 -32.0143 -32.0136 -31.9975
   -31.9909 -31.9741 -31.9582 -31.9524 -31.9428 -31.9402 -31.9354 -31.9290
   -31.9284 -31.9223 -31.8859 -31.8835 -31.8547 -31.8504 -31.8252 -31.8113
   -31.7925 -31.7895 -31.3735 -31.2763 -31.2540 -31.1902 -31.1041 -30.9929
   -20.3628 -18.6459 -16.6943 -16.4037 -16.2544 -16.1113 -16.0765 -15.9591
   -15.7906 -15.6694 -15.6346 -15.5692 -15.5199 -15.5158 -15.4992 -15.4868
   -15.4722 -15.4624 -15.4424 -15.3851 -15.3778 -15.3538 -15.3338 -15.2961
   -15.2335 -15.1594 -15.1100 -15.0691 -15.0214 -14.9556 -14.9370 -13.4642
   -13.4252 -13.3459  -6.9396  -5.8579  -4.5220  -4.0481  -3.8772  -3.8734
    -3.8400  -3.7604  -3.6081  -3.5160  -3.5037  -3.2575  -3.1899  -3.1267
    -3.0997  -3.0844  -3.0763  -2.8884  -2.8811  -2.8238  -2.7768  -2.7645
    -2.7619  -2.7342  -2.7188  -2.6929  -2.6686  -2.6608  -2.6047  -2.4877
    -2.3668  -2.3538  -2.3339  -2.2514  -2.2421  -2.2294  -2.2256  -2.2013
    -2.1728  -2.1615  -2.1520  -2.0672  -1.9836  -1.8966  -1.8646  -1.7728
    -1.7351  -1.6492  -1.4637  -1.4173  -1.3659  -1.3524  -1.3389  -1.3005
    -1.2664  -1.2167  -1.1701  -1.1446  -1.0688  -0.9704  -0.9520  -0.8629
    -0.8050  -0.7591  -0.6943  -0.6757  -0.6672  -0.6515  -0.5311  -0.4290
    -0.4162  -0.3914  -0.2905  -0.2416  -0.2319  -0.1783  -0.1645  -0.1281
    -0.0798  -0.0239   0.0084   0.0144   0.0476   0.0569   0.0997   0.2185
     0.2409   0.2461   0.3314   0.3595   0.5211   0.5626   0.6941   0.7821
     0.9640   1.0609   1.1260   1.2317   1.6494   1.7087   2.5960   3.2365
     3.2661   3.2981   3.3356   3.3906   3.4987   3.6449   3.6745   3.6936
     3.7178

[...]

          k = 0.0380-0.0419 0.0000 ( 17876 PWs)   bands (ev):

[...]

          k =-0.0760-0.0000 0.0000 ( 17886 PWs)   bands (ev):

[...]

          k =-0.0760-0.0839 0.0000 ( 17948 PWs)   bands (ev):

   -55.9377 -55.9231 -55.9186 -55.9159 -55.8303 -55.8064 -55.7996 -55.7861
   -55.7646 -55.7311 -55.7230 -55.6905 -55.6861 -55.6045 -54.9471 -54.9460
   -32.3031 -32.3001 -32.2415 -32.2365 -32.2302 -32.2259 -32.2071 -32.2059
   -32.1994 -32.1627 -32.1388 -32.1337 -32.1318 -32.0897 -32.0785 -32.0760
   -32.0677 -32.0636 -32.0604 -32.0541 -32.0471 -32.0309 -32.0271 -32.0184
   -32.0144 -32.0087 -32.0078 -32.0063 -31.9891 -31.9605 -31.9496 -31.9481
   -31.9425 -31.9417 -31.9416 -31.9219 -31.9136 -31.9056 -31.8968 -31.8862
   -31.8331 -31.7986 -31.2674 -31.2659 -31.1869 -31.1860 -31.1477 -31.1467
   -20.3611 -18.6322 -16.1254 -16.1070 -15.9124 -15.8674 -15.8616 -15.8080
   -15.7339 -15.7153 -15.6706 -15.6671 -15.6131 -15.6011 -15.5934 -15.5423
   -15.5007 -15.4714 -15.4623 -15.4566 -15.4009 -15.3972 -15.3963 -15.3418
   -15.3269 -15.3120 -15.2825 -15.2783 -15.2106 -15.1860 -15.1103 -13.4484
   -13.4460 -13.4333  -6.9098  -5.8657  -4.5203  -3.5827  -3.4157  -3.3931
    -3.2455  -3.1425  -3.0857  -3.0834  -2.9992  -2.9262  -2.8914  -2.8791
    -2.8453  -2.7962  -2.7882  -2.7838  -2.7685  -2.7557  -2.7334  -2.7160
    -2.6868  -2.6685  -2.6341  -2.6084  -2.5911  -2.5744  -2.5661  -2.5290
    -2.5097  -2.4971  -2.4872  -2.4816  -2.4159  -2.2532  -2.2022  -2.1215
    -2.0951  -2.0873  -2.0413  -2.0368  -2.0142  -2.0012  -1.9848  -1.8782
    -1.7842  -1.6992  -1.6857  -1.6687  -1.6485  -1.6100  -1.4933  -1.4642
    -1.3893  -1.3687  -1.3534  -1.2526  -1.2298  -1.1637  -1.1583  -1.0768
    -1.0331  -1.0209  -0.9572  -0.9169  -0.9022  -0.8448  -0.8192  -0.7527
    -0.6992  -0.6796  -0.6156  -0.5953  -0.5737  -0.5200  -0.4774  -0.4621
    -0.3937  -0.3038  -0.2562  -0.0674   0.0604   0.0777   0.0954   0.1694
     0.2494   0.2884   0.3117   0.3458   0.4326   0.4916   0.5658   0.5831
     0.6063   0.6715   1.4206   1.4222   1.5117   1.5225   2.5155   3.4452
     3.4671   3.4912   3.5423   3.6954   3.7000   3.7180   3.7277   3.8166
     3.8572

     the Fermi energy is     3.2051 ev

!    total energy              =   -2969.03716012 Ry
     estimated scf accuracy    <       0.00000004 Ry
     smearing contrib. (-TS)   =      -0.02338552 Ry
     internal energy E=F+TS    =   -2969.01377460 Ry

     The total energy is F=E-TS. E is the sum of the following terms:
     one-electron contribution =  -23803.89774443 Ry
     hartree contribution      =   11990.29770970 Ry
     xc contribution           =    -490.83467106 Ry
     ewald contribution        =    9335.42057935 Ry
     electric field correction =       0.00035185 Ry

     convergence has been achieved in  58 iterations

     Forces acting on atoms (cartesian axes, Ry/au):

     atom    1 type  1   force =     0.00008826    0.00006436    0.10417335
     atom    2 type  1   force =     0.00010640    0.00002890    0.10420369
     atom    3 type  2   force =     0.00027781   -0.00170532    0.10527913
     atom    4 type  2   force =     0.00011555    0.00147017    0.11698683
     atom    5 type  2   force =     0.00011901    0.00057829   -0.18003914
     atom    6 type  2   force =    -0.00004050   -0.00014621   -0.18013238
     atom    7 type  1   force =    -0.06883736    0.00078219   -0.02950819
     atom    8 type  1   force =    -0.06849770   -0.00143749   -0.02954246
     atom    9 type  1   force =     0.06893042    0.00107231   -0.02956049
     atom   10 type  1   force =     0.06848657   -0.00091295   -0.02961962
     atom   11 type  1   force =    -0.00025385    0.00067391    0.04562787
     atom   12 type  1   force =    -0.00062015    0.00092268    0.04728998
     atom   13 type  1   force =    -0.00012042   -0.00650456   -0.03343329
     atom   14 type  1   force =    -0.00030620    0.00406675   -0.02749225
     atom   15 type  2   force =    -0.00008228   -0.00038034   -0.00001208
     atom   16 type  2   force =    -0.00016765   -0.00039698    0.00004094
     atom   17 type  2   force =    -0.00017444    0.00000846   -0.00009944
     atom   18 type  1   force =    -0.01864239   -0.00141938    0.00431420
     atom   19 type  1   force =    -0.01733808    0.00092849    0.00348044
     atom   20 type  1   force =     0.01934449    0.00093708    0.00437039
     atom   21 type  1   force =     0.01780947    0.00241965    0.00370760
     atom   22 type  2   force =    -0.00021354   -0.00008886   -0.00016337
     atom   23 type  1   force =    -0.00013583    0.00001460    0.00014238
     atom   24 type  1   force =     0.00016395   -0.00001615    0.00020113
     atom   25 type  1   force =     0.00000471    0.00010599   -0.00009029
     atom   26 type  1   force =    -0.00012794   -0.00015066   -0.00007522
     atom   27 type  2   force =     0.00005118    0.00000555   -0.00011431
     atom   28 type  2   force =    -0.00023312    0.00007875   -0.00019556
     atom   29 type  2   force =     0.00000001    0.00004088   -0.00010859
     atom   30 type  1   force =    -0.00027853   -0.00017279   -0.00016202
     atom   31 type  1   force =     0.00036992   -0.00023544   -0.00019036
     atom   32 type  1   force =    -0.00006420   -0.00018131    0.00016494
     atom   33 type  1   force =    -0.00004234   -0.00005152   -0.00008613
     atom   34 type  2   force =    -0.00005469    0.00017665    0.00006498
     atom   35 type  1   force =     0.00008644   -0.00021732   -0.00021723
     atom   36 type  1   force =     0.00005357    0.00002499   -0.00006964
     atom   37 type  1   force =    -0.00004380    0.00008313   -0.00007184
     atom   38 type  1   force =    -0.00010521    0.00028681   -0.00014037
     atom   39 type  2   force =     0.00002773    0.00004297    0.00039156
     atom   40 type  2   force =     0.00007609   -0.00023361    0.00025491
     atom   41 type  2   force =    -0.00016925   -0.00010311    0.00007127
     atom   42 type  1   force =     0.00013708    0.00008599    0.00004916
     atom   43 type  1   force =    -0.00021544    0.00024832   -0.00025477
     atom   44 type  1   force =    -0.00021226    0.00005552   -0.00017848
     atom   45 type  1   force =    -0.00007509    0.00011871    0.00011721
     atom   46 type  2   force =     0.00006907   -0.00078976    0.00035768
     atom   47 type  1   force =     0.00001462    0.00004902   -0.00066403
     atom   48 type  1   force =    -0.00008158    0.00059746    0.00077008
     atom   49 type  3   force =    -0.00077475   -0.00284064    0.00077639
     atom   50 type  4   force =     0.00060483    0.00067614   -0.00008429
     atom   51 type  5   force =    -0.01134680   -0.02434163    0.01389492
     atom   52 type  5   force =     0.01231819    0.02568130   -0.01442518

     Total force =     0.378593     Total SCF correction =     0.000483
  @ DRIVER MODE: Message from server: STATUS
  @ DRIVER MODE: Message from server: GETFORCE
  @ DRIVER MODE: Returning v,forces,stress,ensemble

     Writing output data file ./calc.save/
  @ DRIVER MODE: Message from server: EXIT
  @ DRIVE MODE: Exiting

     General routines

     Parallel routines

   This run was terminated on:  22:45:46  14Sep2021

   JOB DONE.