     Program PWSCF v.6.7GPU starts on 12Oct2021 at  9:30:29

     R & G space division:  proc/nbgrp/npool/nimage =       8
     Reading input from /storage/home/hcoda1/3/ntian30/research/carbon/ACS_vib/ads_slab/N2/out_0002/pw.inp
Warning: card &CELL ignored
Warning: card   CELL_DYNAMICS='IPI', ignored
Warning: card / ignored

     Current dimensions of program PWSCF are:
     Max number of different atomic species (ntypx) = 10
     Max number of k-points (npk) =  40000
     Max angular momentum in pseudopotentials (lmaxx) =  3
     Presently no symmetry can be used with electric field

     Message from routine cell_base_init:
     DEPRECATED: use true lattice parameter, not A to a.u. conversion factor

     IMPORTANT: XC functional enforced from input :
     Exchange-correlation= BEEF-VDW
                           (   1   4  43  14   2   0   0)
     Any further DFT definition will be discarded
     Please, verify this is what you really want

  @ DRIVER MODE: Connecting to
 qe_1139763_3181313.sched-torque.pace.gatech.edu9odi7884_scratch
  using UNIX socket
  @ DRIVER MODE: Message from server: STATUS
  @ DRIVER MODE: Message from server: INIT
  @ DRIVER MODE: Receiving replica           0          -1
  @ DRIVER MODE: Receiving encoded integer          25
  @ DRIVER MODE:  SCF:  T  FORCE:  T  STRESS:  F  VC:  F  ENSEMBLE:  F
  @ DRIVER MODE:  SCF:  T  FORCE:  T  STRESS:  F  VC:  F  ENSEMBLE:  F

     Using Slab Decomposition

     bravais-lattice index     =            0
     lattice parameter (alat)  =       1.8897  a.u.
     unit-cell volume          =    6658.9804 (a.u.)^3
     number of atoms/cell      =           49
     number of atomic types    =            3
     number of electrons       =       388.00
     number of Kohn-Sham states=          204
     kinetic-energy cutoff     =      29.3995  Ry
     charge density cutoff     =     293.9946  Ry
     scf convergence threshold =      7.3E-08
     mixing beta               =       0.0500
     number of iterations used =            8  plain     mixing
     Exchange-correlation= BEEF-VDW
                           (   1   4  43  14   2   0   0)

     celldm(1)=   1.889726  celldm(2)=   0.000000  celldm(3)=   0.000000
     celldm(4)=   0.000000  celldm(5)=   0.000000  celldm(6)=   0.000000

     crystal axes: (cart. coord. in units of alat)
               a(1) = (   6.579727   0.000000   0.000000 )
               a(2) = (  -0.000775   5.961596   0.000000 )
               a(3) = (   0.000000   0.000000  25.155947 )

     reciprocal axes: (cart. coord. in units 2 pi/alat)
               b(1) = (  0.151982  0.000020  0.000000 )
               b(2) = (  0.000000  0.167740  0.000000 )
               b(3) = (  0.000000  0.000000  0.039752 )

     PseudoPot. # 1 for Ti read from file:
     /storage/coda1/p-amedford6/0/shared/rich_project_chbe-medford/medford-share/data/pseudos_module/espresso/nninc/pbe/van/Ti.UPF
     MD5 check sum: 8e4df49b7f0d34bbd5052bf3f5ea0213
     Pseudo is Ultrasoft, Zval = 12.0
     Generated by new atomic code, or converted to UPF format
     Using radial grid of  851 points,  6 beta functions with:
                l(1) =   0
                l(2) =   0
                l(3) =   1
                l(4) =   1
                l(5) =   2
                l(6) =   2
     Q(r) pseudized with  8 coefficients,  rinner =    1.000   1.000   1.000
                                                       1.000   1.000

     PseudoPot. # 2 for O  read from file:
     /storage/coda1/p-amedford6/0/shared/rich_project_chbe-medford/medford-share/data/pseudos_module/espresso/nninc/pbe/van/O.UPF
     MD5 check sum: 78c19812648e8988a0fe644b0f25305e
     Pseudo is Ultrasoft, Zval =  6.0
     Generated by new atomic code, or converted to UPF format
     Using radial grid of  737 points,  4 beta functions with:
                l(1) =   0
                l(2) =   0
                l(3) =   1
                l(4) =   1
     Q(r) pseudized with  8 coefficients,  rinner =    0.800   0.800   0.800

     PseudoPot. # 3 for N  read from file:
     /storage/coda1/p-amedford6/0/shared/rich_project_chbe-medford/medford-share/data/pseudos_module/espresso/nninc/pbe/van/N.UPF
     MD5 check sum: 90d10febe142ad51ac9d5be1deb811c4
     Pseudo is Ultrasoft, Zval =  5.0
     Generated by new atomic code, or converted to UPF format
     Using radial grid of  729 points,  4 beta functions with:
                l(1) =   0
                l(2) =   0
                l(3) =   1
                l(4) =   1
     Q(r) pseudized with  8 coefficients,  rinner =    0.800   0.800   0.800

     atomic species   valence    mass     pseudopotential
        Ti1           12.00    47.86700     Ti( 1.00)
        O1             6.00    15.99900     O ( 1.00)
        N1             5.00    14.00700     N ( 1.00)

     No symmetry found

   Cartesian axes

     site n.     atom                  positions (alat units)
         1           Ti1 tau(   1) = (   0.0004258   2.9801865   6.0000000  )
         2           Ti1 tau(   2) = (   3.2906075   1.4906267   6.0002472  )
         3           O1  tau(   3) = (   0.0006271   0.0005054   7.9858123  )
         4           O1  tau(   4) = (   3.2906025   0.0005020   7.3038282  )
         5           O1  tau(   5) = (   4.5942328   1.4918067   9.2879030  )
         6           O1  tau(   6) = (   1.9868534   1.4903216   9.2879459  )
         7           Ti1 tau(   7) = (   3.2908115   2.9770768   9.1558106  )
         8           Ti1 tau(   8) = (   0.0014744   1.4899521   9.2574773  )
         9           O1  tau(   9) = (   3.2881910   5.9516080  11.3945402  )
        10           O1  tau(  10) = (  -0.0003163   5.9583821  10.6097302  )
        11           O1  tau(  11) = (   1.2852796   1.4845524  12.6702349  )
        12           O1  tau(  12) = (   5.2939406   1.4843235  12.6686536  )
        13           Ti1 tau(  13) = (   6.5787960   2.9666663  12.5005329  )
        14           Ti1 tau(  14) = (   3.2867911   1.4810929  12.5380613  )
        15           O1  tau(  15) = (   6.5784438   5.9555467  14.6881035  )
        16           O1  tau(  16) = (   3.2900815   5.9490801  14.0192640  )
        17           O1  tau(  17) = (   4.5550846   1.4910540  16.1905095  )
        18           O1  tau(  18) = (   2.0267255   1.4911840  16.1885357  )
        19           Ti1 tau(  19) = (   3.2920947   2.9632608  15.7783766  )
        20           Ti1 tau(  20) = (   0.0012713   1.3437142  15.9485351  )
        21           O1  tau(  21) = (   3.2904802   0.0005063   4.7018136  )
        22           O1  tau(  22) = (   0.0010154   5.9436293  17.2207844  )
        23           O1  tau(  23) = (   1.3043587   1.4918075   6.0039043  )
        24           O1  tau(  24) = (   5.2767064   1.4903225   6.0039473  )
        25           Ti1 tau(  25) = (   0.0000382   5.9609847   6.0000000  )
        26           Ti1 tau(  26) = (   3.2902200   4.4714249   6.0002472  )
        27           O1  tau(  27) = (   0.0002396   2.9813036   7.9858123  )
        28           O1  tau(  28) = (   3.2902150   2.9813002   7.3038282  )
        29           O1  tau(  29) = (   4.5938453   4.4726049   9.2879030  )
        30           O1  tau(  30) = (   1.9864658   4.4711199   9.2879459  )
        31           Ti1 tau(  31) = (   3.2904075   5.9576890   9.1543145  )
        32           Ti1 tau(  32) = (   0.0010733   4.4688904   9.2576998  )
        33           O1  tau(  33) = (   3.2885442   2.9721716  11.3880939  )
        34           O1  tau(  34) = (   0.0004144   2.9779705  10.6294865  )
        35           O1  tau(  35) = (   1.2846651   4.4573380  12.6727508  )
        36           O1  tau(  36) = (   5.2936233   4.4572296  12.6712295  )
        37           Ti1 tau(  37) = (   6.5756527   5.9477167  12.4782878  )
        38           Ti1 tau(  38) = (   3.2865705   4.4596354  12.5399379  )
        39           O1  tau(  39) = (   6.5788522   2.9667014  14.9890502  )
        40           O1  tau(  40) = (   3.2903707   2.9673551  13.9858356  )
        41           O1  tau(  41) = (   4.5543970   4.4428783  16.1860255  )
        42           O1  tau(  42) = (   2.0267162   4.4429101  16.1842223  )
        43           Ti1 tau(  43) = (   3.2900514   5.9435888  15.8195923  )
        44           Ti1 tau(  44) = (   0.0007397   4.6011056  15.9424949  )
        45           O1  tau(  45) = (   3.2900926   2.9813045   4.7018136  )
        46           O1  tau(  46) = (   1.3039711   4.4726057   6.0039043  )
        47           O1  tau(  47) = (   5.2763189   4.4711207   6.0039473  )
        48           N1  tau(  48) = (   0.1299037   2.9187272  19.5607373  )
        49           N1  tau(  49) = (   0.0588536   2.9354595  18.4591164  )

     number of k points=    10  Fermi-Dirac smearing, width (Ry)=  0.0073
                       cart. coord. in units 2pi/alat
        k(    1) = (   0.0000000   0.0000000   0.0000000), wk =   0.1250000
        k(    2) = (   0.0000000   0.0419351   0.0000000), wk =   0.2500000
        k(    3) = (   0.0000000  -0.0838702   0.0000000), wk =   0.1250000
        k(    4) = (   0.0379955   0.0000049   0.0000000), wk =   0.2500000
        k(    5) = (   0.0379955   0.0419400   0.0000000), wk =   0.2500000
        k(    6) = (   0.0379955  -0.0838652   0.0000000), wk =   0.2500000
        k(    7) = (   0.0379955  -0.0419301   0.0000000), wk =   0.2500000
        k(    8) = (  -0.0759910  -0.0000099   0.0000000), wk =   0.1250000
        k(    9) = (  -0.0759910   0.0419252   0.0000000), wk =   0.2500000
        k(   10) = (  -0.0759910  -0.0838800   0.0000000), wk =   0.1250000

     Initial potential from superposition of free atoms

     starting charge  371.99923, renormalised to  388.00000

     negative rho (up, down):  1.868E-02 0.000E+00

     %%%%%%%%%%%%%%%%%%%%%%%%%%%%%%%%%%%%%%%%%%%%%%%%%%%%%%%%%%%%%%%%%%%%%%%%
     %                                                                      %
     % You are using vdW-DF, which was implemented by the Thonhauser group. %
     % Please cite the following two papers that made this development      %
     % possible and the two reviews that describe the various versions:     %
     %                                                                      %
     %   T. Thonhauser et al., PRL 115, 136402 (2015).                      %
     %   T. Thonhauser et al., PRB 76, 125112 (2007).                       %
     %   K. Berland et al., Rep. Prog. Phys. 78, 066501 (2015).             %
     %   D.C. Langreth et al., J. Phys.: Condens. Matter 21, 084203 (2009). %
     %                                                                      %
     %                                                                      %
     % If you are calculating the stress with vdW-DF, please also cite:     %
     %                                                                      %
     %   R. Sabatini et al., J. Phys.: Condens. Matter 24, 424209 (2012).   %
     %                                                                      %
     %%%%%%%%%%%%%%%%%%%%%%%%%%%%%%%%%%%%%%%%%%%%%%%%%%%%%%%%%%%%%%%%%%%%%%%%

     Adding external electric field

     Computed dipole along edir(3) :
        Dipole               -5.4531 Ry au,        -13.8604 Debye
        Dipole field         -0.0103 Ry au,

        Potential amp.        0.9539 Ry
        Total length         46.3494 bohr

     Starting wfcs are  292 atomic wfcs
  @ DRIVER MODE: Message from server: STATUS
  @ DRIVER MODE: Message from server: POSDATA
  @ DRIVER MODE: Reading and sharing cell
  @ DRIVER MODE: Reading and sharing positions
  @ DRIVER MODE: Received positions

     Self-consistent Calculation

     iteration #  1     ecut=    29.40 Ry     beta= 0.05
     Davidson diagonalization with overlap
     c_bands:  3 eigenvalues not converged
     c_bands:  2 eigenvalues not converged
     c_bands:  2 eigenvalues not converged
     c_bands:  1 eigenvalues not converged
     c_bands:  3 eigenvalues not converged
     c_bands:  2 eigenvalues not converged
     c_bands:  4 eigenvalues not converged
     c_bands:  1 eigenvalues not converged
     ethr =  1.00E-05,  avg # of iterations = 21.4

[...]

     total energy              =   -2822.48483851 Ry
     estimated scf accuracy    <    1128.78670654 Ry

     iteration #  2     ecut=    29.40 Ry     beta= 0.05
     Davidson diagonalization with overlap
     ethr =  1.00E-02,  avg # of iterations = 16.8

[...]

     iteration # 66     ecut=    29.40 Ry     beta= 0.05
     Davidson diagonalization with overlap
     ethr =  2.93E-11,  avg # of iterations = 13.1

[...]

     total energy              =   -2924.04890042 Ry
     estimated scf accuracy    <       0.00000013 Ry

     iteration # 67     ecut=    29.40 Ry     beta= 0.05
     Davidson diagonalization with overlap
     c_bands:  1 eigenvalues not converged
     ethr =  2.93E-11,  avg # of iterations = 11.9

     negative rho (up, down):  1.840E-02 0.000E+00

     Adding external electric field

     Computed dipole along edir(3) :
        Dipole                0.7001 Ry au,          1.7794 Debye
        Dipole field          0.0013 Ry au,

        Potential amp.       -0.1225 Ry
        Total length         46.3494 bohr

     End of self-consistent calculation

          k = 0.0000 0.0000 0.0000 ( 18029 PWs)   bands (ev):

   -55.9040 -55.8680 -55.8580 -55.8238 -55.7871 -55.7765 -55.7420 -55.7416
   -55.7297 -55.7078 -55.7054 -55.6845 -55.6680 -55.6506 -54.9687 -54.9347
   -32.4680 -32.4143 -32.3592 -32.2620 -32.2147 -32.2117 -32.2095 -32.1976
   -32.1481 -32.1366 -32.1108 -32.1044 -32.1030 -32.0762 -32.0709 -32.0541
   -32.0400 -32.0377 -32.0321 -32.0185 -32.0099 -32.0060 -32.0032 -32.0014
   -31.9796 -31.9732 -31.9556 -31.9136 -31.9071 -31.9000 -31.8934 -31.8881
   -31.8798 -31.8779 -31.8767 -31.8708 -31.8613 -31.8393 -31.8281 -31.8172
   -31.7992 -31.7455 -31.3816 -31.2772 -31.2558 -31.1976 -31.1113 -31.0004
   -21.8137 -16.7346 -16.5016 -16.3637 -16.2357 -16.1301 -16.0212 -15.9221
   -15.8553 -15.7839 -15.6290 -15.5973 -15.5677 -15.5321 -15.5112 -15.5058
   -15.4959 -15.4609 -15.4389 -15.4147 -15.4131 -15.3966 -15.3828 -15.3502
   -15.2965 -15.2145 -15.1359 -15.0661 -15.0078 -14.6780 -13.4697 -13.3499
    -7.2633  -4.9608  -4.9538  -4.0699  -4.0205  -3.9172  -3.8394  -3.8257
    -3.7314  -3.6698  -3.4651  -3.3888  -3.3520  -3.2014  -3.1587  -3.1018
    -3.0515  -2.9627  -2.8983  -2.8913  -2.8019  -2.7785  -2.7767  -2.7672
    -2.6774  -2.6647  -2.6289  -2.6213  -2.5944  -2.5001  -2.3762  -2.3407
    -2.2859  -2.2847  -2.2626  -2.2490  -2.2240  -2.1842  -2.1613  -2.1522
    -2.1006  -2.0888  -1.9477  -1.8037  -1.7691  -1.6930  -1.6077  -1.5144
    -1.4646  -1.4235  -1.3637  -1.3593  -1.3125  -1.2844  -1.2485  -1.1643
    -1.0741  -1.0334  -0.9380  -0.9213  -0.8489  -0.8120  -0.7582  -0.6990
    -0.6969  -0.6571  -0.5617  -0.5274  -0.4097  -0.3999  -0.3860  -0.3662
    -0.3021  -0.2492  -0.1437  -0.1150  -0.1132  -0.1038   0.0041   0.0321
     0.0342   0.0475   0.0586   0.1219   0.1908   0.2310   0.2738   0.4211
     0.6453   0.6485   0.7085   0.9416   1.0195   1.0573   1.2145   1.6435
     1.6975   3.1915   3.2581   3.2890   3.3218   3.3567   3.3985   3.6873
     3.7032   3.7298   3.7465   3.7666

[...]

          k = 0.0380-0.0419 0.0000 ( 17876 PWs)   bands (ev):

[...]

          k =-0.0760-0.0000 0.0000 ( 17886 PWs)   bands (ev):

[...]

          k =-0.0760-0.0839 0.0000 ( 17948 PWs)   bands (ev):

   -55.8861 -55.8857 -55.8415 -55.8401 -55.7832 -55.7622 -55.7559 -55.7259
   -55.7235 -55.7233 -55.7091 -55.6744 -55.6676 -55.6675 -54.9517 -54.9516
   -32.3394 -32.2720 -32.2712 -32.1778 -32.1746 -32.1733 -32.1576 -32.1344
   -32.1323 -32.1041 -32.1026 -32.1003 -32.0931 -32.0507 -32.0446 -32.0433
   -32.0406 -32.0392 -32.0288 -32.0242 -32.0231 -32.0110 -32.0011 -31.9885
   -31.9838 -31.9836 -31.9813 -31.9793 -31.9596 -31.9586 -31.9557 -31.9481
   -31.9218 -31.9203 -31.9047 -31.8964 -31.8961 -31.8910 -31.8765 -31.8535
   -31.8527 -31.8471 -31.2684 -31.2683 -31.1943 -31.1941 -31.1545 -31.1544
   -21.8135 -16.4115 -16.1049 -16.0648 -15.9504 -15.9453 -15.8641 -15.8485
   -15.7426 -15.6974 -15.6871 -15.6859 -15.6250 -15.6223 -15.6025 -15.5911
   -15.5179 -15.5068 -15.4827 -15.4794 -15.4223 -15.4180 -15.4166 -15.4124
   -15.3748 -15.3742 -15.3386 -15.3354 -15.2161 -15.0490 -13.4508 -13.4508
    -7.2676  -4.9567  -4.9558  -3.9849  -3.4417  -3.3775  -3.3232  -3.1720
    -3.0945  -3.0835  -3.0380  -3.0085  -2.9350  -2.8992  -2.8988  -2.8168
    -2.8071  -2.8018  -2.8004  -2.7328  -2.7195  -2.6895  -2.6735  -2.6214
    -2.6209  -2.5989  -2.5951  -2.5799  -2.5710  -2.5519  -2.5457  -2.5164
    -2.4863  -2.4315  -2.4234  -2.2839  -2.2731  -2.2179  -2.1430  -2.1399
    -2.0578  -2.0432  -2.0068  -1.9755  -1.9104  -1.8950  -1.7258  -1.7050
    -1.7014  -1.6407  -1.5532  -1.5304  -1.4824  -1.4633  -1.4116  -1.3573
    -1.2538  -1.2274  -1.2073  -1.1005  -1.0929  -1.0284  -0.9427  -0.9015
    -0.8996  -0.8950  -0.8714  -0.8513  -0.8493  -0.7474  -0.6969  -0.6493
    -0.6383  -0.6257  -0.4252  -0.3690  -0.3415  -0.2349  -0.1919   0.0042
     0.0119   0.0390   0.1547   0.1554   0.1611   0.2210   0.3475   0.3526
     0.4229   0.4644   0.4923   0.5158   0.5180   1.4064   1.4075   1.5147
     1.5151   3.3521   3.4336   3.4510   3.5079   3.6374   3.6449   3.6998
     3.7384   3.7468   3.7472   3.8331

     the Fermi energy is     3.2558 ev

!    total energy              =   -2924.04891990 Ry
     estimated scf accuracy    <       0.00000004 Ry
     smearing contrib. (-TS)   =      -0.03676893 Ry
     internal energy E=F+TS    =   -2924.01215097 Ry

     The total energy is F=E-TS. E is the sum of the following terms:
     one-electron contribution =  -24117.07207948 Ry
     hartree contribution      =   12140.96420547 Ry
     xc contribution           =    -479.17534835 Ry
     ewald contribution        =    9531.27014654 Ry
     electric field correction =       0.00092484 Ry

     convergence has been achieved in  67 iterations

     Forces acting on atoms (cartesian axes, Ry/au):

     atom    1 type  1   force =     0.00005986    0.00003301    0.09030986
     atom    2 type  1   force =    -0.00002320    0.00036959   -0.18446320
     atom    3 type  2   force =     0.00007524   -0.00045827   -0.02388053
     atom    4 type  2   force =     0.00002022   -0.00008983    0.05159750
     atom    5 type  2   force =    -0.01360858   -0.00063828    0.00574342
     atom    6 type  2   force =     0.01348370   -0.00016247    0.00565099
     atom    7 type  1   force =     0.00011439   -0.00003144    0.00098476
     atom    8 type  1   force =     0.00001805    0.00011861    0.00020912
     atom    9 type  2   force =     0.00005762    0.00011851   -0.00044193
     atom   10 type  2   force =     0.00000031    0.00008191    0.00075303
     atom   11 type  2   force =    -0.00000777    0.00022969    0.00000581
     atom   12 type  2   force =    -0.00000359    0.00023329    0.00008893
     atom   13 type  1   force =     0.00002293    0.00029383   -0.00056171
     atom   14 type  1   force =    -0.00006494    0.00013593   -0.00109968
     atom   15 type  2   force =     0.00009659   -0.00037974   -0.00040110
     atom   16 type  2   force =    -0.00005301    0.00022222   -0.00020330
     atom   17 type  2   force =    -0.00017393   -0.00016465    0.00013831
     atom   18 type  2   force =     0.00022605   -0.00018816    0.00022255
     atom   19 type  1   force =     0.00015336    0.00005015    0.00066829
     atom   20 type  1   force =    -0.00011293    0.00012035    0.00181080
     atom   21 type  2   force =     0.00007329    0.00014493    0.10522132
     atom   22 type  2   force =     0.00002791    0.00006169   -0.00093482
     atom   23 type  2   force =    -0.06755946   -0.00012048   -0.02615859
     atom   24 type  2   force =     0.06748639    0.00031756   -0.02620080
     atom   25 type  1   force =     0.00006960    0.00004737    0.09059063
     atom   26 type  1   force =    -0.00007846   -0.00031723   -0.18441069
     atom   27 type  2   force =     0.00006442   -0.00049334   -0.02269533
     atom   28 type  2   force =     0.00002601   -0.00008638    0.05142265
     atom   29 type  2   force =    -0.01362012   -0.00058138    0.00567693
     atom   30 type  2   force =     0.01348626   -0.00006449    0.00558776
     atom   31 type  1   force =     0.00008952    0.00008106    0.00080803
     atom   32 type  1   force =     0.00001989   -0.00002681    0.00016754
     atom   33 type  2   force =     0.00007331   -0.00006478   -0.00002700
     atom   34 type  2   force =    -0.00000655   -0.00003777   -0.00002533
     atom   35 type  2   force =    -0.00009510    0.00000201   -0.00004003
     atom   36 type  2   force =     0.00011457   -0.00000355    0.00003004
     atom   37 type  1   force =     0.00007435    0.00012026    0.00091155
     atom   38 type  1   force =    -0.00005369   -0.00015157   -0.00126254
     atom   39 type  2   force =     0.00010329    0.00030200   -0.00003072
     atom   40 type  2   force =     0.00004437    0.00000455    0.00014319
     atom   41 type  2   force =     0.00008988    0.00004550    0.00016304
     atom   42 type  2   force =    -0.00004957   -0.00000796    0.00025886
     atom   43 type  1   force =     0.00005435    0.00048466    0.00085162
     atom   44 type  1   force =    -0.00012823   -0.00014785    0.00155338
     atom   45 type  2   force =     0.00006570    0.00013853    0.10517668
     atom   46 type  2   force =    -0.06756670   -0.00018935   -0.02615600
     atom   47 type  2   force =     0.06749144    0.00024130   -0.02619965
     atom   48 type  3   force =    -0.00048014    0.00051560   -0.00328793
     atom   49 type  3   force =    -0.00009692   -0.00010833    0.00173429

     Total force =     0.367147     Total SCF correction =     0.000536
  @ DRIVER MODE: Message from server: STATUS
  @ DRIVER MODE: Message from server: GETFORCE
  @ DRIVER MODE: Returning v,forces,stress,ensemble

     Writing output data file ./calc.save/
  @ DRIVER MODE: Message from server: EXIT
  @ DRIVE MODE: Exiting

     General routines

     Parallel routines

   This run was terminated on:   9:53:32  12Oct2021

   JOB DONE.