     Program PWSCF v.6.7GPU starts on  9Sep2021 at  5:23:51

     R & G space division:  proc/nbgrp/npool/nimage =      10
     Reading input from /storage/home/hcoda1/3/ntian30/research/carbon/CxH_vib/CH2_calc/ads_slab/CH2N2H_a/out_0025/pw.inp
Warning: card &CELL ignored
Warning: card   CELL_DYNAMICS='IPI', ignored
Warning: card / ignored

     Current dimensions of program PWSCF are:
     Max number of different atomic species (ntypx) = 10
     Max number of k-points (npk) =  40000
     Max angular momentum in pseudopotentials (lmaxx) =  3
     Presently no symmetry can be used with electric field

     Message from routine cell_base_init:
     DEPRECATED: use true lattice parameter, not A to a.u. conversion factor

     IMPORTANT: XC functional enforced from input :
     Exchange-correlation= BEEF-VDW
                           (   1   4  43  14   2   0   0)
     Any further DFT definition will be discarded
     Please, verify this is what you really want

  @ DRIVER MODE: Connecting to
 qe_1139763_2767385.sched-torque.pace.gatech.edudfd53xb1_scratch
  using UNIX socket
  @ DRIVER MODE: Message from server: STATUS
  @ DRIVER MODE: Message from server: INIT
  @ DRIVER MODE: Receiving replica           0          -1
  @ DRIVER MODE: Receiving encoded integer          25
  @ DRIVER MODE:  SCF:  T  FORCE:  T  STRESS:  F  VC:  F  ENSEMBLE:  F
  @ DRIVER MODE:  SCF:  T  FORCE:  T  STRESS:  F  VC:  F  ENSEMBLE:  F

     Using Slab Decomposition

     bravais-lattice index     =            0
     lattice parameter (alat)  =       1.8897  a.u.
     unit-cell volume          =    6658.9804 (a.u.)^3
     number of atoms/cell      =           53
     number of atomic types    =            5
     number of electrons       =       395.00
     number of Kohn-Sham states=          207
     kinetic-energy cutoff     =      29.3995  Ry
     charge density cutoff     =     293.9946  Ry
     scf convergence threshold =      7.3E-08
     mixing beta               =       0.0500
     number of iterations used =            8  plain     mixing
     Exchange-correlation= BEEF-VDW
                           (   1   4  43  14   2   0   0)

     celldm(1)=   1.889726  celldm(2)=   0.000000  celldm(3)=   0.000000
     celldm(4)=   0.000000  celldm(5)=   0.000000  celldm(6)=   0.000000

     crystal axes: (cart. coord. in units of alat)
               a(1) = (   6.579727   0.000000   0.000000 )
               a(2) = (  -0.000775   5.961596   0.000000 )
               a(3) = (   0.000000   0.000000  25.155947 )

     reciprocal axes: (cart. coord. in units 2 pi/alat)
               b(1) = (  0.151982  0.000020  0.000000 )
               b(2) = (  0.000000  0.167740  0.000000 )
               b(3) = (  0.000000  0.000000  0.039752 )

     PseudoPot. # 1 for Ti read from file:
     /storage/coda1/p-amedford6/0/shared/rich_project_chbe-medford/medford-share/data/pseudos_module/espresso/nninc/pbe/van/Ti.UPF
     MD5 check sum: 8e4df49b7f0d34bbd5052bf3f5ea0213
     Pseudo is Ultrasoft, Zval = 12.0
     Generated by new atomic code, or converted to UPF format
     Using radial grid of  851 points,  6 beta functions with:
                l(1) =   0
                l(2) =   0
                l(3) =   1
                l(4) =   1
                l(5) =   2
                l(6) =   2
     Q(r) pseudized with  8 coefficients,  rinner =    1.000   1.000   1.000
                                                       1.000   1.000

     PseudoPot. # 2 for O  read from file:
     /storage/coda1/p-amedford6/0/shared/rich_project_chbe-medford/medford-share/data/pseudos_module/espresso/nninc/pbe/van/O.UPF
     MD5 check sum: 78c19812648e8988a0fe644b0f25305e
     Pseudo is Ultrasoft, Zval =  6.0
     Generated by new atomic code, or converted to UPF format
     Using radial grid of  737 points,  4 beta functions with:
                l(1) =   0
                l(2) =   0
                l(3) =   1
                l(4) =   1
     Q(r) pseudized with  8 coefficients,  rinner =    0.800   0.800   0.800

     PseudoPot. # 3 for N  read from file:
     /storage/coda1/p-amedford6/0/shared/rich_project_chbe-medford/medford-share/data/pseudos_module/espresso/nninc/pbe/van/N.UPF
     MD5 check sum: 90d10febe142ad51ac9d5be1deb811c4
     Pseudo is Ultrasoft, Zval =  5.0
     Generated by new atomic code, or converted to UPF format
     Using radial grid of  729 points,  4 beta functions with:
                l(1) =   0
                l(2) =   0
                l(3) =   1
                l(4) =   1
     Q(r) pseudized with  8 coefficients,  rinner =    0.800   0.800   0.800

     PseudoPot. # 4 for C  read from file:
     /storage/coda1/p-amedford6/0/shared/rich_project_chbe-medford/medford-share/data/pseudos_module/espresso/nninc/pbe/van/C.UPF
     MD5 check sum: 1a69bf6b8db32088f5b2163dbdb77a27
     Pseudo is Ultrasoft, Zval =  4.0
     Generated by new atomic code, or converted to UPF format
     Using radial grid of  721 points,  4 beta functions with:
                l(1) =   0
                l(2) =   0
                l(3) =   1
                l(4) =   1
     Q(r) pseudized with  8 coefficients,  rinner =    0.800   0.800   0.800

     PseudoPot. # 5 for H  read from file:
     /storage/coda1/p-amedford6/0/shared/rich_project_chbe-medford/medford-share/data/pseudos_module/espresso/nninc/pbe/van/H.UPF
     MD5 check sum: b5ee9d7bfd3a09ee7748110bda690ff7
     Pseudo is Ultrasoft, Zval =  1.0
     Generated by new atomic code, or converted to UPF format
     Using radial grid of  615 points,  1 beta functions with:
                l(1) =   0
     Q(r) pseudized with  8 coefficients,  rinner =    0.800

     atomic species   valence    mass     pseudopotential
        Ti1           12.00    47.86700     Ti( 1.00)
        O1             6.00    15.99900     O ( 1.00)
        N1             5.00    14.00700     N ( 1.00)
        C1             4.00    12.01100     C ( 1.00)
        H1             1.00     1.00800     H ( 1.00)

     No symmetry found

   Cartesian axes

     site n.     atom                  positions (alat units)
         1           Ti1 tau(   1) = (   0.0004258   2.9801865   6.0000000  )
         2           Ti1 tau(   2) = (   3.2906075   1.4906267   6.0002472  )
         3           O1  tau(   3) = (   0.0006271   0.0005054   7.9858123  )
         4           O1  tau(   4) = (   3.2906025   0.0005020   7.3038282  )
         5           O1  tau(   5) = (   4.5942328   1.4918067   9.2879030  )
         6           O1  tau(   6) = (   1.9868534   1.4903216   9.2879459  )
         7           Ti1 tau(   7) = (   3.2907910   2.8959150   9.1758416  )
         8           Ti1 tau(   8) = (   0.0015273   1.4827037   9.2680791  )
         9           O1  tau(   9) = (   3.3007851   0.0027079  11.3193151  )
        10           O1  tau(  10) = (   0.0116148   5.9584955  10.6183126  )
        11           O1  tau(  11) = (   1.3147357   1.5019762  12.6210215  )
        12           O1  tau(  12) = (   5.3120411   1.4917641  12.6342566  )
        13           Ti1 tau(  13) = (   6.5359925   2.9538565  12.6086018  )
        14           Ti1 tau(  14) = (   3.2189980   1.4905645  12.4770757  )
        15           O1  tau(  15) = (   0.0426301   5.9606301  14.6312846  )
        16           O1  tau(  16) = (   3.3149351   0.0098317  13.8848037  )
        17           O1  tau(  17) = (   4.5523768   1.5206755  16.0744300  )
        18           O1  tau(  18) = (   2.0715852   1.4807026  15.9918588  )
        19           Ti1 tau(  19) = (   3.2935730   2.9941335  15.6827836  )
        20           Ti1 tau(  20) = (   0.0200723   1.3023755  15.9747514  )
        21           O1  tau(  21) = (   3.2904802   0.0005063   4.7018136  )
        22           O1  tau(  22) = (   6.5179923   0.0002674  17.1556216  )
        23           O1  tau(  23) = (   1.3043587   1.4918075   6.0039043  )
        24           O1  tau(  24) = (   5.2767064   1.4903225   6.0039473  )
        25           Ti1 tau(  25) = (   0.0000382   5.9609847   6.0000000  )
        26           Ti1 tau(  26) = (   3.2902200   4.4714249   6.0002472  )
        27           O1  tau(  27) = (   0.0002396   2.9813036   7.9858123  )
        28           O1  tau(  28) = (   3.2902150   2.9813002   7.3038282  )
        29           O1  tau(  29) = (   4.5938453   4.4726049   9.2879030  )
        30           O1  tau(  30) = (   1.9864658   4.4711199   9.2879459  )
        31           Ti1 tau(  31) = (   3.2891106   5.8743827   9.1763621  )
        32           Ti1 tau(  32) = (   0.0006254   4.4649316   9.2693709  )
        33           O1  tau(  33) = (   3.3053585   2.9833221  11.3185053  )
        34           O1  tau(  34) = (   0.0092240   2.9805883  10.6323155  )
        35           O1  tau(  35) = (   1.3157767   4.4721532  12.6203727  )
        36           O1  tau(  36) = (   5.3104355   4.4689601  12.6331991  )
        37           Ti1 tau(  37) = (   6.5385524   5.9338372  12.5465384  )
        38           Ti1 tau(  38) = (   3.2200853   4.4710709  12.4725482  )
        39           O1  tau(  39) = (   0.0068575   2.9964749  14.7765288  )
        40           O1  tau(  40) = (   3.3021705   2.9848394  13.8818356  )
        41           O1  tau(  41) = (   4.5334443   4.4765196  15.9883447  )
        42           O1  tau(  42) = (   2.0816803   4.4801587  16.0471567  )
        43           Ti1 tau(  43) = (   3.3155128   0.0116264  15.6901768  )
        44           Ti1 tau(  44) = (   6.5575601   4.4671909  15.9479714  )
        45           O1  tau(  45) = (   3.2900926   2.9813045   4.7018136  )
        46           O1  tau(  46) = (   1.3039711   4.4726057   6.0039043  )
        47           O1  tau(  47) = (   5.2763189   4.4711207   6.0039473  )
        48           N1  tau(  48) = (   0.4270260   2.3853988  17.9668900  )
        49           C1  tau(  49) = (   0.9469377   1.9340014  19.0583692  )
        50           H1  tau(  50) = (   1.0789317   2.5769861  19.9249762  )
        51           H1  tau(  51) = (   1.2326487   0.8959138  19.0941702  )
        52           N1  tau(  52) = (   6.5722951   3.6232397  17.7996529  )
        53           H1  tau(  53) = (   0.1020252   4.2324666  18.6151602  )

     number of k points=    10  Fermi-Dirac smearing, width (Ry)=  0.0073
                       cart. coord. in units 2pi/alat
        k(    1) = (   0.0000000   0.0000000   0.0000000), wk =   0.1250000
        k(    2) = (   0.0000000   0.0419351   0.0000000), wk =   0.2500000
        k(    3) = (   0.0000000  -0.0838702   0.0000000), wk =   0.1250000
        k(    4) = (   0.0379955   0.0000049   0.0000000), wk =   0.2500000
        k(    5) = (   0.0379955   0.0419400   0.0000000), wk =   0.2500000
        k(    6) = (   0.0379955  -0.0838652   0.0000000), wk =   0.2500000
        k(    7) = (   0.0379955  -0.0419301   0.0000000), wk =   0.2500000
        k(    8) = (  -0.0759910  -0.0000099   0.0000000), wk =   0.1250000
        k(    9) = (  -0.0759910   0.0419252   0.0000000), wk =   0.2500000
        k(   10) = (  -0.0759910  -0.0838800   0.0000000), wk =   0.1250000

     Initial potential from superposition of free atoms

     starting charge  378.99916, renormalised to  395.00000

     negative rho (up, down):  1.649E-02 0.000E+00

     %%%%%%%%%%%%%%%%%%%%%%%%%%%%%%%%%%%%%%%%%%%%%%%%%%%%%%%%%%%%%%%%%%%%%%%%
     %                                                                      %
     % You are using vdW-DF, which was implemented by the Thonhauser group. %
     % Please cite the following two papers that made this development      %
     % possible and the two reviews that describe the various versions:     %
     %                                                                      %
     %   T. Thonhauser et al., PRL 115, 136402 (2015).                      %
     %   T. Thonhauser et al., PRB 76, 125112 (2007).                       %
     %   K. Berland et al., Rep. Prog. Phys. 78, 066501 (2015).             %
     %   D.C. Langreth et al., J. Phys.: Condens. Matter 21, 084203 (2009). %
     %                                                                      %
     %                                                                      %
     % If you are calculating the stress with vdW-DF, please also cite:     %
     %                                                                      %
     %   R. Sabatini et al., J. Phys.: Condens. Matter 24, 424209 (2012).   %
     %                                                                      %
     %%%%%%%%%%%%%%%%%%%%%%%%%%%%%%%%%%%%%%%%%%%%%%%%%%%%%%%%%%%%%%%%%%%%%%%%

     Adding external electric field

     Computed dipole along edir(3) :
        Dipole               -8.3970 Ry au,        -21.3430 Debye
        Dipole field         -0.0158 Ry au,

        Potential amp.        1.4689 Ry
        Total length         46.3494 bohr

     Starting wfcs are  299 atomic wfcs
  @ DRIVER MODE: Message from server: STATUS
  @ DRIVER MODE: Message from server: POSDATA
  @ DRIVER MODE: Reading and sharing cell
  @ DRIVER MODE: Reading and sharing positions
  @ DRIVER MODE: Received positions

     Self-consistent Calculation

     iteration #  1     ecut=    29.40 Ry     beta= 0.05
     Davidson diagonalization with overlap
     c_bands:  2 eigenvalues not converged
     c_bands:  1 eigenvalues not converged
     c_bands:  2 eigenvalues not converged
     c_bands:  3 eigenvalues not converged
     c_bands:  3 eigenvalues not converged
     c_bands:  2 eigenvalues not converged
     c_bands:  1 eigenvalues not converged
     ethr =  1.00E-05,  avg # of iterations = 19.3

[...]

     total energy              =   -2613.95026175 Ry
     estimated scf accuracy    <    3601.34413952 Ry

[...]

     iteration #  3     ecut=    29.40 Ry     beta= 0.05
     Davidson diagonalization with overlap
     ethr =  1.00E-02,  avg # of iterations = 14.4

[...]

     iteration # 36     ecut=    29.40 Ry     beta= 0.05
     Davidson diagonalization with overlap
     c_bands:  1 eigenvalues not converged
     ethr =  1.12E-06,  avg # of iterations = 10.6

[...]

     total energy              =   -2939.13533244 Ry
     estimated scf accuracy    <       0.00000010 Ry

     iteration # 57     ecut=    29.40 Ry     beta= 0.05
     Davidson diagonalization with overlap
     ethr =  2.53E-11,  avg # of iterations = 10.9

     negative rho (up, down):  1.681E-02 0.000E+00

     Adding external electric field

     Computed dipole along edir(3) :
        Dipole                0.7872 Ry au,          2.0009 Debye
        Dipole field          0.0015 Ry au,

        Potential amp.       -0.1377 Ry
        Total length         46.3494 bohr

     End of self-consistent calculation

          k = 0.0000 0.0000 0.0000 ( 18029 PWs)   bands (ev):

   -55.8527 -55.8518 -55.8186 -55.8157 -55.7460 -55.7030 -55.6652 -55.6634
   -55.6303 -55.6295 -55.6247 -55.5911 -55.1908 -55.1448 -54.8282 -54.7942
   -32.4058 -32.3355 -32.2417 -32.1633 -32.1495 -32.1449 -32.1312 -32.1165
   -32.0957 -32.0827 -32.0298 -32.0119 -32.0051 -32.0035 -31.9933 -31.9899
   -31.9574 -31.9457 -31.9398 -31.9371 -31.9101 -31.9077 -31.8920 -31.8898
   -31.8590 -31.8547 -31.8526 -31.8514 -31.8263 -31.8112 -31.8037 -31.7935
   -31.7816 -31.7793 -31.7716 -31.7382 -31.7317 -31.4545 -31.4186 -31.3903
   -31.3387 -31.3027 -31.2350 -31.1474 -31.1249 -31.0520 -30.9655 -30.8542
   -17.8738 -16.6121 -16.3319 -16.0761 -16.0011 -15.9975 -15.8639 -15.7010
   -15.5883 -15.5214 -15.4411 -15.4113 -15.3891 -15.3536 -15.3473 -15.3097
   -15.3008 -15.2748 -15.2717 -15.2095 -15.2059 -15.1987 -15.1888 -15.1047
   -15.0472 -14.9956 -14.9878 -14.9146 -14.8803 -14.3519 -13.3301 -13.2137
   -12.1620  -7.8573  -5.3572  -4.5321  -3.9889  -3.8295  -3.7596  -3.7253
    -3.6481  -3.4890  -3.4102  -3.1265  -3.0777  -3.0238  -3.0144  -2.9779
    -2.9270  -2.7803  -2.7033  -2.6767  -2.6613  -2.6390  -2.6241  -2.6119
    -2.5948  -2.5766  -2.4939  -2.4142  -2.3700  -2.2932  -2.2799  -2.2439
    -2.1649  -2.1645  -2.1245  -2.1042  -2.0858  -2.0697  -2.0610  -2.0459
    -1.9064  -1.8464  -1.8342  -1.6537  -1.6378  -1.5885  -1.4606  -1.4547
    -1.3387  -1.3234  -1.2833  -1.2455  -1.1718  -1.1511  -1.0394  -0.9983
    -0.9362  -0.8899  -0.8731  -0.7987  -0.7340  -0.6949  -0.6818  -0.6174
    -0.6104  -0.5974  -0.4619  -0.3852  -0.3328  -0.2770  -0.2548  -0.1986
    -0.1592  -0.1157  -0.0290  -0.0015   0.0105   0.0690   0.0903   0.1157
     0.1275   0.1471   0.1766   0.2313   0.3496   0.3810   0.4570   0.4714
     0.5330   0.6664   0.8045   0.8715   0.9243   1.0192   1.1251   1.1946
     1.2676   1.3869   1.7647   1.8102   2.1305   3.2670   3.3690   3.4017
     3.4127   3.5158   3.6646   3.7263   3.7411   3.7825   3.8162

[...]

          k = 0.0380-0.0419 0.0000 ( 17876 PWs)   bands (ev):

[...]

          k =-0.0760-0.0000 0.0000 ( 17886 PWs)   bands (ev):

[...]

          k =-0.0760-0.0839 0.0000 ( 17948 PWs)   bands (ev):

   -55.8358 -55.8353 -55.8342 -55.8330 -55.7374 -55.7116 -55.6484 -55.6470
   -55.6467 -55.6457 -55.6086 -55.6073 -55.1830 -55.1525 -54.8112 -54.8110
   -32.2080 -32.2064 -32.1510 -32.1506 -32.1304 -32.1300 -32.0966 -32.0936
   -32.0845 -32.0678 -32.0022 -31.9995 -31.9939 -31.9922 -31.9701 -31.9625
   -31.9556 -31.9551 -31.9500 -31.9488 -31.9469 -31.9352 -31.9295 -31.9228
   -31.9106 -31.9057 -31.8607 -31.8506 -31.8486 -31.8478 -31.8395 -31.8387
   -31.8256 -31.8249 -31.8243 -31.8231 -31.6843 -31.4501 -31.4168 -31.4127
   -31.3936 -31.3396 -31.1377 -31.1376 -31.0479 -31.0477 -31.0089 -31.0088
   -17.8599 -16.0273 -16.0244 -15.8167 -15.7778 -15.7586 -15.7528 -15.6630
   -15.5773 -15.5436 -15.5406 -15.4529 -15.4275 -15.4115 -15.3953 -15.3899
   -15.3810 -15.3515 -15.3164 -15.3089 -15.2947 -15.2891 -15.2772 -15.2204
   -15.1689 -15.1647 -15.1423 -15.0702 -14.8313 -14.6919 -13.3156 -13.3154
   -12.1228  -7.7974  -5.4023  -4.5927  -3.3217  -3.3122  -3.0657  -3.0228
    -3.0169  -2.9832  -2.9503  -2.7899  -2.7774  -2.7578  -2.7500  -2.7054
    -2.6818  -2.6615  -2.6419  -2.6367  -2.6075  -2.5816  -2.5664  -2.5296
    -2.5225  -2.5137  -2.4821  -2.4715  -2.4249  -2.4193  -2.3987  -2.3712
    -2.3613  -2.3278  -2.1763  -2.1073  -2.0789  -1.9945  -1.9875  -1.9475
    -1.9241  -1.9033  -1.8930  -1.8688  -1.8302  -1.6944  -1.6118  -1.5504
    -1.5417  -1.4573  -1.4297  -1.3681  -1.2782  -1.2527  -1.2317  -1.1600
    -1.0845  -1.0464  -0.9948  -0.9820  -0.9140  -0.9057  -0.8481  -0.8111
    -0.8091  -0.7330  -0.7039  -0.6544  -0.6182  -0.6013  -0.5783  -0.5510
    -0.5362  -0.5121  -0.4350  -0.3530  -0.3014  -0.2396  -0.1478  -0.0163
     0.1022   0.2150   0.2369   0.2806   0.3341   0.3682   0.4613   0.4651
     0.5293   0.5517   0.5936   0.6706   0.6819   0.7063   0.8173   0.8472
     1.5591   1.5595   1.6301   1.6303   2.0710   3.5897   3.6186   3.6378
     3.6694   3.7990   3.8050   3.8160   3.8165   3.9513   3.9548

     the Fermi energy is     3.2768 ev

!    total energy              =   -2939.13538673 Ry
     estimated scf accuracy    <       0.00000006 Ry
     smearing contrib. (-TS)   =      -0.02099012 Ry
     internal energy E=F+TS    =   -2939.11439661 Ry

     The total energy is F=E-TS. E is the sum of the following terms:
     one-electron contribution =  -24492.24024204 Ry
     hartree contribution      =   12334.08169987 Ry
     xc contribution           =    -485.36662358 Ry
     ewald contribution        =    9704.40959972 Ry
     electric field correction =       0.00116943 Ry

     convergence has been achieved in  57 iterations

     Forces acting on atoms (cartesian axes, Ry/au):

     atom    1 type  1   force =     0.00007877   -0.00024329    0.09633696
     atom    2 type  1   force =     0.00004339   -0.00056457   -0.17515026
     atom    3 type  2   force =     0.00015110   -0.00013410   -0.02408762
     atom    4 type  2   force =    -0.00000592   -0.00124906    0.05221188
     atom    5 type  2   force =    -0.01056196   -0.00047648    0.00250593
     atom    6 type  2   force =     0.01237697    0.00022401    0.00287733
     atom    7 type  1   force =     0.00096386    0.00027746   -0.01176760
     atom    8 type  1   force =    -0.00014327    0.00775054    0.02261631
     atom    9 type  2   force =    -0.00020098   -0.00015726   -0.00027304
     atom   10 type  2   force =    -0.00262406    0.00115036   -0.01267656
     atom   11 type  2   force =     0.00006045   -0.00012603    0.00005302
     atom   12 type  2   force =     0.00010175    0.00017937   -0.00038847
     atom   13 type  1   force =     0.00043539   -0.00035283    0.00022469
     atom   14 type  1   force =     0.00014813    0.00032983   -0.00012997
     atom   15 type  2   force =    -0.00021279    0.00007856    0.00001429
     atom   16 type  2   force =     0.00009821   -0.00022146    0.00033893
     atom   17 type  2   force =     0.00040101   -0.00008584    0.00029875
     atom   18 type  2   force =     0.00068379   -0.00018987    0.00025173
     atom   19 type  1   force =    -0.00098022   -0.00010803    0.00031711
     atom   20 type  1   force =     0.00031020   -0.00031090   -0.00030621
     atom   21 type  2   force =     0.00004574    0.00000184    0.10311593
     atom   22 type  2   force =     0.00022215   -0.00022348   -0.00006660
     atom   23 type  2   force =    -0.07163110   -0.00015006   -0.02767058
     atom   24 type  2   force =     0.07157060    0.00034986   -0.02773999
     atom   25 type  1   force =     0.00014977   -0.00023881    0.09589315
     atom   26 type  1   force =     0.00010677   -0.00041154   -0.17542866
     atom   27 type  2   force =     0.00017570   -0.00021493   -0.02291973
     atom   28 type  2   force =     0.00006566   -0.00101440    0.05216979
     atom   29 type  2   force =    -0.01086086    0.00048197    0.00242856
     atom   30 type  2   force =     0.01255411    0.00064340    0.00277354
     atom   31 type  1   force =     0.00087498    0.00348540   -0.01294114
     atom   32 type  1   force =     0.00003051   -0.00925269    0.02304472
     atom   33 type  2   force =    -0.00048539    0.00013519    0.00022858
     atom   34 type  2   force =    -0.00302750    0.00022814   -0.01290414
     atom   35 type  2   force =     0.00008204    0.00008766   -0.00008054
     atom   36 type  2   force =     0.00011196    0.00033481   -0.00039946
     atom   37 type  1   force =     0.00034000    0.00036462    0.00007157
     atom   38 type  1   force =     0.00002312   -0.00042144    0.00015288
     atom   39 type  2   force =     0.00017059    0.00050660    0.00054363
     atom   40 type  2   force =     0.00035153    0.00013865   -0.00037545
     atom   41 type  2   force =     0.00011558    0.00022496   -0.00004530
     atom   42 type  2   force =     0.00043416   -0.00011718    0.00085206
     atom   43 type  1   force =    -0.00137264   -0.00027424   -0.00025809
     atom   44 type  1   force =     0.00038067   -0.00016103   -0.00119730
     atom   45 type  2   force =     0.00005741   -0.00004047    0.10310154
     atom   46 type  2   force =    -0.07165952   -0.00007625   -0.02769430
     atom   47 type  2   force =     0.07159461    0.00032388   -0.02775715
     atom   48 type  3   force =    -0.00342106    0.00133659   -0.00129206
     atom   49 type  4   force =    -0.00098906    0.00142799   -0.00115781
     atom   50 type  5   force =    -0.00117854    0.00061481    0.00084753
     atom   51 type  5   force =     0.00086346   -0.00055619   -0.00001529
     atom   52 type  3   force =     0.00438943   -0.00285300    0.00208345
     atom   53 type  5   force =    -0.00120867   -0.00045108   -0.00063059

     Total force =     0.365821     Total SCF correction =     0.000796
  @ DRIVER MODE: Message from server: STATUS
  @ DRIVER MODE: Message from server: GETFORCE
  @ DRIVER MODE: Returning v,forces,stress,ensemble

     Writing output data file ./calc.save/
  @ DRIVER MODE: Message from server: EXIT
  @ DRIVE MODE: Exiting

     General routines

     Parallel routines

   This run was terminated on:   5:39:12   9Sep2021

   JOB DONE.