     Program PWSCF v.6.7GPU starts on  8Sep2021 at 21:51:40

     R & G space division:  proc/nbgrp/npool/nimage =      10
     Reading input from /storage/home/hcoda1/3/ntian30/research/carbon/CxH_vib/CH_calc/ads_slab/CHNNHH_a/out_0000/pw.inp
Warning: card &CELL ignored
Warning: card   CELL_DYNAMICS='IPI', ignored
Warning: card / ignored

     Current dimensions of program PWSCF are:
     Max number of different atomic species (ntypx) = 10
     Max number of k-points (npk) =  40000
     Max angular momentum in pseudopotentials (lmaxx) =  3
     Presently no symmetry can be used with electric field

     Message from routine cell_base_init:
     DEPRECATED: use true lattice parameter, not A to a.u. conversion factor

     IMPORTANT: XC functional enforced from input :
     Exchange-correlation= BEEF-VDW
                           (   1   4  43  14   2   0   0)
     Any further DFT definition will be discarded
     Please, verify this is what you really want

  @ DRIVER MODE: Connecting to
 qe_1139763_2767382.sched-torque.pace.gatech.edu7mj673be_scratch
  using UNIX socket
  @ DRIVER MODE: Message from server: STATUS
  @ DRIVER MODE: Message from server: INIT
  @ DRIVER MODE: Receiving replica           0          -1
  @ DRIVER MODE: Receiving encoded integer          25
  @ DRIVER MODE:  SCF:  T  FORCE:  T  STRESS:  F  VC:  F  ENSEMBLE:  F
  @ DRIVER MODE:  SCF:  T  FORCE:  T  STRESS:  F  VC:  F  ENSEMBLE:  F

     Using Slab Decomposition

     bravais-lattice index     =            0
     lattice parameter (alat)  =       1.8897  a.u.
     unit-cell volume          =    6658.9804 (a.u.)^3
     number of atoms/cell      =           53
     number of atomic types    =            5
     number of electrons       =       395.00
     number of Kohn-Sham states=          207
     kinetic-energy cutoff     =      29.3995  Ry
     charge density cutoff     =     293.9946  Ry
     scf convergence threshold =      7.3E-08
     mixing beta               =       0.0500
     number of iterations used =            8  plain     mixing
     Exchange-correlation= BEEF-VDW
                           (   1   4  43  14   2   0   0)

     celldm(1)=   1.889726  celldm(2)=   0.000000  celldm(3)=   0.000000
     celldm(4)=   0.000000  celldm(5)=   0.000000  celldm(6)=   0.000000

     crystal axes: (cart. coord. in units of alat)
               a(1) = (   6.579727   0.000000   0.000000 )
               a(2) = (  -0.000775   5.961596   0.000000 )
               a(3) = (   0.000000   0.000000  25.155947 )

     reciprocal axes: (cart. coord. in units 2 pi/alat)
               b(1) = (  0.151982  0.000020  0.000000 )
               b(2) = (  0.000000  0.167740  0.000000 )
               b(3) = (  0.000000  0.000000  0.039752 )

     PseudoPot. # 1 for Ti read from file:
     /storage/coda1/p-amedford6/0/shared/rich_project_chbe-medford/medford-share/data/pseudos_module/espresso/nninc/pbe/van/Ti.UPF
     MD5 check sum: 8e4df49b7f0d34bbd5052bf3f5ea0213
     Pseudo is Ultrasoft, Zval = 12.0
     Generated by new atomic code, or converted to UPF format
     Using radial grid of  851 points,  6 beta functions with:
                l(1) =   0
                l(2) =   0
                l(3) =   1
                l(4) =   1
                l(5) =   2
                l(6) =   2
     Q(r) pseudized with  8 coefficients,  rinner =    1.000   1.000   1.000
                                                       1.000   1.000

     PseudoPot. # 2 for O  read from file:
     /storage/coda1/p-amedford6/0/shared/rich_project_chbe-medford/medford-share/data/pseudos_module/espresso/nninc/pbe/van/O.UPF
     MD5 check sum: 78c19812648e8988a0fe644b0f25305e
     Pseudo is Ultrasoft, Zval =  6.0
     Generated by new atomic code, or converted to UPF format
     Using radial grid of  737 points,  4 beta functions with:
                l(1) =   0
                l(2) =   0
                l(3) =   1
                l(4) =   1
     Q(r) pseudized with  8 coefficients,  rinner =    0.800   0.800   0.800

     PseudoPot. # 3 for N  read from file:
     /storage/coda1/p-amedford6/0/shared/rich_project_chbe-medford/medford-share/data/pseudos_module/espresso/nninc/pbe/van/N.UPF
     MD5 check sum: 90d10febe142ad51ac9d5be1deb811c4
     Pseudo is Ultrasoft, Zval =  5.0
     Generated by new atomic code, or converted to UPF format
     Using radial grid of  729 points,  4 beta functions with:
                l(1) =   0
                l(2) =   0
                l(3) =   1
                l(4) =   1
     Q(r) pseudized with  8 coefficients,  rinner =    0.800   0.800   0.800

     PseudoPot. # 4 for C  read from file:
     /storage/coda1/p-amedford6/0/shared/rich_project_chbe-medford/medford-share/data/pseudos_module/espresso/nninc/pbe/van/C.UPF
     MD5 check sum: 1a69bf6b8db32088f5b2163dbdb77a27
     Pseudo is Ultrasoft, Zval =  4.0
     Generated by new atomic code, or converted to UPF format
     Using radial grid of  721 points,  4 beta functions with:
                l(1) =   0
                l(2) =   0
                l(3) =   1
                l(4) =   1
     Q(r) pseudized with  8 coefficients,  rinner =    0.800   0.800   0.800

     PseudoPot. # 5 for H  read from file:
     /storage/coda1/p-amedford6/0/shared/rich_project_chbe-medford/medford-share/data/pseudos_module/espresso/nninc/pbe/van/H.UPF
     MD5 check sum: b5ee9d7bfd3a09ee7748110bda690ff7
     Pseudo is Ultrasoft, Zval =  1.0
     Generated by new atomic code, or converted to UPF format
     Using radial grid of  615 points,  1 beta functions with:
                l(1) =   0
     Q(r) pseudized with  8 coefficients,  rinner =    0.800

     atomic species   valence    mass     pseudopotential
        Ti1           12.00    47.86700     Ti( 1.00)
        O1             6.00    15.99900     O ( 1.00)
        N1             5.00    14.00700     N ( 1.00)
        C1             4.00    12.01100     C ( 1.00)
        H1             1.00     1.00800     H ( 1.00)

     No symmetry found

   Cartesian axes

     site n.     atom                  positions (alat units)
         1           Ti1 tau(   1) = (   0.0004258   2.9801865   6.0000000  )
         2           Ti1 tau(   2) = (   3.2906075   1.4906267   6.0002472  )
         3           O1  tau(   3) = (   0.0006271   0.0005054   7.9858123  )
         4           O1  tau(   4) = (   3.2906025   0.0005020   7.3038282  )
         5           O1  tau(   5) = (   4.5942328   1.4918067   9.2879030  )
         6           O1  tau(   6) = (   1.9868534   1.4903216   9.2879459  )
         7           Ti1 tau(   7) = (   3.2907910   2.8959150   9.1758416  )
         8           Ti1 tau(   8) = (   0.0015273   1.4827037   9.2680791  )
         9           O1  tau(   9) = (   3.2912281   5.9459940  11.3193265  )
        10           O1  tau(  10) = (   0.0116148   5.9584955  10.6183126  )
        11           O1  tau(  11) = (   1.3103257   1.4650607  12.6442557  )
        12           O1  tau(  12) = (   5.3047449   1.4806448  12.6312737  )
        13           Ti1 tau(  13) = (   6.5337005   3.0128982  12.6900614  )
        14           Ti1 tau(  14) = (   3.2207025   1.4698770  12.4715817  )
        15           O1  tau(  15) = (   6.5518216   5.9146589  14.6704082  )
        16           O1  tau(  16) = (   3.3240203   5.9583723  13.8895330  )
        17           O1  tau(  17) = (   4.5456974   1.5225049  16.1264218  )
        18           O1  tau(  18) = (   2.0489736   1.4727210  15.9535721  )
        19           Ti1 tau(  19) = (   3.2591190   2.9927146  15.6788090  )
        20           Ti1 tau(  20) = (   0.0289511   1.3544711  15.7732889  )
        21           O1  tau(  21) = (   3.2904802   0.0005063   4.7018136  )
        22           O1  tau(  22) = (   0.0559926   0.0451390  17.2112278  )
        23           O1  tau(  23) = (   1.3043587   1.4918075   6.0039043  )
        24           O1  tau(  24) = (   5.2767064   1.4903225   6.0039473  )
        25           Ti1 tau(  25) = (   0.0000382   5.9609847   6.0000000  )
        26           Ti1 tau(  26) = (   3.2902200   4.4714249   6.0002472  )
        27           O1  tau(  27) = (   0.0002396   2.9813036   7.9858123  )
        28           O1  tau(  28) = (   3.2902150   2.9813002   7.3038282  )
        29           O1  tau(  29) = (   4.5938453   4.4726049   9.2879030  )
        30           O1  tau(  30) = (   1.9864658   4.4711199   9.2879459  )
        31           Ti1 tau(  31) = (   3.2891106   5.8743827   9.1763621  )
        32           Ti1 tau(  32) = (   0.0006254   4.4649316   9.2693709  )
        33           O1  tau(  33) = (   3.2889932   2.9698301  11.3211337  )
        34           O1  tau(  34) = (   0.0092240   2.9805883  10.6323155  )
        35           O1  tau(  35) = (   1.3069247   4.4567274  12.6410950  )
        36           O1  tau(  36) = (   5.3013738   4.4587240  12.6283471  )
        37           Ti1 tau(  37) = (   6.5339814   0.0202798  12.5235249  )
        38           Ti1 tau(  38) = (   3.2191325   4.4512509  12.4750946  )
        39           O1  tau(  39) = (   6.5688456   2.9522374  14.7547250  )
        40           O1  tau(  40) = (   3.3031296   2.9710333  13.8824388  )
        41           O1  tau(  41) = (   4.5425837   4.4734130  15.9989242  )
        42           O1  tau(  42) = (   2.0771424   4.4889556  16.0364895  )
        43           Ti1 tau(  43) = (   3.3121389   0.0026565  15.6888161  )
        44           Ti1 tau(  44) = (   6.5128106   4.4989306  16.3061806  )
        45           O1  tau(  45) = (   3.2900926   2.9813045   4.7018136  )
        46           O1  tau(  46) = (   1.3039711   4.4726057   6.0039043  )
        47           O1  tau(  47) = (   5.2763189   4.4711207   6.0039473  )
        48           N1  tau(  48) = (   0.4628824   2.9849886  17.7976856  )
        49           C1  tau(  49) = (   1.4182946   2.9518240  18.6700831  )
        50           H1  tau(  50) = (   2.3503500   2.6458988  18.1556329  )
        51           N1  tau(  51) = (   5.7893717   3.5482605  18.2279111  )
        52           H1  tau(  52) = (   5.8942619   4.0012392  19.1365464  )
        53           H1  tau(  53) = (   5.0734348   2.8266848  18.2415795  )

     number of k points=    10  Fermi-Dirac smearing, width (Ry)=  0.0073
                       cart. coord. in units 2pi/alat
        k(    1) = (   0.0000000   0.0000000   0.0000000), wk =   0.1250000
        k(    2) = (   0.0000000   0.0419351   0.0000000), wk =   0.2500000
        k(    3) = (   0.0000000  -0.0838702   0.0000000), wk =   0.1250000
        k(    4) = (   0.0379955   0.0000049   0.0000000), wk =   0.2500000
        k(    5) = (   0.0379955   0.0419400   0.0000000), wk =   0.2500000
        k(    6) = (   0.0379955  -0.0838652   0.0000000), wk =   0.2500000
        k(    7) = (   0.0379955  -0.0419301   0.0000000), wk =   0.2500000
        k(    8) = (  -0.0759910  -0.0000099   0.0000000), wk =   0.1250000
        k(    9) = (  -0.0759910   0.0419252   0.0000000), wk =   0.2500000
        k(   10) = (  -0.0759910  -0.0838800   0.0000000), wk =   0.1250000

     Initial potential from superposition of free atoms

     starting charge  378.99916, renormalised to  395.00000

     negative rho (up, down):  1.775E-02 0.000E+00

     %%%%%%%%%%%%%%%%%%%%%%%%%%%%%%%%%%%%%%%%%%%%%%%%%%%%%%%%%%%%%%%%%%%%%%%%
     %                                                                      %
     % You are using vdW-DF, which was implemented by the Thonhauser group. %
     % Please cite the following two papers that made this development      %
     % possible and the two reviews that describe the various versions:     %
     %                                                                      %
     %   T. Thonhauser et al., PRL 115, 136402 (2015).                      %
     %   T. Thonhauser et al., PRB 76, 125112 (2007).                       %
     %   K. Berland et al., Rep. Prog. Phys. 78, 066501 (2015).             %
     %   D.C. Langreth et al., J. Phys.: Condens. Matter 21, 084203 (2009). %
     %                                                                      %
     %                                                                      %
     % If you are calculating the stress with vdW-DF, please also cite:     %
     %                                                                      %
     %   R. Sabatini et al., J. Phys.: Condens. Matter 24, 424209 (2012).   %
     %                                                                      %
     %%%%%%%%%%%%%%%%%%%%%%%%%%%%%%%%%%%%%%%%%%%%%%%%%%%%%%%%%%%%%%%%%%%%%%%%

     Adding external electric field

     Computed dipole along edir(3) :
        Dipole               -8.0620 Ry au,        -20.4914 Debye
        Dipole field         -0.0152 Ry au,

        Potential amp.        1.4103 Ry
        Total length         46.3494 bohr

     Starting wfcs are  299 atomic wfcs
  @ DRIVER MODE: Message from server: STATUS
  @ DRIVER MODE: Message from server: POSDATA
  @ DRIVER MODE: Reading and sharing cell
  @ DRIVER MODE: Reading and sharing positions
  @ DRIVER MODE: Received positions

     Self-consistent Calculation

     iteration #  1     ecut=    29.40 Ry     beta= 0.05
     Davidson diagonalization with overlap
     ethr =  1.00E-02,  avg # of iterations =  2.6

[...]

     total energy              =   -2619.79449508 Ry
     estimated scf accuracy    <    3528.46749417 Ry

     iteration #  2     ecut=    29.40 Ry     beta= 0.05
     Davidson diagonalization with overlap
     c_bands:  5 eigenvalues not converged
     c_bands:  5 eigenvalues not converged
     c_bands:  4 eigenvalues not converged
     c_bands:  5 eigenvalues not converged
     c_bands:  4 eigenvalues not converged
     ethr =  1.00E-02,  avg # of iterations = 21.0

[...]

     iteration # 53     ecut=    29.40 Ry     beta= 0.05
     Davidson diagonalization with overlap
     ethr =  5.29E-11,  avg # of iterations =  4.3

[...]

     total energy              =   -2939.00602692 Ry
     estimated scf accuracy    <       0.00000010 Ry

     iteration # 54     ecut=    29.40 Ry     beta= 0.05
     Davidson diagonalization with overlap
     c_bands:  1 eigenvalues not converged
     ethr =  2.51E-11,  avg # of iterations = 12.3

     negative rho (up, down):  1.647E-02 0.000E+00

     Adding external electric field

     Computed dipole along edir(3) :
        Dipole                0.3069 Ry au,          0.7801 Debye
        Dipole field          0.0006 Ry au,

        Potential amp.       -0.0537 Ry
        Total length         46.3494 bohr

     End of self-consistent calculation

          k = 0.0000 0.0000 0.0000 ( 18029 PWs)   bands (ev):

   -56.1067 -56.1043 -56.0726 -56.0679 -55.9945 -55.9602 -55.9542 -55.9192
   -55.9037 -55.8695 -55.8678 -55.8335 -55.6470 -55.5853 -55.0762 -55.0422
   -32.6634 -32.5879 -32.4861 -32.4260 -32.4117 -32.4076 -32.3991 -32.3589
   -32.3466 -32.3319 -32.3061 -32.2847 -32.2784 -32.2591 -32.2518 -32.2451
   -32.2098 -32.1964 -32.1937 -32.1892 -32.1848 -32.1641 -32.1577 -32.1416
   -32.1165 -32.1021 -32.1012 -32.1003 -32.0950 -32.0916 -32.0700 -32.0433
   -32.0431 -32.0287 -32.0209 -32.0017 -31.9798 -31.9524 -31.8747 -31.8460
   -31.8010 -31.7371 -31.4829 -31.3956 -31.3731 -31.2998 -31.2133 -31.1021
   -17.9771 -16.8725 -16.5827 -16.3676 -16.2618 -16.2464 -16.1401 -15.9547
   -15.8214 -15.7932 -15.6865 -15.6800 -15.6390 -15.6265 -15.5973 -15.5740
   -15.5655 -15.5389 -15.5365 -15.5203 -15.4757 -15.4524 -15.4332 -15.3370
   -15.2974 -15.2369 -15.2149 -15.1534 -15.0313 -14.7964 -13.5784 -13.4622
   -13.3125  -8.0493  -6.3617  -4.3617  -4.2465  -4.0700  -4.0093  -3.9677
    -3.9609  -3.7189  -3.6862  -3.3272  -3.2948  -3.2751  -3.2645  -3.2533
    -3.1385  -3.0184  -2.9628  -2.9208  -2.9105  -2.8998  -2.8926  -2.8798
    -2.8537  -2.8316  -2.7280  -2.6837  -2.6526  -2.5426  -2.5244  -2.4330
    -2.4166  -2.4055  -2.3710  -2.3506  -2.3416  -2.3156  -2.3044  -2.2777
    -2.1928  -2.1440  -2.0288  -1.9637  -1.8856  -1.8504  -1.7028  -1.6593
    -1.5714  -1.5652  -1.5463  -1.5241  -1.4911  -1.4050  -1.3309  -1.2414
    -1.1994  -1.1616  -1.1258  -1.0826  -1.0011  -0.9821  -0.9648  -0.8685
    -0.8644  -0.8553  -0.8120  -0.6107  -0.5860  -0.5520  -0.5393  -0.4620
    -0.4035  -0.3871  -0.3660  -0.3180  -0.2579  -0.1946  -0.1488  -0.1338
    -0.1224  -0.1192  -0.0846  -0.0587   0.0841   0.0947   0.1888   0.2008
     0.2240   0.3508   0.5250   0.5629   0.5839   0.7043   0.8769   0.9462
     1.0480   1.1391   1.5164   1.5616   2.4086   3.0312   3.1175   3.1513
     3.1708   3.2763   3.3091   3.4787   3.4941   3.5293   3.5486

[...]

          k = 0.0380-0.0419 0.0000 ( 17876 PWs)   bands (ev):

[...]

          k =-0.0760-0.0000 0.0000 ( 17886 PWs)   bands (ev):

[...]

          k =-0.0760-0.0839 0.0000 ( 17948 PWs)   bands (ev):

   -56.0907 -56.0885 -56.0880 -56.0840 -55.9853 -55.9634 -55.9506 -55.9287
   -55.8885 -55.8842 -55.8541 -55.8474 -55.6438 -55.5885 -55.0592 -55.0590
   -32.4668 -32.4623 -32.4038 -32.4025 -32.3855 -32.3839 -32.3655 -32.3532
   -32.3341 -32.3147 -32.2914 -32.2749 -32.2490 -32.2393 -32.2386 -32.2199
   -32.2198 -32.2105 -32.2081 -32.2021 -32.2009 -32.1927 -32.1869 -32.1731
   -32.1682 -32.1501 -32.1338 -32.1310 -32.0879 -32.0859 -32.0842 -32.0801
   -32.0717 -32.0690 -32.0656 -32.0638 -32.0601 -31.9705 -31.8863 -31.8392
   -31.8043 -31.7934 -31.3859 -31.3858 -31.2958 -31.2955 -31.2566 -31.2566
   -17.9671 -16.3083 -16.2924 -16.0758 -16.0313 -16.0271 -16.0063 -15.9179
   -15.8277 -15.8086 -15.7944 -15.7769 -15.7619 -15.6817 -15.6561 -15.6338
   -15.6299 -15.6173 -15.5622 -15.5566 -15.5535 -15.5484 -15.5283 -15.4951
   -15.4127 -15.4077 -15.3970 -15.1588 -15.0931 -15.0215 -13.5642 -13.5638
   -13.3254  -8.0071  -6.2999  -4.3782  -3.6012  -3.5824  -3.3563  -3.3105
    -3.2831  -3.2742  -3.1591  -3.0567  -3.0267  -3.0142  -2.9755  -2.9574
    -2.9449  -2.9325  -2.9196  -2.9004  -2.8748  -2.8411  -2.8357  -2.7897
    -2.7728  -2.7518  -2.7345  -2.7128  -2.7118  -2.6712  -2.6653  -2.6267
    -2.5886  -2.5433  -2.4336  -2.3799  -2.3405  -2.2905  -2.2352  -2.2241
    -2.2152  -2.1617  -2.1565  -2.1227  -2.0374  -1.9619  -1.8264  -1.8045
    -1.7715  -1.7306  -1.6976  -1.6004  -1.5565  -1.5071  -1.4553  -1.3993
    -1.3875  -1.3448  -1.3078  -1.2416  -1.2247  -1.1850  -1.1639  -1.1015
    -1.0600  -1.0558  -0.9922  -0.9249  -0.8670  -0.8639  -0.8433  -0.8278
    -0.7706  -0.7227  -0.6561  -0.6069  -0.5652  -0.4682  -0.4113  -0.2948
    -0.1867  -0.0677   0.0034   0.0073   0.0629   0.1403   0.1857   0.2204
     0.2309   0.2489   0.3408   0.4125   0.4317   0.4454   0.5123   0.6982
     1.3109   1.3121   1.3809   1.3818   2.4054   3.3195   3.3577   3.3719
     3.4030   3.5482   3.5508   3.5630   3.5666   3.6851   3.7185

     the Fermi energy is     3.0284 ev

!    total energy              =   -2939.00610146 Ry
     estimated scf accuracy    <       0.00000005 Ry
     smearing contrib. (-TS)   =      -0.02201149 Ry
     internal energy E=F+TS    =   -2938.98408997 Ry

     The total energy is F=E-TS. E is the sum of the following terms:
     one-electron contribution =  -24452.73989543 Ry
     hartree contribution      =   12311.44229515 Ry
     xc contribution           =    -485.12947345 Ry
     ewald contribution        =    9687.44280599 Ry
     electric field correction =       0.00017777 Ry

     convergence has been achieved in  54 iterations

     Forces acting on atoms (cartesian axes, Ry/au):

     atom    1 type  1   force =     0.00018877   -0.00029443    0.09693359
     atom    2 type  1   force =     0.00006964   -0.00079895   -0.17495910
     atom    3 type  2   force =     0.00014530   -0.00008765   -0.02552914
     atom    4 type  2   force =    -0.00003233   -0.00142547    0.05152736
     atom    5 type  2   force =    -0.01203569   -0.00173355    0.00280409
     atom    6 type  2   force =     0.01345950   -0.00134091    0.00224217
     atom    7 type  1   force =     0.00039783    0.00017114   -0.01208587
     atom    8 type  1   force =     0.00019179    0.02417977    0.02897456
     atom    9 type  2   force =    -0.00003950    0.00052122   -0.00004575
     atom   10 type  2   force =    -0.00266621    0.00014584   -0.01163101
     atom   11 type  2   force =    -0.00003221    0.00027278    0.00004619
     atom   12 type  2   force =    -0.00024123   -0.00001629    0.00014253
     atom   13 type  1   force =    -0.00013352    0.00114546   -0.00015483
     atom   14 type  1   force =    -0.00000328    0.00050178    0.00003618
     atom   15 type  2   force =     0.00010295   -0.00009739   -0.00005652
     atom   16 type  2   force =    -0.00021622    0.00023250   -0.00029575
     atom   17 type  2   force =     0.00033654    0.00018090   -0.00037318
     atom   18 type  2   force =    -0.00023222    0.00010181   -0.00012834
     atom   19 type  1   force =    -0.00017036   -0.00020467   -0.00056895
     atom   20 type  1   force =     0.00019602   -0.00003698   -0.00017179
     atom   21 type  2   force =     0.00006869   -0.00007182    0.10294015
     atom   22 type  2   force =     0.00002420   -0.00017426   -0.00042198
     atom   23 type  2   force =    -0.07170607   -0.00017088   -0.02790884
     atom   24 type  2   force =     0.07160731    0.00028778   -0.02794777
     atom   25 type  1   force =     0.00003811   -0.00025389    0.09680782
     atom   26 type  1   force =    -0.00000170   -0.00018272   -0.17513262
     atom   27 type  2   force =     0.00015458   -0.00026491   -0.02419634
     atom   28 type  2   force =     0.00001315   -0.00117842    0.05207738
     atom   29 type  2   force =    -0.01219261    0.00077973    0.00248280
     atom   30 type  2   force =     0.01349865    0.00126554    0.00189163
     atom   31 type  1   force =     0.00045050    0.00288648   -0.01397209
     atom   32 type  1   force =     0.00039141   -0.02518735    0.03046639
     atom   33 type  2   force =     0.00004385   -0.00008540   -0.00015079
     atom   34 type  2   force =    -0.00184408   -0.00049881   -0.02070983
     atom   35 type  2   force =    -0.00000733    0.00022083   -0.00005177
     atom   36 type  2   force =     0.00017604    0.00033312    0.00016081
     atom   37 type  1   force =    -0.00020802   -0.00085897   -0.00004353
     atom   38 type  1   force =     0.00008059    0.00012632   -0.00022392
     atom   39 type  2   force =     0.00008033    0.00032682   -0.00021721
     atom   40 type  2   force =    -0.00006991    0.00008644    0.00043580
     atom   41 type  2   force =     0.00047884    0.00002913   -0.00012505
     atom   42 type  2   force =    -0.00026325   -0.00005985   -0.00023843
     atom   43 type  1   force =    -0.00036717    0.00033016    0.00010460
     atom   44 type  1   force =     0.00011848    0.00011966    0.00014254
     atom   45 type  2   force =     0.00005627   -0.00006659    0.10296172
     atom   46 type  2   force =    -0.07173756   -0.00011905   -0.02790618
     atom   47 type  2   force =     0.07162126    0.00025527   -0.02793381
     atom   48 type  3   force =     0.00010288    0.00037132   -0.00015602
     atom   49 type  4   force =    -0.00029072    0.00010148   -0.00009464
     atom   50 type  5   force =     0.00031908    0.00050903   -0.00019771
     atom   51 type  3   force =     0.00010075   -0.00007266    0.00025518
     atom   52 type  5   force =     0.00002825   -0.00015230   -0.00006527
     atom   53 type  5   force =    -0.00005039   -0.00004813    0.00026057

     Total force =     0.368952     Total SCF correction =     0.000880
  @ DRIVER MODE: Message from server: STATUS
  @ DRIVER MODE: Message from server: GETFORCE
  @ DRIVER MODE: Returning v,forces,stress,ensemble

     Writing output data file ./calc.save/
  @ DRIVER MODE: Message from server: EXIT
  @ DRIVE MODE: Exiting

     General routines

     Parallel routines

   This run was terminated on:  22: 6:53   8Sep2021

   JOB DONE.