     Program PWSCF v.6.7GPU starts on 22Sep2021 at 22: 3:50

     R & G space division:  proc/nbgrp/npool/nimage =      10
     Reading input from /storage/home/hcoda1/3/ntian30/research/carbon/CxH_vib/H2O_calc/ads_slab/CH2NHO_a/out_0019/pw.inp
Warning: card &CELL ignored
Warning: card   CELL_DYNAMICS='IPI', ignored
Warning: card / ignored

     Current dimensions of program PWSCF are:
     Max number of different atomic species (ntypx) = 10
     Max number of k-points (npk) =  40000
     Max angular momentum in pseudopotentials (lmaxx) =  3
     Presently no symmetry can be used with electric field

     Message from routine cell_base_init:
     DEPRECATED: use true lattice parameter, not A to a.u. conversion factor

     IMPORTANT: XC functional enforced from input :
     Exchange-correlation= BEEF-VDW
                           (   1   4  43  14   2   0   0)
     Any further DFT definition will be discarded
     Please, verify this is what you really want

  @ DRIVER MODE: Connecting to
 qe_1139763_2937321.sched-torque.pace.gatech.edubt08o860_scratch
  using UNIX socket
  @ DRIVER MODE: Message from server: STATUS
  @ DRIVER MODE: Message from server: INIT
  @ DRIVER MODE: Receiving replica           0          -1
  @ DRIVER MODE: Receiving encoded integer          25
  @ DRIVER MODE:  SCF:  T  FORCE:  T  STRESS:  F  VC:  F  ENSEMBLE:  F
  @ DRIVER MODE:  SCF:  T  FORCE:  T  STRESS:  F  VC:  F  ENSEMBLE:  F

     Using Slab Decomposition

     bravais-lattice index     =            0
     lattice parameter (alat)  =       1.8897  a.u.
     unit-cell volume          =    6658.9804 (a.u.)^3
     number of atoms/cell      =           53
     number of atomic types    =            5
     number of electrons       =       396.00
     number of Kohn-Sham states=          208
     kinetic-energy cutoff     =      29.3995  Ry
     charge density cutoff     =     293.9946  Ry
     scf convergence threshold =      7.3E-08
     mixing beta               =       0.0500
     number of iterations used =            8  plain     mixing
     Exchange-correlation= BEEF-VDW
                           (   1   4  43  14   2   0   0)

     celldm(1)=   1.889726  celldm(2)=   0.000000  celldm(3)=   0.000000
     celldm(4)=   0.000000  celldm(5)=   0.000000  celldm(6)=   0.000000

     crystal axes: (cart. coord. in units of alat)
               a(1) = (   6.579727   0.000000   0.000000 )
               a(2) = (  -0.000775   5.961596   0.000000 )
               a(3) = (   0.000000   0.000000  25.155947 )

     reciprocal axes: (cart. coord. in units 2 pi/alat)
               b(1) = (  0.151982  0.000020  0.000000 )
               b(2) = (  0.000000  0.167740  0.000000 )
               b(3) = (  0.000000  0.000000  0.039752 )

     PseudoPot. # 1 for Ti read from file:
     /storage/coda1/p-amedford6/0/shared/rich_project_chbe-medford/medford-share/data/pseudos_module/espresso/nninc/pbe/van/Ti.UPF
     MD5 check sum: 8e4df49b7f0d34bbd5052bf3f5ea0213
     Pseudo is Ultrasoft, Zval = 12.0
     Generated by new atomic code, or converted to UPF format
     Using radial grid of  851 points,  6 beta functions with:
                l(1) =   0
                l(2) =   0
                l(3) =   1
                l(4) =   1
                l(5) =   2
                l(6) =   2
     Q(r) pseudized with  8 coefficients,  rinner =    1.000   1.000   1.000
                                                       1.000   1.000

     PseudoPot. # 2 for O  read from file:
     /storage/coda1/p-amedford6/0/shared/rich_project_chbe-medford/medford-share/data/pseudos_module/espresso/nninc/pbe/van/O.UPF
     MD5 check sum: 78c19812648e8988a0fe644b0f25305e
     Pseudo is Ultrasoft, Zval =  6.0
     Generated by new atomic code, or converted to UPF format
     Using radial grid of  737 points,  4 beta functions with:
                l(1) =   0
                l(2) =   0
                l(3) =   1
                l(4) =   1
     Q(r) pseudized with  8 coefficients,  rinner =    0.800   0.800   0.800

     PseudoPot. # 3 for N  read from file:
     /storage/coda1/p-amedford6/0/shared/rich_project_chbe-medford/medford-share/data/pseudos_module/espresso/nninc/pbe/van/N.UPF
     MD5 check sum: 90d10febe142ad51ac9d5be1deb811c4
     Pseudo is Ultrasoft, Zval =  5.0
     Generated by new atomic code, or converted to UPF format
     Using radial grid of  729 points,  4 beta functions with:
                l(1) =   0
                l(2) =   0
                l(3) =   1
                l(4) =   1
     Q(r) pseudized with  8 coefficients,  rinner =    0.800   0.800   0.800

     PseudoPot. # 4 for C  read from file:
     /storage/coda1/p-amedford6/0/shared/rich_project_chbe-medford/medford-share/data/pseudos_module/espresso/nninc/pbe/van/C.UPF
     MD5 check sum: 1a69bf6b8db32088f5b2163dbdb77a27
     Pseudo is Ultrasoft, Zval =  4.0
     Generated by new atomic code, or converted to UPF format
     Using radial grid of  721 points,  4 beta functions with:
                l(1) =   0
                l(2) =   0
                l(3) =   1
                l(4) =   1
     Q(r) pseudized with  8 coefficients,  rinner =    0.800   0.800   0.800

     PseudoPot. # 5 for H  read from file:
     /storage/coda1/p-amedford6/0/shared/rich_project_chbe-medford/medford-share/data/pseudos_module/espresso/nninc/pbe/van/H.UPF
     MD5 check sum: b5ee9d7bfd3a09ee7748110bda690ff7
     Pseudo is Ultrasoft, Zval =  1.0
     Generated by new atomic code, or converted to UPF format
     Using radial grid of  615 points,  1 beta functions with:
                l(1) =   0
     Q(r) pseudized with  8 coefficients,  rinner =    0.800

     atomic species   valence    mass     pseudopotential
        Ti1           12.00    47.86700     Ti( 1.00)
        O1             6.00    15.99900     O ( 1.00)
        N1             5.00    14.00700     N ( 1.00)
        C1             4.00    12.01100     C ( 1.00)
        H1             1.00     1.00800     H ( 1.00)

     No symmetry found

   Cartesian axes

     site n.     atom                  positions (alat units)
         1           Ti1 tau(   1) = (   0.0004258   2.9801865   6.0000000  )
         2           Ti1 tau(   2) = (   3.2906075   1.4906267   6.0002472  )
         3           O1  tau(   3) = (   0.0006271   0.0005054   7.9858123  )
         4           O1  tau(   4) = (   3.2906025   0.0005020   7.3038282  )
         5           O1  tau(   5) = (   4.5942328   1.4918067   9.2879030  )
         6           O1  tau(   6) = (   1.9868534   1.4903216   9.2879459  )
         7           Ti1 tau(   7) = (   3.2907910   2.8959150   9.1758416  )
         8           Ti1 tau(   8) = (   0.0015273   1.4827037   9.2680791  )
         9           O1  tau(   9) = (   3.3049783   5.9490022  11.2668993  )
        10           O1  tau(  10) = (   0.0116148   5.9584955  10.6183126  )
        11           O1  tau(  11) = (   1.3054562   1.4902858  12.6165390  )
        12           O1  tau(  12) = (   5.3128925   1.4966897  12.6222362  )
        13           Ti1 tau(  13) = (   0.0227526   2.8513963  12.7011302  )
        14           Ti1 tau(  14) = (   3.3146314   1.3157910  12.6511296  )
        15           O1  tau(  15) = (   0.0292331   0.0037381  14.6451560  )
        16           O1  tau(  16) = (   3.3105559   0.0332628  13.8611824  )
        17           O1  tau(  17) = (   4.5798417   1.5533887  16.0574704  )
        18           O1  tau(  18) = (   2.0659959   1.5620864  16.0379710  )
        19           Ti1 tau(  19) = (   3.3199680   3.0150018  15.6455324  )
        20           Ti1 tau(  20) = (   6.5662113   1.5085715  15.8767718  )
        21           O1  tau(  21) = (   3.2904802   0.0005063   4.7018136  )
        22           O1  tau(  22) = (   0.0336757   0.0283057  17.1922241  )
        23           O1  tau(  23) = (   1.3043587   1.4918075   6.0039043  )
        24           O1  tau(  24) = (   5.2767064   1.4903225   6.0039473  )
        25           Ti1 tau(  25) = (   0.0000382   5.9609847   6.0000000  )
        26           Ti1 tau(  26) = (   3.2902200   4.4714249   6.0002472  )
        27           O1  tau(  27) = (   0.0002396   2.9813036   7.9858123  )
        28           O1  tau(  28) = (   3.2902150   2.9813002   7.3038282  )
        29           O1  tau(  29) = (   4.5938453   4.4726049   9.2879030  )
        30           O1  tau(  30) = (   1.9864658   4.4711199   9.2879459  )
        31           Ti1 tau(  31) = (   3.2891106   5.8743827   9.1763621  )
        32           Ti1 tau(  32) = (   0.0006254   4.4649316   9.2693709  )
        33           O1  tau(  33) = (   3.3044035   3.0314990  11.2389097  )
        34           O1  tau(  34) = (   0.0092240   2.9805883  10.6323155  )
        35           O1  tau(  35) = (   1.3090660   4.4724101  12.6204063  )
        36           O1  tau(  36) = (   5.3093727   4.4739031  12.6240458  )
        37           Ti1 tau(  37) = (   0.0315986   5.8296340  12.6341251  )
        38           Ti1 tau(  38) = (   3.3217628   4.4127071  12.4104736  )
        39           O1  tau(  39) = (   0.0286309   2.9529265  14.6620113  )
        40           O1  tau(  40) = (   3.3111648   2.9942334  13.8608864  )
        41           O1  tau(  41) = (   4.5850423   4.4544105  16.0703757  )
        42           O1  tau(  42) = (   2.0817017   4.4739285  16.0881885  )
        43           Ti1 tau(  43) = (   3.2564312   0.0343949  16.3346327  )
        44           Ti1 tau(  44) = (   6.5491996   4.6347227  16.0815441  )
        45           O1  tau(  45) = (   3.2900926   2.9813045   4.7018136  )
        46           O1  tau(  46) = (   1.3039711   4.4726057   6.0039043  )
        47           O1  tau(  47) = (   5.2763189   4.4711207   6.0039473  )
        48           N1  tau(  48) = (   0.0476609   2.9608057  17.4046342  )
        49           C1  tau(  49) = (   0.0744360   2.8714357  18.6596517  )
        50           H1  tau(  50) = (   0.0810575   3.7616739  19.3027278  )
        51           H1  tau(  51) = (   0.0772865   1.8968143  19.1621030  )
        52           O1  tau(  52) = (   3.2917830   0.0572188  18.1605702  )
        53           H1  tau(  53) = (   2.8914424   5.3141097  18.6896264  )

     number of k points=    10  Fermi-Dirac smearing, width (Ry)=  0.0073
                       cart. coord. in units 2pi/alat
        k(    1) = (   0.0000000   0.0000000   0.0000000), wk =   0.1250000
        k(    2) = (   0.0000000   0.0419351   0.0000000), wk =   0.2500000
        k(    3) = (   0.0000000  -0.0838702   0.0000000), wk =   0.1250000
        k(    4) = (   0.0379955   0.0000049   0.0000000), wk =   0.2500000
        k(    5) = (   0.0379955   0.0419400   0.0000000), wk =   0.2500000
        k(    6) = (   0.0379955  -0.0838652   0.0000000), wk =   0.2500000
        k(    7) = (   0.0379955  -0.0419301   0.0000000), wk =   0.2500000
        k(    8) = (  -0.0759910  -0.0000099   0.0000000), wk =   0.1250000
        k(    9) = (  -0.0759910   0.0419252   0.0000000), wk =   0.2500000
        k(   10) = (  -0.0759910  -0.0838800   0.0000000), wk =   0.1250000

     Initial potential from superposition of free atoms

     starting charge  379.99917, renormalised to  396.00000

     negative rho (up, down):  1.694E-02 0.000E+00

     %%%%%%%%%%%%%%%%%%%%%%%%%%%%%%%%%%%%%%%%%%%%%%%%%%%%%%%%%%%%%%%%%%%%%%%%
     %                                                                      %
     % You are using vdW-DF, which was implemented by the Thonhauser group. %
     % Please cite the following two papers that made this development      %
     % possible and the two reviews that describe the various versions:     %
     %                                                                      %
     %   T. Thonhauser et al., PRL 115, 136402 (2015).                      %
     %   T. Thonhauser et al., PRB 76, 125112 (2007).                       %
     %   K. Berland et al., Rep. Prog. Phys. 78, 066501 (2015).             %
     %   D.C. Langreth et al., J. Phys.: Condens. Matter 21, 084203 (2009). %
     %                                                                      %
     %                                                                      %
     % If you are calculating the stress with vdW-DF, please also cite:     %
     %                                                                      %
     %   R. Sabatini et al., J. Phys.: Condens. Matter 24, 424209 (2012).   %
     %                                                                      %
     %%%%%%%%%%%%%%%%%%%%%%%%%%%%%%%%%%%%%%%%%%%%%%%%%%%%%%%%%%%%%%%%%%%%%%%%

     Adding external electric field

     Computed dipole along edir(3) :
        Dipole               -7.7051 Ry au,        -19.5845 Debye
        Dipole field         -0.0145 Ry au,

        Potential amp.        1.3479 Ry
        Total length         46.3494 bohr

     Starting wfcs are  299 atomic wfcs
  @ DRIVER MODE: Message from server: STATUS
  @ DRIVER MODE: Message from server: POSDATA
  @ DRIVER MODE: Reading and sharing cell
  @ DRIVER MODE: Reading and sharing positions
  @ DRIVER MODE: Received positions

     Self-consistent Calculation

     iteration #  1     ecut=    29.40 Ry     beta= 0.05
     Davidson diagonalization with overlap
     c_bands:  1 eigenvalues not converged
     c_bands:  4 eigenvalues not converged
     c_bands:  2 eigenvalues not converged
     c_bands:  3 eigenvalues not converged
     c_bands:  2 eigenvalues not converged
     c_bands:  3 eigenvalues not converged
     c_bands:  2 eigenvalues not converged
     ethr =  1.00E-05,  avg # of iterations = 19.5

[...]

     total energy              =   -2658.46565828 Ry
     estimated scf accuracy    <    3232.58959426 Ry

[...]

     iteration #  3     ecut=    29.40 Ry     beta= 0.05
     Davidson diagonalization with overlap
     ethr =  1.00E-02,  avg # of iterations = 14.7

[...]

     iteration # 64     ecut=    29.40 Ry     beta= 0.05
     Davidson diagonalization with overlap
     c_bands:  1 eigenvalues not converged
     ethr =  1.55E-06,  avg # of iterations = 10.2

[...]

     total energy              =   -2951.50544791 Ry
     estimated scf accuracy    <       0.00000015 Ry

     iteration #101     ecut=    29.40 Ry     beta= 0.05
     Davidson diagonalization with overlap
     ethr =  2.67E-11,  avg # of iterations =  2.6

     negative rho (up, down):  1.700E-02 0.000E+00

     Adding external electric field

     Computed dipole along edir(3) :
        Dipole                0.3629 Ry au,          0.9224 Debye
        Dipole field          0.0007 Ry au,

        Potential amp.       -0.0635 Ry
        Total length         46.3494 bohr

     End of self-consistent calculation

          k = 0.0000 0.0000 0.0000 ( 18029 PWs)   bands (ev):

   -56.8874 -56.8538 -56.0106 -55.9748 -55.7624 -55.6985 -55.5441 -55.4459
   -55.4120 -55.3929 -55.3296 -55.3060 -55.2769 -55.2586 -55.0758 -55.0133
   -33.3075 -33.1607 -33.1326 -33.0649 -32.9746 -32.9344 -32.4937 -32.2400
   -32.2311 -32.2027 -32.1508 -32.1484 -32.1218 -31.9955 -31.9805 -31.9315
   -31.9029 -31.8927 -31.8704 -31.8621 -31.8252 -31.7927 -31.7923 -31.7682
   -31.7648 -31.7598 -31.7186 -31.6909 -31.6597 -31.6505 -31.5943 -31.5699
   -31.5467 -31.5291 -31.5251 -31.5201 -31.5029 -31.4822 -31.4747 -31.4686
   -31.4583 -31.4286 -31.3385 -31.3171 -31.2823 -31.2761 -31.2538 -31.2154
   -16.9993 -16.4622 -16.4518 -16.2091 -16.1015 -16.0866 -16.0593 -15.9851
   -15.8002 -15.7291 -15.7014 -15.6508 -15.5267 -15.4035 -15.3069 -15.1596
   -15.0758 -15.0305 -15.0292 -15.0121 -14.9763 -14.9620 -14.9402 -14.8772
   -14.8570 -14.7863 -14.6484 -14.6097 -14.6026 -14.3332 -14.3242 -13.9434
   -13.8363  -7.2037  -4.5716  -4.1482  -3.9730  -3.9322  -3.7670  -3.5949
    -3.5822  -3.4442  -3.4107  -3.2693  -3.2650  -3.2508  -3.1659  -3.1509
    -3.0308  -2.9638  -2.9493  -2.8482  -2.8073  -2.6555  -2.6174  -2.5273
    -2.4747  -2.4538  -2.3911  -2.3417  -2.3148  -2.2906  -2.2656  -2.2093
    -2.1892  -2.1551  -2.0897  -2.0530  -1.9670  -1.9289  -1.9181  -1.9120
    -1.7985  -1.7714  -1.7310  -1.5917  -1.5330  -1.5144  -1.4923  -1.4396
    -1.3803  -1.3569  -1.3060  -1.2058  -1.1287  -1.1136  -1.0466  -1.0294
    -1.0163  -0.8921  -0.8383  -0.7450  -0.7360  -0.7198  -0.6531  -0.5944
    -0.5566  -0.4726  -0.3973  -0.3869  -0.3745  -0.3380  -0.3150  -0.2569
    -0.1469  -0.1060  -0.0568   0.0163   0.0377   0.1265   0.2211   0.2559
     0.2693   0.3140   0.3431   0.3635   0.4213   0.4852   0.4987   0.5677
     0.5754   0.5797   0.6654   0.7561   0.7939   0.8449   0.8690   0.8800
     1.0021   1.0883   1.1123   1.1575   1.5265   1.7499   2.4035   2.5730
     2.8491   3.0036   3.3269   3.3898   3.4029   3.4060   3.6736   3.8027

[...]

          k = 0.0380-0.0419 0.0000 ( 17876 PWs)   bands (ev):

[...]

          k =-0.0760-0.0000 0.0000 ( 17886 PWs)   bands (ev):

[...]

          k =-0.0760-0.0839 0.0000 ( 17948 PWs)   bands (ev):

   -56.8712 -56.8698 -55.9989 -55.9862 -55.7576 -55.7033 -55.5432 -55.4295
   -55.4283 -55.3892 -55.3302 -55.3094 -55.2756 -55.2575 -55.0771 -55.0143
   -33.1471 -33.1457 -33.1254 -33.1240 -33.0189 -33.0177 -32.3193 -32.3084
   -32.1935 -32.1812 -32.1807 -32.1725 -32.0631 -32.0203 -31.9887 -31.9775
   -31.9306 -31.9261 -31.8385 -31.7905 -31.7818 -31.7808 -31.7467 -31.7199
   -31.6991 -31.6514 -31.6498 -31.6497 -31.6471 -31.6364 -31.6157 -31.6110
   -31.6099 -31.6086 -31.5864 -31.5456 -31.5377 -31.5179 -31.5063 -31.4846
   -31.4769 -31.4263 -31.4244 -31.3475 -31.3401 -31.2863 -31.2559 -31.2353
   -16.4459 -16.3622 -16.3599 -16.3096 -16.3081 -16.0593 -16.0543 -15.8035
   -15.7726 -15.5883 -15.5116 -15.4795 -15.4295 -15.3885 -15.3537 -15.2521
   -15.2391 -15.1418 -15.1138 -15.1042 -15.0570 -15.0133 -14.9703 -14.9407
   -14.9014 -14.8108 -14.7516 -14.7161 -14.6130 -14.5166 -14.4673 -13.9408
   -13.9402  -7.1988  -4.1470  -3.9643  -3.4308  -3.4261  -3.4160  -3.4078
    -3.3526  -3.1840  -3.1762  -2.9905  -2.9630  -2.9605  -2.8896  -2.8831
    -2.7762  -2.7110  -2.7052  -2.7041  -2.6696  -2.6424  -2.6362  -2.5793
    -2.4723  -2.4211  -2.3963  -2.3743  -2.3453  -2.3170  -2.2630  -2.1736
    -2.1658  -2.1564  -2.1262  -2.1061  -2.0807  -2.0755  -1.9374  -1.8360
    -1.7644  -1.7156  -1.7057  -1.6906  -1.6639  -1.6283  -1.5977  -1.5842
    -1.5380  -1.4794  -1.4540  -1.3982  -1.3487  -1.3013  -1.2192  -1.1583
    -1.0905  -1.0696  -0.9368  -0.9214  -0.9020  -0.8634  -0.8297  -0.8208
    -0.7456  -0.6719  -0.6130  -0.5976  -0.5369  -0.5138  -0.4790  -0.4412
    -0.4320  -0.3764  -0.3542  -0.3057  -0.2907  -0.1700  -0.0868   0.0349
     0.0668   0.0848   0.1420   0.1750   0.3124   0.3213   0.3716   0.4863
     0.5226   0.6646   0.6819   0.7843   0.8335   0.8958   0.9521   0.9558
     0.9563   0.9824   1.0166   1.0375   1.1138   1.6878   2.9937   2.9966
     3.0536   3.0594   3.3661   3.3702   3.4747   3.4803   3.7847   3.7913

     the Fermi energy is     2.1411 ev

!    total energy              =   -2951.50544929 Ry
     estimated scf accuracy    <       0.00000007 Ry
     smearing contrib. (-TS)   =      -0.00232482 Ry
     internal energy E=F+TS    =   -2951.50312447 Ry

     The total energy is F=E-TS. E is the sum of the following terms:
     one-electron contribution =  -24181.76327542 Ry
     hartree contribution      =   12180.37123130 Ry
     xc contribution           =    -487.03854708 Ry
     ewald contribution        =    9536.92721818 Ry
     electric field correction =       0.00024854 Ry

     convergence has been achieved in 101 iterations

     Forces acting on atoms (cartesian axes, Ry/au):

     atom    1 type  1   force =     0.00001127   -0.00051413    0.12457203
     atom    2 type  1   force =    -0.00009438    0.00035033   -0.15487101
     atom    3 type  2   force =     0.00004476   -0.00012395   -0.06536955
     atom    4 type  2   force =     0.00007258    0.00024316    0.01707091
     atom    5 type  2   force =    -0.00338644   -0.00145369   -0.01347962
     atom    6 type  2   force =     0.00542559   -0.00094525   -0.01319531
     atom    7 type  1   force =     0.00030397   -0.00648140    0.05888415
     atom    8 type  1   force =     0.00011366    0.00855338    0.09585418
     atom    9 type  2   force =     0.00026717   -0.00010167    0.00024524
     atom   10 type  2   force =    -0.00166733    0.00093251   -0.05963002
     atom   11 type  2   force =     0.00079828   -0.00033466   -0.00034552
     atom   12 type  2   force =    -0.00102541   -0.00073624   -0.00008598
     atom   13 type  1   force =    -0.00020170   -0.00075097    0.00006510
     atom   14 type  1   force =     0.00003062   -0.00065956   -0.00012803
     atom   15 type  2   force =     0.00008298   -0.00026458   -0.00010491
     atom   16 type  2   force =    -0.00008691    0.00000136   -0.00040174
     atom   17 type  2   force =     0.00025084   -0.00012018   -0.00016503
     atom   18 type  2   force =    -0.00042545   -0.00019688   -0.00015935
     atom   19 type  1   force =    -0.00020275   -0.00136934    0.00011774
     atom   20 type  1   force =    -0.00014653   -0.00007164   -0.00019909
     atom   21 type  2   force =     0.00002224    0.00021819    0.09783843
     atom   22 type  2   force =    -0.00030776   -0.00034613    0.00021957
     atom   23 type  2   force =    -0.08252663    0.00005412   -0.03293009
     atom   24 type  2   force =     0.08241064    0.00049503   -0.03298259
     atom   25 type  1   force =     0.00002692   -0.00057721    0.12480298
     atom   26 type  1   force =    -0.00019779   -0.00146490   -0.15525787
     atom   27 type  2   force =     0.00011593   -0.00079704   -0.06368490
     atom   28 type  2   force =     0.00005519    0.00198555    0.01252733
     atom   29 type  2   force =    -0.00156213    0.00507841   -0.01679779
     atom   30 type  2   force =     0.00370759    0.00540159   -0.01640844
     atom   31 type  1   force =     0.00000620    0.00178250    0.04177296
     atom   32 type  1   force =     0.00011629   -0.01183536    0.09591570
     atom   33 type  2   force =     0.00001341   -0.00023569   -0.00028873
     atom   34 type  2   force =    -0.00105212    0.00154157   -0.07414160
     atom   35 type  2   force =    -0.00040189    0.00017697    0.00008912
     atom   36 type  2   force =     0.00111035    0.00043578    0.00015917
     atom   37 type  1   force =    -0.00030003    0.00059569    0.00026925
     atom   38 type  1   force =     0.00020686   -0.00053463    0.00002472
     atom   39 type  2   force =     0.00014393    0.00024623    0.00010451
     atom   40 type  2   force =    -0.00004951   -0.00050014   -0.00061219
     atom   41 type  2   force =     0.00055272    0.00008938   -0.00021606
     atom   42 type  2   force =    -0.00075722   -0.00007039    0.00003469
     atom   43 type  1   force =     0.00000221    0.00104554   -0.00066228
     atom   44 type  1   force =     0.00004510    0.00003519   -0.00049565
     atom   45 type  2   force =     0.00003832    0.00001714    0.09768282
     atom   46 type  2   force =    -0.08258227    0.00001460   -0.03293698
     atom   47 type  2   force =     0.08245952    0.00044400   -0.03298495
     atom   48 type  3   force =     0.00032474   -0.00003819    0.00010214
     atom   49 type  4   force =    -0.00185151   -0.00005788    0.00014247
     atom   50 type  5   force =     0.00033706   -0.00001390   -0.00013533
     atom   51 type  5   force =     0.00062487   -0.00002904    0.00019308
     atom   52 type  2   force =     0.00016639    0.00056953    0.00008623
     atom   53 type  5   force =    -0.00106243    0.00031688   -0.00010392

     Total force =     0.415463     Total SCF correction =     0.000849
  @ DRIVER MODE: Message from server: STATUS
  @ DRIVER MODE: Message from server: GETFORCE
  @ DRIVER MODE: Returning v,forces,stress,ensemble

     Writing output data file ./calc.save/
  @ DRIVER MODE: Message from server: EXIT
  @ DRIVE MODE: Exiting

     General routines

     Parallel routines

   This run was terminated on:  22:27:43  22Sep2021

   JOB DONE.