     Program PWSCF v.6.7GPU starts on 10Sep2021 at  6:22:26

     R & G space division:  proc/nbgrp/npool/nimage =      10
     Reading input from /storage/home/hcoda1/3/ntian30/research/carbon/CxH_vib/CH3_calc/ads_slab/CH3N2H2O_g/out_0029/pw.inp
Warning: card &CELL ignored
Warning: card   CELL_DYNAMICS='IPI', ignored
Warning: card / ignored

     Current dimensions of program PWSCF are:
     Max number of different atomic species (ntypx) = 10
     Max number of k-points (npk) =  40000
     Max angular momentum in pseudopotentials (lmaxx) =  3
     Presently no symmetry can be used with electric field

     Message from routine cell_base_init:
     DEPRECATED: use true lattice parameter, not A to a.u. conversion factor

     IMPORTANT: XC functional enforced from input :
     Exchange-correlation= BEEF-VDW
                           (   1   4  43  14   2   0   0)
     Any further DFT definition will be discarded
     Please, verify this is what you really want

  @ DRIVER MODE: Connecting to
 qe_1139763_2779714.sched-torque.pace.gatech.edu7qysucjw_scratch
  using UNIX socket
  @ DRIVER MODE: Message from server: STATUS
  @ DRIVER MODE: Message from server: INIT
  @ DRIVER MODE: Receiving replica           0          -1
  @ DRIVER MODE: Receiving encoded integer          25
  @ DRIVER MODE:  SCF:  T  FORCE:  T  STRESS:  F  VC:  F  ENSEMBLE:  F
  @ DRIVER MODE:  SCF:  T  FORCE:  T  STRESS:  F  VC:  F  ENSEMBLE:  F

     Using Slab Decomposition

     bravais-lattice index     =            0
     lattice parameter (alat)  =       1.8897  a.u.
     unit-cell volume          =    6658.9804 (a.u.)^3
     number of atoms/cell      =           56
     number of atomic types    =            5
     number of electrons       =       403.00
     number of Kohn-Sham states=          211
     kinetic-energy cutoff     =      29.3995  Ry
     charge density cutoff     =     293.9946  Ry
     scf convergence threshold =      7.3E-08
     mixing beta               =       0.0500
     number of iterations used =            8  plain     mixing
     Exchange-correlation= BEEF-VDW
                           (   1   4  43  14   2   0   0)

     celldm(1)=   1.889726  celldm(2)=   0.000000  celldm(3)=   0.000000
     celldm(4)=   0.000000  celldm(5)=   0.000000  celldm(6)=   0.000000

     crystal axes: (cart. coord. in units of alat)
               a(1) = (   6.579727   0.000000   0.000000 )
               a(2) = (  -0.000775   5.961596   0.000000 )
               a(3) = (   0.000000   0.000000  25.155947 )

     reciprocal axes: (cart. coord. in units 2 pi/alat)
               b(1) = (  0.151982  0.000020  0.000000 )
               b(2) = (  0.000000  0.167740  0.000000 )
               b(3) = (  0.000000  0.000000  0.039752 )

     PseudoPot. # 1 for Ti read from file:
     /storage/coda1/p-amedford6/0/shared/rich_project_chbe-medford/medford-share/data/pseudos_module/espresso/nninc/pbe/van/Ti.UPF
     MD5 check sum: 8e4df49b7f0d34bbd5052bf3f5ea0213
     Pseudo is Ultrasoft, Zval = 12.0
     Generated by new atomic code, or converted to UPF format
     Using radial grid of  851 points,  6 beta functions with:
                l(1) =   0
                l(2) =   0
                l(3) =   1
                l(4) =   1
                l(5) =   2
                l(6) =   2
     Q(r) pseudized with  8 coefficients,  rinner =    1.000   1.000   1.000
                                                       1.000   1.000

     PseudoPot. # 2 for O  read from file:
     /storage/coda1/p-amedford6/0/shared/rich_project_chbe-medford/medford-share/data/pseudos_module/espresso/nninc/pbe/van/O.UPF
     MD5 check sum: 78c19812648e8988a0fe644b0f25305e
     Pseudo is Ultrasoft, Zval =  6.0
     Generated by new atomic code, or converted to UPF format
     Using radial grid of  737 points,  4 beta functions with:
                l(1) =   0
                l(2) =   0
                l(3) =   1
                l(4) =   1
     Q(r) pseudized with  8 coefficients,  rinner =    0.800   0.800   0.800

     PseudoPot. # 3 for N  read from file:
     /storage/coda1/p-amedford6/0/shared/rich_project_chbe-medford/medford-share/data/pseudos_module/espresso/nninc/pbe/van/N.UPF
     MD5 check sum: 90d10febe142ad51ac9d5be1deb811c4
     Pseudo is Ultrasoft, Zval =  5.0
     Generated by new atomic code, or converted to UPF format
     Using radial grid of  729 points,  4 beta functions with:
                l(1) =   0
                l(2) =   0
                l(3) =   1
                l(4) =   1
     Q(r) pseudized with  8 coefficients,  rinner =    0.800   0.800   0.800

     PseudoPot. # 4 for C  read from file:
     /storage/coda1/p-amedford6/0/shared/rich_project_chbe-medford/medford-share/data/pseudos_module/espresso/nninc/pbe/van/C.UPF
     MD5 check sum: 1a69bf6b8db32088f5b2163dbdb77a27
     Pseudo is Ultrasoft, Zval =  4.0
     Generated by new atomic code, or converted to UPF format
     Using radial grid of  721 points,  4 beta functions with:
                l(1) =   0
                l(2) =   0
                l(3) =   1
                l(4) =   1
     Q(r) pseudized with  8 coefficients,  rinner =    0.800   0.800   0.800

     PseudoPot. # 5 for H  read from file:
     /storage/coda1/p-amedford6/0/shared/rich_project_chbe-medford/medford-share/data/pseudos_module/espresso/nninc/pbe/van/H.UPF
     MD5 check sum: b5ee9d7bfd3a09ee7748110bda690ff7
     Pseudo is Ultrasoft, Zval =  1.0
     Generated by new atomic code, or converted to UPF format
     Using radial grid of  615 points,  1 beta functions with:
                l(1) =   0
     Q(r) pseudized with  8 coefficients,  rinner =    0.800

     atomic species   valence    mass     pseudopotential
        Ti1           12.00    47.86700     Ti( 1.00)
        O1             6.00    15.99900     O ( 1.00)
        N1             5.00    14.00700     N ( 1.00)
        C1             4.00    12.01100     C ( 1.00)
        H1             1.00     1.00800     H ( 1.00)

     No symmetry found

   Cartesian axes

     site n.     atom                  positions (alat units)
         1           Ti1 tau(   1) = (   0.0004258   2.9801865   6.0000000  )
         2           Ti1 tau(   2) = (   3.2906075   1.4906267   6.0002472  )
         3           O1  tau(   3) = (   0.0006271   0.0005054   7.9858123  )
         4           O1  tau(   4) = (   3.2906025   0.0005020   7.3038282  )
         5           O1  tau(   5) = (   4.5942328   1.4918067   9.2879030  )
         6           O1  tau(   6) = (   1.9868534   1.4903216   9.2879459  )
         7           Ti1 tau(   7) = (   3.2907910   2.8959150   9.1758416  )
         8           Ti1 tau(   8) = (   0.0015273   1.4827037   9.2680791  )
         9           O1  tau(   9) = (   3.3002115   5.9463602  11.3460011  )
        10           O1  tau(  10) = (   0.0116148   5.9584955  10.6183126  )
        11           O1  tau(  11) = (   1.3192008   1.4768417  12.6238339  )
        12           O1  tau(  12) = (   5.3062067   1.4698383  12.6193417  )
        13           Ti1 tau(  13) = (   6.5330844   2.9444840  12.6148558  )
        14           Ti1 tau(  14) = (   3.2222230   1.4676475  12.5013840  )
        15           O1  tau(  15) = (   0.0064324   5.9471174  14.6352917  )
        16           O1  tau(  16) = (   3.3028336   5.9445487  13.9678148  )
        17           O1  tau(  17) = (   4.5628415   1.5226527  16.0793330  )
        18           O1  tau(  18) = (   2.0474444   1.5206590  16.0184434  )
        19           Ti1 tau(  19) = (   3.3141275   2.9607752  15.6908890  )
        20           Ti1 tau(  20) = (   6.5660065   1.5097775  15.7997320  )
        21           O1  tau(  21) = (   3.2904802   0.0005063   4.7018136  )
        22           O1  tau(  22) = (   0.0269361   0.0086655  17.1987262  )
        23           O1  tau(  23) = (   1.3043587   1.4918075   6.0039043  )
        24           O1  tau(  24) = (   5.2767064   1.4903225   6.0039473  )
        25           Ti1 tau(  25) = (   0.0000382   5.9609847   6.0000000  )
        26           Ti1 tau(  26) = (   3.2902200   4.4714249   6.0002472  )
        27           O1  tau(  27) = (   0.0002396   2.9813036   7.9858123  )
        28           O1  tau(  28) = (   3.2902150   2.9813002   7.3038282  )
        29           O1  tau(  29) = (   4.5938453   4.4726049   9.2879030  )
        30           O1  tau(  30) = (   1.9864658   4.4711199   9.2879459  )
        31           Ti1 tau(  31) = (   3.2891106   5.8743827   9.1763621  )
        32           Ti1 tau(  32) = (   0.0006254   4.4649316   9.2693709  )
        33           O1  tau(  33) = (   3.2944391   2.9688829  11.3444728  )
        34           O1  tau(  34) = (   0.0092240   2.9805883  10.6323155  )
        35           O1  tau(  35) = (   1.3142520   4.4635248  12.6275686  )
        36           O1  tau(  36) = (   5.3078217   4.4601700  12.6226734  )
        37           Ti1 tau(  37) = (   6.5374036   5.9186568  12.5467527  )
        38           Ti1 tau(  38) = (   3.2213306   4.4595164  12.5065882  )
        39           O1  tau(  39) = (   6.5756885   2.9534048  14.6511233  )
        40           O1  tau(  40) = (   3.3206316   2.9687378  13.8980937  )
        41           O1  tau(  41) = (   4.5543359   4.4428353  16.0905846  )
        42           O1  tau(  42) = (   2.0427057   4.4323087  16.0570365  )
        43           Ti1 tau(  43) = (   3.2570595   5.9269474  15.8069103  )
        44           Ti1 tau(  44) = (   6.5609319   4.6488967  16.0725391  )
        45           O1  tau(  45) = (   3.2900926   2.9813045   4.7018136  )
        46           O1  tau(  46) = (   1.3039711   4.4726057   6.0039043  )
        47           O1  tau(  47) = (   5.2763189   4.4711207   6.0039473  )
        48           N1  tau(  48) = (   0.2492319   2.6641403  18.6309932  )
        49           N1  tau(  49) = (   0.0782707   2.8835230  17.4382120  )
        50           C1  tau(  50) = (   0.2622466   3.8234900  19.5663878  )
        51           H1  tau(  51) = (   6.1755609   4.6233469  19.2444151  )
        52           H1  tau(  52) = (   6.5754044   3.4477461  20.5419103  )
        53           H1  tau(  53) = (   1.2857956   4.2073973  19.6006198  )
        54           O1  tau(  54) = (   3.1761146   0.0362278  18.2233714  )
        55           H1  tau(  55) = (   3.9097821   0.6076051  18.5038283  )
        56           H1  tau(  56) = (   2.3516031   0.5117379  18.4309238  )

     number of k points=    10  Fermi-Dirac smearing, width (Ry)=  0.0073
                       cart. coord. in units 2pi/alat
        k(    1) = (   0.0000000   0.0000000   0.0000000), wk =   0.1250000
        k(    2) = (   0.0000000   0.0419351   0.0000000), wk =   0.2500000
        k(    3) = (   0.0000000  -0.0838702   0.0000000), wk =   0.1250000
        k(    4) = (   0.0379955   0.0000049   0.0000000), wk =   0.2500000
        k(    5) = (   0.0379955   0.0419400   0.0000000), wk =   0.2500000
        k(    6) = (   0.0379955  -0.0838652   0.0000000), wk =   0.2500000
        k(    7) = (   0.0379955  -0.0419301   0.0000000), wk =   0.2500000
        k(    8) = (  -0.0759910  -0.0000099   0.0000000), wk =   0.1250000
        k(    9) = (  -0.0759910   0.0419252   0.0000000), wk =   0.2500000
        k(   10) = (  -0.0759910  -0.0838800   0.0000000), wk =   0.1250000

     Initial potential from superposition of free atoms

     starting charge  386.99914, renormalised to  403.00000

     negative rho (up, down):  1.450E-02 0.000E+00

     %%%%%%%%%%%%%%%%%%%%%%%%%%%%%%%%%%%%%%%%%%%%%%%%%%%%%%%%%%%%%%%%%%%%%%%%
     %                                                                      %
     % You are using vdW-DF, which was implemented by the Thonhauser group. %
     % Please cite the following two papers that made this development      %
     % possible and the two reviews that describe the various versions:     %
     %                                                                      %
     %   T. Thonhauser et al., PRL 115, 136402 (2015).                      %
     %   T. Thonhauser et al., PRB 76, 125112 (2007).                       %
     %   K. Berland et al., Rep. Prog. Phys. 78, 066501 (2015).             %
     %   D.C. Langreth et al., J. Phys.: Condens. Matter 21, 084203 (2009). %
     %                                                                      %
     %                                                                      %
     % If you are calculating the stress with vdW-DF, please also cite:     %
     %                                                                      %
     %   R. Sabatini et al., J. Phys.: Condens. Matter 24, 424209 (2012).   %
     %                                                                      %
     %%%%%%%%%%%%%%%%%%%%%%%%%%%%%%%%%%%%%%%%%%%%%%%%%%%%%%%%%%%%%%%%%%%%%%%%

     Adding external electric field

     Computed dipole along edir(3) :
        Dipole              -13.2081 Ry au,        -33.5717 Debye
        Dipole field         -0.0249 Ry au,

        Potential amp.        2.3106 Ry
        Total length         46.3494 bohr

     Starting wfcs are  305 atomic wfcs
  @ DRIVER MODE: Message from server: STATUS
  @ DRIVER MODE: Message from server: POSDATA
  @ DRIVER MODE: Reading and sharing cell
  @ DRIVER MODE: Reading and sharing positions
  @ DRIVER MODE: Received positions

     Self-consistent Calculation

     iteration #  1     ecut=    29.40 Ry     beta= 0.05
     Davidson diagonalization with overlap
     c_bands:  4 eigenvalues not converged
     c_bands:  2 eigenvalues not converged
     c_bands:  2 eigenvalues not converged
     c_bands:  5 eigenvalues not converged
     c_bands:  1 eigenvalues not converged
     c_bands:  1 eigenvalues not converged
     c_bands:  4 eigenvalues not converged
     c_bands:  1 eigenvalues not converged
     c_bands:  1 eigenvalues not converged
     ethr =  1.00E-05,  avg # of iterations = 28.0

[...]

     total energy              =   -2367.51207783 Ry
     estimated scf accuracy    <    6916.48584326 Ry

     iteration #  2     ecut=    29.40 Ry     beta= 0.05
     Davidson diagonalization with overlap
     ethr =  1.00E-02,  avg # of iterations = 24.4

[...]

     iteration # 62     ecut=    29.40 Ry     beta= 0.05
     Davidson diagonalization with overlap
     c_bands:  1 eigenvalues not converged
     ethr =  5.01E-08,  avg # of iterations = 12.4

[...]

     total energy              =   -2974.00265008 Ry
     estimated scf accuracy    <       0.00000009 Ry

     iteration # 77     ecut=    29.40 Ry     beta= 0.05
     Davidson diagonalization with overlap
     ethr =  2.19E-11,  avg # of iterations =  7.2

     negative rho (up, down):  1.478E-02 0.000E+00

     Adding external electric field

     Computed dipole along edir(3) :
        Dipole                0.8916 Ry au,          2.2663 Debye
        Dipole field          0.0017 Ry au,

        Potential amp.       -0.1560 Ry
        Total length         46.3494 bohr

     End of self-consistent calculation

          k = 0.0000 0.0000 0.0000 ( 18029 PWs)   bands (ev):

   -55.6187 -55.5846 -55.5770 -55.5603 -55.5403 -55.4470 -55.4288 -55.4079
   -55.3949 -55.3939 -55.3656 -55.3602 -55.0026 -54.8628 -54.5976 -54.5636
   -32.1191 -32.1011 -31.9619 -31.9445 -31.9275 -31.9117 -31.8834 -31.8778
   -31.8617 -31.8082 -31.8019 -31.7839 -31.7710 -31.7553 -31.7393 -31.7302
   -31.7230 -31.7102 -31.7045 -31.6759 -31.6672 -31.6499 -31.6212 -31.6171
   -31.6013 -31.5987 -31.5981 -31.5929 -31.5688 -31.5642 -31.5611 -31.5562
   -31.5466 -31.5421 -31.5354 -31.5086 -31.5056 -31.2728 -31.1984 -31.1232
   -31.1059 -31.0717 -31.0049 -30.9162 -30.8938 -30.8215 -30.7350 -30.6240
   -18.8648 -18.3047 -16.3107 -16.0823 -15.8527 -15.7650 -15.7162 -15.5167
   -15.4147 -15.3424 -15.2198 -15.1570 -15.1451 -15.1307 -15.1120 -15.1100
   -15.0576 -15.0507 -15.0466 -15.0388 -15.0055 -14.9651 -14.9501 -14.9397
   -14.8457 -14.7725 -14.7552 -14.7313 -14.6858 -14.6694 -14.1964 -13.1000
   -12.9836 -11.2693  -6.8756  -6.6391  -4.1992  -3.8477  -3.8132  -3.6835
    -3.5560  -3.5227  -3.4412  -3.3676  -3.2311  -3.1989  -3.0367  -2.8465
    -2.7857  -2.7597  -2.7068  -2.6401  -2.5264  -2.4676  -2.4225  -2.4157
    -2.3982  -2.3907  -2.3669  -2.3542  -2.2531  -2.2313  -2.1537  -2.1487
    -2.0975  -1.9802  -1.9655  -1.9309  -1.9184  -1.8951  -1.8731  -1.8524
    -1.8419  -1.8179  -1.7671  -1.6997  -1.6357  -1.5956  -1.5094  -1.4396
    -1.3973  -1.3505  -1.2288  -1.1361  -1.1016  -1.0602  -1.0527  -1.0396
    -1.0107  -0.9931  -0.8800  -0.7660  -0.7492  -0.6839  -0.6239  -0.5428
    -0.5163  -0.4365  -0.3825  -0.3641  -0.3606  -0.3149  -0.2853  -0.2259
    -0.0922  -0.0409  -0.0067   0.0024   0.0614   0.1049   0.1336   0.2210
     0.2273   0.2726   0.3106   0.3431   0.3563   0.3714   0.3899   0.4194
     0.4342   0.6256   0.6619   0.7009   0.7387   0.7814   0.9198   0.9440
     1.0423   1.1515   1.3507   1.4244   1.5295   1.6166   1.9960   2.0418
     2.7453   3.5164   3.6037   3.6486   3.6775   3.7612   3.7753   3.9713
     3.9872   4.0257   4.0961

[...]

          k = 0.0380-0.0419 0.0000 ( 17876 PWs)   bands (ev):

[...]

          k =-0.0760-0.0000 0.0000 ( 17886 PWs)   bands (ev):

[...]

          k =-0.0760-0.0839 0.0000 ( 17948 PWs)   bands (ev):

   -55.6020 -55.6011 -55.5628 -55.5587 -55.5543 -55.4367 -55.4184 -55.4122
   -55.4107 -55.3788 -55.3755 -55.3670 -55.0007 -54.8646 -54.5806 -54.5804
   -31.9327 -31.9167 -31.9166 -31.9161 -31.8975 -31.8966 -31.8473 -31.8411
   -31.8199 -31.7946 -31.7824 -31.7735 -31.7694 -31.7311 -31.7266 -31.7250
   -31.7216 -31.7207 -31.7183 -31.7157 -31.7132 -31.7074 -31.6713 -31.6540
   -31.6354 -31.6311 -31.6237 -31.6119 -31.6112 -31.6084 -31.6028 -31.5934
   -31.5900 -31.5791 -31.5782 -31.5699 -31.4197 -31.2746 -31.2145 -31.1617
   -31.1243 -31.0982 -30.9066 -30.9064 -30.8177 -30.8175 -30.7783 -30.7782
   -18.8637 -18.3010 -15.7692 -15.6588 -15.5682 -15.5340 -15.4765 -15.4074
   -15.3996 -15.3129 -15.2969 -15.2938 -15.2282 -15.2075 -15.1702 -15.1633
   -15.1405 -15.1248 -15.1182 -15.0686 -15.0567 -15.0539 -15.0470 -15.0421
   -14.9660 -14.9355 -14.9316 -14.9227 -14.7950 -14.6705 -14.3681 -13.0854
   -13.0853 -11.2669  -6.9027  -6.6164  -4.1251  -3.8771  -3.7790  -3.2162
    -3.0516  -2.8384  -2.8194  -2.7234  -2.7116  -2.6770  -2.5462  -2.5054
    -2.4646  -2.4482  -2.4292  -2.4278  -2.4105  -2.4049  -2.3844  -2.3587
    -2.3341  -2.3137  -2.2847  -2.2812  -2.2683  -2.2553  -2.2322  -2.2199
    -2.2036  -2.1728  -2.1471  -2.1312  -2.0641  -1.9923  -1.8318  -1.7933
    -1.7542  -1.7479  -1.7314  -1.7003  -1.6847  -1.6669  -1.6229  -1.5875
    -1.5025  -1.3573  -1.3376  -1.3138  -1.2925  -1.2821  -1.2099  -1.1016
    -1.0826  -1.0114  -1.0030  -0.8967  -0.8887  -0.8034  -0.7954  -0.7847
    -0.7100  -0.6831  -0.6681  -0.5792  -0.5772  -0.5535  -0.5040  -0.4767
    -0.4120  -0.3696  -0.3391  -0.3357  -0.2897  -0.2675  -0.2234  -0.1571
    -0.1037  -0.0675   0.0289   0.1333   0.2338   0.3493   0.4642   0.4783
     0.5603   0.5938   0.6785   0.6943   0.7027   0.7749   0.7798   0.8784
     0.9233   0.9378   0.9784   1.1010   1.7877   1.7891   1.8613   1.8616
     2.7697   3.7339   3.8538   3.8959   3.9138   3.9881   4.0307   4.0501
     4.0526   4.0867   4.1925

     the Fermi energy is     3.5152 ev

!    total energy              =   -2974.00266325 Ry
     estimated scf accuracy    <       0.00000005 Ry
     smearing contrib. (-TS)   =      -0.02182599 Ry
     internal energy E=F+TS    =   -2973.98083726 Ry

     The total energy is F=E-TS. E is the sum of the following terms:
     one-electron contribution =  -23848.40893540 Ry
     hartree contribution      =   12018.62416416 Ry
     xc contribution           =    -494.03538161 Ry
     ewald contribution        =    9349.83781535 Ry
     electric field correction =       0.00150024 Ry

     convergence has been achieved in  77 iterations

     Forces acting on atoms (cartesian axes, Ry/au):

     atom    1 type  1   force =     0.00003575   -0.00024192    0.09648468
     atom    2 type  1   force =     0.00005698   -0.00043932   -0.17543970
     atom    3 type  2   force =     0.00011509   -0.00009023   -0.02475574
     atom    4 type  2   force =     0.00004283   -0.00157802    0.05350892
     atom    5 type  2   force =    -0.01196892   -0.00100585    0.00308968
     atom    6 type  2   force =     0.01371145   -0.00064958    0.00292841
     atom    7 type  1   force =     0.00074835    0.00067769   -0.00682159
     atom    8 type  1   force =     0.00021841    0.00948407    0.02714947
     atom    9 type  2   force =    -0.00014480   -0.00006165   -0.00005730
     atom   10 type  2   force =    -0.00204683    0.00049160   -0.01819303
     atom   11 type  2   force =    -0.00057662    0.00032794    0.00012625
     atom   12 type  2   force =     0.00068436    0.00012568    0.00031855
     atom   13 type  1   force =    -0.00015709   -0.00009876   -0.00014943
     atom   14 type  1   force =    -0.00040469   -0.00015160    0.00025483
     atom   15 type  2   force =     0.00003292   -0.00061239    0.00070016
     atom   16 type  2   force =    -0.00025939   -0.00007139   -0.00035208
     atom   17 type  2   force =    -0.00023887    0.00016598   -0.00031370
     atom   18 type  2   force =     0.00000262    0.00019008   -0.00030499
     atom   19 type  1   force =    -0.00031080    0.00016868   -0.00006965
     atom   20 type  1   force =    -0.00046304    0.00001793    0.00032435
     atom   21 type  2   force =     0.00008262    0.00001702    0.10325877
     atom   22 type  2   force =     0.00014347    0.00040003    0.00001177
     atom   23 type  2   force =    -0.07144949   -0.00009283   -0.02772905
     atom   24 type  2   force =     0.07140620    0.00036190   -0.02780019
     atom   25 type  1   force =     0.00018171   -0.00033640    0.09616224
     atom   26 type  1   force =     0.00000876   -0.00037629   -0.17576760
     atom   27 type  2   force =     0.00021052   -0.00021136   -0.02374412
     atom   28 type  2   force =     0.00002536   -0.00128383    0.05297347
     atom   29 type  2   force =    -0.01221317    0.00023985    0.00291836
     atom   30 type  2   force =     0.01387637    0.00081925    0.00273658
     atom   31 type  1   force =     0.00041969    0.00344098   -0.00985224
     atom   32 type  1   force =     0.00036444   -0.01131013    0.02756016
     atom   33 type  2   force =     0.00010103    0.00014352    0.00000186
     atom   34 type  2   force =    -0.00188260   -0.00045561   -0.02414186
     atom   35 type  2   force =     0.00041139    0.00003088   -0.00026431
     atom   36 type  2   force =    -0.00030033   -0.00006139    0.00008366
     atom   37 type  1   force =    -0.00031261   -0.00013605    0.00009927
     atom   38 type  1   force =    -0.00079317    0.00013350   -0.00049616
     atom   39 type  2   force =     0.00009295   -0.00031488   -0.00021673
     atom   40 type  2   force =     0.00019908    0.00034225    0.00046614
     atom   41 type  2   force =     0.00023452    0.00011033   -0.00033702
     atom   42 type  2   force =    -0.00042804   -0.00007491   -0.00034704
     atom   43 type  1   force =     0.00031519    0.00079000    0.00028699
     atom   44 type  1   force =    -0.00010158    0.00109540   -0.00070741
     atom   45 type  2   force =     0.00008490   -0.00002840    0.10324378
     atom   46 type  2   force =    -0.07145450   -0.00002307   -0.02774188
     atom   47 type  2   force =     0.07141077    0.00040445   -0.02779969
     atom   48 type  3   force =    -0.00032702    0.00032748   -0.00235900
     atom   49 type  3   force =    -0.00004489   -0.00061666    0.00121657
     atom   50 type  4   force =     0.00244925    0.00393032   -0.00941824
     atom   51 type  5   force =     0.00121838   -0.00065605   -0.00050077
     atom   52 type  5   force =    -0.00262268   -0.00334213    0.01070761
     atom   53 type  5   force =    -0.00006482   -0.00067168    0.00023473
     atom   54 type  2   force =     0.00015072    0.00056560   -0.00079045
     atom   55 type  5   force =    -0.00007698   -0.00008789   -0.00004864
     atom   56 type  5   force =    -0.00039320    0.00027787   -0.00032763

     Total force =     0.368322     Total SCF correction =     0.000494
  @ DRIVER MODE: Message from server: STATUS
  @ DRIVER MODE: Message from server: GETFORCE
  @ DRIVER MODE: Returning v,forces,stress,ensemble

     Writing output data file ./calc.save/
  @ DRIVER MODE: Message from server: EXIT
  @ DRIVE MODE: Exiting

     General routines

     Parallel routines

   This run was terminated on:   6:45:14  10Sep2021

   JOB DONE.