     Program PWSCF v.6.7GPU starts on 16Sep2021 at  2: 9: 4

     R & G space division:  proc/nbgrp/npool/nimage =      10
     Reading input from /storage/home/hcoda1/3/ntian30/research/carbon/CxH_vib/H2O_calc/ads_slab/CHNNHHH2O_a/out_0033/pw.inp
Warning: card &CELL ignored
Warning: card   CELL_DYNAMICS='IPI', ignored
Warning: card / ignored

     Current dimensions of program PWSCF are:
     Max number of different atomic species (ntypx) = 10
     Max number of k-points (npk) =  40000
     Max angular momentum in pseudopotentials (lmaxx) =  3
     Presently no symmetry can be used with electric field

     Message from routine cell_base_init:
     DEPRECATED: use true lattice parameter, not A to a.u. conversion factor

     IMPORTANT: XC functional enforced from input :
     Exchange-correlation= BEEF-VDW
                           (   1   4  43  14   2   0   0)
     Any further DFT definition will be discarded
     Please, verify this is what you really want

  @ DRIVER MODE: Connecting to
 qe_1139763_2852630.sched-torque.pace.gatech.eduuy8_fze6_scratch
  using UNIX socket
  @ DRIVER MODE: Message from server: STATUS
  @ DRIVER MODE: Message from server: INIT
  @ DRIVER MODE: Receiving replica           0          -1
  @ DRIVER MODE: Receiving encoded integer          25
  @ DRIVER MODE:  SCF:  T  FORCE:  T  STRESS:  F  VC:  F  ENSEMBLE:  F
  @ DRIVER MODE:  SCF:  T  FORCE:  T  STRESS:  F  VC:  F  ENSEMBLE:  F

     Using Slab Decomposition

     bravais-lattice index     =            0
     lattice parameter (alat)  =       1.8897  a.u.
     unit-cell volume          =    6658.9804 (a.u.)^3
     number of atoms/cell      =           56
     number of atomic types    =            5
     number of electrons       =       403.00
     number of Kohn-Sham states=          211
     kinetic-energy cutoff     =      29.3995  Ry
     charge density cutoff     =     293.9946  Ry
     scf convergence threshold =      7.3E-08
     mixing beta               =       0.0500
     number of iterations used =            8  plain     mixing
     Exchange-correlation= BEEF-VDW
                           (   1   4  43  14   2   0   0)

     celldm(1)=   1.889726  celldm(2)=   0.000000  celldm(3)=   0.000000
     celldm(4)=   0.000000  celldm(5)=   0.000000  celldm(6)=   0.000000

     crystal axes: (cart. coord. in units of alat)
               a(1) = (   6.579727   0.000000   0.000000 )
               a(2) = (  -0.000775   5.961596   0.000000 )
               a(3) = (   0.000000   0.000000  25.155947 )

     reciprocal axes: (cart. coord. in units 2 pi/alat)
               b(1) = (  0.151982  0.000020  0.000000 )
               b(2) = (  0.000000  0.167740  0.000000 )
               b(3) = (  0.000000  0.000000  0.039752 )

     PseudoPot. # 1 for Ti read from file:
     /storage/coda1/p-amedford6/0/shared/rich_project_chbe-medford/medford-share/data/pseudos_module/espresso/nninc/pbe/van/Ti.UPF
     MD5 check sum: 8e4df49b7f0d34bbd5052bf3f5ea0213
     Pseudo is Ultrasoft, Zval = 12.0
     Generated by new atomic code, or converted to UPF format
     Using radial grid of  851 points,  6 beta functions with:
                l(1) =   0
                l(2) =   0
                l(3) =   1
                l(4) =   1
                l(5) =   2
                l(6) =   2
     Q(r) pseudized with  8 coefficients,  rinner =    1.000   1.000   1.000
                                                       1.000   1.000

     PseudoPot. # 2 for O  read from file:
     /storage/coda1/p-amedford6/0/shared/rich_project_chbe-medford/medford-share/data/pseudos_module/espresso/nninc/pbe/van/O.UPF
     MD5 check sum: 78c19812648e8988a0fe644b0f25305e
     Pseudo is Ultrasoft, Zval =  6.0
     Generated by new atomic code, or converted to UPF format
     Using radial grid of  737 points,  4 beta functions with:
                l(1) =   0
                l(2) =   0
                l(3) =   1
                l(4) =   1
     Q(r) pseudized with  8 coefficients,  rinner =    0.800   0.800   0.800

     PseudoPot. # 3 for N  read from file:
     /storage/coda1/p-amedford6/0/shared/rich_project_chbe-medford/medford-share/data/pseudos_module/espresso/nninc/pbe/van/N.UPF
     MD5 check sum: 90d10febe142ad51ac9d5be1deb811c4
     Pseudo is Ultrasoft, Zval =  5.0
     Generated by new atomic code, or converted to UPF format
     Using radial grid of  729 points,  4 beta functions with:
                l(1) =   0
                l(2) =   0
                l(3) =   1
                l(4) =   1
     Q(r) pseudized with  8 coefficients,  rinner =    0.800   0.800   0.800

     PseudoPot. # 4 for C  read from file:
     /storage/coda1/p-amedford6/0/shared/rich_project_chbe-medford/medford-share/data/pseudos_module/espresso/nninc/pbe/van/C.UPF
     MD5 check sum: 1a69bf6b8db32088f5b2163dbdb77a27
     Pseudo is Ultrasoft, Zval =  4.0
     Generated by new atomic code, or converted to UPF format
     Using radial grid of  721 points,  4 beta functions with:
                l(1) =   0
                l(2) =   0
                l(3) =   1
                l(4) =   1
     Q(r) pseudized with  8 coefficients,  rinner =    0.800   0.800   0.800

     PseudoPot. # 5 for H  read from file:
     /storage/coda1/p-amedford6/0/shared/rich_project_chbe-medford/medford-share/data/pseudos_module/espresso/nninc/pbe/van/H.UPF
     MD5 check sum: b5ee9d7bfd3a09ee7748110bda690ff7
     Pseudo is Ultrasoft, Zval =  1.0
     Generated by new atomic code, or converted to UPF format
     Using radial grid of  615 points,  1 beta functions with:
                l(1) =   0
     Q(r) pseudized with  8 coefficients,  rinner =    0.800

     atomic species   valence    mass     pseudopotential
        Ti1           12.00    47.86700     Ti( 1.00)
        O1             6.00    15.99900     O ( 1.00)
        N1             5.00    14.00700     N ( 1.00)
        C1             4.00    12.01100     C ( 1.00)
        H1             1.00     1.00800     H ( 1.00)

     No symmetry found

   Cartesian axes

     site n.     atom                  positions (alat units)
         1           Ti1 tau(   1) = (   0.0004258   2.9801865   6.0000000  )
         2           Ti1 tau(   2) = (   3.2906075   1.4906267   6.0002472  )
         3           O1  tau(   3) = (   0.0006271   0.0005054   7.9858123  )
         4           O1  tau(   4) = (   3.2906025   0.0005020   7.3038282  )
         5           O1  tau(   5) = (   4.5942328   1.4918067   9.2879030  )
         6           O1  tau(   6) = (   1.9868534   1.4903216   9.2879459  )
         7           Ti1 tau(   7) = (   3.2907910   2.8959150   9.1758416  )
         8           Ti1 tau(   8) = (   0.0015273   1.4827037   9.2680791  )
         9           O1  tau(   9) = (   3.3295752   5.9394884  11.3365386  )
        10           O1  tau(  10) = (   0.0116148   5.9584955  10.6183126  )
        11           O1  tau(  11) = (   1.3416459   1.4853116  12.6004455  )
        12           O1  tau(  12) = (   5.3426426   1.4786053  12.6369034  )
        13           Ti1 tau(  13) = (   0.0116414   2.9353973  12.6160321  )
        14           Ti1 tau(  14) = (   3.2634613   1.4579052  12.5012998  )
        15           O1  tau(  15) = (   0.1064876   0.0498873  14.6156690  )
        16           O1  tau(  16) = (   3.3207907   0.0021492  13.9347054  )
        17           O1  tau(  17) = (   4.6463059   1.4619937  15.9920056  )
        18           O1  tau(  18) = (   2.1466462   1.4989335  16.1123926  )
        19           Ti1 tau(  19) = (   3.4306617   2.9592634  15.6863987  )
        20           Ti1 tau(  20) = (   0.1411245   1.4409179  16.1562347  )
        21           O1  tau(  21) = (   3.2904802   0.0005063   4.7018136  )
        22           O1  tau(  22) = (   0.1093408   5.8617090  17.1288626  )
        23           O1  tau(  23) = (   1.3043587   1.4918075   6.0039043  )
        24           O1  tau(  24) = (   5.2767064   1.4903225   6.0039473  )
        25           Ti1 tau(  25) = (   0.0000382   5.9609847   6.0000000  )
        26           Ti1 tau(  26) = (   3.2902200   4.4714249   6.0002472  )
        27           O1  tau(  27) = (   0.0002396   2.9813036   7.9858123  )
        28           O1  tau(  28) = (   3.2902150   2.9813002   7.3038282  )
        29           O1  tau(  29) = (   4.5938453   4.4726049   9.2879030  )
        30           O1  tau(  30) = (   1.9864658   4.4711199   9.2879459  )
        31           Ti1 tau(  31) = (   3.2891106   5.8743827   9.1763621  )
        32           Ti1 tau(  32) = (   0.0006254   4.4649316   9.2693709  )
        33           O1  tau(  33) = (   3.3252478   2.9725824  11.3426849  )
        34           O1  tau(  34) = (   0.0092240   2.9805883  10.6323155  )
        35           O1  tau(  35) = (   1.3395427   4.4601989  12.6346899  )
        36           O1  tau(  36) = (   5.3460148   4.4586474  12.6692756  )
        37           Ti1 tau(  37) = (   6.5637397   5.9322234  12.5160321  )
        38           Ti1 tau(  38) = (   3.2635149   4.4558096  12.5102435  )
        39           O1  tau(  39) = (   0.1109093   2.9345503  14.7784033  )
        40           O1  tau(  40) = (   3.3425673   2.9461413  13.8942005  )
        41           O1  tau(  41) = (   4.6672108   4.4449251  15.9191901  )
        42           O1  tau(  42) = (   2.1284166   4.4082335  15.9970045  )
        43           Ti1 tau(  43) = (   3.3925976   5.9399099  15.7906296  )
        44           Ti1 tau(  44) = (   0.1175887   4.6074924  15.7225956  )
        45           O1  tau(  45) = (   3.2900926   2.9813045   4.7018136  )
        46           O1  tau(  46) = (   1.3039711   4.4726057   6.0039043  )
        47           O1  tau(  47) = (   5.2763189   4.4711207   6.0039473  )
        48           N1  tau(  48) = (   6.3322197   2.6896666  17.8857888  )
        49           C1  tau(  49) = (   0.7408832   3.1023054  18.6049742  )
        50           H1  tau(  50) = (   1.6825283   2.9574642  18.0630083  )
        51           N1  tau(  51) = (   5.0062801   2.8267163  18.4728511  )
        52           H1  tau(  52) = (   5.1803530   3.0494745  19.4549233  )
        53           H1  tau(  53) = (   4.5789568   1.8925856  18.4370215  )
        54           O1  tau(  54) = (   3.4803961   5.7297960  18.1507158  )
        55           H1  tau(  55) = (   4.0125945   4.9267423  18.3304466  )
        56           H1  tau(  56) = (   2.5980622   5.5532332  18.5227279  )

     number of k points=    10  Fermi-Dirac smearing, width (Ry)=  0.0073
                       cart. coord. in units 2pi/alat
        k(    1) = (   0.0000000   0.0000000   0.0000000), wk =   0.1250000
        k(    2) = (   0.0000000   0.0419351   0.0000000), wk =   0.2500000
        k(    3) = (   0.0000000  -0.0838702   0.0000000), wk =   0.1250000
        k(    4) = (   0.0379955   0.0000049   0.0000000), wk =   0.2500000
        k(    5) = (   0.0379955   0.0419400   0.0000000), wk =   0.2500000
        k(    6) = (   0.0379955  -0.0838652   0.0000000), wk =   0.2500000
        k(    7) = (   0.0379955  -0.0419301   0.0000000), wk =   0.2500000
        k(    8) = (  -0.0759910  -0.0000099   0.0000000), wk =   0.1250000
        k(    9) = (  -0.0759910   0.0419252   0.0000000), wk =   0.2500000
        k(   10) = (  -0.0759910  -0.0838800   0.0000000), wk =   0.1250000

     Initial potential from superposition of free atoms

     starting charge  386.99914, renormalised to  403.00000

     negative rho (up, down):  1.683E-02 0.000E+00

     %%%%%%%%%%%%%%%%%%%%%%%%%%%%%%%%%%%%%%%%%%%%%%%%%%%%%%%%%%%%%%%%%%%%%%%%
     %                                                                      %
     % You are using vdW-DF, which was implemented by the Thonhauser group. %
     % Please cite the following two papers that made this development      %
     % possible and the two reviews that describe the various versions:     %
     %                                                                      %
     %   T. Thonhauser et al., PRL 115, 136402 (2015).                      %
     %   T. Thonhauser et al., PRB 76, 125112 (2007).                       %
     %   K. Berland et al., Rep. Prog. Phys. 78, 066501 (2015).             %
     %   D.C. Langreth et al., J. Phys.: Condens. Matter 21, 084203 (2009). %
     %                                                                      %
     %                                                                      %
     % If you are calculating the stress with vdW-DF, please also cite:     %
     %                                                                      %
     %   R. Sabatini et al., J. Phys.: Condens. Matter 24, 424209 (2012).   %
     %                                                                      %
     %%%%%%%%%%%%%%%%%%%%%%%%%%%%%%%%%%%%%%%%%%%%%%%%%%%%%%%%%%%%%%%%%%%%%%%%

     Adding external electric field

     Computed dipole along edir(3) :
        Dipole              -12.6658 Ry au,        -32.1932 Debye
        Dipole field         -0.0239 Ry au,

        Potential amp.        2.2157 Ry
        Total length         46.3494 bohr

     Starting wfcs are  305 atomic wfcs
  @ DRIVER MODE: Message from server: STATUS
  @ DRIVER MODE: Message from server: POSDATA
  @ DRIVER MODE: Reading and sharing cell
  @ DRIVER MODE: Reading and sharing positions
  @ DRIVER MODE: Received positions

     Self-consistent Calculation

     iteration #  1     ecut=    29.40 Ry     beta= 0.05
     Davidson diagonalization with overlap
     c_bands:  3 eigenvalues not converged
     c_bands:  2 eigenvalues not converged
     c_bands:  5 eigenvalues not converged
     c_bands:  1 eigenvalues not converged
     c_bands:  4 eigenvalues not converged
     c_bands:  1 eigenvalues not converged
     c_bands:  2 eigenvalues not converged
     ethr =  1.00E-05,  avg # of iterations = 26.9

[...]

     total energy              =   -2338.82073171 Ry
     estimated scf accuracy    <    7198.02658542 Ry

     iteration #  2     ecut=    29.40 Ry     beta= 0.05
     Davidson diagonalization with overlap
     ethr =  1.00E-02,  avg # of iterations = 23.9

[...]

     iteration # 43     ecut=    29.40 Ry     beta= 0.05
     Davidson diagonalization with overlap
     c_bands:  1 eigenvalues not converged
     ethr =  4.87E-08,  avg # of iterations =  8.5

[...]

     total energy              =   -2973.87556247 Ry
     estimated scf accuracy    <       0.00000010 Ry

     iteration # 63     ecut=    29.40 Ry     beta= 0.05
     Davidson diagonalization with overlap
     ethr =  2.45E-11,  avg # of iterations =  4.0

     negative rho (up, down):  1.573E-02 0.000E+00

     Adding external electric field

     Computed dipole along edir(3) :
        Dipole                0.4428 Ry au,          1.1254 Debye
        Dipole field          0.0008 Ry au,

        Potential amp.       -0.0775 Ry
        Total length         46.3494 bohr

     End of self-consistent calculation

          k = 0.0000 0.0000 0.0000 ( 18029 PWs)   bands (ev):

   -55.9067 -55.8726 -55.8709 -55.8335 -55.7916 -55.7903 -55.7347 -55.7237
   -55.6969 -55.6898 -55.6894 -55.6560 -55.4668 -55.3787 -54.8893 -54.8553
   -32.4119 -32.3908 -32.2780 -32.2335 -32.2237 -32.1988 -32.1802 -32.1610
   -32.1513 -32.1090 -32.0606 -32.0591 -32.0452 -32.0349 -32.0246 -32.0238
   -32.0127 -32.0084 -32.0047 -31.9942 -31.9869 -31.9726 -31.9639 -31.9305
   -31.9213 -31.9180 -31.9161 -31.9108 -31.8877 -31.8871 -31.8793 -31.8666
   -31.8568 -31.8436 -31.8360 -31.8294 -31.8022 -31.7588 -31.6966 -31.6347
   -31.5925 -31.5207 -31.2965 -31.2079 -31.1855 -31.1133 -31.0268 -30.9156
   -18.8517 -17.1712 -16.6211 -16.3846 -16.1479 -16.0689 -16.0438 -15.8143
   -15.7191 -15.6635 -15.5669 -15.5052 -15.4764 -15.4464 -15.4233 -15.4021
   -15.3614 -15.3493 -15.3294 -15.3285 -15.3018 -15.2927 -15.2554 -15.2497
   -15.2024 -15.0791 -15.0453 -15.0398 -15.0100 -14.9721 -14.5302 -13.3909
   -13.2744 -12.8041  -7.1122  -6.5675  -5.4666  -4.0016  -3.8673  -3.8585
    -3.8154  -3.7505  -3.6036  -3.5729  -3.3738  -3.2406  -3.1741  -3.0944
    -3.0776  -3.0395  -3.0136  -2.9094  -2.8236  -2.7883  -2.7204  -2.7050
    -2.6799  -2.6718  -2.6427  -2.6187  -2.5335  -2.5149  -2.4743  -2.4412
    -2.3254  -2.3068  -2.2505  -2.2220  -2.2142  -2.1954  -2.1717  -2.1625
    -2.1477  -2.1363  -2.0768  -2.0483  -1.9667  -1.8995  -1.8362  -1.7019
    -1.5625  -1.5205  -1.5073  -1.4084  -1.3820  -1.3470  -1.3281  -1.3036
    -1.2898  -1.1650  -1.0864  -1.0230  -1.0160  -0.9454  -0.8526  -0.7928
    -0.7354  -0.6777  -0.6716  -0.6512  -0.6461  -0.6114  -0.5385  -0.4022
    -0.3643  -0.3241  -0.2908  -0.2029  -0.1943  -0.1488  -0.1175  -0.0968
    -0.0636   0.0148   0.0266   0.0575   0.0788   0.1001   0.1229   0.1810
     0.3095   0.3314   0.3501   0.4073   0.4435   0.6031   0.7439   0.7867
     0.8893   1.0625   1.1337   1.1578   1.2243   1.3252   1.7047   1.7506
     2.7637   3.2092   3.3130   3.3469   3.3541   3.4552   3.4802   3.6708
     3.7150   3.7519   3.8543

[...]

          k = 0.0380-0.0419 0.0000 ( 17876 PWs)   bands (ev):

[...]

          k =-0.0760-0.0000 0.0000 ( 17886 PWs)   bands (ev):

[...]

          k =-0.0760-0.0839 0.0000 ( 17948 PWs)   bands (ev):

   -55.8901 -55.8891 -55.8577 -55.8465 -55.7883 -55.7844 -55.7405 -55.7085
   -55.7044 -55.7000 -55.6732 -55.6726 -55.4641 -55.3813 -54.8724 -54.8722
   -32.2284 -32.2064 -32.2063 -32.2058 -32.1845 -32.1839 -32.1266 -32.1188
   -32.0984 -32.0913 -32.0881 -32.0361 -32.0351 -32.0273 -32.0232 -32.0226
   -32.0170 -32.0131 -32.0110 -32.0095 -32.0083 -32.0058 -31.9937 -31.9906
   -31.9738 -31.9520 -31.9508 -31.9110 -31.9091 -31.9019 -31.9014 -31.8987
   -31.8923 -31.8890 -31.8884 -31.8826 -31.8796 -31.7750 -31.6947 -31.6412
   -31.5963 -31.5873 -31.1983 -31.1982 -31.1093 -31.1091 -31.0702 -31.0701
   -18.8493 -17.1625 -16.0479 -15.9627 -15.9245 -15.8353 -15.7895 -15.7558
   -15.6962 -15.6233 -15.5848 -15.5797 -15.5539 -15.4957 -15.4811 -15.4528
   -15.4352 -15.4236 -15.4192 -15.3669 -15.3607 -15.3516 -15.3471 -15.3338
   -15.3313 -15.3058 -15.2309 -15.2280 -15.1056 -14.8956 -14.8710 -13.3763
   -13.3761 -12.8201  -7.0728  -6.5576  -5.4023  -3.6747  -3.3885  -3.3279
    -3.2245  -3.1143  -3.0131  -3.0056  -2.9696  -2.9254  -2.8548  -2.8299
    -2.7741  -2.7537  -2.7398  -2.7232  -2.7189  -2.7081  -2.6749  -2.6519
    -2.5959  -2.5910  -2.5837  -2.5754  -2.5632  -2.5555  -2.5338  -2.5274
    -2.5010  -2.4748  -2.4363  -2.4048  -2.3223  -2.2463  -2.1694  -2.1177
    -2.0879  -2.0575  -2.0511  -2.0067  -1.9878  -1.9757  -1.9587  -1.8942
    -1.7937  -1.6747  -1.6184  -1.5950  -1.5467  -1.5107  -1.4871  -1.3807
    -1.3302  -1.3158  -1.2145  -1.1930  -1.1677  -1.1142  -1.0492  -1.0346
    -0.9919  -0.9482  -0.9058  -0.8653  -0.8600  -0.8100  -0.7647  -0.7375
    -0.6560  -0.6462  -0.6020  -0.5918  -0.5797  -0.5414  -0.4952  -0.4142
    -0.3178  -0.2726  -0.2213  -0.0680   0.0054   0.1412   0.1939   0.2591
     0.2757   0.3752   0.4037   0.4059   0.4873   0.5309   0.5876   0.6195
     0.6244   0.6369   0.8020   1.1046   1.4972   1.4982   1.5703   1.5707
     2.7207   3.5422   3.5996   3.6133   3.6394   3.7256   3.7492   3.7594
     3.7611   3.8809   3.8964

     the Fermi energy is     3.2219 ev

!    total energy              =   -2973.87560439 Ry
     estimated scf accuracy    <       0.00000004 Ry
     smearing contrib. (-TS)   =      -0.02178688 Ry
     internal energy E=F+TS    =   -2973.85381751 Ry

     The total energy is F=E-TS. E is the sum of the following terms:
     one-electron contribution =  -24185.07904283 Ry
     hartree contribution      =   12184.09118033 Ry
     xc contribution           =    -493.99295110 Ry
     ewald contribution        =    9521.12662613 Ry
     electric field correction =       0.00036996 Ry

     convergence has been achieved in  63 iterations

     Forces acting on atoms (cartesian axes, Ry/au):

     atom    1 type  1   force =     0.00016235   -0.00030729    0.09558444
     atom    2 type  1   force =     0.00004678   -0.00045346   -0.17580569
     atom    3 type  2   force =     0.00023250    0.00002140   -0.02351322
     atom    4 type  2   force =     0.00008531   -0.00152776    0.05312968
     atom    5 type  2   force =    -0.01025655   -0.00137284    0.00262916
     atom    6 type  2   force =     0.01292628   -0.00102006    0.00440909
     atom    7 type  1   force =     0.00139891    0.00129204   -0.00565706
     atom    8 type  1   force =    -0.00059933    0.01374793    0.01966271
     atom    9 type  2   force =     0.00024115   -0.00056061    0.00103437
     atom   10 type  2   force =    -0.00153642   -0.00072313   -0.01579528
     atom   11 type  2   force =    -0.00104651    0.00026701   -0.00021746
     atom   12 type  2   force =     0.00040304    0.00000104    0.00014200
     atom   13 type  1   force =     0.00055352    0.00083625    0.00028867
     atom   14 type  1   force =    -0.00022685   -0.00006926    0.00045503
     atom   15 type  2   force =    -0.00036068   -0.00002304   -0.00036558
     atom   16 type  2   force =     0.00000486   -0.00086114   -0.00040069
     atom   17 type  2   force =    -0.00062246   -0.00028084   -0.00032886
     atom   18 type  2   force =     0.00016420   -0.00029993   -0.00044920
     atom   19 type  1   force =     0.00074172   -0.00063601   -0.00089079
     atom   20 type  1   force =    -0.00066367   -0.00072587   -0.00048297
     atom   21 type  2   force =     0.00007242    0.00001854    0.10321008
     atom   22 type  2   force =    -0.00009376    0.00122895    0.00047582
     atom   23 type  2   force =    -0.07148221   -0.00007700   -0.02758370
     atom   24 type  2   force =     0.07145042    0.00038140   -0.02763743
     atom   25 type  1   force =     0.00009904   -0.00026419    0.09539927
     atom   26 type  1   force =     0.00003988   -0.00022842   -0.17586873
     atom   27 type  2   force =     0.00024804   -0.00036732   -0.02226875
     atom   28 type  2   force =     0.00008072   -0.00121984    0.05317894
     atom   29 type  2   force =    -0.01029902    0.00029628    0.00173899
     atom   30 type  2   force =     0.01288909    0.00085611    0.00359864
     atom   31 type  1   force =     0.00161486    0.00306854   -0.01051707
     atom   32 type  1   force =    -0.00067815   -0.01565471    0.01963857
     atom   33 type  2   force =     0.00053367    0.00064375    0.00018436
     atom   34 type  2   force =    -0.00085239    0.00099579   -0.01348241
     atom   35 type  2   force =     0.00110749    0.00005470   -0.00043855
     atom   36 type  2   force =    -0.00119798    0.00013385   -0.00020481
     atom   37 type  1   force =    -0.00031005   -0.00044408    0.00006548
     atom   38 type  1   force =    -0.00091395    0.00037349   -0.00038756
     atom   39 type  2   force =    -0.00046505   -0.00051220    0.00018831
     atom   40 type  2   force =     0.00009798    0.00096759    0.00014377
     atom   41 type  2   force =    -0.00116682    0.00047130    0.00057384
     atom   42 type  2   force =     0.00106400   -0.00024325    0.00050286
     atom   43 type  1   force =    -0.00019977    0.00094795   -0.00051496
     atom   44 type  1   force =    -0.00045227    0.00053087   -0.00165254
     atom   45 type  2   force =     0.00007367    0.00000951    0.10321716
     atom   46 type  2   force =    -0.07147903   -0.00004132   -0.02758208
     atom   47 type  2   force =     0.07144615    0.00038165   -0.02761999
     atom   48 type  3   force =     0.00040910    0.00062577    0.00041267
     atom   49 type  4   force =     0.00002192   -0.00017133   -0.00063412
     atom   50 type  5   force =    -0.00104571   -0.00043071    0.00043723
     atom   51 type  3   force =    -0.00535663   -0.01242446   -0.00280831
     atom   52 type  5   force =    -0.00014873   -0.00044260    0.00114805
     atom   53 type  5   force =     0.00462270    0.01175922    0.00243119
     atom   54 type  2   force =    -0.00095102   -0.00039288    0.00112252
     atom   55 type  5   force =    -0.00079846    0.00143394   -0.00076659
     atom   56 type  5   force =     0.00037170    0.00043070   -0.00112848

     Total force =     0.366534     Total SCF correction =     0.000529
  @ DRIVER MODE: Message from server: STATUS
  @ DRIVER MODE: Message from server: GETFORCE
  @ DRIVER MODE: Returning v,forces,stress,ensemble

     Writing output data file ./calc.save/
  @ DRIVER MODE: Message from server: EXIT
  @ DRIVE MODE: Exiting

     General routines

     Parallel routines

   This run was terminated on:   2:26:35  16Sep2021

   JOB DONE.