     Program PWSCF v.6.7GPU starts on 15Jul2021 at 16:27:55

     R & G space division:  proc/nbgrp/npool/nimage =      16
     Reading input from /storage/home/hcoda1/3/ntian30/research/carbon/15Jul_vib/ads_slab/CH3NH_b/out_0000/pw.inp
Warning: card &CELL ignored
Warning: card   CELL_DYNAMICS='IPI', ignored
Warning: card / ignored

     Current dimensions of program PWSCF are:
     Max number of different atomic species (ntypx) = 10
     Max number of k-points (npk) =  40000
     Max angular momentum in pseudopotentials (lmaxx) =  3
     Presently no symmetry can be used with electric field

     Message from routine cell_base_init:
     DEPRECATED: use true lattice parameter, not A to a.u. conversion factor

     IMPORTANT: XC functional enforced from input :
     Exchange-correlation= BEEF-VDW
                           (   1   4  43  14   2   0   0)
     Any further DFT definition will be discarded
     Please, verify this is what you really want

  @ DRIVER MODE: Connecting to
 qe_1139763_2351649.sched-torque.pace.gatech.edutrywq0lt_scratch
  using UNIX socket
  @ DRIVER MODE: Message from server: STATUS
  @ DRIVER MODE: Message from server: INIT
  @ DRIVER MODE: Receiving replica           0          -1
  @ DRIVER MODE: Receiving encoded integer          25
  @ DRIVER MODE:  SCF:  T  FORCE:  T  STRESS:  F  VC:  F  ENSEMBLE:  F
  @ DRIVER MODE:  SCF:  T  FORCE:  T  STRESS:  F  VC:  F  ENSEMBLE:  F

     Using Slab Decomposition

     bravais-lattice index     =            0
     lattice parameter (alat)  =       1.8897  a.u.
     unit-cell volume          =    6658.9804 (a.u.)^3
     number of atoms/cell      =           53
     number of atomic types    =            5
     number of electrons       =       391.00
     number of Kohn-Sham states=          205
     kinetic-energy cutoff     =      29.3995  Ry
     charge density cutoff     =     293.9946  Ry
     scf convergence threshold =      7.3E-08
     mixing beta               =       0.0500
     number of iterations used =            8  plain     mixing
     Exchange-correlation= BEEF-VDW
                           (   1   4  43  14   2   0   0)

     celldm(1)=   1.889726  celldm(2)=   0.000000  celldm(3)=   0.000000
     celldm(4)=   0.000000  celldm(5)=   0.000000  celldm(6)=   0.000000

     crystal axes: (cart. coord. in units of alat)
               a(1) = (   6.579727   0.000000   0.000000 )
               a(2) = (  -0.000775   5.961596   0.000000 )
               a(3) = (   0.000000   0.000000  25.155947 )

     reciprocal axes: (cart. coord. in units 2 pi/alat)
               b(1) = (  0.151982  0.000020  0.000000 )
               b(2) = (  0.000000  0.167740  0.000000 )
               b(3) = (  0.000000  0.000000  0.039752 )

     PseudoPot. # 1 for Ti read from file:
     /storage/coda1/p-amedford6/0/shared/rich_project_chbe-medford/medford-share/data/pseudos_module/espresso/nninc/pbe/van/Ti.UPF
     MD5 check sum: 8e4df49b7f0d34bbd5052bf3f5ea0213
     Pseudo is Ultrasoft, Zval = 12.0
     Generated by new atomic code, or converted to UPF format
     Using radial grid of  851 points,  6 beta functions with:
                l(1) =   0
                l(2) =   0
                l(3) =   1
                l(4) =   1
                l(5) =   2
                l(6) =   2
     Q(r) pseudized with  8 coefficients,  rinner =    1.000   1.000   1.000
                                                       1.000   1.000

     PseudoPot. # 2 for O  read from file:
     /storage/coda1/p-amedford6/0/shared/rich_project_chbe-medford/medford-share/data/pseudos_module/espresso/nninc/pbe/van/O.UPF
     MD5 check sum: 78c19812648e8988a0fe644b0f25305e
     Pseudo is Ultrasoft, Zval =  6.0
     Generated by new atomic code, or converted to UPF format
     Using radial grid of  737 points,  4 beta functions with:
                l(1) =   0
                l(2) =   0
                l(3) =   1
                l(4) =   1
     Q(r) pseudized with  8 coefficients,  rinner =    0.800   0.800   0.800

     PseudoPot. # 3 for H  read from file:
     /storage/coda1/p-amedford6/0/shared/rich_project_chbe-medford/medford-share/data/pseudos_module/espresso/nninc/pbe/van/H.UPF
     MD5 check sum: b5ee9d7bfd3a09ee7748110bda690ff7
     Pseudo is Ultrasoft, Zval =  1.0
     Generated by new atomic code, or converted to UPF format
     Using radial grid of  615 points,  1 beta functions with:
                l(1) =   0
     Q(r) pseudized with  8 coefficients,  rinner =    0.800

     PseudoPot. # 4 for N  read from file:
     /storage/coda1/p-amedford6/0/shared/rich_project_chbe-medford/medford-share/data/pseudos_module/espresso/nninc/pbe/van/N.UPF
     MD5 check sum: 90d10febe142ad51ac9d5be1deb811c4
     Pseudo is Ultrasoft, Zval =  5.0
     Generated by new atomic code, or converted to UPF format
     Using radial grid of  729 points,  4 beta functions with:
                l(1) =   0
                l(2) =   0
                l(3) =   1
                l(4) =   1
     Q(r) pseudized with  8 coefficients,  rinner =    0.800   0.800   0.800

     PseudoPot. # 5 for C  read from file:
     /storage/coda1/p-amedford6/0/shared/rich_project_chbe-medford/medford-share/data/pseudos_module/espresso/nninc/pbe/van/C.UPF
     MD5 check sum: 1a69bf6b8db32088f5b2163dbdb77a27
     Pseudo is Ultrasoft, Zval =  4.0
     Generated by new atomic code, or converted to UPF format
     Using radial grid of  721 points,  4 beta functions with:
                l(1) =   0
                l(2) =   0
                l(3) =   1
                l(4) =   1
     Q(r) pseudized with  8 coefficients,  rinner =    0.800   0.800   0.800

     atomic species   valence    mass     pseudopotential
        Ti1           12.00    47.86700     Ti( 1.00)
        O1             6.00    15.99900     O ( 1.00)
        H1             1.00     1.00800     H ( 1.00)
        N1             5.00    14.00700     N ( 1.00)
        C1             4.00    12.01100     C ( 1.00)

     Starting magnetic structure
     atomic species   magnetization
        Ti1          0.000
        O1           0.000
        H1           0.000
        N1           0.000
        C1           0.025

     No symmetry found

   Cartesian axes

     site n.     atom                  positions (alat units)
         1           Ti1 tau(   1) = (   0.0004258   2.9801865   6.0000000  )
         2           Ti1 tau(   2) = (   3.2906075   1.4906267   6.0002472  )
         3           O1  tau(   3) = (   0.0006271   0.0005054   7.9858123  )
         4           O1  tau(   4) = (   3.2906025   0.0005020   7.3038282  )
         5           O1  tau(   5) = (   4.5942328   1.4918067   9.2879030  )
         6           O1  tau(   6) = (   1.9868534   1.4903216   9.2879459  )
         7           Ti1 tau(   7) = (   3.2907910   2.8959150   9.1758416  )
         8           Ti1 tau(   8) = (   0.0015273   1.4827037   9.2680791  )
         9           O1  tau(   9) = (   3.2906183   5.9580730  11.3246990  )
        10           O1  tau(  10) = (   0.0116148   5.9584955  10.6183126  )
        11           O1  tau(  11) = (   1.3160896   1.4863360  12.6200149  )
        12           O1  tau(  12) = (   5.2947061   1.4800608  12.6053981  )
        13           Ti1 tau(  13) = (   6.5224157   2.9421717  12.6196007  )
        14           Ti1 tau(  14) = (   3.2076970   1.4879367  12.4696142  )
        15           O1  tau(  15) = (   6.5517659   0.0158556  14.6493665  )
        16           O1  tau(  16) = (   3.3109316   0.0069331  13.9179417  )
        17           O1  tau(  17) = (   4.5083530   1.5297238  16.0872293  )
        18           O1  tau(  18) = (   2.0274073   1.5273405  16.0409094  )
        19           Ti1 tau(  19) = (   3.2920608   3.0081397  15.6838061  )
        20           Ti1 tau(  20) = (   0.0536170   1.5416865  15.8648894  )
        21           O1  tau(  21) = (   3.2904802   0.0005063   4.7018136  )
        22           O1  tau(  22) = (   0.0122827   0.0301012  17.2134340  )
        23           O1  tau(  23) = (   1.3043587   1.4918075   6.0039043  )
        24           O1  tau(  24) = (   5.2767064   1.4903225   6.0039473  )
        25           Ti1 tau(  25) = (   0.0000382   5.9609847   6.0000000  )
        26           Ti1 tau(  26) = (   3.2902200   4.4714249   6.0002472  )
        27           O1  tau(  27) = (   0.0002396   2.9813036   7.9858123  )
        28           O1  tau(  28) = (   3.2902150   2.9813002   7.3038282  )
        29           O1  tau(  29) = (   4.5938453   4.4726049   9.2879030  )
        30           O1  tau(  30) = (   1.9864658   4.4711199   9.2879459  )
        31           Ti1 tau(  31) = (   3.2891106   5.8743827   9.1763621  )
        32           Ti1 tau(  32) = (   0.0006254   4.4649316   9.2693709  )
        33           O1  tau(  33) = (   3.2866862   2.9837957  11.3234553  )
        34           O1  tau(  34) = (   0.0092240   2.9805883  10.6323155  )
        35           O1  tau(  35) = (   1.3095649   4.4762946  12.6335636  )
        36           O1  tau(  36) = (   5.2963019   4.4650584  12.6194355  )
        37           Ti1 tau(  37) = (   6.5192018   5.9199268  12.5733442  )
        38           Ti1 tau(  38) = (   3.2055211   4.4685508  12.4747853  )
        39           O1  tau(  39) = (   6.5624772   2.9349094  14.6472044  )
        40           O1  tau(  40) = (   3.3065106   2.9879112  13.8942307  )
        41           O1  tau(  41) = (   4.5199725   4.4841037  16.0899424  )
        42           O1  tau(  42) = (   2.0389375   4.4882992  16.0664246  )
        43           Ti1 tau(  43) = (   3.3279474   0.0221627  15.7114356  )
        44           Ti1 tau(  44) = (   0.0314192   4.6578676  16.1055029  )
        45           O1  tau(  45) = (   3.2900926   2.9813045   4.7018136  )
        46           O1  tau(  46) = (   1.3039711   4.4726057   6.0039043  )
        47           O1  tau(  47) = (   5.2763189   4.4711207   6.0039473  )
        48           H1  tau(  48) = (   5.5751926   2.9245997  17.7795037  )
        49           N1  tau(  49) = (   6.5345126   2.9709300  17.4463781  )
        50           C1  tau(  50) = (   0.8205834   2.9192471  18.6315588  )
        51           H1  tau(  51) = (   0.6379014   3.7726647  19.2931901  )
        52           H1  tau(  52) = (   0.6616828   1.9903841  19.1881566  )
        53           H1  tau(  53) = (   1.8691752   2.9530840  18.3388921  )

     number of k points=    10  Fermi-Dirac smearing, width (Ry)=  0.0073
                       cart. coord. in units 2pi/alat
        k(    1) = (   0.0000000   0.0000000   0.0000000), wk =   0.0625000
        k(    2) = (   0.0000000   0.0419351   0.0000000), wk =   0.1250000
        k(    3) = (   0.0000000  -0.0838702   0.0000000), wk =   0.0625000
        k(    4) = (   0.0379955   0.0000049   0.0000000), wk =   0.1250000
        k(    5) = (   0.0379955   0.0419400   0.0000000), wk =   0.1250000
        k(    6) = (   0.0379955  -0.0838652   0.0000000), wk =   0.1250000
        k(    7) = (   0.0379955  -0.0419301   0.0000000), wk =   0.1250000
        k(    8) = (  -0.0759910  -0.0000099   0.0000000), wk =   0.0625000
        k(    9) = (  -0.0759910   0.0419252   0.0000000), wk =   0.1250000
        k(   10) = (  -0.0759910  -0.0838800   0.0000000), wk =   0.0625000

     Initial potential from superposition of free atoms

     starting charge  374.99916, renormalised to  391.00000

     negative rho (up, down):  8.890E-03 8.897E-03

     %%%%%%%%%%%%%%%%%%%%%%%%%%%%%%%%%%%%%%%%%%%%%%%%%%%%%%%%%%%%%%%%%%%%%%%%
     %                                                                      %
     % You are using vdW-DF, which was implemented by the Thonhauser group. %
     % Please cite the following two papers that made this development      %
     % possible and the two reviews that describe the various versions:     %
     %                                                                      %
     %   T. Thonhauser et al., PRL 115, 136402 (2015).                      %
     %   T. Thonhauser et al., PRB 76, 125112 (2007).                       %
     %   K. Berland et al., Rep. Prog. Phys. 78, 066501 (2015).             %
     %   D.C. Langreth et al., J. Phys.: Condens. Matter 21, 084203 (2009). %
     %                                                                      %
     %                                                                      %
     % If you are calculating the stress with vdW-DF, please also cite:     %
     %                                                                      %
     %   R. Sabatini et al., J. Phys.: Condens. Matter 24, 424209 (2012).   %
     %                                                                      %
     %%%%%%%%%%%%%%%%%%%%%%%%%%%%%%%%%%%%%%%%%%%%%%%%%%%%%%%%%%%%%%%%%%%%%%%%

     Adding external electric field

     Computed dipole along edir(3) :
        Dipole               -5.8162 Ry au,        -14.7834 Debye
        Dipole field         -0.0110 Ry au,

        Potential amp.        1.0175 Ry
        Total length         46.3494 bohr

[...]

     Starting wfcs are  296 atomic wfcs
  @ DRIVER MODE: Message from server: STATUS
  @ DRIVER MODE: Message from server: POSDATA
  @ DRIVER MODE: Reading and sharing cell
  @ DRIVER MODE: Reading and sharing positions
  @ DRIVER MODE: Received positions

     Self-consistent Calculation

     iteration #  1     ecut=    29.40 Ry     beta= 0.05
     Davidson diagonalization with overlap
     ethr =  1.00E-02,  avg # of iterations =  2.2

[...]

     total energy              =   -2773.24845165 Ry
     estimated scf accuracy    <    1610.54596868 Ry

     total magnetization       =     0.01 Bohr mag/cell
     absolute magnetization    =     0.03 Bohr mag/cell

     iteration #  2     ecut=    29.40 Ry     beta= 0.05
     Davidson diagonalization with overlap
     c_bands:  1 eigenvalues not converged
     ethr =  1.00E-02,  avg # of iterations = 18.8

[...]

     iteration # 59     ecut=    29.40 Ry     beta= 0.05
     Davidson diagonalization with overlap
     c_bands:  2 eigenvalues not converged
     ethr =  4.98E-11,  avg # of iterations = 12.7

[...]

     total energy              =   -2920.42462074 Ry
     estimated scf accuracy    <       0.00000008 Ry

[...]

     iteration # 62     ecut=    29.40 Ry     beta= 0.05
     Davidson diagonalization with overlap
     ethr =  2.03E-11,  avg # of iterations =  3.5

     negative rho (up, down):  9.093E-03 9.093E-03

[...]

     Adding external electric field

     Computed dipole along edir(3) :
        Dipole                0.6843 Ry au,          1.7393 Debye
        Dipole field          0.0013 Ry au,

        Potential amp.       -0.1197 Ry
        Total length         46.3494 bohr

     Magnetic moment per site  (integrated on atomic sphere of radius R)
     atom   1 (R=0.715)  charge=  7.8451  magn= -0.0004
     atom   2 (R=0.715)  charge=  7.8288  magn=  0.0002
     atom   3 (R=0.715)  charge=  4.8552  magn=  0.0001
     atom   4 (R=0.715)  charge=  4.8904  magn= -0.0000
     atom   5 (R=0.715)  charge=  4.8609  magn= -0.0000
     atom   6 (R=0.715)  charge=  4.8616  magn= -0.0000
     atom   7 (R=0.715)  charge=  7.8276  magn=  0.0000
     atom   8 (R=0.715)  charge=  7.8193  magn= -0.0002
     atom   9 (R=0.715)  charge=  4.8766  magn=  0.0000
     atom  10 (R=0.715)  charge=  4.8485  magn=  0.0000
     atom  11 (R=0.715)  charge=  4.8624  magn=  0.0000
     atom  12 (R=0.715)  charge=  4.8618  magn=  0.0000
     atom  13 (R=0.715)  charge=  7.8170  magn= -0.0000
     atom  14 (R=0.715)  charge=  7.8304  magn= -0.0000
     atom  15 (R=0.715)  charge=  4.8497  magn= -0.0000
     atom  16 (R=0.715)  charge=  4.8722  magn=  0.0000
     atom  17 (R=0.715)  charge=  4.8476  magn= -0.0000
     atom  18 (R=0.715)  charge=  4.8546  magn= -0.0000
     atom  19 (R=0.715)  charge=  7.8557  magn= -0.0000
     atom  20 (R=0.715)  charge=  7.8308  magn=  0.0000
     atom  21 (R=0.715)  charge=  4.7478  magn= -0.0006
     atom  22 (R=0.715)  charge=  4.8258  magn= -0.0000
     atom  23 (R=0.715)  charge=  4.8532  magn=  0.0000
     atom  24 (R=0.715)  charge=  4.8532  magn=  0.0000
     atom  25 (R=0.715)  charge=  7.8452  magn= -0.0005
     atom  26 (R=0.715)  charge=  7.8288  magn=  0.0002
     atom  27 (R=0.715)  charge=  4.8545  magn=  0.0001
     atom  28 (R=0.715)  charge=  4.8905  magn= -0.0000
     atom  29 (R=0.715)  charge=  4.8616  magn= -0.0000
     atom  30 (R=0.715)  charge=  4.8623  magn= -0.0000
     atom  31 (R=0.715)  charge=  7.8277  magn=  0.0000
     atom  32 (R=0.715)  charge=  7.8194  magn= -0.0002
     atom  33 (R=0.715)  charge=  4.8755  magn=  0.0000
     atom  34 (R=0.715)  charge=  4.8372  magn=  0.0000
     atom  35 (R=0.715)  charge=  4.8620  magn= -0.0000
     atom  36 (R=0.715)  charge=  4.8623  magn=  0.0000
     atom  37 (R=0.715)  charge=  7.8196  magn= -0.0000
     atom  38 (R=0.715)  charge=  7.8303  magn=  0.0000
     atom  39 (R=0.715)  charge=  4.8445  magn= -0.0000
     atom  40 (R=0.715)  charge=  4.8783  magn=  0.0000
     atom  41 (R=0.715)  charge=  4.8510  magn= -0.0000
     atom  42 (R=0.715)  charge=  4.8518  magn= -0.0000
     atom  43 (R=0.715)  charge=  7.8536  magn= -0.0000
     atom  44 (R=0.715)  charge=  7.8555  magn=  0.0000
     atom  45 (R=0.715)  charge=  4.7478  magn= -0.0003
     atom  46 (R=0.715)  charge=  4.8532  magn=  0.0000
     atom  47 (R=0.715)  charge=  4.8532  magn=  0.0001
     atom  48 (R=0.419)  charge=  0.4545  magn=  0.0000
     atom  49 (R=0.419)  charge=  1.3288  magn= -0.0000
     atom  50 (R=0.449)  charge=  0.8459  magn=  0.0001
     atom  51 (R=0.419)  charge=  0.4420  magn= -0.0000
     atom  52 (R=0.419)  charge=  0.4411  magn= -0.0000
     atom  53 (R=0.419)  charge=  0.4478  magn= -0.0000

     End of self-consistent calculation

 ------ SPIN UP ------------

          k = 0.0000 0.0000 0.0000 ( 18029 PWs)   bands (ev):

   -55.9951 -55.9879 -55.9610 -55.9517 -55.9025 -55.8379 -55.8378 -55.8034
   -55.7988 -55.7649 -55.7593 -55.7257 -55.5392 -55.2717 -54.9680 -54.9340
   -32.5466 -32.4767 -32.3496 -32.3395 -32.3151 -32.2981 -32.2878 -32.2503
   -32.2358 -32.2355 -32.2115 -32.2041 -32.1704 -32.1469 -32.1398 -32.1337
   -32.1302 -32.0986 -32.0772 -32.0520 -32.0482 -32.0405 -32.0253 -31.9982
   -31.9911 -31.9905 -31.9851 -31.9772 -31.9625 -31.9570 -31.9535 -31.9434
   -31.9355 -31.9285 -31.9124 -31.9060 -31.8718 -31.8083 -31.7102 -31.5464
   -31.5415 -31.4667 -31.3747 -31.2869 -31.2645 -31.1913 -31.1049 -30.9939
   -16.7557 -16.4724 -16.2928 -16.1497 -16.1177 -16.0321 -15.8313 -15.7046
   -15.6923 -15.5886 -15.5556 -15.5293 -15.5226 -15.4962 -15.4912 -15.4303
   -15.4283 -15.4147 -15.4054 -15.3484 -15.3239 -15.2706 -15.1912 -15.1582
   -15.1528 -15.1251 -15.0432 -15.0382 -14.5844 -14.1755 -13.4692 -13.3528
    -8.9291  -4.3605  -4.1267  -3.9524  -3.9130  -3.8975  -3.8476  -3.5935
    -3.5784  -3.3299  -3.2278  -3.1929  -3.1779  -3.1688  -3.1486  -3.1377
    -2.8912  -2.8244  -2.8094  -2.7874  -2.7796  -2.7734  -2.7613  -2.7607
    -2.7211  -2.6585  -2.5329  -2.4979  -2.4197  -2.3825  -2.3520  -2.3046
    -2.2605  -2.2535  -2.2426  -2.2239  -2.2110  -2.1874  -2.1710  -2.0371
    -1.9711  -1.8356  -1.8010  -1.7814  -1.5955  -1.5369  -1.4721  -1.4335
    -1.4202  -1.4131  -1.3813  -1.2997  -1.2081  -1.1521  -1.1418  -1.0856
    -1.0083  -0.9967  -0.8891  -0.8839  -0.8568  -0.7660  -0.7557  -0.7445
    -0.7253  -0.6574  -0.5567  -0.4798  -0.4348  -0.4047  -0.3740  -0.3045
    -0.2744  -0.1720  -0.1564  -0.1082  -0.1033  -0.0617  -0.0164  -0.0070
     0.0018   0.0097   0.0350   0.1774   0.2884   0.3433   0.3836   0.3895
     0.5440   0.5716   0.6687   0.7570   0.9822   1.0551   1.1477   1.2477
     1.3232   1.6261   1.6714   3.1483   3.2274   3.2808   3.2894   3.3921
     3.3975   3.5978   3.6074   3.6203   3.6878

[...]

          k =-0.0760-0.0000 0.0000 ( 17886 PWs)   bands (ev):

[...]

 ------ SPIN DOWN ----------

[...]

          k = 0.0380-0.0419 0.0000 ( 17876 PWs)   bands (ev):

[...]

          k =-0.0760-0.0839 0.0000 ( 17948 PWs)   bands (ev):

   -55.9794 -55.9785 -55.9710 -55.9685 -55.8975 -55.8429 -55.8214 -55.8199
   -55.7829 -55.7811 -55.7430 -55.7420 -55.5381 -55.2725 -54.9502 -54.9501
   -32.3516 -32.3481 -32.2925 -32.2918 -32.2810 -32.2748 -32.2738 -32.2601
   -32.1983 -32.1972 -32.1922 -32.1879 -32.1645 -32.1333 -32.1185 -32.1144
   -32.1013 -32.0993 -32.0987 -32.0978 -32.0941 -32.0827 -32.0804 -32.0488
   -32.0410 -32.0399 -32.0103 -31.9992 -31.9796 -31.9792 -31.9756 -31.9746
   -31.9578 -31.9572 -31.9559 -31.9529 -31.8774 -31.8107 -31.7055 -31.6108
   -31.5433 -31.4911 -31.2765 -31.2765 -31.1867 -31.1866 -31.1475 -31.1474
   -16.2094 -16.1742 -15.9375 -15.9263 -15.9195 -15.9040 -15.7581 -15.7112
   -15.6996 -15.6926 -15.6697 -15.6466 -15.5890 -15.5601 -15.5312 -15.5225
   -15.5165 -15.5143 -15.4526 -15.4474 -15.4244 -15.4175 -15.3038 -15.3000
   -15.2906 -15.2145 -15.1601 -15.0203 -14.7461 -14.1991 -13.4567 -13.4559
    -8.9338  -4.3723  -3.5034  -3.4633  -3.2807  -3.2452  -3.1782  -3.1616
    -3.1374  -3.0691  -2.9050  -2.8882  -2.8768  -2.8615  -2.8194  -2.8131
    -2.8028  -2.7902  -2.7835  -2.7644  -2.7311  -2.6983  -2.6598  -2.6524
    -2.6438  -2.6189  -2.6078  -2.5863  -2.5745  -2.5435  -2.5345  -2.5168
    -2.4874  -2.2257  -2.2058  -2.1949  -2.1237  -2.1171  -2.0836  -2.0657
    -2.0560  -2.0428  -1.9858  -1.8819  -1.7250  -1.6934  -1.6836  -1.6684
    -1.5849  -1.5758  -1.4224  -1.4011  -1.3809  -1.3437  -1.2897  -1.2672
    -1.2267  -1.1678  -1.1506  -1.0868  -1.0695  -1.0108  -0.9555  -0.9537
    -0.9327  -0.8571  -0.7757  -0.7602  -0.7469  -0.7078  -0.6979  -0.6108
    -0.5872  -0.4939  -0.4797  -0.4219  -0.3964  -0.2950  -0.1358  -0.0110
     0.0427   0.0685   0.1262   0.2247   0.2691   0.2807   0.3248   0.3310
     0.3928   0.4331   0.5463   0.5522   0.6269   0.7182   1.2602   1.4183
     1.4191   1.4894   1.4900   3.4112   3.4164   3.4636   3.4929   3.6479
     3.6524   3.6746   3.6757   3.8005   3.8176

     the Fermi energy is     3.1410 ev

!    total energy              =   -2920.42465565 Ry
     estimated scf accuracy    <       0.00000006 Ry
     smearing contrib. (-TS)   =      -0.02203250 Ry
     internal energy E=F+TS    =   -2920.40262315 Ry

     The total energy is F=E-TS. E is the sum of the following terms:
     one-electron contribution =  -24701.77481216 Ry
     hartree contribution      =   12435.50246718 Ry
     xc contribution           =    -480.87183303 Ry
     ewald contribution        =    9826.74067121 Ry
     electric field correction =       0.00088366 Ry

     total magnetization       =    -0.00 Bohr mag/cell
     absolute magnetization    =     0.01 Bohr mag/cell

     convergence has been achieved in  62 iterations

     Forces acting on atoms (cartesian axes, Ry/au):

     atom    1 type  1   force =     0.00011023   -0.00026510    0.09689464
     atom    2 type  1   force =     0.00001979   -0.00055639   -0.17508203
     atom    3 type  2   force =     0.00013550   -0.00007869   -0.02545530
     atom    4 type  2   force =    -0.00000666   -0.00137092    0.05230908
     atom    5 type  2   force =    -0.01236278   -0.00013366    0.00302176
     atom    6 type  2   force =     0.01378327    0.00023306    0.00238517
     atom    7 type  1   force =     0.00059615    0.00033496   -0.01266870
     atom    8 type  1   force =     0.00047289    0.00593626    0.03105508
     atom    9 type  2   force =    -0.00033468    0.00024215    0.00041377
     atom   10 type  2   force =    -0.00269552    0.00069427   -0.01624929
     atom   11 type  2   force =    -0.00040570    0.00012504    0.00016821
     atom   12 type  2   force =     0.00013645    0.00013602    0.00019449
     atom   13 type  1   force =    -0.00013871    0.00022034    0.00024970
     atom   14 type  1   force =    -0.00002717   -0.00021048   -0.00013465
     atom   15 type  2   force =     0.00021036    0.00010112    0.00033522
     atom   16 type  2   force =    -0.00006741    0.00027482    0.00021635
     atom   17 type  2   force =    -0.00007721   -0.00021530   -0.00023535
     atom   18 type  2   force =     0.00034418   -0.00010772    0.00023251
     atom   19 type  1   force =    -0.00004106    0.00021501   -0.00002359
     atom   20 type  1   force =    -0.00003911   -0.00002342   -0.00036628
     atom   21 type  2   force =     0.00006630   -0.00005703    0.10311262
     atom   22 type  2   force =    -0.00012117   -0.00000541    0.00025867
     atom   23 type  2   force =    -0.07163246   -0.00015887   -0.02784730
     atom   24 type  2   force =     0.07155880    0.00032602   -0.02790685
     atom   25 type  1   force =     0.00011495   -0.00023812    0.09667937
     atom   26 type  1   force =     0.00012202   -0.00031776   -0.17524757
     atom   27 type  2   force =     0.00013397   -0.00023437   -0.02453456
     atom   28 type  2   force =     0.00002736   -0.00112844    0.05222610
     atom   29 type  2   force =    -0.01248466    0.00014646    0.00267716
     atom   30 type  2   force =     0.01379379    0.00069304    0.00202070
     atom   31 type  1   force =     0.00049876    0.00289869   -0.01338695
     atom   32 type  1   force =     0.00030317   -0.00821229    0.03147244
     atom   33 type  2   force =    -0.00005852   -0.00006477   -0.00009946
     atom   34 type  2   force =    -0.00183955    0.00055906   -0.02456804
     atom   35 type  2   force =    -0.00013473    0.00010257    0.00004748
     atom   36 type  2   force =    -0.00024830    0.00020339    0.00011981
     atom   37 type  1   force =    -0.00007721    0.00028226    0.00024257
     atom   38 type  1   force =    -0.00023208   -0.00003391   -0.00014750
     atom   39 type  2   force =     0.00006135    0.00021820   -0.00015381
     atom   40 type  2   force =    -0.00017049    0.00026902   -0.00016027
     atom   41 type  2   force =     0.00004885    0.00006772    0.00023313
     atom   42 type  2   force =    -0.00009699   -0.00001202    0.00038272
     atom   43 type  1   force =    -0.00019847   -0.00019089    0.00051600
     atom   44 type  1   force =     0.00031815   -0.00024607    0.00013896
     atom   45 type  2   force =     0.00004854   -0.00006367    0.10311688
     atom   46 type  2   force =    -0.07164242   -0.00008797   -0.02784312
     atom   47 type  2   force =     0.07157550    0.00033602   -0.02791866
     atom   48 type  3   force =    -0.00050842    0.00018865    0.00000753
     atom   49 type  4   force =     0.00040078   -0.00045884   -0.00035698
     atom   50 type  5   force =     0.00142659    0.00038402   -0.00015774
     atom   51 type  3   force =    -0.00055913   -0.00121303   -0.00037657
     atom   52 type  3   force =     0.00028721    0.00066749   -0.00006906
     atom   53 type  3   force =    -0.00039430   -0.00017051    0.00026150

     Total force =     0.368389     Total SCF correction =     0.000483
  @ DRIVER MODE: Message from server: STATUS
  @ DRIVER MODE: Message from server: GETFORCE
  @ DRIVER MODE: Returning v,forces,stress,ensemble

     Writing output data file ./calc.save/
  @ DRIVER MODE: Message from server: EXIT
  @ DRIVE MODE: Exiting

     General routines

     Parallel routines

   This run was terminated on:  16:53:57  15Jul2021

   JOB DONE.