     Program PWSCF v.6.7GPU starts on 14Sep2021 at 18: 4:56

     R & G space division:  proc/nbgrp/npool/nimage =      10
     Reading input from /storage/home/hcoda1/3/ntian30/research/carbon/CxH_vib/CH_calc/ads_slab/CHOHN2_a/out_0013/pw.inp
Warning: card &CELL ignored
Warning: card   CELL_DYNAMICS='IPI', ignored
Warning: card / ignored

     Current dimensions of program PWSCF are:
     Max number of different atomic species (ntypx) = 10
     Max number of k-points (npk) =  40000
     Max angular momentum in pseudopotentials (lmaxx) =  3
     Presently no symmetry can be used with electric field

     Message from routine cell_base_init:
     DEPRECATED: use true lattice parameter, not A to a.u. conversion factor

     IMPORTANT: XC functional enforced from input :
     Exchange-correlation= BEEF-VDW
                           (   1   4  43  14   2   0   0)
     Any further DFT definition will be discarded
     Please, verify this is what you really want

  @ DRIVER MODE: Connecting to
 qe_1139763_2840439.sched-torque.pace.gatech.edu50q99pvc_scratch
  using UNIX socket
  @ DRIVER MODE: Message from server: STATUS
  @ DRIVER MODE: Message from server: INIT
  @ DRIVER MODE: Receiving replica           0          -1
  @ DRIVER MODE: Receiving encoded integer          25
  @ DRIVER MODE:  SCF:  T  FORCE:  T  STRESS:  F  VC:  F  ENSEMBLE:  F
  @ DRIVER MODE:  SCF:  T  FORCE:  T  STRESS:  F  VC:  F  ENSEMBLE:  F

     Using Slab Decomposition

     bravais-lattice index     =            0
     lattice parameter (alat)  =       1.8897  a.u.
     unit-cell volume          =    6658.9804 (a.u.)^3
     number of atoms/cell      =           53
     number of atomic types    =            5
     number of electrons       =       400.00
     number of Kohn-Sham states=          210
     kinetic-energy cutoff     =      29.3995  Ry
     charge density cutoff     =     293.9946  Ry
     scf convergence threshold =      7.3E-08
     mixing beta               =       0.0500
     number of iterations used =            8  plain     mixing
     Exchange-correlation= BEEF-VDW
                           (   1   4  43  14   2   0   0)

     celldm(1)=   1.889726  celldm(2)=   0.000000  celldm(3)=   0.000000
     celldm(4)=   0.000000  celldm(5)=   0.000000  celldm(6)=   0.000000

     crystal axes: (cart. coord. in units of alat)
               a(1) = (   6.579727   0.000000   0.000000 )
               a(2) = (  -0.000775   5.961596   0.000000 )
               a(3) = (   0.000000   0.000000  25.155947 )

     reciprocal axes: (cart. coord. in units 2 pi/alat)
               b(1) = (  0.151982  0.000020  0.000000 )
               b(2) = (  0.000000  0.167740  0.000000 )
               b(3) = (  0.000000  0.000000  0.039752 )

     PseudoPot. # 1 for C  read from file:
     /storage/coda1/p-amedford6/0/shared/rich_project_chbe-medford/medford-share/data/pseudos_module/espresso/nninc/pbe/van/C.UPF
     MD5 check sum: 1a69bf6b8db32088f5b2163dbdb77a27
     Pseudo is Ultrasoft, Zval =  4.0
     Generated by new atomic code, or converted to UPF format
     Using radial grid of  721 points,  4 beta functions with:
                l(1) =   0
                l(2) =   0
                l(3) =   1
                l(4) =   1
     Q(r) pseudized with  8 coefficients,  rinner =    0.800   0.800   0.800

     PseudoPot. # 2 for H  read from file:
     /storage/coda1/p-amedford6/0/shared/rich_project_chbe-medford/medford-share/data/pseudos_module/espresso/nninc/pbe/van/H.UPF
     MD5 check sum: b5ee9d7bfd3a09ee7748110bda690ff7
     Pseudo is Ultrasoft, Zval =  1.0
     Generated by new atomic code, or converted to UPF format
     Using radial grid of  615 points,  1 beta functions with:
                l(1) =   0
     Q(r) pseudized with  8 coefficients,  rinner =    0.800

     PseudoPot. # 3 for O  read from file:
     /storage/coda1/p-amedford6/0/shared/rich_project_chbe-medford/medford-share/data/pseudos_module/espresso/nninc/pbe/van/O.UPF
     MD5 check sum: 78c19812648e8988a0fe644b0f25305e
     Pseudo is Ultrasoft, Zval =  6.0
     Generated by new atomic code, or converted to UPF format
     Using radial grid of  737 points,  4 beta functions with:
                l(1) =   0
                l(2) =   0
                l(3) =   1
                l(4) =   1
     Q(r) pseudized with  8 coefficients,  rinner =    0.800   0.800   0.800

     PseudoPot. # 4 for Ti read from file:
     /storage/coda1/p-amedford6/0/shared/rich_project_chbe-medford/medford-share/data/pseudos_module/espresso/nninc/pbe/van/Ti.UPF
     MD5 check sum: 8e4df49b7f0d34bbd5052bf3f5ea0213
     Pseudo is Ultrasoft, Zval = 12.0
     Generated by new atomic code, or converted to UPF format
     Using radial grid of  851 points,  6 beta functions with:
                l(1) =   0
                l(2) =   0
                l(3) =   1
                l(4) =   1
                l(5) =   2
                l(6) =   2
     Q(r) pseudized with  8 coefficients,  rinner =    1.000   1.000   1.000
                                                       1.000   1.000

     PseudoPot. # 5 for N  read from file:
     /storage/coda1/p-amedford6/0/shared/rich_project_chbe-medford/medford-share/data/pseudos_module/espresso/nninc/pbe/van/N.UPF
     MD5 check sum: 90d10febe142ad51ac9d5be1deb811c4
     Pseudo is Ultrasoft, Zval =  5.0
     Generated by new atomic code, or converted to UPF format
     Using radial grid of  729 points,  4 beta functions with:
                l(1) =   0
                l(2) =   0
                l(3) =   1
                l(4) =   1
     Q(r) pseudized with  8 coefficients,  rinner =    0.800   0.800   0.800

     atomic species   valence    mass     pseudopotential
        C1             4.00    12.01100     C ( 1.00)
        H1             1.00     1.00800     H ( 1.00)
        O1             6.00    15.99900     O ( 1.00)
        Ti1           12.00    47.86700     Ti( 1.00)
        N1             5.00    14.00700     N ( 1.00)

     No symmetry found

   Cartesian axes

     site n.     atom                  positions (alat units)
         1           C1  tau(   1) = (   5.6818245   3.0934261  18.8613826  )
         2           H1  tau(   2) = (   0.9295697   3.0331078  18.1055300  )
         3           H1  tau(   3) = (   5.3049293   4.0639705  19.1352297  )
         4           O1  tau(   4) = (   3.2904802   0.0005063   4.7018136  )
         5           O1  tau(   5) = (   3.2900926   2.9813045   4.7018136  )
         6           O1  tau(   6) = (   1.3043587   1.4918075   6.0039043  )
         7           O1  tau(   7) = (   1.3039711   4.4726057   6.0039043  )
         8           O1  tau(   8) = (   5.2767064   1.4903225   6.0039473  )
         9           O1  tau(   9) = (   5.2763189   4.4711207   6.0039473  )
        10           O1  tau(  10) = (   3.2906025   0.0005020   7.3038282  )
        11           O1  tau(  11) = (   3.2902150   2.9813002   7.3038282  )
        12           O1  tau(  12) = (   0.0006271   0.0005054   7.9858123  )
        13           O1  tau(  13) = (   0.0002396   2.9813036   7.9858123  )
        14           O1  tau(  14) = (   4.5942328   1.4918067   9.2879030  )
        15           O1  tau(  15) = (   4.5938453   4.4726049   9.2879030  )
        16           O1  tau(  16) = (   1.9868534   1.4903216   9.2879459  )
        17           O1  tau(  17) = (   1.9864658   4.4711199   9.2879459  )
        18           O1  tau(  18) = (   6.5737290   0.0025997  10.6073112  )
        19           O1  tau(  19) = (   6.5745157   2.9846488  10.6292520  )
        20           O1  tau(  20) = (   3.2733922   2.9888808  11.3669225  )
        21           O1  tau(  21) = (   3.2734535   0.0083669  11.3733985  )
        22           O1  tau(  22) = (   1.2686495   4.4776606  12.6533150  )
        23           O1  tau(  23) = (   1.2691242   1.4995788  12.6525255  )
        24           O1  tau(  24) = (   5.2697113   4.4789153  12.6558726  )
        25           O1  tau(  25) = (   5.2698035   1.4991558  12.6558074  )
        26           O1  tau(  26) = (   3.2614338   2.9920807  13.9552461  )
        27           O1  tau(  27) = (   3.2541646   0.0113981  14.0020514  )
        28           O1  tau(  28) = (   6.5688946   0.0096870  14.6775192  )
        29           O1  tau(  29) = (   6.5667413   2.9928499  14.8718366  )
        30           O1  tau(  30) = (   4.5340645   4.4751187  16.1466513  )
        31           O1  tau(  31) = (   4.5349815   1.5188077  16.1513287  )
        32           O1  tau(  32) = (   2.0116004   1.5352794  16.1924295  )
        33           O1  tau(  33) = (   2.0125852   4.4566501  16.1924965  )
        34           O1  tau(  34) = (   6.5583959   0.0051910  17.1951124  )
        35           O1  tau(  35) = (   0.0128280   2.9917589  17.7791131  )
        36           Ti1 tau(  36) = (   0.0004258   2.9801865   6.0000000  )
        37           Ti1 tau(  37) = (   0.0000382   5.9609847   6.0000000  )
        38           Ti1 tau(  38) = (   3.2906075   1.4906267   6.0002472  )
        39           Ti1 tau(  39) = (   3.2902200   4.4714249   6.0002472  )
        40           Ti1 tau(  40) = (   3.3204229   0.0006979   9.1540291  )
        41           Ti1 tau(  41) = (   3.3226256   2.9815539   9.1563990  )
        42           Ti1 tau(  42) = (   0.0414996   4.4578595   9.2720048  )
        43           Ti1 tau(  43) = (   0.0419130   1.4910583   9.2667342  )
        44           Ti1 tau(  44) = (   6.5463313   0.0151476  12.4833176  )
        45           Ti1 tau(  45) = (   3.2510826   4.4792010  12.5152252  )
        46           Ti1 tau(  46) = (   3.2519543   1.5009035  12.5151888  )
        47           Ti1 tau(  47) = (   6.5510796   2.9946678  12.5453677  )
        48           Ti1 tau(  48) = (   3.2768179   2.9983465  15.7429562  )
        49           Ti1 tau(  49) = (   3.2517467   0.0179395  15.7976682  )
        50           Ti1 tau(  50) = (   6.5307926   4.5826425  15.9111250  )
        51           Ti1 tau(  51) = (   6.5448107   1.3670631  15.9596882  )
        52           N1  tau(  52) = (   4.6962475   1.0170953  19.6889386  )
        53           N1  tau(  53) = (   5.1479752   2.0001232  19.2934520  )

     number of k points=    10  Fermi-Dirac smearing, width (Ry)=  0.0073
                       cart. coord. in units 2pi/alat
        k(    1) = (   0.0000000   0.0000000   0.0000000), wk =   0.1250000
        k(    2) = (   0.0000000   0.0419351   0.0000000), wk =   0.2500000
        k(    3) = (   0.0000000  -0.0838702   0.0000000), wk =   0.1250000
        k(    4) = (   0.0379955   0.0000049   0.0000000), wk =   0.2500000
        k(    5) = (   0.0379955   0.0419400   0.0000000), wk =   0.2500000
        k(    6) = (   0.0379955  -0.0838652   0.0000000), wk =   0.2500000
        k(    7) = (   0.0379955  -0.0419301   0.0000000), wk =   0.2500000
        k(    8) = (  -0.0759910  -0.0000099   0.0000000), wk =   0.1250000
        k(    9) = (  -0.0759910   0.0419252   0.0000000), wk =   0.2500000
        k(   10) = (  -0.0759910  -0.0838800   0.0000000), wk =   0.1250000

     Initial potential from superposition of free atoms

     starting charge  383.99917, renormalised to  400.00000

     negative rho (up, down):  1.646E-02 0.000E+00

     %%%%%%%%%%%%%%%%%%%%%%%%%%%%%%%%%%%%%%%%%%%%%%%%%%%%%%%%%%%%%%%%%%%%%%%%
     %                                                                      %
     % You are using vdW-DF, which was implemented by the Thonhauser group. %
     % Please cite the following two papers that made this development      %
     % possible and the two reviews that describe the various versions:     %
     %                                                                      %
     %   T. Thonhauser et al., PRL 115, 136402 (2015).                      %
     %   T. Thonhauser et al., PRB 76, 125112 (2007).                       %
     %   K. Berland et al., Rep. Prog. Phys. 78, 066501 (2015).             %
     %   D.C. Langreth et al., J. Phys.: Condens. Matter 21, 084203 (2009). %
     %                                                                      %
     %                                                                      %
     % If you are calculating the stress with vdW-DF, please also cite:     %
     %                                                                      %
     %   R. Sabatini et al., J. Phys.: Condens. Matter 24, 424209 (2012).   %
     %                                                                      %
     %%%%%%%%%%%%%%%%%%%%%%%%%%%%%%%%%%%%%%%%%%%%%%%%%%%%%%%%%%%%%%%%%%%%%%%%

     Adding external electric field

     Computed dipole along edir(3) :
        Dipole              -12.5100 Ry au,        -31.7972 Debye
        Dipole field         -0.0236 Ry au,

        Potential amp.        2.1884 Ry
        Total length         46.3494 bohr

     Starting wfcs are  302 atomic wfcs
  @ DRIVER MODE: Message from server: STATUS
  @ DRIVER MODE: Message from server: POSDATA
  @ DRIVER MODE: Reading and sharing cell
  @ DRIVER MODE: Reading and sharing positions
  @ DRIVER MODE: Received positions

     Self-consistent Calculation

     iteration #  1     ecut=    29.40 Ry     beta= 0.05
     Davidson diagonalization with overlap
     c_bands:  3 eigenvalues not converged
     c_bands:  1 eigenvalues not converged
     c_bands:  4 eigenvalues not converged
     c_bands:  3 eigenvalues not converged
     c_bands:  5 eigenvalues not converged
     c_bands:  5 eigenvalues not converged
     c_bands:  2 eigenvalues not converged
     c_bands:  1 eigenvalues not converged
     ethr =  1.00E-05,  avg # of iterations = 20.9

[...]

     total energy              =   -2397.10317507 Ry
     estimated scf accuracy    <    6493.70257429 Ry

     iteration #  2     ecut=    29.40 Ry     beta= 0.05
     Davidson diagonalization with overlap
     ethr =  1.00E-02,  avg # of iterations = 23.3

[...]

     iteration # 52     ecut=    29.40 Ry     beta= 0.05
     Davidson diagonalization with overlap
     c_bands:  1 eigenvalues not converged
     c_bands:  1 eigenvalues not converged
     ethr =  6.88E-09,  avg # of iterations = 16.2

[...]

     total energy              =   -2970.16555805 Ry
     estimated scf accuracy    <       0.00000014 Ry

     iteration # 63     ecut=    29.40 Ry     beta= 0.05
     Davidson diagonalization with overlap
     ethr =  3.58E-11,  avg # of iterations = 11.1

     negative rho (up, down):  1.634E-02 0.000E+00

     Adding external electric field

     Computed dipole along edir(3) :
        Dipole                0.8229 Ry au,          2.0916 Debye
        Dipole field          0.0016 Ry au,

        Potential amp.       -0.1440 Ry
        Total length         46.3494 bohr

     End of self-consistent calculation

          k = 0.0000 0.0000 0.0000 ( 18029 PWs)   bands (ev):

   -55.5649 -55.5344 -55.5288 -55.5000 -55.4610 -55.4544 -55.4413 -55.4081
   -55.4029 -55.3881 -55.3686 -55.3610 -55.3478 -55.3139 -54.6277 -54.5936
   -32.1350 -32.0654 -32.0298 -31.9383 -31.8845 -31.8783 -31.8750 -31.8573
   -31.8228 -31.8135 -31.7771 -31.7759 -31.7695 -31.7487 -31.7406 -31.7185
   -31.7155 -31.6998 -31.6911 -31.6886 -31.6861 -31.6800 -31.6595 -31.6506
   -31.6497 -31.6315 -31.6301 -31.6024 -31.5944 -31.5917 -31.5760 -31.5538
   -31.5533 -31.5516 -31.5432 -31.5323 -31.5289 -31.5018 -31.4920 -31.4829
   -31.4708 -31.4584 -31.0398 -30.9370 -30.9154 -30.8563 -30.7699 -30.6587
   -21.0973 -20.2993 -16.3898 -16.1339 -15.9868 -15.8880 -15.7825 -15.6461
   -15.6104 -15.5036 -15.3738 -15.2911 -15.2517 -15.2261 -15.2121 -15.1924
   -15.1845 -15.1746 -15.1219 -15.0923 -15.0673 -15.0532 -15.0450 -15.0098
   -14.9544 -14.9476 -14.9317 -14.7938 -14.7260 -14.6664 -14.3622 -14.2538
   -13.1280 -13.0085  -8.5283  -6.8012  -5.6625  -4.5338  -4.0277  -3.7459
    -3.7177  -3.5724  -3.4978  -3.4795  -3.4286  -3.3092  -3.1576  -2.9957
    -2.9108  -2.8482  -2.8204  -2.7703  -2.7310  -2.6996  -2.5274  -2.5125
    -2.4826  -2.4565  -2.4394  -2.4328  -2.4022  -2.3415  -2.3112  -2.3030
    -2.2795  -2.1481  -2.1297  -2.0338  -1.9905  -1.9618  -1.9029  -1.8887
    -1.8837  -1.8537  -1.8329  -1.8193  -1.8149  -1.7770  -1.5917  -1.5900
    -1.4714  -1.4301  -1.3457  -1.2923  -1.1246  -1.1221  -1.0698  -1.0491
    -1.0101  -0.9701  -0.9643  -0.9230  -0.8081  -0.7223  -0.6747  -0.6041
    -0.5654  -0.5012  -0.4653  -0.3621  -0.3530  -0.3399  -0.3222  -0.2020
    -0.1354  -0.0953  -0.0642  -0.0186  -0.0059   0.0928   0.1130   0.1926
     0.1995   0.2572   0.2598   0.3631   0.3812   0.3824   0.4079   0.4277
     0.5149   0.5861   0.5911   0.6061   0.7756   0.9653   0.9931   1.0359
     1.2859   1.3883   1.3987   1.5344   1.5576   1.9855   2.0409   3.5309
     3.5991   3.6384   3.6558   3.6709   3.7380   3.9939   4.0207   4.0387
     4.0543   4.0624

[...]

          k = 0.0380-0.0419 0.0000 ( 17876 PWs)   bands (ev):

[...]

          k =-0.0760-0.0000 0.0000 ( 17886 PWs)   bands (ev):

[...]

          k =-0.0760-0.0839 0.0000 ( 17948 PWs)   bands (ev):

   -55.5472 -55.5463 -55.5191 -55.5152 -55.4576 -55.4468 -55.4347 -55.4156
   -55.3950 -55.3866 -55.3846 -55.3639 -55.3318 -55.3300 -54.6106 -54.6105
   -31.9863 -31.9387 -31.9373 -31.8577 -31.8466 -31.8428 -31.8244 -31.8120
   -31.8043 -31.7838 -31.7675 -31.7653 -31.7607 -31.7209 -31.7174 -31.7078
   -31.7033 -31.7023 -31.6928 -31.6874 -31.6866 -31.6859 -31.6737 -31.6506
   -31.6479 -31.6471 -31.6445 -31.6420 -31.6380 -31.6358 -31.6333 -31.6077
   -31.6058 -31.5957 -31.5851 -31.5845 -31.5727 -31.5571 -31.5556 -31.5447
   -31.5179 -31.5151 -30.9280 -30.9280 -30.8525 -30.8524 -30.8131 -30.8131
   -21.0952 -20.2989 -15.9421 -15.8058 -15.7458 -15.5688 -15.5609 -15.5535
   -15.5296 -15.3974 -15.3749 -15.3662 -15.3261 -15.3171 -15.3021 -15.2850
   -15.2611 -15.1575 -15.1555 -15.1469 -15.1442 -15.0824 -15.0791 -15.0644
   -15.0479 -15.0080 -15.0074 -14.9944 -14.9904 -14.8244 -14.7255 -14.2612
   -13.1098 -13.1091  -8.5182  -6.8053  -5.6698  -4.5141  -3.9986  -3.6481
    -3.0833  -3.0389  -3.0077  -2.7826  -2.7674  -2.7283  -2.6937  -2.6363
    -2.5626  -2.5511  -2.5471  -2.4789  -2.4716  -2.4610  -2.4570  -2.4433
    -2.3925  -2.3906  -2.3552  -2.3488  -2.3027  -2.2729  -2.2618  -2.2346
    -2.2271  -2.2259  -2.2055  -2.1886  -2.1738  -2.1685  -2.0570  -2.0064
    -1.9234  -1.8963  -1.8059  -1.7910  -1.7762  -1.6987  -1.6632  -1.6404
    -1.5791  -1.5769  -1.5023  -1.3838  -1.3625  -1.3552  -1.2826  -1.2256
    -1.1953  -1.1524  -1.1010  -1.0436  -1.0304  -0.9463  -0.8930  -0.8738
    -0.7679  -0.7557  -0.7039  -0.5947  -0.5615  -0.5590  -0.5547  -0.5433
    -0.4658  -0.4481  -0.3994  -0.3586  -0.3098  -0.2849  -0.2646  -0.0643
    -0.0508   0.0193   0.1205   0.1601   0.3309   0.3516   0.3852   0.4570
     0.5020   0.5140   0.5973   0.7071   0.7125   0.7489   0.8224   0.8612
     0.8697   0.9083   1.4870   1.7504   1.7511   1.8546   1.8577   3.6817
     3.7693   3.7846   3.8157   3.8632   3.9549   4.0395   4.0568   4.0838
     4.0922   4.1665

     the Fermi energy is     3.5868 ev

!    total energy              =   -2970.16559703 Ry
     estimated scf accuracy    <       0.00000005 Ry
     smearing contrib. (-TS)   =      -0.03779932 Ry
     internal energy E=F+TS    =   -2970.12779772 Ry

     The total energy is F=E-TS. E is the sum of the following terms:
     one-electron contribution =  -23546.59730590 Ry
     hartree contribution      =   11865.05480815 Ry
     xc contribution           =    -491.70565694 Ry
     ewald contribution        =    9203.11907912 Ry
     electric field correction =       0.00127786 Ry

     convergence has been achieved in  63 iterations

     Forces acting on atoms (cartesian axes, Ry/au):

     atom    1 type  1   force =     0.00046899   -0.00004165    0.00079607
     atom    2 type  2   force =     0.00070513   -0.00000961    0.00005710
     atom    3 type  2   force =     0.00004842   -0.00033021   -0.00021536
     atom    4 type  3   force =     0.00006051   -0.00000102    0.10504266
     atom    5 type  3   force =     0.00003989    0.00002429    0.10503638
     atom    6 type  3   force =    -0.06778971   -0.00002148   -0.02685255
     atom    7 type  3   force =    -0.06782890   -0.00059022   -0.02688532
     atom    8 type  3   force =     0.06765924    0.00042490   -0.02691044
     atom    9 type  3   force =     0.06769506   -0.00015687   -0.02694538
     atom   10 type  3   force =     0.00071813    0.00002161    0.05053069
     atom   11 type  3   force =     0.00077229    0.00000918    0.05060050
     atom   12 type  3   force =     0.00060420   -0.00003559   -0.02310591
     atom   13 type  3   force =     0.00057138   -0.00016988   -0.02184085
     atom   14 type  3   force =    -0.01559496   -0.00017884    0.00501348
     atom   15 type  3   force =    -0.01566040    0.00007997    0.00498468
     atom   16 type  3   force =     0.01436225    0.00025637    0.00479300
     atom   17 type  3   force =     0.01443978    0.00059018    0.00479925
     atom   18 type  3   force =    -0.00008357    0.00000617   -0.00007848
     atom   19 type  3   force =    -0.00014396   -0.00000665   -0.00019617
     atom   20 type  3   force =    -0.00011652    0.00007239   -0.00007102
     atom   21 type  3   force =     0.00005153   -0.00011858    0.00011616
     atom   22 type  3   force =     0.00021947    0.00025864   -0.00003536
     atom   23 type  3   force =    -0.00000192    0.00003809    0.00006422
     atom   24 type  3   force =    -0.00021085    0.00012620    0.00026146
     atom   25 type  3   force =     0.00007000   -0.00011249    0.00009206
     atom   26 type  3   force =     0.00033310   -0.00013391    0.00004973
     atom   27 type  3   force =     0.00003544    0.00016626   -0.00010109
     atom   28 type  3   force =    -0.00072706    0.00025421   -0.00000770
     atom   29 type  3   force =     0.00009945    0.00003724    0.00025938
     atom   30 type  3   force =     0.00041835   -0.00013319   -0.00001057
     atom   31 type  3   force =     0.00034941   -0.00004600    0.00020352
     atom   32 type  3   force =     0.00031680   -0.00024745   -0.00008548
     atom   33 type  3   force =     0.00083701   -0.00007870   -0.00038645
     atom   34 type  3   force =    -0.00029070   -0.00006014   -0.00000268
     atom   35 type  3   force =    -0.00110710    0.00008058   -0.00091561
     atom   36 type  4   force =    -0.00021829    0.00011991    0.09294885
     atom   37 type  4   force =    -0.00017188   -0.00011538    0.09677862
     atom   38 type  4   force =    -0.00010198    0.00037088   -0.18355495
     atom   39 type  4   force =    -0.00004884   -0.00058839   -0.18368309
     atom   40 type  4   force =     0.00001301    0.00004150    0.00018133
     atom   41 type  4   force =     0.00016502   -0.00002843    0.00008465
     atom   42 type  4   force =    -0.00035999    0.00010660   -0.00012729
     atom   43 type  4   force =    -0.00022730    0.00030743    0.00014672
     atom   44 type  4   force =     0.00027987    0.00014234    0.00033890
     atom   45 type  4   force =    -0.00019373    0.00002129    0.00022690
     atom   46 type  4   force =    -0.00011297    0.00008916    0.00020285
     atom   47 type  4   force =     0.00003460   -0.00013682   -0.00014224
     atom   48 type  4   force =    -0.00218880   -0.00039064   -0.00018290
     atom   49 type  4   force =    -0.00231492    0.00011576    0.00007982
     atom   50 type  4   force =     0.00324326   -0.00033039   -0.00034152
     atom   51 type  4   force =     0.00090113   -0.00044663   -0.00044714
     atom   52 type  5   force =    -0.00104175   -0.00058090   -0.00085110
     atom   53 type  5   force =     0.00102337    0.00132892    0.00028765

     Total force =     0.368669     Total SCF correction =     0.000492
  @ DRIVER MODE: Message from server: STATUS
  @ DRIVER MODE: Message from server: GETFORCE
  @ DRIVER MODE: Returning v,forces,stress,ensemble

     Writing output data file ./calc.save/
  @ DRIVER MODE: Message from server: EXIT
  @ DRIVE MODE: Exiting

     General routines

     Parallel routines

   This run was terminated on:  18:22:41  14Sep2021

   JOB DONE.