     Program PWSCF v.6.7GPU starts on 24Aug2021 at 10:59:58

     R & G space division:  proc/nbgrp/npool/nimage =      72
     Reading input from /storage/home/hcoda1/3/ntian30/research/carbon/CH2_vib/ads_slab/CH2N_a/out_0004/pw.inp
Warning: card &CELL ignored
Warning: card   CELL_DYNAMICS='IPI', ignored
Warning: card / ignored

     Current dimensions of program PWSCF are:
     Max number of different atomic species (ntypx) = 10
     Max number of k-points (npk) =  40000
     Max angular momentum in pseudopotentials (lmaxx) =  3
     Presently no symmetry can be used with electric field

     Message from routine cell_base_init:
     DEPRECATED: use true lattice parameter, not A to a.u. conversion factor

     IMPORTANT: XC functional enforced from input :
     Exchange-correlation= BEEF-VDW
                           (   1   4  43  14   2   0   0)
     Any further DFT definition will be discarded
     Please, verify this is what you really want

  @ DRIVER MODE: Connecting to
 qe_1139763_2641441.sched-torque.pace.gatech.edum505jrwc_scratch
  using UNIX socket
  @ DRIVER MODE: Message from server: STATUS
  @ DRIVER MODE: Message from server: INIT
  @ DRIVER MODE: Receiving replica           0          -1
  @ DRIVER MODE: Receiving encoded integer          25
  @ DRIVER MODE:  SCF:  T  FORCE:  T  STRESS:  F  VC:  F  ENSEMBLE:  F
  @ DRIVER MODE:  SCF:  T  FORCE:  T  STRESS:  F  VC:  F  ENSEMBLE:  F

     Using Slab Decomposition

     bravais-lattice index     =            0
     lattice parameter (alat)  =       1.8897  a.u.
     unit-cell volume          =    6658.9804 (a.u.)^3
     number of atoms/cell      =           51
     number of atomic types    =            5
     number of electrons       =       389.00
     number of Kohn-Sham states=          204
     kinetic-energy cutoff     =      29.3995  Ry
     charge density cutoff     =     293.9946  Ry
     scf convergence threshold =      7.3E-08
     mixing beta               =       0.0500
     number of iterations used =            8  plain     mixing
     Exchange-correlation= BEEF-VDW
                           (   1   4  43  14   2   0   0)

     celldm(1)=   1.889726  celldm(2)=   0.000000  celldm(3)=   0.000000
     celldm(4)=   0.000000  celldm(5)=   0.000000  celldm(6)=   0.000000

     crystal axes: (cart. coord. in units of alat)
               a(1) = (   6.579727   0.000000   0.000000 )
               a(2) = (  -0.000775   5.961596   0.000000 )
               a(3) = (   0.000000   0.000000  25.155947 )

     reciprocal axes: (cart. coord. in units 2 pi/alat)
               b(1) = (  0.151982  0.000020  0.000000 )
               b(2) = (  0.000000  0.167740  0.000000 )
               b(3) = (  0.000000  0.000000  0.039752 )

     PseudoPot. # 1 for Ti read from file:
     /storage/coda1/p-amedford6/0/shared/rich_project_chbe-medford/medford-share/data/pseudos_module/espresso/nninc/pbe/van/Ti.UPF
     MD5 check sum: 8e4df49b7f0d34bbd5052bf3f5ea0213
     Pseudo is Ultrasoft, Zval = 12.0
     Generated by new atomic code, or converted to UPF format
     Using radial grid of  851 points,  6 beta functions with:
                l(1) =   0
                l(2) =   0
                l(3) =   1
                l(4) =   1
                l(5) =   2
                l(6) =   2
     Q(r) pseudized with  8 coefficients,  rinner =    1.000   1.000   1.000
                                                       1.000   1.000

     PseudoPot. # 2 for O  read from file:
     /storage/coda1/p-amedford6/0/shared/rich_project_chbe-medford/medford-share/data/pseudos_module/espresso/nninc/pbe/van/O.UPF
     MD5 check sum: 78c19812648e8988a0fe644b0f25305e
     Pseudo is Ultrasoft, Zval =  6.0
     Generated by new atomic code, or converted to UPF format
     Using radial grid of  737 points,  4 beta functions with:
                l(1) =   0
                l(2) =   0
                l(3) =   1
                l(4) =   1
     Q(r) pseudized with  8 coefficients,  rinner =    0.800   0.800   0.800

     PseudoPot. # 3 for N  read from file:
     /storage/coda1/p-amedford6/0/shared/rich_project_chbe-medford/medford-share/data/pseudos_module/espresso/nninc/pbe/van/N.UPF
     MD5 check sum: 90d10febe142ad51ac9d5be1deb811c4
     Pseudo is Ultrasoft, Zval =  5.0
     Generated by new atomic code, or converted to UPF format
     Using radial grid of  729 points,  4 beta functions with:
                l(1) =   0
                l(2) =   0
                l(3) =   1
                l(4) =   1
     Q(r) pseudized with  8 coefficients,  rinner =    0.800   0.800   0.800

     PseudoPot. # 4 for C  read from file:
     /storage/coda1/p-amedford6/0/shared/rich_project_chbe-medford/medford-share/data/pseudos_module/espresso/nninc/pbe/van/C.UPF
     MD5 check sum: 1a69bf6b8db32088f5b2163dbdb77a27
     Pseudo is Ultrasoft, Zval =  4.0
     Generated by new atomic code, or converted to UPF format
     Using radial grid of  721 points,  4 beta functions with:
                l(1) =   0
                l(2) =   0
                l(3) =   1
                l(4) =   1
     Q(r) pseudized with  8 coefficients,  rinner =    0.800   0.800   0.800

     PseudoPot. # 5 for H  read from file:
     /storage/coda1/p-amedford6/0/shared/rich_project_chbe-medford/medford-share/data/pseudos_module/espresso/nninc/pbe/van/H.UPF
     MD5 check sum: b5ee9d7bfd3a09ee7748110bda690ff7
     Pseudo is Ultrasoft, Zval =  1.0
     Generated by new atomic code, or converted to UPF format
     Using radial grid of  615 points,  1 beta functions with:
                l(1) =   0
     Q(r) pseudized with  8 coefficients,  rinner =    0.800

     atomic species   valence    mass     pseudopotential
        Ti1           12.00    47.86700     Ti( 1.00)
        O1             6.00    15.99900     O ( 1.00)
        N1             5.00    14.00700     N ( 1.00)
        C1             4.00    12.01100     C ( 1.00)
        H1             1.00     1.00800     H ( 1.00)

     No symmetry found

   Cartesian axes

     site n.     atom                  positions (alat units)
         1           Ti1 tau(   1) = (   0.0004258   2.9801865   6.0000000  )
         2           Ti1 tau(   2) = (   3.2906075   1.4906267   6.0002472  )
         3           O1  tau(   3) = (   0.0006271   0.0005054   7.9858123  )
         4           O1  tau(   4) = (   3.2906025   0.0005020   7.3038282  )
         5           O1  tau(   5) = (   4.5942328   1.4918067   9.2879030  )
         6           O1  tau(   6) = (   1.9868534   1.4903216   9.2879459  )
         7           Ti1 tau(   7) = (   3.2907910   2.8959150   9.1758416  )
         8           Ti1 tau(   8) = (   0.0015273   1.4827037   9.2680791  )
         9           O1  tau(   9) = (   3.3121109   0.0111249  11.3310253  )
        10           O1  tau(  10) = (   0.0116148   5.9584955  10.6183126  )
        11           O1  tau(  11) = (   1.3329579   1.5011098  12.6063046  )
        12           O1  tau(  12) = (   5.3158149   1.4916659  12.6245769  )
        13           Ti1 tau(  13) = (   6.5431557   2.9598450  12.6156978  )
        14           Ti1 tau(  14) = (   3.2273839   1.5049138  12.4779161  )
        15           O1  tau(  15) = (   0.0471551   0.0364395  14.6528705  )
        16           O1  tau(  16) = (   3.3160098   0.0207640  13.9215624  )
        17           O1  tau(  17) = (   4.5810600   1.5471256  16.0564497  )
        18           O1  tau(  18) = (   2.0947546   1.5446786  16.0656860  )
        19           Ti1 tau(  19) = (   3.3354243   3.0239694  15.7034691  )
        20           Ti1 tau(  20) = (   0.0419518   1.5622418  15.8401859  )
        21           O1  tau(  21) = (   3.2904802   0.0005063   4.7018136  )
        22           O1  tau(  22) = (   0.0415632   0.0558952  17.2248266  )
        23           O1  tau(  23) = (   1.3043587   1.4918075   6.0039043  )
        24           O1  tau(  24) = (   5.2767064   1.4903225   6.0039473  )
        25           Ti1 tau(  25) = (   0.0000382   5.9609847   6.0000000  )
        26           Ti1 tau(  26) = (   3.2902200   4.4714249   6.0002472  )
        27           O1  tau(  27) = (   0.0002396   2.9813036   7.9858123  )
        28           O1  tau(  28) = (   3.2902150   2.9813002   7.3038282  )
        29           O1  tau(  29) = (   4.5938453   4.4726049   9.2879030  )
        30           O1  tau(  30) = (   1.9864658   4.4711199   9.2879459  )
        31           Ti1 tau(  31) = (   3.2891106   5.8743827   9.1763621  )
        32           Ti1 tau(  32) = (   0.0006254   4.4649316   9.2693709  )
        33           O1  tau(  33) = (   3.3101407   2.9955762  11.3294870  )
        34           O1  tau(  34) = (   0.0092240   2.9805883  10.6323155  )
        35           O1  tau(  35) = (   1.3272401   4.4878838  12.6173354  )
        36           O1  tau(  36) = (   5.3164082   4.4812184  12.6342743  )
        37           Ti1 tau(  37) = (   6.5430856   5.9365306  12.5602028  )
        38           Ti1 tau(  38) = (   3.2246414   4.4845729  12.4831641  )
        39           O1  tau(  39) = (   0.0420920   2.9623338  14.6463429  )
        40           O1  tau(  40) = (   3.3182946   3.0055568  13.9055467  )
        41           O1  tau(  41) = (   4.5797692   4.5125808  16.0776662  )
        42           O1  tau(  42) = (   2.0972274   4.5146901  16.0918111  )
        43           Ti1 tau(  43) = (   3.3319946   0.0399457  15.7186693  )
        44           Ti1 tau(  44) = (   0.0407629   4.6953510  16.1098173  )
        45           O1  tau(  45) = (   3.2900926   2.9813045   4.7018136  )
        46           O1  tau(  46) = (   1.3039711   4.4726057   6.0039043  )
        47           O1  tau(  47) = (   5.2763189   4.4711207   6.0039473  )
        48           N1  tau(  48) = (   0.0554023   3.0032257  17.3910969  )
        49           C1  tau(  49) = (   0.1090839   2.9222626  18.6472186  )
        50           H1  tau(  50) = (   0.1225839   3.8204711  19.2773028  )
        51           H1  tau(  51) = (   0.1417253   1.9549180  19.1625725  )

     number of k points=    10  Fermi-Dirac smearing, width (Ry)=  0.0073
                       cart. coord. in units 2pi/alat
        k(    1) = (   0.0000000   0.0000000   0.0000000), wk =   0.1250000
        k(    2) = (   0.0000000   0.0419351   0.0000000), wk =   0.2500000
        k(    3) = (   0.0000000  -0.0838702   0.0000000), wk =   0.1250000
        k(    4) = (   0.0379955   0.0000049   0.0000000), wk =   0.2500000
        k(    5) = (   0.0379955   0.0419400   0.0000000), wk =   0.2500000
        k(    6) = (   0.0379955  -0.0838652   0.0000000), wk =   0.2500000
        k(    7) = (   0.0379955  -0.0419301   0.0000000), wk =   0.2500000
        k(    8) = (  -0.0759910  -0.0000099   0.0000000), wk =   0.1250000
        k(    9) = (  -0.0759910   0.0419252   0.0000000), wk =   0.2500000
        k(   10) = (  -0.0759910  -0.0838800   0.0000000), wk =   0.1250000

     Initial potential from superposition of free atoms

     starting charge  372.99918, renormalised to  389.00000

     negative rho (up, down):  1.813E-02 0.000E+00

     %%%%%%%%%%%%%%%%%%%%%%%%%%%%%%%%%%%%%%%%%%%%%%%%%%%%%%%%%%%%%%%%%%%%%%%%
     %                                                                      %
     % You are using vdW-DF, which was implemented by the Thonhauser group. %
     % Please cite the following two papers that made this development      %
     % possible and the two reviews that describe the various versions:     %
     %                                                                      %
     %   T. Thonhauser et al., PRL 115, 136402 (2015).                      %
     %   T. Thonhauser et al., PRB 76, 125112 (2007).                       %
     %   K. Berland et al., Rep. Prog. Phys. 78, 066501 (2015).             %
     %   D.C. Langreth et al., J. Phys.: Condens. Matter 21, 084203 (2009). %
     %                                                                      %
     %                                                                      %
     % If you are calculating the stress with vdW-DF, please also cite:     %
     %                                                                      %
     %   R. Sabatini et al., J. Phys.: Condens. Matter 24, 424209 (2012).   %
     %                                                                      %
     %%%%%%%%%%%%%%%%%%%%%%%%%%%%%%%%%%%%%%%%%%%%%%%%%%%%%%%%%%%%%%%%%%%%%%%%

     Adding external electric field

     Computed dipole along edir(3) :
        Dipole               -4.6856 Ry au,        -11.9097 Debye
        Dipole field         -0.0088 Ry au,

        Potential amp.        0.8197 Ry
        Total length         46.3494 bohr

     Starting wfcs are  294 atomic wfcs
  @ DRIVER MODE: Message from server: STATUS
  @ DRIVER MODE: Message from server: POSDATA
  @ DRIVER MODE: Reading and sharing cell
  @ DRIVER MODE: Reading and sharing positions
  @ DRIVER MODE: Received positions

     Self-consistent Calculation

     iteration #  1     ecut=    29.40 Ry     beta= 0.05
     Davidson diagonalization with overlap
     c_bands:  3 eigenvalues not converged
     c_bands:  1 eigenvalues not converged
     c_bands:  1 eigenvalues not converged
     c_bands:  3 eigenvalues not converged
     c_bands:  3 eigenvalues not converged
     c_bands:  2 eigenvalues not converged
     c_bands:  2 eigenvalues not converged
     ethr =  1.00E-05,  avg # of iterations = 19.9

[...]

     total energy              =   -2865.74545692 Ry
     estimated scf accuracy    <     594.70479608 Ry

     iteration #  2     ecut=    29.40 Ry     beta= 0.05
     Davidson diagonalization with overlap
     ethr =  1.00E-02,  avg # of iterations = 14.7

[...]

     iteration # 53     ecut=    29.40 Ry     beta= 0.05
     Davidson diagonalization with overlap
     c_bands:  1 eigenvalues not converged
     c_bands:  1 eigenvalues not converged
     c_bands:  1 eigenvalues not converged
     ethr =  2.59E-11,  avg # of iterations = 16.4

[...]

     total energy              =   -2917.92285370 Ry
     estimated scf accuracy    <       0.00000010 Ry

     iteration # 54     ecut=    29.40 Ry     beta= 0.05
     Davidson diagonalization with overlap
     ethr =  2.54E-11,  avg # of iterations = 10.7

     negative rho (up, down):  1.843E-02 0.000E+00

     Adding external electric field

     Computed dipole along edir(3) :
        Dipole                0.7697 Ry au,          1.9563 Debye
        Dipole field          0.0015 Ry au,

        Potential amp.       -0.1346 Ry
        Total length         46.3494 bohr

     End of self-consistent calculation

          k = 0.0000 0.0000 0.0000 ( 18029 PWs)   bands (ev):

   -55.9948 -55.9861 -55.9608 -55.9497 -55.8725 -55.8428 -55.8226 -55.8085
   -55.8038 -55.7698 -55.7674 -55.7338 -55.5268 -55.2441 -54.9720 -54.9380
   -32.5405 -32.4771 -32.3440 -32.3246 -32.3026 -32.2978 -32.2876 -32.2581
   -32.2374 -32.2127 -32.2058 -32.1836 -32.1662 -32.1470 -32.1391 -32.1260
   -32.1051 -32.0990 -32.0846 -32.0519 -32.0515 -32.0486 -32.0024 -32.0014
   -32.0003 -31.9981 -31.9917 -31.9842 -31.9698 -31.9578 -31.9514 -31.9430
   -31.9342 -31.9341 -31.9206 -31.9113 -31.8797 -31.7756 -31.7085 -31.5355
   -31.4988 -31.4573 -31.3792 -31.2909 -31.2684 -31.1959 -31.1094 -30.9983
   -16.7374 -16.4689 -16.2437 -16.1469 -16.1161 -15.9997 -15.8337 -15.7152
   -15.6644 -15.5663 -15.5526 -15.5308 -15.4972 -15.4664 -15.4638 -15.4382
   -15.4348 -15.4152 -15.4019 -15.3544 -15.3319 -15.2981 -15.1999 -15.1689
   -15.1289 -15.1006 -15.0601 -15.0505 -14.9175 -14.5617 -13.4746 -13.3582
    -7.5583  -4.3287  -4.1151  -4.0032  -3.9497  -3.9002  -3.8416  -3.6350
    -3.5439  -3.5200  -3.2253  -3.1788  -3.1612  -3.1489  -3.1105  -2.8948
    -2.8414  -2.8096  -2.7884  -2.7744  -2.7632  -2.7554  -2.7346  -2.7085
    -2.5947  -2.5392  -2.5358  -2.4129  -2.3853  -2.3275  -2.3067  -2.2598
    -2.2444  -2.2356  -2.2086  -2.1971  -2.1842  -2.1513  -2.0758  -1.9622
    -1.8124  -1.7929  -1.7575  -1.6269  -1.6020  -1.5438  -1.4512  -1.4352
    -1.4204  -1.3860  -1.3698  -1.2977  -1.1717  -1.1475  -1.1384  -1.0370
    -0.9904  -0.9723  -0.8757  -0.8402  -0.7703  -0.7589  -0.7475  -0.7105
    -0.5482  -0.4920  -0.4633  -0.3965  -0.3667  -0.3064  -0.2949  -0.2660
    -0.1839  -0.1317  -0.1115  -0.1055  -0.0564  -0.0200  -0.0033   0.0063
     0.0173   0.0311   0.2038   0.2769   0.2838   0.3625   0.3724   0.5335
     0.5950   0.6623   0.7706   0.9754   1.0499   1.1390   1.2423   1.4413
     1.6212   1.6668   3.1413   3.2251   3.2732   3.2826   3.3840   3.4205
     3.5946   3.6007   3.6150   3.6892

[...]

          k = 0.0380-0.0419 0.0000 ( 17876 PWs)   bands (ev):

[...]

          k =-0.0760-0.0000 0.0000 ( 17886 PWs)   bands (ev):

[...]

          k =-0.0760-0.0839 0.0000 ( 17948 PWs)   bands (ev):

   -55.9781 -55.9774 -55.9705 -55.9651 -55.8656 -55.8294 -55.8262 -55.8250
   -55.7875 -55.7857 -55.7515 -55.7499 -55.5258 -55.2449 -54.9550 -54.9549
   -32.3463 -32.3411 -32.2926 -32.2922 -32.2733 -32.2727 -32.2558 -32.2437
   -32.1957 -32.1896 -32.1833 -32.1765 -32.1396 -32.1214 -32.1163 -32.1150
   -32.1056 -32.0996 -32.0975 -32.0968 -32.0905 -32.0879 -32.0689 -32.0451
   -32.0412 -32.0307 -32.0210 -32.0080 -31.9863 -31.9859 -31.9832 -31.9817
   -31.9662 -31.9653 -31.9616 -31.9588 -31.8868 -31.7782 -31.7047 -31.6012
   -31.5005 -31.4771 -31.2812 -31.2811 -31.1920 -31.1918 -31.1527 -31.1527
   -16.1697 -16.1505 -15.9385 -15.9113 -15.9065 -15.8950 -15.7665 -15.7064
   -15.6896 -15.6876 -15.6093 -15.5863 -15.5656 -15.5381 -15.5266 -15.5143
   -15.5082 -15.4990 -15.4565 -15.4504 -15.4308 -15.4237 -15.3208 -15.3113
   -15.3073 -15.2510 -15.1783 -15.0403 -14.9343 -14.7293 -13.4601 -13.4599
    -7.5541  -4.3117  -3.6854  -3.4601  -3.4374  -3.1689  -3.1518  -3.1429
    -3.0826  -2.9101  -2.8941  -2.8711  -2.8502  -2.8215  -2.8197  -2.7983
    -2.7972  -2.7854  -2.7410  -2.7335  -2.7084  -2.6715  -2.6615  -2.6500
    -2.6414  -2.6175  -2.6072  -2.5653  -2.5358  -2.5287  -2.5138  -2.4903
    -2.3049  -2.2220  -2.1958  -2.1323  -2.1250  -2.0901  -2.0585  -2.0465
    -2.0302  -1.9799  -1.9023  -1.7277  -1.6950  -1.6768  -1.6177  -1.5903
    -1.5495  -1.4642  -1.3954  -1.3705  -1.3644  -1.3163  -1.2075  -1.1859
    -1.1720  -1.0983  -1.0626  -1.0440  -1.0023  -0.9878  -0.9550  -0.9496
    -0.8550  -0.8067  -0.7602  -0.7579  -0.7123  -0.6462  -0.6331  -0.6052
    -0.4965  -0.4778  -0.4048  -0.3779  -0.2762  -0.2109  -0.0108   0.0519
     0.0766   0.1346   0.2156   0.2959   0.3106   0.3249   0.3254   0.3720
     0.4421   0.5377   0.5470   0.6006   0.7051   1.3306   1.4137   1.4143
     1.4866   1.4867   3.4271   3.4370   3.4762   3.4980   3.6342   3.6499
     3.6729   3.6741   3.7290   3.8112

     the Fermi energy is     3.1390 ev

!    total energy              =   -2917.92293739 Ry
     estimated scf accuracy    <       0.00000003 Ry
     smearing contrib. (-TS)   =      -0.02181474 Ry
     internal energy E=F+TS    =   -2917.90112265 Ry

     The total energy is F=E-TS. E is the sum of the following terms:
     one-electron contribution =  -24778.19028844 Ry
     hartree contribution      =   12472.74873452 Ry
     xc contribution           =    -479.18465485 Ry
     ewald contribution        =    9866.72396822 Ry
     electric field correction =       0.00111790 Ry

     convergence has been achieved in  54 iterations

     Forces acting on atoms (cartesian axes, Ry/au):

     atom    1 type  1   force =     0.00017076   -0.00022984    0.09671662
     atom    2 type  1   force =     0.00006304   -0.00052909   -0.17540614
     atom    3 type  2   force =     0.00017982    0.00000565   -0.02477400
     atom    4 type  2   force =     0.00005572   -0.00133256    0.05290110
     atom    5 type  2   force =    -0.01178494    0.00013147    0.00258848
     atom    6 type  2   force =     0.01395390    0.00051863    0.00338887
     atom    7 type  1   force =     0.00129710    0.00070963   -0.01179595
     atom    8 type  1   force =    -0.00005408    0.00763783    0.02819882
     atom    9 type  2   force =    -0.00024430   -0.00023669   -0.00009680
     atom   10 type  2   force =    -0.00220748    0.00207350   -0.01529618
     atom   11 type  2   force =     0.00000023   -0.00007245    0.00021579
     atom   12 type  2   force =    -0.00002222    0.00017278   -0.00007490
     atom   13 type  1   force =    -0.00104835   -0.00024999   -0.00016976
     atom   14 type  1   force =    -0.00022363   -0.00026793    0.00056765
     atom   15 type  2   force =    -0.00030102    0.00078735   -0.00055067
     atom   16 type  2   force =     0.00025434    0.00008858   -0.00055914
     atom   17 type  2   force =     0.00022717    0.00012267   -0.00012008
     atom   18 type  2   force =    -0.00029831    0.00036605   -0.00041953
     atom   19 type  1   force =    -0.00063582    0.00027930   -0.00023698
     atom   20 type  1   force =     0.00013696   -0.00084747    0.00050556
     atom   21 type  2   force =     0.00008895   -0.00004896    0.10323193
     atom   22 type  2   force =     0.00043996    0.00091639   -0.00010512
     atom   23 type  2   force =    -0.07149117   -0.00015659   -0.02768404
     atom   24 type  2   force =     0.07148216    0.00033278   -0.02776898
     atom   25 type  1   force =     0.00020072   -0.00021364    0.09621568
     atom   26 type  1   force =     0.00011417   -0.00029255   -0.17553128
     atom   27 type  2   force =     0.00022300   -0.00011704   -0.02385488
     atom   28 type  2   force =     0.00008918   -0.00110160    0.05284784
     atom   29 type  2   force =    -0.01198930    0.00068529    0.00233908
     atom   30 type  2   force =     0.01402222    0.00103655    0.00318699
     atom   31 type  1   force =     0.00113739    0.00334755   -0.01211564
     atom   32 type  1   force =    -0.00024424   -0.00972754    0.02863041
     atom   33 type  2   force =    -0.00017603    0.00031330   -0.00006863
     atom   34 type  2   force =    -0.00173279    0.00175121   -0.02353995
     atom   35 type  2   force =     0.00000024    0.00008005    0.00022022
     atom   36 type  2   force =     0.00056569    0.00010484    0.00020405
     atom   37 type  1   force =    -0.00097912   -0.00037493    0.00030356
     atom   38 type  1   force =     0.00023036   -0.00011282    0.00050640
     atom   39 type  2   force =    -0.00006267   -0.00076215   -0.00044071
     atom   40 type  2   force =    -0.00004473    0.00024491    0.00043517
     atom   41 type  2   force =    -0.00087301   -0.00040804   -0.00029385
     atom   42 type  2   force =     0.00009651   -0.00068177   -0.00086395
     atom   43 type  1   force =    -0.00047294   -0.00015098   -0.00004558
     atom   44 type  1   force =     0.00012165    0.00084015    0.00033137
     atom   45 type  2   force =     0.00006758   -0.00006769    0.10325545
     atom   46 type  2   force =    -0.07149172   -0.00008352   -0.02769555
     atom   47 type  2   force =     0.07150486    0.00033837   -0.02777567
     atom   48 type  3   force =     0.00105365   -0.00600131    0.00151569
     atom   49 type  4   force =    -0.00154342    0.00262659   -0.00149035
     atom   50 type  5   force =     0.00037386   -0.00057287    0.00116896
     atom   51 type  5   force =    -0.00022992   -0.00087136   -0.00070140

     Total force =     0.368043     Total SCF correction =     0.000504
  @ DRIVER MODE: Message from server: STATUS
  @ DRIVER MODE: Message from server: GETFORCE
  @ DRIVER MODE: Returning v,forces,stress,ensemble

     Writing output data file ./calc.save/
  @ DRIVER MODE: Message from server: EXIT
  @ DRIVE MODE: Exiting

     General routines

     Parallel routines

   This run was terminated on:  11:14:31  24Aug2021

   JOB DONE.