     Program PWSCF v.6.7GPU starts on  2Aug2021 at 19: 2:11

     R & G space division:  proc/nbgrp/npool/nimage =      16
     Reading input from /storage/home/hcoda1/3/ntian30/research/carbon/02Aug_vib_paired/ads_slab/CH3NH3_a/out_0020/pw.inp
Warning: card &CELL ignored
Warning: card   CELL_DYNAMICS='IPI', ignored
Warning: card / ignored

     Current dimensions of program PWSCF are:
     Max number of different atomic species (ntypx) = 10
     Max number of k-points (npk) =  40000
     Max angular momentum in pseudopotentials (lmaxx) =  3
     Presently no symmetry can be used with electric field

     Message from routine cell_base_init:
     DEPRECATED: use true lattice parameter, not A to a.u. conversion factor

     IMPORTANT: XC functional enforced from input :
     Exchange-correlation= BEEF-VDW
                           (   1   4  43  14   2   0   0)
     Any further DFT definition will be discarded
     Please, verify this is what you really want

  @ DRIVER MODE: Connecting to
 qe_1139763_2482539.sched-torque.pace.gatech.edunl_j01_n_scratch
  using UNIX socket
  @ DRIVER MODE: Message from server: STATUS
  @ DRIVER MODE: Message from server: INIT
  @ DRIVER MODE: Receiving replica           0          -1
  @ DRIVER MODE: Receiving encoded integer          25
  @ DRIVER MODE:  SCF:  T  FORCE:  T  STRESS:  F  VC:  F  ENSEMBLE:  F
  @ DRIVER MODE:  SCF:  T  FORCE:  T  STRESS:  F  VC:  F  ENSEMBLE:  F

     Using Slab Decomposition

     bravais-lattice index     =            0
     lattice parameter (alat)  =       1.8897  a.u.
     unit-cell volume          =    6658.9804 (a.u.)^3
     number of atoms/cell      =           55
     number of atomic types    =            5
     number of electrons       =       393.00
     number of Kohn-Sham states=          206
     kinetic-energy cutoff     =      29.3995  Ry
     charge density cutoff     =     293.9946  Ry
     scf convergence threshold =      7.3E-08
     mixing beta               =       0.0500
     number of iterations used =            8  plain     mixing
     Exchange-correlation= BEEF-VDW
                           (   1   4  43  14   2   0   0)

     celldm(1)=   1.889726  celldm(2)=   0.000000  celldm(3)=   0.000000
     celldm(4)=   0.000000  celldm(5)=   0.000000  celldm(6)=   0.000000

     crystal axes: (cart. coord. in units of alat)
               a(1) = (   6.579727   0.000000   0.000000 )
               a(2) = (  -0.000775   5.961596   0.000000 )
               a(3) = (   0.000000   0.000000  25.155947 )

     reciprocal axes: (cart. coord. in units 2 pi/alat)
               b(1) = (  0.151982  0.000020  0.000000 )
               b(2) = (  0.000000  0.167740  0.000000 )
               b(3) = (  0.000000  0.000000  0.039752 )

     PseudoPot. # 1 for Ti read from file:
     /storage/coda1/p-amedford6/0/shared/rich_project_chbe-medford/medford-share/data/pseudos_module/espresso/nninc/pbe/van/Ti.UPF
     MD5 check sum: 8e4df49b7f0d34bbd5052bf3f5ea0213
     Pseudo is Ultrasoft, Zval = 12.0
     Generated by new atomic code, or converted to UPF format
     Using radial grid of  851 points,  6 beta functions with:
                l(1) =   0
                l(2) =   0
                l(3) =   1
                l(4) =   1
                l(5) =   2
                l(6) =   2
     Q(r) pseudized with  8 coefficients,  rinner =    1.000   1.000   1.000
                                                       1.000   1.000

     PseudoPot. # 2 for O  read from file:
     /storage/coda1/p-amedford6/0/shared/rich_project_chbe-medford/medford-share/data/pseudos_module/espresso/nninc/pbe/van/O.UPF
     MD5 check sum: 78c19812648e8988a0fe644b0f25305e
     Pseudo is Ultrasoft, Zval =  6.0
     Generated by new atomic code, or converted to UPF format
     Using radial grid of  737 points,  4 beta functions with:
                l(1) =   0
                l(2) =   0
                l(3) =   1
                l(4) =   1
     Q(r) pseudized with  8 coefficients,  rinner =    0.800   0.800   0.800

     PseudoPot. # 3 for C  read from file:
     /storage/coda1/p-amedford6/0/shared/rich_project_chbe-medford/medford-share/data/pseudos_module/espresso/nninc/pbe/van/C.UPF
     MD5 check sum: 1a69bf6b8db32088f5b2163dbdb77a27
     Pseudo is Ultrasoft, Zval =  4.0
     Generated by new atomic code, or converted to UPF format
     Using radial grid of  721 points,  4 beta functions with:
                l(1) =   0
                l(2) =   0
                l(3) =   1
                l(4) =   1
     Q(r) pseudized with  8 coefficients,  rinner =    0.800   0.800   0.800

     PseudoPot. # 4 for H  read from file:
     /storage/coda1/p-amedford6/0/shared/rich_project_chbe-medford/medford-share/data/pseudos_module/espresso/nninc/pbe/van/H.UPF
     MD5 check sum: b5ee9d7bfd3a09ee7748110bda690ff7
     Pseudo is Ultrasoft, Zval =  1.0
     Generated by new atomic code, or converted to UPF format
     Using radial grid of  615 points,  1 beta functions with:
                l(1) =   0
     Q(r) pseudized with  8 coefficients,  rinner =    0.800

     PseudoPot. # 5 for N  read from file:
     /storage/coda1/p-amedford6/0/shared/rich_project_chbe-medford/medford-share/data/pseudos_module/espresso/nninc/pbe/van/N.UPF
     MD5 check sum: 90d10febe142ad51ac9d5be1deb811c4
     Pseudo is Ultrasoft, Zval =  5.0
     Generated by new atomic code, or converted to UPF format
     Using radial grid of  729 points,  4 beta functions with:
                l(1) =   0
                l(2) =   0
                l(3) =   1
                l(4) =   1
     Q(r) pseudized with  8 coefficients,  rinner =    0.800   0.800   0.800

     atomic species   valence    mass     pseudopotential
        Ti1           12.00    47.86700     Ti( 1.00)
        O1             6.00    15.99900     O ( 1.00)
        C1             4.00    12.01100     C ( 1.00)
        H1             1.00     1.00800     H ( 1.00)
        N1             5.00    14.00700     N ( 1.00)

     No symmetry found

   Cartesian axes

     site n.     atom                  positions (alat units)
         1           Ti1 tau(   1) = (   0.0004258   2.9801865   6.0000000  )
         2           Ti1 tau(   2) = (   3.2906075   1.4906267   6.0002472  )
         3           O1  tau(   3) = (   0.0006271   0.0005054   7.9858123  )
         4           O1  tau(   4) = (   3.2906025   0.0005020   7.3038282  )
         5           O1  tau(   5) = (   4.5942328   1.4918067   9.2879030  )
         6           O1  tau(   6) = (   1.9868534   1.4903216   9.2879459  )
         7           Ti1 tau(   7) = (   3.2907910   2.8959150   9.1758416  )
         8           Ti1 tau(   8) = (   0.0015273   1.4827037   9.2680791  )
         9           O1  tau(   9) = (   3.2981156   0.0012339  11.3300471  )
        10           O1  tau(  10) = (   0.0116148   5.9584955  10.6183126  )
        11           O1  tau(  11) = (   1.3033605   1.5036236  12.6199488  )
        12           O1  tau(  12) = (   5.2811161   1.5074500  12.6162500  )
        13           Ti1 tau(  13) = (   0.0407500   2.9455431  12.6352795  )
        14           Ti1 tau(  14) = (   3.3444429   1.4910927  12.4779025  )
        15           O1  tau(  15) = (   0.0052662   0.0451097  14.6026341  )
        16           O1  tau(  16) = (   3.2946143   0.0124870  13.9210852  )
        17           O1  tau(  17) = (   4.5465206   1.5046604  16.0624161  )
        18           O1  tau(  18) = (   2.0546879   1.5048301  16.0609706  )
        19           Ti1 tau(  19) = (   3.2991624   2.9918142  15.6995589  )
        20           Ti1 tau(  20) = (   6.5707204   1.4025535  15.8059435  )
        21           O1  tau(  21) = (   3.2904802   0.0005063   4.7018136  )
        22           O1  tau(  22) = (   0.0164654   0.0145536  17.1360041  )
        23           O1  tau(  23) = (   1.3043587   1.4918075   6.0039043  )
        24           O1  tau(  24) = (   5.2767064   1.4903225   6.0039473  )
        25           Ti1 tau(  25) = (   0.0000382   5.9609847   6.0000000  )
        26           Ti1 tau(  26) = (   3.2902200   4.4714249   6.0002472  )
        27           O1  tau(  27) = (   0.0002396   2.9813036   7.9858123  )
        28           O1  tau(  28) = (   3.2902150   2.9813002   7.3038282  )
        29           O1  tau(  29) = (   4.5938453   4.4726049   9.2879030  )
        30           O1  tau(  30) = (   1.9864658   4.4711199   9.2879459  )
        31           Ti1 tau(  31) = (   3.2891106   5.8743827   9.1763621  )
        32           Ti1 tau(  32) = (   0.0006254   4.4649316   9.2693709  )
        33           O1  tau(  33) = (   3.2977166   2.9913250  11.3287690  )
        34           O1  tau(  34) = (   0.0092240   2.9805883  10.6323155  )
        35           O1  tau(  35) = (   1.3008534   4.4801743  12.6308489  )
        36           O1  tau(  36) = (   5.2850400   4.4860598  12.6280017  )
        37           Ti1 tau(  37) = (   0.0409916   5.9178611  12.5441859  )
        38           Ti1 tau(  38) = (   3.3442415   4.4710906  12.4862270  )
        39           O1  tau(  39) = (   0.0109228   2.9791018  14.7123696  )
        40           O1  tau(  40) = (   3.2998940   2.9912248  13.9043662  )
        41           O1  tau(  41) = (   4.5474046   4.4713503  16.0779382  )
        42           O1  tau(  42) = (   2.0618872   4.4767818  16.0643778  )
        43           Ti1 tau(  43) = (   3.2722838   0.0128901  15.7174356  )
        44           Ti1 tau(  44) = (   6.5592075   4.4947239  16.1563676  )
        45           O1  tau(  45) = (   3.2900926   2.9813045   4.7018136  )
        46           O1  tau(  46) = (   1.3039711   4.4726057   6.0039043  )
        47           O1  tau(  47) = (   5.2763189   4.4711207   6.0039473  )
        48           C1  tau(  48) = (   0.0359503   3.0870652  17.8341721  )
        49           H1  tau(  49) = (   5.8142062   3.6010452  18.3763092  )
        50           H1  tau(  50) = (   6.4784518   2.0305676  18.0614951  )
        51           H1  tau(  51) = (   0.9963100   3.3782628  18.2908018  )
        52           N1  tau(  52) = (   4.7642638   1.7931862  21.6370373  )
        53           H1  tau(  53) = (   4.5527921   2.7808570  21.5386679  )
        54           H1  tau(  54) = (   4.1042548   1.2952780  21.0483319  )
        55           H1  tau(  55) = (   4.5435699   1.5432347  22.5953497  )

     number of k points=    10  Fermi-Dirac smearing, width (Ry)=  0.0073
                       cart. coord. in units 2pi/alat
        k(    1) = (   0.0000000   0.0000000   0.0000000), wk =   0.1250000
        k(    2) = (   0.0000000   0.0419351   0.0000000), wk =   0.2500000
        k(    3) = (   0.0000000  -0.0838702   0.0000000), wk =   0.1250000
        k(    4) = (   0.0379955   0.0000049   0.0000000), wk =   0.2500000
        k(    5) = (   0.0379955   0.0419400   0.0000000), wk =   0.2500000
        k(    6) = (   0.0379955  -0.0838652   0.0000000), wk =   0.2500000
        k(    7) = (   0.0379955  -0.0419301   0.0000000), wk =   0.2500000
        k(    8) = (  -0.0759910  -0.0000099   0.0000000), wk =   0.1250000
        k(    9) = (  -0.0759910   0.0419252   0.0000000), wk =   0.2500000
        k(   10) = (  -0.0759910  -0.0838800   0.0000000), wk =   0.1250000

     Initial potential from superposition of free atoms

     starting charge  376.99914, renormalised to  393.00000

     negative rho (up, down):  1.000E-02 0.000E+00

     %%%%%%%%%%%%%%%%%%%%%%%%%%%%%%%%%%%%%%%%%%%%%%%%%%%%%%%%%%%%%%%%%%%%%%%%
     %                                                                      %
     % You are using vdW-DF, which was implemented by the Thonhauser group. %
     % Please cite the following two papers that made this development      %
     % possible and the two reviews that describe the various versions:     %
     %                                                                      %
     %   T. Thonhauser et al., PRL 115, 136402 (2015).                      %
     %   T. Thonhauser et al., PRB 76, 125112 (2007).                       %
     %   K. Berland et al., Rep. Prog. Phys. 78, 066501 (2015).             %
     %   D.C. Langreth et al., J. Phys.: Condens. Matter 21, 084203 (2009). %
     %                                                                      %
     %                                                                      %
     % If you are calculating the stress with vdW-DF, please also cite:     %
     %                                                                      %
     %   R. Sabatini et al., J. Phys.: Condens. Matter 24, 424209 (2012).   %
     %                                                                      %
     %%%%%%%%%%%%%%%%%%%%%%%%%%%%%%%%%%%%%%%%%%%%%%%%%%%%%%%%%%%%%%%%%%%%%%%%

     Adding external electric field

     Computed dipole along edir(3) :
        Dipole               -9.0616 Ry au,        -23.0322 Debye
        Dipole field         -0.0171 Ry au,

        Potential amp.        1.5852 Ry
        Total length         46.3494 bohr

     Starting wfcs are  298 atomic wfcs
  @ DRIVER MODE: Message from server: STATUS
  @ DRIVER MODE: Message from server: POSDATA
  @ DRIVER MODE: Reading and sharing cell
  @ DRIVER MODE: Reading and sharing positions
  @ DRIVER MODE: Received positions

     Self-consistent Calculation

     iteration #  1     ecut=    29.40 Ry     beta= 0.05
     Davidson diagonalization with overlap
     c_bands:  1 eigenvalues not converged
     c_bands:  1 eigenvalues not converged
     c_bands:  1 eigenvalues not converged
     ethr =  1.00E-05,  avg # of iterations = 17.8

[...]

     total energy              =   -2692.43762398 Ry
     estimated scf accuracy    <    2566.26520927 Ry

[...]

     iteration #  3     ecut=    29.40 Ry     beta= 0.05
     Davidson diagonalization with overlap
     ethr =  1.00E-02,  avg # of iterations = 16.8

[...]

     iteration #100     ecut=    29.40 Ry     beta= 0.05
     Davidson diagonalization with overlap
     c_bands:  1 eigenvalues not converged
     ethr =  4.22E-09,  avg # of iterations = 10.7

[...]

     total energy              =   -2922.78948533 Ry
     estimated scf accuracy    <       0.00000009 Ry

     iteration #113     ecut=    29.40 Ry     beta= 0.05
     Davidson diagonalization with overlap
     ethr =  2.35E-11,  avg # of iterations =  7.3

     negative rho (up, down):  1.131E-02 0.000E+00

     Adding external electric field

     Computed dipole along edir(3) :
        Dipole                0.5492 Ry au,          1.3959 Debye
        Dipole field          0.0010 Ry au,

        Potential amp.       -0.0961 Ry
        Total length         46.3494 bohr

     End of self-consistent calculation

          k = 0.0000 0.0000 0.0000 ( 18029 PWs)   bands (ev):

   -56.0339 -56.0303 -55.9998 -55.9939 -55.9018 -55.8671 -55.8664 -55.8419
   -55.8233 -55.8080 -55.8030 -55.7692 -55.5689 -55.4024 -55.0095 -54.9754
   -32.5886 -32.5158 -32.3614 -32.3551 -32.3412 -32.3403 -32.3270 -32.2936
   -32.2765 -32.2397 -32.2337 -32.2331 -32.2098 -32.1861 -32.1735 -32.1672
   -32.1377 -32.1356 -32.1213 -32.0911 -32.0811 -32.0702 -32.0390 -32.0338
   -32.0295 -32.0278 -32.0134 -32.0119 -32.0053 -31.9801 -31.9796 -31.9771
   -31.9723 -31.9714 -31.9561 -31.9469 -31.9153 -31.8477 -31.7832 -31.6900
   -31.6307 -31.5199 -31.4165 -31.3284 -31.3060 -31.2332 -31.1467 -31.0357
   -16.7686 -16.5052 -16.2734 -16.1826 -16.1328 -16.0464 -15.8688 -15.7522
   -15.7039 -15.6030 -15.5703 -15.5506 -15.5339 -15.5038 -15.4955 -15.4703
   -15.4592 -15.4527 -15.4182 -15.3901 -15.3650 -15.3503 -15.2304 -15.1782
   -15.1621 -15.1312 -15.0829 -15.0666 -14.6119 -13.6551 -13.5121 -13.3957
    -9.0289  -4.1433  -3.9631  -3.9377  -3.8894  -3.8478  -3.7136  -3.6964
    -3.6450  -3.5847  -3.2669  -3.2099  -3.2017  -3.1609  -3.1463  -2.9882
    -2.9240  -2.8505  -2.8342  -2.8282  -2.8031  -2.7979  -2.7929  -2.7505
    -2.7084  -2.6519  -2.6285  -2.5587  -2.5167  -2.4440  -2.3711  -2.3437
    -2.3014  -2.2975  -2.2622  -2.2500  -2.2423  -2.2318  -2.1961  -2.1790
    -2.0015  -1.9468  -1.8826  -1.8167  -1.8021  -1.6385  -1.5318  -1.4839
    -1.4651  -1.4582  -1.4402  -1.4231  -1.3274  -1.2096  -1.1764  -1.1268
    -1.0790  -1.0303  -1.0006  -0.9002  -0.8838  -0.7925  -0.7793  -0.7607
    -0.6489  -0.6235  -0.4915  -0.4699  -0.4638  -0.4039  -0.3883  -0.3154
    -0.2913  -0.2347  -0.1697  -0.1575  -0.0893  -0.0632  -0.0599  -0.0033
     0.0012   0.0464   0.0615   0.1709   0.2265   0.2760   0.3299   0.4366
     0.5162   0.6307   0.6774   0.7367   0.9386   1.0122   1.1215   1.1841
     1.2053   1.4665   1.5835   1.6290   3.1047   3.1897   3.2113   3.2372
     3.3446   3.3694   3.5552   3.5718   3.6062   3.6262

[...]

          k = 0.0380-0.0419 0.0000 ( 17876 PWs)   bands (ev):

[...]

          k =-0.0760-0.0000 0.0000 ( 17886 PWs)   bands (ev):

[...]

          k =-0.0760-0.0839 0.0000 ( 17948 PWs)   bands (ev):

   -56.0174 -56.0163 -56.0149 -56.0090 -55.8869 -55.8818 -55.8580 -55.8319
   -55.8255 -55.8238 -55.7874 -55.7850 -55.5674 -55.4037 -54.9925 -54.9923
   -32.3946 -32.3881 -32.3315 -32.3308 -32.3128 -32.3120 -32.2935 -32.2887
   -32.2225 -32.2214 -32.2185 -32.2075 -32.1675 -32.1664 -32.1470 -32.1425
   -32.1384 -32.1369 -32.1357 -32.1277 -32.1266 -32.1238 -32.0883 -32.0779
   -32.0729 -32.0507 -32.0465 -32.0327 -32.0238 -32.0230 -32.0191 -32.0172
   -32.0019 -32.0005 -31.9965 -31.9902 -31.9256 -31.8307 -31.7853 -31.6927
   -31.6750 -31.5642 -31.3188 -31.3186 -31.2294 -31.2292 -31.1900 -31.1900
   -16.2105 -16.1875 -15.9811 -15.9469 -15.9434 -15.9364 -15.8055 -15.7252
   -15.7247 -15.6989 -15.6382 -15.6268 -15.6047 -15.5660 -15.5418 -15.5393
   -15.5207 -15.5157 -15.4893 -15.4793 -15.4664 -15.4591 -15.3666 -15.3470
   -15.3431 -15.2936 -15.1482 -15.0019 -14.8925 -13.6544 -13.4977 -13.4974
    -9.0434  -3.7158  -3.7073  -3.5068  -3.4754  -3.2329  -3.1947  -3.1816
    -3.1125  -2.9561  -2.9163  -2.8984  -2.8908  -2.8465  -2.8388  -2.8336
    -2.8219  -2.7938  -2.7765  -2.7388  -2.7325  -2.7182  -2.7112  -2.6995
    -2.6824  -2.6525  -2.6439  -2.6113  -2.6086  -2.5871  -2.5711  -2.5438
    -2.5387  -2.4105  -2.2521  -2.2285  -2.1676  -2.1602  -2.1122  -2.1004
    -2.0943  -2.0669  -2.0372  -2.0097  -1.8504  -1.7405  -1.7260  -1.7092
    -1.6405  -1.6128  -1.5277  -1.4374  -1.3964  -1.3784  -1.3103  -1.3063
    -1.2561  -1.2319  -1.2110  -1.1436  -1.0871  -1.0499  -0.9929  -0.9868
    -0.9787  -0.9086  -0.8664  -0.7912  -0.7825  -0.7455  -0.7105  -0.6551
    -0.6187  -0.6098  -0.5195  -0.4873  -0.3750  -0.3263  -0.0678  -0.0193
     0.0338   0.0616   0.1268   0.1848   0.1893   0.2863   0.2900   0.3270
     0.4058   0.4272   0.4981   0.5174   0.5673   0.7291   1.2797   1.3763
     1.3771   1.4485   1.4490   1.4571   3.4025   3.4142   3.4213   3.4659
     3.6112   3.6158   3.6345   3.6361   3.7749   3.7926

     the Fermi energy is     3.1012 ev

!    total energy              =   -2922.78948561 Ry
     estimated scf accuracy    <       0.00000006 Ry
     smearing contrib. (-TS)   =      -0.02169803 Ry
     internal energy E=F+TS    =   -2922.76778758 Ry

     The total energy is F=E-TS. E is the sum of the following terms:
     one-electron contribution =  -23651.28054384 Ry
     hartree contribution      =   11909.85061174 Ry
     xc contribution           =    -482.25744314 Ry
     ewald contribution        =    9300.91901851 Ry
     electric field correction =       0.00056915 Ry

     convergence has been achieved in 113 iterations

     Forces acting on atoms (cartesian axes, Ry/au):

     atom    1 type  1   force =     0.00005205   -0.00022999    0.09682904
     atom    2 type  1   force =    -0.00017585   -0.00055732   -0.17515918
     atom    3 type  2   force =     0.00002232   -0.00004837   -0.02504334
     atom    4 type  2   force =     0.00002728   -0.00140020    0.05265484
     atom    5 type  2   force =    -0.01205294   -0.00051225    0.00329844
     atom    6 type  2   force =     0.01377773    0.00008476    0.00269626
     atom    7 type  1   force =    -0.00057810    0.00055863   -0.01157467
     atom    8 type  1   force =     0.00020485    0.01201250    0.02898957
     atom    9 type  2   force =    -0.00029806    0.00057484    0.00057783
     atom   10 type  2   force =    -0.00153647    0.00252435   -0.01946020
     atom   11 type  2   force =    -0.00017388   -0.00037651   -0.00014554
     atom   12 type  2   force =    -0.00090447    0.00003659   -0.00030158
     atom   13 type  1   force =     0.00054890   -0.00097446    0.00108237
     atom   14 type  1   force =     0.00145278    0.00057439   -0.00067732
     atom   15 type  2   force =    -0.00014952   -0.00110017    0.00039849
     atom   16 type  2   force =    -0.00020532   -0.00019989   -0.00147725
     atom   17 type  2   force =    -0.00065309    0.00076129    0.00002644
     atom   18 type  2   force =     0.00049054    0.00092814    0.00002986
     atom   19 type  1   force =    -0.00022095   -0.00112067    0.00055444
     atom   20 type  1   force =    -0.00010759    0.00044777   -0.00007607
     atom   21 type  2   force =     0.00004743   -0.00003986    0.10325021
     atom   22 type  2   force =     0.00024592   -0.00023169    0.00093684
     atom   23 type  2   force =    -0.07157281   -0.00014242   -0.02769641
     atom   24 type  2   force =     0.07146537    0.00027095   -0.02772675
     atom   25 type  1   force =     0.00005042   -0.00027955    0.09642227
     atom   26 type  1   force =    -0.00019511   -0.00029801   -0.17538794
     atom   27 type  2   force =     0.00008553   -0.00016901   -0.02382943
     atom   28 type  2   force =     0.00004398   -0.00114061    0.05273666
     atom   29 type  2   force =    -0.01209196    0.00085189    0.00276353
     atom   30 type  2   force =     0.01373290    0.00123963    0.00217968
     atom   31 type  1   force =    -0.00046696    0.00302950   -0.01242792
     atom   32 type  1   force =     0.00018972   -0.01423503    0.02940223
     atom   33 type  2   force =    -0.00023104   -0.00062551    0.00043711
     atom   34 type  2   force =    -0.00098295    0.00176448   -0.02266846
     atom   35 type  2   force =    -0.00066413   -0.00060236   -0.00012391
     atom   36 type  2   force =     0.00002401   -0.00014879   -0.00034021
     atom   37 type  1   force =     0.00065388    0.00026490    0.00055306
     atom   38 type  1   force =     0.00150806    0.00019211   -0.00068236
     atom   39 type  2   force =     0.00006833    0.00015189   -0.00126993
     atom   40 type  2   force =    -0.00034675   -0.00009934    0.00175629
     atom   41 type  2   force =    -0.00075019   -0.00108167   -0.00006396
     atom   42 type  2   force =     0.00036178   -0.00142757    0.00018442
     atom   43 type  1   force =     0.00017769    0.00066611    0.00106351
     atom   44 type  1   force =     0.00056051   -0.00023712    0.00078904
     atom   45 type  2   force =     0.00005475   -0.00009274    0.10321298
     atom   46 type  2   force =    -0.07156062   -0.00011515   -0.02770228
     atom   47 type  2   force =     0.07146353    0.00031521   -0.02773183
     atom   48 type  3   force =     0.00880355    0.00295420    0.00254314
     atom   49 type  4   force =    -0.00010285    0.00024524   -0.00008539
     atom   50 type  4   force =    -0.00017590   -0.00054714    0.00108819
     atom   51 type  4   force =    -0.01026075   -0.00251345   -0.00388534
     atom   52 type  5   force =    -0.00007745   -0.00018271   -0.00036815
     atom   53 type  4   force =     0.00064428   -0.00003333   -0.00036904
     atom   54 type  4   force =     0.00006098    0.00019564   -0.00010950
     atom   55 type  4   force =    -0.00028337    0.00011784   -0.00007277

     Total force =     0.368679     Total SCF correction =     0.000478
  @ DRIVER MODE: Message from server: STATUS
  @ DRIVER MODE: Message from server: GETFORCE
  @ DRIVER MODE: Returning v,forces,stress,ensemble

     Writing output data file ./calc.save/
  @ DRIVER MODE: Message from server: EXIT
  @ DRIVE MODE: Exiting

     General routines

     Parallel routines

   This run was terminated on:  19:24:25   2Aug2021

   JOB DONE.