     Program PWSCF v.6.7GPU starts on 22Sep2021 at 22: 0:35

     R & G space division:  proc/nbgrp/npool/nimage =       8
     Reading input from /storage/home/hcoda1/3/ntian30/research/carbon/CxH_vib/H2O_calc/ads_slab/CH2OHO_c/out_0000/pw.inp
Warning: card &CELL ignored
Warning: card   CELL_DYNAMICS='IPI', ignored
Warning: card / ignored

     Current dimensions of program PWSCF are:
     Max number of different atomic species (ntypx) = 10
     Max number of k-points (npk) =  40000
     Max angular momentum in pseudopotentials (lmaxx) =  3
     Presently no symmetry can be used with electric field

     Message from routine cell_base_init:
     DEPRECATED: use true lattice parameter, not A to a.u. conversion factor

     IMPORTANT: XC functional enforced from input :
     Exchange-correlation= BEEF-VDW
                           (   1   4  43  14   2   0   0)
     Any further DFT definition will be discarded
     Please, verify this is what you really want

  @ DRIVER MODE: Connecting to
 qe_1139763_2941011.sched-torque.pace.gatech.eduy0cqmxsi_scratch
  using UNIX socket
  @ DRIVER MODE: Message from server: STATUS
  @ DRIVER MODE: Message from server: INIT
  @ DRIVER MODE: Receiving replica           0          -1
  @ DRIVER MODE: Receiving encoded integer          25
  @ DRIVER MODE:  SCF:  T  FORCE:  T  STRESS:  F  VC:  F  ENSEMBLE:  F
  @ DRIVER MODE:  SCF:  T  FORCE:  T  STRESS:  F  VC:  F  ENSEMBLE:  F

     Using Slab Decomposition

     bravais-lattice index     =            0
     lattice parameter (alat)  =       1.8897  a.u.
     unit-cell volume          =    6658.9804 (a.u.)^3
     number of atoms/cell      =           53
     number of atomic types    =            4
     number of electrons       =       397.00
     number of Kohn-Sham states=          208
     kinetic-energy cutoff     =      29.3995  Ry
     charge density cutoff     =     293.9946  Ry
     scf convergence threshold =      7.3E-08
     mixing beta               =       0.0500
     number of iterations used =            8  plain     mixing
     Exchange-correlation= BEEF-VDW
                           (   1   4  43  14   2   0   0)

     celldm(1)=   1.889726  celldm(2)=   0.000000  celldm(3)=   0.000000
     celldm(4)=   0.000000  celldm(5)=   0.000000  celldm(6)=   0.000000

     crystal axes: (cart. coord. in units of alat)
               a(1) = (   6.579727   0.000000   0.000000 )
               a(2) = (  -0.000775   5.961596   0.000000 )
               a(3) = (   0.000000   0.000000  25.155947 )

     reciprocal axes: (cart. coord. in units 2 pi/alat)
               b(1) = (  0.151982  0.000020  0.000000 )
               b(2) = (  0.000000  0.167740  0.000000 )
               b(3) = (  0.000000  0.000000  0.039752 )

     PseudoPot. # 1 for O  read from file:
     /storage/coda1/p-amedford6/0/shared/rich_project_chbe-medford/medford-share/data/pseudos_module/espresso/nninc/pbe/van/O.UPF
     MD5 check sum: 78c19812648e8988a0fe644b0f25305e
     Pseudo is Ultrasoft, Zval =  6.0
     Generated by new atomic code, or converted to UPF format
     Using radial grid of  737 points,  4 beta functions with:
                l(1) =   0
                l(2) =   0
                l(3) =   1
                l(4) =   1
     Q(r) pseudized with  8 coefficients,  rinner =    0.800   0.800   0.800

     PseudoPot. # 2 for Ti read from file:
     /storage/coda1/p-amedford6/0/shared/rich_project_chbe-medford/medford-share/data/pseudos_module/espresso/nninc/pbe/van/Ti.UPF
     MD5 check sum: 8e4df49b7f0d34bbd5052bf3f5ea0213
     Pseudo is Ultrasoft, Zval = 12.0
     Generated by new atomic code, or converted to UPF format
     Using radial grid of  851 points,  6 beta functions with:
                l(1) =   0
                l(2) =   0
                l(3) =   1
                l(4) =   1
                l(5) =   2
                l(6) =   2
     Q(r) pseudized with  8 coefficients,  rinner =    1.000   1.000   1.000
                                                       1.000   1.000

     PseudoPot. # 3 for C  read from file:
     /storage/coda1/p-amedford6/0/shared/rich_project_chbe-medford/medford-share/data/pseudos_module/espresso/nninc/pbe/van/C.UPF
     MD5 check sum: 1a69bf6b8db32088f5b2163dbdb77a27
     Pseudo is Ultrasoft, Zval =  4.0
     Generated by new atomic code, or converted to UPF format
     Using radial grid of  721 points,  4 beta functions with:
                l(1) =   0
                l(2) =   0
                l(3) =   1
                l(4) =   1
     Q(r) pseudized with  8 coefficients,  rinner =    0.800   0.800   0.800

     PseudoPot. # 4 for H  read from file:
     /storage/coda1/p-amedford6/0/shared/rich_project_chbe-medford/medford-share/data/pseudos_module/espresso/nninc/pbe/van/H.UPF
     MD5 check sum: b5ee9d7bfd3a09ee7748110bda690ff7
     Pseudo is Ultrasoft, Zval =  1.0
     Generated by new atomic code, or converted to UPF format
     Using radial grid of  615 points,  1 beta functions with:
                l(1) =   0
     Q(r) pseudized with  8 coefficients,  rinner =    0.800

     atomic species   valence    mass     pseudopotential
        O1             6.00    15.99900     O ( 1.00)
        Ti1           12.00    47.86700     Ti( 1.00)
        C1             4.00    12.01100     C ( 1.00)
        H1             1.00     1.00800     H ( 1.00)

     No symmetry found

   Cartesian axes

     site n.     atom                  positions (alat units)
         1           O1  tau(   1) = (   3.2904802   0.0005063   4.7018136  )
         2           O1  tau(   2) = (   3.2900926   2.9813045   4.7018136  )
         3           Ti1 tau(   3) = (   0.0004258   2.9801865   6.0000000  )
         4           Ti1 tau(   4) = (   0.0000382   5.9609847   6.0000000  )
         5           Ti1 tau(   5) = (   3.2906075   1.4906267   6.0002472  )
         6           Ti1 tau(   6) = (   3.2902200   4.4714249   6.0002472  )
         7           O1  tau(   7) = (   1.3043587   1.4918075   6.0039043  )
         8           O1  tau(   8) = (   1.3039711   4.4726057   6.0039043  )
         9           O1  tau(   9) = (   5.2767064   1.4903225   6.0039473  )
        10           O1  tau(  10) = (   5.2763189   4.4711207   6.0039473  )
        11           O1  tau(  11) = (   3.2906025   0.0005020   7.3038282  )
        12           O1  tau(  12) = (   3.2902150   2.9813002   7.3038282  )
        13           O1  tau(  13) = (   0.0006271   0.0005054   7.9858123  )
        14           O1  tau(  14) = (   0.0002396   2.9813036   7.9858123  )
        15           Ti1 tau(  15) = (   3.3202697   0.0919879   9.1698383  )
        16           Ti1 tau(  16) = (   3.3215697   3.0759731   9.1987478  )
        17           Ti1 tau(  17) = (   0.0419684   4.5271873   9.2680259  )
        18           Ti1 tau(  18) = (   0.0391189   1.6041453   9.3419098  )
        19           O1  tau(  19) = (   4.5942328   1.4918067   9.2879030  )
        20           O1  tau(  20) = (   4.5938453   4.4726049   9.2879030  )
        21           O1  tau(  21) = (   1.9868534   1.4903216   9.2879459  )
        22           O1  tau(  22) = (   1.9864658   4.4711199   9.2879459  )
        23           O1  tau(  23) = (   0.0125722   0.0097687  10.5830051  )
        24           O1  tau(  24) = (   0.0081120   2.9918398  10.5664780  )
        25           O1  tau(  25) = (   3.3077729   2.9680546  11.3050536  )
        26           O1  tau(  26) = (   3.3059260   0.0232323  11.3367354  )
        27           Ti1 tau(  27) = (   0.0233359   0.0627999  12.4784840  )
        28           Ti1 tau(  28) = (   3.3058864   4.6637881  12.6801991  )
        29           Ti1 tau(  29) = (   3.3037148   1.5793570  12.4293313  )
        30           Ti1 tau(  30) = (   0.0089448   3.0481173  12.7472709  )
        31           O1  tau(  31) = (   1.2933882   4.4692258  12.6303221  )
        32           O1  tau(  32) = (   1.2985301   1.4993897  12.6236677  )
        33           O1  tau(  33) = (   5.3274268   4.4793405  12.6275207  )
        34           O1  tau(  34) = (   5.3265499   1.4915365  12.6220616  )
        35           O1  tau(  35) = (   3.3295878   2.9786622  13.8932268  )
        36           O1  tau(  36) = (   3.3104420   5.9098017  13.9586718  )
        37           O1  tau(  37) = (   0.0385923   0.0024916  14.6531765  )
        38           O1  tau(  38) = (   0.0086518   2.9873893  14.7004014  )
        39           Ti1 tau(  39) = (   3.3201234   2.9526136  15.6695435  )
        40           Ti1 tau(  40) = (   3.4185286   5.9334276  16.2343674  )
        41           Ti1 tau(  41) = (   0.1049196   4.5923083  15.9423708  )
        42           Ti1 tau(  42) = (   0.0892020   1.3980244  15.8930203  )
        43           O1  tau(  43) = (   4.5900789   4.4270775  16.0984088  )
        44           O1  tau(  44) = (   4.5919070   1.5192920  16.0669747  )
        45           O1  tau(  45) = (   2.0372030   1.5514537  16.0349210  )
        46           O1  tau(  46) = (   2.0392294   4.4021701  16.0428288  )
        47           O1  tau(  47) = (   0.0638787   0.0130652  17.1658208  )
        48           O1  tau(  48) = (   6.5756481   2.9829514  17.4361268  )
        49           C1  tau(  49) = (   6.2652767   2.9703434  18.6584371  )
        50           H1  tau(  50) = (   6.1492679   3.9148029  19.1865895  )
        51           H1  tau(  51) = (   6.0998186   2.0156765  19.1535163  )
        52           O1  tau(  52) = (   3.1909063   0.0039016  18.0657888  )
        53           H1  tau(  53) = (   2.2823347   0.1153277  18.3895531  )

     number of k points=    10  Fermi-Dirac smearing, width (Ry)=  0.0073
                       cart. coord. in units 2pi/alat
        k(    1) = (   0.0000000   0.0000000   0.0000000), wk =   0.1250000
        k(    2) = (   0.0000000   0.0419351   0.0000000), wk =   0.2500000
        k(    3) = (   0.0000000  -0.0838702   0.0000000), wk =   0.1250000
        k(    4) = (   0.0379955   0.0000049   0.0000000), wk =   0.2500000
        k(    5) = (   0.0379955   0.0419400   0.0000000), wk =   0.2500000
        k(    6) = (   0.0379955  -0.0838652   0.0000000), wk =   0.2500000
        k(    7) = (   0.0379955  -0.0419301   0.0000000), wk =   0.2500000
        k(    8) = (  -0.0759910  -0.0000099   0.0000000), wk =   0.1250000
        k(    9) = (  -0.0759910   0.0419252   0.0000000), wk =   0.2500000
        k(   10) = (  -0.0759910  -0.0838800   0.0000000), wk =   0.1250000

     Initial potential from superposition of free atoms

     starting charge  380.99918, renormalised to  397.00000

     negative rho (up, down):  1.768E-02 0.000E+00

     %%%%%%%%%%%%%%%%%%%%%%%%%%%%%%%%%%%%%%%%%%%%%%%%%%%%%%%%%%%%%%%%%%%%%%%%
     %                                                                      %
     % You are using vdW-DF, which was implemented by the Thonhauser group. %
     % Please cite the following two papers that made this development      %
     % possible and the two reviews that describe the various versions:     %
     %                                                                      %
     %   T. Thonhauser et al., PRL 115, 136402 (2015).                      %
     %   T. Thonhauser et al., PRB 76, 125112 (2007).                       %
     %   K. Berland et al., Rep. Prog. Phys. 78, 066501 (2015).             %
     %   D.C. Langreth et al., J. Phys.: Condens. Matter 21, 084203 (2009). %
     %                                                                      %
     %                                                                      %
     % If you are calculating the stress with vdW-DF, please also cite:     %
     %                                                                      %
     %   R. Sabatini et al., J. Phys.: Condens. Matter 24, 424209 (2012).   %
     %                                                                      %
     %%%%%%%%%%%%%%%%%%%%%%%%%%%%%%%%%%%%%%%%%%%%%%%%%%%%%%%%%%%%%%%%%%%%%%%%

     Adding external electric field

     Computed dipole along edir(3) :
        Dipole               -8.4002 Ry au,        -21.3511 Debye
        Dipole field         -0.0159 Ry au,

        Potential amp.        1.4695 Ry
        Total length         46.3494 bohr

     Starting wfcs are  299 atomic wfcs
  @ DRIVER MODE: Message from server: STATUS
  @ DRIVER MODE: Message from server: POSDATA
  @ DRIVER MODE: Reading and sharing cell
  @ DRIVER MODE: Reading and sharing positions
  @ DRIVER MODE: Received positions

     Self-consistent Calculation

     iteration #  1     ecut=    29.40 Ry     beta= 0.05
     Davidson diagonalization with overlap
     ethr =  1.00E-02,  avg # of iterations =  2.3

[...]

     total energy              =   -2617.33013122 Ry
     estimated scf accuracy    <    3836.20740501 Ry

[...]

     iteration #  4     ecut=    29.40 Ry     beta= 0.05
     Davidson diagonalization with overlap
     c_bands:  3 eigenvalues not converged
     c_bands:  1 eigenvalues not converged
     ethr =  1.00E-02,  avg # of iterations = 16.5

[...]

     iteration # 57     ecut=    29.40 Ry     beta= 0.05
     Davidson diagonalization with overlap
     c_bands:  1 eigenvalues not converged
     ethr =  9.93E-10,  avg # of iterations = 14.5

[...]

     total energy              =   -2963.78479793 Ry
     estimated scf accuracy    <       0.00000008 Ry

     iteration # 67     ecut=    29.40 Ry     beta= 0.05
     Davidson diagonalization with overlap
     ethr =  1.92E-11,  avg # of iterations =  3.4

     negative rho (up, down):  1.717E-02 0.000E+00

     Adding external electric field

     Computed dipole along edir(3) :
        Dipole                0.8857 Ry au,          2.2513 Debye
        Dipole field          0.0017 Ry au,

        Potential amp.       -0.1549 Ry
        Total length         46.3494 bohr

     End of self-consistent calculation

          k = 0.0000 0.0000 0.0000 ( 18029 PWs)   bands (ev):

   -55.9287 -55.8874 -55.7862 -55.7081 -55.6742 -55.6675 -55.6566 -55.6017
   -55.5650 -55.5445 -55.5226 -55.4863 -55.4657 -55.3741 -54.7733 -54.7393
   -32.3807 -32.2483 -32.2226 -32.1866 -32.1851 -32.1359 -32.1246 -32.0873
   -32.0682 -32.0150 -32.0121 -32.0039 -32.0003 -31.9926 -31.9739 -31.9569
   -31.9406 -31.9293 -31.8873 -31.8837 -31.8702 -31.8541 -31.8500 -31.8375
   -31.8097 -31.8060 -31.7779 -31.7712 -31.7690 -31.7588 -31.7469 -31.7411
   -31.7355 -31.7245 -31.7008 -31.6880 -31.6826 -31.6578 -31.6385 -31.6209
   -31.5801 -31.5789 -31.1757 -31.1000 -31.0767 -30.9928 -30.9069 -30.7954
   -20.2068 -16.5711 -16.4244 -16.2526 -16.0623 -15.9679 -15.9062 -15.6920
   -15.6374 -15.5393 -15.4180 -15.3829 -15.3390 -15.3122 -15.2943 -15.2801
   -15.2630 -15.2443 -15.2114 -15.1901 -15.1842 -15.1405 -15.0718 -15.0257
   -15.0175 -14.9774 -14.9186 -14.8769 -14.8396 -14.7996 -14.6230 -13.2742
   -13.1604  -9.4684  -5.7810  -5.7246  -4.1620  -3.7942  -3.7673  -3.7368
    -3.6511  -3.6131  -3.5084  -3.3439  -3.1623  -3.0343  -2.9449  -2.9268
    -2.8880  -2.7752  -2.7244  -2.6926  -2.6488  -2.6200  -2.6013  -2.5595
    -2.5369  -2.4964  -2.4636  -2.4353  -2.3442  -2.3370  -2.2767  -2.2160
    -2.1832  -2.1741  -2.1690  -2.1456  -2.1105  -2.0560  -2.0206  -1.9860
    -1.9486  -1.8307  -1.8132  -1.7973  -1.7254  -1.4836  -1.3531  -1.3131
    -1.2588  -1.2168  -1.1935  -1.1685  -1.1631  -1.1442  -1.1118  -1.0620
    -0.9591  -0.9006  -0.8306  -0.8248  -0.8081  -0.7454  -0.6656  -0.5946
    -0.5565  -0.5260  -0.5024  -0.4272  -0.4266  -0.3528  -0.3222  -0.2506
    -0.1362  -0.0883  -0.0647  -0.0463  -0.0336   0.0200   0.0665   0.1343
     0.1539   0.1699   0.1985   0.2781   0.2876   0.3106   0.3288   0.4253
     0.4893   0.4977   0.5665   0.6580   0.6908   0.7739   0.9020   0.9779
     1.2241   1.2486   1.3338   1.4642   1.8101   1.8541   3.2868   3.3576
     3.3948   3.4957   3.5784   3.5979   3.6761   3.7360   3.8234   3.8671

[...]

          k = 0.0380-0.0419 0.0000 ( 17876 PWs)   bands (ev):

[...]

          k =-0.0760-0.0000 0.0000 ( 17886 PWs)   bands (ev):

[...]

          k =-0.0760-0.0839 0.0000 ( 17948 PWs)   bands (ev):

   -55.9197 -55.8962 -55.7852 -55.6948 -55.6873 -55.6650 -55.6504 -55.6078
   -55.5659 -55.5466 -55.5112 -55.4978 -55.4625 -55.3771 -54.7568 -54.7557
   -32.2167 -32.2058 -32.1860 -32.1800 -32.1584 -32.0587 -32.0464 -32.0449
   -32.0295 -32.0177 -32.0106 -32.0034 -32.0009 -31.9559 -31.9499 -31.9228
   -31.9059 -31.9037 -31.8977 -31.8843 -31.8816 -31.8759 -31.8734 -31.8668
   -31.8571 -31.8434 -31.8206 -31.8113 -31.8033 -31.8006 -31.7730 -31.7627
   -31.7510 -31.7304 -31.7268 -31.7252 -31.7214 -31.7196 -31.6812 -31.6612
   -31.6234 -31.5827 -31.0901 -31.0890 -30.9901 -30.9883 -30.9501 -30.9488
   -20.2009 -16.5374 -15.9356 -15.8811 -15.7308 -15.7043 -15.6605 -15.6061
   -15.5476 -15.5060 -15.4958 -15.4602 -15.4410 -15.4164 -15.3951 -15.3669
   -15.3412 -15.2949 -15.2873 -15.2404 -15.2311 -15.2114 -15.1854 -15.1534
   -15.0994 -15.0863 -15.0670 -15.0347 -15.0135 -14.9249 -14.7597 -13.2639
   -13.2619  -9.4702  -5.7673  -5.7107  -4.1257  -3.7883  -3.1721  -3.0999
    -2.9544  -2.8767  -2.8101  -2.7887  -2.7728  -2.7419  -2.6765  -2.6559
    -2.6013  -2.5965  -2.5881  -2.5778  -2.5639  -2.5210  -2.4919  -2.4766
    -2.4698  -2.4515  -2.4234  -2.4094  -2.3957  -2.3838  -2.3737  -2.3672
    -2.3150  -2.2522  -2.1718  -2.1238  -2.1051  -1.9811  -1.9634  -1.9033
    -1.8905  -1.8831  -1.8518  -1.8479  -1.7753  -1.7206  -1.5666  -1.5503
    -1.5108  -1.4488  -1.4163  -1.3302  -1.3143  -1.2783  -1.2319  -1.2201
    -1.1968  -1.1760  -1.0783  -0.9989  -0.9576  -0.9182  -0.8056  -0.7895
    -0.7744  -0.7105  -0.6887  -0.6794  -0.6711  -0.6068  -0.5451  -0.4968
    -0.4788  -0.4423  -0.4219  -0.3739  -0.3156  -0.2375  -0.1666  -0.0966
    -0.0662   0.0411   0.1180   0.1555   0.2695   0.3260   0.3558   0.3839
     0.4525   0.5082   0.5261   0.6103   0.6807   0.7005   0.7584   0.7915
     0.8308   0.8656   1.6203   1.6332   1.6649   1.6756   3.2500   3.7769
     3.7868   3.8004   3.8193   3.8441   3.8672   3.9532   4.0027   4.0062

     the Fermi energy is     3.2269 ev

!    total energy              =   -2963.78481866 Ry
     estimated scf accuracy    <       0.00000004 Ry
     smearing contrib. (-TS)   =      -0.01873889 Ry
     internal energy E=F+TS    =   -2963.76607977 Ry

     The total energy is F=E-TS. E is the sum of the following terms:
     one-electron contribution =  -24352.10999052 Ry
     hartree contribution      =   12266.17284383 Ry
     xc contribution           =    -489.27468407 Ry
     ewald contribution        =    9611.44427046 Ry
     electric field correction =       0.00148053 Ry

     convergence has been achieved in  67 iterations

     Forces acting on atoms (cartesian axes, Ry/au):

     atom    1 type  1   force =    -0.00006829    0.00012963    0.10165825
     atom    2 type  1   force =    -0.00006613    0.00015809    0.10132111
     atom    3 type  2   force =    -0.00029214   -0.00136580    0.10433104
     atom    4 type  2   force =    -0.00023240    0.00134691    0.11680626
     atom    5 type  2   force =    -0.00034038    0.00599732   -0.16906134
     atom    6 type  2   force =    -0.00007685   -0.00499593   -0.16912880
     atom    7 type  1   force =    -0.07474400    0.00068063   -0.03017418
     atom    8 type  1   force =    -0.07428383   -0.00133357   -0.03017573
     atom    9 type  1   force =     0.07441932    0.00121780   -0.03022201
     atom   10 type  1   force =     0.07409992   -0.00091645   -0.03024098
     atom   11 type  1   force =     0.00083481    0.00106407    0.04729162
     atom   12 type  1   force =     0.00077976    0.00082571    0.04929151
     atom   13 type  1   force =     0.00026612   -0.00563073   -0.03768907
     atom   14 type  1   force =     0.00053998    0.00416847   -0.03208083
     atom   15 type  2   force =    -0.00044308    0.00078102   -0.00016417
     atom   16 type  2   force =    -0.00038937   -0.00082088   -0.00017262
     atom   17 type  2   force =     0.00030021   -0.00003650    0.00051257
     atom   18 type  2   force =     0.00026631    0.00013992    0.00104726
     atom   19 type  1   force =    -0.00989696   -0.00202490    0.00042060
     atom   20 type  1   force =    -0.00987876    0.00493237    0.00133595
     atom   21 type  1   force =     0.01190321   -0.00463357    0.00142670
     atom   22 type  1   force =     0.01107458    0.00175137    0.00190896
     atom   23 type  1   force =    -0.00025007    0.00002745    0.00021147
     atom   24 type  1   force =    -0.00027016    0.00003275   -0.00037906
     atom   25 type  1   force =    -0.00036628   -0.00041577   -0.00037916
     atom   26 type  1   force =    -0.00021270   -0.00006556   -0.00006787
     atom   27 type  2   force =    -0.00031674   -0.00022756   -0.00004805
     atom   28 type  2   force =     0.00016174   -0.00022755    0.00053502
     atom   29 type  2   force =     0.00033866   -0.00042388   -0.00076585
     atom   30 type  2   force =    -0.00016029    0.00029772    0.00010359
     atom   31 type  1   force =     0.00002319    0.00056999    0.00026180
     atom   32 type  1   force =     0.00039810    0.00018668   -0.00004203
     atom   33 type  1   force =    -0.00032050    0.00031403    0.00062806
     atom   34 type  1   force =    -0.00088607    0.00054485    0.00015311
     atom   35 type  1   force =    -0.00046049   -0.00046243   -0.00080445
     atom   36 type  1   force =    -0.00019334   -0.00020105   -0.00001869
     atom   37 type  1   force =    -0.00014024   -0.00038378    0.00038909
     atom   38 type  1   force =     0.00040047    0.00030026    0.00013496
     atom   39 type  2   force =    -0.00000556    0.00025836    0.00063381
     atom   40 type  2   force =    -0.00005713   -0.00039983    0.00028610
     atom   41 type  2   force =    -0.00017379    0.00024795    0.00032880
     atom   42 type  2   force =    -0.00030497   -0.00020814    0.00005064
     atom   43 type  1   force =     0.00022508   -0.00007108   -0.00021790
     atom   44 type  1   force =    -0.00045010   -0.00003966   -0.00029446
     atom   45 type  1   force =     0.00078768   -0.00002012   -0.00016830
     atom   46 type  1   force =    -0.00036759   -0.00005848   -0.00023320
     atom   47 type  1   force =     0.00028002   -0.00058953    0.00026495
     atom   48 type  1   force =    -0.00020085    0.00022959    0.00019686
     atom   49 type  3   force =    -0.00029789    0.00003209   -0.00015265
     atom   50 type  4   force =    -0.00069055    0.00015981    0.00025494
     atom   51 type  4   force =    -0.00034556   -0.00048360    0.00047783
     atom   52 type  1   force =    -0.00077697    0.00028187    0.00123795
     atom   53 type  4   force =     0.00086083   -0.00064031   -0.00081942

     Total force =     0.368611     Total SCF correction =     0.000327
  @ DRIVER MODE: Message from server: STATUS
  @ DRIVER MODE: Message from server: GETFORCE
  @ DRIVER MODE: Returning v,forces,stress,ensemble

     Writing output data file ./calc.save/
  @ DRIVER MODE: Message from server: EXIT
  @ DRIVE MODE: Exiting

     General routines

     Parallel routines

   This run was terminated on:  22:24:11  22Sep2021

   JOB DONE.