     Program PWSCF v.6.7GPU starts on  9Sep2021 at  6:37:44

     R & G space division:  proc/nbgrp/npool/nimage =      10
     Reading input from /storage/home/hcoda1/3/ntian30/research/carbon/CxH_vib/CH3_calc/ads_slab/CH3OH_e/out_0027/pw.inp
Warning: card &CELL ignored
Warning: card   CELL_DYNAMICS='IPI', ignored
Warning: card / ignored

     Current dimensions of program PWSCF are:
     Max number of different atomic species (ntypx) = 10
     Max number of k-points (npk) =  40000
     Max angular momentum in pseudopotentials (lmaxx) =  3
     Presently no symmetry can be used with electric field

     Message from routine cell_base_init:
     DEPRECATED: use true lattice parameter, not A to a.u. conversion factor

     IMPORTANT: XC functional enforced from input :
     Exchange-correlation= BEEF-VDW
                           (   1   4  43  14   2   0   0)
     Any further DFT definition will be discarded
     Please, verify this is what you really want

  @ DRIVER MODE: Connecting to
 qe_1139763_2767404.sched-torque.pace.gatech.edugi7fs6s5_scratch
  using UNIX socket
  @ DRIVER MODE: Message from server: STATUS
  @ DRIVER MODE: Message from server: INIT
  @ DRIVER MODE: Receiving replica           0          -1
  @ DRIVER MODE: Receiving encoded integer          25
  @ DRIVER MODE:  SCF:  T  FORCE:  T  STRESS:  F  VC:  F  ENSEMBLE:  F
  @ DRIVER MODE:  SCF:  T  FORCE:  T  STRESS:  F  VC:  F  ENSEMBLE:  F

     Using Slab Decomposition

     bravais-lattice index     =            0
     lattice parameter (alat)  =       1.8897  a.u.
     unit-cell volume          =    6658.9804 (a.u.)^3
     number of atoms/cell      =           53
     number of atomic types    =            4
     number of electrons       =       392.00
     number of Kohn-Sham states=          206
     kinetic-energy cutoff     =      29.3995  Ry
     charge density cutoff     =     293.9946  Ry
     scf convergence threshold =      7.3E-08
     mixing beta               =       0.0500
     number of iterations used =            8  plain     mixing
     Exchange-correlation= BEEF-VDW
                           (   1   4  43  14   2   0   0)

     celldm(1)=   1.889726  celldm(2)=   0.000000  celldm(3)=   0.000000
     celldm(4)=   0.000000  celldm(5)=   0.000000  celldm(6)=   0.000000

     crystal axes: (cart. coord. in units of alat)
               a(1) = (   6.579727   0.000000   0.000000 )
               a(2) = (  -0.000775   5.961596   0.000000 )
               a(3) = (   0.000000   0.000000  25.155947 )

     reciprocal axes: (cart. coord. in units 2 pi/alat)
               b(1) = (  0.151982  0.000020  0.000000 )
               b(2) = (  0.000000  0.167740  0.000000 )
               b(3) = (  0.000000  0.000000  0.039752 )

     PseudoPot. # 1 for Ti read from file:
     /storage/coda1/p-amedford6/0/shared/rich_project_chbe-medford/medford-share/data/pseudos_module/espresso/nninc/pbe/van/Ti.UPF
     MD5 check sum: 8e4df49b7f0d34bbd5052bf3f5ea0213
     Pseudo is Ultrasoft, Zval = 12.0
     Generated by new atomic code, or converted to UPF format
     Using radial grid of  851 points,  6 beta functions with:
                l(1) =   0
                l(2) =   0
                l(3) =   1
                l(4) =   1
                l(5) =   2
                l(6) =   2
     Q(r) pseudized with  8 coefficients,  rinner =    1.000   1.000   1.000
                                                       1.000   1.000

     PseudoPot. # 2 for O  read from file:
     /storage/coda1/p-amedford6/0/shared/rich_project_chbe-medford/medford-share/data/pseudos_module/espresso/nninc/pbe/van/O.UPF
     MD5 check sum: 78c19812648e8988a0fe644b0f25305e
     Pseudo is Ultrasoft, Zval =  6.0
     Generated by new atomic code, or converted to UPF format
     Using radial grid of  737 points,  4 beta functions with:
                l(1) =   0
                l(2) =   0
                l(3) =   1
                l(4) =   1
     Q(r) pseudized with  8 coefficients,  rinner =    0.800   0.800   0.800

     PseudoPot. # 3 for C  read from file:
     /storage/coda1/p-amedford6/0/shared/rich_project_chbe-medford/medford-share/data/pseudos_module/espresso/nninc/pbe/van/C.UPF
     MD5 check sum: 1a69bf6b8db32088f5b2163dbdb77a27
     Pseudo is Ultrasoft, Zval =  4.0
     Generated by new atomic code, or converted to UPF format
     Using radial grid of  721 points,  4 beta functions with:
                l(1) =   0
                l(2) =   0
                l(3) =   1
                l(4) =   1
     Q(r) pseudized with  8 coefficients,  rinner =    0.800   0.800   0.800

     PseudoPot. # 4 for H  read from file:
     /storage/coda1/p-amedford6/0/shared/rich_project_chbe-medford/medford-share/data/pseudos_module/espresso/nninc/pbe/van/H.UPF
     MD5 check sum: b5ee9d7bfd3a09ee7748110bda690ff7
     Pseudo is Ultrasoft, Zval =  1.0
     Generated by new atomic code, or converted to UPF format
     Using radial grid of  615 points,  1 beta functions with:
                l(1) =   0
     Q(r) pseudized with  8 coefficients,  rinner =    0.800

     atomic species   valence    mass     pseudopotential
        Ti1           12.00    47.86700     Ti( 1.00)
        O1             6.00    15.99900     O ( 1.00)
        C1             4.00    12.01100     C ( 1.00)
        H1             1.00     1.00800     H ( 1.00)

     No symmetry found

   Cartesian axes

     site n.     atom                  positions (alat units)
         1           Ti1 tau(   1) = (   0.0004258   2.9801865   6.0000000  )
         2           Ti1 tau(   2) = (   3.2906075   1.4906267   6.0002472  )
         3           O1  tau(   3) = (   0.0006271   0.0005054   7.9858123  )
         4           O1  tau(   4) = (   3.2906025   0.0005020   7.3038282  )
         5           O1  tau(   5) = (   4.5942328   1.4918067   9.2879030  )
         6           O1  tau(   6) = (   1.9868534   1.4903216   9.2879459  )
         7           Ti1 tau(   7) = (   3.3184627   3.0104606   9.1553648  )
         8           Ti1 tau(   8) = (   0.0346466   1.5145919   9.2725854  )
         9           O1  tau(   9) = (   3.3323670   0.0074739  11.3628161  )
        10           O1  tau(  10) = (   0.0072146   0.0022432  10.6032180  )
        11           O1  tau(  11) = (   1.3334854   1.5010653  12.6312402  )
        12           O1  tau(  12) = (   5.3322653   1.4967215  12.6661074  )
        13           Ti1 tau(  13) = (   0.0399007   3.0049294  12.5399032  )
        14           Ti1 tau(  14) = (   3.3257882   1.5006484  12.5017209  )
        15           O1  tau(  15) = (   0.0958175   0.0109015  14.6781201  )
        16           O1  tau(  16) = (   3.3209445   0.0065530  13.9947117  )
        17           O1  tau(  17) = (   4.6470289   1.5235192  16.1521327  )
        18           O1  tau(  18) = (   2.1274687   1.5288575  16.1863263  )
        19           Ti1 tau(  19) = (   3.3866828   2.9872137  15.7186651  )
        20           Ti1 tau(  20) = (   0.0851359   1.3433488  15.9962781  )
        21           O1  tau(  21) = (   3.2904802   0.0005063   4.7018136  )
        22           O1  tau(  22) = (   0.0861787   0.0156205  17.2101336  )
        23           O1  tau(  23) = (   1.3043587   1.4918075   6.0039043  )
        24           O1  tau(  24) = (   5.2767064   1.4903225   6.0039473  )
        25           Ti1 tau(  25) = (   0.0000382   5.9609847   6.0000000  )
        26           Ti1 tau(  26) = (   3.2902200   4.4714249   6.0002472  )
        27           O1  tau(  27) = (   0.0002396   2.9813036   7.9858123  )
        28           O1  tau(  28) = (   3.2902150   2.9813002   7.3038282  )
        29           O1  tau(  29) = (   4.5938453   4.4726049   9.2879030  )
        30           O1  tau(  30) = (   1.9864658   4.4711199   9.2879459  )
        31           Ti1 tau(  31) = (   3.3160408   0.0312979   9.1533790  )
        32           Ti1 tau(  32) = (   0.0342031   4.4824714   9.2635914  )
        33           O1  tau(  33) = (   3.3296961   2.9874083  11.3532073  )
        34           O1  tau(  34) = (   0.0071558   2.9827229  10.6249429  )
        35           O1  tau(  35) = (   1.3339759   4.4780823  12.6303471  )
        36           O1  tau(  36) = (   5.3316377   4.4803543  12.6653953  )
        37           Ti1 tau(  37) = (   0.0318003   0.0267859  12.4824326  )
        38           Ti1 tau(  38) = (   3.3243002   4.4792164  12.4996646  )
        39           O1  tau(  39) = (   0.1017966   3.0039049  14.8467192  )
        40           O1  tau(  40) = (   3.3365867   2.9884115  13.9371009  )
        41           O1  tau(  41) = (   4.6519449   4.4651455  16.1366910  )
        42           O1  tau(  42) = (   2.1329502   4.4467914  16.2189938  )
        43           Ti1 tau(  43) = (   3.3530478   0.0116223  15.7847896  )
        44           Ti1 tau(  44) = (   0.0420906   4.5503417  15.8661587  )
        45           O1  tau(  45) = (   3.2900926   2.9813045   4.7018136  )
        46           O1  tau(  46) = (   1.3039711   4.4726057   6.0039043  )
        47           O1  tau(  47) = (   5.2763189   4.4711207   6.0039473  )
        48           C1  tau(  48) = (   6.0571888   3.1179766  18.9039971  )
        49           O1  tau(  49) = (   0.2335693   3.0433622  17.6694830  )
        50           H1  tau(  50) = (   5.0284728   2.8969007  18.6408099  )
        51           H1  tau(  51) = (   1.1757692   3.2348548  17.8288520  )
        52           H1  tau(  52) = (   6.4315421   2.3564480  19.5988381  )
        53           H1  tau(  53) = (   6.1352977   4.1238860  19.3131673  )

     number of k points=    10  Fermi-Dirac smearing, width (Ry)=  0.0073
                       cart. coord. in units 2pi/alat
        k(    1) = (   0.0000000   0.0000000   0.0000000), wk =   0.1250000
        k(    2) = (   0.0000000   0.0419351   0.0000000), wk =   0.2500000
        k(    3) = (   0.0000000  -0.0838702   0.0000000), wk =   0.1250000
        k(    4) = (   0.0379955   0.0000049   0.0000000), wk =   0.2500000
        k(    5) = (   0.0379955   0.0419400   0.0000000), wk =   0.2500000
        k(    6) = (   0.0379955  -0.0838652   0.0000000), wk =   0.2500000
        k(    7) = (   0.0379955  -0.0419301   0.0000000), wk =   0.2500000
        k(    8) = (  -0.0759910  -0.0000099   0.0000000), wk =   0.1250000
        k(    9) = (  -0.0759910   0.0419252   0.0000000), wk =   0.2500000
        k(   10) = (  -0.0759910  -0.0838800   0.0000000), wk =   0.1250000

     Initial potential from superposition of free atoms

     starting charge  375.99917, renormalised to  392.00000

     negative rho (up, down):  1.694E-02 0.000E+00

     %%%%%%%%%%%%%%%%%%%%%%%%%%%%%%%%%%%%%%%%%%%%%%%%%%%%%%%%%%%%%%%%%%%%%%%%
     %                                                                      %
     % You are using vdW-DF, which was implemented by the Thonhauser group. %
     % Please cite the following two papers that made this development      %
     % possible and the two reviews that describe the various versions:     %
     %                                                                      %
     %   T. Thonhauser et al., PRL 115, 136402 (2015).                      %
     %   T. Thonhauser et al., PRB 76, 125112 (2007).                       %
     %   K. Berland et al., Rep. Prog. Phys. 78, 066501 (2015).             %
     %   D.C. Langreth et al., J. Phys.: Condens. Matter 21, 084203 (2009). %
     %                                                                      %
     %                                                                      %
     % If you are calculating the stress with vdW-DF, please also cite:     %
     %                                                                      %
     %   R. Sabatini et al., J. Phys.: Condens. Matter 24, 424209 (2012).   %
     %                                                                      %
     %%%%%%%%%%%%%%%%%%%%%%%%%%%%%%%%%%%%%%%%%%%%%%%%%%%%%%%%%%%%%%%%%%%%%%%%

     Adding external electric field

     Computed dipole along edir(3) :
        Dipole               -7.1856 Ry au,        -18.2640 Debye
        Dipole field         -0.0136 Ry au,

        Potential amp.        1.2570 Ry
        Total length         46.3494 bohr

     Starting wfcs are  296 atomic wfcs
  @ DRIVER MODE: Message from server: STATUS
  @ DRIVER MODE: Message from server: POSDATA
  @ DRIVER MODE: Reading and sharing cell
  @ DRIVER MODE: Reading and sharing positions
  @ DRIVER MODE: Received positions

     Self-consistent Calculation

     iteration #  1     ecut=    29.40 Ry     beta= 0.05
     Davidson diagonalization with overlap
     c_bands:  1 eigenvalues not converged
     c_bands:  1 eigenvalues not converged
     c_bands:  2 eigenvalues not converged
     c_bands:  1 eigenvalues not converged
     c_bands:  1 eigenvalues not converged
     c_bands:  1 eigenvalues not converged
     ethr =  1.00E-05,  avg # of iterations = 19.1

[...]

     total energy              =   -2696.73345065 Ry
     estimated scf accuracy    <    2609.11943275 Ry

[...]

     iteration #  3     ecut=    29.40 Ry     beta= 0.05
     Davidson diagonalization with overlap
     ethr =  1.00E-02,  avg # of iterations = 14.1

[...]

     iteration # 73     ecut=    29.40 Ry     beta= 0.05
     Davidson diagonalization with overlap
     c_bands:  1 eigenvalues not converged
     ethr =  3.81E-11,  avg # of iterations = 13.5

[...]

     total energy              =   -2932.64527771 Ry
     estimated scf accuracy    <       0.00000008 Ry

     iteration # 76     ecut=    29.40 Ry     beta= 0.05
     Davidson diagonalization with overlap
     ethr =  1.89E-11,  avg # of iterations =  5.6

     negative rho (up, down):  1.737E-02 0.000E+00

     Adding external electric field

     Computed dipole along edir(3) :
        Dipole                1.3721 Ry au,          3.4876 Debye
        Dipole field          0.0026 Ry au,

        Potential amp.       -0.2400 Ry
        Total length         46.3494 bohr

     End of self-consistent calculation

          k = 0.0000 0.0000 0.0000 ( 18029 PWs)   bands (ev):

   -55.4014 -55.3692 -55.3652 -55.3349 -55.2962 -55.2899 -55.2880 -55.2442
   -55.2279 -55.2277 -55.1934 -55.1857 -55.1819 -55.1516 -54.4594 -54.4254
   -31.9771 -31.9089 -31.8643 -31.7748 -31.7289 -31.7053 -31.6981 -31.6969
   -31.6583 -31.6575 -31.6129 -31.6120 -31.6085 -31.6019 -31.5795 -31.5579
   -31.5536 -31.5360 -31.5312 -31.5233 -31.5214 -31.5098 -31.4863 -31.4853
   -31.4851 -31.4656 -31.4602 -31.4567 -31.4266 -31.4204 -31.4116 -31.3918
   -31.3900 -31.3895 -31.3697 -31.3641 -31.3553 -31.3449 -31.3296 -31.3223
   -31.3117 -31.2974 -30.8714 -30.7690 -30.7475 -30.6879 -30.6016 -30.4903
   -20.2579 -16.2487 -15.9819 -15.8471 -15.7428 -15.6205 -15.4924 -15.4804
   -15.3480 -15.2209 -15.1545 -15.1331 -15.0962 -15.0802 -15.0474 -15.0424
   -15.0273 -14.9560 -14.9296 -14.9109 -14.8847 -14.8809 -14.8433 -14.8324
   -14.7916 -14.7848 -14.6390 -14.5597 -14.4986 -14.2605 -12.9598 -12.8403
   -11.2311  -6.9875  -5.2169  -5.0623  -3.5834  -3.4121  -3.3590  -3.3328
    -3.3271  -3.1949  -3.0857  -3.0362  -2.8297  -2.7022  -2.6678  -2.6596
    -2.6247  -2.5855  -2.4709  -2.3818  -2.3554  -2.3422  -2.2957  -2.2889
    -2.2723  -2.2188  -2.1971  -2.1774  -2.1712  -2.0115  -1.9474  -1.8981
    -1.8858  -1.8394  -1.8014  -1.7414  -1.7381  -1.7230  -1.6854  -1.6813
    -1.6603  -1.6280  -1.6134  -1.4410  -1.3936  -1.3646  -1.2705  -1.1770
    -1.0897  -0.9914  -0.9747  -0.9604  -0.9156  -0.8480  -0.8398  -0.8062
    -0.7679  -0.6480  -0.5809  -0.5337  -0.4804  -0.4032  -0.4026  -0.3437
    -0.2057  -0.1914  -0.1832  -0.1676  -0.0642   0.0154   0.0281   0.0875
     0.1370   0.1599   0.2324   0.2521   0.3173   0.3405   0.4057   0.4229
     0.5100   0.5311   0.5452   0.5650   0.5828   0.6746   0.7006   0.7476
     0.7549   0.9098   1.0377   1.1615   1.1753   1.4560   1.5471   1.5669
     1.7261   2.1529   2.2076   3.6965   3.7608   3.8095   3.8180   3.8291
     3.9070   4.1856   4.1921   4.1978   4.2131   4.2222

[...]

          k = 0.0380-0.0419 0.0000 ( 17876 PWs)   bands (ev):

[...]

          k =-0.0760-0.0000 0.0000 ( 17886 PWs)   bands (ev):

[...]

          k =-0.0760-0.0839 0.0000 ( 17948 PWs)   bands (ev):

   -55.3842 -55.3822 -55.3539 -55.3501 -55.2900 -55.2863 -55.2822 -55.2518
   -55.2327 -55.2126 -55.2083 -55.1845 -55.1709 -55.1665 -54.4424 -54.4423
   -31.8269 -31.7801 -31.7786 -31.7049 -31.6809 -31.6774 -31.6648 -31.6471
   -31.6400 -31.6200 -31.6067 -31.6026 -31.5974 -31.5794 -31.5513 -31.5417
   -31.5323 -31.5291 -31.5288 -31.5261 -31.5249 -31.5215 -31.5134 -31.4864
   -31.4798 -31.4767 -31.4739 -31.4735 -31.4719 -31.4704 -31.4659 -31.4518
   -31.4431 -31.4379 -31.4242 -31.4129 -31.4112 -31.3930 -31.3885 -31.3718
   -31.3587 -31.3545 -30.7601 -30.7600 -30.6842 -30.6840 -30.6448 -30.6448
   -20.2544 -15.7771 -15.6858 -15.6111 -15.4219 -15.4107 -15.4017 -15.3952
   -15.2828 -15.2538 -15.2223 -15.1814 -15.1654 -15.1614 -15.1449 -15.1371
   -15.0001 -14.9963 -14.9912 -14.9897 -14.9189 -14.9140 -14.8995 -14.8848
   -14.8465 -14.8419 -14.8262 -14.8202 -14.7199 -14.5782 -12.9417 -12.9409
   -11.2329  -6.9878  -5.2066  -5.0525  -3.0960  -2.9636  -2.8826  -2.8720
    -2.6362  -2.6294  -2.5895  -2.5287  -2.4776  -2.4259  -2.4005  -2.3974
    -2.3197  -2.3158  -2.3089  -2.3035  -2.2711  -2.2677  -2.2244  -2.2004
    -2.1771  -2.1223  -2.1049  -2.0947  -2.0715  -2.0668  -2.0579  -2.0329
    -2.0281  -2.0095  -1.9417  -1.8622  -1.7909  -1.7739  -1.7390  -1.6256
    -1.6154  -1.5789  -1.5387  -1.4955  -1.4750  -1.4503  -1.4037  -1.3514
    -1.2493  -1.1961  -1.1884  -1.1484  -1.0810  -1.0349  -1.0014  -0.9525
    -0.9035  -0.8712  -0.8300  -0.7631  -0.7128  -0.6229  -0.6171  -0.5734
    -0.4331  -0.4276  -0.4022  -0.3916  -0.3888  -0.3030  -0.2891  -0.2438
    -0.1978  -0.1437  -0.1191  -0.1108   0.0854   0.0948   0.1796   0.2716
     0.2820   0.4370   0.4527   0.5194   0.5911   0.6346   0.6751   0.7383
     0.8374   0.8698   0.8929   0.9868   1.0285   1.0341   1.0608   1.9188
     1.9200   2.0219   2.0248   3.8380   3.9105   3.9430   4.0144   4.0753
     4.2054   4.2181   4.2484   4.2543   4.3295   4.3433

     the Fermi energy is     3.7514 ev

!    total energy              =   -2932.64528685 Ry
     estimated scf accuracy    <       0.00000002 Ry
     smearing contrib. (-TS)   =      -0.03689550 Ry
     internal energy E=F+TS    =   -2932.60839134 Ry

     The total energy is F=E-TS. E is the sum of the following terms:
     one-electron contribution =  -24389.32173127 Ry
     hartree contribution      =   12284.42874287 Ry
     xc contribution           =    -483.01326927 Ry
     ewald contribution        =    9655.29431341 Ry
     electric field correction =       0.00355292 Ry

     convergence has been achieved in  76 iterations

     Forces acting on atoms (cartesian axes, Ry/au):

     atom    1 type  1   force =    -0.00034119   -0.00014256    0.09276641
     atom    2 type  1   force =    -0.00024391    0.00065970   -0.18343853
     atom    3 type  2   force =     0.00047444    0.00086007   -0.02413245
     atom    4 type  2   force =     0.00075547    0.00051661    0.04951945
     atom    5 type  2   force =    -0.01310050    0.00029478    0.00325258
     atom    6 type  2   force =     0.01563248   -0.00028405    0.00544334
     atom    7 type  1   force =     0.00018702    0.00090549   -0.00000603
     atom    8 type  1   force =    -0.00022002   -0.00027139   -0.00039333
     atom    9 type  2   force =    -0.00005782    0.00023282   -0.00022920
     atom   10 type  2   force =     0.00013802    0.00048932    0.00163652
     atom   11 type  2   force =    -0.00000331   -0.00046364    0.00004284
     atom   12 type  2   force =    -0.00055944    0.00040539   -0.00026379
     atom   13 type  1   force =     0.00101449   -0.00064926    0.00009200
     atom   14 type  1   force =    -0.00081147    0.00093438    0.00067750
     atom   15 type  2   force =    -0.00065172   -0.00022805   -0.00023158
     atom   16 type  2   force =     0.00065049   -0.00024062   -0.00043820
     atom   17 type  2   force =    -0.00062236    0.00004630    0.00094365
     atom   18 type  2   force =    -0.00044720   -0.00021019    0.00017180
     atom   19 type  1   force =    -0.00011827   -0.00086457    0.00006623
     atom   20 type  1   force =    -0.00041993    0.00017928   -0.00014564
     atom   21 type  2   force =    -0.00005304    0.00001251    0.10497695
     atom   22 type  2   force =    -0.00020665   -0.00133693    0.00103059
     atom   23 type  2   force =    -0.06794561   -0.00004706   -0.02679547
     atom   24 type  2   force =     0.06772123    0.00039506   -0.02688504
     atom   25 type  1   force =    -0.00037604    0.00013471    0.09634621
     atom   26 type  1   force =    -0.00022327   -0.00047503   -0.18356743
     atom   27 type  2   force =     0.00041848    0.00058889   -0.02277108
     atom   28 type  2   force =     0.00079268    0.00033406    0.04921801
     atom   29 type  2   force =    -0.01324365    0.00068165    0.00321656
     atom   30 type  2   force =     0.01571146    0.00023894    0.00536685
     atom   31 type  1   force =     0.00029701   -0.00138071   -0.00016986
     atom   32 type  1   force =    -0.00006079   -0.00014774    0.00029690
     atom   33 type  2   force =     0.00033321   -0.00010033    0.00078588
     atom   34 type  2   force =     0.00036324    0.00036112    0.00037884
     atom   35 type  2   force =    -0.00035836    0.00005072    0.00014352
     atom   36 type  2   force =    -0.00026138    0.00028722    0.00002699
     atom   37 type  1   force =     0.00137367   -0.00001490   -0.00052399
     atom   38 type  1   force =    -0.00077168   -0.00077893    0.00093858
     atom   39 type  2   force =    -0.00065377    0.00019825   -0.00056629
     atom   40 type  2   force =    -0.00062740    0.00037077   -0.00013665
     atom   41 type  2   force =    -0.00063981   -0.00006934    0.00072552
     atom   42 type  2   force =    -0.00078246   -0.00025830    0.00022843
     atom   43 type  1   force =    -0.00038917    0.00098387    0.00034908
     atom   44 type  1   force =     0.00030750    0.00016799    0.00061140
     atom   45 type  2   force =    -0.00005385    0.00003005    0.10494312
     atom   46 type  2   force =    -0.06790223   -0.00057048   -0.02680426
     atom   47 type  2   force =     0.06767510   -0.00009947   -0.02688119
     atom   48 type  3   force =     0.00246342   -0.00753896    0.00356515
     atom   49 type  2   force =    -0.00084103   -0.00050726   -0.00035452
     atom   50 type  4   force =    -0.00012581    0.00001468    0.00075200
     atom   51 type  4   force =    -0.00021431   -0.00028385    0.00044847
     atom   52 type  4   force =    -0.00316547    0.00709171   -0.00464827
     atom   53 type  4   force =     0.00018351   -0.00050271    0.00042144

     Total force =     0.368279     Total SCF correction =     0.000620
  @ DRIVER MODE: Message from server: STATUS
  @ DRIVER MODE: Message from server: GETFORCE
  @ DRIVER MODE: Returning v,forces,stress,ensemble

     Writing output data file ./calc.save/
  @ DRIVER MODE: Message from server: EXIT
  @ DRIVE MODE: Exiting

     General routines

     Parallel routines

   This run was terminated on:   6:56:59   9Sep2021

   JOB DONE.