     Program PWSCF v.6.7GPU starts on 15Sep2021 at 23:43: 1

     R & G space division:  proc/nbgrp/npool/nimage =      10
     Reading input from /storage/home/hcoda1/3/ntian30/research/carbon/CxH_vib/H2O_calc/ads_slab/CHNHHH2O_a/out_0025/pw.inp
Warning: card &CELL ignored
Warning: card   CELL_DYNAMICS='IPI', ignored
Warning: card / ignored

     Current dimensions of program PWSCF are:
     Max number of different atomic species (ntypx) = 10
     Max number of k-points (npk) =  40000
     Max angular momentum in pseudopotentials (lmaxx) =  3
     Presently no symmetry can be used with electric field

     Message from routine cell_base_init:
     DEPRECATED: use true lattice parameter, not A to a.u. conversion factor

     IMPORTANT: XC functional enforced from input :
     Exchange-correlation= BEEF-VDW
                           (   1   4  43  14   2   0   0)
     Any further DFT definition will be discarded
     Please, verify this is what you really want

  @ DRIVER MODE: Connecting to
 qe_1139763_2852629.sched-torque.pace.gatech.eduw9fpfzoj_scratch
  using UNIX socket
  @ DRIVER MODE: Message from server: STATUS
  @ DRIVER MODE: Message from server: INIT
  @ DRIVER MODE: Receiving replica           0          -1
  @ DRIVER MODE: Receiving encoded integer          25
  @ DRIVER MODE:  SCF:  T  FORCE:  T  STRESS:  F  VC:  F  ENSEMBLE:  F
  @ DRIVER MODE:  SCF:  T  FORCE:  T  STRESS:  F  VC:  F  ENSEMBLE:  F

     Using Slab Decomposition

     bravais-lattice index     =            0
     lattice parameter (alat)  =       1.8897  a.u.
     unit-cell volume          =    6658.9804 (a.u.)^3
     number of atoms/cell      =           55
     number of atomic types    =            5
     number of electrons       =       398.00
     number of Kohn-Sham states=          209
     kinetic-energy cutoff     =      29.3995  Ry
     charge density cutoff     =     293.9946  Ry
     scf convergence threshold =      7.3E-08
     mixing beta               =       0.0500
     number of iterations used =            8  plain     mixing
     Exchange-correlation= BEEF-VDW
                           (   1   4  43  14   2   0   0)

     celldm(1)=   1.889726  celldm(2)=   0.000000  celldm(3)=   0.000000
     celldm(4)=   0.000000  celldm(5)=   0.000000  celldm(6)=   0.000000

     crystal axes: (cart. coord. in units of alat)
               a(1) = (   6.579727   0.000000   0.000000 )
               a(2) = (  -0.000775   5.961596   0.000000 )
               a(3) = (   0.000000   0.000000  25.155947 )

     reciprocal axes: (cart. coord. in units 2 pi/alat)
               b(1) = (  0.151982  0.000020  0.000000 )
               b(2) = (  0.000000  0.167740  0.000000 )
               b(3) = (  0.000000  0.000000  0.039752 )

     PseudoPot. # 1 for Ti read from file:
     /storage/coda1/p-amedford6/0/shared/rich_project_chbe-medford/medford-share/data/pseudos_module/espresso/nninc/pbe/van/Ti.UPF
     MD5 check sum: 8e4df49b7f0d34bbd5052bf3f5ea0213
     Pseudo is Ultrasoft, Zval = 12.0
     Generated by new atomic code, or converted to UPF format
     Using radial grid of  851 points,  6 beta functions with:
                l(1) =   0
                l(2) =   0
                l(3) =   1
                l(4) =   1
                l(5) =   2
                l(6) =   2
     Q(r) pseudized with  8 coefficients,  rinner =    1.000   1.000   1.000
                                                       1.000   1.000

     PseudoPot. # 2 for O  read from file:
     /storage/coda1/p-amedford6/0/shared/rich_project_chbe-medford/medford-share/data/pseudos_module/espresso/nninc/pbe/van/O.UPF
     MD5 check sum: 78c19812648e8988a0fe644b0f25305e
     Pseudo is Ultrasoft, Zval =  6.0
     Generated by new atomic code, or converted to UPF format
     Using radial grid of  737 points,  4 beta functions with:
                l(1) =   0
                l(2) =   0
                l(3) =   1
                l(4) =   1
     Q(r) pseudized with  8 coefficients,  rinner =    0.800   0.800   0.800

     PseudoPot. # 3 for N  read from file:
     /storage/coda1/p-amedford6/0/shared/rich_project_chbe-medford/medford-share/data/pseudos_module/espresso/nninc/pbe/van/N.UPF
     MD5 check sum: 90d10febe142ad51ac9d5be1deb811c4
     Pseudo is Ultrasoft, Zval =  5.0
     Generated by new atomic code, or converted to UPF format
     Using radial grid of  729 points,  4 beta functions with:
                l(1) =   0
                l(2) =   0
                l(3) =   1
                l(4) =   1
     Q(r) pseudized with  8 coefficients,  rinner =    0.800   0.800   0.800

     PseudoPot. # 4 for C  read from file:
     /storage/coda1/p-amedford6/0/shared/rich_project_chbe-medford/medford-share/data/pseudos_module/espresso/nninc/pbe/van/C.UPF
     MD5 check sum: 1a69bf6b8db32088f5b2163dbdb77a27
     Pseudo is Ultrasoft, Zval =  4.0
     Generated by new atomic code, or converted to UPF format
     Using radial grid of  721 points,  4 beta functions with:
                l(1) =   0
                l(2) =   0
                l(3) =   1
                l(4) =   1
     Q(r) pseudized with  8 coefficients,  rinner =    0.800   0.800   0.800

     PseudoPot. # 5 for H  read from file:
     /storage/coda1/p-amedford6/0/shared/rich_project_chbe-medford/medford-share/data/pseudos_module/espresso/nninc/pbe/van/H.UPF
     MD5 check sum: b5ee9d7bfd3a09ee7748110bda690ff7
     Pseudo is Ultrasoft, Zval =  1.0
     Generated by new atomic code, or converted to UPF format
     Using radial grid of  615 points,  1 beta functions with:
                l(1) =   0
     Q(r) pseudized with  8 coefficients,  rinner =    0.800

     atomic species   valence    mass     pseudopotential
        Ti1           12.00    47.86700     Ti( 1.00)
        O1             6.00    15.99900     O ( 1.00)
        N1             5.00    14.00700     N ( 1.00)
        C1             4.00    12.01100     C ( 1.00)
        H1             1.00     1.00800     H ( 1.00)

     No symmetry found

   Cartesian axes

     site n.     atom                  positions (alat units)
         1           Ti1 tau(   1) = (   0.0004258   2.9801865   6.0000000  )
         2           Ti1 tau(   2) = (   3.2906075   1.4906267   6.0002472  )
         3           O1  tau(   3) = (   0.0006271   0.0005054   7.9858123  )
         4           O1  tau(   4) = (   3.2906025   0.0005020   7.3038282  )
         5           O1  tau(   5) = (   4.5942328   1.4918067   9.2879030  )
         6           O1  tau(   6) = (   1.9868534   1.4903216   9.2879459  )
         7           Ti1 tau(   7) = (   3.2907910   2.8959150   9.1758416  )
         8           Ti1 tau(   8) = (   0.0015273   1.4827037   9.2680791  )
         9           O1  tau(   9) = (   3.2943807   5.9438157  11.3430345  )
        10           O1  tau(  10) = (   0.0116148   5.9584955  10.6183126  )
        11           O1  tau(  11) = (   1.2953376   1.4759649  12.6292060  )
        12           O1  tau(  12) = (   5.2846356   1.4785235  12.6176154  )
        13           Ti1 tau(  13) = (   0.0556596   2.9564334  12.6140783  )
        14           Ti1 tau(  14) = (   3.3658323   1.4657407  12.4949608  )
        15           O1  tau(  15) = (   6.5664030   0.0209144  14.6477191  )
        16           O1  tau(  16) = (   3.3113265   5.9542485  13.9698242  )
        17           O1  tau(  17) = (   4.5454210   1.5146250  16.1225105  )
        18           O1  tau(  18) = (   2.0305911   1.5113983  16.0894517  )
        19           Ti1 tau(  19) = (   3.2587399   2.9544808  15.6767922  )
        20           Ti1 tau(  20) = (   6.5654577   1.5458692  15.9193722  )
        21           O1  tau(  21) = (   3.2904802   0.0005063   4.7018136  )
        22           O1  tau(  22) = (   0.0418464   5.8849155  17.2380659  )
        23           O1  tau(  23) = (   1.3043587   1.4918075   6.0039043  )
        24           O1  tau(  24) = (   5.2767064   1.4903225   6.0039473  )
        25           Ti1 tau(  25) = (   0.0000382   5.9609847   6.0000000  )
        26           Ti1 tau(  26) = (   3.2902200   4.4714249   6.0002472  )
        27           O1  tau(  27) = (   0.0002396   2.9813036   7.9858123  )
        28           O1  tau(  28) = (   3.2902150   2.9813002   7.3038282  )
        29           O1  tau(  29) = (   4.5938453   4.4726049   9.2879030  )
        30           O1  tau(  30) = (   1.9864658   4.4711199   9.2879459  )
        31           Ti1 tau(  31) = (   3.2891106   5.8743827   9.1763621  )
        32           Ti1 tau(  32) = (   0.0006254   4.4649316   9.2693709  )
        33           O1  tau(  33) = (   3.2978316   2.9705197  11.3397625  )
        34           O1  tau(  34) = (   0.0092240   2.9805883  10.6323155  )
        35           O1  tau(  35) = (   1.2936985   4.4655287  12.6460247  )
        36           O1  tau(  36) = (   5.2856521   4.4646452  12.6308247  )
        37           Ti1 tau(  37) = (   0.0515089   5.9379728  12.5308627  )
        38           Ti1 tau(  38) = (   3.3654372   4.4547101  12.4935900  )
        39           O1  tau(  39) = (   6.5748852   2.9443291  14.6951209  )
        40           O1  tau(  40) = (   3.2957406   2.9584624  13.8938737  )
        41           O1  tau(  41) = (   4.5486474   4.4154460  16.0876977  )
        42           O1  tau(  42) = (   2.0388008   4.4257786  16.0448984  )
        43           Ti1 tau(  43) = (   3.3137362   5.9209902  15.7922403  )
        44           Ti1 tau(  44) = (   0.0032603   4.6697478  15.9558853  )
        45           O1  tau(  45) = (   3.2900926   2.9813045   4.7018136  )
        46           O1  tau(  46) = (   1.3039711   4.4726057   6.0039043  )
        47           O1  tau(  47) = (   5.2763189   4.4711207   6.0039473  )
        48           N1  tau(  48) = (   5.6270067   3.1633449  18.6203826  )
        49           C1  tau(  49) = (   0.0237924   2.7940403  17.7774691  )
        50           H1  tau(  50) = (   0.9584034   2.6460975  18.3247808  )
        51           H1  tau(  51) = (   4.7713523   3.5531088  18.2436842  )
        52           H1  tau(  52) = (   5.8068525   3.4166350  19.5804594  )
        53           O1  tau(  53) = (   3.2115967   5.9081562  18.2546127  )
        54           H1  tau(  54) = (   3.8106726   0.6855978  18.4519937  )
        55           H1  tau(  55) = (   2.3006756   0.2828797  18.3268221  )

     number of k points=    10  Fermi-Dirac smearing, width (Ry)=  0.0073
                       cart. coord. in units 2pi/alat
        k(    1) = (   0.0000000   0.0000000   0.0000000), wk =   0.1250000
        k(    2) = (   0.0000000   0.0419351   0.0000000), wk =   0.2500000
        k(    3) = (   0.0000000  -0.0838702   0.0000000), wk =   0.1250000
        k(    4) = (   0.0379955   0.0000049   0.0000000), wk =   0.2500000
        k(    5) = (   0.0379955   0.0419400   0.0000000), wk =   0.2500000
        k(    6) = (   0.0379955  -0.0838652   0.0000000), wk =   0.2500000
        k(    7) = (   0.0379955  -0.0419301   0.0000000), wk =   0.2500000
        k(    8) = (  -0.0759910  -0.0000099   0.0000000), wk =   0.1250000
        k(    9) = (  -0.0759910   0.0419252   0.0000000), wk =   0.2500000
        k(   10) = (  -0.0759910  -0.0838800   0.0000000), wk =   0.1250000

     Initial potential from superposition of free atoms

     starting charge  381.99915, renormalised to  398.00000

     negative rho (up, down):  1.708E-02 0.000E+00

     %%%%%%%%%%%%%%%%%%%%%%%%%%%%%%%%%%%%%%%%%%%%%%%%%%%%%%%%%%%%%%%%%%%%%%%%
     %                                                                      %
     % You are using vdW-DF, which was implemented by the Thonhauser group. %
     % Please cite the following two papers that made this development      %
     % possible and the two reviews that describe the various versions:     %
     %                                                                      %
     %   T. Thonhauser et al., PRL 115, 136402 (2015).                      %
     %   T. Thonhauser et al., PRB 76, 125112 (2007).                       %
     %   K. Berland et al., Rep. Prog. Phys. 78, 066501 (2015).             %
     %   D.C. Langreth et al., J. Phys.: Condens. Matter 21, 084203 (2009). %
     %                                                                      %
     %                                                                      %
     % If you are calculating the stress with vdW-DF, please also cite:     %
     %                                                                      %
     %   R. Sabatini et al., J. Phys.: Condens. Matter 24, 424209 (2012).   %
     %                                                                      %
     %%%%%%%%%%%%%%%%%%%%%%%%%%%%%%%%%%%%%%%%%%%%%%%%%%%%%%%%%%%%%%%%%%%%%%%%

     Adding external electric field

     Computed dipole along edir(3) :
        Dipole              -10.1352 Ry au,        -25.7611 Debye
        Dipole field         -0.0191 Ry au,

        Potential amp.        1.7730 Ry
        Total length         46.3494 bohr

     Starting wfcs are  301 atomic wfcs
  @ DRIVER MODE: Message from server: STATUS
  @ DRIVER MODE: Message from server: POSDATA
  @ DRIVER MODE: Reading and sharing cell
  @ DRIVER MODE: Reading and sharing positions
  @ DRIVER MODE: Received positions

     Self-consistent Calculation

     iteration #  1     ecut=    29.40 Ry     beta= 0.05
     Davidson diagonalization with overlap
     c_bands:  2 eigenvalues not converged
     c_bands:  1 eigenvalues not converged
     c_bands:  1 eigenvalues not converged
     c_bands:  3 eigenvalues not converged
     c_bands:  1 eigenvalues not converged
     c_bands:  3 eigenvalues not converged
     c_bands:  3 eigenvalues not converged
     c_bands:  3 eigenvalues not converged
     c_bands:  1 eigenvalues not converged
     ethr =  1.00E-05,  avg # of iterations = 19.8

[...]

     total energy              =   -2497.70756242 Ry
     estimated scf accuracy    <    5094.09246168 Ry

     iteration #  2     ecut=    29.40 Ry     beta= 0.05
     Davidson diagonalization with overlap
     ethr =  1.00E-02,  avg # of iterations = 25.4

[...]

     iteration # 70     ecut=    29.40 Ry     beta= 0.05
     Davidson diagonalization with overlap
     c_bands:  1 eigenvalues not converged
     ethr =  2.81E-10,  avg # of iterations = 14.2

[...]

     total energy              =   -2953.88253986 Ry
     estimated scf accuracy    <       0.00000008 Ry

     iteration # 76     ecut=    29.40 Ry     beta= 0.05
     Davidson diagonalization with overlap
     ethr =  2.10E-11,  avg # of iterations =  8.7

     negative rho (up, down):  1.666E-02 0.000E+00

     Adding external electric field

     Computed dipole along edir(3) :
        Dipole                1.2968 Ry au,          3.2961 Debye
        Dipole field          0.0024 Ry au,

        Potential amp.       -0.2269 Ry
        Total length         46.3494 bohr

     End of self-consistent calculation

          k = 0.0000 0.0000 0.0000 ( 18029 PWs)   bands (ev):

   -55.4428 -55.4363 -55.4170 -55.4087 -55.4002 -55.2993 -55.2573 -55.2507
   -55.2353 -55.2333 -55.2160 -55.1999 -54.8593 -54.7670 -54.4292 -54.3951
   -31.9924 -31.9267 -31.8180 -31.7943 -31.7535 -31.7495 -31.7342 -31.7238
   -31.6855 -31.6840 -31.6542 -31.6382 -31.6270 -31.6165 -31.5956 -31.5831
   -31.5738 -31.5485 -31.5443 -31.5092 -31.5005 -31.4979 -31.4636 -31.4523
   -31.4457 -31.4436 -31.4351 -31.4345 -31.4342 -31.4086 -31.4082 -31.4026
   -31.3859 -31.3819 -31.3575 -31.3502 -31.3429 -31.1913 -31.0766 -31.0247
   -30.9656 -30.9290 -30.8367 -30.7473 -30.7249 -30.6534 -30.5668 -30.4558
   -19.0614 -16.4591 -16.2002 -15.9388 -15.7550 -15.6259 -15.5986 -15.4247
   -15.2897 -15.1877 -15.1255 -15.0690 -15.0485 -15.0010 -14.9981 -14.9862
   -14.9832 -14.9522 -14.9041 -14.8833 -14.8634 -14.8221 -14.8129 -14.7961
   -14.7471 -14.7081 -14.6136 -14.5816 -14.5555 -14.5152 -14.0308 -12.9316
   -12.8150  -9.0365  -6.8700  -6.6821  -4.2587  -3.5711  -3.4089  -3.3545
    -3.3447  -3.3204  -3.2305  -3.0917  -2.9541  -2.7211  -2.6589  -2.6230
    -2.5907  -2.5533  -2.4370  -2.3856  -2.3741  -2.3087  -2.2614  -2.2534
    -2.2405  -2.2192  -2.2038  -2.1430  -2.1295  -2.0296  -1.9875  -1.9174
    -1.8571  -1.8255  -1.7748  -1.7596  -1.7161  -1.7129  -1.6978  -1.6790
    -1.6652  -1.6495  -1.5904  -1.5298  -1.4522  -1.2672  -1.2346  -1.1182
    -1.0894  -1.0581  -1.0141  -0.9305  -0.9037  -0.8814  -0.8418  -0.7511
    -0.7255  -0.6784  -0.5897  -0.5000  -0.4537  -0.4283  -0.3487  -0.3136
    -0.2853  -0.2187  -0.2115  -0.1998  -0.1233  -0.0695   0.0379   0.0744
     0.1088   0.1243   0.1385   0.2236   0.2622   0.3197   0.3636   0.4164
     0.4526   0.4674   0.5032   0.5247   0.5394   0.5664   0.5783   0.7610
     0.8023   0.8315   0.8620   0.9462   1.0487   1.1155   1.1990   1.2685
     1.5157   1.5932   1.6461   1.7837   2.1653   2.2116   3.6283   3.7567
     3.7752   3.7933   3.8247   3.8875   3.9504   4.1393   4.1620   4.1835
     4.2116

[...]

          k = 0.0380-0.0419 0.0000 ( 17876 PWs)   bands (ev):

[...]

          k =-0.0760-0.0000 0.0000 ( 17886 PWs)   bands (ev):

[...]

          k =-0.0760-0.0839 0.0000 ( 17948 PWs)   bands (ev):

   -55.4263 -55.4250 -55.4200 -55.4168 -55.4149 -55.2904 -55.2661 -55.2368
   -55.2355 -55.2304 -55.2183 -55.2153 -54.8562 -54.7701 -54.4121 -54.4121
   -31.8019 -31.7913 -31.7424 -31.7414 -31.7267 -31.7201 -31.7189 -31.7026
   -31.6875 -31.6466 -31.6389 -31.6338 -31.6238 -31.6054 -31.5698 -31.5594
   -31.5547 -31.5546 -31.5521 -31.5463 -31.5458 -31.5450 -31.5417 -31.5030
   -31.4819 -31.4762 -31.4651 -31.4511 -31.4459 -31.4418 -31.4399 -31.4397
   -31.4329 -31.4296 -31.4106 -31.4052 -31.2522 -31.1931 -31.0700 -31.0428
   -31.0259 -30.9656 -30.7376 -30.7376 -30.6494 -30.6493 -30.6101 -30.6101
   -19.0604 -16.4489 -15.6900 -15.5608 -15.4321 -15.3744 -15.3689 -15.3104
   -15.3064 -15.1927 -15.1833 -15.1547 -15.1298 -15.1129 -15.0848 -15.0654
   -15.0036 -14.9830 -14.9797 -14.9495 -14.9203 -14.9074 -14.9027 -14.8878
   -14.8840 -14.8299 -14.7738 -14.7707 -14.6598 -14.5570 -14.1874 -12.9169
   -12.9165  -9.0460  -6.8545  -6.7008  -4.2260  -3.2354  -2.9742  -2.7930
    -2.6875  -2.6314  -2.5681  -2.5493  -2.3831  -2.3680  -2.3582  -2.3212
    -2.3047  -2.2836  -2.2731  -2.2683  -2.2420  -2.2301  -2.2121  -2.1802
    -2.1473  -2.1293  -2.1211  -2.1148  -2.0984  -2.0796  -2.0568  -2.0357
    -2.0308  -2.0045  -1.9647  -1.9403  -1.8809  -1.7458  -1.7089  -1.6684
    -1.5982  -1.5917  -1.5382  -1.5219  -1.4949  -1.4673  -1.4036  -1.3805
    -1.2332  -1.1679  -1.1518  -1.1358  -1.1215  -0.9999  -0.9592  -0.8902
    -0.8638  -0.7944  -0.7640  -0.7521  -0.7056  -0.6040  -0.5913  -0.5392
    -0.5275  -0.4307  -0.4081  -0.3970  -0.3622  -0.3176  -0.2492  -0.2084
    -0.1937  -0.1841  -0.1507  -0.1438  -0.1035   0.0168   0.0768   0.1383
     0.2092   0.3123   0.4236   0.4363   0.5855   0.6118   0.6258   0.7316
     0.8177   0.8484   0.8684   0.8951   0.8988   1.0236   1.0709   1.0806
     1.0822   1.2329   1.9553   1.9567   2.0310   2.0316   3.7363   3.9365
     3.9577   3.9998   4.0461   4.1777   4.1866   4.2208   4.2221   4.3060
     4.3386

     the Fermi energy is     3.6878 ev

!    total energy              =   -2953.88255119 Ry
     estimated scf accuracy    <       0.00000004 Ry
     smearing contrib. (-TS)   =      -0.03290345 Ry
     internal energy E=F+TS    =   -2953.84964774 Ry

     The total energy is F=E-TS. E is the sum of the following terms:
     one-electron contribution =  -24258.47297802 Ry
     hartree contribution      =   12222.79220415 Ry
     xc contribution           =    -488.84446224 Ry
     ewald contribution        =    9570.67241486 Ry
     electric field correction =       0.00317351 Ry

     convergence has been achieved in  76 iterations

     Forces acting on atoms (cartesian axes, Ry/au):

     atom    1 type  1   force =     0.00020984   -0.00019995    0.09615273
     atom    2 type  1   force =    -0.00011464   -0.00026503   -0.17605110
     atom    3 type  2   force =     0.00002778    0.00001904   -0.02489091
     atom    4 type  2   force =     0.00003445   -0.00159680    0.05415828
     atom    5 type  2   force =    -0.01177221   -0.00148867    0.00428227
     atom    6 type  2   force =     0.01353704   -0.00070980    0.00348994
     atom    7 type  1   force =    -0.00084058    0.00087430   -0.01028231
     atom    8 type  1   force =     0.00024965    0.01223253    0.02351668
     atom    9 type  2   force =    -0.00036129   -0.00008111   -0.00023563
     atom   10 type  2   force =    -0.00088158   -0.00045164   -0.01483951
     atom   11 type  2   force =     0.00043627    0.00007907    0.00019441
     atom   12 type  2   force =    -0.00040974   -0.00007772    0.00004179
     atom   13 type  1   force =    -0.00067110   -0.00007319   -0.00159295
     atom   14 type  1   force =     0.00058487    0.00018473    0.00033591
     atom   15 type  2   force =     0.00057495    0.00047347    0.00011651
     atom   16 type  2   force =    -0.00028438    0.00005963    0.00037033
     atom   17 type  2   force =    -0.00014713   -0.00028321   -0.00045834
     atom   18 type  2   force =     0.00009972   -0.00011527   -0.00006827
     atom   19 type  1   force =     0.00082553    0.00006188    0.00060593
     atom   20 type  1   force =    -0.00041875   -0.00069191    0.00009018
     atom   21 type  2   force =     0.00006061    0.00004320    0.10330131
     atom   22 type  2   force =     0.00037275    0.00079934   -0.00029626
     atom   23 type  2   force =    -0.07128798   -0.00007511   -0.02764681
     atom   24 type  2   force =     0.07124451    0.00036338   -0.02768461
     atom   25 type  1   force =    -0.00006194   -0.00014370    0.09566516
     atom   26 type  1   force =    -0.00019770   -0.00031615   -0.17599608
     atom   27 type  2   force =     0.00012339   -0.00040215   -0.02390141
     atom   28 type  2   force =     0.00009715   -0.00126962    0.05361915
     atom   29 type  2   force =    -0.01200305    0.00044906    0.00380934
     atom   30 type  2   force =     0.01364923    0.00069181    0.00309152
     atom   31 type  1   force =    -0.00061092    0.00369839   -0.01332468
     atom   32 type  1   force =     0.00020756   -0.01325689    0.02338080
     atom   33 type  2   force =    -0.00007958   -0.00005879   -0.00029237
     atom   34 type  2   force =    -0.00008534    0.00021774   -0.01831247
     atom   35 type  2   force =     0.00035552   -0.00048761    0.00026686
     atom   36 type  2   force =    -0.00031698   -0.00016321    0.00012807
     atom   37 type  1   force =    -0.00084293   -0.00023633   -0.00010489
     atom   38 type  1   force =     0.00047761    0.00009044    0.00065824
     atom   39 type  2   force =    -0.00001620    0.00082072    0.00000058
     atom   40 type  2   force =    -0.00023438   -0.00018687   -0.00062999
     atom   41 type  2   force =     0.00032873    0.00047721   -0.00000352
     atom   42 type  2   force =    -0.00078065    0.00019339    0.00005899
     atom   43 type  1   force =     0.00081346    0.00012477   -0.00004745
     atom   44 type  1   force =    -0.00039106   -0.00092064    0.00051859
     atom   45 type  2   force =     0.00006200    0.00003566    0.10328019
     atom   46 type  2   force =    -0.07127499   -0.00002416   -0.02761490
     atom   47 type  2   force =     0.07122046    0.00039941   -0.02763507
     atom   48 type  3   force =    -0.00321305    0.00106770   -0.00340660
     atom   49 type  4   force =     0.00011223    0.00123951    0.00059016
     atom   50 type  5   force =     0.00068277   -0.00009427    0.00099920
     atom   51 type  5   force =     0.00050776   -0.00004768   -0.00087997
     atom   52 type  5   force =     0.00265261    0.00021727    0.00319194
     atom   53 type  2   force =    -0.00148987   -0.00106974   -0.00064853
     atom   54 type  5   force =    -0.00073722    0.00081640    0.00046381
     atom   55 type  5   force =    -0.00002323   -0.00094285    0.00046574

     Total force =     0.367601     Total SCF correction =     0.000595
  @ DRIVER MODE: Message from server: STATUS
  @ DRIVER MODE: Message from server: GETFORCE
  @ DRIVER MODE: Returning v,forces,stress,ensemble

     Writing output data file ./calc.save/
  @ DRIVER MODE: Message from server: EXIT
  @ DRIVE MODE: Exiting

     General routines

     Parallel routines

   This run was terminated on:   0: 2:27  16Sep2021

   JOB DONE.