     Program PWSCF v.6.7GPU starts on 23Sep2021 at  8:57:16

     R & G space division:  proc/nbgrp/npool/nimage =      10
     Reading input from /storage/home/hcoda1/3/ntian30/research/carbon/CxH_vib/H2O_calc/ads_slab/CHNHNHH2O_b/out_0050/pw.inp
Warning: card &CELL ignored
Warning: card   CELL_DYNAMICS='IPI', ignored
Warning: card / ignored

     Current dimensions of program PWSCF are:
     Max number of different atomic species (ntypx) = 10
     Max number of k-points (npk) =  40000
     Max angular momentum in pseudopotentials (lmaxx) =  3
     Presently no symmetry can be used with electric field

     Message from routine cell_base_init:
     DEPRECATED: use true lattice parameter, not A to a.u. conversion factor

     IMPORTANT: XC functional enforced from input :
     Exchange-correlation= BEEF-VDW
                           (   1   4  43  14   2   0   0)
     Any further DFT definition will be discarded
     Please, verify this is what you really want

  @ DRIVER MODE: Connecting to
 qe_1139763_2937311.sched-torque.pace.gatech.edu1_62lupe_scratch
  using UNIX socket
  @ DRIVER MODE: Message from server: STATUS
  @ DRIVER MODE: Message from server: INIT
  @ DRIVER MODE: Receiving replica           0          -1
  @ DRIVER MODE: Receiving encoded integer          25
  @ DRIVER MODE:  SCF:  T  FORCE:  T  STRESS:  F  VC:  F  ENSEMBLE:  F
  @ DRIVER MODE:  SCF:  T  FORCE:  T  STRESS:  F  VC:  F  ENSEMBLE:  F

     Using Slab Decomposition

     bravais-lattice index     =            0
     lattice parameter (alat)  =       1.8897  a.u.
     unit-cell volume          =    6658.9804 (a.u.)^3
     number of atoms/cell      =           56
     number of atomic types    =            5
     number of electrons       =       403.00
     number of Kohn-Sham states=          211
     kinetic-energy cutoff     =      29.3995  Ry
     charge density cutoff     =     293.9946  Ry
     scf convergence threshold =      7.3E-08
     mixing beta               =       0.0500
     number of iterations used =            8  plain     mixing
     Exchange-correlation= BEEF-VDW
                           (   1   4  43  14   2   0   0)

     celldm(1)=   1.889726  celldm(2)=   0.000000  celldm(3)=   0.000000
     celldm(4)=   0.000000  celldm(5)=   0.000000  celldm(6)=   0.000000

     crystal axes: (cart. coord. in units of alat)
               a(1) = (   6.579727   0.000000   0.000000 )
               a(2) = (  -0.000775   5.961596   0.000000 )
               a(3) = (   0.000000   0.000000  25.155947 )

     reciprocal axes: (cart. coord. in units 2 pi/alat)
               b(1) = (  0.151982  0.000020  0.000000 )
               b(2) = (  0.000000  0.167740  0.000000 )
               b(3) = (  0.000000  0.000000  0.039752 )

     PseudoPot. # 1 for Ti read from file:
     /storage/coda1/p-amedford6/0/shared/rich_project_chbe-medford/medford-share/data/pseudos_module/espresso/nninc/pbe/van/Ti.UPF
     MD5 check sum: 8e4df49b7f0d34bbd5052bf3f5ea0213
     Pseudo is Ultrasoft, Zval = 12.0
     Generated by new atomic code, or converted to UPF format
     Using radial grid of  851 points,  6 beta functions with:
                l(1) =   0
                l(2) =   0
                l(3) =   1
                l(4) =   1
                l(5) =   2
                l(6) =   2
     Q(r) pseudized with  8 coefficients,  rinner =    1.000   1.000   1.000
                                                       1.000   1.000

     PseudoPot. # 2 for O  read from file:
     /storage/coda1/p-amedford6/0/shared/rich_project_chbe-medford/medford-share/data/pseudos_module/espresso/nninc/pbe/van/O.UPF
     MD5 check sum: 78c19812648e8988a0fe644b0f25305e
     Pseudo is Ultrasoft, Zval =  6.0
     Generated by new atomic code, or converted to UPF format
     Using radial grid of  737 points,  4 beta functions with:
                l(1) =   0
                l(2) =   0
                l(3) =   1
                l(4) =   1
     Q(r) pseudized with  8 coefficients,  rinner =    0.800   0.800   0.800

     PseudoPot. # 3 for N  read from file:
     /storage/coda1/p-amedford6/0/shared/rich_project_chbe-medford/medford-share/data/pseudos_module/espresso/nninc/pbe/van/N.UPF
     MD5 check sum: 90d10febe142ad51ac9d5be1deb811c4
     Pseudo is Ultrasoft, Zval =  5.0
     Generated by new atomic code, or converted to UPF format
     Using radial grid of  729 points,  4 beta functions with:
                l(1) =   0
                l(2) =   0
                l(3) =   1
                l(4) =   1
     Q(r) pseudized with  8 coefficients,  rinner =    0.800   0.800   0.800

     PseudoPot. # 4 for C  read from file:
     /storage/coda1/p-amedford6/0/shared/rich_project_chbe-medford/medford-share/data/pseudos_module/espresso/nninc/pbe/van/C.UPF
     MD5 check sum: 1a69bf6b8db32088f5b2163dbdb77a27
     Pseudo is Ultrasoft, Zval =  4.0
     Generated by new atomic code, or converted to UPF format
     Using radial grid of  721 points,  4 beta functions with:
                l(1) =   0
                l(2) =   0
                l(3) =   1
                l(4) =   1
     Q(r) pseudized with  8 coefficients,  rinner =    0.800   0.800   0.800

     PseudoPot. # 5 for H  read from file:
     /storage/coda1/p-amedford6/0/shared/rich_project_chbe-medford/medford-share/data/pseudos_module/espresso/nninc/pbe/van/H.UPF
     MD5 check sum: b5ee9d7bfd3a09ee7748110bda690ff7
     Pseudo is Ultrasoft, Zval =  1.0
     Generated by new atomic code, or converted to UPF format
     Using radial grid of  615 points,  1 beta functions with:
                l(1) =   0
     Q(r) pseudized with  8 coefficients,  rinner =    0.800

     atomic species   valence    mass     pseudopotential
        Ti1           12.00    47.86700     Ti( 1.00)
        O1             6.00    15.99900     O ( 1.00)
        N1             5.00    14.00700     N ( 1.00)
        C1             4.00    12.01100     C ( 1.00)
        H1             1.00     1.00800     H ( 1.00)

     No symmetry found

   Cartesian axes

     site n.     atom                  positions (alat units)
         1           Ti1 tau(   1) = (   0.0004258   2.9801865   6.0000000  )
         2           Ti1 tau(   2) = (   3.2906075   1.4906267   6.0002472  )
         3           O1  tau(   3) = (   0.0006271   0.0005054   7.9858123  )
         4           O1  tau(   4) = (   3.2906025   0.0005020   7.3038282  )
         5           O1  tau(   5) = (   4.5942328   1.4918067   9.2879030  )
         6           O1  tau(   6) = (   1.9868534   1.4903216   9.2879459  )
         7           Ti1 tau(   7) = (   3.2907910   2.8959150   9.1758416  )
         8           Ti1 tau(   8) = (   0.0015273   1.4827037   9.2680791  )
         9           O1  tau(   9) = (   3.2780774   5.9605562  11.3537357  )
        10           O1  tau(  10) = (   0.0116148   5.9584955  10.6183126  )
        11           O1  tau(  11) = (   1.2922713   1.4781662  12.6511241  )
        12           O1  tau(  12) = (   5.2965393   1.5043564  12.6031353  )
        13           Ti1 tau(  13) = (   6.5273184   3.0207086  12.5807821  )
        14           Ti1 tau(  14) = (   3.2344070   1.4559942  12.5004267  )
        15           O1  tau(  15) = (   6.4759410   0.0295824  14.6525783  )
        16           O1  tau(  16) = (   3.3604338   0.0238249  13.9383540  )
        17           O1  tau(  17) = (   4.5324113   1.5808541  16.1066768  )
        18           O1  tau(  18) = (   1.9684897   1.4712893  15.8817925  )
        19           Ti1 tau(  19) = (   3.2566353   3.0739815  15.8599551  )
        20           Ti1 tau(  20) = (   6.5466614   1.5318677  15.7800735  )
        21           O1  tau(  21) = (   3.2904802   0.0005063   4.7018136  )
        22           O1  tau(  22) = (   6.5744325   0.0155309  17.2227980  )
        23           O1  tau(  23) = (   1.3043587   1.4918075   6.0039043  )
        24           O1  tau(  24) = (   5.2767064   1.4903225   6.0039473  )
        25           Ti1 tau(  25) = (   0.0000382   5.9609847   6.0000000  )
        26           Ti1 tau(  26) = (   3.2902200   4.4714249   6.0002472  )
        27           O1  tau(  27) = (   0.0002396   2.9813036   7.9858123  )
        28           O1  tau(  28) = (   3.2902150   2.9813002   7.3038282  )
        29           O1  tau(  29) = (   4.5938453   4.4726049   9.2879030  )
        30           O1  tau(  30) = (   1.9864658   4.4711199   9.2879459  )
        31           Ti1 tau(  31) = (   3.2891106   5.8743827   9.1763621  )
        32           Ti1 tau(  32) = (   0.0006254   4.4649316   9.2693709  )
        33           O1  tau(  33) = (   3.2727763   2.9788165  11.3438337  )
        34           O1  tau(  34) = (   0.0092240   2.9805883  10.6323155  )
        35           O1  tau(  35) = (   1.2865780   4.4896361  12.6556599  )
        36           O1  tau(  36) = (   5.2967437   4.4749066  12.6066920  )
        37           Ti1 tau(  37) = (   6.5467059   0.0356701  12.5108493  )
        38           Ti1 tau(  38) = (   3.2305653   4.4019604  12.5605372  )
        39           O1  tau(  39) = (   6.5199767   2.9846217  14.6905747  )
        40           O1  tau(  40) = (   3.2851694   3.0254550  13.9321539  )
        41           O1  tau(  41) = (   4.5310495   4.4602642  16.1636806  )
        42           O1  tau(  42) = (   1.9842988   4.5744318  15.9411167  )
        43           Ti1 tau(  43) = (   3.2691225   0.1036042  15.7405456  )
        44           Ti1 tau(  44) = (   6.5697781   4.6877429  16.0360384  )
        45           O1  tau(  45) = (   3.2900926   2.9813045   4.7018136  )
        46           O1  tau(  46) = (   1.3039711   4.4726057   6.0039043  )
        47           O1  tau(  47) = (   5.2763189   4.4711207   6.0039473  )
        48           N1  tau(  48) = (   1.2792381   2.8578196  18.3696018  )
        49           N1  tau(  49) = (   0.1888888   2.9646215  17.5057353  )
        50           C1  tau(  50) = (   2.5352320   2.9081513  18.0382144  )
        51           H1  tau(  51) = (   3.1442446   2.7411670  18.9317345  )
        52           H1  tau(  52) = (   1.0014291   2.6635404  19.3302151  )
        53           H1  tau(  53) = (   5.9397212   2.8571719  18.0851170  )
        54           O1  tau(  54) = (   3.2630597   0.0341043  18.2348460  )
        55           H1  tau(  55) = (   4.0455299   5.4198958  18.2485053  )
        56           H1  tau(  56) = (   2.5023979   5.4091459  18.3156537  )

     number of k points=    10  Fermi-Dirac smearing, width (Ry)=  0.0073
                       cart. coord. in units 2pi/alat
        k(    1) = (   0.0000000   0.0000000   0.0000000), wk =   0.1250000
        k(    2) = (   0.0000000   0.0419351   0.0000000), wk =   0.2500000
        k(    3) = (   0.0000000  -0.0838702   0.0000000), wk =   0.1250000
        k(    4) = (   0.0379955   0.0000049   0.0000000), wk =   0.2500000
        k(    5) = (   0.0379955   0.0419400   0.0000000), wk =   0.2500000
        k(    6) = (   0.0379955  -0.0838652   0.0000000), wk =   0.2500000
        k(    7) = (   0.0379955  -0.0419301   0.0000000), wk =   0.2500000
        k(    8) = (  -0.0759910  -0.0000099   0.0000000), wk =   0.1250000
        k(    9) = (  -0.0759910   0.0419252   0.0000000), wk =   0.2500000
        k(   10) = (  -0.0759910  -0.0838800   0.0000000), wk =   0.1250000

     Initial potential from superposition of free atoms

     starting charge  386.99914, renormalised to  403.00000

     negative rho (up, down):  1.738E-02 0.000E+00

     %%%%%%%%%%%%%%%%%%%%%%%%%%%%%%%%%%%%%%%%%%%%%%%%%%%%%%%%%%%%%%%%%%%%%%%%
     %                                                                      %
     % You are using vdW-DF, which was implemented by the Thonhauser group. %
     % Please cite the following two papers that made this development      %
     % possible and the two reviews that describe the various versions:     %
     %                                                                      %
     %   T. Thonhauser et al., PRL 115, 136402 (2015).                      %
     %   T. Thonhauser et al., PRB 76, 125112 (2007).                       %
     %   K. Berland et al., Rep. Prog. Phys. 78, 066501 (2015).             %
     %   D.C. Langreth et al., J. Phys.: Condens. Matter 21, 084203 (2009). %
     %                                                                      %
     %                                                                      %
     % If you are calculating the stress with vdW-DF, please also cite:     %
     %                                                                      %
     %   R. Sabatini et al., J. Phys.: Condens. Matter 24, 424209 (2012).   %
     %                                                                      %
     %%%%%%%%%%%%%%%%%%%%%%%%%%%%%%%%%%%%%%%%%%%%%%%%%%%%%%%%%%%%%%%%%%%%%%%%

     Adding external electric field

     Computed dipole along edir(3) :
        Dipole              -12.3463 Ry au,        -31.3811 Debye
        Dipole field         -0.0233 Ry au,

        Potential amp.        2.1598 Ry
        Total length         46.3494 bohr

     Starting wfcs are  305 atomic wfcs
  @ DRIVER MODE: Message from server: STATUS
  @ DRIVER MODE: Message from server: POSDATA
  @ DRIVER MODE: Reading and sharing cell
  @ DRIVER MODE: Reading and sharing positions
  @ DRIVER MODE: Received positions

     Self-consistent Calculation

     iteration #  1     ecut=    29.40 Ry     beta= 0.05
     Davidson diagonalization with overlap
     c_bands:  5 eigenvalues not converged
     c_bands:  3 eigenvalues not converged
     c_bands:  3 eigenvalues not converged
     c_bands:  1 eigenvalues not converged
     c_bands:  2 eigenvalues not converged
     c_bands:  2 eigenvalues not converged
     c_bands:  5 eigenvalues not converged
     c_bands:  2 eigenvalues not converged
     c_bands:  4 eigenvalues not converged
     ethr =  1.00E-05,  avg # of iterations = 29.3

[...]

     total energy              =   -2358.71231144 Ry
     estimated scf accuracy    <    6971.25740226 Ry

     iteration #  2     ecut=    29.40 Ry     beta= 0.05
     Davidson diagonalization with overlap
     ethr =  1.00E-02,  avg # of iterations = 27.3

[...]

     iteration # 56     ecut=    29.40 Ry     beta= 0.05
     Davidson diagonalization with overlap
     c_bands:  1 eigenvalues not converged
     ethr =  1.70E-08,  avg # of iterations = 11.0

[...]

     total energy              =   -2973.94000426 Ry
     estimated scf accuracy    <       0.00000009 Ry

     iteration # 83     ecut=    29.40 Ry     beta= 0.05
     Davidson diagonalization with overlap
     ethr =  2.25E-11,  avg # of iterations =  4.8

     negative rho (up, down):  1.725E-02 0.000E+00

     Adding external electric field

     Computed dipole along edir(3) :
        Dipole                1.4000 Ry au,          3.5584 Debye
        Dipole field          0.0026 Ry au,

        Potential amp.       -0.2449 Ry
        Total length         46.3494 bohr

     End of self-consistent calculation

          k = 0.0000 0.0000 0.0000 ( 18029 PWs)   bands (ev):

   -55.3195 -55.2854 -55.2100 -55.1860 -55.1670 -55.1555 -55.1402 -55.1183
   -55.1063 -55.1041 -55.0973 -55.0628 -54.9916 -54.8328 -54.2997 -54.2657
   -31.8038 -31.7309 -31.6569 -31.6499 -31.6400 -31.6114 -31.5870 -31.5646
   -31.5201 -31.5005 -31.4719 -31.4639 -31.4555 -31.4408 -31.4256 -31.4213
   -31.3980 -31.3801 -31.3768 -31.3648 -31.3352 -31.3329 -31.3287 -31.3257
   -31.3228 -31.3190 -31.3149 -31.2969 -31.2888 -31.2790 -31.2722 -31.2719
   -31.2617 -31.2603 -31.2518 -31.2480 -31.2396 -31.2144 -31.2099 -31.0892
   -31.0742 -31.0485 -30.7065 -30.6186 -30.5962 -30.5235 -30.4370 -30.3257
   -18.9307 -18.6539 -15.9777 -15.7940 -15.6130 -15.4739 -15.3918 -15.1602
   -15.1017 -15.0633 -14.9822 -14.9595 -14.8590 -14.8402 -14.8387 -14.8202
   -14.8174 -14.7622 -14.7469 -14.7427 -14.6940 -14.6873 -14.6619 -14.6465
   -14.5941 -14.5152 -14.5067 -14.4604 -14.4151 -14.3685 -14.0212 -13.4135
   -12.8005 -12.6840  -8.8033  -7.2713  -6.6420  -4.3227  -3.7930  -3.3609
    -3.2846  -3.2492  -3.2243  -3.0889  -2.9725  -2.8810  -2.7556  -2.6742
    -2.5846  -2.4802  -2.4247  -2.3782  -2.3178  -2.2577  -2.2313  -2.1457
    -2.1260  -2.1065  -2.0846  -2.0579  -2.0288  -1.9934  -1.8691  -1.8583
    -1.7762  -1.7206  -1.6836  -1.6634  -1.6391  -1.6339  -1.6016  -1.5809
    -1.5724  -1.5611  -1.5598  -1.5246  -1.3850  -1.3620  -1.3323  -1.3095
    -1.1633  -1.0258  -0.9369  -0.9344  -0.8253  -0.7603  -0.7571  -0.7188
    -0.7030  -0.6007  -0.5153  -0.4791  -0.4541  -0.3768  -0.3191  -0.2624
    -0.2108  -0.1750  -0.1090  -0.0852  -0.0685  -0.0516   0.0182   0.0802
     0.1413   0.2265   0.2698   0.2944   0.3852   0.3995   0.4226   0.4876
     0.5194   0.5642   0.5996   0.6289   0.6523   0.6828   0.7080   0.7512
     0.7895   0.9150   0.9335   0.9619   0.9828   1.1575   1.2072   1.3095
     1.3400   1.4417   1.4840   1.6630   1.7243   1.8034   1.9161   2.2942
     2.3400   3.7897   3.9011   3.9352   3.9602   3.9995   4.0508   4.2574
     4.3305   4.3717   4.4287

[...]

          k = 0.0380-0.0419 0.0000 ( 17876 PWs)   bands (ev):

[...]

          k =-0.0760-0.0000 0.0000 ( 17886 PWs)   bands (ev):

[...]

          k =-0.0760-0.0839 0.0000 ( 17948 PWs)   bands (ev):

   -55.3027 -55.3021 -55.2005 -55.1826 -55.1757 -55.1440 -55.1301 -55.1233
   -55.1226 -55.1077 -55.0841 -55.0761 -54.9899 -54.8345 -54.2827 -54.2826
   -31.6193 -31.6188 -31.5971 -31.5966 -31.5652 -31.5335 -31.5024 -31.4898
   -31.4827 -31.4674 -31.4488 -31.4436 -31.4396 -31.4302 -31.4252 -31.4232
   -31.4221 -31.4218 -31.4165 -31.4008 -31.3900 -31.3758 -31.3649 -31.3627
   -31.3578 -31.3533 -31.3441 -31.3316 -31.3257 -31.3242 -31.3089 -31.2997
   -31.2965 -31.2957 -31.2940 -31.2913 -31.2611 -31.2330 -31.2191 -31.1454
   -31.0915 -31.0772 -30.6089 -30.6089 -30.5193 -30.5192 -30.4803 -30.4802
   -18.9219 -18.6584 -15.3550 -15.3202 -15.2820 -15.2547 -15.2386 -15.1178
   -15.1042 -15.0685 -15.0269 -15.0139 -14.9836 -14.9548 -14.9059 -14.8975
   -14.8633 -14.8437 -14.8045 -14.7781 -14.7587 -14.7544 -14.7376 -14.7159
   -14.6724 -14.6506 -14.6381 -14.6338 -14.5818 -14.4874 -14.2061 -13.4361
   -12.7858 -12.7858  -8.7991  -7.1966  -6.6427  -4.5323  -3.5724  -2.8870
    -2.6693  -2.6305  -2.5805  -2.4881  -2.4409  -2.3192  -2.3126  -2.2901
    -2.2445  -2.2314  -2.1907  -2.1505  -2.1447  -2.1167  -2.1044  -2.0597
    -2.0486  -2.0453  -2.0313  -1.9988  -1.9918  -1.9714  -1.9476  -1.9443
    -1.9338  -1.9175  -1.8845  -1.8774  -1.8504  -1.8312  -1.6811  -1.6086
    -1.5628  -1.4856  -1.4623  -1.4457  -1.4266  -1.3919  -1.3718  -1.3460
    -1.3177  -1.1714  -1.0345  -0.9964  -0.9719  -0.8731  -0.8579  -0.8388
    -0.7914  -0.7502  -0.7145  -0.6566  -0.6477  -0.6008  -0.5802  -0.4598
    -0.4228  -0.3245  -0.2881  -0.2865  -0.2690  -0.2541  -0.2368  -0.2109
    -0.1614  -0.0899  -0.0745  -0.0261  -0.0020   0.0006   0.0136   0.1596
     0.2304   0.2510   0.3538   0.3833   0.5582   0.7221   0.7339   0.8019
     0.8649   0.9201   0.9537   0.9935   1.0037   1.0696   1.0944   1.1988
     1.2091   1.2581   1.2630   1.3420   1.3543   2.0879   2.0896   2.1600
     2.1601   4.1537   4.1692   4.1975   4.2606   4.3041   4.3157   4.3530
     4.3567   4.4597   4.4750

     the Fermi energy is     3.8079 ev

!    total energy              =   -2973.94000901 Ry
     estimated scf accuracy    <       0.00000006 Ry
     smearing contrib. (-TS)   =      -0.02072180 Ry
     internal energy E=F+TS    =   -2973.91928721 Ry

     The total energy is F=E-TS. E is the sum of the following terms:
     one-electron contribution =  -24339.06318925 Ry
     hartree contribution      =   12267.23742967 Ry
     xc contribution           =    -494.12492221 Ry
     ewald contribution        =    9592.02769592 Ry
     electric field correction =       0.00369867 Ry

     convergence has been achieved in  83 iterations

     Forces acting on atoms (cartesian axes, Ry/au):

     atom    1 type  1   force =     0.00001960   -0.00009964    0.09508881
     atom    2 type  1   force =     0.00017881   -0.00068478   -0.17564441
     atom    3 type  2   force =     0.00008831   -0.00004836   -0.02294774
     atom    4 type  2   force =     0.00002189   -0.00143348    0.05290196
     atom    5 type  2   force =    -0.00999827   -0.00031636    0.00381376
     atom    6 type  2   force =     0.01112261    0.00019977    0.00206769
     atom    7 type  1   force =    -0.00020940    0.00177703   -0.00588973
     atom    8 type  1   force =     0.00080696    0.01008471    0.01604875
     atom    9 type  2   force =    -0.00015765    0.00086622    0.00033093
     atom   10 type  2   force =    -0.00227177    0.00217638   -0.01800435
     atom   11 type  2   force =     0.00023778   -0.00003271    0.00008185
     atom   12 type  2   force =    -0.00035072   -0.00018566    0.00056170
     atom   13 type  1   force =    -0.00002565    0.00125707    0.00018782
     atom   14 type  1   force =    -0.00011752    0.00010183    0.00000100
     atom   15 type  2   force =     0.00011597    0.00022422   -0.00004300
     atom   16 type  2   force =    -0.00037235    0.00044536   -0.00019508
     atom   17 type  2   force =    -0.00019835   -0.00022906   -0.00000771
     atom   18 type  2   force =    -0.00001012    0.00003350    0.00041014
     atom   19 type  1   force =    -0.00056569    0.00031702   -0.00031649
     atom   20 type  1   force =    -0.00025497   -0.00020302    0.00017673
     atom   21 type  2   force =     0.00009062   -0.00008386    0.10317302
     atom   22 type  2   force =     0.00030192   -0.00000022    0.00039318
     atom   23 type  2   force =    -0.07161365   -0.00016767   -0.02756612
     atom   24 type  2   force =     0.07157244    0.00024738   -0.02761416
     atom   25 type  1   force =     0.00024093   -0.00039486    0.09518341
     atom   26 type  1   force =    -0.00004541   -0.00020051   -0.17581505
     atom   27 type  2   force =     0.00012246   -0.00012249   -0.02197501
     atom   28 type  2   force =     0.00001591   -0.00139630    0.05323258
     atom   29 type  2   force =    -0.01034139   -0.00023094    0.00365644
     atom   30 type  2   force =     0.01138000    0.00042104    0.00192478
     atom   31 type  1   force =    -0.00029829    0.00266331   -0.00009171
     atom   32 type  1   force =     0.00067451   -0.01114458    0.01693082
     atom   33 type  2   force =     0.00037518   -0.00027197    0.00000354
     atom   34 type  2   force =    -0.00033747    0.00144049   -0.01893351
     atom   35 type  2   force =    -0.00001101   -0.00035206   -0.00016152
     atom   36 type  2   force =    -0.00000039   -0.00024268    0.00043910
     atom   37 type  1   force =    -0.00005892   -0.00122042    0.00034613
     atom   38 type  1   force =    -0.00039029    0.00089236    0.00006347
     atom   39 type  2   force =     0.00009340    0.00007905    0.00007335
     atom   40 type  2   force =    -0.00048406   -0.00060055    0.00000503
     atom   41 type  2   force =     0.00015402   -0.00012753    0.00034356
     atom   42 type  2   force =    -0.00012438   -0.00032556   -0.00019785
     atom   43 type  1   force =    -0.00028971   -0.00017440    0.00022109
     atom   44 type  1   force =     0.00011210   -0.00020089    0.00031461
     atom   45 type  2   force =     0.00010078   -0.00010299    0.10319082
     atom   46 type  2   force =    -0.07159896   -0.00016991   -0.02755720
     atom   47 type  2   force =     0.07160083    0.00024306   -0.02756962
     atom   48 type  3   force =     0.00016117   -0.00048488    0.00021489
     atom   49 type  3   force =     0.00014047    0.00009021   -0.00006834
     atom   50 type  4   force =     0.00030106   -0.00021194    0.00047990
     atom   51 type  5   force =    -0.00016016   -0.00052516   -0.00020802
     atom   52 type  5   force =    -0.00002495   -0.00102933   -0.00082464
     atom   53 type  5   force =     0.00017970   -0.00041521   -0.00060443
     atom   54 type  2   force =     0.01242983    0.00848430   -0.00118664
     atom   55 type  5   force =     0.00119072    0.00082671   -0.00020382
     atom   56 type  5   force =    -0.01351850   -0.00944104    0.00176527

     Total force =     0.365889     Total SCF correction =     0.000620
  @ DRIVER MODE: Message from server: STATUS
  @ DRIVER MODE: Message from server: GETFORCE
  @ DRIVER MODE: Returning v,forces,stress,ensemble

     Writing output data file ./calc.save/
  @ DRIVER MODE: Message from server: EXIT
  @ DRIVE MODE: Exiting

     General routines

     Parallel routines

   This run was terminated on:   9:19:54  23Sep2021

   JOB DONE.