     Program PWSCF v.6.7GPU starts on 23Sep2021 at  7:43:35

     R & G space division:  proc/nbgrp/npool/nimage =      10
     Reading input from /storage/home/hcoda1/3/ntian30/research/carbon/CxH_vib/H2O_calc/ads_slab/CHNHNHH2O_b/out_0046/pw.inp
Warning: card &CELL ignored
Warning: card   CELL_DYNAMICS='IPI', ignored
Warning: card / ignored

     Current dimensions of program PWSCF are:
     Max number of different atomic species (ntypx) = 10
     Max number of k-points (npk) =  40000
     Max angular momentum in pseudopotentials (lmaxx) =  3
     Presently no symmetry can be used with electric field

     Message from routine cell_base_init:
     DEPRECATED: use true lattice parameter, not A to a.u. conversion factor

     IMPORTANT: XC functional enforced from input :
     Exchange-correlation= BEEF-VDW
                           (   1   4  43  14   2   0   0)
     Any further DFT definition will be discarded
     Please, verify this is what you really want

  @ DRIVER MODE: Connecting to
 qe_1139763_2937311.sched-torque.pace.gatech.edunw7jnw40_scratch
  using UNIX socket
  @ DRIVER MODE: Message from server: STATUS
  @ DRIVER MODE: Message from server: INIT
  @ DRIVER MODE: Receiving replica           0          -1
  @ DRIVER MODE: Receiving encoded integer          25
  @ DRIVER MODE:  SCF:  T  FORCE:  T  STRESS:  F  VC:  F  ENSEMBLE:  F
  @ DRIVER MODE:  SCF:  T  FORCE:  T  STRESS:  F  VC:  F  ENSEMBLE:  F

     Using Slab Decomposition

     bravais-lattice index     =            0
     lattice parameter (alat)  =       1.8897  a.u.
     unit-cell volume          =    6658.9804 (a.u.)^3
     number of atoms/cell      =           56
     number of atomic types    =            5
     number of electrons       =       403.00
     number of Kohn-Sham states=          211
     kinetic-energy cutoff     =      29.3995  Ry
     charge density cutoff     =     293.9946  Ry
     scf convergence threshold =      7.3E-08
     mixing beta               =       0.0500
     number of iterations used =            8  plain     mixing
     Exchange-correlation= BEEF-VDW
                           (   1   4  43  14   2   0   0)

     celldm(1)=   1.889726  celldm(2)=   0.000000  celldm(3)=   0.000000
     celldm(4)=   0.000000  celldm(5)=   0.000000  celldm(6)=   0.000000

     crystal axes: (cart. coord. in units of alat)
               a(1) = (   6.579727   0.000000   0.000000 )
               a(2) = (  -0.000775   5.961596   0.000000 )
               a(3) = (   0.000000   0.000000  25.155947 )

     reciprocal axes: (cart. coord. in units 2 pi/alat)
               b(1) = (  0.151982  0.000020  0.000000 )
               b(2) = (  0.000000  0.167740  0.000000 )
               b(3) = (  0.000000  0.000000  0.039752 )

     PseudoPot. # 1 for Ti read from file:
     /storage/coda1/p-amedford6/0/shared/rich_project_chbe-medford/medford-share/data/pseudos_module/espresso/nninc/pbe/van/Ti.UPF
     MD5 check sum: 8e4df49b7f0d34bbd5052bf3f5ea0213
     Pseudo is Ultrasoft, Zval = 12.0
     Generated by new atomic code, or converted to UPF format
     Using radial grid of  851 points,  6 beta functions with:
                l(1) =   0
                l(2) =   0
                l(3) =   1
                l(4) =   1
                l(5) =   2
                l(6) =   2
     Q(r) pseudized with  8 coefficients,  rinner =    1.000   1.000   1.000
                                                       1.000   1.000

     PseudoPot. # 2 for O  read from file:
     /storage/coda1/p-amedford6/0/shared/rich_project_chbe-medford/medford-share/data/pseudos_module/espresso/nninc/pbe/van/O.UPF
     MD5 check sum: 78c19812648e8988a0fe644b0f25305e
     Pseudo is Ultrasoft, Zval =  6.0
     Generated by new atomic code, or converted to UPF format
     Using radial grid of  737 points,  4 beta functions with:
                l(1) =   0
                l(2) =   0
                l(3) =   1
                l(4) =   1
     Q(r) pseudized with  8 coefficients,  rinner =    0.800   0.800   0.800

     PseudoPot. # 3 for N  read from file:
     /storage/coda1/p-amedford6/0/shared/rich_project_chbe-medford/medford-share/data/pseudos_module/espresso/nninc/pbe/van/N.UPF
     MD5 check sum: 90d10febe142ad51ac9d5be1deb811c4
     Pseudo is Ultrasoft, Zval =  5.0
     Generated by new atomic code, or converted to UPF format
     Using radial grid of  729 points,  4 beta functions with:
                l(1) =   0
                l(2) =   0
                l(3) =   1
                l(4) =   1
     Q(r) pseudized with  8 coefficients,  rinner =    0.800   0.800   0.800

     PseudoPot. # 4 for C  read from file:
     /storage/coda1/p-amedford6/0/shared/rich_project_chbe-medford/medford-share/data/pseudos_module/espresso/nninc/pbe/van/C.UPF
     MD5 check sum: 1a69bf6b8db32088f5b2163dbdb77a27
     Pseudo is Ultrasoft, Zval =  4.0
     Generated by new atomic code, or converted to UPF format
     Using radial grid of  721 points,  4 beta functions with:
                l(1) =   0
                l(2) =   0
                l(3) =   1
                l(4) =   1
     Q(r) pseudized with  8 coefficients,  rinner =    0.800   0.800   0.800

     PseudoPot. # 5 for H  read from file:
     /storage/coda1/p-amedford6/0/shared/rich_project_chbe-medford/medford-share/data/pseudos_module/espresso/nninc/pbe/van/H.UPF
     MD5 check sum: b5ee9d7bfd3a09ee7748110bda690ff7
     Pseudo is Ultrasoft, Zval =  1.0
     Generated by new atomic code, or converted to UPF format
     Using radial grid of  615 points,  1 beta functions with:
                l(1) =   0
     Q(r) pseudized with  8 coefficients,  rinner =    0.800

     atomic species   valence    mass     pseudopotential
        Ti1           12.00    47.86700     Ti( 1.00)
        O1             6.00    15.99900     O ( 1.00)
        N1             5.00    14.00700     N ( 1.00)
        C1             4.00    12.01100     C ( 1.00)
        H1             1.00     1.00800     H ( 1.00)

     No symmetry found

   Cartesian axes

     site n.     atom                  positions (alat units)
         1           Ti1 tau(   1) = (   0.0004258   2.9801865   6.0000000  )
         2           Ti1 tau(   2) = (   3.2906075   1.4906267   6.0002472  )
         3           O1  tau(   3) = (   0.0006271   0.0005054   7.9858123  )
         4           O1  tau(   4) = (   3.2906025   0.0005020   7.3038282  )
         5           O1  tau(   5) = (   4.5942328   1.4918067   9.2879030  )
         6           O1  tau(   6) = (   1.9868534   1.4903216   9.2879459  )
         7           Ti1 tau(   7) = (   3.2907910   2.8959150   9.1758416  )
         8           Ti1 tau(   8) = (   0.0015273   1.4827037   9.2680791  )
         9           O1  tau(   9) = (   3.2780774   5.9605562  11.3537357  )
        10           O1  tau(  10) = (   0.0116148   5.9584955  10.6183126  )
        11           O1  tau(  11) = (   1.2922713   1.4781662  12.6511241  )
        12           O1  tau(  12) = (   5.2965393   1.5043564  12.6031353  )
        13           Ti1 tau(  13) = (   6.5273184   3.0207086  12.5807821  )
        14           Ti1 tau(  14) = (   3.2344070   1.4559942  12.5004267  )
        15           O1  tau(  15) = (   6.4759410   0.0295824  14.6525783  )
        16           O1  tau(  16) = (   3.3604338   0.0238249  13.9383540  )
        17           O1  tau(  17) = (   4.5324113   1.5808541  16.1066768  )
        18           O1  tau(  18) = (   1.9684897   1.4712893  15.8817925  )
        19           Ti1 tau(  19) = (   3.2566353   3.0739815  15.8599551  )
        20           Ti1 tau(  20) = (   6.5466614   1.5318677  15.7800735  )
        21           O1  tau(  21) = (   3.2904802   0.0005063   4.7018136  )
        22           O1  tau(  22) = (   6.5744325   0.0155309  17.2227980  )
        23           O1  tau(  23) = (   1.3043587   1.4918075   6.0039043  )
        24           O1  tau(  24) = (   5.2767064   1.4903225   6.0039473  )
        25           Ti1 tau(  25) = (   0.0000382   5.9609847   6.0000000  )
        26           Ti1 tau(  26) = (   3.2902200   4.4714249   6.0002472  )
        27           O1  tau(  27) = (   0.0002396   2.9813036   7.9858123  )
        28           O1  tau(  28) = (   3.2902150   2.9813002   7.3038282  )
        29           O1  tau(  29) = (   4.5938453   4.4726049   9.2879030  )
        30           O1  tau(  30) = (   1.9864658   4.4711199   9.2879459  )
        31           Ti1 tau(  31) = (   3.2891106   5.8743827   9.1763621  )
        32           Ti1 tau(  32) = (   0.0006254   4.4649316   9.2693709  )
        33           O1  tau(  33) = (   3.2727763   2.9788165  11.3438337  )
        34           O1  tau(  34) = (   0.0092240   2.9805883  10.6323155  )
        35           O1  tau(  35) = (   1.2865780   4.4896361  12.6556599  )
        36           O1  tau(  36) = (   5.2967437   4.4749066  12.6066920  )
        37           Ti1 tau(  37) = (   6.5467059   0.0356701  12.5108493  )
        38           Ti1 tau(  38) = (   3.2305653   4.4019604  12.5605372  )
        39           O1  tau(  39) = (   6.5199767   2.9846217  14.6905747  )
        40           O1  tau(  40) = (   3.2851694   3.0254550  13.9321539  )
        41           O1  tau(  41) = (   4.5310495   4.4602642  16.1636806  )
        42           O1  tau(  42) = (   1.9842988   4.5744318  15.9411167  )
        43           Ti1 tau(  43) = (   3.2691225   0.1036042  15.7405456  )
        44           Ti1 tau(  44) = (   6.5697781   4.6877429  16.0360384  )
        45           O1  tau(  45) = (   3.2900926   2.9813045   4.7018136  )
        46           O1  tau(  46) = (   1.3039711   4.4726057   6.0039043  )
        47           O1  tau(  47) = (   5.2763189   4.4711207   6.0039473  )
        48           N1  tau(  48) = (   1.2792381   2.8578196  18.3696018  )
        49           N1  tau(  49) = (   0.1888888   2.9646215  17.5057353  )
        50           C1  tau(  50) = (   2.5352320   2.9081513  18.0382144  )
        51           H1  tau(  51) = (   3.1442446   2.7411670  18.9317345  )
        52           H1  tau(  52) = (   1.0014291   2.6635404  19.3302151  )
        53           H1  tau(  53) = (   5.9397212   2.8571719  18.0851170  )
        54           O1  tau(  54) = (   3.2630597   0.0341043  18.2348460  )
        55           H1  tau(  55) = (   4.0455299   5.4298958  18.2485053  )
        56           H1  tau(  56) = (   2.4923979   5.4091459  18.3156537  )

     number of k points=    10  Fermi-Dirac smearing, width (Ry)=  0.0073
                       cart. coord. in units 2pi/alat
        k(    1) = (   0.0000000   0.0000000   0.0000000), wk =   0.1250000
        k(    2) = (   0.0000000   0.0419351   0.0000000), wk =   0.2500000
        k(    3) = (   0.0000000  -0.0838702   0.0000000), wk =   0.1250000
        k(    4) = (   0.0379955   0.0000049   0.0000000), wk =   0.2500000
        k(    5) = (   0.0379955   0.0419400   0.0000000), wk =   0.2500000
        k(    6) = (   0.0379955  -0.0838652   0.0000000), wk =   0.2500000
        k(    7) = (   0.0379955  -0.0419301   0.0000000), wk =   0.2500000
        k(    8) = (  -0.0759910  -0.0000099   0.0000000), wk =   0.1250000
        k(    9) = (  -0.0759910   0.0419252   0.0000000), wk =   0.2500000
        k(   10) = (  -0.0759910  -0.0838800   0.0000000), wk =   0.1250000

     Initial potential from superposition of free atoms

     starting charge  386.99914, renormalised to  403.00000

     negative rho (up, down):  1.738E-02 0.000E+00

     %%%%%%%%%%%%%%%%%%%%%%%%%%%%%%%%%%%%%%%%%%%%%%%%%%%%%%%%%%%%%%%%%%%%%%%%
     %                                                                      %
     % You are using vdW-DF, which was implemented by the Thonhauser group. %
     % Please cite the following two papers that made this development      %
     % possible and the two reviews that describe the various versions:     %
     %                                                                      %
     %   T. Thonhauser et al., PRL 115, 136402 (2015).                      %
     %   T. Thonhauser et al., PRB 76, 125112 (2007).                       %
     %   K. Berland et al., Rep. Prog. Phys. 78, 066501 (2015).             %
     %   D.C. Langreth et al., J. Phys.: Condens. Matter 21, 084203 (2009). %
     %                                                                      %
     %                                                                      %
     % If you are calculating the stress with vdW-DF, please also cite:     %
     %                                                                      %
     %   R. Sabatini et al., J. Phys.: Condens. Matter 24, 424209 (2012).   %
     %                                                                      %
     %%%%%%%%%%%%%%%%%%%%%%%%%%%%%%%%%%%%%%%%%%%%%%%%%%%%%%%%%%%%%%%%%%%%%%%%

     Adding external electric field

     Computed dipole along edir(3) :
        Dipole              -12.3463 Ry au,        -31.3811 Debye
        Dipole field         -0.0233 Ry au,

        Potential amp.        2.1598 Ry
        Total length         46.3494 bohr

     Starting wfcs are  305 atomic wfcs
  @ DRIVER MODE: Message from server: STATUS
  @ DRIVER MODE: Message from server: POSDATA
  @ DRIVER MODE: Reading and sharing cell
  @ DRIVER MODE: Reading and sharing positions
  @ DRIVER MODE: Received positions

     Self-consistent Calculation

     iteration #  1     ecut=    29.40 Ry     beta= 0.05
     Davidson diagonalization with overlap
     c_bands:  5 eigenvalues not converged
     c_bands:  3 eigenvalues not converged
     c_bands:  3 eigenvalues not converged
     c_bands:  1 eigenvalues not converged
     c_bands:  2 eigenvalues not converged
     c_bands:  2 eigenvalues not converged
     c_bands:  5 eigenvalues not converged
     c_bands:  2 eigenvalues not converged
     c_bands:  4 eigenvalues not converged
     ethr =  1.00E-05,  avg # of iterations = 29.3

[...]

     total energy              =   -2358.71580592 Ry
     estimated scf accuracy    <    6971.27014039 Ry

     iteration #  2     ecut=    29.40 Ry     beta= 0.05
     Davidson diagonalization with overlap
     ethr =  1.00E-02,  avg # of iterations = 26.7

[...]

     iteration # 54     ecut=    29.40 Ry     beta= 0.05
     Davidson diagonalization with overlap
     c_bands:  1 eigenvalues not converged
     ethr =  2.07E-10,  avg # of iterations = 13.4

[...]

     total energy              =   -2973.94000964 Ry
     estimated scf accuracy    <       0.00000009 Ry

     iteration # 59     ecut=    29.40 Ry     beta= 0.05
     Davidson diagonalization with overlap
     ethr =  2.18E-11,  avg # of iterations =  8.6

     negative rho (up, down):  1.725E-02 0.000E+00

     Adding external electric field

     Computed dipole along edir(3) :
        Dipole                1.3993 Ry au,          3.5566 Debye
        Dipole field          0.0026 Ry au,

        Potential amp.       -0.2448 Ry
        Total length         46.3494 bohr

     End of self-consistent calculation

          k = 0.0000 0.0000 0.0000 ( 18029 PWs)   bands (ev):

   -55.3191 -55.2850 -55.2093 -55.1853 -55.1663 -55.1551 -55.1398 -55.1179
   -55.1060 -55.1033 -55.0970 -55.0624 -54.9916 -54.8337 -54.2998 -54.2657
   -31.8033 -31.7302 -31.6561 -31.6495 -31.6396 -31.6110 -31.5867 -31.5642
   -31.5193 -31.5007 -31.4715 -31.4632 -31.4548 -31.4402 -31.4252 -31.4209
   -31.3976 -31.3793 -31.3764 -31.3641 -31.3345 -31.3325 -31.3283 -31.3251
   -31.3221 -31.3186 -31.3145 -31.2964 -31.2885 -31.2786 -31.2718 -31.2711
   -31.2610 -31.2597 -31.2514 -31.2476 -31.2396 -31.2142 -31.2095 -31.0898
   -31.0749 -31.0491 -30.7066 -30.6185 -30.5961 -30.5236 -30.4371 -30.3258
   -18.9054 -18.6528 -15.9773 -15.7936 -15.6125 -15.4735 -15.3914 -15.1599
   -15.1015 -15.0630 -14.9817 -14.9590 -14.8586 -14.8397 -14.8380 -14.8198
   -14.8170 -14.7619 -14.7468 -14.7424 -14.6938 -14.6869 -14.6617 -14.6461
   -14.5935 -14.5149 -14.5061 -14.4600 -14.4146 -14.3681 -14.0229 -13.4129
   -12.8004 -12.6839  -8.8028  -7.2702  -6.6714  -4.3208  -3.7868  -3.3603
    -3.2839  -3.2487  -3.2239  -3.0879  -2.9709  -2.8588  -2.7552  -2.6695
    -2.5841  -2.4797  -2.4231  -2.3774  -2.3168  -2.2570  -2.2309  -2.1452
    -2.1254  -2.1059  -2.0844  -2.0576  -2.0280  -1.9904  -1.8687  -1.8580
    -1.7754  -1.7199  -1.6819  -1.6627  -1.6388  -1.6334  -1.6005  -1.5804
    -1.5718  -1.5604  -1.5592  -1.5239  -1.3846  -1.3611  -1.3320  -1.3099
    -1.1628  -1.0253  -0.9364  -0.9342  -0.8248  -0.7597  -0.7567  -0.7183
    -0.7025  -0.6005  -0.5148  -0.4788  -0.4536  -0.3754  -0.3180  -0.2623
    -0.2105  -0.1751  -0.1083  -0.0847  -0.0680  -0.0511   0.0180   0.0806
     0.1417   0.2271   0.2705   0.2949   0.3857   0.3999   0.4231   0.4876
     0.5198   0.5647   0.6000   0.6294   0.6527   0.6831   0.7084   0.7517
     0.7897   0.9154   0.9335   0.9622   0.9834   1.1577   1.2071   1.3103
     1.3402   1.4421   1.4844   1.6632   1.7243   1.8039   1.9162   2.2944
     2.3402   3.7901   3.9015   3.9355   3.9606   3.9999   4.0511   4.2577
     4.3308   4.3723   4.4320

[...]

          k = 0.0380-0.0419 0.0000 ( 17876 PWs)   bands (ev):

[...]

          k =-0.0760-0.0000 0.0000 ( 17886 PWs)   bands (ev):

[...]

          k =-0.0760-0.0839 0.0000 ( 17948 PWs)   bands (ev):

   -55.3023 -55.3017 -55.1998 -55.1819 -55.1750 -55.1436 -55.1297 -55.1230
   -55.1221 -55.1069 -55.0838 -55.0758 -54.9898 -54.8353 -54.2827 -54.2826
   -31.6188 -31.6184 -31.5967 -31.5962 -31.5645 -31.5328 -31.5017 -31.4891
   -31.4822 -31.4669 -31.4484 -31.4429 -31.4391 -31.4295 -31.4248 -31.4231
   -31.4217 -31.4213 -31.4160 -31.4001 -31.3894 -31.3751 -31.3644 -31.3622
   -31.3573 -31.3526 -31.3437 -31.3311 -31.3253 -31.3238 -31.3085 -31.2994
   -31.2962 -31.2954 -31.2937 -31.2909 -31.2602 -31.2329 -31.2189 -31.1459
   -31.0923 -31.0779 -30.6088 -30.6088 -30.5194 -30.5193 -30.4804 -30.4803
   -18.8959 -18.6580 -15.3547 -15.3196 -15.2814 -15.2544 -15.2384 -15.1174
   -15.1036 -15.0680 -15.0266 -15.0132 -14.9830 -14.9543 -14.9056 -14.8970
   -14.8628 -14.8433 -14.8041 -14.7776 -14.7583 -14.7540 -14.7371 -14.7156
   -14.6719 -14.6501 -14.6378 -14.6335 -14.5815 -14.4873 -14.2084 -13.4355
   -12.7857 -12.7857  -8.7986  -7.1955  -6.6725  -4.5282  -3.5719  -2.8563
    -2.6688  -2.6303  -2.5769  -2.4875  -2.4405  -2.3185  -2.3120  -2.2891
    -2.2440  -2.2311  -2.1903  -2.1500  -2.1442  -2.1163  -2.1039  -2.0592
    -2.0479  -2.0449  -2.0304  -1.9969  -1.9913  -1.9709  -1.9469  -1.9437
    -1.9332  -1.9170  -1.8840  -1.8769  -1.8496  -1.8305  -1.6803  -1.6062
    -1.5625  -1.4850  -1.4620  -1.4451  -1.4261  -1.3915  -1.3713  -1.3455
    -1.3172  -1.1716  -1.0327  -0.9960  -0.9714  -0.8726  -0.8576  -0.8384
    -0.7910  -0.7496  -0.7144  -0.6564  -0.6468  -0.6011  -0.5796  -0.4598
    -0.4224  -0.3236  -0.2875  -0.2860  -0.2684  -0.2534  -0.2363  -0.2104
    -0.1609  -0.0896  -0.0740  -0.0255  -0.0017   0.0010   0.0142   0.1601
     0.2308   0.2514   0.3535   0.3836   0.5584   0.7226   0.7342   0.8021
     0.8650   0.9201   0.9540   0.9939   1.0041   1.0698   1.0947   1.1993
     1.2095   1.2584   1.2636   1.3423   1.3548   2.0880   2.0897   2.1602
     2.1603   4.1540   4.1699   4.1980   4.2611   4.3045   4.3160   4.3534
     4.3571   4.4602   4.4763

     the Fermi energy is     3.8083 ev

!    total energy              =   -2973.94006226 Ry
     estimated scf accuracy    <       0.00000004 Ry
     smearing contrib. (-TS)   =      -0.02071949 Ry
     internal energy E=F+TS    =   -2973.91934276 Ry

     The total energy is F=E-TS. E is the sum of the following terms:
     one-electron contribution =  -24339.04869555 Ry
     hartree contribution      =   12267.23538376 Ry
     xc contribution           =    -494.12299156 Ry
     ewald contribution        =    9592.01326556 Ry
     electric field correction =       0.00369503 Ry

     convergence has been achieved in  59 iterations

     Forces acting on atoms (cartesian axes, Ry/au):

     atom    1 type  1   force =     0.00003101   -0.00009801    0.09507897
     atom    2 type  1   force =     0.00018010   -0.00069754   -0.17562523
     atom    3 type  2   force =     0.00008742   -0.00005003   -0.02294466
     atom    4 type  2   force =     0.00002055   -0.00143229    0.05289786
     atom    5 type  2   force =    -0.01001115   -0.00031054    0.00381122
     atom    6 type  2   force =     0.01113263    0.00020560    0.00206634
     atom    7 type  1   force =    -0.00021805    0.00179427   -0.00586215
     atom    8 type  1   force =     0.00080952    0.01008838    0.01604217
     atom    9 type  2   force =    -0.00015800    0.00086944    0.00033363
     atom   10 type  2   force =    -0.00227433    0.00217677   -0.01802134
     atom   11 type  2   force =     0.00023553   -0.00003435    0.00007490
     atom   12 type  2   force =    -0.00034492   -0.00018529    0.00055872
     atom   13 type  1   force =    -0.00002355    0.00124746    0.00018002
     atom   14 type  1   force =    -0.00011984    0.00009336   -0.00000755
     atom   15 type  2   force =     0.00012534    0.00021773    0.00000275
     atom   16 type  2   force =    -0.00037690    0.00044937   -0.00022447
     atom   17 type  2   force =    -0.00016319   -0.00027775    0.00001743
     atom   18 type  2   force =    -0.00005354    0.00001707    0.00038175
     atom   19 type  1   force =    -0.00049382    0.00040714   -0.00021986
     atom   20 type  1   force =    -0.00022277   -0.00007324    0.00012406
     atom   21 type  2   force =     0.00009329   -0.00008560    0.10318890
     atom   22 type  2   force =     0.00034724    0.00004481    0.00063627
     atom   23 type  2   force =    -0.07163394   -0.00016517   -0.02758794
     atom   24 type  2   force =     0.07159245    0.00024755   -0.02763519
     atom   25 type  1   force =     0.00023767   -0.00039735    0.09520095
     atom   26 type  1   force =    -0.00003725   -0.00019808   -0.17578870
     atom   27 type  2   force =     0.00012119   -0.00011877   -0.02197148
     atom   28 type  2   force =     0.00001348   -0.00139734    0.05322884
     atom   29 type  2   force =    -0.01035319   -0.00022567    0.00365233
     atom   30 type  2   force =     0.01138974    0.00042570    0.00191941
     atom   31 type  1   force =    -0.00029893    0.00266706   -0.00006174
     atom   32 type  1   force =     0.00067298   -0.01114704    0.01692046
     atom   33 type  2   force =     0.00037658   -0.00027560    0.00001134
     atom   34 type  2   force =    -0.00034102    0.00144358   -0.01895103
     atom   35 type  2   force =    -0.00001176   -0.00035165   -0.00016598
     atom   36 type  2   force =     0.00000784   -0.00024553    0.00043479
     atom   37 type  1   force =    -0.00004950   -0.00123112    0.00034253
     atom   38 type  1   force =    -0.00039381    0.00088854    0.00005464
     atom   39 type  2   force =     0.00009728    0.00006951    0.00010615
     atom   40 type  2   force =    -0.00049079   -0.00060046   -0.00002869
     atom   41 type  2   force =     0.00016104   -0.00010494    0.00021414
     atom   42 type  2   force =    -0.00021276   -0.00031863   -0.00020060
     atom   43 type  1   force =    -0.00028708   -0.00025667    0.00027645
     atom   44 type  1   force =     0.00000112   -0.00040076    0.00017635
     atom   45 type  2   force =     0.00009735   -0.00010119    0.10320793
     atom   46 type  2   force =    -0.07162085   -0.00016824   -0.02757831
     atom   47 type  2   force =     0.07162124    0.00024257   -0.02759294
     atom   48 type  3   force =     0.00020345   -0.00049791    0.00029392
     atom   49 type  3   force =     0.00004372    0.00008412   -0.00016907
     atom   50 type  4   force =     0.00033765   -0.00026146    0.00046504
     atom   51 type  5   force =    -0.00014972   -0.00047043   -0.00025250
     atom   52 type  5   force =    -0.00002733   -0.00102482   -0.00081318
     atom   53 type  5   force =     0.00015410   -0.00037441   -0.00060786
     atom   54 type  2   force =    -0.00943083    0.00881447   -0.00043633
     atom   55 type  5   force =     0.00856481   -0.00766180    0.00045251
     atom   56 type  5   force =     0.00104250   -0.00125478    0.00039404

     Total force =     0.365624     Total SCF correction =     0.000719
  @ DRIVER MODE: Message from server: STATUS
  @ DRIVER MODE: Message from server: GETFORCE
  @ DRIVER MODE: Returning v,forces,stress,ensemble

     Writing output data file ./calc.save/
  @ DRIVER MODE: Message from server: EXIT
  @ DRIVE MODE: Exiting

     General routines

     Parallel routines

   This run was terminated on:   8: 1:34  23Sep2021

   JOB DONE.