     Program PWSCF v.6.7GPU starts on  2Aug2021 at 21:23:21

     R & G space division:  proc/nbgrp/npool/nimage =      16
     Reading input from /storage/home/hcoda1/3/ntian30/research/carbon/02Aug_vib_paired/ads_slab/CH3NNHHH_a/out_0034/pw.inp
Warning: card &CELL ignored
Warning: card   CELL_DYNAMICS='IPI', ignored
Warning: card / ignored

     Current dimensions of program PWSCF are:
     Max number of different atomic species (ntypx) = 10
     Max number of k-points (npk) =  40000
     Max angular momentum in pseudopotentials (lmaxx) =  3
     Presently no symmetry can be used with electric field

     Message from routine cell_base_init:
     DEPRECATED: use true lattice parameter, not A to a.u. conversion factor

     IMPORTANT: XC functional enforced from input :
     Exchange-correlation= BEEF-VDW
                           (   1   4  43  14   2   0   0)
     Any further DFT definition will be discarded
     Please, verify this is what you really want

  @ DRIVER MODE: Connecting to
 qe_1139763_2482545.sched-torque.pace.gatech.eduaz9p3lgv_scratch
  using UNIX socket
  @ DRIVER MODE: Message from server: STATUS
  @ DRIVER MODE: Message from server: INIT
  @ DRIVER MODE: Receiving replica           0          -1
  @ DRIVER MODE: Receiving encoded integer          25
  @ DRIVER MODE:  SCF:  T  FORCE:  T  STRESS:  F  VC:  F  ENSEMBLE:  F
  @ DRIVER MODE:  SCF:  T  FORCE:  T  STRESS:  F  VC:  F  ENSEMBLE:  F

     Using Slab Decomposition

     bravais-lattice index     =            0
     lattice parameter (alat)  =       1.8897  a.u.
     unit-cell volume          =    6658.9804 (a.u.)^3
     number of atoms/cell      =           56
     number of atomic types    =            5
     number of electrons       =       398.00
     number of Kohn-Sham states=          209
     kinetic-energy cutoff     =      29.3995  Ry
     charge density cutoff     =     293.9946  Ry
     scf convergence threshold =      7.3E-08
     mixing beta               =       0.0500
     number of iterations used =            8  plain     mixing
     Exchange-correlation= BEEF-VDW
                           (   1   4  43  14   2   0   0)

     celldm(1)=   1.889726  celldm(2)=   0.000000  celldm(3)=   0.000000
     celldm(4)=   0.000000  celldm(5)=   0.000000  celldm(6)=   0.000000

     crystal axes: (cart. coord. in units of alat)
               a(1) = (   6.579727   0.000000   0.000000 )
               a(2) = (  -0.000775   5.961596   0.000000 )
               a(3) = (   0.000000   0.000000  25.155947 )

     reciprocal axes: (cart. coord. in units 2 pi/alat)
               b(1) = (  0.151982  0.000020  0.000000 )
               b(2) = (  0.000000  0.167740  0.000000 )
               b(3) = (  0.000000  0.000000  0.039752 )

     PseudoPot. # 1 for Ti read from file:
     /storage/coda1/p-amedford6/0/shared/rich_project_chbe-medford/medford-share/data/pseudos_module/espresso/nninc/pbe/van/Ti.UPF
     MD5 check sum: 8e4df49b7f0d34bbd5052bf3f5ea0213
     Pseudo is Ultrasoft, Zval = 12.0
     Generated by new atomic code, or converted to UPF format
     Using radial grid of  851 points,  6 beta functions with:
                l(1) =   0
                l(2) =   0
                l(3) =   1
                l(4) =   1
                l(5) =   2
                l(6) =   2
     Q(r) pseudized with  8 coefficients,  rinner =    1.000   1.000   1.000
                                                       1.000   1.000

     PseudoPot. # 2 for O  read from file:
     /storage/coda1/p-amedford6/0/shared/rich_project_chbe-medford/medford-share/data/pseudos_module/espresso/nninc/pbe/van/O.UPF
     MD5 check sum: 78c19812648e8988a0fe644b0f25305e
     Pseudo is Ultrasoft, Zval =  6.0
     Generated by new atomic code, or converted to UPF format
     Using radial grid of  737 points,  4 beta functions with:
                l(1) =   0
                l(2) =   0
                l(3) =   1
                l(4) =   1
     Q(r) pseudized with  8 coefficients,  rinner =    0.800   0.800   0.800

     PseudoPot. # 3 for N  read from file:
     /storage/coda1/p-amedford6/0/shared/rich_project_chbe-medford/medford-share/data/pseudos_module/espresso/nninc/pbe/van/N.UPF
     MD5 check sum: 90d10febe142ad51ac9d5be1deb811c4
     Pseudo is Ultrasoft, Zval =  5.0
     Generated by new atomic code, or converted to UPF format
     Using radial grid of  729 points,  4 beta functions with:
                l(1) =   0
                l(2) =   0
                l(3) =   1
                l(4) =   1
     Q(r) pseudized with  8 coefficients,  rinner =    0.800   0.800   0.800

     PseudoPot. # 4 for C  read from file:
     /storage/coda1/p-amedford6/0/shared/rich_project_chbe-medford/medford-share/data/pseudos_module/espresso/nninc/pbe/van/C.UPF
     MD5 check sum: 1a69bf6b8db32088f5b2163dbdb77a27
     Pseudo is Ultrasoft, Zval =  4.0
     Generated by new atomic code, or converted to UPF format
     Using radial grid of  721 points,  4 beta functions with:
                l(1) =   0
                l(2) =   0
                l(3) =   1
                l(4) =   1
     Q(r) pseudized with  8 coefficients,  rinner =    0.800   0.800   0.800

     PseudoPot. # 5 for H  read from file:
     /storage/coda1/p-amedford6/0/shared/rich_project_chbe-medford/medford-share/data/pseudos_module/espresso/nninc/pbe/van/H.UPF
     MD5 check sum: b5ee9d7bfd3a09ee7748110bda690ff7
     Pseudo is Ultrasoft, Zval =  1.0
     Generated by new atomic code, or converted to UPF format
     Using radial grid of  615 points,  1 beta functions with:
                l(1) =   0
     Q(r) pseudized with  8 coefficients,  rinner =    0.800

     atomic species   valence    mass     pseudopotential
        Ti1           12.00    47.86700     Ti( 1.00)
        O1             6.00    15.99900     O ( 1.00)
        N1             5.00    14.00700     N ( 1.00)
        C1             4.00    12.01100     C ( 1.00)
        H1             1.00     1.00800     H ( 1.00)

     No symmetry found

   Cartesian axes

     site n.     atom                  positions (alat units)
         1           Ti1 tau(   1) = (   0.0004258   2.9801865   6.0000000  )
         2           Ti1 tau(   2) = (   3.2906075   1.4906267   6.0002472  )
         3           O1  tau(   3) = (   0.0006271   0.0005054   7.9858123  )
         4           O1  tau(   4) = (   3.2906025   0.0005020   7.3038282  )
         5           O1  tau(   5) = (   4.5942328   1.4918067   9.2879030  )
         6           O1  tau(   6) = (   1.9868534   1.4903216   9.2879459  )
         7           Ti1 tau(   7) = (   3.2907910   2.8959150   9.1758416  )
         8           Ti1 tau(   8) = (   0.0015273   1.4827037   9.2680791  )
         9           O1  tau(   9) = (   3.2969863   5.9453513  11.3493076  )
        10           O1  tau(  10) = (   0.0116148   5.9584955  10.6183126  )
        11           O1  tau(  11) = (   1.3059050   1.4736943  12.6642453  )
        12           O1  tau(  12) = (   5.3003793   1.4775083  12.6459419  )
        13           Ti1 tau(  13) = (   0.0167275   2.9625105  12.5508078  )
        14           Ti1 tau(  14) = (   3.3131340   1.4712512  12.4909780  )
        15           O1  tau(  15) = (   6.5517612   5.9325698  14.7566896  )
        16           O1  tau(  16) = (   3.3302114   5.9429442  13.9823395  )
        17           O1  tau(  17) = (   4.5243935   1.5056208  16.2316672  )
        18           O1  tau(  18) = (   2.0170937   1.4633510  16.1378485  )
        19           Ti1 tau(  19) = (   3.2500237   2.9242626  15.6920970  )
        20           Ti1 tau(  20) = (   6.5441017   1.2779805  16.1516014  )
        21           O1  tau(  21) = (   3.2904802   0.0005063   4.7018136  )
        22           O1  tau(  22) = (   6.5540411   5.9581837  17.3465722  )
        23           O1  tau(  23) = (   1.3043587   1.4918075   6.0039043  )
        24           O1  tau(  24) = (   5.2767064   1.4903225   6.0039473  )
        25           Ti1 tau(  25) = (   0.0000382   5.9609847   6.0000000  )
        26           Ti1 tau(  26) = (   3.2902200   4.4714249   6.0002472  )
        27           O1  tau(  27) = (   0.0002396   2.9813036   7.9858123  )
        28           O1  tau(  28) = (   3.2902150   2.9813002   7.3038282  )
        29           O1  tau(  29) = (   4.5938453   4.4726049   9.2879030  )
        30           O1  tau(  30) = (   1.9864658   4.4711199   9.2879459  )
        31           Ti1 tau(  31) = (   3.2891106   5.8743827   9.1763621  )
        32           Ti1 tau(  32) = (   0.0006254   4.4649316   9.2693709  )
        33           O1  tau(  33) = (   3.2962403   2.9651072  11.3429128  )
        34           O1  tau(  34) = (   0.0092240   2.9805883  10.6323155  )
        35           O1  tau(  35) = (   1.3076126   4.4641214  12.6643835  )
        36           O1  tau(  36) = (   5.2981430   4.4591552  12.6429889  )
        37           Ti1 tau(  37) = (   0.0194730   5.9489450  12.5196332  )
        38           Ti1 tau(  38) = (   3.3150505   4.4522436  12.4946186  )
        39           O1  tau(  39) = (   6.5702761   2.9869041  14.8038460  )
        40           O1  tau(  40) = (   3.3119818   2.9576719  13.9204832  )
        41           O1  tau(  41) = (   4.5223198   4.3950437  16.2490866  )
        42           O1  tau(  42) = (   2.0356696   4.4339808  16.1311045  )
        43           Ti1 tau(  43) = (   3.3057863   5.9493229  15.7677403  )
        44           Ti1 tau(  44) = (   0.0958844   4.4293496  15.8701971  )
        45           O1  tau(  45) = (   3.2900926   2.9813045   4.7018136  )
        46           O1  tau(  46) = (   1.3039711   4.4726057   6.0039043  )
        47           O1  tau(  47) = (   5.2763189   4.4711207   6.0039473  )
        48           N1  tau(  48) = (   0.0620580   3.0375546  17.6897758  )
        49           C1  tau(  49) = (   1.1116374   2.9693208  18.6984743  )
        50           H1  tau(  50) = (   1.2951007   3.9532040  19.1583453  )
        51           H1  tau(  51) = (   0.8627774   2.2426413  19.4871689  )
        52           H1  tau(  52) = (   2.0263963   2.6228967  18.2308865  )
        53           N1  tau(  53) = (   5.4279256   3.3844730  18.4033390  )
        54           H1  tau(  54) = (   5.6103604   4.1199394  19.0852601  )
        55           H1  tau(  55) = (   4.7934260   3.8076565  17.6395878  )
        56           H1  tau(  56) = (   5.0090149   2.5598412  18.8678436  )

     number of k points=    10  Fermi-Dirac smearing, width (Ry)=  0.0073
                       cart. coord. in units 2pi/alat
        k(    1) = (   0.0000000   0.0000000   0.0000000), wk =   0.1250000
        k(    2) = (   0.0000000   0.0419351   0.0000000), wk =   0.2500000
        k(    3) = (   0.0000000  -0.0838702   0.0000000), wk =   0.1250000
        k(    4) = (   0.0379955   0.0000049   0.0000000), wk =   0.2500000
        k(    5) = (   0.0379955   0.0419400   0.0000000), wk =   0.2500000
        k(    6) = (   0.0379955  -0.0838652   0.0000000), wk =   0.2500000
        k(    7) = (   0.0379955  -0.0419301   0.0000000), wk =   0.2500000
        k(    8) = (  -0.0759910  -0.0000099   0.0000000), wk =   0.1250000
        k(    9) = (  -0.0759910   0.0419252   0.0000000), wk =   0.2500000
        k(   10) = (  -0.0759910  -0.0838800   0.0000000), wk =   0.1250000

     Initial potential from superposition of free atoms

     starting charge  381.99914, renormalised to  398.00000

     negative rho (up, down):  1.617E-02 0.000E+00

     %%%%%%%%%%%%%%%%%%%%%%%%%%%%%%%%%%%%%%%%%%%%%%%%%%%%%%%%%%%%%%%%%%%%%%%%
     %                                                                      %
     % You are using vdW-DF, which was implemented by the Thonhauser group. %
     % Please cite the following two papers that made this development      %
     % possible and the two reviews that describe the various versions:     %
     %                                                                      %
     %   T. Thonhauser et al., PRL 115, 136402 (2015).                      %
     %   T. Thonhauser et al., PRB 76, 125112 (2007).                       %
     %   K. Berland et al., Rep. Prog. Phys. 78, 066501 (2015).             %
     %   D.C. Langreth et al., J. Phys.: Condens. Matter 21, 084203 (2009). %
     %                                                                      %
     %                                                                      %
     % If you are calculating the stress with vdW-DF, please also cite:     %
     %                                                                      %
     %   R. Sabatini et al., J. Phys.: Condens. Matter 24, 424209 (2012).   %
     %                                                                      %
     %%%%%%%%%%%%%%%%%%%%%%%%%%%%%%%%%%%%%%%%%%%%%%%%%%%%%%%%%%%%%%%%%%%%%%%%

     Adding external electric field

     Computed dipole along edir(3) :
        Dipole              -10.5729 Ry au,        -26.8736 Debye
        Dipole field         -0.0200 Ry au,

        Potential amp.        1.8496 Ry
        Total length         46.3494 bohr

     Starting wfcs are  302 atomic wfcs
  @ DRIVER MODE: Message from server: STATUS
  @ DRIVER MODE: Message from server: POSDATA
  @ DRIVER MODE: Reading and sharing cell
  @ DRIVER MODE: Reading and sharing positions
  @ DRIVER MODE: Received positions

     Self-consistent Calculation

     iteration #  1     ecut=    29.40 Ry     beta= 0.05
     Davidson diagonalization with overlap
     c_bands:  3 eigenvalues not converged
     c_bands:  3 eigenvalues not converged
     c_bands:  1 eigenvalues not converged
     c_bands:  5 eigenvalues not converged
     c_bands:  5 eigenvalues not converged
     c_bands:  5 eigenvalues not converged
     c_bands:  1 eigenvalues not converged
     c_bands:  4 eigenvalues not converged
     c_bands:  3 eigenvalues not converged
     ethr =  1.00E-05,  avg # of iterations = 20.0

[...]

     total energy              =   -2442.74278505 Ry
     estimated scf accuracy    <    5591.58851481 Ry

     iteration #  2     ecut=    29.40 Ry     beta= 0.05
     Davidson diagonalization with overlap
     ethr =  1.00E-02,  avg # of iterations = 24.0

[...]

     iteration # 76     ecut=    29.40 Ry     beta= 0.05
     Davidson diagonalization with overlap
     c_bands:  1 eigenvalues not converged
     ethr =  4.75E-11,  avg # of iterations = 13.3

[...]

     total energy              =   -2942.82489888 Ry
     estimated scf accuracy    <       0.00000009 Ry

     iteration # 78     ecut=    29.40 Ry     beta= 0.05
     Davidson diagonalization with overlap
     ethr =  2.34E-11,  avg # of iterations = 12.5

     negative rho (up, down):  1.407E-02 0.000E+00

     Adding external electric field

     Computed dipole along edir(3) :
        Dipole                1.6023 Ry au,          4.0726 Debye
        Dipole field          0.0030 Ry au,

        Potential amp.       -0.2803 Ry
        Total length         46.3494 bohr

     End of self-consistent calculation

          k = 0.0000 0.0000 0.0000 ( 18029 PWs)   bands (ev):

   -55.1448 -55.1082 -55.1062 -55.0721 -55.0272 -55.0121 -54.9891 -54.9462
   -54.9338 -54.9255 -54.9111 -54.9009 -54.8643 -54.7940 -54.1182 -54.0842
   -31.7246 -31.5960 -31.5135 -31.4817 -31.4371 -31.4362 -31.4339 -31.4034
   -31.3994 -31.3962 -31.3693 -31.3545 -31.3511 -31.3224 -31.3046 -31.2795
   -31.2628 -31.2591 -31.2487 -31.2435 -31.2175 -31.2114 -31.2044 -31.1777
   -31.1633 -31.1564 -31.1493 -31.1418 -31.1415 -31.1305 -31.1283 -31.1218
   -31.1052 -31.0964 -31.0902 -31.0643 -31.0616 -31.0494 -31.0426 -31.0365
   -31.0256 -30.9832 -30.5268 -30.4348 -30.4126 -30.3434 -30.2567 -30.1456
   -18.9302 -16.0083 -15.7528 -15.6183 -15.3838 -15.3322 -15.2754 -15.0671
   -15.0662 -14.9938 -14.9793 -14.9311 -14.9118 -14.8444 -14.7598 -14.7388
   -14.6716 -14.6699 -14.6396 -14.6285 -14.6279 -14.5653 -14.5553 -14.5260
   -14.5131 -14.4876 -14.3694 -14.2853 -14.2268 -13.9738 -13.5987 -12.6210
   -12.5039  -9.7413  -7.6922  -7.2582  -5.4533  -3.8132  -3.3460  -3.2850
    -3.1697  -3.1424  -3.0654  -3.0362  -2.8513  -2.8297  -2.4886  -2.4516
    -2.4024  -2.3844  -2.3628  -2.3456  -2.1769  -2.1517  -2.0787  -2.0450
    -2.0272  -1.9868  -1.9702  -1.9602  -1.9263  -1.9209  -1.9117  -1.7045
    -1.6478  -1.5528  -1.5304  -1.5045  -1.4715  -1.4348  -1.4271  -1.4239
    -1.4180  -1.4042  -1.3912  -1.3115  -1.2518  -1.1722  -1.1622  -1.1271
    -1.0234  -0.9752  -0.7749  -0.7615  -0.7161  -0.6742  -0.6114  -0.5897
    -0.5238  -0.4929  -0.4726  -0.3517  -0.3230  -0.2825  -0.2541  -0.1879
    -0.1557  -0.1123  -0.0267   0.0437   0.0785   0.0968   0.1572   0.2877
     0.2980   0.3270   0.3884   0.4515   0.4932   0.5127   0.5315   0.5681
     0.6175   0.7429   0.7880   0.8074   0.8118   0.8457   0.8694   0.9202
     0.9453   1.0045   1.0100   1.1293   1.1983   1.4299   1.4636   1.4843
     1.8164   1.8402   1.9041   2.0901   2.4782   2.5254   3.9596   4.0204
     4.0775   4.0939   4.1128   4.2015   4.2168   4.4226   4.4498   4.4536
     4.4566

[...]

          k = 0.0380-0.0419 0.0000 ( 17876 PWs)   bands (ev):

[...]

          k =-0.0760-0.0000 0.0000 ( 17886 PWs)   bands (ev):

[...]

          k =-0.0760-0.0839 0.0000 ( 17948 PWs)   bands (ev):

   -55.1293 -55.1235 -55.0892 -55.0890 -55.0166 -55.0085 -54.9996 -54.9301
   -54.9289 -54.9261 -54.9186 -54.9170 -54.8605 -54.7978 -54.1012 -54.1010
   -31.5283 -31.5255 -31.4485 -31.4267 -31.4112 -31.4111 -31.3816 -31.3815
   -31.3557 -31.3501 -31.3472 -31.3465 -31.3114 -31.2776 -31.2711 -31.2667
   -31.2653 -31.2614 -31.2594 -31.2532 -31.2219 -31.2183 -31.2159 -31.2131
   -31.2086 -31.2085 -31.1946 -31.1924 -31.1648 -31.1602 -31.1446 -31.1407
   -31.1383 -31.1378 -31.1357 -31.1277 -31.1025 -31.0996 -31.0966 -31.0734
   -31.0483 -31.0309 -30.4253 -30.4252 -30.3394 -30.3393 -30.3000 -30.3000
   -18.9254 -15.5150 -15.4052 -15.2960 -15.2313 -15.1897 -15.1374 -15.1207
   -15.1106 -15.0645 -15.0347 -14.9660 -14.9021 -14.8495 -14.8485 -14.8133
   -14.7351 -14.7212 -14.7144 -14.7037 -14.6473 -14.6406 -14.6091 -14.5883
   -14.5852 -14.5552 -14.4816 -14.4791 -14.3912 -14.1821 -13.6344 -12.6056
   -12.6055  -9.7117  -7.6859  -7.2072  -5.4560  -3.8346  -3.4370  -2.7644
    -2.6532  -2.4425  -2.4165  -2.3568  -2.3371  -2.2526  -2.1901  -2.1687
    -2.1454  -2.1114  -2.1085  -2.0845  -2.0627  -2.0095  -1.9798  -1.9693
    -1.9632  -1.9484  -1.9357  -1.9152  -1.8591  -1.8489  -1.8417  -1.7992
    -1.7883  -1.7565  -1.7503  -1.7115  -1.6945  -1.6179  -1.5258  -1.5011
    -1.4411  -1.3403  -1.3273  -1.3216  -1.2280  -1.2199  -1.1905  -1.1596
    -1.1041  -1.0042  -0.9494  -0.8745  -0.8712  -0.8406  -0.7538  -0.6901
    -0.6565  -0.6459  -0.6061  -0.5499  -0.5269  -0.4937  -0.4103  -0.3695
    -0.3421  -0.3080  -0.2131  -0.1522  -0.1283  -0.0978  -0.0944  -0.0047
     0.0282   0.0650   0.0856   0.1239   0.1504   0.2186   0.2382   0.3482
     0.4186   0.4493   0.5682   0.5913   0.6556   0.7876   0.8588   0.9003
     0.9537   1.0104   1.0373   1.1675   1.1747   1.2035   1.2934   1.3336
     1.3405   1.3537   2.2629   2.2639   2.3455   2.3456   4.0918   4.1789
     4.2217   4.2592   4.3668   4.4763   4.4948   4.5375   4.5381   4.6160
     4.6222

     the Fermi energy is     4.0120 ev

!    total energy              =   -2942.82491086 Ry
     estimated scf accuracy    <       0.00000007 Ry
     smearing contrib. (-TS)   =      -0.03687540 Ry
     internal energy E=F+TS    =   -2942.78803546 Ry

     The total energy is F=E-TS. E is the sum of the following terms:
     one-electron contribution =  -23972.03038237 Ry
     hartree contribution      =   12081.48670290 Ry
     xc contribution           =    -487.77045574 Ry
     ewald contribution        =    9435.52125482 Ry
     electric field correction =       0.00484493 Ry

     convergence has been achieved in  78 iterations

     Forces acting on atoms (cartesian axes, Ry/au):

     atom    1 type  1   force =     0.00014522   -0.00024070    0.09426867
     atom    2 type  1   force =    -0.00009094   -0.00033616   -0.17740176
     atom    3 type  2   force =     0.00005649   -0.00016452   -0.02134952
     atom    4 type  2   force =    -0.00001500   -0.00172440    0.05656564
     atom    5 type  2   force =    -0.01054899   -0.00127816    0.00624271
     atom    6 type  2   force =     0.01221666   -0.00074296    0.00571550
     atom    7 type  1   force =    -0.00034283    0.00172569   -0.01621431
     atom    8 type  1   force =    -0.00009954    0.00438161    0.00559771
     atom    9 type  2   force =     0.00000680   -0.00004195   -0.00006200
     atom   10 type  2   force =    -0.00074368   -0.00021685   -0.00046176
     atom   11 type  2   force =     0.00035085    0.00012189   -0.00020901
     atom   12 type  2   force =    -0.00053108    0.00000081   -0.00014041
     atom   13 type  1   force =     0.00002940   -0.00032249    0.00020537
     atom   14 type  1   force =     0.00056092    0.00011801   -0.00027172
     atom   15 type  2   force =    -0.00039911    0.00034189   -0.00021400
     atom   16 type  2   force =    -0.00034439    0.00021695   -0.00009976
     atom   17 type  2   force =    -0.00031638    0.00009142    0.00034696
     atom   18 type  2   force =     0.00013888    0.00033332   -0.00014526
     atom   19 type  1   force =     0.00026996    0.00025513    0.00016693
     atom   20 type  1   force =    -0.00006545    0.00040912   -0.00012138
     atom   21 type  2   force =     0.00003480    0.00003950    0.10359012
     atom   22 type  2   force =     0.00002003   -0.00070330   -0.00062094
     atom   23 type  2   force =    -0.07081440   -0.00010269   -0.02719223
     atom   24 type  2   force =     0.07067969    0.00033619   -0.02722419
     atom   25 type  1   force =    -0.00009514   -0.00020893    0.09375144
     atom   26 type  1   force =    -0.00013264   -0.00031774   -0.17730229
     atom   27 type  2   force =     0.00008977   -0.00035276   -0.02045827
     atom   28 type  2   force =     0.00003304   -0.00143996    0.05588431
     atom   29 type  2   force =    -0.01091251   -0.00073675    0.00609331
     atom   30 type  2   force =     0.01246596   -0.00029512    0.00557196
     atom   31 type  1   force =    -0.00016094    0.00464982   -0.01718517
     atom   32 type  1   force =    -0.00002729   -0.00482383    0.00560280
     atom   33 type  2   force =     0.00005850    0.00012261    0.00026045
     atom   34 type  2   force =     0.00005951   -0.00085309   -0.00298213
     atom   35 type  2   force =     0.00023754    0.00003326    0.00006348
     atom   36 type  2   force =    -0.00043301    0.00015453   -0.00008320
     atom   37 type  1   force =    -0.00012990   -0.00011716   -0.00007918
     atom   38 type  1   force =     0.00044915   -0.00026638    0.00042332
     atom   39 type  2   force =    -0.00042998    0.00009871    0.00066656
     atom   40 type  2   force =    -0.00012781    0.00017555   -0.00025458
     atom   41 type  2   force =    -0.00046368    0.00050241   -0.00101516
     atom   42 type  2   force =     0.00006413    0.00026830   -0.00018645
     atom   43 type  1   force =    -0.00029910    0.00033694    0.00011509
     atom   44 type  1   force =    -0.00017578    0.00024221   -0.00013899
     atom   45 type  2   force =     0.00002729    0.00000677    0.10359280
     atom   46 type  2   force =    -0.07081929   -0.00003803   -0.02719018
     atom   47 type  2   force =     0.07068703    0.00037779   -0.02719250
     atom   48 type  3   force =    -0.00040332    0.00191668    0.00037634
     atom   49 type  4   force =    -0.00063816    0.00049090   -0.00032163
     atom   50 type  5   force =     0.00018761   -0.00012959    0.00001377
     atom   51 type  5   force =    -0.00029331   -0.00032765    0.00009505
     atom   52 type  5   force =    -0.00043081   -0.00004720    0.00010534
     atom   53 type  3   force =    -0.00280051   -0.02325351    0.00114992
     atom   54 type  5   force =     0.00227288    0.00837684    0.00570726
     atom   55 type  5   force =    -0.00117496    0.00301511   -0.00175224
     atom   56 type  5   force =     0.00311783    0.00994190   -0.00430258

     Total force =     0.366629     Total SCF correction =     0.000499
  @ DRIVER MODE: Message from server: STATUS
  @ DRIVER MODE: Message from server: GETFORCE
  @ DRIVER MODE: Returning v,forces,stress,ensemble

     Writing output data file ./calc.save/
  @ DRIVER MODE: Message from server: EXIT
  @ DRIVE MODE: Exiting

     General routines

     Parallel routines

   This run was terminated on:  21:41: 1   2Aug2021

   JOB DONE.