     Program PWSCF v.6.7GPU starts on 16Sep2021 at  0:46:28

     R & G space division:  proc/nbgrp/npool/nimage =      10
     Reading input from /storage/home/hcoda1/3/ntian30/research/carbon/CxH_vib/H2O_calc/ads_slab/CH3NH2O_a/out_0030/pw.inp
Warning: card &CELL ignored
Warning: card   CELL_DYNAMICS='IPI', ignored
Warning: card / ignored

     Current dimensions of program PWSCF are:
     Max number of different atomic species (ntypx) = 10
     Max number of k-points (npk) =  40000
     Max angular momentum in pseudopotentials (lmaxx) =  3
     Presently no symmetry can be used with electric field

     Message from routine cell_base_init:
     DEPRECATED: use true lattice parameter, not A to a.u. conversion factor

     IMPORTANT: XC functional enforced from input :
     Exchange-correlation= BEEF-VDW
                           (   1   4  43  14   2   0   0)
     Any further DFT definition will be discarded
     Please, verify this is what you really want

  @ DRIVER MODE: Connecting to
 qe_1139763_2852618.sched-torque.pace.gatech.eduqe15ylm__scratch
  using UNIX socket
  @ DRIVER MODE: Message from server: STATUS
  @ DRIVER MODE: Message from server: INIT
  @ DRIVER MODE: Receiving replica           0          -1
  @ DRIVER MODE: Receiving encoded integer          25
  @ DRIVER MODE:  SCF:  T  FORCE:  T  STRESS:  F  VC:  F  ENSEMBLE:  F
  @ DRIVER MODE:  SCF:  T  FORCE:  T  STRESS:  F  VC:  F  ENSEMBLE:  F

     Using Slab Decomposition

     bravais-lattice index     =            0
     lattice parameter (alat)  =       1.8897  a.u.
     unit-cell volume          =    6658.9804 (a.u.)^3
     number of atoms/cell      =           55
     number of atomic types    =            5
     number of electrons       =       398.00
     number of Kohn-Sham states=          209
     kinetic-energy cutoff     =      29.3995  Ry
     charge density cutoff     =     293.9946  Ry
     scf convergence threshold =      7.3E-08
     mixing beta               =       0.0500
     number of iterations used =            8  plain     mixing
     Exchange-correlation= BEEF-VDW
                           (   1   4  43  14   2   0   0)

     celldm(1)=   1.889726  celldm(2)=   0.000000  celldm(3)=   0.000000
     celldm(4)=   0.000000  celldm(5)=   0.000000  celldm(6)=   0.000000

     crystal axes: (cart. coord. in units of alat)
               a(1) = (   6.579727   0.000000   0.000000 )
               a(2) = (  -0.000775   5.961596   0.000000 )
               a(3) = (   0.000000   0.000000  25.155947 )

     reciprocal axes: (cart. coord. in units 2 pi/alat)
               b(1) = (  0.151982  0.000020  0.000000 )
               b(2) = (  0.000000  0.167740  0.000000 )
               b(3) = (  0.000000  0.000000  0.039752 )

     PseudoPot. # 1 for Ti read from file:
     /storage/coda1/p-amedford6/0/shared/rich_project_chbe-medford/medford-share/data/pseudos_module/espresso/nninc/pbe/van/Ti.UPF
     MD5 check sum: 8e4df49b7f0d34bbd5052bf3f5ea0213
     Pseudo is Ultrasoft, Zval = 12.0
     Generated by new atomic code, or converted to UPF format
     Using radial grid of  851 points,  6 beta functions with:
                l(1) =   0
                l(2) =   0
                l(3) =   1
                l(4) =   1
                l(5) =   2
                l(6) =   2
     Q(r) pseudized with  8 coefficients,  rinner =    1.000   1.000   1.000
                                                       1.000   1.000

     PseudoPot. # 2 for O  read from file:
     /storage/coda1/p-amedford6/0/shared/rich_project_chbe-medford/medford-share/data/pseudos_module/espresso/nninc/pbe/van/O.UPF
     MD5 check sum: 78c19812648e8988a0fe644b0f25305e
     Pseudo is Ultrasoft, Zval =  6.0
     Generated by new atomic code, or converted to UPF format
     Using radial grid of  737 points,  4 beta functions with:
                l(1) =   0
                l(2) =   0
                l(3) =   1
                l(4) =   1
     Q(r) pseudized with  8 coefficients,  rinner =    0.800   0.800   0.800

     PseudoPot. # 3 for N  read from file:
     /storage/coda1/p-amedford6/0/shared/rich_project_chbe-medford/medford-share/data/pseudos_module/espresso/nninc/pbe/van/N.UPF
     MD5 check sum: 90d10febe142ad51ac9d5be1deb811c4
     Pseudo is Ultrasoft, Zval =  5.0
     Generated by new atomic code, or converted to UPF format
     Using radial grid of  729 points,  4 beta functions with:
                l(1) =   0
                l(2) =   0
                l(3) =   1
                l(4) =   1
     Q(r) pseudized with  8 coefficients,  rinner =    0.800   0.800   0.800

     PseudoPot. # 4 for C  read from file:
     /storage/coda1/p-amedford6/0/shared/rich_project_chbe-medford/medford-share/data/pseudos_module/espresso/nninc/pbe/van/C.UPF
     MD5 check sum: 1a69bf6b8db32088f5b2163dbdb77a27
     Pseudo is Ultrasoft, Zval =  4.0
     Generated by new atomic code, or converted to UPF format
     Using radial grid of  721 points,  4 beta functions with:
                l(1) =   0
                l(2) =   0
                l(3) =   1
                l(4) =   1
     Q(r) pseudized with  8 coefficients,  rinner =    0.800   0.800   0.800

     PseudoPot. # 5 for H  read from file:
     /storage/coda1/p-amedford6/0/shared/rich_project_chbe-medford/medford-share/data/pseudos_module/espresso/nninc/pbe/van/H.UPF
     MD5 check sum: b5ee9d7bfd3a09ee7748110bda690ff7
     Pseudo is Ultrasoft, Zval =  1.0
     Generated by new atomic code, or converted to UPF format
     Using radial grid of  615 points,  1 beta functions with:
                l(1) =   0
     Q(r) pseudized with  8 coefficients,  rinner =    0.800

     atomic species   valence    mass     pseudopotential
        Ti1           12.00    47.86700     Ti( 1.00)
        O1             6.00    15.99900     O ( 1.00)
        N1             5.00    14.00700     N ( 1.00)
        C1             4.00    12.01100     C ( 1.00)
        H1             1.00     1.00800     H ( 1.00)

     No symmetry found

   Cartesian axes

     site n.     atom                  positions (alat units)
         1           Ti1 tau(   1) = (   0.0004258   2.9801865   6.0000000  )
         2           Ti1 tau(   2) = (   3.2906075   1.4906267   6.0002472  )
         3           O1  tau(   3) = (   0.0006271   0.0005054   7.9858123  )
         4           O1  tau(   4) = (   3.2906025   0.0005020   7.3038282  )
         5           O1  tau(   5) = (   4.5942328   1.4918067   9.2879030  )
         6           O1  tau(   6) = (   1.9868534   1.4903216   9.2879459  )
         7           Ti1 tau(   7) = (   3.2907910   2.8959150   9.1758416  )
         8           Ti1 tau(   8) = (   0.0015273   1.4827037   9.2680791  )
         9           O1  tau(   9) = (   3.2951577   0.0167633  11.2896499  )
        10           O1  tau(  10) = (   0.0116148   5.9584955  10.6183126  )
        11           O1  tau(  11) = (   1.3222759   1.5071707  12.6129440  )
        12           O1  tau(  12) = (   5.3060066   1.5095485  12.6267335  )
        13           Ti1 tau(  13) = (   6.4824898   3.0013615  12.7357613  )
        14           Ti1 tau(  14) = (   3.1735365   1.4973312  12.4739500  )
        15           O1  tau(  15) = (   0.0245190   0.0017265  14.5963640  )
        16           O1  tau(  16) = (   3.2983568   0.0259644  13.8884976  )
        17           O1  tau(  17) = (   4.5535709   1.5599051  15.9919625  )
        18           O1  tau(  18) = (   2.0723989   1.5598234  15.9883263  )
        19           Ti1 tau(  19) = (   3.3263631   3.0313633  15.6478355  )
        20           Ti1 tau(  20) = (   0.0083359   1.6222165  16.0589653  )
        21           O1  tau(  21) = (   3.2904802   0.0005063   4.7018136  )
        22           O1  tau(  22) = (   0.0206953   0.0548308  17.2083480  )
        23           O1  tau(  23) = (   1.3043587   1.4918075   6.0039043  )
        24           O1  tau(  24) = (   5.2767064   1.4903225   6.0039473  )
        25           Ti1 tau(  25) = (   0.0000382   5.9609847   6.0000000  )
        26           Ti1 tau(  26) = (   3.2902200   4.4714249   6.0002472  )
        27           O1  tau(  27) = (   0.0002396   2.9813036   7.9858123  )
        28           O1  tau(  28) = (   3.2902150   2.9813002   7.3038282  )
        29           O1  tau(  29) = (   4.5938453   4.4726049   9.2879030  )
        30           O1  tau(  30) = (   1.9864658   4.4711199   9.2879459  )
        31           Ti1 tau(  31) = (   3.2891106   5.8743827   9.1763621  )
        32           Ti1 tau(  32) = (   0.0006254   4.4649316   9.2693709  )
        33           O1  tau(  33) = (   3.2909539   2.9954008  11.2901670  )
        34           O1  tau(  34) = (   0.0092240   2.9805883  10.6323155  )
        35           O1  tau(  35) = (   1.3211080   4.4795309  12.6092917  )
        36           O1  tau(  36) = (   5.3058445   4.4798052  12.6251394  )
        37           Ti1 tau(  37) = (   6.5140999   0.0198189  12.7603067  )
        38           Ti1 tau(  38) = (   3.1705570   4.4938763  12.4677136  )
        39           O1  tau(  39) = (   0.0016069   2.9863809  14.6467327  )
        40           O1  tau(  40) = (   3.3112668   3.0122049  13.8485686  )
        41           O1  tau(  41) = (   4.5534170   4.5051619  16.0179686  )
        42           O1  tau(  42) = (   2.0797414   4.5084034  16.0201905  )
        43           Ti1 tau(  43) = (   3.2815144   0.0627375  15.7417980  )
        44           Ti1 tau(  44) = (   0.0076503   4.5954094  16.1032789  )
        45           O1  tau(  45) = (   3.2900926   2.9813045   4.7018136  )
        46           O1  tau(  46) = (   1.3039711   4.4726057   6.0039043  )
        47           O1  tau(  47) = (   5.2763189   4.4711207   6.0039473  )
        48           N1  tau(  48) = (   0.0651939   3.0276870  17.3150544  )
        49           C1  tau(  49) = (   0.3375872   3.0185870  18.7284822  )
        50           H1  tau(  50) = (   0.4544735   4.0311245  19.1352477  )
        51           H1  tau(  51) = (   6.1015407   2.5302758  19.2785169  )
        52           H1  tau(  52) = (   1.2508204   2.4494767  18.9618403  )
        53           O1  tau(  53) = (   3.3357083   0.1159715  18.1615364  )
        54           H1  tau(  54) = (   4.1514219   5.6051498  18.3929375  )
        55           H1  tau(  55) = (   2.5926282   5.5337384  18.4710493  )

     number of k points=    10  Fermi-Dirac smearing, width (Ry)=  0.0073
                       cart. coord. in units 2pi/alat
        k(    1) = (   0.0000000   0.0000000   0.0000000), wk =   0.1250000
        k(    2) = (   0.0000000   0.0419351   0.0000000), wk =   0.2500000
        k(    3) = (   0.0000000  -0.0838702   0.0000000), wk =   0.1250000
        k(    4) = (   0.0379955   0.0000049   0.0000000), wk =   0.2500000
        k(    5) = (   0.0379955   0.0419400   0.0000000), wk =   0.2500000
        k(    6) = (   0.0379955  -0.0838652   0.0000000), wk =   0.2500000
        k(    7) = (   0.0379955  -0.0419301   0.0000000), wk =   0.2500000
        k(    8) = (  -0.0759910  -0.0000099   0.0000000), wk =   0.1250000
        k(    9) = (  -0.0759910   0.0419252   0.0000000), wk =   0.2500000
        k(   10) = (  -0.0759910  -0.0838800   0.0000000), wk =   0.1250000

     Initial potential from superposition of free atoms

     starting charge  381.99915, renormalised to  398.00000

     negative rho (up, down):  1.656E-02 0.000E+00

     %%%%%%%%%%%%%%%%%%%%%%%%%%%%%%%%%%%%%%%%%%%%%%%%%%%%%%%%%%%%%%%%%%%%%%%%
     %                                                                      %
     % You are using vdW-DF, which was implemented by the Thonhauser group. %
     % Please cite the following two papers that made this development      %
     % possible and the two reviews that describe the various versions:     %
     %                                                                      %
     %   T. Thonhauser et al., PRL 115, 136402 (2015).                      %
     %   T. Thonhauser et al., PRB 76, 125112 (2007).                       %
     %   K. Berland et al., Rep. Prog. Phys. 78, 066501 (2015).             %
     %   D.C. Langreth et al., J. Phys.: Condens. Matter 21, 084203 (2009). %
     %                                                                      %
     %                                                                      %
     % If you are calculating the stress with vdW-DF, please also cite:     %
     %                                                                      %
     %   R. Sabatini et al., J. Phys.: Condens. Matter 24, 424209 (2012).   %
     %                                                                      %
     %%%%%%%%%%%%%%%%%%%%%%%%%%%%%%%%%%%%%%%%%%%%%%%%%%%%%%%%%%%%%%%%%%%%%%%%

     Adding external electric field

     Computed dipole along edir(3) :
        Dipole               -9.1087 Ry au,        -23.1520 Debye
        Dipole field         -0.0172 Ry au,

        Potential amp.        1.5934 Ry
        Total length         46.3494 bohr

     Starting wfcs are  301 atomic wfcs
  @ DRIVER MODE: Message from server: STATUS
  @ DRIVER MODE: Message from server: POSDATA
  @ DRIVER MODE: Reading and sharing cell
  @ DRIVER MODE: Reading and sharing positions
  @ DRIVER MODE: Received positions

     Self-consistent Calculation

     iteration #  1     ecut=    29.40 Ry     beta= 0.05
     Davidson diagonalization with overlap
     c_bands:  1 eigenvalues not converged
     c_bands:  1 eigenvalues not converged
     c_bands:  1 eigenvalues not converged
     c_bands:  1 eigenvalues not converged
     c_bands:  1 eigenvalues not converged
     c_bands:  1 eigenvalues not converged
     c_bands:  1 eigenvalues not converged
     c_bands:  2 eigenvalues not converged
     ethr =  1.00E-05,  avg # of iterations = 19.6

[...]

     total energy              =   -2564.51507039 Ry
     estimated scf accuracy    <    4317.32759954 Ry

     iteration #  2     ecut=    29.40 Ry     beta= 0.05
     Davidson diagonalization with overlap
     ethr =  1.00E-02,  avg # of iterations = 23.6

[...]

     iteration # 36     ecut=    29.40 Ry     beta= 0.05
     Davidson diagonalization with overlap
     c_bands:  1 eigenvalues not converged
     c_bands:  1 eigenvalues not converged
     c_bands:  1 eigenvalues not converged
     ethr =  1.85E-06,  avg # of iterations = 14.9

[...]

     total energy              =   -2953.97105111 Ry
     estimated scf accuracy    <       0.00000010 Ry

     iteration # 62     ecut=    29.40 Ry     beta= 0.05
     Davidson diagonalization with overlap
     ethr =  2.49E-11,  avg # of iterations =  5.0

     negative rho (up, down):  1.668E-02 0.000E+00

     Adding external electric field

     Computed dipole along edir(3) :
        Dipole                0.5298 Ry au,          1.3467 Debye
        Dipole field          0.0010 Ry au,

        Potential amp.       -0.0927 Ry
        Total length         46.3494 bohr

     End of self-consistent calculation

          k = 0.0000 0.0000 0.0000 ( 18029 PWs)   bands (ev):

   -56.5952 -56.5616 -55.7130 -55.6791 -55.6688 -55.6340 -55.4921 -55.4559
   -55.3614 -55.2434 -55.2298 -55.2279 -55.2095 -55.1325 -54.7262 -54.6769
   -33.0219 -32.8696 -32.8414 -32.7717 -32.6807 -32.6481 -32.1809 -32.1513
   -32.0276 -31.9779 -31.9301 -31.9108 -31.8818 -31.8714 -31.8439 -31.8378
   -31.8186 -31.8139 -31.7908 -31.7756 -31.7679 -31.7118 -31.7072 -31.6697
   -31.6561 -31.6344 -31.6263 -31.6182 -31.5950 -31.5864 -31.5832 -31.5590
   -31.4659 -31.4535 -31.4193 -31.4063 -31.3793 -31.3704 -31.3567 -31.3378
   -31.3098 -31.2594 -31.2410 -30.9697 -30.9483 -30.9192 -30.8950 -30.7860
   -18.7845 -16.7506 -16.2868 -16.0455 -15.9513 -15.8690 -15.8294 -15.7860
   -15.6379 -15.5655 -15.5453 -15.5431 -15.4751 -15.3308 -15.2770 -15.1792
   -15.0928 -14.9516 -14.9400 -14.9002 -14.8860 -14.8502 -14.8461 -14.7952
   -14.6272 -14.5912 -14.5455 -14.4863 -14.3950 -14.1738 -13.7419 -13.6322
   -12.9670  -7.7767  -6.5788  -4.3178  -3.7853  -3.5200  -3.4881  -3.3597
    -3.3553  -3.3121  -3.1713  -3.1633  -3.0884  -3.0641  -3.0180  -2.9501
    -2.8898  -2.8677  -2.7793  -2.7658  -2.7463  -2.7388  -2.7167  -2.5999
    -2.5556  -2.5052  -2.4018  -2.2919  -2.2494  -2.2224  -2.1765  -2.1431
    -2.0921  -2.0805  -2.0684  -2.0569  -1.9525  -1.8313  -1.8054  -1.7824
    -1.7366  -1.7215  -1.7130  -1.6898  -1.6054  -1.4970  -1.4039  -1.3357
    -1.3286  -1.2536  -1.2454  -1.1875  -1.0757  -1.0134  -1.0112  -0.9891
    -0.8853  -0.8604  -0.7886  -0.7259  -0.6671  -0.6141  -0.5514  -0.4990
    -0.4764  -0.4666  -0.3687  -0.2993  -0.2744  -0.2189  -0.2105  -0.2055
    -0.1789  -0.0837  -0.0483   0.0284   0.0637   0.1116   0.1470   0.2261
     0.2858   0.3516   0.3986   0.4204   0.4861   0.5413   0.5968   0.6878
     0.7450   0.7508   0.7782   0.8370   0.8504   0.9248   1.0070   1.0266
     1.0935   1.1645   1.3279   1.3669   1.6132   1.6867   2.3107   2.6822
     2.8432   3.1385   3.3281   3.4663   3.6613   3.6717   3.6790   3.9006
     3.9305

[...]

          k = 0.0380-0.0419 0.0000 ( 17876 PWs)   bands (ev):

[...]

          k =-0.0760-0.0000 0.0000 ( 17886 PWs)   bands (ev):

[...]

          k =-0.0760-0.0839 0.0000 ( 17948 PWs)   bands (ev):

   -56.5786 -56.5781 -55.6980 -55.6937 -55.6560 -55.6470 -55.4781 -55.4697
   -55.3590 -55.2320 -55.2265 -55.2263 -55.2247 -55.1357 -54.7190 -54.6840
   -32.8555 -32.8551 -32.8389 -32.8387 -32.7249 -32.7244 -32.0045 -31.9987
   -31.9871 -31.9802 -31.9038 -31.8892 -31.8881 -31.8838 -31.8771 -31.8756
   -31.8681 -31.8601 -31.8334 -31.8164 -31.7231 -31.7166 -31.6851 -31.6772
   -31.6538 -31.6183 -31.5863 -31.5720 -31.5719 -31.5698 -31.5487 -31.5307
   -31.4799 -31.4513 -31.4511 -31.4470 -31.4311 -31.4122 -31.4121 -31.4011
   -31.3747 -31.3392 -31.1017 -31.0395 -30.9458 -30.9202 -30.9048 -30.8579
   -18.7836 -16.1013 -16.0993 -16.0639 -16.0632 -15.7967 -15.7933 -15.7034
   -15.6979 -15.5661 -15.4457 -15.3416 -15.3290 -15.2949 -15.2684 -15.1581
   -15.1372 -15.1258 -15.1155 -15.0075 -14.9883 -14.9404 -14.9264 -14.9105
   -14.9033 -14.6087 -14.5923 -14.4923 -14.4663 -14.3261 -13.7358 -13.7357
   -12.9855  -7.7701  -6.5718  -3.1972  -3.1911  -3.1482  -3.1365  -3.1357
    -3.0701  -2.9777  -2.9300  -2.9288  -2.9213  -2.8391  -2.7827  -2.7750
    -2.7014  -2.6681  -2.6507  -2.5934  -2.5804  -2.5152  -2.4888  -2.4807
    -2.4632  -2.4393  -2.4380  -2.3441  -2.2779  -2.2320  -2.2268  -2.1673
    -2.1377  -2.0779  -2.0560  -2.0449  -2.0120  -1.9705  -1.9576  -1.9200
    -1.8778  -1.8442  -1.7800  -1.6140  -1.6048  -1.5957  -1.5753  -1.4532
    -1.4457  -1.4114  -1.3800  -1.3744  -1.3031  -1.2535  -1.2161  -1.1642
    -1.0773  -1.0558  -0.9512  -0.8991  -0.8556  -0.7998  -0.6947  -0.6744
    -0.6668  -0.6557  -0.6251  -0.5554  -0.5205  -0.5174  -0.3943  -0.3700
    -0.3315  -0.3025  -0.2442  -0.2154  -0.1562  -0.1244  -0.0546  -0.0406
    -0.0007   0.0762   0.1515   0.1858   0.2363   0.2427   0.5171   0.5907
     0.7202   0.7834   0.8459   0.9137   0.9793   1.0076   1.0368   1.1621
     1.1664   1.1758   1.1763   1.2467   1.2519   1.5917   2.1888   3.2583
     3.2585   3.3247   3.3253   3.6463   3.6526   3.7596   3.7698   3.9301
     3.9445

     the Fermi energy is     2.5090 ev

!    total energy              =   -2953.97109325 Ry
     estimated scf accuracy    <       0.00000003 Ry
     smearing contrib. (-TS)   =      -0.00442832 Ry
     internal energy E=F+TS    =   -2953.96666493 Ry

     The total energy is F=E-TS. E is the sum of the following terms:
     one-electron contribution =  -24343.45081797 Ry
     hartree contribution      =   12263.61750520 Ry
     xc contribution           =    -488.76958267 Ry
     ewald contribution        =    9614.63570072 Ry
     electric field correction =       0.00052979 Ry

     convergence has been achieved in  62 iterations

     Forces acting on atoms (cartesian axes, Ry/au):

     atom    1 type  1   force =    -0.00002515   -0.00048262    0.12442849
     atom    2 type  1   force =    -0.00003150   -0.00048296   -0.15978765
     atom    3 type  2   force =     0.00019998   -0.00023789   -0.06783567
     atom    4 type  2   force =     0.00000157   -0.00009069    0.02611364
     atom    5 type  2   force =    -0.01437475    0.00191454   -0.00990665
     atom    6 type  2   force =     0.01615925    0.00232621   -0.01028514
     atom    7 type  1   force =     0.00071838   -0.00388789    0.02848798
     atom    8 type  1   force =    -0.00033749   -0.00435794    0.10935228
     atom    9 type  2   force =     0.00002411    0.00001436    0.00007720
     atom   10 type  2   force =    -0.00225814    0.00266788   -0.07362203
     atom   11 type  2   force =     0.00079884   -0.00003015   -0.00023771
     atom   12 type  2   force =    -0.00043061    0.00004796   -0.00019877
     atom   13 type  1   force =    -0.00000693    0.00013510   -0.00010309
     atom   14 type  1   force =    -0.00034546    0.00048398   -0.00038450
     atom   15 type  2   force =     0.00003024   -0.00067219   -0.00022217
     atom   16 type  2   force =    -0.00018219   -0.00000891    0.00038997
     atom   17 type  2   force =    -0.00061548   -0.00031078   -0.00032411
     atom   18 type  2   force =     0.00031005   -0.00021366    0.00005641
     atom   19 type  1   force =     0.00040244   -0.00002422   -0.00018818
     atom   20 type  1   force =    -0.00015228   -0.00079413   -0.00079040
     atom   21 type  2   force =     0.00006701   -0.00003955    0.09951530
     atom   22 type  2   force =     0.00004920   -0.00052078    0.00017565
     atom   23 type  2   force =    -0.07970439   -0.00006426   -0.03247137
     atom   24 type  2   force =     0.07957572    0.00037521   -0.03252703
     atom   25 type  1   force =    -0.00000463   -0.00057289    0.12406395
     atom   26 type  1   force =    -0.00010382   -0.00062264   -0.15991128
     atom   27 type  2   force =     0.00033194   -0.00035949   -0.06690654
     atom   28 type  2   force =    -0.00002452    0.00017718    0.02513636
     atom   29 type  2   force =    -0.01496480    0.00189700   -0.00988306
     atom   30 type  2   force =     0.01665221    0.00242434   -0.01021681
     atom   31 type  1   force =     0.00078175   -0.00076834    0.02375071
     atom   32 type  1   force =    -0.00022870    0.00200026    0.10998214
     atom   33 type  2   force =     0.00004645   -0.00027042    0.00033887
     atom   34 type  2   force =    -0.00212297    0.00207102   -0.07173967
     atom   35 type  2   force =     0.00022624   -0.00012447   -0.00008779
     atom   36 type  2   force =    -0.00016024   -0.00025046   -0.00015934
     atom   37 type  1   force =     0.00042549   -0.00002738    0.00038376
     atom   38 type  1   force =     0.00001463   -0.00057131   -0.00016376
     atom   39 type  2   force =     0.00005136    0.00019594    0.00063844
     atom   40 type  2   force =    -0.00008747   -0.00023726    0.00024675
     atom   41 type  2   force =     0.00074226   -0.00034936    0.00010577
     atom   42 type  2   force =    -0.00098287   -0.00039162    0.00058781
     atom   43 type  1   force =    -0.00000828   -0.00032358    0.00011372
     atom   44 type  1   force =    -0.00030646    0.00011799   -0.00093076
     atom   45 type  2   force =     0.00005619   -0.00004674    0.09947075
     atom   46 type  2   force =    -0.07971291    0.00000354   -0.03249333
     atom   47 type  2   force =     0.07959164    0.00043035   -0.03251876
     atom   48 type  3   force =     0.00054049   -0.00063593    0.00048432
     atom   49 type  4   force =     0.00087559   -0.00057904    0.00190867
     atom   50 type  5   force =    -0.00080540    0.00016316    0.00006924
     atom   51 type  5   force =    -0.00058329   -0.00036440    0.00042752
     atom   52 type  5   force =    -0.00095286    0.00098789   -0.00214724
     atom   53 type  2   force =    -0.00061356   -0.00012677   -0.00070184
     atom   54 type  5   force =     0.00079809    0.00037366    0.00068371
     atom   55 type  5   force =     0.00065608    0.00003318   -0.00024475

     Total force =     0.423374     Total SCF correction =     0.000689
  @ DRIVER MODE: Message from server: STATUS
  @ DRIVER MODE: Message from server: GETFORCE
  @ DRIVER MODE: Returning v,forces,stress,ensemble

     Writing output data file ./calc.save/
  @ DRIVER MODE: Message from server: EXIT
  @ DRIVE MODE: Exiting

     General routines

     Parallel routines

   This run was terminated on:   1: 2:44  16Sep2021

   JOB DONE.