     Program PWSCF v.6.7GPU starts on 24Sep2021 at  5:16:36

     R & G space division:  proc/nbgrp/npool/nimage =       8
     Reading input from /storage/home/hcoda1/3/ntian30/research/carbon/CxH_vib/H2O_calc/ads_slab/CH2NHNH2HO_a/out_0041/pw.inp
Warning: card &CELL ignored
Warning: card   CELL_DYNAMICS='IPI', ignored
Warning: card / ignored

     Current dimensions of program PWSCF are:
     Max number of different atomic species (ntypx) = 10
     Max number of k-points (npk) =  40000
     Max angular momentum in pseudopotentials (lmaxx) =  3
     Presently no symmetry can be used with electric field

     Message from routine cell_base_init:
     DEPRECATED: use true lattice parameter, not A to a.u. conversion factor

     IMPORTANT: XC functional enforced from input :
     Exchange-correlation= BEEF-VDW
                           (   1   4  43  14   2   0   0)
     Any further DFT definition will be discarded
     Please, verify this is what you really want

  @ DRIVER MODE: Connecting to
 qe_1139763_2947313.sched-torque.pace.gatech.edudwz607q6_scratch
  using UNIX socket
  @ DRIVER MODE: Message from server: STATUS
  @ DRIVER MODE: Message from server: INIT
  @ DRIVER MODE: Receiving replica           0          -1
  @ DRIVER MODE: Receiving encoded integer          25
  @ DRIVER MODE:  SCF:  T  FORCE:  T  STRESS:  F  VC:  F  ENSEMBLE:  F
  @ DRIVER MODE:  SCF:  T  FORCE:  T  STRESS:  F  VC:  F  ENSEMBLE:  F

     Using Slab Decomposition

     bravais-lattice index     =            0
     lattice parameter (alat)  =       1.8897  a.u.
     unit-cell volume          =    6658.9804 (a.u.)^3
     number of atoms/cell      =           57
     number of atomic types    =            5
     number of electrons       =       404.00
     number of Kohn-Sham states=          212
     kinetic-energy cutoff     =      29.3995  Ry
     charge density cutoff     =     293.9946  Ry
     scf convergence threshold =      7.3E-08
     mixing beta               =       0.0500
     number of iterations used =            8  plain     mixing
     Exchange-correlation= BEEF-VDW
                           (   1   4  43  14   2   0   0)

     celldm(1)=   1.889726  celldm(2)=   0.000000  celldm(3)=   0.000000
     celldm(4)=   0.000000  celldm(5)=   0.000000  celldm(6)=   0.000000

     crystal axes: (cart. coord. in units of alat)
               a(1) = (   6.579727   0.000000   0.000000 )
               a(2) = (  -0.000775   5.961596   0.000000 )
               a(3) = (   0.000000   0.000000  25.155947 )

     reciprocal axes: (cart. coord. in units 2 pi/alat)
               b(1) = (  0.151982  0.000020  0.000000 )
               b(2) = (  0.000000  0.167740  0.000000 )
               b(3) = (  0.000000  0.000000  0.039752 )

     PseudoPot. # 1 for Ti read from file:
     /storage/coda1/p-amedford6/0/shared/rich_project_chbe-medford/medford-share/data/pseudos_module/espresso/nninc/pbe/van/Ti.UPF
     MD5 check sum: 8e4df49b7f0d34bbd5052bf3f5ea0213
     Pseudo is Ultrasoft, Zval = 12.0
     Generated by new atomic code, or converted to UPF format
     Using radial grid of  851 points,  6 beta functions with:
                l(1) =   0
                l(2) =   0
                l(3) =   1
                l(4) =   1
                l(5) =   2
                l(6) =   2
     Q(r) pseudized with  8 coefficients,  rinner =    1.000   1.000   1.000
                                                       1.000   1.000

     PseudoPot. # 2 for O  read from file:
     /storage/coda1/p-amedford6/0/shared/rich_project_chbe-medford/medford-share/data/pseudos_module/espresso/nninc/pbe/van/O.UPF
     MD5 check sum: 78c19812648e8988a0fe644b0f25305e
     Pseudo is Ultrasoft, Zval =  6.0
     Generated by new atomic code, or converted to UPF format
     Using radial grid of  737 points,  4 beta functions with:
                l(1) =   0
                l(2) =   0
                l(3) =   1
                l(4) =   1
     Q(r) pseudized with  8 coefficients,  rinner =    0.800   0.800   0.800

     PseudoPot. # 3 for N  read from file:
     /storage/coda1/p-amedford6/0/shared/rich_project_chbe-medford/medford-share/data/pseudos_module/espresso/nninc/pbe/van/N.UPF
     MD5 check sum: 90d10febe142ad51ac9d5be1deb811c4
     Pseudo is Ultrasoft, Zval =  5.0
     Generated by new atomic code, or converted to UPF format
     Using radial grid of  729 points,  4 beta functions with:
                l(1) =   0
                l(2) =   0
                l(3) =   1
                l(4) =   1
     Q(r) pseudized with  8 coefficients,  rinner =    0.800   0.800   0.800

     PseudoPot. # 4 for C  read from file:
     /storage/coda1/p-amedford6/0/shared/rich_project_chbe-medford/medford-share/data/pseudos_module/espresso/nninc/pbe/van/C.UPF
     MD5 check sum: 1a69bf6b8db32088f5b2163dbdb77a27
     Pseudo is Ultrasoft, Zval =  4.0
     Generated by new atomic code, or converted to UPF format
     Using radial grid of  721 points,  4 beta functions with:
                l(1) =   0
                l(2) =   0
                l(3) =   1
                l(4) =   1
     Q(r) pseudized with  8 coefficients,  rinner =    0.800   0.800   0.800

     PseudoPot. # 5 for H  read from file:
     /storage/coda1/p-amedford6/0/shared/rich_project_chbe-medford/medford-share/data/pseudos_module/espresso/nninc/pbe/van/H.UPF
     MD5 check sum: b5ee9d7bfd3a09ee7748110bda690ff7
     Pseudo is Ultrasoft, Zval =  1.0
     Generated by new atomic code, or converted to UPF format
     Using radial grid of  615 points,  1 beta functions with:
                l(1) =   0
     Q(r) pseudized with  8 coefficients,  rinner =    0.800

     atomic species   valence    mass     pseudopotential
        Ti1           12.00    47.86700     Ti( 1.00)
        O1             6.00    15.99900     O ( 1.00)
        N1             5.00    14.00700     N ( 1.00)
        C1             4.00    12.01100     C ( 1.00)
        H1             1.00     1.00800     H ( 1.00)

     No symmetry found

   Cartesian axes

     site n.     atom                  positions (alat units)
         1           Ti1 tau(   1) = (   0.0004258   2.9801865   6.0000000  )
         2           Ti1 tau(   2) = (   3.2906075   1.4906267   6.0002472  )
         3           O1  tau(   3) = (   0.0006271   0.0005054   7.9858123  )
         4           O1  tau(   4) = (   3.2906025   0.0005020   7.3038282  )
         5           O1  tau(   5) = (   4.5942328   1.4918067   9.2879030  )
         6           O1  tau(   6) = (   1.9868534   1.4903216   9.2879459  )
         7           Ti1 tau(   7) = (   3.2907910   2.8959150   9.1758416  )
         8           Ti1 tau(   8) = (   0.0015273   1.4827037   9.2680791  )
         9           O1  tau(   9) = (   3.2769995   5.9424463  11.3879711  )
        10           O1  tau(  10) = (   0.0116148   5.9584955  10.6183126  )
        11           O1  tau(  11) = (   1.2559300   1.4809235  12.6914295  )
        12           O1  tau(  12) = (   5.2914439   1.4888754  12.6824943  )
        13           Ti1 tau(  13) = (   6.5693074   2.9549812  12.5071532  )
        14           Ti1 tau(  14) = (   3.2720578   1.2926143  12.7373905  )
        15           O1  tau(  15) = (   6.5263330   5.9075480  14.6758232  )
        16           O1  tau(  16) = (   3.2750150   0.0724425  14.0538047  )
        17           O1  tau(  17) = (   4.5404297   1.6145126  16.1214498  )
        18           O1  tau(  18) = (   1.9612862   1.5681812  16.1371236  )
        19           Ti1 tau(  19) = (   3.2615978   3.0295928  15.7214328  )
        20           Ti1 tau(  20) = (   6.4910920   1.3289874  15.8500745  )
        21           O1  tau(  21) = (   3.2904802   0.0005063   4.7018136  )
        22           O1  tau(  22) = (   6.5149858   0.1606772  17.2625446  )
        23           O1  tau(  23) = (   1.3043587   1.4918075   6.0039043  )
        24           O1  tau(  24) = (   5.2767064   1.4903225   6.0039473  )
        25           Ti1 tau(  25) = (   0.0000382   5.9609847   6.0000000  )
        26           Ti1 tau(  26) = (   3.2902200   4.4714249   6.0002472  )
        27           O1  tau(  27) = (   0.0002396   2.9813036   7.9858123  )
        28           O1  tau(  28) = (   3.2902150   2.9813002   7.3038282  )
        29           O1  tau(  29) = (   4.5938453   4.4726049   9.2879030  )
        30           O1  tau(  30) = (   1.9864658   4.4711199   9.2879459  )
        31           Ti1 tau(  31) = (   3.2891106   5.8743827   9.1763621  )
        32           Ti1 tau(  32) = (   0.0006254   4.4649316   9.2693709  )
        33           O1  tau(  33) = (   3.2749377   2.9871965  11.3337082  )
        34           O1  tau(  34) = (   0.0092240   2.9805883  10.6323155  )
        35           O1  tau(  35) = (   1.2597673   4.4587344  12.6634223  )
        36           O1  tau(  36) = (   5.2866262   4.4511231  12.6493885  )
        37           Ti1 tau(  37) = (   6.5604603   5.9292220  12.4937940  )
        38           Ti1 tau(  38) = (   3.2724722   4.3622713  12.4512132  )
        39           O1  tau(  39) = (   6.5737517   3.0258615  14.9025115  )
        40           O1  tau(  40) = (   3.2593133   3.0063273  13.9441864  )
        41           O1  tau(  41) = (   4.5441350   4.4310557  16.1689449  )
        42           O1  tau(  42) = (   1.9655774   4.4762250  16.2070539  )
        43           Ti1 tau(  43) = (   3.1776431   0.0563557  16.2565842  )
        44           Ti1 tau(  44) = (   6.5216753   4.5226504  15.9439936  )
        45           O1  tau(  45) = (   3.2900926   2.9813045   4.7018136  )
        46           O1  tau(  46) = (   1.3039711   4.4726057   6.0039043  )
        47           O1  tau(  47) = (   5.2763189   4.4711207   6.0039473  )
        48           N1  tau(  48) = (   0.8157702   2.5297039  18.7633901  )
        49           N1  tau(  49) = (   6.4302604   3.3580032  18.1334362  )
        50           C1  tau(  50) = (   1.9549655   3.0231469  19.2293773  )
        51           H1  tau(  51) = (   2.0901252   4.0892486  19.3254668  )
        52           H1  tau(  52) = (   2.7239663   2.3052050  19.4587972  )
        53           H1  tau(  53) = (   0.7490178   1.5515861  18.4517582  )
        54           H1  tau(  54) = (   6.4535031   4.2829477  18.5596568  )
        55           H1  tau(  55) = (   5.5068980   2.9516776  18.2836589  )
        56           O1  tau(  56) = (   3.3967406   0.0908776  18.1493316  )
        57           H1  tau(  57) = (   4.3453859   0.1513423  18.3540861  )

     number of k points=    10  Fermi-Dirac smearing, width (Ry)=  0.0073
                       cart. coord. in units 2pi/alat
        k(    1) = (   0.0000000   0.0000000   0.0000000), wk =   0.1250000
        k(    2) = (   0.0000000   0.0419351   0.0000000), wk =   0.2500000
        k(    3) = (   0.0000000  -0.0838702   0.0000000), wk =   0.1250000
        k(    4) = (   0.0379955   0.0000049   0.0000000), wk =   0.2500000
        k(    5) = (   0.0379955   0.0419400   0.0000000), wk =   0.2500000
        k(    6) = (   0.0379955  -0.0838652   0.0000000), wk =   0.2500000
        k(    7) = (   0.0379955  -0.0419301   0.0000000), wk =   0.2500000
        k(    8) = (  -0.0759910  -0.0000099   0.0000000), wk =   0.1250000
        k(    9) = (  -0.0759910   0.0419252   0.0000000), wk =   0.2500000
        k(   10) = (  -0.0759910  -0.0838800   0.0000000), wk =   0.1250000

     Initial potential from superposition of free atoms

     starting charge  387.99913, renormalised to  404.00000

     negative rho (up, down):  1.609E-02 0.000E+00

     %%%%%%%%%%%%%%%%%%%%%%%%%%%%%%%%%%%%%%%%%%%%%%%%%%%%%%%%%%%%%%%%%%%%%%%%
     %                                                                      %
     % You are using vdW-DF, which was implemented by the Thonhauser group. %
     % Please cite the following two papers that made this development      %
     % possible and the two reviews that describe the various versions:     %
     %                                                                      %
     %   T. Thonhauser et al., PRL 115, 136402 (2015).                      %
     %   T. Thonhauser et al., PRB 76, 125112 (2007).                       %
     %   K. Berland et al., Rep. Prog. Phys. 78, 066501 (2015).             %
     %   D.C. Langreth et al., J. Phys.: Condens. Matter 21, 084203 (2009). %
     %                                                                      %
     %                                                                      %
     % If you are calculating the stress with vdW-DF, please also cite:     %
     %                                                                      %
     %   R. Sabatini et al., J. Phys.: Condens. Matter 24, 424209 (2012).   %
     %                                                                      %
     %%%%%%%%%%%%%%%%%%%%%%%%%%%%%%%%%%%%%%%%%%%%%%%%%%%%%%%%%%%%%%%%%%%%%%%%

     Adding external electric field

     Computed dipole along edir(3) :
        Dipole              -13.8421 Ry au,        -35.1831 Debye
        Dipole field         -0.0261 Ry au,

        Potential amp.        2.4215 Ry
        Total length         46.3494 bohr

     Starting wfcs are  306 atomic wfcs
  @ DRIVER MODE: Message from server: STATUS
  @ DRIVER MODE: Message from server: POSDATA
  @ DRIVER MODE: Reading and sharing cell
  @ DRIVER MODE: Reading and sharing positions
  @ DRIVER MODE: Received positions

     Self-consistent Calculation

     iteration #  1     ecut=    29.40 Ry     beta= 0.05
     Davidson diagonalization with overlap
     c_bands:  1 eigenvalues not converged
     c_bands:  2 eigenvalues not converged
     c_bands:  1 eigenvalues not converged
     c_bands:  1 eigenvalues not converged
     c_bands:  1 eigenvalues not converged
     c_bands:  2 eigenvalues not converged
     c_bands:  5 eigenvalues not converged
     c_bands:  3 eigenvalues not converged
     ethr =  1.00E-05,  avg # of iterations = 32.8

[...]

     total energy              =   -2231.88770533 Ry
     estimated scf accuracy    <    8426.07007426 Ry

     iteration #  2     ecut=    29.40 Ry     beta= 0.05
     Davidson diagonalization with overlap
     ethr =  1.00E-02,  avg # of iterations = 28.1

[...]

     iteration # 60     ecut=    29.40 Ry     beta= 0.05
     Davidson diagonalization with overlap
     c_bands:  1 eigenvalues not converged
     ethr =  1.27E-10,  avg # of iterations = 11.7

[...]

     total energy              =   -2975.15009001 Ry
     estimated scf accuracy    <       0.00000008 Ry

     iteration # 66     ecut=    29.40 Ry     beta= 0.05
     Davidson diagonalization with overlap
     ethr =  1.86E-11,  avg # of iterations =  2.0

     negative rho (up, down):  1.525E-02 0.000E+00

     Adding external electric field

     Computed dipole along edir(3) :
        Dipole                1.1814 Ry au,          3.0027 Debye
        Dipole field          0.0022 Ry au,

        Potential amp.       -0.2067 Ry
        Total length         46.3494 bohr

     End of self-consistent calculation

          k = 0.0000 0.0000 0.0000 ( 18029 PWs)   bands (ev):

   -55.4166 -55.3344 -55.3004 -55.2298 -55.1917 -55.1810 -55.1658 -55.1647
   -55.1496 -55.1302 -55.1017 -55.0307 -55.0238 -54.9963 -54.3286 -54.2946
   -31.8224 -31.7727 -31.7433 -31.7157 -31.6688 -31.6684 -31.6333 -31.6242
   -31.6206 -31.6085 -31.5797 -31.5419 -31.5047 -31.4874 -31.4716 -31.4639
   -31.4479 -31.4442 -31.4430 -31.4087 -31.3920 -31.3805 -31.3756 -31.3712
   -31.3666 -31.3605 -31.3570 -31.3352 -31.3294 -31.3263 -31.3262 -31.3026
   -31.2944 -31.2907 -31.2786 -31.2544 -31.2372 -31.2327 -31.2104 -31.2002
   -31.1980 -31.1936 -30.7356 -30.6468 -30.6245 -30.5529 -30.4664 -30.3548
   -19.3769 -16.2704 -16.0499 -15.8843 -15.6690 -15.6230 -15.5323 -15.3701
   -15.2580 -15.1876 -15.0796 -15.0038 -14.9297 -14.8945 -14.8855 -14.8718
   -14.8666 -14.8154 -14.8066 -14.7927 -14.7826 -14.7723 -14.7692 -14.7310
   -14.6969 -14.6486 -14.6155 -14.4934 -14.4550 -14.4184 -14.2969 -14.2758
   -12.8277 -12.7109 -10.1978  -7.8214  -6.5854  -5.4046  -4.1829  -3.8077
    -3.6644  -3.3924  -3.2840  -3.2524  -3.1893  -3.1575  -2.9029  -2.8038
    -2.7849  -2.6484  -2.5297  -2.4831  -2.4227  -2.3519  -2.3205  -2.2976
    -2.2722  -2.2162  -2.1523  -2.1382  -2.1248  -2.0481  -2.0438  -1.9702
    -1.9205  -1.9074  -1.8027  -1.7302  -1.6987  -1.6855  -1.6741  -1.6574
    -1.6325  -1.6255  -1.6018  -1.5397  -1.4741  -1.4650  -1.3995  -1.3734
    -1.1020  -1.0375  -0.9719  -0.9424  -0.8661  -0.8263  -0.8098  -0.7862
    -0.7430  -0.7400  -0.7170  -0.6580  -0.5597  -0.5052  -0.4745  -0.4553
    -0.4026  -0.2894  -0.2694  -0.1583  -0.1301  -0.1226  -0.0831  -0.0356
     0.0064   0.0457   0.1078   0.1776   0.2275   0.2786   0.3107   0.3368
     0.3773   0.4124   0.4730   0.5506   0.5745   0.6190   0.6490   0.6692
     0.6788   0.7355   0.7525   0.8403   0.9209   0.9322   1.0305   1.0620
     1.1110   1.2974   1.3340   1.6335   1.6798   1.6977   1.8862   2.2674
     2.3138   3.7327   3.8569   3.8871   3.8974   3.9361   3.9695   4.0250
     4.2198   4.2313   4.3428   4.4591

[...]

          k = 0.0380-0.0419 0.0000 ( 17876 PWs)   bands (ev):

[...]

          k =-0.0760-0.0000 0.0000 ( 17886 PWs)   bands (ev):

[...]

          k =-0.0760-0.0839 0.0000 ( 17948 PWs)   bands (ev):

   -55.4158 -55.3176 -55.3171 -55.2186 -55.2027 -55.1786 -55.1666 -55.1472
   -55.1468 -55.1433 -55.1086 -55.0259 -55.0194 -55.0075 -54.3120 -54.3111
   -31.6849 -31.6744 -31.6562 -31.6378 -31.6375 -31.6212 -31.6098 -31.6094
   -31.5685 -31.5375 -31.5217 -31.4967 -31.4872 -31.4789 -31.4674 -31.4544
   -31.4531 -31.4476 -31.4444 -31.4374 -31.4369 -31.4281 -31.4118 -31.4046
   -31.3996 -31.3822 -31.3679 -31.3675 -31.3613 -31.3588 -31.3538 -31.3438
   -31.3293 -31.3254 -31.3241 -31.3205 -31.2872 -31.2851 -31.2465 -31.2406
   -31.2145 -31.2060 -30.6375 -30.6368 -30.5490 -30.5478 -30.5101 -30.5093
   -19.3723 -16.2412 -15.7548 -15.4860 -15.3607 -15.3489 -15.2275 -15.2115
   -15.1494 -15.1410 -15.1115 -15.0982 -15.0875 -15.0436 -15.0149 -14.9310
   -14.9155 -14.8746 -14.8712 -14.8254 -14.8231 -14.8215 -14.7997 -14.7781
   -14.7725 -14.7472 -14.7305 -14.6841 -14.6707 -14.5335 -14.4438 -14.3986
   -12.8129 -12.8123 -10.1687  -7.7877  -6.5771  -5.4883  -4.1412  -3.8258
    -3.6244  -2.8419  -2.6987  -2.5972  -2.4875  -2.4553  -2.4067  -2.3575
    -2.3439  -2.3123  -2.2406  -2.2121  -2.1969  -2.1610  -2.1600  -2.1367
    -2.1270  -2.1071  -2.0790  -2.0591  -2.0491  -2.0428  -2.0159  -2.0004
    -1.9859  -1.9609  -1.9328  -1.9119  -1.8985  -1.8909  -1.8403  -1.7351
    -1.6462  -1.5673  -1.5308  -1.5050  -1.4927  -1.4462  -1.4329  -1.4211
    -1.3857  -1.3623  -1.2280  -1.2064  -1.0676  -1.0126  -0.9787  -0.9336
    -0.8789  -0.8709  -0.8538  -0.8140  -0.7743  -0.6425  -0.6101  -0.5751
    -0.5060  -0.4445  -0.3572  -0.3432  -0.3187  -0.3017  -0.2661  -0.2467
    -0.2326  -0.2028  -0.1734  -0.0952  -0.0610  -0.0488  -0.0302   0.0686
     0.1681   0.2077   0.2711   0.3405   0.3829   0.4077   0.4367   0.6213
     0.6512   0.7948   0.8034   0.8080   0.9532   0.9534   1.0015   1.0497
     1.0805   1.1229   1.1519   1.1666   1.2017   2.0565   2.0649   2.1340
     2.1342   3.7698   3.9342   4.1574   4.1801   4.2388   4.2496   4.2809
     4.3066   4.3359   4.3774   4.3965

     the Fermi energy is     3.7825 ev

!    total energy              =   -2975.15011858 Ry
     estimated scf accuracy    <       0.00000004 Ry
     smearing contrib. (-TS)   =      -0.03330535 Ry
     internal energy E=F+TS    =   -2975.11681323 Ry

     The total energy is F=E-TS. E is the sum of the following terms:
     one-electron contribution =  -23380.30079516 Ry
     hartree contribution      =   11787.39670760 Ry
     xc contribution           =    -494.90644045 Ry
     ewald contribution        =    9112.69108109 Ry
     electric field correction =       0.00263369 Ry

     convergence has been achieved in  66 iterations

     Forces acting on atoms (cartesian axes, Ry/au):

     atom    1 type  1   force =     0.00028759   -0.00019486    0.09348313
     atom    2 type  1   force =    -0.00005456    0.00053544   -0.17632449
     atom    3 type  2   force =     0.00004317   -0.00029895   -0.02069956
     atom    4 type  2   force =     0.00001674   -0.00222348    0.05687605
     atom    5 type  2   force =    -0.00785488   -0.00263521    0.00514080
     atom    6 type  2   force =     0.00892213   -0.00211946    0.00325796
     atom    7 type  1   force =    -0.00078133   -0.00332602    0.00575567
     atom    8 type  1   force =     0.00086587    0.00107852   -0.00174087
     atom    9 type  2   force =    -0.00018488    0.00014947    0.00007178
     atom   10 type  2   force =    -0.00342050    0.00105471   -0.00643204
     atom   11 type  2   force =     0.00019095   -0.00013313    0.00031335
     atom   12 type  2   force =    -0.00012385   -0.00023027    0.00003802
     atom   13 type  1   force =     0.00000988   -0.00004382   -0.00022438
     atom   14 type  1   force =     0.00052813   -0.00036918   -0.00027256
     atom   15 type  2   force =    -0.00003400   -0.00098386   -0.00041889
     atom   16 type  2   force =     0.00021037    0.00063427    0.00084799
     atom   17 type  2   force =    -0.00128108    0.00033379   -0.00041235
     atom   18 type  2   force =     0.00131676   -0.00000938   -0.00070350
     atom   19 type  1   force =     0.00005485    0.00055487   -0.00007484
     atom   20 type  1   force =     0.00051669    0.00041832   -0.00061184
     atom   21 type  2   force =     0.00011518    0.00004797    0.10356585
     atom   22 type  2   force =     0.00011433   -0.00014698    0.00081525
     atom   23 type  2   force =    -0.07137085   -0.00017829   -0.02699995
     atom   24 type  2   force =     0.07136729    0.00027191   -0.02703080
     atom   25 type  1   force =     0.00007037   -0.00017937    0.09323781
     atom   26 type  1   force =     0.00008073   -0.00126326   -0.17654336
     atom   27 type  2   force =     0.00007677   -0.00014930   -0.01946851
     atom   28 type  2   force =     0.00001891   -0.00060005    0.05224031
     atom   29 type  2   force =    -0.00742476    0.00176666    0.00490137
     atom   30 type  2   force =     0.00835346    0.00235153    0.00300184
     atom   31 type  1   force =    -0.00098094    0.00886739   -0.00436663
     atom   32 type  1   force =     0.00094450   -0.00222766   -0.00240549
     atom   33 type  2   force =    -0.00022329   -0.00134441   -0.00062611
     atom   34 type  2   force =    -0.00214519   -0.00210292   -0.00763303
     atom   35 type  2   force =    -0.00001713    0.00016313    0.00027181
     atom   36 type  2   force =     0.00018019    0.00015729    0.00021043
     atom   37 type  1   force =     0.00003852   -0.00030521    0.00012176
     atom   38 type  1   force =     0.00034952    0.00046469    0.00018170
     atom   39 type  2   force =    -0.00000446    0.00073962   -0.00016920
     atom   40 type  2   force =     0.00021580   -0.00016621    0.00042607
     atom   41 type  2   force =    -0.00041703   -0.00012354    0.00023888
     atom   42 type  2   force =     0.00076729   -0.00026195    0.00010099
     atom   43 type  1   force =     0.00040390   -0.00061630   -0.00016595
     atom   44 type  1   force =     0.00008955    0.00083873   -0.00031392
     atom   45 type  2   force =     0.00009962   -0.00009061    0.10332652
     atom   46 type  2   force =    -0.07140919   -0.00003093   -0.02703697
     atom   47 type  2   force =     0.07138464    0.00038589   -0.02706916
     atom   48 type  3   force =    -0.00089587    0.00108858    0.00012485
     atom   49 type  3   force =    -0.00023545   -0.00620543   -0.00322153
     atom   50 type  4   force =     0.00044576    0.00035325    0.00006945
     atom   51 type  5   force =     0.00051527   -0.00094578   -0.00046164
     atom   52 type  5   force =    -0.00007893    0.00010279   -0.00012980
     atom   53 type  5   force =    -0.00024407    0.00050537   -0.00005080
     atom   54 type  5   force =     0.00053155    0.00566465    0.00343298
     atom   55 type  5   force =     0.00014966    0.00074612    0.00049884
     atom   56 type  2   force =     0.00078992    0.00090556   -0.00018403
     atom   57 type  5   force =    -0.00088362   -0.00067466   -0.00075925

     Total force =     0.363224     Total SCF correction =     0.000470
  @ DRIVER MODE: Message from server: STATUS
  @ DRIVER MODE: Message from server: GETFORCE
  @ DRIVER MODE: Returning v,forces,stress,ensemble

     Writing output data file ./calc.save/
  @ DRIVER MODE: Message from server: EXIT
  @ DRIVE MODE: Exiting

     General routines

     Parallel routines

   This run was terminated on:   5:39:58  24Sep2021

   JOB DONE.