     Program PWSCF v.6.7GPU starts on 19Oct2021 at  0:39:51

     R & G space division:  proc/nbgrp/npool/nimage =       8
     Reading input from /storage/home/hcoda1/3/ntian30/research/carbon/CxH_vib/Thiel_calc/ads_slab/NNH2HH_perslab/out_0027/pw.inp
Warning: card &CELL ignored
Warning: card   CELL_DYNAMICS='IPI', ignored
Warning: card / ignored

     Current dimensions of program PWSCF are:
     Max number of different atomic species (ntypx) = 10
     Max number of k-points (npk) =  40000
     Max angular momentum in pseudopotentials (lmaxx) =  3
     Presently no symmetry can be used with electric field

     Message from routine cell_base_init:
     DEPRECATED: use true lattice parameter, not A to a.u. conversion factor

     IMPORTANT: XC functional enforced from input :
     Exchange-correlation= BEEF-VDW
                           (   1   4  43  14   2   0   0)
     Any further DFT definition will be discarded
     Please, verify this is what you really want

  @ DRIVER MODE: Connecting to
 qe_1139763_3255133.sched-torque.pace.gatech.edu38fhszej_scratch
  using UNIX socket
  @ DRIVER MODE: Message from server: STATUS
  @ DRIVER MODE: Message from server: INIT
  @ DRIVER MODE: Receiving replica           0          -1
  @ DRIVER MODE: Receiving encoded integer          25
  @ DRIVER MODE:  SCF:  T  FORCE:  T  STRESS:  F  VC:  F  ENSEMBLE:  F
  @ DRIVER MODE:  SCF:  T  FORCE:  T  STRESS:  F  VC:  F  ENSEMBLE:  F

     Using Slab Decomposition

     bravais-lattice index     =            0
     lattice parameter (alat)  =       1.8897  a.u.
     unit-cell volume          =    9988.4706 (a.u.)^3
     number of atoms/cell      =           59
     number of atomic types    =            4
     number of electrons       =       440.00
     number of Kohn-Sham states=          230
     kinetic-energy cutoff     =      29.3995  Ry
     charge density cutoff     =     293.9946  Ry
     scf convergence threshold =      7.3E-08
     mixing beta               =       0.0500
     number of iterations used =            8  plain     mixing
     Exchange-correlation= BEEF-VDW
                           (   1   4  43  14   2   0   0)

     celldm(1)=   1.889726  celldm(2)=   0.000000  celldm(3)=   0.000000
     celldm(4)=   0.000000  celldm(5)=   0.000000  celldm(6)=   0.000000

     crystal axes: (cart. coord. in units of alat)
               a(1) = (   6.579727   0.000000   0.000000 )
               a(2) = (  -0.001163   8.942395   0.000000 )
               a(3) = (   0.000000   0.000000  25.155947 )

     reciprocal axes: (cart. coord. in units 2 pi/alat)
               b(1) = (  0.151982  0.000020  0.000000 )
               b(2) = (  0.000000  0.111827  0.000000 )
               b(3) = (  0.000000  0.000000  0.039752 )

     PseudoPot. # 1 for O  read from file:
     /storage/coda1/p-amedford6/0/shared/rich_project_chbe-medford/medford-share/data/pseudos_module/espresso/nninc/pbe/van/O.UPF
     MD5 check sum: 78c19812648e8988a0fe644b0f25305e
     Pseudo is Ultrasoft, Zval =  6.0
     Generated by new atomic code, or converted to UPF format
     Using radial grid of  737 points,  4 beta functions with:
                l(1) =   0
                l(2) =   0
                l(3) =   1
                l(4) =   1
     Q(r) pseudized with  8 coefficients,  rinner =    0.800   0.800   0.800

     PseudoPot. # 2 for Ti read from file:
     /storage/coda1/p-amedford6/0/shared/rich_project_chbe-medford/medford-share/data/pseudos_module/espresso/nninc/pbe/van/Ti.UPF
     MD5 check sum: 8e4df49b7f0d34bbd5052bf3f5ea0213
     Pseudo is Ultrasoft, Zval = 12.0
     Generated by new atomic code, or converted to UPF format
     Using radial grid of  851 points,  6 beta functions with:
                l(1) =   0
                l(2) =   0
                l(3) =   1
                l(4) =   1
                l(5) =   2
                l(6) =   2
     Q(r) pseudized with  8 coefficients,  rinner =    1.000   1.000   1.000
                                                       1.000   1.000

     PseudoPot. # 3 for H  read from file:
     /storage/coda1/p-amedford6/0/shared/rich_project_chbe-medford/medford-share/data/pseudos_module/espresso/nninc/pbe/van/H.UPF
     MD5 check sum: b5ee9d7bfd3a09ee7748110bda690ff7
     Pseudo is Ultrasoft, Zval =  1.0
     Generated by new atomic code, or converted to UPF format
     Using radial grid of  615 points,  1 beta functions with:
                l(1) =   0
     Q(r) pseudized with  8 coefficients,  rinner =    0.800

     PseudoPot. # 4 for N  read from file:
     /storage/coda1/p-amedford6/0/shared/rich_project_chbe-medford/medford-share/data/pseudos_module/espresso/nninc/pbe/van/N.UPF
     MD5 check sum: 90d10febe142ad51ac9d5be1deb811c4
     Pseudo is Ultrasoft, Zval =  5.0
     Generated by new atomic code, or converted to UPF format
     Using radial grid of  729 points,  4 beta functions with:
                l(1) =   0
                l(2) =   0
                l(3) =   1
                l(4) =   1
     Q(r) pseudized with  8 coefficients,  rinner =    0.800   0.800   0.800

     atomic species   valence    mass     pseudopotential
        O1             6.00    15.99900     O ( 1.00)
        Ti1           12.00    47.86700     Ti( 1.00)
        H1             1.00     1.00800     H ( 1.00)
        N1             5.00    14.00700     N ( 1.00)

     No symmetry found

   Cartesian axes

     site n.     atom                  positions (alat units)
         1           O1  tau(   1) = (   0.0007354   0.0005023  10.5931620  )
         2           O1  tau(   2) = (   3.3122003   8.9411730  13.9078397  )
         3           O1  tau(   3) = (   0.0119464   0.1585559  17.3480684  )
         4           O1  tau(   4) = (   0.0006271   0.0005054   7.9858123  )
         5           O1  tau(   5) = (   3.2844644   8.9346379  11.1901754  )
         6           O1  tau(   6) = (   6.5618141   0.0157575  14.6617184  )
         7           O1  tau(   7) = (   1.9868534   1.4903216   9.2879459  )
         8           O1  tau(   8) = (   5.2413352   1.5994427  12.5710249  )
         9           O1  tau(   9) = (   2.0249271   1.5994163  16.0383581  )
        10           Ti1 tau(  10) = (   0.0007404   1.4906270   9.2895810  )
        11           Ti1 tau(  11) = (   3.2875257   1.3541315  12.5031546  )
        12           Ti1 tau(  12) = (   0.1037617   1.4803996  15.8781706  )
        13           O1  tau(  13) = (   4.5942328   1.4918067   9.2879030  )
        14           O1  tau(  14) = (   1.3445879   1.6225681  12.6047105  )
        15           O1  tau(  15) = (   4.5270247   1.5277052  16.0690704  )
        16           Ti1 tau(  16) = (   3.2902859   2.9801868   9.2893338  )
        17           Ti1 tau(  17) = (   6.5717848   2.8351652  12.4611715  )
        18           Ti1 tau(  18) = (   3.3615503   2.9380122  15.7113248  )
        19           O1  tau(  19) = (   0.0003479   2.9813005  10.5931620  )
        20           O1  tau(  20) = (   3.3257229   2.9884659  13.9122956  )
        21           O1  tau(  21) = (   0.0002396   2.9813036   7.9858123  )
        22           O1  tau(  22) = (   3.2846765   2.9682620  11.1924388  )
        23           O1  tau(  23) = (   6.5193973   3.0012958  14.6893217  )
        24           O1  tau(  24) = (   1.9864658   4.4711199   9.2879459  )
        25           O1  tau(  25) = (   5.2358842   4.5821056  12.5715879  )
        26           O1  tau(  26) = (   1.9668816   4.5963109  15.9958849  )
        27           Ti1 tau(  27) = (   0.0003529   4.4714252   9.2895810  )
        28           Ti1 tau(  28) = (   3.2817300   4.3379106  12.5030846  )
        29           Ti1 tau(  29) = (   6.5286400   4.3105241  16.0387364  )
        30           O1  tau(  30) = (   4.5938453   4.4726049   9.2879030  )
        31           O1  tau(  31) = (   1.3350840   4.5883300  12.6034823  )
        32           O1  tau(  32) = (   4.4768606   4.5746599  16.1328061  )
        33           Ti1 tau(  33) = (   3.2898983   5.9609850   9.2893338  )
        34           Ti1 tau(  34) = (   6.5687693   5.8095266  12.4696282  )
        35           Ti1 tau(  35) = (   3.1936624   5.9077503  15.7132784  )
        36           O1  tau(  36) = (  -0.0000397   5.9620987  10.5931620  )
        37           O1  tau(  37) = (   3.2950800   5.9615338  13.9080848  )
        38           O1  tau(  38) = (   6.5705097   6.0321180  17.3127682  )
        39           O1  tau(  39) = (  -0.0001480   5.9621018   7.9858123  )
        40           O1  tau(  40) = (   3.2829949   5.9473389  11.1919414  )
        41           O1  tau(  41) = (   6.5313079   6.0695169  14.6234680  )
        42           O1  tau(  42) = (   1.9860782   7.4519181   9.2879459  )
        43           O1  tau(  43) = (   5.2305909   7.5696458  12.5615615  )
        44           O1  tau(  44) = (   1.9930026   7.5537276  16.0441964  )
        45           Ti1 tau(  45) = (  -0.0000347   7.4522234   9.2895810  )
        46           Ti1 tau(  46) = (   3.2809715   7.3153274  12.5063831  )
        47           Ti1 tau(  47) = (  -0.0000777   7.3827053  15.8005402  )
        48           O1  tau(  48) = (   4.5934577   7.4534031   9.2879030  )
        49           O1  tau(  49) = (   1.3440923   7.5800077  12.5804573  )
        50           O1  tau(  50) = (   4.5564015   7.5743432  16.1458831  )
        51           Ti1 tau(  51) = (   3.2895107   8.9417832   9.2893338  )
        52           Ti1 tau(  52) = (   6.5681474   8.7932977  12.4619754  )
        53           Ti1 tau(  53) = (   3.3227810   8.9003220  15.7121742  )
        54           H1  tau(  54) = (   5.8375475   6.1301351  17.9339333  )
        55           H1  tau(  55) = (   5.7673184   0.1799947  17.8523786  )
        56           H1  tau(  56) = (   0.0490247   3.6154164  19.2291769  )
        57           N1  tau(  57) = (   6.4107751   2.7916545  18.6713363  )
        58           N1  tau(  58) = (   6.5444414   3.0334393  17.3342366  )
        59           H1  tau(  59) = (   0.3957958   1.9971216  18.9670883  )

     number of k points=    10  Fermi-Dirac smearing, width (Ry)=  0.0073
                       cart. coord. in units 2pi/alat
        k(    1) = (   0.0000000   0.0000000   0.0000000), wk =   0.1250000
        k(    2) = (   0.0000000   0.0279567   0.0000000), wk =   0.2500000
        k(    3) = (   0.0000000  -0.0559134   0.0000000), wk =   0.1250000
        k(    4) = (   0.0379955   0.0000049   0.0000000), wk =   0.2500000
        k(    5) = (   0.0379955   0.0279617   0.0000000), wk =   0.2500000
        k(    6) = (   0.0379955  -0.0559085   0.0000000), wk =   0.2500000
        k(    7) = (   0.0379955  -0.0279518   0.0000000), wk =   0.2500000
        k(    8) = (  -0.0759910  -0.0000099   0.0000000), wk =   0.1250000
        k(    9) = (  -0.0759910   0.0279468   0.0000000), wk =   0.2500000
        k(   10) = (  -0.0759910  -0.0559233   0.0000000), wk =   0.1250000

     Initial potential from superposition of free atoms

     starting charge  421.99910, renormalised to  440.00000

     negative rho (up, down):  3.724E-02 0.000E+00

     %%%%%%%%%%%%%%%%%%%%%%%%%%%%%%%%%%%%%%%%%%%%%%%%%%%%%%%%%%%%%%%%%%%%%%%%
     %                                                                      %
     % You are using vdW-DF, which was implemented by the Thonhauser group. %
     % Please cite the following two papers that made this development      %
     % possible and the two reviews that describe the various versions:     %
     %                                                                      %
     %   T. Thonhauser et al., PRL 115, 136402 (2015).                      %
     %   T. Thonhauser et al., PRB 76, 125112 (2007).                       %
     %   K. Berland et al., Rep. Prog. Phys. 78, 066501 (2015).             %
     %   D.C. Langreth et al., J. Phys.: Condens. Matter 21, 084203 (2009). %
     %                                                                      %
     %                                                                      %
     % If you are calculating the stress with vdW-DF, please also cite:     %
     %                                                                      %
     %   R. Sabatini et al., J. Phys.: Condens. Matter 24, 424209 (2012).   %
     %                                                                      %
     %%%%%%%%%%%%%%%%%%%%%%%%%%%%%%%%%%%%%%%%%%%%%%%%%%%%%%%%%%%%%%%%%%%%%%%%

     Adding external electric field

     Computed dipole along edir(3) :
        Dipole               -5.7841 Ry au,        -14.7017 Debye
        Dipole field         -0.0073 Ry au,

        Potential amp.        0.6746 Ry
        Total length         46.3494 bohr

     Starting wfcs are  332 atomic wfcs
  @ DRIVER MODE: Message from server: STATUS
  @ DRIVER MODE: Message from server: POSDATA
  @ DRIVER MODE: Reading and sharing cell
  @ DRIVER MODE: Reading and sharing positions
  @ DRIVER MODE: Received positions

     Self-consistent Calculation

     iteration #  1     ecut=    29.40 Ry     beta= 0.05
     Davidson diagonalization with overlap
     c_bands:  1 eigenvalues not converged
     c_bands:  2 eigenvalues not converged
     c_bands:  4 eigenvalues not converged
     c_bands:  1 eigenvalues not converged
     c_bands:  1 eigenvalues not converged
     c_bands:  5 eigenvalues not converged
     c_bands:  1 eigenvalues not converged
     c_bands:  4 eigenvalues not converged
     c_bands:  4 eigenvalues not converged
     c_bands:  4 eigenvalues not converged
     ethr =  1.00E-05,  avg # of iterations = 20.0

[...]

     total energy              =   -3276.45585764 Ry
     estimated scf accuracy    <     229.06642414 Ry

     iteration #  2     ecut=    29.40 Ry     beta= 0.05
     Davidson diagonalization with overlap
     ethr =  1.00E-02,  avg # of iterations = 15.7

[...]

     iteration # 40     ecut=    29.40 Ry     beta= 0.05
     Davidson diagonalization with overlap
     c_bands:  1 eigenvalues not converged
     ethr =  7.67E-09,  avg # of iterations = 13.2

[...]

     total energy              =   -3293.24437824 Ry
     estimated scf accuracy    <       0.00000011 Ry

     iteration # 55     ecut=    29.40 Ry     beta= 0.05
     Davidson diagonalization with overlap
     ethr =  1.94E-11,  avg # of iterations =  7.9

     negative rho (up, down):  3.572E-02 0.000E+00

     Adding external electric field

     Computed dipole along edir(3) :
        Dipole                1.5650 Ry au,          3.9778 Debye
        Dipole field          0.0020 Ry au,

        Potential amp.       -0.1825 Ry
        Total length         46.3494 bohr

     End of self-consistent calculation

          k = 0.0000 0.0000 0.0000 ( 26871 PWs)   bands (ev):

   -57.7031 -57.6955 -57.6782 -57.6764 -57.6517 -57.6128 -57.5641 -57.5257
   -57.5017 -57.4981 -57.4937 -57.4852 -57.4650 -57.4548 -56.8045 -56.7240
   -56.6998 -56.6962 -34.0997 -34.0856 -34.0838 -34.0820 -34.0577 -34.0397
   -34.0338 -34.0200 -34.0151 -33.9976 -33.9620 -33.9593 -33.9491 -33.9444
   -33.8994 -33.8967 -33.8903 -33.8826 -33.8701 -33.8444 -33.8400 -33.8291
   -33.8257 -33.8192 -33.7996 -33.7984 -33.7963 -33.7793 -33.7641 -33.7375
   -33.7336 -33.7305 -33.7220 -33.7142 -33.7054 -33.6904 -33.6859 -33.6844
   -33.6820 -33.6748 -33.6616 -33.6418 -33.2585 -33.0387 -33.0385 -33.0344
   -33.0228 -33.0196 -33.0080 -32.9967 -32.9501 -32.8874 -32.8834 -32.7497
   -19.1834 -19.0240 -18.8618 -18.5616 -18.1582 -17.9909 -17.9682 -17.9512
   -17.9105 -17.8109 -17.8097 -17.6300 -17.5743 -17.5398 -17.5104 -17.5044
   -17.4318 -17.3957 -17.3804 -17.3623 -17.3573 -17.3488 -17.3325 -17.2895
   -17.2501 -17.1976 -17.1824 -17.1472 -17.1349 -17.1332 -17.1319 -17.0637
   -16.8281 -15.1907 -15.1330 -15.1314 -12.1162  -7.9035  -6.7996  -6.5377
    -6.3456  -5.8902  -5.6729  -5.6209  -5.5397  -5.1833  -5.1699  -5.1015
    -5.0893  -5.0633  -4.9960  -4.9821  -4.9785  -4.9639  -4.8811  -4.8458
    -4.8337  -4.7845  -4.7700  -4.7118  -4.6450  -4.6348  -4.5754  -4.5389
    -4.5033  -4.4973  -4.4924  -4.4840  -4.4679  -4.4338  -4.3598  -4.3100
    -4.1761  -4.1674  -4.1158  -4.0507  -4.0227  -4.0145  -3.9538  -3.8797
    -3.8367  -3.8290  -3.7872  -3.7577  -3.7212  -3.7028  -3.6762  -3.5855
    -3.4938  -3.4578  -3.4523  -3.4131  -3.3979  -3.3458  -3.2294  -3.1762
    -3.1104  -3.0473  -2.9855  -2.9627  -2.9218  -2.8685  -2.8453  -2.7946
    -2.7753  -2.7208  -2.6768  -2.6260  -2.5339  -2.4751  -2.4697  -2.4578
    -2.4021  -2.3862  -2.3718  -2.3490  -2.3234  -2.2704  -2.2366  -2.2050
    -2.1723  -2.1405  -2.0958  -2.0609  -2.0498  -1.9415  -1.9083  -1.8801
    -1.7539  -1.7283  -1.6852  -1.6536  -1.5584  -1.5446  -1.5435  -1.4288
    -1.4132  -1.0885  -0.9990  -0.7449  -0.4739  -0.4286  -0.4278  -0.1640
    -0.1613  -0.0319   0.5352   1.2682   1.5233   1.6696   1.7280   1.7450
     1.7924   1.8775   1.8933   1.9226   1.9421   1.9771

[...]

          k = 0.0380-0.0280 0.0000 ( 26873 PWs)   bands (ev):

[...]

          k =-0.0760-0.0000 0.0000 ( 26902 PWs)   bands (ev):

[...]

          k =-0.0760-0.0559 0.0000 ( 26868 PWs)   bands (ev):

   -57.6953 -57.6948 -57.6936 -57.6688 -57.6531 -57.6120 -57.5641 -57.5190
   -57.5145 -57.4918 -57.4914 -57.4853 -57.4711 -57.4511 -56.8045 -56.7170
   -56.7136 -56.6894 -34.1782 -34.1705 -34.0850 -34.0584 -34.0498 -34.0350
   -34.0294 -34.0273 -33.9967 -33.9832 -33.9524 -33.9284 -33.9019 -33.8943
   -33.8923 -33.8790 -33.8721 -33.8442 -33.8433 -33.8390 -33.8352 -33.8309
   -33.8221 -33.8077 -33.7870 -33.7858 -33.7771 -33.7755 -33.7726 -33.7636
   -33.7542 -33.7365 -33.7330 -33.7314 -33.7195 -33.7168 -33.7139 -33.7083
   -33.6908 -33.6734 -33.6659 -33.6568 -33.2653 -33.1282 -33.0387 -33.0357
   -33.0126 -33.0093 -32.9978 -32.9307 -32.9266 -32.8638 -32.8486 -32.8447
   -19.1052 -19.0966 -18.8490 -18.2551 -18.2386 -17.9252 -17.8817 -17.8354
   -17.8305 -17.8060 -17.7358 -17.7184 -17.6854 -17.6220 -17.5382 -17.5105
   -17.4821 -17.4507 -17.4361 -17.4287 -17.4192 -17.3964 -17.3550 -17.3512
   -17.3031 -17.2538 -17.2189 -17.1698 -17.1385 -17.0891 -17.0627 -17.0365
   -16.8618 -15.1889 -15.1867 -15.0700 -12.1146  -7.9065  -6.7926  -6.5613
    -6.3027  -5.5031  -5.4941  -5.4860  -5.4375  -5.1481  -5.0371  -4.9911
    -4.9864  -4.9600  -4.9028  -4.8887  -4.8750  -4.8593  -4.8480  -4.8118
    -4.8071  -4.7635  -4.7512  -4.7376  -4.6875  -4.6296  -4.6240  -4.5997
    -4.5906  -4.5176  -4.5086  -4.4584  -4.3652  -4.3208  -4.3019  -4.2961
    -4.2580  -4.2245  -4.2171  -4.1460  -3.8988  -3.8886  -3.8658  -3.8479
    -3.8127  -3.7617  -3.7319  -3.7130  -3.6543  -3.5497  -3.4258  -3.3923
    -3.3792  -3.3630  -3.3371  -3.2978  -3.2858  -3.2767  -3.2319  -3.2004
    -3.1971  -3.1546  -3.1124  -3.0228  -2.9882  -2.9329  -2.8864  -2.8435
    -2.8326  -2.8199  -2.8134  -2.7964  -2.7670  -2.7544  -2.7381  -2.7009
    -2.6845  -2.6179  -2.5668  -2.5048  -2.4829  -2.4276  -2.3578  -2.2755
    -2.2521  -2.1899  -2.0957  -2.0403  -2.0013  -1.9671  -1.9490  -1.9260
    -1.8461  -1.8218  -1.7959  -1.7812  -1.5181  -1.5154  -1.3705  -1.3362
    -1.2854  -1.2777  -1.2045  -1.0511  -0.6402  -0.3547  -0.3476  -0.3193
    -0.1637  -0.1634   0.4854   1.4394   1.5042   1.5170   1.6082   1.6150
     1.6297   1.7270   1.7685   1.7701   1.9065   1.9723

     the Fermi energy is     1.3781 ev

!    total energy              =   -3293.24445123 Ry
     estimated scf accuracy    <       0.00000006 Ry
     smearing contrib. (-TS)   =      -0.03194523 Ry
     internal energy E=F+TS    =   -3293.21250600 Ry

     The total energy is F=E-TS. E is the sum of the following terms:
     one-electron contribution =  -34435.00632684 Ry
     hartree contribution      =   17282.67562441 Ry
     xc contribution           =    -542.29349535 Ry
     ewald contribution        =   14401.40861053 Ry
     electric field correction =       0.00308124 Ry

     convergence has been achieved in  55 iterations

     Forces acting on atoms (cartesian axes, Ry/au):

     atom    1 type  1   force =     0.00085096    0.00632533    0.05749838
     atom    2 type  1   force =    -0.00003858   -0.00071681   -0.00484247
     atom    3 type  1   force =    -0.00002212   -0.00242533   -0.00128694
     atom    4 type  1   force =     0.00006970    0.00076693    0.10711422
     atom    5 type  1   force =    -0.00015337   -0.00059314    0.00932435
     atom    6 type  1   force =     0.00129628   -0.00376443    0.00320012
     atom    7 type  1   force =     0.06705493   -0.00000276   -0.02953943
     atom    8 type  1   force =     0.00335387   -0.02849861    0.00244918
     atom    9 type  1   force =     0.01305034   -0.01751668    0.00120707
     atom   10 type  2   force =     0.00007803   -0.00243870   -0.18533654
     atom   11 type  2   force =     0.00015610    0.02108802   -0.00706551
     atom   12 type  2   force =    -0.00551371    0.01485333   -0.00191902
     atom   13 type  1   force =    -0.06727224   -0.00039608   -0.02893652
     atom   14 type  1   force =    -0.00362054   -0.02908879    0.00250026
     atom   15 type  1   force =    -0.00740239   -0.01134157    0.00240433
     atom   16 type  2   force =    -0.00021560   -0.00127229    0.06486732
     atom   17 type  2   force =     0.00030757    0.03524337    0.00372012
     atom   18 type  2   force =    -0.00277227    0.02185998    0.00148870
     atom   19 type  1   force =     0.00074773    0.00408056    0.06085503
     atom   20 type  1   force =     0.00003110   -0.00004424   -0.00400328
     atom   21 type  1   force =     0.00005695   -0.00004148    0.10729878
     atom   22 type  1   force =     0.00002809   -0.00083866    0.00937799
     atom   23 type  1   force =    -0.00008652   -0.00230598    0.00517245
     atom   24 type  1   force =     0.06733056   -0.00051519   -0.02945414
     atom   25 type  1   force =     0.00348372   -0.02948518    0.00313811
     atom   26 type  1   force =     0.00589081   -0.02235024    0.00416613
     atom   27 type  2   force =    -0.00000520    0.00173681   -0.18403867
     atom   28 type  2   force =    -0.00038510    0.02138933   -0.00710975
     atom   29 type  2   force =    -0.00116181    0.02075668   -0.00182030
     atom   30 type  1   force =    -0.06752929   -0.00097580   -0.02876317
     atom   31 type  1   force =    -0.00416955   -0.02932163    0.00230082
     atom   32 type  1   force =    -0.00589028   -0.01873200   -0.00009256
     atom   33 type  2   force =    -0.00032860   -0.00091475    0.06450895
     atom   34 type  2   force =     0.00044157    0.03635137    0.00372772
     atom   35 type  2   force =     0.00240888    0.02460969    0.00239328
     atom   36 type  1   force =     0.00068431    0.00482425    0.05917766
     atom   37 type  1   force =    -0.00015650    0.00143419   -0.00751512
     atom   38 type  1   force =    -0.00034774   -0.00384647    0.00095553
     atom   39 type  1   force =     0.00010904   -0.00016555    0.10688019
     atom   40 type  1   force =     0.00007808   -0.00090600    0.00975096
     atom   41 type  1   force =     0.00077607   -0.00254466    0.00153620
     atom   42 type  1   force =     0.06757991   -0.00029195   -0.02941039
     atom   43 type  1   force =     0.00367764   -0.02892695    0.00184062
     atom   44 type  1   force =     0.00874225   -0.01725089    0.00068025
     atom   45 type  2   force =     0.00023777   -0.00245132   -0.18292011
     atom   46 type  2   force =     0.00024265    0.01993479   -0.00669020
     atom   47 type  2   force =    -0.00010700    0.02328986    0.00146127
     atom   48 type  1   force =    -0.06772662   -0.00079127   -0.02866918
     atom   49 type  1   force =    -0.00359028   -0.02864728    0.00240886
     atom   50 type  1   force =    -0.00820670   -0.01857017   -0.00133796
     atom   51 type  2   force =    -0.00036043   -0.00110275    0.06449755
     atom   52 type  2   force =    -0.00016285    0.03594612    0.00456159
     atom   53 type  2   force =    -0.00170180    0.01493698   -0.00205631
     atom   54 type  3   force =    -0.00074617   -0.00014857    0.00051013
     atom   55 type  3   force =    -0.00083164   -0.00075223    0.00172569
     atom   56 type  3   force =     0.00135151   -0.00089567   -0.00108831
     atom   57 type  4   force =     0.00124089   -0.00075078    0.00269316
     atom   58 type  4   force =     0.00002691    0.00289599   -0.00519905
     atom   59 type  3   force =    -0.00087935   -0.00070073    0.00170195

     Total force =     0.455619     Total SCF correction =     0.000733
  @ DRIVER MODE: Message from server: STATUS
  @ DRIVER MODE: Message from server: GETFORCE
  @ DRIVER MODE: Returning v,forces,stress,ensemble

     Writing output data file ./calc.save/
  @ DRIVER MODE: Message from server: EXIT
  @ DRIVE MODE: Exiting

     General routines

     Parallel routines

   This run was terminated on:   1: 7:32  19Oct2021

   JOB DONE.