     Program PWSCF v.6.7GPU starts on 23Sep2021 at 11:50:34

     R & G space division:  proc/nbgrp/npool/nimage =       8
     Reading input from /storage/home/hcoda1/3/ntian30/research/carbon/CxH_vib/H2O_calc/ads_slab/CH2OHHO_a/out_0038/pw.inp
Warning: card &CELL ignored
Warning: card   CELL_DYNAMICS='IPI', ignored
Warning: card / ignored

     Current dimensions of program PWSCF are:
     Max number of different atomic species (ntypx) = 10
     Max number of k-points (npk) =  40000
     Max angular momentum in pseudopotentials (lmaxx) =  3
     Presently no symmetry can be used with electric field

     Message from routine cell_base_init:
     DEPRECATED: use true lattice parameter, not A to a.u. conversion factor

     IMPORTANT: XC functional enforced from input :
     Exchange-correlation= BEEF-VDW
                           (   1   4  43  14   2   0   0)
     Any further DFT definition will be discarded
     Please, verify this is what you really want

  @ DRIVER MODE: Connecting to
 qe_1139763_2941013.sched-torque.pace.gatech.eduw21rbzyx_scratch
  using UNIX socket
  @ DRIVER MODE: Message from server: STATUS
  @ DRIVER MODE: Message from server: INIT
  @ DRIVER MODE: Receiving replica           0          -1
  @ DRIVER MODE: Receiving encoded integer          25
  @ DRIVER MODE:  SCF:  T  FORCE:  T  STRESS:  F  VC:  F  ENSEMBLE:  F
  @ DRIVER MODE:  SCF:  T  FORCE:  T  STRESS:  F  VC:  F  ENSEMBLE:  F

     Using Slab Decomposition

     bravais-lattice index     =            0
     lattice parameter (alat)  =       1.8897  a.u.
     unit-cell volume          =    6658.9804 (a.u.)^3
     number of atoms/cell      =           54
     number of atomic types    =            4
     number of electrons       =       398.00
     number of Kohn-Sham states=          209
     kinetic-energy cutoff     =      29.3995  Ry
     charge density cutoff     =     293.9946  Ry
     scf convergence threshold =      7.3E-08
     mixing beta               =       0.0500
     number of iterations used =            8  plain     mixing
     Exchange-correlation= BEEF-VDW
                           (   1   4  43  14   2   0   0)

     celldm(1)=   1.889726  celldm(2)=   0.000000  celldm(3)=   0.000000
     celldm(4)=   0.000000  celldm(5)=   0.000000  celldm(6)=   0.000000

     crystal axes: (cart. coord. in units of alat)
               a(1) = (   6.579727   0.000000   0.000000 )
               a(2) = (  -0.000775   5.961596   0.000000 )
               a(3) = (   0.000000   0.000000  25.155947 )

     reciprocal axes: (cart. coord. in units 2 pi/alat)
               b(1) = (  0.151982  0.000020  0.000000 )
               b(2) = (  0.000000  0.167740  0.000000 )
               b(3) = (  0.000000  0.000000  0.039752 )

     PseudoPot. # 1 for Ti read from file:
     /storage/coda1/p-amedford6/0/shared/rich_project_chbe-medford/medford-share/data/pseudos_module/espresso/nninc/pbe/van/Ti.UPF
     MD5 check sum: 8e4df49b7f0d34bbd5052bf3f5ea0213
     Pseudo is Ultrasoft, Zval = 12.0
     Generated by new atomic code, or converted to UPF format
     Using radial grid of  851 points,  6 beta functions with:
                l(1) =   0
                l(2) =   0
                l(3) =   1
                l(4) =   1
                l(5) =   2
                l(6) =   2
     Q(r) pseudized with  8 coefficients,  rinner =    1.000   1.000   1.000
                                                       1.000   1.000

     PseudoPot. # 2 for O  read from file:
     /storage/coda1/p-amedford6/0/shared/rich_project_chbe-medford/medford-share/data/pseudos_module/espresso/nninc/pbe/van/O.UPF
     MD5 check sum: 78c19812648e8988a0fe644b0f25305e
     Pseudo is Ultrasoft, Zval =  6.0
     Generated by new atomic code, or converted to UPF format
     Using radial grid of  737 points,  4 beta functions with:
                l(1) =   0
                l(2) =   0
                l(3) =   1
                l(4) =   1
     Q(r) pseudized with  8 coefficients,  rinner =    0.800   0.800   0.800

     PseudoPot. # 3 for C  read from file:
     /storage/coda1/p-amedford6/0/shared/rich_project_chbe-medford/medford-share/data/pseudos_module/espresso/nninc/pbe/van/C.UPF
     MD5 check sum: 1a69bf6b8db32088f5b2163dbdb77a27
     Pseudo is Ultrasoft, Zval =  4.0
     Generated by new atomic code, or converted to UPF format
     Using radial grid of  721 points,  4 beta functions with:
                l(1) =   0
                l(2) =   0
                l(3) =   1
                l(4) =   1
     Q(r) pseudized with  8 coefficients,  rinner =    0.800   0.800   0.800

     PseudoPot. # 4 for H  read from file:
     /storage/coda1/p-amedford6/0/shared/rich_project_chbe-medford/medford-share/data/pseudos_module/espresso/nninc/pbe/van/H.UPF
     MD5 check sum: b5ee9d7bfd3a09ee7748110bda690ff7
     Pseudo is Ultrasoft, Zval =  1.0
     Generated by new atomic code, or converted to UPF format
     Using radial grid of  615 points,  1 beta functions with:
                l(1) =   0
     Q(r) pseudized with  8 coefficients,  rinner =    0.800

     atomic species   valence    mass     pseudopotential
        Ti1           12.00    47.86700     Ti( 1.00)
        O1             6.00    15.99900     O ( 1.00)
        C1             4.00    12.01100     C ( 1.00)
        H1             1.00     1.00800     H ( 1.00)

     No symmetry found

   Cartesian axes

     site n.     atom                  positions (alat units)
         1           Ti1 tau(   1) = (   0.0004258   2.9801865   6.0000000  )
         2           Ti1 tau(   2) = (   3.2906075   1.4906267   6.0002472  )
         3           O1  tau(   3) = (   0.0006271   0.0005054   7.9858123  )
         4           O1  tau(   4) = (   3.2906025   0.0005020   7.3038282  )
         5           O1  tau(   5) = (   4.5942328   1.4918067   9.2879030  )
         6           O1  tau(   6) = (   1.9868534   1.4903216   9.2879459  )
         7           Ti1 tau(   7) = (   3.2053781   3.0281819   9.2289109  )
         8           Ti1 tau(   8) = (   6.4789090   1.5422439   9.3246958  )
         9           O1  tau(   9) = (   3.3131828   0.0076525  11.3143355  )
        10           O1  tau(  10) = (   0.0036331   0.0073455  10.5537702  )
        11           O1  tau(  11) = (   1.2849538   1.5262321  12.5678262  )
        12           O1  tau(  12) = (   5.3289628   1.4687457  12.6164477  )
        13           Ti1 tau(  13) = (   0.0494698   3.0469090  12.7547230  )
        14           Ti1 tau(  14) = (   3.2845375   1.6334081  12.5308488  )
        15           O1  tau(  15) = (   0.1943872   0.0117586  14.6058021  )
        16           O1  tau(  16) = (   3.1943342   5.9422946  13.9142442  )
        17           O1  tau(  17) = (   4.6623408   1.4089460  15.7678261  )
        18           O1  tau(  18) = (   2.0428328   1.6351894  16.0888801  )
        19           Ti1 tau(  19) = (   3.4388860   2.9458104  15.8736401  )
        20           Ti1 tau(  20) = (   0.1295272   1.3814375  15.8666627  )
        21           O1  tau(  21) = (   3.2904802   0.0005063   4.7018136  )
        22           O1  tau(  22) = (   0.0846747   0.0144810  17.1090220  )
        23           O1  tau(  23) = (   1.3043587   1.4918075   6.0039043  )
        24           O1  tau(  24) = (   5.2767064   1.4903225   6.0039473  )
        25           Ti1 tau(  25) = (   0.0000382   5.9609847   6.0000000  )
        26           Ti1 tau(  26) = (   3.2902200   4.4714249   6.0002472  )
        27           O1  tau(  27) = (   0.0002396   2.9813036   7.9858123  )
        28           O1  tau(  28) = (   3.2902150   2.9813002   7.3038282  )
        29           O1  tau(  29) = (   4.5938453   4.4726049   9.2879030  )
        30           O1  tau(  30) = (   1.9864658   4.4711199   9.2879459  )
        31           Ti1 tau(  31) = (   3.2224821   0.0470802   9.2230333  )
        32           Ti1 tau(  32) = (   6.4759698   4.4664252   9.3127940  )
        33           O1  tau(  33) = (   3.3094535   2.9663607  11.2852029  )
        34           O1  tau(  34) = (   6.5591786   2.9896559  10.5312464  )
        35           O1  tau(  35) = (   1.2916819   4.4480478  12.5709280  )
        36           O1  tau(  36) = (   5.3369627   4.5124161  12.6303246  )
        37           Ti1 tau(  37) = (   6.5569224   0.0640291  12.4639877  )
        38           Ti1 tau(  38) = (   3.2972653   4.6387695  12.6472152  )
        39           O1  tau(  39) = (   0.0654804   2.9943531  14.6628162  )
        40           O1  tau(  40) = (   3.3673531   2.9793459  13.8791815  )
        41           O1  tau(  41) = (   4.6654837   4.5585741  15.7845026  )
        42           O1  tau(  42) = (   2.0434307   4.3527116  16.0649513  )
        43           Ti1 tau(  43) = (   3.4443475   5.9291804  16.0141943  )
        44           Ti1 tau(  44) = (   0.1552736   4.5966999  15.8683145  )
        45           O1  tau(  45) = (   3.2900926   2.9813045   4.7018136  )
        46           O1  tau(  46) = (   1.3039711   4.4726057   6.0039043  )
        47           O1  tau(  47) = (   5.2763189   4.4711207   6.0039473  )
        48           C1  tau(  48) = (   4.6056898   2.9812133  17.8228851  )
        49           O1  tau(  49) = (   6.0966523   2.9907575  17.4046881  )
        50           H1  tau(  50) = (   0.0599730   2.9907033  18.2108262  )
        51           H1  tau(  51) = (   4.4920754   2.0732530  18.4117920  )
        52           H1  tau(  52) = (   4.4771298   3.8877196  18.4106030  )
        53           O1  tau(  53) = (   3.3127961   5.9530928  17.8757943  )
        54           H1  tau(  54) = (   2.4387022   0.1083392  18.2542858  )

     number of k points=    10  Fermi-Dirac smearing, width (Ry)=  0.0073
                       cart. coord. in units 2pi/alat
        k(    1) = (   0.0000000   0.0000000   0.0000000), wk =   0.1250000
        k(    2) = (   0.0000000   0.0419351   0.0000000), wk =   0.2500000
        k(    3) = (   0.0000000  -0.0838702   0.0000000), wk =   0.1250000
        k(    4) = (   0.0379955   0.0000049   0.0000000), wk =   0.2500000
        k(    5) = (   0.0379955   0.0419400   0.0000000), wk =   0.2500000
        k(    6) = (   0.0379955  -0.0838652   0.0000000), wk =   0.2500000
        k(    7) = (   0.0379955  -0.0419301   0.0000000), wk =   0.2500000
        k(    8) = (  -0.0759910  -0.0000099   0.0000000), wk =   0.1250000
        k(    9) = (  -0.0759910   0.0419252   0.0000000), wk =   0.2500000
        k(   10) = (  -0.0759910  -0.0838800   0.0000000), wk =   0.1250000

     Initial potential from superposition of free atoms

     starting charge  381.99917, renormalised to  398.00000

     negative rho (up, down):  1.911E-02 0.000E+00

     %%%%%%%%%%%%%%%%%%%%%%%%%%%%%%%%%%%%%%%%%%%%%%%%%%%%%%%%%%%%%%%%%%%%%%%%
     %                                                                      %
     % You are using vdW-DF, which was implemented by the Thonhauser group. %
     % Please cite the following two papers that made this development      %
     % possible and the two reviews that describe the various versions:     %
     %                                                                      %
     %   T. Thonhauser et al., PRL 115, 136402 (2015).                      %
     %   T. Thonhauser et al., PRB 76, 125112 (2007).                       %
     %   K. Berland et al., Rep. Prog. Phys. 78, 066501 (2015).             %
     %   D.C. Langreth et al., J. Phys.: Condens. Matter 21, 084203 (2009). %
     %                                                                      %
     %                                                                      %
     % If you are calculating the stress with vdW-DF, please also cite:     %
     %                                                                      %
     %   R. Sabatini et al., J. Phys.: Condens. Matter 24, 424209 (2012).   %
     %                                                                      %
     %%%%%%%%%%%%%%%%%%%%%%%%%%%%%%%%%%%%%%%%%%%%%%%%%%%%%%%%%%%%%%%%%%%%%%%%

     Adding external electric field

     Computed dipole along edir(3) :
        Dipole               -7.9392 Ry au,        -20.1794 Debye
        Dipole field         -0.0150 Ry au,

        Potential amp.        1.3888 Ry
        Total length         46.3494 bohr

     Starting wfcs are  300 atomic wfcs
  @ DRIVER MODE: Message from server: STATUS
  @ DRIVER MODE: Message from server: POSDATA
  @ DRIVER MODE: Reading and sharing cell
  @ DRIVER MODE: Reading and sharing positions
  @ DRIVER MODE: Received positions

     Self-consistent Calculation

     iteration #  1     ecut=    29.40 Ry     beta= 0.05
     Davidson diagonalization with overlap
     c_bands:  1 eigenvalues not converged
     c_bands:  2 eigenvalues not converged
     c_bands:  2 eigenvalues not converged
     c_bands:  1 eigenvalues not converged
     c_bands:  1 eigenvalues not converged
     c_bands:  1 eigenvalues not converged
     ethr =  1.00E-05,  avg # of iterations = 18.8

[...]

     total energy              =   -2649.57518130 Ry
     estimated scf accuracy    <    3499.55583340 Ry

[...]

     iteration #  3     ecut=    29.40 Ry     beta= 0.05
     Davidson diagonalization with overlap
     ethr =  1.00E-02,  avg # of iterations = 13.7

[...]

     iteration # 38     ecut=    29.40 Ry     beta= 0.05
     Davidson diagonalization with overlap
     c_bands:  1 eigenvalues not converged
     ethr =  3.87E-07,  avg # of iterations =  7.8

[...]

     total energy              =   -2964.91864686 Ry
     estimated scf accuracy    <       0.00000009 Ry

     iteration # 58     ecut=    29.40 Ry     beta= 0.05
     Davidson diagonalization with overlap
     ethr =  2.29E-11,  avg # of iterations =  4.9

     negative rho (up, down):  1.875E-02 0.000E+00

     Adding external electric field

     Computed dipole along edir(3) :
        Dipole                0.6458 Ry au,          1.6414 Debye
        Dipole field          0.0012 Ry au,

        Potential amp.       -0.1130 Ry
        Total length         46.3494 bohr

     End of self-consistent calculation

          k = 0.0000 0.0000 0.0000 ( 18029 PWs)   bands (ev):

   -56.4313 -56.3664 -55.7978 -55.7948 -55.7498 -55.7454 -55.7411 -55.7013
   -55.6948 -55.6472 -55.4606 -55.4441 -55.3803 -55.3622 -54.9567 -54.9228
   -32.8336 -32.7069 -32.6301 -32.6022 -32.5003 -32.4583 -32.4102 -32.3224
   -32.2151 -32.1836 -32.1040 -32.0618 -32.0414 -32.0039 -32.0028 -31.9952
   -31.9760 -31.9616 -31.9566 -31.9448 -31.9404 -31.9364 -31.9238 -31.9066
   -31.8939 -31.8915 -31.8737 -31.8628 -31.8521 -31.8337 -31.8243 -31.7994
   -31.7610 -31.7044 -31.6618 -31.6476 -31.6243 -31.5935 -31.5910 -31.5610
   -31.5496 -31.4202 -31.3494 -31.3038 -31.2792 -31.1653 -31.0791 -30.9702
   -19.3230 -16.5892 -16.4458 -16.3289 -16.1902 -15.9603 -15.9303 -15.8256
   -15.7238 -15.6823 -15.6015 -15.5723 -15.4346 -15.3848 -15.3565 -15.3352
   -15.3156 -15.2963 -15.2819 -15.2441 -15.2287 -15.1942 -15.1412 -15.0756
   -15.0543 -15.0018 -14.9705 -14.9523 -14.8698 -14.8053 -14.7249 -13.4640
   -13.3581  -9.1609  -6.1925  -4.0870  -3.9901  -3.9306  -3.8915  -3.7872
    -3.7195  -3.6882  -3.6218  -3.3067  -3.1753  -3.0809  -3.0263  -3.0030
    -2.9279  -2.9266  -2.9125  -2.7947  -2.7356  -2.7100  -2.6482  -2.6310
    -2.5881  -2.5531  -2.5487  -2.5340  -2.4922  -2.4517  -2.4121  -2.3919
    -2.3467  -2.2639  -2.2458  -2.1686  -2.1339  -2.1123  -2.0251  -1.9605
    -1.9503  -1.9131  -1.8894  -1.7823  -1.6062  -1.5194  -1.4620  -1.4077
    -1.3862  -1.3183  -1.3091  -1.2501  -1.1933  -1.1697  -1.1654  -1.0492
    -0.9966  -0.9640  -0.9179  -0.8834  -0.8185  -0.7718  -0.7557  -0.7249
    -0.7115  -0.6039  -0.5165  -0.4976  -0.4686  -0.4354  -0.3150  -0.2684
    -0.2357  -0.2083  -0.1917  -0.1505  -0.1070  -0.0384   0.0066   0.0623
     0.1011   0.1721   0.1827   0.2210   0.2561   0.2920   0.3555   0.3706
     0.4739   0.5032   0.5597   0.5966   0.7410   0.7698   0.9261   0.9914
     1.0539   1.1483   1.2745   1.3366   1.5842   1.6236   1.7825   2.8838
     3.0467   3.3143   3.3593   3.4943   3.5648   3.6224   3.7643   3.7915
     3.8446

[...]

          k = 0.0380-0.0419 0.0000 ( 17876 PWs)   bands (ev):

[...]

          k =-0.0760-0.0000 0.0000 ( 17886 PWs)   bands (ev):

[...]

          k =-0.0760-0.0839 0.0000 ( 17948 PWs)   bands (ev):

   -56.4265 -56.3710 -55.7900 -55.7884 -55.7573 -55.7474 -55.7380 -55.7085
   -55.6876 -55.6544 -55.4576 -55.4392 -55.3851 -55.3651 -54.9399 -54.9395
   -32.7039 -32.6726 -32.6321 -32.6268 -32.5738 -32.5260 -32.3326 -32.1615
   -32.1073 -32.0728 -32.0533 -32.0355 -32.0341 -32.0219 -32.0151 -32.0131
   -31.9977 -31.9811 -31.9756 -31.9569 -31.9549 -31.9529 -31.9497 -31.9373
   -31.9240 -31.9040 -31.8924 -31.8842 -31.8678 -31.8387 -31.7885 -31.7678
   -31.7587 -31.7230 -31.7157 -31.6821 -31.6624 -31.6492 -31.6357 -31.6037
   -31.5968 -31.4212 -31.2925 -31.2922 -31.1632 -31.1627 -31.1225 -31.1221
   -19.3155 -16.2958 -16.1285 -15.9405 -15.9047 -15.8286 -15.8269 -15.7775
   -15.7376 -15.6407 -15.5857 -15.5676 -15.4948 -15.4708 -15.4536 -15.4280
   -15.3778 -15.3523 -15.3288 -15.3178 -15.2746 -15.2497 -15.2460 -15.1989
   -15.1439 -15.1198 -15.1017 -15.0502 -14.9944 -14.9355 -14.8828 -13.4655
   -13.4597  -9.1690  -6.1743  -4.1029  -3.6784  -3.6353  -3.3385  -3.1556
    -2.9762  -2.9645  -2.9508  -2.9430  -2.8740  -2.8674  -2.8185  -2.7785
    -2.7230  -2.7027  -2.6754  -2.6702  -2.6640  -2.6227  -2.6121  -2.5859
    -2.5590  -2.5539  -2.5105  -2.5036  -2.4836  -2.4366  -2.4224  -2.3898
    -2.3601  -2.3335  -2.2812  -2.2244  -2.2052  -2.1919  -2.0647  -1.9955
    -1.9913  -1.9155  -1.9012  -1.8726  -1.8332  -1.7571  -1.6946  -1.6553
    -1.5243  -1.5043  -1.4482  -1.4109  -1.3366  -1.3252  -1.2415  -1.2123
    -1.1682  -1.1391  -1.1067  -1.0853  -1.0651  -1.0614  -0.9379  -0.9061
    -0.8517  -0.8389  -0.8064  -0.7736  -0.7498  -0.6937  -0.6255  -0.6167
    -0.5681  -0.5212  -0.4535  -0.4140  -0.3343  -0.2760  -0.2372  -0.1702
    -0.0641   0.0570   0.0960   0.2005   0.2974   0.3052   0.3712   0.4197
     0.4474   0.4924   0.5782   0.5887   0.6554   0.6669   0.7000   0.7579
     0.8069   0.8757   1.4243   1.4402   1.4618   1.4646   1.7202   3.4274
     3.4541   3.4742   3.5168   3.6633   3.7565   3.7833   3.8500   3.8948
     3.9151

     the Fermi energy is     2.4064 ev

!    total energy              =   -2964.91869822 Ry
     estimated scf accuracy    <       0.00000005 Ry
     smearing contrib. (-TS)   =      -0.00043783 Ry
     internal energy E=F+TS    =   -2964.91826039 Ry

     The total energy is F=E-TS. E is the sum of the following terms:
     one-electron contribution =  -24900.79222150 Ry
     hartree contribution      =   12540.76990546 Ry
     xc contribution           =    -490.07665729 Ry
     ewald contribution        =    9885.17992591 Ry
     electric field correction =       0.00078702 Ry

     convergence has been achieved in  58 iterations

     Forces acting on atoms (cartesian axes, Ry/au):

     atom    1 type  1   force =     0.00009726   -0.00023095    0.12244828
     atom    2 type  1   force =     0.00010091    0.00183790   -0.15178548
     atom    3 type  2   force =    -0.00068212   -0.00092357   -0.05775340
     atom    4 type  2   force =    -0.00119426    0.00052198    0.04763582
     atom    5 type  2   force =    -0.01071510   -0.00519435   -0.00143921
     atom    6 type  2   force =     0.01359807    0.00025316   -0.00014874
     atom    7 type  1   force =    -0.00027027    0.00014977    0.00007444
     atom    8 type  1   force =     0.00040076   -0.00013910   -0.00039546
     atom    9 type  2   force =     0.00001067   -0.00023702    0.00042521
     atom   10 type  2   force =    -0.00012378   -0.00005642    0.00012067
     atom   11 type  2   force =    -0.00045721   -0.00026956    0.00027145
     atom   12 type  2   force =     0.00017372    0.00007915   -0.00000327
     atom   13 type  1   force =     0.00041072   -0.00011437    0.00000961
     atom   14 type  1   force =    -0.00010963   -0.00026613   -0.00000469
     atom   15 type  2   force =    -0.00029942   -0.00016994   -0.00025255
     atom   16 type  2   force =     0.00020598    0.00008324   -0.00002584
     atom   17 type  2   force =    -0.00026957   -0.00013954    0.00000156
     atom   18 type  2   force =     0.00007718   -0.00025046    0.00012914
     atom   19 type  1   force =    -0.00038834    0.00001280   -0.00010277
     atom   20 type  1   force =    -0.00014957   -0.00003223   -0.00033386
     atom   21 type  2   force =     0.00027194    0.00012972    0.09729187
     atom   22 type  2   force =    -0.00035532   -0.00032961   -0.00047407
     atom   23 type  2   force =    -0.08312135    0.00238718   -0.03358109
     atom   24 type  2   force =     0.08317046    0.00267517   -0.03364975
     atom   25 type  1   force =     0.00041851    0.00037432    0.13900903
     atom   26 type  1   force =     0.00005424   -0.00119748   -0.15161123
     atom   27 type  2   force =    -0.00069821    0.00143528   -0.05289686
     atom   28 type  2   force =    -0.00117920    0.00017526    0.04594559
     atom   29 type  2   force =    -0.01132435    0.00058692   -0.00073715
     atom   30 type  2   force =     0.01406297    0.00412665    0.00076592
     atom   31 type  1   force =    -0.00049574   -0.00016838    0.00014672
     atom   32 type  1   force =     0.00034922   -0.00004480   -0.00016324
     atom   33 type  2   force =    -0.00024610    0.00012419    0.00008986
     atom   34 type  2   force =     0.00013773    0.00008342    0.00012146
     atom   35 type  2   force =    -0.00019244    0.00054919    0.00035211
     atom   36 type  2   force =     0.00021957   -0.00000643   -0.00016425
     atom   37 type  1   force =    -0.00061939    0.00028278    0.00027731
     atom   38 type  1   force =    -0.00033247   -0.00041043   -0.00018340
     atom   39 type  2   force =     0.00006215   -0.00010930    0.00026693
     atom   40 type  2   force =    -0.00028546   -0.00009563    0.00029092
     atom   41 type  2   force =    -0.00018441   -0.00037708   -0.00001298
     atom   42 type  2   force =    -0.00026671   -0.00018345    0.00029796
     atom   43 type  1   force =     0.00000385   -0.00006071   -0.00035742
     atom   44 type  1   force =    -0.00014765    0.00007305    0.00017151
     atom   45 type  2   force =     0.00023293    0.00013455    0.09736626
     atom   46 type  2   force =    -0.08304286   -0.00265284   -0.03360012
     atom   47 type  2   force =     0.08307833   -0.00230572   -0.03370343
     atom   48 type  3   force =    -0.00006029   -0.00003031    0.00002615
     atom   49 type  2   force =    -0.00001318    0.00001216   -0.00013172
     atom   50 type  4   force =     0.00030001    0.00006514   -0.00025809
     atom   51 type  4   force =     0.00013367   -0.00015037    0.00023398
     atom   52 type  4   force =    -0.00018874    0.00000448   -0.00014423
     atom   53 type  2   force =     0.01581216   -0.00162202   -0.00658032
     atom   54 type  4   force =    -0.01596990    0.00161073    0.00672485

     Total force =     0.378505     Total SCF correction =     0.000825
  @ DRIVER MODE: Message from server: STATUS
  @ DRIVER MODE: Message from server: GETFORCE
  @ DRIVER MODE: Returning v,forces,stress,ensemble

     Writing output data file ./calc.save/
  @ DRIVER MODE: Message from server: EXIT
  @ DRIVE MODE: Exiting

     General routines

     Parallel routines

   This run was terminated on:  12:10:43  23Sep2021

   JOB DONE.