     Program PWSCF v.6.7GPU starts on 12Oct2021 at  8:43:52

     R & G space division:  proc/nbgrp/npool/nimage =       8
     Reading input from /storage/home/hcoda1/3/ntian30/research/carbon/ACS_vib/ads_slab/N2/out_0000/pw.inp
Warning: card &CELL ignored
Warning: card   CELL_DYNAMICS='IPI', ignored
Warning: card / ignored

     Current dimensions of program PWSCF are:
     Max number of different atomic species (ntypx) = 10
     Max number of k-points (npk) =  40000
     Max angular momentum in pseudopotentials (lmaxx) =  3
     Presently no symmetry can be used with electric field

     Message from routine cell_base_init:
     DEPRECATED: use true lattice parameter, not A to a.u. conversion factor

     IMPORTANT: XC functional enforced from input :
     Exchange-correlation= BEEF-VDW
                           (   1   4  43  14   2   0   0)
     Any further DFT definition will be discarded
     Please, verify this is what you really want

  @ DRIVER MODE: Connecting to
 qe_1139763_3181313.sched-torque.pace.gatech.eduykzarm1i_scratch
  using UNIX socket
  @ DRIVER MODE: Message from server: STATUS
  @ DRIVER MODE: Message from server: INIT
  @ DRIVER MODE: Receiving replica           0          -1
  @ DRIVER MODE: Receiving encoded integer          25
  @ DRIVER MODE:  SCF:  T  FORCE:  T  STRESS:  F  VC:  F  ENSEMBLE:  F
  @ DRIVER MODE:  SCF:  T  FORCE:  T  STRESS:  F  VC:  F  ENSEMBLE:  F

     Using Slab Decomposition

     bravais-lattice index     =            0
     lattice parameter (alat)  =       1.8897  a.u.
     unit-cell volume          =    6658.9804 (a.u.)^3
     number of atoms/cell      =           49
     number of atomic types    =            3
     number of electrons       =       388.00
     number of Kohn-Sham states=          204
     kinetic-energy cutoff     =      29.3995  Ry
     charge density cutoff     =     293.9946  Ry
     scf convergence threshold =      7.3E-08
     mixing beta               =       0.0500
     number of iterations used =            8  plain     mixing
     Exchange-correlation= BEEF-VDW
                           (   1   4  43  14   2   0   0)

     celldm(1)=   1.889726  celldm(2)=   0.000000  celldm(3)=   0.000000
     celldm(4)=   0.000000  celldm(5)=   0.000000  celldm(6)=   0.000000

     crystal axes: (cart. coord. in units of alat)
               a(1) = (   6.579727   0.000000   0.000000 )
               a(2) = (  -0.000775   5.961596   0.000000 )
               a(3) = (   0.000000   0.000000  25.155947 )

     reciprocal axes: (cart. coord. in units 2 pi/alat)
               b(1) = (  0.151982  0.000020  0.000000 )
               b(2) = (  0.000000  0.167740  0.000000 )
               b(3) = (  0.000000  0.000000  0.039752 )

     PseudoPot. # 1 for Ti read from file:
     /storage/coda1/p-amedford6/0/shared/rich_project_chbe-medford/medford-share/data/pseudos_module/espresso/nninc/pbe/van/Ti.UPF
     MD5 check sum: 8e4df49b7f0d34bbd5052bf3f5ea0213
     Pseudo is Ultrasoft, Zval = 12.0
     Generated by new atomic code, or converted to UPF format
     Using radial grid of  851 points,  6 beta functions with:
                l(1) =   0
                l(2) =   0
                l(3) =   1
                l(4) =   1
                l(5) =   2
                l(6) =   2
     Q(r) pseudized with  8 coefficients,  rinner =    1.000   1.000   1.000
                                                       1.000   1.000

     PseudoPot. # 2 for O  read from file:
     /storage/coda1/p-amedford6/0/shared/rich_project_chbe-medford/medford-share/data/pseudos_module/espresso/nninc/pbe/van/O.UPF
     MD5 check sum: 78c19812648e8988a0fe644b0f25305e
     Pseudo is Ultrasoft, Zval =  6.0
     Generated by new atomic code, or converted to UPF format
     Using radial grid of  737 points,  4 beta functions with:
                l(1) =   0
                l(2) =   0
                l(3) =   1
                l(4) =   1
     Q(r) pseudized with  8 coefficients,  rinner =    0.800   0.800   0.800

     PseudoPot. # 3 for N  read from file:
     /storage/coda1/p-amedford6/0/shared/rich_project_chbe-medford/medford-share/data/pseudos_module/espresso/nninc/pbe/van/N.UPF
     MD5 check sum: 90d10febe142ad51ac9d5be1deb811c4
     Pseudo is Ultrasoft, Zval =  5.0
     Generated by new atomic code, or converted to UPF format
     Using radial grid of  729 points,  4 beta functions with:
                l(1) =   0
                l(2) =   0
                l(3) =   1
                l(4) =   1
     Q(r) pseudized with  8 coefficients,  rinner =    0.800   0.800   0.800

     atomic species   valence    mass     pseudopotential
        Ti1           12.00    47.86700     Ti( 1.00)
        O1             6.00    15.99900     O ( 1.00)
        N1             5.00    14.00700     N ( 1.00)

     No symmetry found

   Cartesian axes

     site n.     atom                  positions (alat units)
         1           Ti1 tau(   1) = (   0.0004258   2.9801865   6.0000000  )
         2           Ti1 tau(   2) = (   3.2906075   1.4906267   6.0002472  )
         3           O1  tau(   3) = (   0.0006271   0.0005054   7.9858123  )
         4           O1  tau(   4) = (   3.2906025   0.0005020   7.3038282  )
         5           O1  tau(   5) = (   4.5942328   1.4918067   9.2879030  )
         6           O1  tau(   6) = (   1.9868534   1.4903216   9.2879459  )
         7           Ti1 tau(   7) = (   3.2908115   2.9770768   9.1558106  )
         8           Ti1 tau(   8) = (   0.0014744   1.4899521   9.2574773  )
         9           O1  tau(   9) = (   3.2881910   5.9516080  11.3945402  )
        10           O1  tau(  10) = (  -0.0003163   5.9583821  10.6097302  )
        11           O1  tau(  11) = (   1.2852796   1.4845524  12.6702349  )
        12           O1  tau(  12) = (   5.2939406   1.4843235  12.6686536  )
        13           Ti1 tau(  13) = (   6.5787960   2.9666663  12.5005329  )
        14           Ti1 tau(  14) = (   3.2867911   1.4810929  12.5380613  )
        15           O1  tau(  15) = (   6.5784438   5.9555467  14.6881035  )
        16           O1  tau(  16) = (   3.2900815   5.9490801  14.0192640  )
        17           O1  tau(  17) = (   4.5550846   1.4910540  16.1905095  )
        18           O1  tau(  18) = (   2.0267255   1.4911840  16.1885357  )
        19           Ti1 tau(  19) = (   3.2920947   2.9632608  15.7783766  )
        20           Ti1 tau(  20) = (   0.0012713   1.3437142  15.9485351  )
        21           O1  tau(  21) = (   3.2904802   0.0005063   4.7018136  )
        22           O1  tau(  22) = (   0.0010154   5.9436293  17.2207844  )
        23           O1  tau(  23) = (   1.3043587   1.4918075   6.0039043  )
        24           O1  tau(  24) = (   5.2767064   1.4903225   6.0039473  )
        25           Ti1 tau(  25) = (   0.0000382   5.9609847   6.0000000  )
        26           Ti1 tau(  26) = (   3.2902200   4.4714249   6.0002472  )
        27           O1  tau(  27) = (   0.0002396   2.9813036   7.9858123  )
        28           O1  tau(  28) = (   3.2902150   2.9813002   7.3038282  )
        29           O1  tau(  29) = (   4.5938453   4.4726049   9.2879030  )
        30           O1  tau(  30) = (   1.9864658   4.4711199   9.2879459  )
        31           Ti1 tau(  31) = (   3.2904075   5.9576890   9.1543145  )
        32           Ti1 tau(  32) = (   0.0010733   4.4688904   9.2576998  )
        33           O1  tau(  33) = (   3.2885442   2.9721716  11.3880939  )
        34           O1  tau(  34) = (   0.0004144   2.9779705  10.6294865  )
        35           O1  tau(  35) = (   1.2846651   4.4573380  12.6727508  )
        36           O1  tau(  36) = (   5.2936233   4.4572296  12.6712295  )
        37           Ti1 tau(  37) = (   6.5756527   5.9477167  12.4782878  )
        38           Ti1 tau(  38) = (   3.2865705   4.4596354  12.5399379  )
        39           O1  tau(  39) = (   6.5788522   2.9667014  14.9890502  )
        40           O1  tau(  40) = (   3.2903707   2.9673551  13.9858356  )
        41           O1  tau(  41) = (   4.5543970   4.4428783  16.1860255  )
        42           O1  tau(  42) = (   2.0267162   4.4429101  16.1842223  )
        43           Ti1 tau(  43) = (   3.2900514   5.9435888  15.8195923  )
        44           Ti1 tau(  44) = (   0.0007397   4.6011056  15.9424949  )
        45           O1  tau(  45) = (   3.2900926   2.9813045   4.7018136  )
        46           O1  tau(  46) = (   1.3039711   4.4726057   6.0039043  )
        47           O1  tau(  47) = (   5.2763189   4.4711207   6.0039473  )
        48           N1  tau(  48) = (   0.1199037   2.9187272  19.5607373  )
        49           N1  tau(  49) = (   0.0588536   2.9354595  18.4591164  )

     number of k points=    10  Fermi-Dirac smearing, width (Ry)=  0.0073
                       cart. coord. in units 2pi/alat
        k(    1) = (   0.0000000   0.0000000   0.0000000), wk =   0.1250000
        k(    2) = (   0.0000000   0.0419351   0.0000000), wk =   0.2500000
        k(    3) = (   0.0000000  -0.0838702   0.0000000), wk =   0.1250000
        k(    4) = (   0.0379955   0.0000049   0.0000000), wk =   0.2500000
        k(    5) = (   0.0379955   0.0419400   0.0000000), wk =   0.2500000
        k(    6) = (   0.0379955  -0.0838652   0.0000000), wk =   0.2500000
        k(    7) = (   0.0379955  -0.0419301   0.0000000), wk =   0.2500000
        k(    8) = (  -0.0759910  -0.0000099   0.0000000), wk =   0.1250000
        k(    9) = (  -0.0759910   0.0419252   0.0000000), wk =   0.2500000
        k(   10) = (  -0.0759910  -0.0838800   0.0000000), wk =   0.1250000

     Initial potential from superposition of free atoms

     starting charge  371.99923, renormalised to  388.00000

     negative rho (up, down):  1.868E-02 0.000E+00

     %%%%%%%%%%%%%%%%%%%%%%%%%%%%%%%%%%%%%%%%%%%%%%%%%%%%%%%%%%%%%%%%%%%%%%%%
     %                                                                      %
     % You are using vdW-DF, which was implemented by the Thonhauser group. %
     % Please cite the following two papers that made this development      %
     % possible and the two reviews that describe the various versions:     %
     %                                                                      %
     %   T. Thonhauser et al., PRL 115, 136402 (2015).                      %
     %   T. Thonhauser et al., PRB 76, 125112 (2007).                       %
     %   K. Berland et al., Rep. Prog. Phys. 78, 066501 (2015).             %
     %   D.C. Langreth et al., J. Phys.: Condens. Matter 21, 084203 (2009). %
     %                                                                      %
     %                                                                      %
     % If you are calculating the stress with vdW-DF, please also cite:     %
     %                                                                      %
     %   R. Sabatini et al., J. Phys.: Condens. Matter 24, 424209 (2012).   %
     %                                                                      %
     %%%%%%%%%%%%%%%%%%%%%%%%%%%%%%%%%%%%%%%%%%%%%%%%%%%%%%%%%%%%%%%%%%%%%%%%

     Adding external electric field

     Computed dipole along edir(3) :
        Dipole               -5.4531 Ry au,        -13.8604 Debye
        Dipole field         -0.0103 Ry au,

        Potential amp.        0.9539 Ry
        Total length         46.3494 bohr

     Starting wfcs are  292 atomic wfcs
  @ DRIVER MODE: Message from server: STATUS
  @ DRIVER MODE: Message from server: POSDATA
  @ DRIVER MODE: Reading and sharing cell
  @ DRIVER MODE: Reading and sharing positions
  @ DRIVER MODE: Received positions

     Self-consistent Calculation

     iteration #  1     ecut=    29.40 Ry     beta= 0.05
     Davidson diagonalization with overlap
     ethr =  1.00E-02,  avg # of iterations =  2.2

[...]

     total energy              =   -2826.96868436 Ry
     estimated scf accuracy    <    1078.27580844 Ry

[...]

     iteration #  3     ecut=    29.40 Ry     beta= 0.05
     Davidson diagonalization with overlap
     c_bands:  3 eigenvalues not converged
     c_bands:  2 eigenvalues not converged
     c_bands:  2 eigenvalues not converged
     c_bands:  3 eigenvalues not converged
     c_bands:  1 eigenvalues not converged
     ethr =  1.00E-02,  avg # of iterations = 18.2

[...]

     iteration # 62     ecut=    29.40 Ry     beta= 0.05
     Davidson diagonalization with overlap
     c_bands:  1 eigenvalues not converged
     ethr =  3.40E-11,  avg # of iterations = 11.9

[...]

     total energy              =   -2924.04889772 Ry
     estimated scf accuracy    <       0.00000012 Ry

     iteration # 63     ecut=    29.40 Ry     beta= 0.05
     Davidson diagonalization with overlap
     ethr =  3.17E-11,  avg # of iterations =  6.3

     negative rho (up, down):  1.840E-02 0.000E+00

     Adding external electric field

     Computed dipole along edir(3) :
        Dipole                0.7006 Ry au,          1.7808 Debye
        Dipole field          0.0013 Ry au,

        Potential amp.       -0.1226 Ry
        Total length         46.3494 bohr

     End of self-consistent calculation

          k = 0.0000 0.0000 0.0000 ( 18029 PWs)   bands (ev):

   -55.9040 -55.8680 -55.8580 -55.8238 -55.7870 -55.7764 -55.7420 -55.7415
   -55.7300 -55.7078 -55.7055 -55.6846 -55.6682 -55.6507 -54.9688 -54.9347
   -32.4679 -32.4145 -32.3592 -32.2619 -32.2147 -32.2117 -32.2095 -32.1976
   -32.1481 -32.1366 -32.1109 -32.1044 -32.1030 -32.0762 -32.0709 -32.0540
   -32.0400 -32.0378 -32.0322 -32.0186 -32.0098 -32.0063 -32.0031 -32.0015
   -31.9797 -31.9732 -31.9555 -31.9135 -31.9070 -31.9002 -31.8935 -31.8882
   -31.8798 -31.8781 -31.8766 -31.8709 -31.8614 -31.8393 -31.8281 -31.8173
   -31.7993 -31.7456 -31.3816 -31.2772 -31.2558 -31.1977 -31.1113 -31.0003
   -21.8236 -16.7346 -16.5016 -16.3637 -16.2357 -16.1301 -16.0212 -15.9221
   -15.8553 -15.7839 -15.6291 -15.5973 -15.5677 -15.5320 -15.5112 -15.5059
   -15.4960 -15.4608 -15.4389 -15.4147 -15.4130 -15.3966 -15.3828 -15.3501
   -15.2965 -15.2146 -15.1359 -15.0660 -15.0078 -14.6781 -13.4696 -13.3499
    -7.2598  -4.9661  -4.9592  -4.0700  -4.0210  -3.9172  -3.8393  -3.8256
    -3.7316  -3.6698  -3.4651  -3.3889  -3.3520  -3.2014  -3.1587  -3.1017
    -3.0514  -2.9627  -2.8983  -2.8913  -2.8019  -2.7785  -2.7768  -2.7671
    -2.6774  -2.6648  -2.6289  -2.6213  -2.5945  -2.5001  -2.3762  -2.3406
    -2.2859  -2.2846  -2.2625  -2.2489  -2.2238  -2.1842  -2.1612  -2.1522
    -2.1006  -2.0889  -1.9476  -1.8037  -1.7691  -1.6931  -1.6077  -1.5144
    -1.4645  -1.4235  -1.3638  -1.3592  -1.3123  -1.2844  -1.2485  -1.1643
    -1.0741  -1.0334  -0.9380  -0.9213  -0.8490  -0.8120  -0.7582  -0.6989
    -0.6968  -0.6571  -0.5617  -0.5274  -0.4096  -0.3999  -0.3859  -0.3662
    -0.3022  -0.2492  -0.1437  -0.1150  -0.1133  -0.1038   0.0041   0.0322
     0.0342   0.0475   0.0587   0.1219   0.1908   0.2310   0.2738   0.4211
     0.6453   0.6485   0.7085   0.9416   1.0195   1.0573   1.2145   1.6435
     1.6975   3.1914   3.2582   3.2890   3.3218   3.3567   3.3984   3.6872
     3.7032   3.7298   3.7470   3.7666

[...]

          k = 0.0380-0.0419 0.0000 ( 17876 PWs)   bands (ev):

[...]

          k =-0.0760-0.0000 0.0000 ( 17886 PWs)   bands (ev):

[...]

          k =-0.0760-0.0839 0.0000 ( 17948 PWs)   bands (ev):

   -55.8861 -55.8857 -55.8415 -55.8402 -55.7831 -55.7621 -55.7558 -55.7260
   -55.7235 -55.7235 -55.7091 -55.6747 -55.6678 -55.6675 -54.9517 -54.9516
   -32.3396 -32.2720 -32.2711 -32.1777 -32.1746 -32.1733 -32.1576 -32.1344
   -32.1324 -32.1041 -32.1025 -32.1003 -32.0931 -32.0507 -32.0445 -32.0433
   -32.0406 -32.0392 -32.0290 -32.0242 -32.0231 -32.0112 -32.0012 -31.9885
   -31.9839 -31.9837 -31.9814 -31.9793 -31.9595 -31.9585 -31.9556 -31.9480
   -31.9218 -31.9203 -31.9049 -31.8965 -31.8961 -31.8911 -31.8767 -31.8536
   -31.8528 -31.8472 -31.2684 -31.2683 -31.1942 -31.1941 -31.1546 -31.1545
   -21.8234 -16.4116 -16.1049 -16.0648 -15.9504 -15.9453 -15.8641 -15.8485
   -15.7425 -15.6974 -15.6871 -15.6859 -15.6251 -15.6224 -15.6026 -15.5912
   -15.5178 -15.5067 -15.4827 -15.4793 -15.4222 -15.4180 -15.4166 -15.4124
   -15.3748 -15.3742 -15.3386 -15.3354 -15.2162 -15.0492 -13.4509 -13.4507
    -7.2641  -4.9621  -4.9612  -3.9857  -3.4418  -3.3774  -3.3232  -3.1720
    -3.0945  -3.0835  -3.0380  -3.0085  -2.9350  -2.8992  -2.8988  -2.8168
    -2.8071  -2.8017  -2.8003  -2.7328  -2.7194  -2.6894  -2.6735  -2.6214
    -2.6209  -2.5989  -2.5952  -2.5798  -2.5709  -2.5519  -2.5457  -2.5163
    -2.4863  -2.4315  -2.4235  -2.2839  -2.2731  -2.2179  -2.1430  -2.1399
    -2.0578  -2.0431  -2.0067  -1.9754  -1.9104  -1.8951  -1.7259  -1.7050
    -1.7014  -1.6407  -1.5533  -1.5304  -1.4825  -1.4634  -1.4116  -1.3574
    -1.2538  -1.2275  -1.2073  -1.1005  -1.0929  -1.0284  -0.9427  -0.9015
    -0.8995  -0.8949  -0.8714  -0.8513  -0.8493  -0.7474  -0.6968  -0.6493
    -0.6383  -0.6257  -0.4252  -0.3689  -0.3415  -0.2349  -0.1920   0.0042
     0.0118   0.0389   0.1547   0.1554   0.1611   0.2210   0.3476   0.3527
     0.4228   0.4643   0.4923   0.5157   0.5180   1.4064   1.4075   1.5146
     1.5152   3.3521   3.4337   3.4510   3.5080   3.6374   3.6452   3.6998
     3.7384   3.7465   3.7471   3.8535

     the Fermi energy is     3.2558 ev

!    total energy              =   -2924.04892545 Ry
     estimated scf accuracy    <       0.00000004 Ry
     smearing contrib. (-TS)   =      -0.03676646 Ry
     internal energy E=F+TS    =   -2924.01215899 Ry

     The total energy is F=E-TS. E is the sum of the following terms:
     one-electron contribution =  -24117.10865879 Ry
     hartree contribution      =   12140.98902059 Ry
     xc contribution           =    -479.17686516 Ry
     ewald contribution        =    9531.28341801 Ry
     electric field correction =       0.00092637 Ry

     convergence has been achieved in  63 iterations

     Forces acting on atoms (cartesian axes, Ry/au):

     atom    1 type  1   force =     0.00005551    0.00003833    0.09031902
     atom    2 type  1   force =    -0.00002684    0.00038373   -0.18446016
     atom    3 type  2   force =     0.00007403   -0.00045707   -0.02388650
     atom    4 type  2   force =     0.00002187   -0.00008882    0.05157823
     atom    5 type  2   force =    -0.01360213   -0.00063355    0.00573941
     atom    6 type  2   force =     0.01347633   -0.00015791    0.00564452
     atom    7 type  1   force =     0.00011578   -0.00001978    0.00097974
     atom    8 type  1   force =     0.00002102    0.00008934    0.00020976
     atom    9 type  2   force =     0.00006310    0.00011562   -0.00044790
     atom   10 type  2   force =     0.00000127    0.00008240    0.00075668
     atom   11 type  2   force =    -0.00001601    0.00022981    0.00000101
     atom   12 type  2   force =     0.00000280    0.00023083    0.00008414
     atom   13 type  1   force =     0.00002656    0.00029853   -0.00056758
     atom   14 type  1   force =    -0.00005796    0.00013074   -0.00110326
     atom   15 type  2   force =     0.00008914   -0.00037898   -0.00039391
     atom   16 type  2   force =    -0.00005100    0.00022178   -0.00019519
     atom   17 type  2   force =    -0.00016388   -0.00014922    0.00018374
     atom   18 type  2   force =     0.00025182   -0.00019781    0.00023214
     atom   19 type  1   force =     0.00012784    0.00004145    0.00066380
     atom   20 type  1   force =    -0.00006579    0.00013599    0.00180255
     atom   21 type  2   force =     0.00007347    0.00014451    0.10522623
     atom   22 type  2   force =     0.00001654    0.00006407   -0.00094247
     atom   23 type  2   force =    -0.06755140   -0.00012208   -0.02617244
     atom   24 type  2   force =     0.06747612    0.00031644   -0.02621601
     atom   25 type  1   force =     0.00006745    0.00005351    0.09059191
     atom   26 type  1   force =    -0.00007977   -0.00033722   -0.18440189
     atom   27 type  2   force =     0.00006441   -0.00049287   -0.02269091
     atom   28 type  2   force =     0.00002494   -0.00008557    0.05140457
     atom   29 type  2   force =    -0.01361772   -0.00058276    0.00567179
     atom   30 type  2   force =     0.01348461   -0.00006874    0.00558329
     atom   31 type  1   force =     0.00007904    0.00008064    0.00081265
     atom   32 type  1   force =     0.00001447   -0.00000695    0.00016466
     atom   33 type  2   force =     0.00006822   -0.00005792   -0.00004025
     atom   34 type  2   force =    -0.00000777   -0.00003765   -0.00003618
     atom   35 type  2   force =    -0.00010396    0.00000034   -0.00004382
     atom   36 type  2   force =     0.00012338   -0.00000092    0.00002225
     atom   37 type  1   force =     0.00007019    0.00011748    0.00089132
     atom   38 type  1   force =    -0.00006224   -0.00015597   -0.00126787
     atom   39 type  2   force =     0.00010004    0.00030331   -0.00001747
     atom   40 type  2   force =     0.00004620    0.00000617    0.00015504
     atom   41 type  2   force =     0.00010021    0.00003246    0.00020738
     atom   42 type  2   force =    -0.00002752    0.00000308    0.00026861
     atom   43 type  1   force =     0.00002656    0.00047496    0.00086449
     atom   44 type  1   force =    -0.00009549   -0.00016391    0.00156520
     atom   45 type  2   force =     0.00006702    0.00013898    0.10519111
     atom   46 type  2   force =    -0.06756058   -0.00018886   -0.02616791
     atom   47 type  2   force =     0.06748274    0.00024169   -0.02621400
     atom   48 type  3   force =    -0.00015737    0.00045497    0.00016036
     atom   49 type  3   force =    -0.00046526   -0.00004662   -0.00170990

     Total force =     0.367126     Total SCF correction =     0.000599
  @ DRIVER MODE: Message from server: STATUS
  @ DRIVER MODE: Message from server: GETFORCE
  @ DRIVER MODE: Returning v,forces,stress,ensemble

     Writing output data file ./calc.save/
  @ DRIVER MODE: Message from server: EXIT
  @ DRIVE MODE: Exiting

     General routines

     Parallel routines

   This run was terminated on:   9: 4:27  12Oct2021

   JOB DONE.