     Program PWSCF v.6.7GPU starts on 15Sep2021 at 18: 9:58

     R & G space division:  proc/nbgrp/npool/nimage =      10
     Reading input from /storage/home/hcoda1/3/ntian30/research/carbon/CxH_vib/H2O_calc/ads_slab/CH3NNHHHH2O_a/out_0007/pw.inp
Warning: card &CELL ignored
Warning: card   CELL_DYNAMICS='IPI', ignored
Warning: card / ignored

     Current dimensions of program PWSCF are:
     Max number of different atomic species (ntypx) = 10
     Max number of k-points (npk) =  40000
     Max angular momentum in pseudopotentials (lmaxx) =  3
     Presently no symmetry can be used with electric field

     Message from routine cell_base_init:
     DEPRECATED: use true lattice parameter, not A to a.u. conversion factor

     IMPORTANT: XC functional enforced from input :
     Exchange-correlation= BEEF-VDW
                           (   1   4  43  14   2   0   0)
     Any further DFT definition will be discarded
     Please, verify this is what you really want

  @ DRIVER MODE: Connecting to
 qe_1139763_2852622.sched-torque.pace.gatech.edu5jy8js2b_scratch
  using UNIX socket
  @ DRIVER MODE: Message from server: STATUS
  @ DRIVER MODE: Message from server: INIT
  @ DRIVER MODE: Receiving replica           0          -1
  @ DRIVER MODE: Receiving encoded integer          25
  @ DRIVER MODE:  SCF:  T  FORCE:  T  STRESS:  F  VC:  F  ENSEMBLE:  F
  @ DRIVER MODE:  SCF:  T  FORCE:  T  STRESS:  F  VC:  F  ENSEMBLE:  F

     Using Slab Decomposition

     bravais-lattice index     =            0
     lattice parameter (alat)  =       1.8897  a.u.
     unit-cell volume          =    6658.9804 (a.u.)^3
     number of atoms/cell      =           59
     number of atomic types    =            5
     number of electrons       =       406.00
     number of Kohn-Sham states=          213
     kinetic-energy cutoff     =      29.3995  Ry
     charge density cutoff     =     293.9946  Ry
     scf convergence threshold =      7.3E-08
     mixing beta               =       0.0500
     number of iterations used =            8  plain     mixing
     Exchange-correlation= BEEF-VDW
                           (   1   4  43  14   2   0   0)

     celldm(1)=   1.889726  celldm(2)=   0.000000  celldm(3)=   0.000000
     celldm(4)=   0.000000  celldm(5)=   0.000000  celldm(6)=   0.000000

     crystal axes: (cart. coord. in units of alat)
               a(1) = (   6.579727   0.000000   0.000000 )
               a(2) = (  -0.000775   5.961596   0.000000 )
               a(3) = (   0.000000   0.000000  25.155947 )

     reciprocal axes: (cart. coord. in units 2 pi/alat)
               b(1) = (  0.151982  0.000020  0.000000 )
               b(2) = (  0.000000  0.167740  0.000000 )
               b(3) = (  0.000000  0.000000  0.039752 )

     PseudoPot. # 1 for Ti read from file:
     /storage/coda1/p-amedford6/0/shared/rich_project_chbe-medford/medford-share/data/pseudos_module/espresso/nninc/pbe/van/Ti.UPF
     MD5 check sum: 8e4df49b7f0d34bbd5052bf3f5ea0213
     Pseudo is Ultrasoft, Zval = 12.0
     Generated by new atomic code, or converted to UPF format
     Using radial grid of  851 points,  6 beta functions with:
                l(1) =   0
                l(2) =   0
                l(3) =   1
                l(4) =   1
                l(5) =   2
                l(6) =   2
     Q(r) pseudized with  8 coefficients,  rinner =    1.000   1.000   1.000
                                                       1.000   1.000

     PseudoPot. # 2 for O  read from file:
     /storage/coda1/p-amedford6/0/shared/rich_project_chbe-medford/medford-share/data/pseudos_module/espresso/nninc/pbe/van/O.UPF
     MD5 check sum: 78c19812648e8988a0fe644b0f25305e
     Pseudo is Ultrasoft, Zval =  6.0
     Generated by new atomic code, or converted to UPF format
     Using radial grid of  737 points,  4 beta functions with:
                l(1) =   0
                l(2) =   0
                l(3) =   1
                l(4) =   1
     Q(r) pseudized with  8 coefficients,  rinner =    0.800   0.800   0.800

     PseudoPot. # 3 for N  read from file:
     /storage/coda1/p-amedford6/0/shared/rich_project_chbe-medford/medford-share/data/pseudos_module/espresso/nninc/pbe/van/N.UPF
     MD5 check sum: 90d10febe142ad51ac9d5be1deb811c4
     Pseudo is Ultrasoft, Zval =  5.0
     Generated by new atomic code, or converted to UPF format
     Using radial grid of  729 points,  4 beta functions with:
                l(1) =   0
                l(2) =   0
                l(3) =   1
                l(4) =   1
     Q(r) pseudized with  8 coefficients,  rinner =    0.800   0.800   0.800

     PseudoPot. # 4 for C  read from file:
     /storage/coda1/p-amedford6/0/shared/rich_project_chbe-medford/medford-share/data/pseudos_module/espresso/nninc/pbe/van/C.UPF
     MD5 check sum: 1a69bf6b8db32088f5b2163dbdb77a27
     Pseudo is Ultrasoft, Zval =  4.0
     Generated by new atomic code, or converted to UPF format
     Using radial grid of  721 points,  4 beta functions with:
                l(1) =   0
                l(2) =   0
                l(3) =   1
                l(4) =   1
     Q(r) pseudized with  8 coefficients,  rinner =    0.800   0.800   0.800

     PseudoPot. # 5 for H  read from file:
     /storage/coda1/p-amedford6/0/shared/rich_project_chbe-medford/medford-share/data/pseudos_module/espresso/nninc/pbe/van/H.UPF
     MD5 check sum: b5ee9d7bfd3a09ee7748110bda690ff7
     Pseudo is Ultrasoft, Zval =  1.0
     Generated by new atomic code, or converted to UPF format
     Using radial grid of  615 points,  1 beta functions with:
                l(1) =   0
     Q(r) pseudized with  8 coefficients,  rinner =    0.800

     atomic species   valence    mass     pseudopotential
        Ti1           12.00    47.86700     Ti( 1.00)
        O1             6.00    15.99900     O ( 1.00)
        N1             5.00    14.00700     N ( 1.00)
        C1             4.00    12.01100     C ( 1.00)
        H1             1.00     1.00800     H ( 1.00)

     No symmetry found

   Cartesian axes

     site n.     atom                  positions (alat units)
         1           Ti1 tau(   1) = (   0.0004258   2.9801865   6.0000000  )
         2           Ti1 tau(   2) = (   3.2906075   1.4906267   6.0002472  )
         3           O1  tau(   3) = (   0.0006271   0.0005054   7.9858123  )
         4           O1  tau(   4) = (   3.2906025   0.0005020   7.3038282  )
         5           O1  tau(   5) = (   4.5942328   1.4918067   9.2879030  )
         6           O1  tau(   6) = (   1.9868534   1.4903216   9.2879459  )
         7           Ti1 tau(   7) = (   3.2907910   2.8959150   9.1758416  )
         8           Ti1 tau(   8) = (   0.0015273   1.4827037   9.2680791  )
         9           O1  tau(   9) = (   3.2800960   5.9426830  11.3808346  )
        10           O1  tau(  10) = (   0.0116148   5.9584955  10.6183126  )
        11           O1  tau(  11) = (   1.2797812   1.4911726  12.6624455  )
        12           O1  tau(  12) = (   5.2824698   1.4871998  12.6412817  )
        13           Ti1 tau(  13) = (   0.0041451   2.9720195  12.5119452  )
        14           Ti1 tau(  14) = (   3.3095611   1.4699318  12.5307708  )
        15           O1  tau(  15) = (   6.5436702   0.0697967  14.6864816  )
        16           O1  tau(  16) = (   3.2812162   5.9597207  14.0300411  )
        17           O1  tau(  17) = (   4.5129646   1.5046642  16.2361130  )
        18           O1  tau(  18) = (   1.9708392   1.5012857  16.1671103  )
        19           Ti1 tau(  19) = (   3.2655272   2.9480959  15.7331506  )
        20           Ti1 tau(  20) = (   6.5674642   1.4497656  15.9937491  )
        21           O1  tau(  21) = (   3.2904802   0.0005063   4.7018136  )
        22           O1  tau(  22) = (   6.5217933   5.8323795  17.2454964  )
        23           O1  tau(  23) = (   1.3043587   1.4918075   6.0039043  )
        24           O1  tau(  24) = (   5.2767064   1.4903225   6.0039473  )
        25           Ti1 tau(  25) = (   0.0000382   5.9609847   6.0000000  )
        26           Ti1 tau(  26) = (   3.2902200   4.4714249   6.0002472  )
        27           O1  tau(  27) = (   0.0002396   2.9813036   7.9858123  )
        28           O1  tau(  28) = (   3.2902150   2.9813002   7.3038282  )
        29           O1  tau(  29) = (   4.5938453   4.4726049   9.2879030  )
        30           O1  tau(  30) = (   1.9864658   4.4711199   9.2879459  )
        31           Ti1 tau(  31) = (   3.2891106   5.8743827   9.1763621  )
        32           Ti1 tau(  32) = (   0.0006254   4.4649316   9.2693709  )
        33           O1  tau(  33) = (   3.2830490   2.9749636  11.3746576  )
        34           O1  tau(  34) = (   0.0092240   2.9805883  10.6323155  )
        35           O1  tau(  35) = (   1.2760807   4.4612897  12.6946019  )
        36           O1  tau(  36) = (   5.2846406   4.4647657  12.6742532  )
        37           Ti1 tau(  37) = (   0.0173662   5.9591775  12.4970172  )
        38           Ti1 tau(  38) = (   3.3070294   4.4569304  12.5379467  )
        39           O1  tau(  39) = (   6.5190077   2.9374781  14.9220565  )
        40           O1  tau(  40) = (   3.2909943   2.9519766  13.9498127  )
        41           O1  tau(  41) = (   4.5146313   4.4149292  16.1460290  )
        42           O1  tau(  42) = (   1.9668235   4.4047650  16.1116202  )
        43           Ti1 tau(  43) = (   3.2426406   5.9218513  15.8539982  )
        44           Ti1 tau(  44) = (   6.5337747   4.6515477  15.8702276  )
        45           O1  tau(  45) = (   3.2900926   2.9813045   4.7018136  )
        46           O1  tau(  46) = (   1.3039711   4.4726057   6.0039043  )
        47           O1  tau(  47) = (   5.2763189   4.4711207   6.0039473  )
        48           N1  tau(  48) = (   1.0802268   3.0592680  18.8437747  )
        49           N1  tau(  49) = (   6.4725355   2.6367244  18.1156036  )
        50           C1  tau(  50) = (   0.7269815   3.7261681  20.0984356  )
        51           H1  tau(  51) = (   0.0344531   4.5672025  19.9493712  )
        52           H1  tau(  52) = (   0.2718923   3.0081313  20.7822053  )
        53           H1  tau(  53) = (   1.6424345   4.1087450  20.5485440  )
        54           H1  tau(  54) = (   5.7152520   3.3097272  18.2274121  )
        55           H1  tau(  55) = (   6.1788988   1.7551022  18.5268573  )
        56           H1  tau(  56) = (   1.5478348   3.7306874  18.2371031  )
        57           O1  tau(  57) = (   3.1661568   0.0027346  18.3937517  )
        58           H1  tau(  58) = (   4.0701885   0.3469208  18.4697374  )
        59           H1  tau(  59) = (   2.5798038   0.7742236  18.5044111  )

     number of k points=    10  Fermi-Dirac smearing, width (Ry)=  0.0073
                       cart. coord. in units 2pi/alat
        k(    1) = (   0.0000000   0.0000000   0.0000000), wk =   0.1250000
        k(    2) = (   0.0000000   0.0419351   0.0000000), wk =   0.2500000
        k(    3) = (   0.0000000  -0.0838702   0.0000000), wk =   0.1250000
        k(    4) = (   0.0379955   0.0000049   0.0000000), wk =   0.2500000
        k(    5) = (   0.0379955   0.0419400   0.0000000), wk =   0.2500000
        k(    6) = (   0.0379955  -0.0838652   0.0000000), wk =   0.2500000
        k(    7) = (   0.0379955  -0.0419301   0.0000000), wk =   0.2500000
        k(    8) = (  -0.0759910  -0.0000099   0.0000000), wk =   0.1250000
        k(    9) = (  -0.0759910   0.0419252   0.0000000), wk =   0.2500000
        k(   10) = (  -0.0759910  -0.0838800   0.0000000), wk =   0.1250000

     Initial potential from superposition of free atoms

     starting charge  389.99912, renormalised to  406.00000

     negative rho (up, down):  1.306E-02 0.000E+00

     %%%%%%%%%%%%%%%%%%%%%%%%%%%%%%%%%%%%%%%%%%%%%%%%%%%%%%%%%%%%%%%%%%%%%%%%
     %                                                                      %
     % You are using vdW-DF, which was implemented by the Thonhauser group. %
     % Please cite the following two papers that made this development      %
     % possible and the two reviews that describe the various versions:     %
     %                                                                      %
     %   T. Thonhauser et al., PRL 115, 136402 (2015).                      %
     %   T. Thonhauser et al., PRB 76, 125112 (2007).                       %
     %   K. Berland et al., Rep. Prog. Phys. 78, 066501 (2015).             %
     %   D.C. Langreth et al., J. Phys.: Condens. Matter 21, 084203 (2009). %
     %                                                                      %
     %                                                                      %
     % If you are calculating the stress with vdW-DF, please also cite:     %
     %                                                                      %
     %   R. Sabatini et al., J. Phys.: Condens. Matter 24, 424209 (2012).   %
     %                                                                      %
     %%%%%%%%%%%%%%%%%%%%%%%%%%%%%%%%%%%%%%%%%%%%%%%%%%%%%%%%%%%%%%%%%%%%%%%%

     Adding external electric field

     Computed dipole along edir(3) :
        Dipole              -16.1158 Ry au,        -40.9623 Debye
        Dipole field         -0.0304 Ry au,

        Potential amp.        2.8192 Ry
        Total length         46.3494 bohr

     Starting wfcs are  308 atomic wfcs
  @ DRIVER MODE: Message from server: STATUS
  @ DRIVER MODE: Message from server: POSDATA
  @ DRIVER MODE: Reading and sharing cell
  @ DRIVER MODE: Reading and sharing positions
  @ DRIVER MODE: Received positions

     Self-consistent Calculation

     iteration #  1     ecut=    29.40 Ry     beta= 0.05
     Davidson diagonalization with overlap
     c_bands:  2 eigenvalues not converged
     c_bands:  3 eigenvalues not converged
     c_bands:  2 eigenvalues not converged
     c_bands:  3 eigenvalues not converged
     c_bands:  4 eigenvalues not converged
     c_bands:  2 eigenvalues not converged
     c_bands:  1 eigenvalues not converged
     c_bands:  5 eigenvalues not converged
     c_bands:  1 eigenvalues not converged
     ethr =  1.00E-05,  avg # of iterations = 23.1

[...]

     total energy              =   -2140.64324636 Ry
     estimated scf accuracy    <    9598.73350291 Ry

     iteration #  2     ecut=    29.40 Ry     beta= 0.05
     Davidson diagonalization with overlap
     ethr =  1.00E-02,  avg # of iterations = 32.6

[...]

     iteration # 65     ecut=    29.40 Ry     beta= 0.05
     Davidson diagonalization with overlap
     ethr =  4.84E-11,  avg # of iterations =  2.0

[...]

     total energy              =   -2977.69996769 Ry
     estimated scf accuracy    <       0.00000014 Ry

     iteration # 66     ecut=    29.40 Ry     beta= 0.05
     Davidson diagonalization with overlap
     c_bands:  1 eigenvalues not converged
     ethr =  3.55E-11,  avg # of iterations =  9.9

     negative rho (up, down):  1.407E-02 0.000E+00

     Adding external electric field

     Computed dipole along edir(3) :
        Dipole                1.3376 Ry au,          3.3998 Debye
        Dipole field          0.0025 Ry au,

        Potential amp.       -0.2340 Ry
        Total length         46.3494 bohr

     End of self-consistent calculation

          k = 0.0000 0.0000 0.0000 ( 18029 PWs)   bands (ev):

   -55.1197 -55.0830 -55.0755 -55.0413 -55.0358 -55.0306 -54.9989 -54.9630
   -54.9445 -54.9097 -54.9058 -54.8890 -54.8722 -54.8387 -54.1051 -54.0710
   -31.6815 -31.5955 -31.5678 -31.4880 -31.4336 -31.4309 -31.4174 -31.4114
   -31.3644 -31.3417 -31.3313 -31.3202 -31.3137 -31.3108 -31.2925 -31.2844
   -31.2641 -31.2614 -31.2591 -31.2407 -31.2280 -31.2188 -31.2015 -31.1971
   -31.1892 -31.1777 -31.1746 -31.1454 -31.1327 -31.1298 -31.1249 -31.1044
   -31.1017 -31.0940 -31.0906 -31.0670 -31.0579 -31.0413 -31.0338 -31.0322
   -31.0169 -31.0160 -30.5145 -30.4202 -30.3981 -30.3309 -30.2441 -30.1331
   -18.8058 -17.7687 -15.9509 -15.6954 -15.5589 -15.4579 -15.3231 -15.2171
   -15.1357 -15.0216 -14.9717 -14.8565 -14.8242 -14.8197 -14.7798 -14.7487
   -14.6999 -14.6611 -14.6590 -14.6367 -14.6172 -14.6095 -14.5666 -14.5598
   -14.5201 -14.5182 -14.4983 -14.3623 -14.2806 -14.2106 -14.0288 -13.2326
   -12.6078 -12.4903  -9.7666  -6.5388  -6.4395  -5.4338  -4.8966  -3.5376
    -3.2846  -3.1397  -3.0867  -3.0516  -3.0159  -2.9609  -2.8819  -2.7976
    -2.6515  -2.5824  -2.5570  -2.4046  -2.3306  -2.3209  -2.2644  -2.1647
    -2.1399  -2.0930  -2.0509  -1.9862  -1.9490  -1.9253  -1.9035  -1.8685
    -1.8648  -1.8110  -1.7573  -1.6875  -1.5979  -1.5665  -1.5207  -1.4770
    -1.4551  -1.4524  -1.4118  -1.4054  -1.3950  -1.3504  -1.3446  -1.3142
    -1.2686  -1.1586  -1.0087  -0.9457  -0.8587  -0.7624  -0.7399  -0.7116
    -0.6914  -0.6291  -0.6066  -0.5770  -0.5016  -0.4534  -0.3737  -0.3279
    -0.3051  -0.2256  -0.1208  -0.1037  -0.0971  -0.0087   0.0838   0.0960
     0.1113   0.1209   0.2187   0.2842   0.3176   0.3596   0.4238   0.4330
     0.4904   0.5199   0.5711   0.6377   0.6707   0.7494   0.7890   0.8097
     0.8156   0.8382   0.8570   0.8682   0.9495   0.9595   0.9852   1.0739
     1.1784   1.3326   1.4788   1.4898   1.8230   1.8241   1.9176   2.1012
     2.4937   2.5420   3.9747   4.0503   4.1088   4.1200   4.1256   4.2105
     4.4595   4.4774   4.4888   4.4904   4.5255

[...]

          k = 0.0380-0.0419 0.0000 ( 17876 PWs)   bands (ev):

[...]

          k =-0.0760-0.0000 0.0000 ( 17886 PWs)   bands (ev):

[...]

          k =-0.0760-0.0839 0.0000 ( 17948 PWs)   bands (ev):

   -55.1053 -55.0972 -55.0584 -55.0582 -55.0331 -55.0295 -54.9861 -54.9758
   -54.9300 -54.9237 -54.8909 -54.8896 -54.8885 -54.8404 -54.0880 -54.0880
   -31.5109 -31.4912 -31.4814 -31.3830 -31.3828 -31.3776 -31.3709 -31.3497
   -31.3496 -31.3292 -31.3241 -31.3186 -31.3089 -31.2901 -31.2764 -31.2619
   -31.2576 -31.2563 -31.2528 -31.2464 -31.2445 -31.2408 -31.2289 -31.2278
   -31.1983 -31.1975 -31.1804 -31.1781 -31.1780 -31.1694 -31.1692 -31.1632
   -31.1548 -31.1424 -31.1369 -31.1213 -31.1198 -31.1040 -31.0698 -31.0692
   -31.0679 -31.0448 -30.4108 -30.4108 -30.3270 -30.3269 -30.2875 -30.2875
   -18.8043 -17.7651 -15.5312 -15.3925 -15.2534 -15.1496 -15.1346 -15.0812
   -15.0321 -14.9901 -14.9487 -14.9042 -14.8943 -14.8762 -14.8474 -14.8207
   -14.7964 -14.7372 -14.7210 -14.7054 -14.6831 -14.6362 -14.6284 -14.6256
   -14.6185 -14.5721 -14.5695 -14.5447 -14.4759 -14.4739 -14.2881 -13.2346
   -12.5918 -12.5918  -9.7636  -6.5988  -6.3528  -5.4315  -4.9076  -3.5122
    -2.9552  -2.8120  -2.6545  -2.6187  -2.4728  -2.3724  -2.3273  -2.2994
    -2.2454  -2.1998  -2.1396  -2.1246  -2.1062  -2.0476  -2.0220  -2.0033
    -1.9718  -1.9528  -1.9392  -1.9206  -1.9033  -1.8752  -1.8489  -1.8402
    -1.8357  -1.8086  -1.7908  -1.7514  -1.7447  -1.7369  -1.6938  -1.6816
    -1.6555  -1.5986  -1.4915  -1.4813  -1.3287  -1.3263  -1.2928  -1.2468
    -1.2268  -1.2164  -1.1560  -1.1482  -1.1360  -0.9017  -0.8729  -0.8629
    -0.8360  -0.7776  -0.7609  -0.6973  -0.6876  -0.6039  -0.5892  -0.4879
    -0.4709  -0.4154  -0.3318  -0.3239  -0.3113  -0.2008  -0.1510  -0.1132
    -0.0866  -0.0764  -0.0589  -0.0211  -0.0209   0.0687   0.1122   0.1426
     0.1578   0.1876   0.3516   0.4009   0.4100   0.5492   0.5623   0.7093
     0.7742   0.7883   0.8705   0.8959   0.9844   0.9941   1.0337   1.1733
     1.1848   1.2078   1.2550   1.2834   1.3354   1.3405   2.2739   2.2752
     2.3619   2.3621   4.1071   4.2323   4.2387   4.2994   4.4088   4.4416
     4.4881   4.5218   4.5593   4.5622   4.6292

     the Fermi energy is     4.0367 ev

!    total energy              =   -2977.69999682 Ry
     estimated scf accuracy    <       0.00000006 Ry
     smearing contrib. (-TS)   =      -0.03675276 Ry
     internal energy E=F+TS    =   -2977.66324406 Ry

     The total energy is F=E-TS. E is the sum of the following terms:
     one-electron contribution =  -23082.74577403 Ry
     hartree contribution      =   11640.52223762 Ry
     xc contribution           =    -496.62367249 Ry
     ewald contribution        =    8961.18058861 Ry
     electric field correction =       0.00337624 Ry

     convergence has been achieved in  66 iterations

     Forces acting on atoms (cartesian axes, Ry/au):

     atom    1 type  1   force =     0.00017931   -0.00019109    0.09315133
     atom    2 type  1   force =    -0.00010740   -0.00034022   -0.17819452
     atom    3 type  2   force =     0.00002161   -0.00017258   -0.02037429
     atom    4 type  2   force =    -0.00002704   -0.00200431    0.05898816
     atom    5 type  2   force =    -0.01060119   -0.00142015    0.00858847
     atom    6 type  2   force =     0.01186744   -0.00070231    0.00712095
     atom    7 type  1   force =    -0.00089390    0.00313582   -0.01230328
     atom    8 type  1   force =     0.00055029    0.00112177   -0.00452274
     atom    9 type  2   force =    -0.00007549   -0.00037061    0.00013054
     atom   10 type  2   force =    -0.00129351   -0.00050720   -0.00195559
     atom   11 type  2   force =    -0.00022125   -0.00021786   -0.00007238
     atom   12 type  2   force =     0.00061378   -0.00007381   -0.00025548
     atom   13 type  1   force =    -0.00102219   -0.00062190    0.00021869
     atom   14 type  1   force =     0.00013154   -0.00005117    0.00016859
     atom   15 type  2   force =    -0.00029497   -0.00051918   -0.00007129
     atom   16 type  2   force =    -0.00001272   -0.00007890    0.00064828
     atom   17 type  2   force =    -0.00053358    0.00014335    0.00038489
     atom   18 type  2   force =     0.00003615    0.00010731    0.00041546
     atom   19 type  1   force =     0.00029309    0.00000900    0.00056611
     atom   20 type  1   force =    -0.00048730   -0.00010998    0.00034137
     atom   21 type  2   force =     0.00007443   -0.00001685    0.10398490
     atom   22 type  2   force =     0.00005980   -0.00017286   -0.00100202
     atom   23 type  2   force =    -0.07039119   -0.00011103   -0.02688731
     atom   24 type  2   force =     0.07027131    0.00033513   -0.02692555
     atom   25 type  1   force =    -0.00000326   -0.00022161    0.09280391
     atom   26 type  1   force =    -0.00019531   -0.00036466   -0.17830709
     atom   27 type  2   force =     0.00010499   -0.00028970   -0.01934806
     atom   28 type  2   force =     0.00003729   -0.00162698    0.05806406
     atom   29 type  2   force =    -0.01068971   -0.00080295    0.00798638
     atom   30 type  2   force =     0.01180683   -0.00047468    0.00651169
     atom   31 type  1   force =    -0.00072257    0.00505441   -0.01493023
     atom   32 type  1   force =     0.00039484   -0.00138934   -0.00479556
     atom   33 type  2   force =    -0.00011120    0.00021443    0.00028434
     atom   34 type  2   force =    -0.00128570    0.00140059   -0.00091467
     atom   35 type  2   force =     0.00019025    0.00013828    0.00000666
     atom   36 type  2   force =     0.00012458   -0.00001571   -0.00013010
     atom   37 type  1   force =    -0.00102811    0.00055990    0.00003657
     atom   38 type  1   force =     0.00014744   -0.00014961   -0.00002951
     atom   39 type  2   force =     0.00000058   -0.00013691    0.00009608
     atom   40 type  2   force =    -0.00020795    0.00020898    0.00022944
     atom   41 type  2   force =    -0.00001134   -0.00014949    0.00044480
     atom   42 type  2   force =    -0.00014677   -0.00005100    0.00007131
     atom   43 type  1   force =     0.00015515    0.00034525    0.00044555
     atom   44 type  1   force =    -0.00008421    0.00019649   -0.00043427
     atom   45 type  2   force =     0.00004203   -0.00005108    0.10397360
     atom   46 type  2   force =    -0.07038141   -0.00005547   -0.02691546
     atom   47 type  2   force =     0.07028910    0.00037183   -0.02694545
     atom   48 type  3   force =    -0.00533910   -0.00213266   -0.00225272
     atom   49 type  3   force =     0.01726893   -0.00128390   -0.00053842
     atom   50 type  4   force =     0.00039075    0.00053526   -0.00075989
     atom   51 type  5   force =     0.00026864   -0.00021382    0.00030501
     atom   52 type  5   force =     0.00037224   -0.00056877    0.00049788
     atom   53 type  5   force =     0.00067324    0.00012467   -0.00022199
     atom   54 type  5   force =    -0.00751658    0.00553948    0.00159565
     atom   55 type  5   force =    -0.00242220   -0.00206089    0.00162341
     atom   56 type  5   force =    -0.00088621    0.00027249   -0.00049649
     atom   57 type  2   force =    -0.00032449    0.00064312   -0.00057917
     atom   58 type  5   force =     0.00074982   -0.00042059    0.00012491
     atom   59 type  5   force =     0.00020236   -0.00031573    0.00035452

     Total force =     0.366684     Total SCF correction =     0.000986
  @ DRIVER MODE: Message from server: STATUS
  @ DRIVER MODE: Message from server: GETFORCE
  @ DRIVER MODE: Returning v,forces,stress,ensemble

     Writing output data file ./calc.save/
  @ DRIVER MODE: Message from server: EXIT
  @ DRIVE MODE: Exiting

     General routines

     Parallel routines

   This run was terminated on:  18:29:15  15Sep2021

   JOB DONE.