     Program PWSCF v.6.7GPU starts on 23Aug2021 at 18:35: 5

     R & G space division:  proc/nbgrp/npool/nimage =       6
     Reading input from /storage/home/hcoda1/3/ntian30/research/carbon/CH_vib/ads_slab/CHNNHH_a/out_0011/pw.inp
Warning: card &CELL ignored
Warning: card   CELL_DYNAMICS='IPI', ignored
Warning: card / ignored

     Current dimensions of program PWSCF are:
     Max number of different atomic species (ntypx) = 10
     Max number of k-points (npk) =  40000
     Max angular momentum in pseudopotentials (lmaxx) =  3
     Presently no symmetry can be used with electric field

     Message from routine cell_base_init:
     DEPRECATED: use true lattice parameter, not A to a.u. conversion factor

     IMPORTANT: XC functional enforced from input :
     Exchange-correlation= BEEF-VDW
                           (   1   4  43  14   2   0   0)
     Any further DFT definition will be discarded
     Please, verify this is what you really want

  @ DRIVER MODE: Connecting to
 qe_1139763_2632796.sched-torque.pace.gatech.eduqy9uyrii_scratch
  using UNIX socket
  @ DRIVER MODE: Message from server: STATUS
  @ DRIVER MODE: Message from server: INIT
  @ DRIVER MODE: Receiving replica           0          -1
  @ DRIVER MODE: Receiving encoded integer          25
  @ DRIVER MODE:  SCF:  T  FORCE:  T  STRESS:  F  VC:  F  ENSEMBLE:  F
  @ DRIVER MODE:  SCF:  T  FORCE:  T  STRESS:  F  VC:  F  ENSEMBLE:  F

     Using Slab Decomposition

     bravais-lattice index     =            0
     lattice parameter (alat)  =       1.8897  a.u.
     unit-cell volume          =    6658.9804 (a.u.)^3
     number of atoms/cell      =           53
     number of atomic types    =            5
     number of electrons       =       395.00
     number of Kohn-Sham states=          207
     kinetic-energy cutoff     =      29.3995  Ry
     charge density cutoff     =     293.9946  Ry
     scf convergence threshold =      7.3E-08
     mixing beta               =       0.0500
     number of iterations used =            8  plain     mixing
     Exchange-correlation= BEEF-VDW
                           (   1   4  43  14   2   0   0)

     celldm(1)=   1.889726  celldm(2)=   0.000000  celldm(3)=   0.000000
     celldm(4)=   0.000000  celldm(5)=   0.000000  celldm(6)=   0.000000

     crystal axes: (cart. coord. in units of alat)
               a(1) = (   6.579727   0.000000   0.000000 )
               a(2) = (  -0.000775   5.961596   0.000000 )
               a(3) = (   0.000000   0.000000  25.155947 )

     reciprocal axes: (cart. coord. in units 2 pi/alat)
               b(1) = (  0.151982  0.000020  0.000000 )
               b(2) = (  0.000000  0.167740  0.000000 )
               b(3) = (  0.000000  0.000000  0.039752 )

     PseudoPot. # 1 for Ti read from file:
     /storage/coda1/p-amedford6/0/shared/rich_project_chbe-medford/medford-share/data/pseudos_module/espresso/nninc/pbe/van/Ti.UPF
     MD5 check sum: 8e4df49b7f0d34bbd5052bf3f5ea0213
     Pseudo is Ultrasoft, Zval = 12.0
     Generated by new atomic code, or converted to UPF format
     Using radial grid of  851 points,  6 beta functions with:
                l(1) =   0
                l(2) =   0
                l(3) =   1
                l(4) =   1
                l(5) =   2
                l(6) =   2
     Q(r) pseudized with  8 coefficients,  rinner =    1.000   1.000   1.000
                                                       1.000   1.000

     PseudoPot. # 2 for O  read from file:
     /storage/coda1/p-amedford6/0/shared/rich_project_chbe-medford/medford-share/data/pseudos_module/espresso/nninc/pbe/van/O.UPF
     MD5 check sum: 78c19812648e8988a0fe644b0f25305e
     Pseudo is Ultrasoft, Zval =  6.0
     Generated by new atomic code, or converted to UPF format
     Using radial grid of  737 points,  4 beta functions with:
                l(1) =   0
                l(2) =   0
                l(3) =   1
                l(4) =   1
     Q(r) pseudized with  8 coefficients,  rinner =    0.800   0.800   0.800

     PseudoPot. # 3 for N  read from file:
     /storage/coda1/p-amedford6/0/shared/rich_project_chbe-medford/medford-share/data/pseudos_module/espresso/nninc/pbe/van/N.UPF
     MD5 check sum: 90d10febe142ad51ac9d5be1deb811c4
     Pseudo is Ultrasoft, Zval =  5.0
     Generated by new atomic code, or converted to UPF format
     Using radial grid of  729 points,  4 beta functions with:
                l(1) =   0
                l(2) =   0
                l(3) =   1
                l(4) =   1
     Q(r) pseudized with  8 coefficients,  rinner =    0.800   0.800   0.800

     PseudoPot. # 4 for C  read from file:
     /storage/coda1/p-amedford6/0/shared/rich_project_chbe-medford/medford-share/data/pseudos_module/espresso/nninc/pbe/van/C.UPF
     MD5 check sum: 1a69bf6b8db32088f5b2163dbdb77a27
     Pseudo is Ultrasoft, Zval =  4.0
     Generated by new atomic code, or converted to UPF format
     Using radial grid of  721 points,  4 beta functions with:
                l(1) =   0
                l(2) =   0
                l(3) =   1
                l(4) =   1
     Q(r) pseudized with  8 coefficients,  rinner =    0.800   0.800   0.800

     PseudoPot. # 5 for H  read from file:
     /storage/coda1/p-amedford6/0/shared/rich_project_chbe-medford/medford-share/data/pseudos_module/espresso/nninc/pbe/van/H.UPF
     MD5 check sum: b5ee9d7bfd3a09ee7748110bda690ff7
     Pseudo is Ultrasoft, Zval =  1.0
     Generated by new atomic code, or converted to UPF format
     Using radial grid of  615 points,  1 beta functions with:
                l(1) =   0
     Q(r) pseudized with  8 coefficients,  rinner =    0.800

     atomic species   valence    mass     pseudopotential
        Ti1           12.00    47.86700     Ti( 1.00)
        O1             6.00    15.99900     O ( 1.00)
        N1             5.00    14.00700     N ( 1.00)
        C1             4.00    12.01100     C ( 1.00)
        H1             1.00     1.00800     H ( 1.00)

     No symmetry found

   Cartesian axes

     site n.     atom                  positions (alat units)
         1           Ti1 tau(   1) = (   0.0004258   2.9801865   6.0000000  )
         2           Ti1 tau(   2) = (   3.2906075   1.4906267   6.0002472  )
         3           O1  tau(   3) = (   0.0006271   0.0005054   7.9858123  )
         4           O1  tau(   4) = (   3.2906025   0.0005020   7.3038282  )
         5           O1  tau(   5) = (   4.5942328   1.4918067   9.2879030  )
         6           O1  tau(   6) = (   1.9868534   1.4903216   9.2879459  )
         7           Ti1 tau(   7) = (   3.2907910   2.8959150   9.1758416  )
         8           Ti1 tau(   8) = (   0.0015273   1.4827037   9.2680791  )
         9           O1  tau(   9) = (   3.2912281   5.9459940  11.3193265  )
        10           O1  tau(  10) = (   0.0116148   5.9584955  10.6183126  )
        11           O1  tau(  11) = (   1.3103257   1.4650607  12.6442557  )
        12           O1  tau(  12) = (   5.3047449   1.4806448  12.6312737  )
        13           Ti1 tau(  13) = (   6.5337005   3.0128982  12.6900614  )
        14           Ti1 tau(  14) = (   3.2207025   1.4698770  12.4715817  )
        15           O1  tau(  15) = (   6.5518216   5.9146589  14.6704082  )
        16           O1  tau(  16) = (   3.3240203   5.9583723  13.8895330  )
        17           O1  tau(  17) = (   4.5456974   1.5225049  16.1264218  )
        18           O1  tau(  18) = (   2.0489736   1.4727210  15.9535721  )
        19           Ti1 tau(  19) = (   3.2591190   2.9927146  15.6788090  )
        20           Ti1 tau(  20) = (   0.0289511   1.3544711  15.7732889  )
        21           O1  tau(  21) = (   3.2904802   0.0005063   4.7018136  )
        22           O1  tau(  22) = (   0.0559926   0.0451390  17.2112278  )
        23           O1  tau(  23) = (   1.3043587   1.4918075   6.0039043  )
        24           O1  tau(  24) = (   5.2767064   1.4903225   6.0039473  )
        25           Ti1 tau(  25) = (   0.0000382   5.9609847   6.0000000  )
        26           Ti1 tau(  26) = (   3.2902200   4.4714249   6.0002472  )
        27           O1  tau(  27) = (   0.0002396   2.9813036   7.9858123  )
        28           O1  tau(  28) = (   3.2902150   2.9813002   7.3038282  )
        29           O1  tau(  29) = (   4.5938453   4.4726049   9.2879030  )
        30           O1  tau(  30) = (   1.9864658   4.4711199   9.2879459  )
        31           Ti1 tau(  31) = (   3.2891106   5.8743827   9.1763621  )
        32           Ti1 tau(  32) = (   0.0006254   4.4649316   9.2693709  )
        33           O1  tau(  33) = (   3.2889932   2.9698301  11.3211337  )
        34           O1  tau(  34) = (   0.0092240   2.9805883  10.6323155  )
        35           O1  tau(  35) = (   1.3069247   4.4567274  12.6410950  )
        36           O1  tau(  36) = (   5.3013738   4.4587240  12.6283471  )
        37           Ti1 tau(  37) = (   6.5339814   0.0202798  12.5235249  )
        38           Ti1 tau(  38) = (   3.2191325   4.4512509  12.4750946  )
        39           O1  tau(  39) = (   6.5688456   2.9522374  14.7547250  )
        40           O1  tau(  40) = (   3.3031296   2.9710333  13.8824388  )
        41           O1  tau(  41) = (   4.5425837   4.4734130  15.9989242  )
        42           O1  tau(  42) = (   2.0771424   4.4889556  16.0364895  )
        43           Ti1 tau(  43) = (   3.3121389   0.0026565  15.6888161  )
        44           Ti1 tau(  44) = (   6.5128106   4.4989306  16.3061806  )
        45           O1  tau(  45) = (   3.2900926   2.9813045   4.7018136  )
        46           O1  tau(  46) = (   1.3039711   4.4726057   6.0039043  )
        47           O1  tau(  47) = (   5.2763189   4.4711207   6.0039473  )
        48           N1  tau(  48) = (   0.4628824   2.9849886  17.7976856  )
        49           C1  tau(  49) = (   1.4182946   2.9518240  18.6600831  )
        50           H1  tau(  50) = (   2.3503500   2.6458988  18.1556329  )
        51           N1  tau(  51) = (   5.7893717   3.5482605  18.2279111  )
        52           H1  tau(  52) = (   5.8942619   4.0012392  19.1365464  )
        53           H1  tau(  53) = (   5.0734348   2.8266848  18.2415795  )

     number of k points=    10  Fermi-Dirac smearing, width (Ry)=  0.0073
                       cart. coord. in units 2pi/alat
        k(    1) = (   0.0000000   0.0000000   0.0000000), wk =   0.1250000
        k(    2) = (   0.0000000   0.0419351   0.0000000), wk =   0.2500000
        k(    3) = (   0.0000000  -0.0838702   0.0000000), wk =   0.1250000
        k(    4) = (   0.0379955   0.0000049   0.0000000), wk =   0.2500000
        k(    5) = (   0.0379955   0.0419400   0.0000000), wk =   0.2500000
        k(    6) = (   0.0379955  -0.0838652   0.0000000), wk =   0.2500000
        k(    7) = (   0.0379955  -0.0419301   0.0000000), wk =   0.2500000
        k(    8) = (  -0.0759910  -0.0000099   0.0000000), wk =   0.1250000
        k(    9) = (  -0.0759910   0.0419252   0.0000000), wk =   0.2500000
        k(   10) = (  -0.0759910  -0.0838800   0.0000000), wk =   0.1250000

     Initial potential from superposition of free atoms

     starting charge  378.99916, renormalised to  395.00000

     negative rho (up, down):  1.776E-02 0.000E+00

     %%%%%%%%%%%%%%%%%%%%%%%%%%%%%%%%%%%%%%%%%%%%%%%%%%%%%%%%%%%%%%%%%%%%%%%%
     %                                                                      %
     % You are using vdW-DF, which was implemented by the Thonhauser group. %
     % Please cite the following two papers that made this development      %
     % possible and the two reviews that describe the various versions:     %
     %                                                                      %
     %   T. Thonhauser et al., PRL 115, 136402 (2015).                      %
     %   T. Thonhauser et al., PRB 76, 125112 (2007).                       %
     %   K. Berland et al., Rep. Prog. Phys. 78, 066501 (2015).             %
     %   D.C. Langreth et al., J. Phys.: Condens. Matter 21, 084203 (2009). %
     %                                                                      %
     %                                                                      %
     % If you are calculating the stress with vdW-DF, please also cite:     %
     %                                                                      %
     %   R. Sabatini et al., J. Phys.: Condens. Matter 24, 424209 (2012).   %
     %                                                                      %
     %%%%%%%%%%%%%%%%%%%%%%%%%%%%%%%%%%%%%%%%%%%%%%%%%%%%%%%%%%%%%%%%%%%%%%%%

     Adding external electric field

     Computed dipole along edir(3) :
        Dipole               -8.0588 Ry au,        -20.4833 Debye
        Dipole field         -0.0152 Ry au,

        Potential amp.        1.4098 Ry
        Total length         46.3494 bohr

     Starting wfcs are  299 atomic wfcs
  @ DRIVER MODE: Message from server: STATUS
  @ DRIVER MODE: Message from server: POSDATA
  @ DRIVER MODE: Reading and sharing cell
  @ DRIVER MODE: Reading and sharing positions
  @ DRIVER MODE: Received positions

     Self-consistent Calculation

     iteration #  1     ecut=    29.40 Ry     beta= 0.05
     Davidson diagonalization with overlap
     c_bands:  1 eigenvalues not converged
     c_bands:  1 eigenvalues not converged
     c_bands:  2 eigenvalues not converged
     c_bands:  3 eigenvalues not converged
     c_bands:  3 eigenvalues not converged
     c_bands:  2 eigenvalues not converged
     c_bands:  1 eigenvalues not converged
     ethr =  1.00E-05,  avg # of iterations = 19.3

[...]

     total energy              =   -2614.85052746 Ry
     estimated scf accuracy    <    3583.76272721 Ry

[...]

     iteration #  3     ecut=    29.40 Ry     beta= 0.05
     Davidson diagonalization with overlap
     ethr =  1.00E-02,  avg # of iterations = 14.1

[...]

     iteration # 53     ecut=    29.40 Ry     beta= 0.05
     Davidson diagonalization with overlap
     c_bands:  1 eigenvalues not converged
     ethr =  1.88E-09,  avg # of iterations = 13.1

[...]

     total energy              =   -2939.00593865 Ry
     estimated scf accuracy    <       0.00000012 Ry

     iteration # 63     ecut=    29.40 Ry     beta= 0.05
     Davidson diagonalization with overlap
     ethr =  3.04E-11,  avg # of iterations = 10.0

     negative rho (up, down):  1.646E-02 0.000E+00

     Adding external electric field

     Computed dipole along edir(3) :
        Dipole                0.3111 Ry au,          0.7907 Debye
        Dipole field          0.0006 Ry au,

        Potential amp.       -0.0544 Ry
        Total length         46.3494 bohr

     End of self-consistent calculation

          k = 0.0000 0.0000 0.0000 ( 18029 PWs)   bands (ev):

   -56.1028 -56.1001 -56.0687 -56.0637 -55.9904 -55.9568 -55.9501 -55.9160
   -55.8997 -55.8655 -55.8638 -55.8295 -55.6437 -55.5819 -55.0724 -55.0384
   -32.6592 -32.5840 -32.4820 -32.4228 -32.4078 -32.4036 -32.3951 -32.3549
   -32.3426 -32.3278 -32.3026 -32.2806 -32.2751 -32.2551 -32.2477 -32.2409
   -32.2060 -32.1931 -32.1896 -32.1851 -32.1808 -32.1601 -32.1538 -32.1375
   -32.1124 -32.0981 -32.0971 -32.0970 -32.0910 -32.0876 -32.0661 -32.0393
   -32.0391 -32.0255 -32.0169 -31.9977 -31.9758 -31.9493 -31.8719 -31.8431
   -31.7977 -31.7333 -31.4791 -31.3918 -31.3693 -31.2960 -31.2096 -31.0983
   -18.0028 -16.8687 -16.5788 -16.3652 -16.2580 -16.2424 -16.1364 -15.9507
   -15.8173 -15.7894 -15.6825 -15.6761 -15.6348 -15.6237 -15.5933 -15.5711
   -15.5631 -15.5351 -15.5332 -15.5162 -15.4719 -15.4484 -15.4290 -15.3339
   -15.2935 -15.2327 -15.2133 -15.1493 -15.0275 -14.7937 -13.5744 -13.4581
   -13.3618  -8.0636  -6.3727  -4.4024  -4.2428  -4.0661  -4.0052  -3.9709
    -3.9592  -3.7150  -3.6827  -3.3233  -3.2910  -3.2727  -3.2610  -3.2496
    -3.1475  -3.0148  -2.9603  -2.9173  -2.9067  -2.8963  -2.8887  -2.8761
    -2.8499  -2.8277  -2.7267  -2.6833  -2.6495  -2.5402  -2.5204  -2.4386
    -2.4126  -2.4027  -2.3680  -2.3472  -2.3379  -2.3121  -2.3006  -2.2789
    -2.1904  -2.1410  -2.0251  -1.9683  -1.8851  -1.8497  -1.6988  -1.6571
    -1.5699  -1.5632  -1.5434  -1.5201  -1.4869  -1.4010  -1.3320  -1.2379
    -1.1975  -1.1586  -1.1225  -1.0791  -0.9991  -0.9788  -0.9614  -0.8650
    -0.8605  -0.8514  -0.8098  -0.6081  -0.5866  -0.5488  -0.5359  -0.4607
    -0.3997  -0.3851  -0.3626  -0.3153  -0.2541  -0.1913  -0.1456  -0.1303
    -0.1186  -0.1152  -0.0820  -0.0553   0.0875   0.0979   0.1919   0.2046
     0.2262   0.3515   0.5277   0.5669   0.5814   0.7041   0.8809   0.9502
     1.0518   1.1432   1.5204   1.5657   2.4333   3.0352   3.1215   3.1552
     3.1748   3.2803   3.3118   3.4826   3.4980   3.5330   3.5525

[...]

          k = 0.0380-0.0419 0.0000 ( 17876 PWs)   bands (ev):

[...]

          k =-0.0760-0.0000 0.0000 ( 17886 PWs)   bands (ev):

[...]

          k =-0.0760-0.0839 0.0000 ( 17948 PWs)   bands (ev):

   -56.0867 -56.0846 -56.0838 -56.0798 -55.9812 -55.9592 -55.9471 -55.9255
   -55.8845 -55.8802 -55.8501 -55.8434 -55.6404 -55.5850 -55.0554 -55.0553
   -32.4626 -32.4582 -32.3999 -32.3987 -32.3814 -32.3799 -32.3616 -32.3493
   -32.3300 -32.3106 -32.2877 -32.2715 -32.2449 -32.2354 -32.2351 -32.2168
   -32.2157 -32.2065 -32.2041 -32.1980 -32.1969 -32.1887 -32.1829 -32.1689
   -32.1641 -32.1467 -32.1305 -32.1271 -32.0839 -32.0819 -32.0802 -32.0761
   -32.0679 -32.0650 -32.0617 -32.0598 -32.0561 -31.9672 -31.8836 -31.8363
   -31.8010 -31.7897 -31.3821 -31.3820 -31.2920 -31.2918 -31.2529 -31.2528
   -17.9930 -16.3046 -16.2887 -16.0718 -16.0276 -16.0235 -16.0021 -15.9142
   -15.8247 -15.8054 -15.7904 -15.7736 -15.7588 -15.6783 -15.6521 -15.6297
   -15.6259 -15.6144 -15.5584 -15.5535 -15.5503 -15.5443 -15.5242 -15.4910
   -15.4085 -15.4036 -15.3940 -15.1556 -15.0905 -15.0181 -13.5602 -13.5597
   -13.3747  -8.0209  -6.3107  -4.4277  -3.5977  -3.5788  -3.3565  -3.3184
    -3.2800  -3.2707  -3.1554  -3.0536  -3.0229  -3.0103  -2.9720  -2.9534
    -2.9420  -2.9292  -2.9160  -2.8967  -2.8708  -2.8383  -2.8330  -2.7877
    -2.7689  -2.7478  -2.7306  -2.7091  -2.7080  -2.6676  -2.6624  -2.6232
    -2.5851  -2.5419  -2.4340  -2.3766  -2.3462  -2.2933  -2.2313  -2.2214
    -2.2123  -2.1578  -2.1527  -2.1216  -2.0349  -1.9593  -1.8235  -1.8006
    -1.7677  -1.7289  -1.6943  -1.5988  -1.5545  -1.5046  -1.4519  -1.3969
    -1.3844  -1.3423  -1.3055  -1.2384  -1.2212  -1.1820  -1.1611  -1.0986
    -1.0558  -1.0518  -0.9892  -0.9221  -0.8644  -0.8620  -0.8420  -0.8241
    -0.7674  -0.7192  -0.6525  -0.6031  -0.5614  -0.4661  -0.4080  -0.2946
    -0.1833  -0.0651   0.0071   0.0102   0.0662   0.1432   0.1879   0.2245
     0.2328   0.2495   0.3443   0.4151   0.4356   0.4478   0.5060   0.7023
     1.3149   1.3161   1.3849   1.3858   2.4307   3.3233   3.3611   3.3757
     3.4064   3.5521   3.5547   3.5668   3.5705   3.6890   3.7225

     the Fermi energy is     3.0324 ev

!    total energy              =   -2939.00599051 Ry
     estimated scf accuracy    <       0.00000005 Ry
     smearing contrib. (-TS)   =      -0.02207757 Ry
     internal energy E=F+TS    =   -2938.98391294 Ry

     The total energy is F=E-TS. E is the sum of the following terms:
     one-electron contribution =  -24454.90443779 Ry
     hartree contribution      =   12312.55412921 Ry
     xc contribution           =    -485.14064468 Ry
     ewald contribution        =    9688.50685767 Ry
     electric field correction =       0.00018264 Ry

     convergence has been achieved in  63 iterations

     Forces acting on atoms (cartesian axes, Ry/au):

     atom    1 type  1   force =     0.00018994   -0.00029425    0.09696637
     atom    2 type  1   force =     0.00007376   -0.00079406   -0.17495273
     atom    3 type  2   force =     0.00014587   -0.00008656   -0.02554438
     atom    4 type  2   force =    -0.00003335   -0.00142459    0.05151446
     atom    5 type  2   force =    -0.01203840   -0.00173053    0.00278820
     atom    6 type  2   force =     0.01346023   -0.00133778    0.00222620
     atom    7 type  1   force =     0.00040394    0.00016734   -0.01207713
     atom    8 type  1   force =     0.00019100    0.02416678    0.02897777
     atom    9 type  2   force =    -0.00004350    0.00052195   -0.00005735
     atom   10 type  2   force =    -0.00266238    0.00014724   -0.01165287
     atom   11 type  2   force =    -0.00002559    0.00027492    0.00005492
     atom   12 type  2   force =    -0.00024806   -0.00000868    0.00015329
     atom   13 type  1   force =    -0.00012844    0.00114695   -0.00016826
     atom   14 type  1   force =    -0.00000589    0.00050235   -0.00001068
     atom   15 type  2   force =     0.00011427   -0.00016561   -0.00011181
     atom   16 type  2   force =    -0.00021088    0.00022953   -0.00018909
     atom   17 type  2   force =     0.00030701    0.00018840   -0.00027190
     atom   18 type  2   force =    -0.00028786    0.00008357   -0.00006280
     atom   19 type  1   force =    -0.00007240   -0.00025824   -0.00087640
     atom   20 type  1   force =     0.00007387    0.00001481   -0.00044874
     atom   21 type  2   force =     0.00007011   -0.00007126    0.10297165
     atom   22 type  2   force =     0.00010038   -0.00006326   -0.00016327
     atom   23 type  2   force =    -0.07172272   -0.00017113   -0.02790608
     atom   24 type  2   force =     0.07162383    0.00028407   -0.02794696
     atom   25 type  1   force =     0.00003097   -0.00024852    0.09685409
     atom   26 type  1   force =    -0.00000335   -0.00018202   -0.17512910
     atom   27 type  2   force =     0.00015466   -0.00026497   -0.02421065
     atom   28 type  2   force =     0.00001304   -0.00118102    0.05207002
     atom   29 type  2   force =    -0.01219356    0.00078250    0.00246767
     atom   30 type  2   force =     0.01349924    0.00126775    0.00187669
     atom   31 type  1   force =     0.00044756    0.00287626   -0.01396603
     atom   32 type  1   force =     0.00038940   -0.02518039    0.03047364
     atom   33 type  2   force =     0.00004104   -0.00008305   -0.00016072
     atom   34 type  2   force =    -0.00184354   -0.00049808   -0.02072395
     atom   35 type  2   force =    -0.00000279    0.00021774   -0.00004629
     atom   36 type  2   force =     0.00017149    0.00032684    0.00017243
     atom   37 type  1   force =    -0.00020452   -0.00087084   -0.00002990
     atom   38 type  1   force =     0.00008467    0.00012194   -0.00026606
     atom   39 type  2   force =     0.00008629    0.00031209   -0.00020180
     atom   40 type  2   force =    -0.00007703    0.00009183    0.00050764
     atom   41 type  2   force =     0.00057621    0.00002481   -0.00002939
     atom   42 type  2   force =    -0.00040056   -0.00009905   -0.00009513
     atom   43 type  1   force =    -0.00034282    0.00037555   -0.00008110
     atom   44 type  1   force =    -0.00023384    0.00028094   -0.00079607
     atom   45 type  2   force =     0.00005358   -0.00006698    0.10299468
     atom   46 type  2   force =    -0.07175351   -0.00011596   -0.02790687
     atom   47 type  2   force =     0.07163769    0.00025918   -0.02793443
     atom   48 type  3   force =    -0.00611419   -0.00028506   -0.00866319
     atom   49 type  4   force =     0.00359462    0.00120844    0.01161304
     atom   50 type  5   force =     0.00323963   -0.00052306   -0.00315830
     atom   51 type  3   force =    -0.00033593    0.00039518    0.00089015
     atom   52 type  5   force =     0.00007745   -0.00010880    0.00006706
     atom   53 type  5   force =     0.00013336   -0.00015521    0.00019943

     Total force =     0.369383     Total SCF correction =     0.000549
  @ DRIVER MODE: Message from server: STATUS
  @ DRIVER MODE: Message from server: GETFORCE
  @ DRIVER MODE: Returning v,forces,stress,ensemble

     Writing output data file ./calc.save/
  @ DRIVER MODE: Message from server: EXIT
  @ DRIVE MODE: Exiting

     General routines

     Parallel routines

   This run was terminated on:  19: 5:23  23Aug2021

   JOB DONE.