     Program PWSCF v.6.7GPU starts on 15Sep2021 at 19:25:51

     R & G space division:  proc/nbgrp/npool/nimage =      10
     Reading input from /storage/home/hcoda1/3/ntian30/research/carbon/CxH_vib/H2O_calc/ads_slab/CH3NHH2O_a/out_0012/pw.inp
Warning: card &CELL ignored
Warning: card   CELL_DYNAMICS='IPI', ignored
Warning: card / ignored

     Current dimensions of program PWSCF are:
     Max number of different atomic species (ntypx) = 10
     Max number of k-points (npk) =  40000
     Max angular momentum in pseudopotentials (lmaxx) =  3
     Presently no symmetry can be used with electric field

     Message from routine cell_base_init:
     DEPRECATED: use true lattice parameter, not A to a.u. conversion factor

     IMPORTANT: XC functional enforced from input :
     Exchange-correlation= BEEF-VDW
                           (   1   4  43  14   2   0   0)
     Any further DFT definition will be discarded
     Please, verify this is what you really want

  @ DRIVER MODE: Connecting to
 qe_1139763_2852633.sched-torque.pace.gatech.edujblrydf1_scratch
  using UNIX socket
  @ DRIVER MODE: Message from server: STATUS
  @ DRIVER MODE: Message from server: INIT
  @ DRIVER MODE: Receiving replica           0          -1
  @ DRIVER MODE: Receiving encoded integer          25
  @ DRIVER MODE:  SCF:  T  FORCE:  T  STRESS:  F  VC:  F  ENSEMBLE:  F
  @ DRIVER MODE:  SCF:  T  FORCE:  T  STRESS:  F  VC:  F  ENSEMBLE:  F

     Using Slab Decomposition

     bravais-lattice index     =            0
     lattice parameter (alat)  =       1.8897  a.u.
     unit-cell volume          =    6658.9804 (a.u.)^3
     number of atoms/cell      =           56
     number of atomic types    =            5
     number of electrons       =       399.00
     number of Kohn-Sham states=          209
     kinetic-energy cutoff     =      29.3995  Ry
     charge density cutoff     =     293.9946  Ry
     scf convergence threshold =      7.3E-08
     mixing beta               =       0.0500
     number of iterations used =            8  plain     mixing
     Exchange-correlation= BEEF-VDW
                           (   1   4  43  14   2   0   0)

     celldm(1)=   1.889726  celldm(2)=   0.000000  celldm(3)=   0.000000
     celldm(4)=   0.000000  celldm(5)=   0.000000  celldm(6)=   0.000000

     crystal axes: (cart. coord. in units of alat)
               a(1) = (   6.579727   0.000000   0.000000 )
               a(2) = (  -0.000775   5.961596   0.000000 )
               a(3) = (   0.000000   0.000000  25.155947 )

     reciprocal axes: (cart. coord. in units 2 pi/alat)
               b(1) = (  0.151982  0.000020  0.000000 )
               b(2) = (  0.000000  0.167740  0.000000 )
               b(3) = (  0.000000  0.000000  0.039752 )

     PseudoPot. # 1 for Ti read from file:
     /storage/coda1/p-amedford6/0/shared/rich_project_chbe-medford/medford-share/data/pseudos_module/espresso/nninc/pbe/van/Ti.UPF
     MD5 check sum: 8e4df49b7f0d34bbd5052bf3f5ea0213
     Pseudo is Ultrasoft, Zval = 12.0
     Generated by new atomic code, or converted to UPF format
     Using radial grid of  851 points,  6 beta functions with:
                l(1) =   0
                l(2) =   0
                l(3) =   1
                l(4) =   1
                l(5) =   2
                l(6) =   2
     Q(r) pseudized with  8 coefficients,  rinner =    1.000   1.000   1.000
                                                       1.000   1.000

     PseudoPot. # 2 for O  read from file:
     /storage/coda1/p-amedford6/0/shared/rich_project_chbe-medford/medford-share/data/pseudos_module/espresso/nninc/pbe/van/O.UPF
     MD5 check sum: 78c19812648e8988a0fe644b0f25305e
     Pseudo is Ultrasoft, Zval =  6.0
     Generated by new atomic code, or converted to UPF format
     Using radial grid of  737 points,  4 beta functions with:
                l(1) =   0
                l(2) =   0
                l(3) =   1
                l(4) =   1
     Q(r) pseudized with  8 coefficients,  rinner =    0.800   0.800   0.800

     PseudoPot. # 3 for H  read from file:
     /storage/coda1/p-amedford6/0/shared/rich_project_chbe-medford/medford-share/data/pseudos_module/espresso/nninc/pbe/van/H.UPF
     MD5 check sum: b5ee9d7bfd3a09ee7748110bda690ff7
     Pseudo is Ultrasoft, Zval =  1.0
     Generated by new atomic code, or converted to UPF format
     Using radial grid of  615 points,  1 beta functions with:
                l(1) =   0
     Q(r) pseudized with  8 coefficients,  rinner =    0.800

     PseudoPot. # 4 for N  read from file:
     /storage/coda1/p-amedford6/0/shared/rich_project_chbe-medford/medford-share/data/pseudos_module/espresso/nninc/pbe/van/N.UPF
     MD5 check sum: 90d10febe142ad51ac9d5be1deb811c4
     Pseudo is Ultrasoft, Zval =  5.0
     Generated by new atomic code, or converted to UPF format
     Using radial grid of  729 points,  4 beta functions with:
                l(1) =   0
                l(2) =   0
                l(3) =   1
                l(4) =   1
     Q(r) pseudized with  8 coefficients,  rinner =    0.800   0.800   0.800

     PseudoPot. # 5 for C  read from file:
     /storage/coda1/p-amedford6/0/shared/rich_project_chbe-medford/medford-share/data/pseudos_module/espresso/nninc/pbe/van/C.UPF
     MD5 check sum: 1a69bf6b8db32088f5b2163dbdb77a27
     Pseudo is Ultrasoft, Zval =  4.0
     Generated by new atomic code, or converted to UPF format
     Using radial grid of  721 points,  4 beta functions with:
                l(1) =   0
                l(2) =   0
                l(3) =   1
                l(4) =   1
     Q(r) pseudized with  8 coefficients,  rinner =    0.800   0.800   0.800

     atomic species   valence    mass     pseudopotential
        Ti1           12.00    47.86700     Ti( 1.00)
        O1             6.00    15.99900     O ( 1.00)
        H1             1.00     1.00800     H ( 1.00)
        N1             5.00    14.00700     N ( 1.00)
        C1             4.00    12.01100     C ( 1.00)

     No symmetry found

   Cartesian axes

     site n.     atom                  positions (alat units)
         1           Ti1 tau(   1) = (   0.0004258   2.9801865   6.0000000  )
         2           Ti1 tau(   2) = (   3.2906075   1.4906267   6.0002472  )
         3           O1  tau(   3) = (   0.0006271   0.0005054   7.9858123  )
         4           O1  tau(   4) = (   3.2906025   0.0005020   7.3038282  )
         5           O1  tau(   5) = (   4.5942328   1.4918067   9.2879030  )
         6           O1  tau(   6) = (   1.9868534   1.4903216   9.2879459  )
         7           Ti1 tau(   7) = (   3.2907910   2.8959150   9.1758416  )
         8           Ti1 tau(   8) = (   0.0015273   1.4827037   9.2680791  )
         9           O1  tau(   9) = (   3.2896571   0.0076959  11.3233140  )
        10           O1  tau(  10) = (   0.0116148   5.9584955  10.6183126  )
        11           O1  tau(  11) = (   1.3168077   1.5009220  12.6157425  )
        12           O1  tau(  12) = (   5.2956243   1.4929856  12.6075824  )
        13           Ti1 tau(  13) = (   6.5239244   2.9540340  12.6210794  )
        14           Ti1 tau(  14) = (   3.2085880   1.4976218  12.4699624  )
        15           O1  tau(  15) = (   6.5712616   0.0419518  14.6436513  )
        16           O1  tau(  16) = (   3.3111435   0.0202601  13.9161875  )
        17           O1  tau(  17) = (   4.5291760   1.5523016  16.0784362  )
        18           O1  tau(  18) = (   2.0445308   1.5488630  16.0432715  )
        19           Ti1 tau(  19) = (   3.3059752   3.0257308  15.6838679  )
        20           Ti1 tau(  20) = (   0.0592185   1.5662548  15.8694889  )
        21           O1  tau(  21) = (   3.2904802   0.0005063   4.7018136  )
        22           O1  tau(  22) = (   0.0264932   0.0561689  17.2024660  )
        23           O1  tau(  23) = (   1.3043587   1.4918075   6.0039043  )
        24           O1  tau(  24) = (   5.2767064   1.4903225   6.0039473  )
        25           Ti1 tau(  25) = (   0.0000382   5.9609847   6.0000000  )
        26           Ti1 tau(  26) = (   3.2902200   4.4714249   6.0002472  )
        27           O1  tau(  27) = (   0.0002396   2.9813036   7.9858123  )
        28           O1  tau(  28) = (   3.2902150   2.9813002   7.3038282  )
        29           O1  tau(  29) = (   4.5938453   4.4726049   9.2879030  )
        30           O1  tau(  30) = (   1.9864658   4.4711199   9.2879459  )
        31           Ti1 tau(  31) = (   3.2891106   5.8743827   9.1763621  )
        32           Ti1 tau(  32) = (   0.0006254   4.4649316   9.2693709  )
        33           O1  tau(  33) = (   3.2898653   2.9926188  11.3210358  )
        34           O1  tau(  34) = (   0.0092240   2.9805883  10.6323155  )
        35           O1  tau(  35) = (   1.3106253   4.4883450  12.6271249  )
        36           O1  tau(  36) = (   5.2968722   4.4793810  12.6200386  )
        37           Ti1 tau(  37) = (   6.5212985   5.9329073  12.5685303  )
        38           Ti1 tau(  38) = (   3.2059443   4.4781599  12.4721232  )
        39           O1  tau(  39) = (   6.5764971   2.9600267  14.6431433  )
        40           O1  tau(  40) = (   3.3056941   3.0038382  13.8936370  )
        41           O1  tau(  41) = (   4.5394310   4.5052612  16.0827012  )
        42           O1  tau(  42) = (   2.0570581   4.5113261  16.0718816  )
        43           Ti1 tau(  43) = (   3.3383738   0.0382055  15.7109988  )
        44           Ti1 tau(  44) = (   0.0469139   4.6840235  16.0886640  )
        45           O1  tau(  45) = (   3.2900926   2.9813045   4.7018136  )
        46           O1  tau(  46) = (   1.3039711   4.4726057   6.0039043  )
        47           O1  tau(  47) = (   5.2763189   4.4711207   6.0039473  )
        48           H1  tau(  48) = (   5.6101632   2.9904038  17.7880820  )
        49           N1  tau(  49) = (   6.5649722   3.0046358  17.4538072  )
        50           C1  tau(  50) = (   0.8874553   2.9889031  18.6120612  )
        51           H1  tau(  51) = (   1.3591778   3.9628686  18.7739097  )
        52           H1  tau(  52) = (   0.3310755   2.7322232  19.5165709  )
        53           H1  tau(  53) = (   1.6717793   2.2402645  18.4914768  )
        54           O1  tau(  54) = (   3.2567199   5.9268012  21.6217354  )
        55           H1  tau(  55) = (   4.0245811   5.9269051  22.2091127  )
        56           H1  tau(  56) = (   2.4887544   5.9269923  22.2092946  )

     number of k points=    10  Fermi-Dirac smearing, width (Ry)=  0.0073
                       cart. coord. in units 2pi/alat
        k(    1) = (   0.0000000   0.0000000   0.0000000), wk =   0.1250000
        k(    2) = (   0.0000000   0.0419351   0.0000000), wk =   0.2500000
        k(    3) = (   0.0000000  -0.0838702   0.0000000), wk =   0.1250000
        k(    4) = (   0.0379955   0.0000049   0.0000000), wk =   0.2500000
        k(    5) = (   0.0379955   0.0419400   0.0000000), wk =   0.2500000
        k(    6) = (   0.0379955  -0.0838652   0.0000000), wk =   0.2500000
        k(    7) = (   0.0379955  -0.0419301   0.0000000), wk =   0.2500000
        k(    8) = (  -0.0759910  -0.0000099   0.0000000), wk =   0.1250000
        k(    9) = (  -0.0759910   0.0419252   0.0000000), wk =   0.2500000
        k(   10) = (  -0.0759910  -0.0838800   0.0000000), wk =   0.1250000

     Initial potential from superposition of free atoms

     starting charge  382.99914, renormalised to  399.00000

     negative rho (up, down):  9.622E-03 0.000E+00

     %%%%%%%%%%%%%%%%%%%%%%%%%%%%%%%%%%%%%%%%%%%%%%%%%%%%%%%%%%%%%%%%%%%%%%%%
     %                                                                      %
     % You are using vdW-DF, which was implemented by the Thonhauser group. %
     % Please cite the following two papers that made this development      %
     % possible and the two reviews that describe the various versions:     %
     %                                                                      %
     %   T. Thonhauser et al., PRL 115, 136402 (2015).                      %
     %   T. Thonhauser et al., PRB 76, 125112 (2007).                       %
     %   K. Berland et al., Rep. Prog. Phys. 78, 066501 (2015).             %
     %   D.C. Langreth et al., J. Phys.: Condens. Matter 21, 084203 (2009). %
     %                                                                      %
     %                                                                      %
     % If you are calculating the stress with vdW-DF, please also cite:     %
     %                                                                      %
     %   R. Sabatini et al., J. Phys.: Condens. Matter 24, 424209 (2012).   %
     %                                                                      %
     %%%%%%%%%%%%%%%%%%%%%%%%%%%%%%%%%%%%%%%%%%%%%%%%%%%%%%%%%%%%%%%%%%%%%%%%

     Adding external electric field

     Computed dipole along edir(3) :
        Dipole              -12.5533 Ry au,        -31.9073 Debye
        Dipole field         -0.0237 Ry au,

        Potential amp.        2.1960 Ry
        Total length         46.3494 bohr

     Starting wfcs are  302 atomic wfcs
  @ DRIVER MODE: Message from server: STATUS
  @ DRIVER MODE: Message from server: POSDATA
  @ DRIVER MODE: Reading and sharing cell
  @ DRIVER MODE: Reading and sharing positions
  @ DRIVER MODE: Received positions

     Self-consistent Calculation

     iteration #  1     ecut=    29.40 Ry     beta= 0.05
     Davidson diagonalization with overlap
     c_bands:  2 eigenvalues not converged
     c_bands:  2 eigenvalues not converged
     c_bands:  4 eigenvalues not converged
     c_bands:  2 eigenvalues not converged
     c_bands:  3 eigenvalues not converged
     c_bands:  3 eigenvalues not converged
     c_bands:  5 eigenvalues not converged
     c_bands:  4 eigenvalues not converged
     c_bands:  5 eigenvalues not converged
     ethr =  1.00E-05,  avg # of iterations = 22.0

[...]

     total energy              =   -2445.23903254 Ry
     estimated scf accuracy    <    5722.20412697 Ry

     iteration #  2     ecut=    29.40 Ry     beta= 0.05
     Davidson diagonalization with overlap
     ethr =  1.00E-02,  avg # of iterations = 22.2

[...]

     iteration # 61     ecut=    29.40 Ry     beta= 0.05
     Davidson diagonalization with overlap
     c_bands:  1 eigenvalues not converged
     ethr =  1.55E-10,  avg # of iterations = 10.1

[...]

     total energy              =   -2955.21552510 Ry
     estimated scf accuracy    <       0.00000011 Ry

     iteration # 68     ecut=    29.40 Ry     beta= 0.05
     Davidson diagonalization with overlap
     ethr =  2.87E-11,  avg # of iterations =  6.3

     negative rho (up, down):  1.111E-02 0.000E+00

     Adding external electric field

     Computed dipole along edir(3) :
        Dipole                1.3178 Ry au,          3.3494 Debye
        Dipole field          0.0025 Ry au,

        Potential amp.       -0.2305 Ry
        Total length         46.3494 bohr

     End of self-consistent calculation

          k = 0.0000 0.0000 0.0000 ( 18029 PWs)   bands (ev):

   -55.5029 -55.4950 -55.4688 -55.4590 -55.4137 -55.3447 -55.3419 -55.3075
   -55.3073 -55.2736 -55.2658 -55.2321 -55.0795 -54.7963 -54.4748 -54.4407
   -32.0534 -31.9841 -31.8583 -31.8437 -31.8227 -31.8069 -31.7962 -31.7569
   -31.7445 -31.7444 -31.7181 -31.7102 -31.6773 -31.6551 -31.6475 -31.6438
   -31.6373 -31.6061 -31.5850 -31.5601 -31.5533 -31.5485 -31.5325 -31.5117
   -31.5024 -31.4974 -31.4937 -31.4856 -31.4689 -31.4662 -31.4614 -31.4572
   -31.4432 -31.4377 -31.4192 -31.4145 -31.3785 -31.3437 -31.2476 -31.0701
   -31.0641 -30.9944 -30.8816 -30.7940 -30.7715 -30.6984 -30.6119 -30.5009
   -18.5663 -16.2617 -15.9795 -15.7993 -15.6570 -15.6253 -15.5370 -15.3390
   -15.2133 -15.1982 -15.0939 -15.0618 -15.0368 -15.0301 -15.0016 -14.9983
   -14.9439 -14.9360 -14.9272 -14.9139 -14.8550 -14.8312 -14.7911 -14.6993
   -14.6760 -14.6602 -14.6324 -14.5502 -14.5447 -14.1010 -13.6682 -12.9772
   -12.8609  -8.4625  -6.3695  -3.9269  -3.6322  -3.4584  -3.4207  -3.4050
    -3.3549  -3.1043  -3.0867  -2.8487  -2.7230  -2.7037  -2.6874  -2.6745
    -2.6572  -2.6389  -2.4015  -2.4003  -2.3337  -2.3175  -2.2957  -2.2873
    -2.2814  -2.2717  -2.2682  -2.2234  -2.1680  -2.0535  -2.0363  -1.9303
    -1.8870  -1.8659  -1.8120  -1.7679  -1.7616  -1.7522  -1.7324  -1.7227
    -1.6980  -1.6802  -1.5455  -1.4825  -1.3477  -1.3040  -1.2963  -1.1025
    -1.0618  -0.9718  -0.9455  -0.9290  -0.9209  -0.8888  -0.8072  -0.7134
    -0.6619  -0.6492  -0.5959  -0.5163  -0.5029  -0.3923  -0.3878  -0.3848
    -0.3191  -0.2715  -0.2615  -0.2529  -0.2066  -0.1235  -0.0602   0.0115
     0.0643   0.0862   0.1124   0.1912   0.2197   0.3153   0.3372   0.3829
     0.3874   0.4341   0.4761   0.4846   0.4900   0.5062   0.5252   0.6732
     0.7812   0.8376   0.8709   0.8816   1.0379   1.0744   1.1618   1.2487
     1.4744   1.5472   1.6413   1.7403   1.8269   2.1180   2.1633   3.6402
     3.7193   3.7730   3.7817   3.8778   3.8849   4.0900   4.0986   4.1096
     4.2949

[...]

          k = 0.0380-0.0419 0.0000 ( 17876 PWs)   bands (ev):

[...]

          k =-0.0760-0.0000 0.0000 ( 17886 PWs)   bands (ev):

[...]

          k =-0.0760-0.0839 0.0000 ( 17948 PWs)   bands (ev):

   -55.4863 -55.4853 -55.4771 -55.4767 -55.4090 -55.3492 -55.3266 -55.3226
   -55.2912 -55.2894 -55.2493 -55.2487 -55.0785 -54.7971 -54.4578 -54.4576
   -31.8576 -31.8559 -31.7998 -31.7990 -31.7903 -31.7821 -31.7810 -31.7660
   -31.7068 -31.7047 -31.6982 -31.6946 -31.6730 -31.6403 -31.6240 -31.6207
   -31.6120 -31.6080 -31.6057 -31.6049 -31.6024 -31.5897 -31.5874 -31.5549
   -31.5451 -31.5440 -31.5189 -31.5048 -31.4876 -31.4872 -31.4819 -31.4815
   -31.4647 -31.4644 -31.4640 -31.4604 -31.4114 -31.3464 -31.2428 -31.1328
   -31.0665 -31.0189 -30.7843 -30.7841 -30.6945 -30.6943 -30.6552 -30.6552
   -18.5661 -15.7129 -15.6806 -15.4422 -15.4361 -15.4263 -15.4115 -15.2703
   -15.2154 -15.2065 -15.1995 -15.1737 -15.1520 -15.0999 -15.0728 -15.0357
   -15.0297 -15.0242 -15.0217 -14.9594 -14.9535 -14.9322 -14.9249 -14.8109
   -14.8089 -14.8069 -14.7362 -14.6664 -14.5313 -14.2681 -13.6899 -12.9629
   -12.9626  -8.4663  -6.3710  -3.9381  -3.0064  -2.9689  -2.8172  -2.7331
    -2.6832  -2.6692  -2.6521  -2.5745  -2.4139  -2.3979  -2.3966  -2.3802
    -2.3660  -2.3286  -2.3221  -2.3092  -2.2972  -2.2895  -2.2711  -2.2353
    -2.1961  -2.1691  -2.1612  -2.1516  -2.1269  -2.1146  -2.0894  -2.0836
    -2.0492  -2.0412  -2.0254  -2.0011  -1.7489  -1.7219  -1.7027  -1.6318
    -1.6246  -1.5922  -1.5837  -1.5639  -1.5507  -1.4981  -1.3986  -1.2327
    -1.1998  -1.1852  -1.1684  -1.1051  -1.0850  -0.9368  -0.9099  -0.8905
    -0.8522  -0.8023  -0.7724  -0.7330  -0.6950  -0.6615  -0.5978  -0.5890
    -0.5108  -0.4617  -0.4611  -0.4342  -0.4038  -0.3644  -0.2867  -0.2674
    -0.2571  -0.2143  -0.2001  -0.1203  -0.0975  -0.0001   0.0145   0.0883
     0.1191   0.1862   0.3881   0.4824   0.5418   0.5668   0.6201   0.7155
     0.7707   0.7848   0.8177   0.8229   0.8834   0.9260   1.0394   1.0463
     1.1137   1.2158   1.7732   1.9116   1.9124   1.9830   1.9832   3.9010
     3.9077   3.9583   3.9870   4.1399   4.1446   4.1673   4.1683   4.2877
     4.3065

     the Fermi energy is     3.6330 ev

!    total energy              =   -2955.21554369 Ry
     estimated scf accuracy    <       0.00000005 Ry
     smearing contrib. (-TS)   =      -0.02204233 Ry
     internal energy E=F+TS    =   -2955.19350136 Ry

     The total energy is F=E-TS. E is the sum of the following terms:
     one-electron contribution =  -23377.31626140 Ry
     hartree contribution      =   11780.49908568 Ry
     xc contribution           =    -489.68349766 Ry
     ewald contribution        =    9131.30389501 Ry
     electric field correction =       0.00327702 Ry

     convergence has been achieved in  68 iterations

     Forces acting on atoms (cartesian axes, Ry/au):

     atom    1 type  1   force =     0.00012566   -0.00019044    0.09688855
     atom    2 type  1   force =     0.00004449   -0.00046172   -0.17496525
     atom    3 type  2   force =     0.00012931    0.00001697   -0.02538696
     atom    4 type  2   force =    -0.00003089   -0.00126782    0.05226376
     atom    5 type  2   force =    -0.01218463    0.00000667    0.00288088
     atom    6 type  2   force =     0.01362974    0.00054759    0.00225534
     atom    7 type  1   force =     0.00060091    0.00030646   -0.01254613
     atom    8 type  1   force =     0.00045049    0.00707107    0.03083344
     atom    9 type  2   force =     0.00032467    0.00016607    0.00044683
     atom   10 type  2   force =    -0.00271791    0.00207518   -0.01686338
     atom   11 type  2   force =     0.00016810   -0.00035587    0.00013933
     atom   12 type  2   force =     0.00007709   -0.00035070    0.00024057
     atom   13 type  1   force =    -0.00018961    0.00035668   -0.00011248
     atom   14 type  1   force =    -0.00011622    0.00033596   -0.00034482
     atom   15 type  2   force =     0.00001495   -0.00009851    0.00023820
     atom   16 type  2   force =     0.00014946    0.00038323    0.00125598
     atom   17 type  2   force =    -0.00010318   -0.00022923    0.00031853
     atom   18 type  2   force =     0.00027160   -0.00031212    0.00000158
     atom   19 type  1   force =     0.00016892   -0.00036585    0.00058034
     atom   20 type  1   force =    -0.00055515    0.00094541    0.00187478
     atom   21 type  2   force =     0.00005983   -0.00001911    0.10305381
     atom   22 type  2   force =     0.00022058   -0.00096320   -0.00000204
     atom   23 type  2   force =    -0.07166001   -0.00016100   -0.02783883
     atom   24 type  2   force =     0.07155720    0.00034132   -0.02789476
     atom   25 type  1   force =     0.00008034   -0.00017106    0.09667314
     atom   26 type  1   force =     0.00009995   -0.00025070   -0.17509173
     atom   27 type  2   force =     0.00011760   -0.00010840   -0.02444571
     atom   28 type  2   force =     0.00004045   -0.00101632    0.05209509
     atom   29 type  2   force =    -0.01237722    0.00067293    0.00264741
     atom   30 type  2   force =     0.01369498    0.00106148    0.00202718
     atom   31 type  1   force =     0.00049602    0.00307153   -0.01336626
     atom   32 type  1   force =     0.00030581   -0.00926479    0.03125894
     atom   33 type  2   force =    -0.00012565    0.00015996    0.00078265
     atom   34 type  2   force =    -0.00203089    0.00179757   -0.02548126
     atom   35 type  2   force =     0.00025410    0.00019275    0.00036643
     atom   36 type  2   force =     0.00023461    0.00010429    0.00036092
     atom   37 type  1   force =    -0.00025794   -0.00063812    0.00003172
     atom   38 type  1   force =    -0.00007682    0.00002256   -0.00020851
     atom   39 type  2   force =     0.00004321   -0.00075910    0.00084171
     atom   40 type  2   force =     0.00024741    0.00003328   -0.00013465
     atom   41 type  2   force =    -0.00026131   -0.00002447   -0.00003470
     atom   42 type  2   force =     0.00033853   -0.00013883   -0.00036948
     atom   43 type  1   force =    -0.00038420    0.00047987   -0.00054309
     atom   44 type  1   force =    -0.00045407   -0.00136587    0.00242760
     atom   45 type  2   force =     0.00004042   -0.00004786    0.10310247
     atom   46 type  2   force =    -0.07165238   -0.00005698   -0.02784058
     atom   47 type  2   force =     0.07157153    0.00036190   -0.02790610
     atom   48 type  3   force =    -0.00394449   -0.00058443    0.00353659
     atom   49 type  4   force =     0.00116803   -0.00032931   -0.01420686
     atom   50 type  5   force =     0.00095725   -0.00019299    0.00634701
     atom   51 type  3   force =    -0.00004419   -0.00021952    0.00087323
     atom   52 type  3   force =     0.00144107   -0.00067132    0.00039381
     atom   53 type  3   force =     0.00054762    0.00016962    0.00004380
     atom   54 type  2   force =    -0.00066359   -0.00006806   -0.00031475
     atom   55 type  3   force =    -0.00057588   -0.00001828   -0.00043358
     atom   56 type  3   force =     0.00073428    0.00002166   -0.00074968

     Total force =     0.368684     Total SCF correction =     0.000618
  @ DRIVER MODE: Message from server: STATUS
  @ DRIVER MODE: Message from server: GETFORCE
  @ DRIVER MODE: Returning v,forces,stress,ensemble

     Writing output data file ./calc.save/
  @ DRIVER MODE: Message from server: EXIT
  @ DRIVE MODE: Exiting

     General routines

     Parallel routines

   This run was terminated on:  19:44: 3  15Sep2021

   JOB DONE.