     Program PWSCF v.6.7GPU starts on 15Sep2021 at 19:28:33

     R & G space division:  proc/nbgrp/npool/nimage =      10
     Reading input from /storage/home/hcoda1/3/ntian30/research/carbon/CxH_vib/H2O_calc/ads_slab/CHH2O_a/out_0016/pw.inp
Warning: card &CELL ignored
Warning: card   CELL_DYNAMICS='IPI', ignored
Warning: card / ignored

     Current dimensions of program PWSCF are:
     Max number of different atomic species (ntypx) = 10
     Max number of k-points (npk) =  40000
     Max angular momentum in pseudopotentials (lmaxx) =  3
     Presently no symmetry can be used with electric field

     Message from routine cell_base_init:
     DEPRECATED: use true lattice parameter, not A to a.u. conversion factor

     IMPORTANT: XC functional enforced from input :
     Exchange-correlation= BEEF-VDW
                           (   1   4  43  14   2   0   0)
     Any further DFT definition will be discarded
     Please, verify this is what you really want

  @ DRIVER MODE: Connecting to
 qe_1139763_2852624.sched-torque.pace.gatech.eduof_a_lge_scratch
  using UNIX socket
  @ DRIVER MODE: Message from server: STATUS
  @ DRIVER MODE: Message from server: INIT
  @ DRIVER MODE: Receiving replica           0          -1
  @ DRIVER MODE: Receiving encoded integer          25
  @ DRIVER MODE:  SCF:  T  FORCE:  T  STRESS:  F  VC:  F  ENSEMBLE:  F
  @ DRIVER MODE:  SCF:  T  FORCE:  T  STRESS:  F  VC:  F  ENSEMBLE:  F

     Using Slab Decomposition

     bravais-lattice index     =            0
     lattice parameter (alat)  =       1.8897  a.u.
     unit-cell volume          =    6658.9804 (a.u.)^3
     number of atoms/cell      =           52
     number of atomic types    =            4
     number of electrons       =       391.00
     number of Kohn-Sham states=          205
     kinetic-energy cutoff     =      29.3995  Ry
     charge density cutoff     =     293.9946  Ry
     scf convergence threshold =      7.3E-08
     mixing beta               =       0.0500
     number of iterations used =            8  plain     mixing
     Exchange-correlation= BEEF-VDW
                           (   1   4  43  14   2   0   0)

     celldm(1)=   1.889726  celldm(2)=   0.000000  celldm(3)=   0.000000
     celldm(4)=   0.000000  celldm(5)=   0.000000  celldm(6)=   0.000000

     crystal axes: (cart. coord. in units of alat)
               a(1) = (   6.579727   0.000000   0.000000 )
               a(2) = (  -0.000775   5.961596   0.000000 )
               a(3) = (   0.000000   0.000000  25.155947 )

     reciprocal axes: (cart. coord. in units 2 pi/alat)
               b(1) = (  0.151982  0.000020  0.000000 )
               b(2) = (  0.000000  0.167740  0.000000 )
               b(3) = (  0.000000  0.000000  0.039752 )

     PseudoPot. # 1 for Ti read from file:
     /storage/coda1/p-amedford6/0/shared/rich_project_chbe-medford/medford-share/data/pseudos_module/espresso/nninc/pbe/van/Ti.UPF
     MD5 check sum: 8e4df49b7f0d34bbd5052bf3f5ea0213
     Pseudo is Ultrasoft, Zval = 12.0
     Generated by new atomic code, or converted to UPF format
     Using radial grid of  851 points,  6 beta functions with:
                l(1) =   0
                l(2) =   0
                l(3) =   1
                l(4) =   1
                l(5) =   2
                l(6) =   2
     Q(r) pseudized with  8 coefficients,  rinner =    1.000   1.000   1.000
                                                       1.000   1.000

     PseudoPot. # 2 for O  read from file:
     /storage/coda1/p-amedford6/0/shared/rich_project_chbe-medford/medford-share/data/pseudos_module/espresso/nninc/pbe/van/O.UPF
     MD5 check sum: 78c19812648e8988a0fe644b0f25305e
     Pseudo is Ultrasoft, Zval =  6.0
     Generated by new atomic code, or converted to UPF format
     Using radial grid of  737 points,  4 beta functions with:
                l(1) =   0
                l(2) =   0
                l(3) =   1
                l(4) =   1
     Q(r) pseudized with  8 coefficients,  rinner =    0.800   0.800   0.800

     PseudoPot. # 3 for C  read from file:
     /storage/coda1/p-amedford6/0/shared/rich_project_chbe-medford/medford-share/data/pseudos_module/espresso/nninc/pbe/van/C.UPF
     MD5 check sum: 1a69bf6b8db32088f5b2163dbdb77a27
     Pseudo is Ultrasoft, Zval =  4.0
     Generated by new atomic code, or converted to UPF format
     Using radial grid of  721 points,  4 beta functions with:
                l(1) =   0
                l(2) =   0
                l(3) =   1
                l(4) =   1
     Q(r) pseudized with  8 coefficients,  rinner =    0.800   0.800   0.800

     PseudoPot. # 4 for H  read from file:
     /storage/coda1/p-amedford6/0/shared/rich_project_chbe-medford/medford-share/data/pseudos_module/espresso/nninc/pbe/van/H.UPF
     MD5 check sum: b5ee9d7bfd3a09ee7748110bda690ff7
     Pseudo is Ultrasoft, Zval =  1.0
     Generated by new atomic code, or converted to UPF format
     Using radial grid of  615 points,  1 beta functions with:
                l(1) =   0
     Q(r) pseudized with  8 coefficients,  rinner =    0.800

     atomic species   valence    mass     pseudopotential
        Ti1           12.00    47.86700     Ti( 1.00)
        O1             6.00    15.99900     O ( 1.00)
        C1             4.00    12.01100     C ( 1.00)
        H1             1.00     1.00800     H ( 1.00)

     No symmetry found

   Cartesian axes

     site n.     atom                  positions (alat units)
         1           Ti1 tau(   1) = (   0.0004258   2.9801865   6.0000000  )
         2           Ti1 tau(   2) = (   3.2906075   1.4906267   6.0002472  )
         3           O1  tau(   3) = (   0.0006271   0.0005054   7.9858123  )
         4           O1  tau(   4) = (   3.2906025   0.0005020   7.3038282  )
         5           O1  tau(   5) = (   4.5942328   1.4918067   9.2879030  )
         6           O1  tau(   6) = (   1.9868534   1.4903216   9.2879459  )
         7           Ti1 tau(   7) = (   3.2871774   2.8648350   9.1721854  )
         8           Ti1 tau(   8) = (  -0.0000353   1.4301884   9.3769680  )
         9           O1  tau(   9) = (   3.2813214   0.0053726  11.3480220  )
        10           O1  tau(  10) = (  -0.0004909   5.9494466  10.5591019  )
        11           O1  tau(  11) = (   1.2709337   1.5062281  12.6398922  )
        12           O1  tau(  12) = (   5.2659652   1.5004022  12.6256763  )
        13           Ti1 tau(  13) = (   0.0747037   2.9811850  12.8215060  )
        14           Ti1 tau(  14) = (   3.3904977   1.4744036  12.5039750  )
        15           O1  tau(  15) = (   6.5763451   5.9564350  14.6046450  )
        16           O1  tau(  16) = (   3.2806839   0.0238217  13.9603601  )
        17           O1  tau(  17) = (   4.5226094   1.5694261  16.0518702  )
        18           O1  tau(  18) = (   2.0202940   1.5641231  16.0352509  )
        19           Ti1 tau(  19) = (   3.2640091   3.0260151  15.6942499  )
        20           Ti1 tau(  20) = (   6.5358820   1.5903963  16.1090211  )
        21           O1  tau(  21) = (   3.2904802   0.0005063   4.7018136  )
        22           O1  tau(  22) = (   6.5569505   0.0478586  17.2430089  )
        23           O1  tau(  23) = (   1.3043587   1.4918075   6.0039043  )
        24           O1  tau(  24) = (   5.2767064   1.4903225   6.0039473  )
        25           Ti1 tau(  25) = (   0.0000382   5.9609847   6.0000000  )
        26           Ti1 tau(  26) = (   3.2902200   4.4714249   6.0002472  )
        27           O1  tau(  27) = (   0.0002396   2.9813036   7.9858123  )
        28           O1  tau(  28) = (   3.2902150   2.9813002   7.3038282  )
        29           O1  tau(  29) = (   4.5938453   4.4726049   9.2879030  )
        30           O1  tau(  30) = (   1.9864658   4.4711199   9.2879459  )
        31           Ti1 tau(  31) = (   3.2859829   5.8469316   9.1661464  )
        32           Ti1 tau(  32) = (  -0.0001559   4.4089299   9.3799519  )
        33           O1  tau(  33) = (   3.2865236   2.9807090  11.3458169  )
        34           O1  tau(  34) = (   6.5781283   2.9667683  10.5610256  )
        35           O1  tau(  35) = (   1.2712900   4.4620179  12.6345536  )
        36           O1  tau(  36) = (   5.2651022   4.4720110  12.6184623  )
        37           Ti1 tau(  37) = (   0.0601624   5.9591143  12.7910897  )
        38           Ti1 tau(  38) = (   3.3902089   4.4660181  12.4873354  )
        39           O1  tau(  39) = (   6.5660314   2.9936061  14.6787526  )
        40           O1  tau(  40) = (   3.2777068   3.0094971  13.9036223  )
        41           O1  tau(  41) = (   4.5190982   4.4944638  16.0861991  )
        42           O1  tau(  42) = (   2.0255100   4.4980322  16.0740450  )
        43           Ti1 tau(  43) = (   3.2415938   0.0554625  15.8014791  )
        44           Ti1 tau(  44) = (   6.5310484   4.6110724  16.1360643  )
        45           O1  tau(  45) = (   3.2900926   2.9813045   4.7018136  )
        46           O1  tau(  46) = (   1.3039711   4.4726057   6.0039043  )
        47           O1  tau(  47) = (   5.2763189   4.4711207   6.0039473  )
        48           C1  tau(  48) = (   0.0160176   3.0093394  17.4896075  )
        49           H1  tau(  49) = (   0.0793418   3.1169436  18.5737113  )
        50           O1  tau(  50) = (   3.2580281   0.1600328  18.1801156  )
        51           H1  tau(  51) = (   4.0450954   5.6463884  18.5036456  )
        52           H1  tau(  52) = (   2.4770123   5.6427573  18.5175526  )

     number of k points=    10  Fermi-Dirac smearing, width (Ry)=  0.0073
                       cart. coord. in units 2pi/alat
        k(    1) = (   0.0000000   0.0000000   0.0000000), wk =   0.1250000
        k(    2) = (   0.0000000   0.0419351   0.0000000), wk =   0.2500000
        k(    3) = (   0.0000000  -0.0838702   0.0000000), wk =   0.1250000
        k(    4) = (   0.0379955   0.0000049   0.0000000), wk =   0.2500000
        k(    5) = (   0.0379955   0.0419400   0.0000000), wk =   0.2500000
        k(    6) = (   0.0379955  -0.0838652   0.0000000), wk =   0.2500000
        k(    7) = (   0.0379955  -0.0419301   0.0000000), wk =   0.2500000
        k(    8) = (  -0.0759910  -0.0000099   0.0000000), wk =   0.1250000
        k(    9) = (  -0.0759910   0.0419252   0.0000000), wk =   0.2500000
        k(   10) = (  -0.0759910  -0.0838800   0.0000000), wk =   0.1250000

     Initial potential from superposition of free atoms

     starting charge  374.99918, renormalised to  391.00000

     negative rho (up, down):  1.887E-02 0.000E+00

     %%%%%%%%%%%%%%%%%%%%%%%%%%%%%%%%%%%%%%%%%%%%%%%%%%%%%%%%%%%%%%%%%%%%%%%%
     %                                                                      %
     % You are using vdW-DF, which was implemented by the Thonhauser group. %
     % Please cite the following two papers that made this development      %
     % possible and the two reviews that describe the various versions:     %
     %                                                                      %
     %   T. Thonhauser et al., PRL 115, 136402 (2015).                      %
     %   T. Thonhauser et al., PRB 76, 125112 (2007).                       %
     %   K. Berland et al., Rep. Prog. Phys. 78, 066501 (2015).             %
     %   D.C. Langreth et al., J. Phys.: Condens. Matter 21, 084203 (2009). %
     %                                                                      %
     %                                                                      %
     % If you are calculating the stress with vdW-DF, please also cite:     %
     %                                                                      %
     %   R. Sabatini et al., J. Phys.: Condens. Matter 24, 424209 (2012).   %
     %                                                                      %
     %%%%%%%%%%%%%%%%%%%%%%%%%%%%%%%%%%%%%%%%%%%%%%%%%%%%%%%%%%%%%%%%%%%%%%%%

     Adding external electric field

     Computed dipole along edir(3) :
        Dipole               -4.6207 Ry au,        -11.7446 Debye
        Dipole field         -0.0087 Ry au,

        Potential amp.        0.8083 Ry
        Total length         46.3494 bohr

     Starting wfcs are  295 atomic wfcs
  @ DRIVER MODE: Message from server: STATUS
  @ DRIVER MODE: Message from server: POSDATA
  @ DRIVER MODE: Reading and sharing cell
  @ DRIVER MODE: Reading and sharing positions
  @ DRIVER MODE: Received positions

     Self-consistent Calculation

     iteration #  1     ecut=    29.40 Ry     beta= 0.05
     Davidson diagonalization with overlap
     c_bands:  4 eigenvalues not converged
     c_bands:  1 eigenvalues not converged
     c_bands:  1 eigenvalues not converged
     c_bands:  1 eigenvalues not converged
     c_bands:  2 eigenvalues not converged
     c_bands:  1 eigenvalues not converged
     c_bands:  2 eigenvalues not converged
     c_bands:  1 eigenvalues not converged
     c_bands:  1 eigenvalues not converged
     ethr =  1.00E-05,  avg # of iterations = 19.7

[...]

     total energy              =   -2877.60255525 Ry
     estimated scf accuracy    <     611.49847173 Ry

     iteration #  2     ecut=    29.40 Ry     beta= 0.05
     Davidson diagonalization with overlap
     ethr =  1.00E-02,  avg # of iterations = 14.8

[...]

     iteration # 32     ecut=    29.40 Ry     beta= 0.05
     Davidson diagonalization with overlap
     c_bands:  1 eigenvalues not converged
     c_bands:  1 eigenvalues not converged
     c_bands:  1 eigenvalues not converged
     ethr =  5.54E-07,  avg # of iterations = 12.6

[...]

     total energy              =   -2931.21615221 Ry
     estimated scf accuracy    <       0.00000014 Ry

     iteration # 54     ecut=    29.40 Ry     beta= 0.05
     Davidson diagonalization with overlap
     ethr =  3.29E-11,  avg # of iterations =  4.9

     negative rho (up, down):  1.826E-02 0.000E+00

     Adding external electric field

     Computed dipole along edir(3) :
        Dipole                0.7859 Ry au,          1.9974 Debye
        Dipole field          0.0015 Ry au,

        Potential amp.       -0.1375 Ry
        Total length         46.3494 bohr

     End of self-consistent calculation

          k = 0.0000 0.0000 0.0000 ( 18029 PWs)   bands (ev):

   -56.2782 -56.2445 -55.9080 -55.8888 -55.8695 -55.7093 -55.6576 -55.6505
   -55.6164 -55.5712 -55.5676 -55.5358 -55.0502 -55.0273 -55.0163 -54.9678
   -32.7051 -32.5263 -32.4981 -32.4692 -32.4440 -32.3781 -32.3320 -32.3012
   -32.2087 -32.1408 -32.1337 -32.1315 -32.1187 -32.1141 -32.0900 -32.0765
   -32.0732 -32.0649 -32.0297 -31.9251 -31.9044 -31.8937 -31.8879 -31.8828
   -31.8762 -31.8633 -31.8215 -31.8079 -31.7968 -31.7875 -31.7661 -31.7502
   -31.7462 -31.7349 -31.7290 -31.6750 -31.5631 -31.4497 -31.3775 -31.3536
   -31.2965 -31.2680 -31.2634 -31.2596 -31.1830 -31.1686 -31.0712 -31.0372
   -19.1950 -16.5792 -16.4289 -16.1906 -16.0551 -15.9607 -15.7852 -15.6426
   -15.6152 -15.5218 -15.5177 -15.4328 -15.4233 -15.3811 -15.3746 -15.3709
   -15.3544 -15.3243 -15.2848 -15.2755 -15.2684 -15.2372 -15.1758 -15.0834
   -15.0564 -15.0096 -14.9055 -14.8935 -14.8608 -14.6821 -13.5446 -13.4313
    -7.5487  -6.9759  -4.0228  -3.9400  -3.8234  -3.7801  -3.6945  -3.5933
    -3.3540  -3.3472  -3.0736  -3.0375  -2.9831  -2.9558  -2.9424  -2.8755
    -2.8019  -2.7582  -2.7204  -2.7011  -2.6822  -2.6590  -2.6542  -2.5894
    -2.5469  -2.4900  -2.4788  -2.4607  -2.3741  -2.3056  -2.2496  -2.2211
    -2.2142  -2.1744  -2.0969  -2.0795  -2.0661  -2.0140  -1.8989  -1.8163
    -1.7470  -1.7146  -1.6474  -1.6131  -1.5335  -1.4339  -1.3863  -1.3082
    -1.2906  -1.2857  -1.2234  -1.2058  -1.1295  -1.0393  -0.9797  -0.9280
    -0.8383  -0.8166  -0.7888  -0.7412  -0.7240  -0.6866  -0.6573  -0.6226
    -0.5682  -0.5561  -0.4723  -0.3249  -0.3073  -0.2822  -0.2663  -0.2247
    -0.1903  -0.1296  -0.1071  -0.0584  -0.0381   0.0053   0.0179   0.0567
     0.0855   0.1447   0.2614   0.2818   0.3003   0.3754   0.4896   0.5363
     0.5888   0.6909   0.7033   0.9046   0.9283   0.9767   1.1918   1.2331
     1.5619   1.6346   1.8895   2.6353   2.9937   3.1772   3.4664   3.4819
     3.5147   3.5875   3.7148   3.7488   3.8157

[...]

          k = 0.0380-0.0419 0.0000 ( 17876 PWs)   bands (ev):

[...]

          k =-0.0760-0.0000 0.0000 ( 17886 PWs)   bands (ev):

[...]

          k =-0.0760-0.0839 0.0000 ( 17948 PWs)   bands (ev):

   -56.2628 -56.2597 -55.8960 -55.8871 -55.8813 -55.7109 -55.6541 -55.6348
   -55.6318 -55.5711 -55.5557 -55.5511 -55.0332 -55.0332 -55.0219 -54.9731
   -32.5240 -32.5212 -32.5136 -32.5099 -32.4232 -32.4207 -32.2591 -32.2399
   -32.1780 -32.1685 -32.1529 -32.1047 -32.1038 -32.0966 -32.0847 -32.0600
   -32.0176 -31.9703 -31.9635 -31.9617 -31.9127 -31.9023 -31.8931 -31.8886
   -31.8825 -31.8720 -31.8702 -31.8620 -31.8452 -31.8424 -31.8120 -31.8047
   -31.7707 -31.7656 -31.7616 -31.7571 -31.4524 -31.3665 -31.3665 -31.3250
   -31.2929 -31.2658 -31.2641 -31.2638 -31.2256 -31.2255 -31.1837 -31.0766
   -19.1941 -16.0574 -15.9575 -15.8162 -15.7823 -15.7446 -15.7436 -15.6979
   -15.6638 -15.6346 -15.6304 -15.5425 -15.5124 -15.4877 -15.4833 -15.4170
   -15.4103 -15.4044 -15.4006 -15.3307 -15.3252 -15.2272 -15.2183 -15.1373
   -15.1300 -15.0950 -15.0765 -15.0329 -15.0305 -14.8279 -13.5337 -13.5336
    -7.5540  -6.9672  -3.6648  -3.3505  -3.1607  -3.0273  -2.9855  -2.8973
    -2.8719  -2.8627  -2.8622  -2.7991  -2.7551  -2.7444  -2.7038  -2.6776
    -2.6714  -2.6491  -2.6449  -2.6137  -2.6117  -2.6065  -2.6041  -2.5908
    -2.5542  -2.5073  -2.5042  -2.4919  -2.4849  -2.4362  -2.3677  -2.3301
    -2.2565  -2.1626  -2.1615  -2.0890  -2.0538  -1.9806  -1.9708  -1.9649
    -1.9461  -1.9211  -1.7815  -1.6743  -1.6509  -1.6344  -1.5835  -1.5749
    -1.5208  -1.3269  -1.3102  -1.2509  -1.1828  -1.1603  -1.1208  -1.1092
    -1.0489  -1.0446  -1.0243  -0.9888  -0.9793  -0.9350  -0.9071  -0.8199
    -0.7974  -0.7695  -0.7497  -0.6803  -0.6544  -0.6135  -0.5754  -0.5478
    -0.5297  -0.5069  -0.4346  -0.3918  -0.3262  -0.2823  -0.2172   0.0243
     0.0320   0.2214   0.2981   0.3882   0.4535   0.4738   0.4880   0.5501
     0.6190   0.6258   0.6417   0.6629   0.7374   0.7421   1.3629   1.3654
     1.4162   1.4167   2.1048   2.5284   3.5388   3.5435   3.5583   3.5792
     3.5872   3.6322   3.6478   3.6813   3.9488

     the Fermi energy is     2.4971 ev

!    total energy              =   -2931.21622785 Ry
     estimated scf accuracy    <       0.00000006 Ry
     smearing contrib. (-TS)   =      -0.01054055 Ry
     internal energy E=F+TS    =   -2931.20568730 Ry

     The total energy is F=E-TS. E is the sum of the following terms:
     one-electron contribution =  -24525.67527948 Ry
     hartree contribution      =   12349.30516236 Ry
     xc contribution           =    -481.84039674 Ry
     ewald contribution        =    9727.00366115 Ry
     electric field correction =       0.00116542 Ry

     convergence has been achieved in  54 iterations

     Forces acting on atoms (cartesian axes, Ry/au):

     atom    1 type  1   force =     0.00016641   -0.00008538    0.14783054
     atom    2 type  1   force =     0.00001381    0.00056337   -0.16849148
     atom    3 type  2   force =     0.00012296    0.00257713   -0.06041815
     atom    4 type  2   force =    -0.00023193   -0.00139735    0.04034779
     atom    5 type  2   force =    -0.02184725    0.00008955    0.00384407
     atom    6 type  2   force =     0.02069472   -0.00004026    0.00305153
     atom    7 type  1   force =     0.00105434    0.00044648    0.00002078
     atom    8 type  1   force =    -0.00060125    0.00111818   -0.00045069
     atom    9 type  2   force =    -0.00007308    0.00015470   -0.00039740
     atom   10 type  2   force =     0.00022788   -0.00015705    0.00047183
     atom   11 type  2   force =     0.00010270   -0.00023097    0.00008597
     atom   12 type  2   force =    -0.00026801   -0.00027128   -0.00007560
     atom   13 type  1   force =     0.00015684   -0.00046634   -0.00055151
     atom   14 type  1   force =     0.00022741   -0.00026046    0.00054510
     atom   15 type  2   force =     0.00005524   -0.00022343    0.00020734
     atom   16 type  2   force =    -0.00003245    0.00012327   -0.00005375
     atom   17 type  2   force =    -0.00011546    0.00024329   -0.00055324
     atom   18 type  2   force =    -0.00039091   -0.00003835   -0.00016797
     atom   19 type  1   force =     0.00052734    0.00068517   -0.00013620
     atom   20 type  1   force =    -0.00045741   -0.00072881    0.00122704
     atom   21 type  2   force =     0.00009008   -0.00009972    0.10202298
     atom   22 type  2   force =    -0.00000624    0.00033798   -0.00033817
     atom   23 type  2   force =    -0.07527541    0.00018183   -0.03468479
     atom   24 type  2   force =     0.07529982    0.00061961   -0.03477483
     atom   25 type  1   force =    -0.00003199   -0.00011702    0.14837448
     atom   26 type  1   force =     0.00006101   -0.00186991   -0.16841664
     atom   27 type  2   force =     0.00016254    0.00246387   -0.05952759
     atom   28 type  2   force =    -0.00017096   -0.00144673    0.04095248
     atom   29 type  2   force =    -0.02195335    0.00144549    0.00420596
     atom   30 type  2   force =     0.02065267    0.00072983    0.00338701
     atom   31 type  1   force =     0.00110293   -0.00045726    0.00003398
     atom   32 type  1   force =    -0.00066579   -0.00067382   -0.00040936
     atom   33 type  2   force =     0.00011518   -0.00014027   -0.00062484
     atom   34 type  2   force =     0.00021826    0.00062423   -0.00051936
     atom   35 type  2   force =    -0.00014981    0.00015880   -0.00016388
     atom   36 type  2   force =     0.00053845   -0.00031040   -0.00013365
     atom   37 type  1   force =     0.00006913    0.00048117    0.00008494
     atom   38 type  1   force =    -0.00006831    0.00035613    0.00042473
     atom   39 type  2   force =     0.00001619   -0.00056591    0.00047343
     atom   40 type  2   force =    -0.00006178   -0.00042064    0.00044469
     atom   41 type  2   force =    -0.00076273   -0.00081912   -0.00002314
     atom   42 type  2   force =     0.00054498   -0.00049200    0.00032557
     atom   43 type  1   force =     0.00088448   -0.00078159   -0.00027396
     atom   44 type  1   force =    -0.00055976   -0.00010681    0.00019686
     atom   45 type  2   force =     0.00008544   -0.00009167    0.10196127
     atom   46 type  2   force =    -0.07529299    0.00010333   -0.03469528
     atom   47 type  2   force =     0.07532509    0.00054336   -0.03479690
     atom   48 type  3   force =    -0.00000333   -0.00085927   -0.00042980
     atom   49 type  4   force =     0.00027822   -0.00015630    0.00025130
     atom   50 type  2   force =    -0.00038193   -0.01063755    0.00758365
     atom   51 type  4   force =    -0.00558418    0.00474289   -0.00329451
     atom   52 type  4   force =     0.00619220    0.00515604   -0.00395260

     Total force =     0.402068     Total SCF correction =     0.001009
  @ DRIVER MODE: Message from server: STATUS
  @ DRIVER MODE: Message from server: GETFORCE
  @ DRIVER MODE: Returning v,forces,stress,ensemble

     Writing output data file ./calc.save/
  @ DRIVER MODE: Message from server: EXIT
  @ DRIVE MODE: Exiting

     General routines

     Parallel routines

   This run was terminated on:  19:41:47  15Sep2021

   JOB DONE.