     Program PWSCF v.6.7GPU starts on 16Jul2021 at 23: 3:41

     R & G space division:  proc/nbgrp/npool/nimage =      16
     Reading input from /storage/home/hcoda1/3/ntian30/research/carbon/15Jul_vib/ads_slab/CH3NNHH_a/out_0046/pw.inp
Warning: card &CELL ignored
Warning: card   CELL_DYNAMICS='IPI', ignored
Warning: card / ignored

     Current dimensions of program PWSCF are:
     Max number of different atomic species (ntypx) = 10
     Max number of k-points (npk) =  40000
     Max angular momentum in pseudopotentials (lmaxx) =  3
     Presently no symmetry can be used with electric field

     Message from routine cell_base_init:
     DEPRECATED: use true lattice parameter, not A to a.u. conversion factor

     IMPORTANT: XC functional enforced from input :
     Exchange-correlation= BEEF-VDW
                           (   1   4  43  14   2   0   0)
     Any further DFT definition will be discarded
     Please, verify this is what you really want

  @ DRIVER MODE: Connecting to
 qe_1139763_2351651.sched-torque.pace.gatech.eduxrvhr5mu_scratch
  using UNIX socket
  @ DRIVER MODE: Message from server: STATUS
  @ DRIVER MODE: Message from server: INIT
  @ DRIVER MODE: Receiving replica           0          -1
  @ DRIVER MODE: Receiving encoded integer          25
  @ DRIVER MODE:  SCF:  T  FORCE:  T  STRESS:  F  VC:  F  ENSEMBLE:  F
  @ DRIVER MODE:  SCF:  T  FORCE:  T  STRESS:  F  VC:  F  ENSEMBLE:  F

     Using Slab Decomposition

     bravais-lattice index     =            0
     lattice parameter (alat)  =       1.8897  a.u.
     unit-cell volume          =    6658.9804 (a.u.)^3
     number of atoms/cell      =           55
     number of atomic types    =            5
     number of electrons       =       397.00
     number of Kohn-Sham states=          208
     kinetic-energy cutoff     =      29.3995  Ry
     charge density cutoff     =     293.9946  Ry
     scf convergence threshold =      7.3E-08
     mixing beta               =       0.0500
     number of iterations used =            8  plain     mixing
     Exchange-correlation= BEEF-VDW
                           (   1   4  43  14   2   0   0)

     celldm(1)=   1.889726  celldm(2)=   0.000000  celldm(3)=   0.000000
     celldm(4)=   0.000000  celldm(5)=   0.000000  celldm(6)=   0.000000

     crystal axes: (cart. coord. in units of alat)
               a(1) = (   6.579727   0.000000   0.000000 )
               a(2) = (  -0.000775   5.961596   0.000000 )
               a(3) = (   0.000000   0.000000  25.155947 )

     reciprocal axes: (cart. coord. in units 2 pi/alat)
               b(1) = (  0.151982  0.000020  0.000000 )
               b(2) = (  0.000000  0.167740  0.000000 )
               b(3) = (  0.000000  0.000000  0.039752 )

     PseudoPot. # 1 for Ti read from file:
     /storage/coda1/p-amedford6/0/shared/rich_project_chbe-medford/medford-share/data/pseudos_module/espresso/nninc/pbe/van/Ti.UPF
     MD5 check sum: 8e4df49b7f0d34bbd5052bf3f5ea0213
     Pseudo is Ultrasoft, Zval = 12.0
     Generated by new atomic code, or converted to UPF format
     Using radial grid of  851 points,  6 beta functions with:
                l(1) =   0
                l(2) =   0
                l(3) =   1
                l(4) =   1
                l(5) =   2
                l(6) =   2
     Q(r) pseudized with  8 coefficients,  rinner =    1.000   1.000   1.000
                                                       1.000   1.000

     PseudoPot. # 2 for O  read from file:
     /storage/coda1/p-amedford6/0/shared/rich_project_chbe-medford/medford-share/data/pseudos_module/espresso/nninc/pbe/van/O.UPF
     MD5 check sum: 78c19812648e8988a0fe644b0f25305e
     Pseudo is Ultrasoft, Zval =  6.0
     Generated by new atomic code, or converted to UPF format
     Using radial grid of  737 points,  4 beta functions with:
                l(1) =   0
                l(2) =   0
                l(3) =   1
                l(4) =   1
     Q(r) pseudized with  8 coefficients,  rinner =    0.800   0.800   0.800

     PseudoPot. # 3 for N  read from file:
     /storage/coda1/p-amedford6/0/shared/rich_project_chbe-medford/medford-share/data/pseudos_module/espresso/nninc/pbe/van/N.UPF
     MD5 check sum: 90d10febe142ad51ac9d5be1deb811c4
     Pseudo is Ultrasoft, Zval =  5.0
     Generated by new atomic code, or converted to UPF format
     Using radial grid of  729 points,  4 beta functions with:
                l(1) =   0
                l(2) =   0
                l(3) =   1
                l(4) =   1
     Q(r) pseudized with  8 coefficients,  rinner =    0.800   0.800   0.800

     PseudoPot. # 4 for C  read from file:
     /storage/coda1/p-amedford6/0/shared/rich_project_chbe-medford/medford-share/data/pseudos_module/espresso/nninc/pbe/van/C.UPF
     MD5 check sum: 1a69bf6b8db32088f5b2163dbdb77a27
     Pseudo is Ultrasoft, Zval =  4.0
     Generated by new atomic code, or converted to UPF format
     Using radial grid of  721 points,  4 beta functions with:
                l(1) =   0
                l(2) =   0
                l(3) =   1
                l(4) =   1
     Q(r) pseudized with  8 coefficients,  rinner =    0.800   0.800   0.800

     PseudoPot. # 5 for H  read from file:
     /storage/coda1/p-amedford6/0/shared/rich_project_chbe-medford/medford-share/data/pseudos_module/espresso/nninc/pbe/van/H.UPF
     MD5 check sum: b5ee9d7bfd3a09ee7748110bda690ff7
     Pseudo is Ultrasoft, Zval =  1.0
     Generated by new atomic code, or converted to UPF format
     Using radial grid of  615 points,  1 beta functions with:
                l(1) =   0
     Q(r) pseudized with  8 coefficients,  rinner =    0.800

     atomic species   valence    mass     pseudopotential
        Ti1           12.00    47.86700     Ti( 1.00)
        O1             6.00    15.99900     O ( 1.00)
        N1             5.00    14.00700     N ( 1.00)
        C1             4.00    12.01100     C ( 1.00)
        H1             1.00     1.00800     H ( 1.00)

     Starting magnetic structure
     atomic species   magnetization
        Ti1          0.000
        O1           0.000
        N1           0.000
        C1           0.025
        H1           0.000

     No symmetry found

   Cartesian axes

     site n.     atom                  positions (alat units)
         1           Ti1 tau(   1) = (   0.0004258   2.9801865   6.0000000  )
         2           Ti1 tau(   2) = (   3.2906075   1.4906267   6.0002472  )
         3           O1  tau(   3) = (   0.0006271   0.0005054   7.9858123  )
         4           O1  tau(   4) = (   3.2906025   0.0005020   7.3038282  )
         5           O1  tau(   5) = (   4.5942328   1.4918067   9.2879030  )
         6           O1  tau(   6) = (   1.9868534   1.4903216   9.2879459  )
         7           Ti1 tau(   7) = (   3.2907910   2.8959150   9.1758416  )
         8           Ti1 tau(   8) = (   0.0015273   1.4827037   9.2680791  )
         9           O1  tau(   9) = (   3.3020592   5.9599881  11.3075072  )
        10           O1  tau(  10) = (   0.0116148   5.9584955  10.6183126  )
        11           O1  tau(  11) = (   1.3218652   1.4872367  12.6142461  )
        12           O1  tau(  12) = (   5.3149618   1.4866655  12.6283206  )
        13           Ti1 tau(  13) = (   6.5343381   3.0098038  12.6530281  )
        14           Ti1 tau(  14) = (   3.2132235   1.4912063  12.4551521  )
        15           O1  tau(  15) = (   0.0515422   5.9562953  14.6829507  )
        16           O1  tau(  16) = (   3.3088797   0.0214154  13.8770011  )
        17           O1  tau(  17) = (   4.5726725   1.5412406  16.1224456  )
        18           O1  tau(  18) = (   2.0900022   1.5114086  15.9969863  )
        19           Ti1 tau(  19) = (   3.3311046   3.0200058  15.6476981  )
        20           Ti1 tau(  20) = (   0.0790784   1.4105808  15.8036947  )
        21           O1  tau(  21) = (   3.2904802   0.0005063   4.7018136  )
        22           O1  tau(  22) = (   0.0613336   0.0214447  17.2555488  )
        23           O1  tau(  23) = (   1.3043587   1.4918075   6.0039043  )
        24           O1  tau(  24) = (   5.2767064   1.4903225   6.0039473  )
        25           Ti1 tau(  25) = (   0.0000382   5.9609847   6.0000000  )
        26           Ti1 tau(  26) = (   3.2902200   4.4714249   6.0002472  )
        27           O1  tau(  27) = (   0.0002396   2.9813036   7.9858123  )
        28           O1  tau(  28) = (   3.2902150   2.9813002   7.3038282  )
        29           O1  tau(  29) = (   4.5938453   4.4726049   9.2879030  )
        30           O1  tau(  30) = (   1.9864658   4.4711199   9.2879459  )
        31           Ti1 tau(  31) = (   3.2891106   5.8743827   9.1763621  )
        32           Ti1 tau(  32) = (   0.0006254   4.4649316   9.2693709  )
        33           O1  tau(  33) = (   3.3026341   2.9893090  11.3092672  )
        34           O1  tau(  34) = (   0.0092240   2.9805883  10.6323155  )
        35           O1  tau(  35) = (   1.3182942   4.4670451  12.6271195  )
        36           O1  tau(  36) = (   5.3124783   4.4780259  12.6376329  )
        37           Ti1 tau(  37) = (   6.5365500   0.0194685  12.5464133  )
        38           Ti1 tau(  38) = (   3.2155898   4.4753301  12.4613306  )
        39           O1  tau(  39) = (   0.0167368   2.9407051  14.7244952  )
        40           O1  tau(  40) = (   3.3149560   2.9822459  13.8616979  )
        41           O1  tau(  41) = (   4.5706274   4.5128733  15.9228735  )
        42           O1  tau(  42) = (   2.1262058   4.4922812  16.0793225  )
        43           Ti1 tau(  43) = (   3.3222298   0.0210159  15.6751784  )
        44           Ti1 tau(  44) = (   6.5499002   4.5104744  16.2959303  )
        45           O1  tau(  45) = (   3.2900926   2.9813045   4.7018136  )
        46           O1  tau(  46) = (   1.3039711   4.4726057   6.0039043  )
        47           O1  tau(  47) = (   5.2763189   4.4711207   6.0039473  )
        48           N1  tau(  48) = (   0.3735289   2.9861087  17.6038306  )
        49           C1  tau(  49) = (   1.3580301   2.7301661  18.6431808  )
        50           H1  tau(  50) = (   1.5128655   3.6233449  19.2641712  )
        51           H1  tau(  51) = (   1.0354786   1.8978442  19.2795547  )
        52           H1  tau(  52) = (   2.3065860   2.4473273  18.1987077  )
        53           N1  tau(  53) = (   5.7326324   3.4596218  18.1373629  )
        54           H1  tau(  54) = (   5.8436824   4.0267099  18.9748678  )
        55           H1  tau(  55) = (   5.0375616   2.7344768  18.2555579  )

     number of k points=    10  Fermi-Dirac smearing, width (Ry)=  0.0073
                       cart. coord. in units 2pi/alat
        k(    1) = (   0.0000000   0.0000000   0.0000000), wk =   0.0625000
        k(    2) = (   0.0000000   0.0419351   0.0000000), wk =   0.1250000
        k(    3) = (   0.0000000  -0.0838702   0.0000000), wk =   0.0625000
        k(    4) = (   0.0379955   0.0000049   0.0000000), wk =   0.1250000
        k(    5) = (   0.0379955   0.0419400   0.0000000), wk =   0.1250000
        k(    6) = (   0.0379955  -0.0838652   0.0000000), wk =   0.1250000
[...]
     %                                                                      %
     % You are using vdW-DF, which was implemented by the Thonhauser group. %
     % Please cite the following two papers that made this development      %
     % possible and the two reviews that describe the various versions:     %
     %                                                                      %
     %   T. Thonhauser et al., PRL 115, 136402 (2015).                      %
     %   T. Thonhauser et al., PRB 76, 125112 (2007).                       %
     %   K. Berland et al., Rep. Prog. Phys. 78, 066501 (2015).             %
     %   D.C. Langreth et al., J. Phys.: Condens. Matter 21, 084203 (2009). %
     %                                                                      %
     %                                                                      %
     % If you are calculating the stress with vdW-DF, please also cite:     %
     %                                                                      %
     %   R. Sabatini et al., J. Phys.: Condens. Matter 24, 424209 (2012).   %
     %                                                                      %
     %%%%%%%%%%%%%%%%%%%%%%%%%%%%%%%%%%%%%%%%%%%%%%%%%%%%%%%%%%%%%%%%%%%%%%%%

     Adding external electric field

     Computed dipole along edir(3) :
        Dipole               -9.2582 Ry au,        -23.5319 Debye
        Dipole field         -0.0175 Ry au,

        Potential amp.        1.6196 Ry
        Total length         46.3494 bohr

[...]

     Starting wfcs are  301 atomic wfcs
  @ DRIVER MODE: Message from server: STATUS
  @ DRIVER MODE: Message from server: POSDATA
  @ DRIVER MODE: Reading and sharing cell
  @ DRIVER MODE: Reading and sharing positions
  @ DRIVER MODE: Received positions

     Self-consistent Calculation

     iteration #  1     ecut=    29.40 Ry     beta= 0.05
     Davidson diagonalization with overlap
     c_bands:  1 eigenvalues not converged
     c_bands:  2 eigenvalues not converged
     c_bands:  1 eigenvalues not converged
     c_bands:  2 eigenvalues not converged
     c_bands:  2 eigenvalues not converged
     c_bands:  2 eigenvalues not converged
     c_bands:  2 eigenvalues not converged
     c_bands:  1 eigenvalues not converged
     c_bands:  4 eigenvalues not converged
     c_bands:  1 eigenvalues not converged
     c_bands:  2 eigenvalues not converged
     c_bands:  1 eigenvalues not converged
     c_bands:  2 eigenvalues not converged
     c_bands:  2 eigenvalues not converged
     c_bands:  2 eigenvalues not converged
     c_bands:  2 eigenvalues not converged
     c_bands:  1 eigenvalues not converged
     c_bands:  4 eigenvalues not converged
     ethr =  1.00E-05,  avg # of iterations = 19.8

[...]

     total energy              =   -2525.28963704 Ry
     estimated scf accuracy    <    4616.13488895 Ry

     total magnetization       =     0.00 Bohr mag/cell
     absolute magnetization    =     0.03 Bohr mag/cell

     iteration #  2     ecut=    29.40 Ry     beta= 0.05
     Davidson diagonalization with overlap
     ethr =  1.00E-02,  avg # of iterations = 23.1

[...]

     iteration # 74     ecut=    29.40 Ry     beta= 0.05
     Davidson diagonalization with overlap
     c_bands:  1 eigenvalues not converged
     ethr =  2.25E-11,  avg # of iterations =  9.3

[...]

     total energy              =   -2941.63801977 Ry
     estimated scf accuracy    <       0.00000009 Ry

[...]

     iteration # 75     ecut=    29.40 Ry     beta= 0.05
     Davidson diagonalization with overlap
     ethr =  2.25E-11,  avg # of iterations =  9.8

     negative rho (up, down):  8.396E-03 8.395E-03

[...]

     Adding external electric field

     Computed dipole along edir(3) :
        Dipole                1.1493 Ry au,          2.9211 Debye
        Dipole field          0.0022 Ry au,

        Potential amp.       -0.2010 Ry
        Total length         46.3494 bohr

     Magnetic moment per site  (integrated on atomic sphere of radius R)
     atom   1 (R=0.726)  charge=  7.9408  magn= -0.0048
     atom   2 (R=0.726)  charge=  7.9244  magn= -0.0000
     atom   3 (R=0.726)  charge=  4.9319  magn=  0.0003
     atom   4 (R=0.726)  charge=  4.9681  magn=  0.0000
     atom   5 (R=0.726)  charge=  4.9368  magn=  0.0000
     atom   6 (R=0.726)  charge=  4.9376  magn=  0.0000
     atom   7 (R=0.726)  charge=  7.9229  magn= -0.0001
     atom   8 (R=0.726)  charge=  7.9151  magn= -0.0012
     atom   9 (R=0.726)  charge=  4.9562  magn= -0.0000
     atom  10 (R=0.726)  charge=  4.9310  magn=  0.0001
     atom  11 (R=0.726)  charge=  4.9388  magn= -0.0000
     atom  12 (R=0.726)  charge=  4.9369  magn= -0.0000
     atom  13 (R=0.726)  charge=  7.9088  magn= -0.0002
     atom  14 (R=0.726)  charge=  7.9273  magn= -0.0000
     atom  15 (R=0.726)  charge=  4.9165  magn=  0.0000
     atom  16 (R=0.726)  charge=  4.9542  magn=  0.0000
     atom  17 (R=0.726)  charge=  4.9068  magn=  0.0000
     atom  18 (R=0.726)  charge=  4.9387  magn=  0.0000
     atom  19 (R=0.726)  charge=  7.9528  magn= -0.0000
     atom  20 (R=0.726)  charge=  7.9410  magn= -0.0000
     atom  21 (R=0.726)  charge=  4.8211  magn= -0.0001
     atom  22 (R=0.726)  charge=  4.9007  magn= -0.0000
     atom  23 (R=0.726)  charge=  4.9281  magn=  0.0005
     atom  24 (R=0.726)  charge=  4.9282  magn=  0.0006
     atom  25 (R=0.726)  charge=  7.9408  magn= -0.0048
     atom  26 (R=0.726)  charge=  7.9244  magn= -0.0000
     atom  27 (R=0.726)  charge=  4.9305  magn=  0.0003
     atom  28 (R=0.726)  charge=  4.9683  magn=  0.0000
     atom  29 (R=0.726)  charge=  4.9375  magn=  0.0000
     atom  30 (R=0.726)  charge=  4.9383  magn=  0.0000
     atom  31 (R=0.726)  charge=  7.9236  magn= -0.0001
     atom  32 (R=0.726)  charge=  7.9153  magn= -0.0012
     atom  33 (R=0.726)  charge=  4.9540  magn= -0.0000
     atom  34 (R=0.726)  charge=  4.9049  magn=  0.0001
     atom  35 (R=0.726)  charge=  4.9378  magn= -0.0000
     atom  36 (R=0.726)  charge=  4.9369  magn= -0.0000
     atom  37 (R=0.726)  charge=  7.9159  magn= -0.0002
     atom  38 (R=0.726)  charge=  7.9271  magn=  0.0000
     atom  39 (R=0.726)  charge=  4.9089  magn= -0.0000
     atom  40 (R=0.726)  charge=  4.9620  magn=  0.0000
     atom  41 (R=0.726)  charge=  4.9464  magn= -0.0000
     atom  42 (R=0.726)  charge=  4.9157  magn= -0.0000
     atom  43 (R=0.726)  charge=  7.9490  magn= -0.0000
     atom  44 (R=0.726)  charge=  7.9600  magn=  0.0000
     atom  45 (R=0.726)  charge=  4.8212  magn= -0.0001
     atom  46 (R=0.726)  charge=  4.9281  magn=  0.0006
     atom  47 (R=0.726)  charge=  4.9282  magn=  0.0006
     atom  48 (R=0.417)  charge=  1.2959  magn= -0.0000
     atom  49 (R=0.448)  charge=  0.8406  magn=  0.0000
     atom  50 (R=0.417)  charge=  0.4361  magn= -0.0000
     atom  51 (R=0.417)  charge=  0.4351  magn= -0.0000
     atom  52 (R=0.417)  charge=  0.4431  magn= -0.0000
     atom  53 (R=0.417)  charge=  1.3198  magn=  0.0000
     atom  54 (R=0.417)  charge=  0.4474  magn=  0.0000
     atom  55 (R=0.417)  charge=  0.4497  magn=  0.0000

     End of self-consistent calculation

 ------ SPIN UP ------------

          k = 0.0000 0.0000 0.0000 ( 18029 PWs)   bands (ev):

   -55.5735 -55.5653 -55.5356 -55.5312 -55.4599 -55.4226 -55.4224 -55.3869
   -55.3686 -55.3346 -55.3261 -55.2922 -55.0302 -54.8735 -54.5369 -54.5028
   -32.1355 -32.0489 -31.9577 -31.8910 -31.8871 -31.8694 -31.8571 -31.8184
   -31.8060 -31.8047 -31.7834 -31.7582 -31.7537 -31.7253 -31.7164 -31.7146
   -31.6708 -31.6592 -31.6574 -31.6475 -31.6467 -31.6214 -31.6123 -31.5951
   -31.5695 -31.5667 -31.5650 -31.5564 -31.5559 -31.5297 -31.5051 -31.5026
   -31.4937 -31.4910 -31.4803 -31.4719 -31.4395 -31.3043 -31.2551 -31.1535
   -31.1262 -31.0345 -30.9431 -30.8563 -30.8338 -30.7600 -30.6736 -30.5624
   -17.5912 -16.3608 -16.0480 -15.8339 -15.7251 -15.7217 -15.6374 -15.4161
   -15.2946 -15.2802 -15.1650 -15.1611 -15.1015 -15.0600 -15.0526 -15.0458
   -15.0130 -15.0016 -14.9835 -14.9476 -14.9150 -14.8968 -14.8733 -14.7716
   -14.7047 -14.6988 -14.6809 -14.6163 -14.5683 -14.2079 -13.0382 -12.9219
   -12.5560  -9.2145  -6.3666  -5.0969  -4.1927  -3.7391  -3.5495  -3.4727
    -3.4375  -3.3700  -3.3546  -3.1801  -3.1722  -2.7933  -2.7739  -2.7559
    -2.7347  -2.7312  -2.4623  -2.4094  -2.3944  -2.3911  -2.3732  -2.3564
    -2.3354  -2.3249  -2.2974  -2.2867  -2.1531  -2.1094  -2.0306  -2.0043
    -1.9889  -1.8776  -1.8523  -1.8322  -1.8206  -1.8072  -1.7778  -1.7711
    -1.7492  -1.6412  -1.5320  -1.4521  -1.4132  -1.3599  -1.3404  -1.1625
    -1.1100  -1.0503  -1.0267  -1.0018  -0.9872  -0.9536  -0.8793  -0.8554
    -0.7123  -0.6738  -0.6196  -0.5936  -0.5648  -0.5095  -0.4754  -0.4452
    -0.3506  -0.3371  -0.3260  -0.3133  -0.2574  -0.0655  -0.0172   0.0018
     0.0168   0.1159   0.1555   0.1797   0.2144   0.2709   0.2994   0.3640
     0.3925   0.4129   0.4234   0.4521   0.4688   0.6009   0.6254   0.6568
     0.7183   0.7717   0.8476   0.9595   1.0423   1.0991   1.2005   1.4188
     1.4863   1.5702   1.6797   1.7106   2.0558   2.1010   3.5684   3.6613
     3.6955   3.7095   3.8157   3.8682   4.0168   4.0261   4.0656   4.0957

[...]

          k =-0.0760-0.0000 0.0000 ( 17886 PWs)   bands (ev):

[...]

 ------ SPIN DOWN ----------

[...]

          k = 0.0380-0.0419 0.0000 ( 17876 PWs)   bands (ev):

[...]

          k =-0.0760-0.0839 0.0000 ( 17948 PWs)   bands (ev):

   -55.5598 -55.5578 -55.5566 -55.5489 -55.4487 -55.4339 -55.4083 -55.4009
   -55.3551 -55.3519 -55.3112 -55.3076 -55.0289 -54.8746 -54.5196 -54.5196
   -31.9412 -31.9307 -31.8684 -31.8677 -31.8530 -31.8521 -31.8430 -31.8264
   -31.8014 -31.7874 -31.7672 -31.7476 -31.7220 -31.7113 -31.7061 -31.6804
   -31.6798 -31.6782 -31.6769 -31.6677 -31.6651 -31.6522 -31.6487 -31.6460
   -31.6255 -31.6124 -31.6020 -31.6011 -31.5524 -31.5503 -31.5440 -31.5416
   -31.5342 -31.5308 -31.5262 -31.5243 -31.4101 -31.3154 -31.2569 -31.2148
   -31.1316 -31.0457 -30.8465 -30.8465 -30.7556 -30.7555 -30.7167 -30.7167
   -17.5794 -15.8207 -15.7808 -15.5258 -15.5168 -15.5141 -15.4742 -15.3504
   -15.3019 -15.2760 -15.2647 -15.2463 -15.2376 -15.1365 -15.1223 -15.1062
   -15.0957 -15.0689 -15.0259 -15.0208 -15.0119 -15.0023 -14.9908 -14.9243
   -14.8721 -14.8682 -14.7540 -14.6625 -14.5219 -14.4328 -13.0246 -13.0244
   -12.5753  -9.1752  -6.3263  -5.1262  -4.1260  -3.4244  -3.1213  -3.0737
    -2.7859  -2.7663  -2.7510  -2.6375  -2.5183  -2.5090  -2.4830  -2.4613
    -2.4270  -2.4142  -2.4040  -2.3961  -2.3779  -2.3599  -2.3491  -2.3095
    -2.2407  -2.2327  -2.2244  -2.2163  -2.1996  -2.1759  -2.1651  -2.1381
    -2.1135  -2.0786  -2.0194  -1.9886  -1.8390  -1.7953  -1.7338  -1.6952
    -1.6866  -1.6576  -1.6240  -1.6166  -1.5056  -1.4916  -1.4579  -1.3280
    -1.2674  -1.2593  -1.2266  -1.1388  -1.1005  -0.9712  -0.9578  -0.9208
    -0.8654  -0.8576  -0.8203  -0.7824  -0.7316  -0.6794  -0.6362  -0.6130
    -0.5950  -0.5231  -0.5226  -0.4757  -0.4193  -0.3493  -0.3261  -0.3187
    -0.2859  -0.2428  -0.1954  -0.1320  -0.0568  -0.0389  -0.0225   0.0766
     0.1499   0.3688   0.4160   0.5125   0.5348   0.5622   0.6225   0.6721
     0.7412   0.7562   0.7843   0.8579   0.8795   0.9717   0.9832   1.0002
     1.1779   1.6467   1.8511   1.8520   1.9199   1.9204   3.8584   3.8743
     3.8987   3.9223   4.0815   4.0853   4.0988   4.1016   4.2221   4.2538

     the Fermi energy is     3.5645 ev

!    total energy              =   -2941.63803051 Ry
     estimated scf accuracy    <       0.00000002 Ry
     smearing contrib. (-TS)   =      -0.02171612 Ry
     internal energy E=F+TS    =   -2941.61631440 Ry

     The total energy is F=E-TS. E is the sum of the following terms:
     one-electron contribution =  -24388.17021800 Ry
     hartree contribution      =   12286.05088245 Ry
     xc contribution           =    -486.94699367 Ry
     ewald contribution        =    9647.44752227 Ry
     electric field correction =       0.00249255 Ry

     total magnetization       =    -0.02 Bohr mag/cell
     absolute magnetization    =     0.03 Bohr mag/cell

     convergence has been achieved in  75 iterations

     Forces acting on atoms (cartesian axes, Ry/au):

     atom    1 type  1   force =    -0.00001373   -0.00019893    0.09685041
     atom    2 type  1   force =     0.00009185   -0.00069109   -0.17462522
     atom    3 type  2   force =     0.00018173   -0.00006121   -0.02512202
     atom    4 type  2   force =     0.00000822   -0.00124771    0.05117132
     atom    5 type  2   force =    -0.01125958   -0.00080203    0.00227642
     atom    6 type  2   force =     0.01310049   -0.00035307    0.00272116
     atom    7 type  1   force =     0.00100273    0.00021644   -0.01340058
     atom    8 type  1   force =    -0.00009994    0.01532713    0.02826389
     atom    9 type  2   force =    -0.00007255   -0.00001167    0.00009381
     atom   10 type  2   force =    -0.00234155    0.00080564   -0.01059090
     atom   11 type  2   force =     0.00035887    0.00005492   -0.00001637
     atom   12 type  2   force =    -0.00043759   -0.00006615    0.00025268
     atom   13 type  1   force =     0.00014859   -0.00018522   -0.00005074
     atom   14 type  1   force =     0.00010583   -0.00022296    0.00003307
     atom   15 type  2   force =    -0.00005442    0.00020143   -0.00010859
     atom   16 type  2   force =    -0.00019879    0.00003264   -0.00018138
     atom   17 type  2   force =    -0.00016601    0.00012470   -0.00007565
     atom   18 type  2   force =    -0.00016726    0.00002595   -0.00015358
     atom   19 type  1   force =    -0.00033942    0.00014472   -0.00001430
     atom   20 type  1   force =    -0.00001116   -0.00054028    0.00024642
     atom   21 type  2   force =     0.00003747   -0.00009251    0.10299914
     atom   22 type  2   force =    -0.00001412    0.00036541    0.00041409
     atom   23 type  2   force =    -0.07179106   -0.00020777   -0.02780153
     atom   24 type  2   force =     0.07175005    0.00024889   -0.02786498
     atom   25 type  1   force =     0.00003066   -0.00025385    0.09644871
     atom   26 type  1   force =    -0.00000322   -0.00029432   -0.17489067
     atom   27 type  2   force =     0.00019187   -0.00025428   -0.02398435
     atom   28 type  2   force =     0.00005383   -0.00100557    0.05144180
     atom   29 type  2   force =    -0.01128732    0.00078678    0.00169063
     atom   30 type  2   force =     0.01297686    0.00111383    0.00208863
     atom   31 type  1   force =     0.00103620    0.00257196   -0.01542110
     atom   32 type  1   force =     0.00005710   -0.01663116    0.02914503
     atom   33 type  2   force =     0.00011751    0.00002836   -0.00011783
     atom   34 type  2   force =    -0.00271200    0.00093586   -0.01869619
     atom   35 type  2   force =     0.00017805   -0.00007279   -0.00009298
     atom   36 type  2   force =    -0.00038113   -0.00007180    0.00012933
     atom   37 type  1   force =    -0.00011135   -0.00019402    0.00015332
     atom   38 type  1   force =     0.00007610    0.00008824   -0.00005771
     atom   39 type  2   force =    -0.00003036    0.00045196   -0.00000501
     atom   40 type  2   force =    -0.00037907    0.00015116   -0.00013202
     atom   41 type  2   force =     0.00009720   -0.00006043   -0.00005605
     atom   42 type  2   force =     0.00002467    0.00020316    0.00003651
     atom   43 type  1   force =     0.00017532    0.00006228   -0.00011789
     atom   44 type  1   force =    -0.00024042   -0.00039109   -0.00018446
     atom   45 type  2   force =     0.00005447   -0.00010985    0.10300446
     atom   46 type  2   force =    -0.07181531   -0.00016314   -0.02782177
     atom   47 type  2   force =     0.07175810    0.00022332   -0.02786487
     atom   48 type  3   force =    -0.00142165   -0.00074867    0.00042058
     atom   49 type  4   force =     0.00008233   -0.00028195    0.00012752
     atom   50 type  5   force =    -0.00033301    0.00013616    0.00013300
     atom   51 type  5   force =    -0.00042130   -0.00004895   -0.00025457
     atom   52 type  5   force =     0.00075200   -0.00023531    0.00010503
     atom   53 type  3   force =     0.00826610    0.00970271   -0.00014356
     atom   54 type  5   force =     0.00067086    0.00034276    0.00074237
     atom   55 type  5   force =    -0.00728169   -0.00884861   -0.00114249

     Total force =     0.367623     Total SCF correction =     0.000331
  @ DRIVER MODE: Message from server: STATUS
  @ DRIVER MODE: Message from server: GETFORCE
  @ DRIVER MODE: Returning v,forces,stress,ensemble

     Writing output data file ./calc.save/
  @ DRIVER MODE: Message from server: EXIT
  @ DRIVE MODE: Exiting

     General routines

     Parallel routines

   This run was terminated on:  23:35:29  16Jul2021

   JOB DONE.