     Program PWSCF v.6.7GPU starts on  3Aug2021 at 22:44:53

     R & G space division:  proc/nbgrp/npool/nimage =      16
     Reading input from /storage/home/hcoda1/3/ntian30/research/carbon/02Aug_vib_paired/ads_slab/CH3NH3NH3_a/out_0024/pw.inp
Warning: card &CELL ignored
Warning: card   CELL_DYNAMICS='IPI', ignored
Warning: card / ignored

     Current dimensions of program PWSCF are:
     Max number of different atomic species (ntypx) = 10
     Max number of k-points (npk) =  40000
     Max angular momentum in pseudopotentials (lmaxx) =  3
     Presently no symmetry can be used with electric field

     Message from routine cell_base_init:
     DEPRECATED: use true lattice parameter, not A to a.u. conversion factor

     IMPORTANT: XC functional enforced from input :
     Exchange-correlation= BEEF-VDW
                           (   1   4  43  14   2   0   0)
     Any further DFT definition will be discarded
     Please, verify this is what you really want

  @ DRIVER MODE: Connecting to
 qe_1139763_2492108.sched-torque.pace.gatech.edui_3nmusj_scratch
  using UNIX socket
  @ DRIVER MODE: Message from server: STATUS
  @ DRIVER MODE: Message from server: INIT
  @ DRIVER MODE: Receiving replica           0          -1
  @ DRIVER MODE: Receiving encoded integer          25
  @ DRIVER MODE:  SCF:  T  FORCE:  T  STRESS:  F  VC:  F  ENSEMBLE:  F
  @ DRIVER MODE:  SCF:  T  FORCE:  T  STRESS:  F  VC:  F  ENSEMBLE:  F

     Using Slab Decomposition

     bravais-lattice index     =            0
     lattice parameter (alat)  =       1.8897  a.u.
     unit-cell volume          =    6658.9804 (a.u.)^3
     number of atoms/cell      =           59
     number of atomic types    =            5
     number of electrons       =       401.00
     number of Kohn-Sham states=          210
     kinetic-energy cutoff     =      29.3995  Ry
     charge density cutoff     =     293.9946  Ry
     scf convergence threshold =      7.3E-08
     mixing beta               =       0.0500
     number of iterations used =            8  plain     mixing
     Exchange-correlation= BEEF-VDW
                           (   1   4  43  14   2   0   0)

     celldm(1)=   1.889726  celldm(2)=   0.000000  celldm(3)=   0.000000
     celldm(4)=   0.000000  celldm(5)=   0.000000  celldm(6)=   0.000000

     crystal axes: (cart. coord. in units of alat)
               a(1) = (   6.579727   0.000000   0.000000 )
               a(2) = (  -0.000775   5.961596   0.000000 )
               a(3) = (   0.000000   0.000000  25.155947 )

     reciprocal axes: (cart. coord. in units 2 pi/alat)
               b(1) = (  0.151982  0.000020  0.000000 )
               b(2) = (  0.000000  0.167740  0.000000 )
               b(3) = (  0.000000  0.000000  0.039752 )

     PseudoPot. # 1 for Ti read from file:
     /storage/coda1/p-amedford6/0/shared/rich_project_chbe-medford/medford-share/data/pseudos_module/espresso/nninc/pbe/van/Ti.UPF
     MD5 check sum: 8e4df49b7f0d34bbd5052bf3f5ea0213
     Pseudo is Ultrasoft, Zval = 12.0
     Generated by new atomic code, or converted to UPF format
     Using radial grid of  851 points,  6 beta functions with:
                l(1) =   0
                l(2) =   0
                l(3) =   1
                l(4) =   1
                l(5) =   2
                l(6) =   2
     Q(r) pseudized with  8 coefficients,  rinner =    1.000   1.000   1.000
                                                       1.000   1.000

     PseudoPot. # 2 for O  read from file:
     /storage/coda1/p-amedford6/0/shared/rich_project_chbe-medford/medford-share/data/pseudos_module/espresso/nninc/pbe/van/O.UPF
     MD5 check sum: 78c19812648e8988a0fe644b0f25305e
     Pseudo is Ultrasoft, Zval =  6.0
     Generated by new atomic code, or converted to UPF format
     Using radial grid of  737 points,  4 beta functions with:
                l(1) =   0
                l(2) =   0
                l(3) =   1
                l(4) =   1
     Q(r) pseudized with  8 coefficients,  rinner =    0.800   0.800   0.800

     PseudoPot. # 3 for C  read from file:
     /storage/coda1/p-amedford6/0/shared/rich_project_chbe-medford/medford-share/data/pseudos_module/espresso/nninc/pbe/van/C.UPF
     MD5 check sum: 1a69bf6b8db32088f5b2163dbdb77a27
     Pseudo is Ultrasoft, Zval =  4.0
     Generated by new atomic code, or converted to UPF format
     Using radial grid of  721 points,  4 beta functions with:
                l(1) =   0
                l(2) =   0
                l(3) =   1
                l(4) =   1
     Q(r) pseudized with  8 coefficients,  rinner =    0.800   0.800   0.800

     PseudoPot. # 4 for H  read from file:
     /storage/coda1/p-amedford6/0/shared/rich_project_chbe-medford/medford-share/data/pseudos_module/espresso/nninc/pbe/van/H.UPF
     MD5 check sum: b5ee9d7bfd3a09ee7748110bda690ff7
     Pseudo is Ultrasoft, Zval =  1.0
     Generated by new atomic code, or converted to UPF format
     Using radial grid of  615 points,  1 beta functions with:
                l(1) =   0
     Q(r) pseudized with  8 coefficients,  rinner =    0.800

     PseudoPot. # 5 for N  read from file:
     /storage/coda1/p-amedford6/0/shared/rich_project_chbe-medford/medford-share/data/pseudos_module/espresso/nninc/pbe/van/N.UPF
     MD5 check sum: 90d10febe142ad51ac9d5be1deb811c4
     Pseudo is Ultrasoft, Zval =  5.0
     Generated by new atomic code, or converted to UPF format
     Using radial grid of  729 points,  4 beta functions with:
                l(1) =   0
                l(2) =   0
                l(3) =   1
                l(4) =   1
     Q(r) pseudized with  8 coefficients,  rinner =    0.800   0.800   0.800

     atomic species   valence    mass     pseudopotential
        Ti1           12.00    47.86700     Ti( 1.00)
        O1             6.00    15.99900     O ( 1.00)
        C1             4.00    12.01100     C ( 1.00)
        H1             1.00     1.00800     H ( 1.00)
        N1             5.00    14.00700     N ( 1.00)

     No symmetry found

   Cartesian axes

     site n.     atom                  positions (alat units)
         1           Ti1 tau(   1) = (   0.0004258   2.9801865   6.0000000  )
         2           Ti1 tau(   2) = (   3.2906075   1.4906267   6.0002472  )
         3           O1  tau(   3) = (   0.0006271   0.0005054   7.9858123  )
         4           O1  tau(   4) = (   3.2906025   0.0005020   7.3038282  )
         5           O1  tau(   5) = (   4.5942328   1.4918067   9.2879030  )
         6           O1  tau(   6) = (   1.9868534   1.4903216   9.2879459  )
         7           Ti1 tau(   7) = (   3.2907910   2.8959150   9.1758416  )
         8           Ti1 tau(   8) = (   0.0015273   1.4827037   9.2680791  )
         9           O1  tau(   9) = (   3.3006472   5.9526327  11.3326431  )
        10           O1  tau(  10) = (   0.0116148   5.9584955  10.6183126  )
        11           O1  tau(  11) = (   1.2986171   1.4856602  12.6180737  )
        12           O1  tau(  12) = (   5.2832837   1.4869688  12.6136912  )
        13           Ti1 tau(  13) = (   0.0716907   2.9700601  12.6329626  )
        14           Ti1 tau(  14) = (   3.3921379   1.4824266  12.4783935  )
        15           O1  tau(  15) = (   0.0098915   0.0277142  14.6273811  )
        16           O1  tau(  16) = (   3.2980527   0.0034327  13.9214941  )
        17           O1  tau(  17) = (   4.5491770   1.5035522  16.0668258  )
        18           O1  tau(  18) = (   2.0540802   1.5011373  16.0688643  )
        19           Ti1 tau(  19) = (   3.2973159   2.9845483  15.7023000  )
        20           Ti1 tau(  20) = (   6.5754392   1.4353193  15.8239573  )
        21           O1  tau(  21) = (   3.2904802   0.0005063   4.7018136  )
        22           O1  tau(  22) = (   0.0048264   5.9571524  17.1588256  )
        23           O1  tau(  23) = (   1.3043587   1.4918075   6.0039043  )
        24           O1  tau(  24) = (   5.2767064   1.4903225   6.0039473  )
        25           Ti1 tau(  25) = (   0.0000382   5.9609847   6.0000000  )
        26           Ti1 tau(  26) = (   3.2902200   4.4714249   6.0002472  )
        27           O1  tau(  27) = (   0.0002396   2.9813036   7.9858123  )
        28           O1  tau(  28) = (   3.2902150   2.9813002   7.3038282  )
        29           O1  tau(  29) = (   4.5938453   4.4726049   9.2879030  )
        30           O1  tau(  30) = (   1.9864658   4.4711199   9.2879459  )
        31           Ti1 tau(  31) = (   3.2891106   5.8743827   9.1763621  )
        32           Ti1 tau(  32) = (   0.0006254   4.4649316   9.2693709  )
        33           O1  tau(  33) = (   3.3024910   2.9811918  11.3312481  )
        34           O1  tau(  34) = (   0.0092240   2.9805883  10.6323155  )
        35           O1  tau(  35) = (   1.2967186   4.4682081  12.6345707  )
        36           O1  tau(  36) = (   5.2888097   4.4704914  12.6297389  )
        37           Ti1 tau(  37) = (   0.0778612   5.9457776  12.5489457  )
        38           Ti1 tau(  38) = (   3.3928769   4.4622707  12.4864817  )
        39           O1  tau(  39) = (   0.0140712   2.9461142  14.6842920  )
        40           O1  tau(  40) = (   3.2991745   2.9776924  13.9065265  )
        41           O1  tau(  41) = (   4.5418516   4.4678888  16.0645815  )
        42           O1  tau(  42) = (   2.0574864   4.4691885  16.0636024  )
        43           Ti1 tau(  43) = (   3.2861726   0.0051191  15.7195692  )
        44           Ti1 tau(  44) = (   6.5761434   4.5285208  16.1368719  )
        45           O1  tau(  45) = (   3.2900926   2.9813045   4.7018136  )
        46           O1  tau(  46) = (   1.3039711   4.4726057   6.0039043  )
        47           O1  tau(  47) = (   5.2763189   4.4711207   6.0039473  )
        48           C1  tau(  48) = (   0.0175971   3.0427671  17.7901079  )
        49           H1  tau(  49) = (   5.6823727   3.3959267  18.2745233  )
        50           H1  tau(  50) = (   0.1100020   1.9921885  18.0671921  )
        51           H1  tau(  51) = (   0.8707680   3.5346006  18.2680029  )
        52           N1  tau(  52) = (   6.1495222   1.5591847  21.8098380  )
        53           H1  tau(  53) = (   6.1793786   2.4848735  21.3946126  )
        54           H1  tau(  54) = (   6.2462200   0.9013766  21.0328083  )
        55           H1  tau(  55) = (   5.2088654   1.4380024  22.1828036  )
        56           N1  tau(  56) = (   2.8510371   0.9663425  23.1735989  )
        57           H1  tau(  57) = (   2.8683653   5.9129692  23.1556095  )
        58           H1  tau(  58) = (   1.9074079   1.2374795  22.9038124  )
        59           H1  tau(  59) = (   2.9640119   1.2328864  24.1466208  )

     number of k points=    10  Fermi-Dirac smearing, width (Ry)=  0.0073
                       cart. coord. in units 2pi/alat
        k(    1) = (   0.0000000   0.0000000   0.0000000), wk =   0.1250000
        k(    2) = (   0.0000000   0.0419351   0.0000000), wk =   0.2500000
        k(    3) = (   0.0000000  -0.0838702   0.0000000), wk =   0.1250000
        k(    4) = (   0.0379955   0.0000049   0.0000000), wk =   0.2500000
        k(    5) = (   0.0379955   0.0419400   0.0000000), wk =   0.2500000
        k(    6) = (   0.0379955  -0.0838652   0.0000000), wk =   0.2500000
        k(    7) = (   0.0379955  -0.0419301   0.0000000), wk =   0.2500000
        k(    8) = (  -0.0759910  -0.0000099   0.0000000), wk =   0.1250000
        k(    9) = (  -0.0759910   0.0419252   0.0000000), wk =   0.2500000
        k(   10) = (  -0.0759910  -0.0838800   0.0000000), wk =   0.1250000

     Initial potential from superposition of free atoms

     starting charge  384.99911, renormalised to  401.00000

     negative rho (up, down):  4.921E-03 0.000E+00

     %%%%%%%%%%%%%%%%%%%%%%%%%%%%%%%%%%%%%%%%%%%%%%%%%%%%%%%%%%%%%%%%%%%%%%%%
     %                                                                      %
     % You are using vdW-DF, which was implemented by the Thonhauser group. %
     % Please cite the following two papers that made this development      %
     % possible and the two reviews that describe the various versions:     %
     %                                                                      %
     %   T. Thonhauser et al., PRL 115, 136402 (2015).                      %
     %   T. Thonhauser et al., PRB 76, 125112 (2007).                       %
     %   K. Berland et al., Rep. Prog. Phys. 78, 066501 (2015).             %
     %   D.C. Langreth et al., J. Phys.: Condens. Matter 21, 084203 (2009). %
     %                                                                      %
     %                                                                      %
     % If you are calculating the stress with vdW-DF, please also cite:     %
     %                                                                      %
     %   R. Sabatini et al., J. Phys.: Condens. Matter 24, 424209 (2012).   %
     %                                                                      %
     %%%%%%%%%%%%%%%%%%%%%%%%%%%%%%%%%%%%%%%%%%%%%%%%%%%%%%%%%%%%%%%%%%%%%%%%

     Adding external electric field

     Computed dipole along edir(3) :
        Dipole              -16.7045 Ry au,        -42.4586 Debye
        Dipole field         -0.0315 Ry au,

        Potential amp.        2.9222 Ry
        Total length         46.3494 bohr

     Starting wfcs are  305 atomic wfcs
  @ DRIVER MODE: Message from server: STATUS
  @ DRIVER MODE: Message from server: POSDATA
  @ DRIVER MODE: Reading and sharing cell
  @ DRIVER MODE: Reading and sharing positions
  @ DRIVER MODE: Received positions

     Self-consistent Calculation

     iteration #  1     ecut=    29.40 Ry     beta= 0.05
     Davidson diagonalization with overlap
     c_bands:  2 eigenvalues not converged
     c_bands:  3 eigenvalues not converged
     c_bands:  1 eigenvalues not converged
     c_bands:  4 eigenvalues not converged
     c_bands:  4 eigenvalues not converged
     c_bands:  2 eigenvalues not converged
     c_bands:  3 eigenvalues not converged
     c_bands:  3 eigenvalues not converged
     c_bands:  4 eigenvalues not converged
     ethr =  1.00E-05,  avg # of iterations = 19.8

[...]

     total energy              =   -2364.28860170 Ry
     estimated scf accuracy    <    6692.56558839 Ry

     iteration #  2     ecut=    29.40 Ry     beta= 0.05
     Davidson diagonalization with overlap
     ethr =  1.00E-02,  avg # of iterations = 22.0

[...]

     iteration # 60     ecut=    29.40 Ry     beta= 0.05
     Davidson diagonalization with overlap
     c_bands:  1 eigenvalues not converged
     ethr =  1.16E-09,  avg # of iterations = 10.6

[...]

     total energy              =   -2946.58244252 Ry
     estimated scf accuracy    <       0.00000010 Ry

     iteration # 70     ecut=    29.40 Ry     beta= 0.05
     Davidson diagonalization with overlap
     ethr =  2.51E-11,  avg # of iterations = 14.6

     negative rho (up, down):  6.994E-03 0.000E+00

     Adding external electric field

     Computed dipole along edir(3) :
        Dipole                0.3137 Ry au,          0.7974 Debye
        Dipole field          0.0006 Ry au,

        Potential amp.       -0.0549 Ry
        Total length         46.3494 bohr

     End of self-consistent calculation

          k = 0.0000 0.0000 0.0000 ( 18029 PWs)   bands (ev):

   -55.9985 -55.9895 -55.9645 -55.9524 -55.8794 -55.8548 -55.8341 -55.8157
   -55.8058 -55.7722 -55.7718 -55.7385 -55.6133 -55.3918 -54.9793 -54.9453
   -32.5434 -32.4810 -32.3537 -32.3338 -32.3051 -32.3032 -32.2913 -32.2626
   -32.2407 -32.2178 -32.2108 -32.1962 -32.1690 -32.1507 -32.1425 -32.1285
   -32.1117 -32.1029 -32.0879 -32.0598 -32.0560 -32.0556 -32.0280 -32.0086
   -32.0081 -32.0031 -31.9940 -31.9899 -31.9767 -31.9745 -31.9662 -31.9464
   -31.9445 -31.9379 -31.9250 -31.9115 -31.8841 -31.8665 -31.8290 -31.6685
   -31.6422 -31.5295 -31.3865 -31.2977 -31.2753 -31.2031 -31.1166 -31.0057
   -16.7440 -16.4744 -16.2481 -16.1520 -16.1251 -16.0059 -15.8405 -15.7184
   -15.6704 -15.5701 -15.5607 -15.5356 -15.5030 -15.4792 -15.4784 -15.4442
   -15.4411 -15.4219 -15.4104 -15.3602 -15.3371 -15.3255 -15.2103 -15.1767
   -15.1340 -15.1131 -15.0553 -15.0427 -14.6203 -13.4822 -13.3658 -13.0222
   -12.9163  -9.1031  -4.1172  -3.9604  -3.9058  -3.8610  -3.8303  -3.6132
    -3.5474  -3.2495  -3.1855  -3.1707  -3.1536  -3.1212  -3.1008  -3.0769
    -3.0174  -2.9868  -2.9026  -2.8368  -2.8278  -2.8102  -2.8072  -2.7778
    -2.7682  -2.7561  -2.7155  -2.6898  -2.6637  -2.6135  -2.5587  -2.4965
    -2.4132  -2.3953  -2.3133  -2.2910  -2.2849  -2.2419  -2.2276  -2.2197
    -2.2007  -2.1756  -2.1625  -1.9791  -1.9406  -1.8379  -1.7818  -1.7797
    -1.6081  -1.5084  -1.4667  -1.4555  -1.4262  -1.3925  -1.3859  -1.2997
    -1.1828  -1.1517  -1.1187  -1.0467  -1.0029  -0.9713  -0.8737  -0.8464
    -0.7633  -0.7608  -0.7387  -0.6509  -0.5972  -0.4836  -0.4357  -0.4256
    -0.3877  -0.3585  -0.2891  -0.2750  -0.2181  -0.1457  -0.1249  -0.0621
    -0.0316  -0.0176  -0.0064   0.0104   0.0368   0.0673   0.1712   0.2016
     0.2812   0.3489   0.4441   0.5417   0.6475   0.6566   0.7578   0.9673
     1.0411   1.1390   1.1975   1.2351   1.6143   1.6601   1.7460   2.1873
     3.1384   3.2224   3.2700   3.2806   3.3718   3.3881   3.5886   3.6127
     3.6339   3.7934

[...]

          k = 0.0380-0.0419 0.0000 ( 17876 PWs)   bands (ev):

[...]

          k =-0.0760-0.0000 0.0000 ( 17886 PWs)   bands (ev):

[...]

          k =-0.0760-0.0839 0.0000 ( 17948 PWs)   bands (ev):

   -55.9819 -55.9810 -55.9754 -55.9662 -55.8714 -55.8445 -55.8419 -55.8259
   -55.7898 -55.7873 -55.7566 -55.7542 -55.6121 -55.3928 -54.9623 -54.9622
   -32.3510 -32.3423 -32.2966 -32.2960 -32.2771 -32.2763 -32.2606 -32.2517
   -32.2052 -32.1935 -32.1873 -32.1846 -32.1466 -32.1308 -32.1292 -32.1199
   -32.1090 -32.1015 -32.1014 -32.1003 -32.0948 -32.0921 -32.0714 -32.0614
   -32.0422 -32.0395 -32.0299 -32.0129 -31.9897 -31.9889 -31.9874 -31.9857
   -31.9709 -31.9696 -31.9665 -31.9625 -31.9341 -31.8577 -31.8323 -31.6821
   -31.6704 -31.5739 -31.2880 -31.2880 -31.1993 -31.1992 -31.1599 -31.1598
   -16.1768 -16.1574 -15.9495 -15.9128 -15.9099 -15.9007 -15.7889 -15.7039
   -15.6938 -15.6931 -15.6108 -15.5986 -15.5823 -15.5380 -15.5341 -15.5246
   -15.5151 -15.5030 -15.4598 -15.4548 -15.4358 -15.4283 -15.3465 -15.3161
   -15.3124 -15.2741 -15.1419 -15.0106 -14.8622 -13.4677 -13.4675 -12.9734
   -12.9646  -9.1196  -3.4689  -3.4433  -3.1927  -3.1568  -3.1475  -3.0833
    -3.0723  -3.0590  -2.9873  -2.9395  -2.9228  -2.8966  -2.8818  -2.8772
    -2.8409  -2.8285  -2.8186  -2.8065  -2.7884  -2.7542  -2.7453  -2.7129
    -2.7020  -2.6819  -2.6685  -2.6530  -2.6283  -2.6157  -2.6093  -2.5782
    -2.5640  -2.5472  -2.5266  -2.5037  -2.4207  -2.2316  -2.2018  -2.1370
    -2.1278  -2.0974  -2.0858  -2.0622  -2.0479  -2.0297  -1.9827  -1.8298
    -1.7278  -1.7015  -1.6737  -1.5987  -1.5778  -1.5300  -1.4159  -1.3812
    -1.3538  -1.3280  -1.2779  -1.2270  -1.2096  -1.1866  -1.1176  -1.1040
    -1.0263  -0.9830  -0.9601  -0.9558  -0.8911  -0.8481  -0.7661  -0.7608
    -0.7167  -0.6811  -0.6337  -0.5935  -0.5888  -0.5017  -0.4761  -0.3596
    -0.3049  -0.0451   0.0045   0.0557   0.0823   0.1408   0.1912   0.2062
     0.3152   0.3195   0.3558   0.3996   0.4403   0.5279   0.5471   0.5819
     0.7281   1.3018   1.4057   1.4062   1.4795   1.4799   1.9484   1.9695
     3.4231   3.4384   3.4687   3.5011   3.6429   3.6467   3.6681   3.6699
     3.7957   3.8101

     the Fermi energy is     3.1360 ev

!    total energy              =   -2946.58246315 Ry
     estimated scf accuracy    <       0.00000006 Ry
     smearing contrib. (-TS)   =      -0.02178640 Ry
     internal energy E=F+TS    =   -2946.56067675 Ry

     The total energy is F=E-TS. E is the sum of the following terms:
     one-electron contribution =  -22199.80180531 Ry
     hartree contribution      =   11188.89953838 Ry
     xc contribution           =    -489.84079310 Ry
     ewald contribution        =    8554.18219754 Ry
     electric field correction =       0.00018573 Ry

     convergence has been achieved in  70 iterations

     Forces acting on atoms (cartesian axes, Ry/au):

     atom    1 type  1   force =     0.00012804   -0.00025713    0.09667776
     atom    2 type  1   force =    -0.00013950   -0.00055058   -0.17512829
     atom    3 type  2   force =    -0.00000153   -0.00002593   -0.02501741
     atom    4 type  2   force =     0.00007553   -0.00144109    0.05271158
     atom    5 type  2   force =    -0.01210612   -0.00083869    0.00340506
     atom    6 type  2   force =     0.01402004   -0.00015448    0.00291386
     atom    7 type  1   force =    -0.00082326    0.00068693   -0.01135959
     atom    8 type  1   force =     0.00025600    0.01148950    0.02860247
     atom    9 type  2   force =    -0.00010345    0.00008807   -0.00001632
     atom   10 type  2   force =    -0.00084945    0.00077289   -0.01660600
     atom   11 type  2   force =    -0.00031674    0.00010175    0.00002781
     atom   12 type  2   force =    -0.00000984    0.00020965    0.00004980
     atom   13 type  1   force =    -0.00011218   -0.00020347    0.00008624
     atom   14 type  1   force =    -0.00021095    0.00000537   -0.00004367
     atom   15 type  2   force =    -0.00003130    0.00005614   -0.00010498
     atom   16 type  2   force =    -0.00012292   -0.00003978    0.00002284
     atom   17 type  2   force =    -0.00002435   -0.00015863   -0.00000789
     atom   18 type  2   force =    -0.00020349   -0.00017701   -0.00001171
     atom   19 type  1   force =     0.00000894   -0.00021253    0.00016873
     atom   20 type  1   force =     0.00010009   -0.00036201   -0.00004657
     atom   21 type  2   force =     0.00006508    0.00001062    0.10295062
     atom   22 type  2   force =    -0.00010877   -0.00008169   -0.00040799
     atom   23 type  2   force =    -0.07139101   -0.00010832   -0.02773015
     atom   24 type  2   force =     0.07134874    0.00029599   -0.02776400
     atom   25 type  1   force =     0.00001485   -0.00030049    0.09645308
     atom   26 type  1   force =    -0.00018011   -0.00027389   -0.17530659
     atom   27 type  2   force =     0.00009404   -0.00020016   -0.02391471
     atom   28 type  2   force =     0.00011381   -0.00119956    0.05274498
     atom   29 type  2   force =    -0.01213849    0.00045757    0.00288576
     atom   30 type  2   force =     0.01397213    0.00080302    0.00243330
     atom   31 type  1   force =    -0.00076621    0.00311378   -0.01228244
     atom   32 type  1   force =     0.00027480   -0.01311563    0.02918370
     atom   33 type  2   force =    -0.00009920   -0.00003244    0.00003936
     atom   34 type  2   force =    -0.00028756    0.00077118   -0.02205796
     atom   35 type  2   force =    -0.00016829    0.00008102   -0.00004441
     atom   36 type  2   force =    -0.00010591    0.00020336   -0.00003386
     atom   37 type  1   force =    -0.00001112   -0.00031554   -0.00018532
     atom   38 type  1   force =     0.00003454    0.00000788   -0.00000250
     atom   39 type  2   force =    -0.00008080    0.00012661    0.00028192
     atom   40 type  2   force =    -0.00013533   -0.00001433   -0.00007138
     atom   41 type  2   force =     0.00000136   -0.00021172    0.00001902
     atom   42 type  2   force =    -0.00019539   -0.00021831    0.00018779
     atom   43 type  1   force =     0.00031008   -0.00015711   -0.00014887
     atom   44 type  1   force =     0.00017844   -0.00027183    0.00019788
     atom   45 type  2   force =     0.00006332   -0.00007091    0.10293858
     atom   46 type  2   force =    -0.07140360   -0.00008237   -0.02773951
     atom   47 type  2   force =     0.07136182    0.00037503   -0.02774910
     atom   48 type  3   force =    -0.00018339    0.00038636    0.00004337
     atom   49 type  4   force =    -0.00008016    0.00042266    0.00021696
     atom   50 type  4   force =    -0.00007933    0.00012872    0.00004828
     atom   51 type  4   force =     0.00008781    0.00029781    0.00038831
     atom   52 type  5   force =     0.00160251   -0.00754230   -0.00787792
     atom   53 type  4   force =    -0.00007625    0.00115512   -0.00012997
     atom   54 type  4   force =    -0.00221551    0.00662383    0.00814264
     atom   55 type  4   force =     0.00043610   -0.00016483   -0.00101057
     atom   56 type  5   force =     0.00070080    0.00038298   -0.00062469
     atom   57 type  4   force =     0.00005037   -0.00032394    0.00032145
     atom   58 type  4   force =    -0.00050608   -0.00005523   -0.00060187
     atom   59 type  4   force =    -0.00003165    0.00010807   -0.00011694

     Total force =     0.368052     Total SCF correction =     0.000780
  @ DRIVER MODE: Message from server: STATUS
  @ DRIVER MODE: Message from server: GETFORCE
  @ DRIVER MODE: Returning v,forces,stress,ensemble

     Writing output data file ./calc.save/
  @ DRIVER MODE: Message from server: EXIT
  @ DRIVE MODE: Exiting

     General routines

     Parallel routines

   This run was terminated on:  23: 0:37   3Aug2021

   JOB DONE.