     Program PWSCF v.6.7GPU starts on 16Sep2021 at  9:15:12

     R & G space division:  proc/nbgrp/npool/nimage =      10
     Reading input from /storage/home/hcoda1/3/ntian30/research/carbon/CxH_vib/H2O_calc/ads_slab/CH3NHNHH2O_a/out_0052/pw.inp
Warning: card &CELL ignored
Warning: card   CELL_DYNAMICS='IPI', ignored
Warning: card / ignored

     Current dimensions of program PWSCF are:
     Max number of different atomic species (ntypx) = 10
     Max number of k-points (npk) =  40000
     Max angular momentum in pseudopotentials (lmaxx) =  3
     Presently no symmetry can be used with electric field

     Message from routine cell_base_init:
     DEPRECATED: use true lattice parameter, not A to a.u. conversion factor

     IMPORTANT: XC functional enforced from input :
     Exchange-correlation= BEEF-VDW
                           (   1   4  43  14   2   0   0)
     Any further DFT definition will be discarded
     Please, verify this is what you really want

  @ DRIVER MODE: Connecting to
 qe_1139763_2852620.sched-torque.pace.gatech.eduyvluev_6_scratch
  using UNIX socket
  @ DRIVER MODE: Message from server: STATUS
  @ DRIVER MODE: Message from server: INIT
  @ DRIVER MODE: Receiving replica           0          -1
  @ DRIVER MODE: Receiving encoded integer          25
  @ DRIVER MODE:  SCF:  T  FORCE:  T  STRESS:  F  VC:  F  ENSEMBLE:  F
  @ DRIVER MODE:  SCF:  T  FORCE:  T  STRESS:  F  VC:  F  ENSEMBLE:  F

     Using Slab Decomposition

     bravais-lattice index     =            0
     lattice parameter (alat)  =       1.8897  a.u.
     unit-cell volume          =    6658.9804 (a.u.)^3
     number of atoms/cell      =           58
     number of atomic types    =            5
     number of electrons       =       405.00
     number of Kohn-Sham states=          212
     kinetic-energy cutoff     =      29.3995  Ry
     charge density cutoff     =     293.9946  Ry
     scf convergence threshold =      7.3E-08
     mixing beta               =       0.0500
     number of iterations used =            8  plain     mixing
     Exchange-correlation= BEEF-VDW
                           (   1   4  43  14   2   0   0)

     celldm(1)=   1.889726  celldm(2)=   0.000000  celldm(3)=   0.000000
     celldm(4)=   0.000000  celldm(5)=   0.000000  celldm(6)=   0.000000

     crystal axes: (cart. coord. in units of alat)
               a(1) = (   6.579727   0.000000   0.000000 )
               a(2) = (  -0.000775   5.961596   0.000000 )
               a(3) = (   0.000000   0.000000  25.155947 )

     reciprocal axes: (cart. coord. in units 2 pi/alat)
               b(1) = (  0.151982  0.000020  0.000000 )
               b(2) = (  0.000000  0.167740  0.000000 )
               b(3) = (  0.000000  0.000000  0.039752 )

     PseudoPot. # 1 for Ti read from file:
     /storage/coda1/p-amedford6/0/shared/rich_project_chbe-medford/medford-share/data/pseudos_module/espresso/nninc/pbe/van/Ti.UPF
     MD5 check sum: 8e4df49b7f0d34bbd5052bf3f5ea0213
     Pseudo is Ultrasoft, Zval = 12.0
     Generated by new atomic code, or converted to UPF format
     Using radial grid of  851 points,  6 beta functions with:
                l(1) =   0
                l(2) =   0
                l(3) =   1
                l(4) =   1
                l(5) =   2
                l(6) =   2
     Q(r) pseudized with  8 coefficients,  rinner =    1.000   1.000   1.000
                                                       1.000   1.000

     PseudoPot. # 2 for O  read from file:
     /storage/coda1/p-amedford6/0/shared/rich_project_chbe-medford/medford-share/data/pseudos_module/espresso/nninc/pbe/van/O.UPF
     MD5 check sum: 78c19812648e8988a0fe644b0f25305e
     Pseudo is Ultrasoft, Zval =  6.0
     Generated by new atomic code, or converted to UPF format
     Using radial grid of  737 points,  4 beta functions with:
                l(1) =   0
                l(2) =   0
                l(3) =   1
                l(4) =   1
     Q(r) pseudized with  8 coefficients,  rinner =    0.800   0.800   0.800

     PseudoPot. # 3 for N  read from file:
     /storage/coda1/p-amedford6/0/shared/rich_project_chbe-medford/medford-share/data/pseudos_module/espresso/nninc/pbe/van/N.UPF
     MD5 check sum: 90d10febe142ad51ac9d5be1deb811c4
     Pseudo is Ultrasoft, Zval =  5.0
     Generated by new atomic code, or converted to UPF format
     Using radial grid of  729 points,  4 beta functions with:
                l(1) =   0
                l(2) =   0
                l(3) =   1
                l(4) =   1
     Q(r) pseudized with  8 coefficients,  rinner =    0.800   0.800   0.800

     PseudoPot. # 4 for C  read from file:
     /storage/coda1/p-amedford6/0/shared/rich_project_chbe-medford/medford-share/data/pseudos_module/espresso/nninc/pbe/van/C.UPF
     MD5 check sum: 1a69bf6b8db32088f5b2163dbdb77a27
     Pseudo is Ultrasoft, Zval =  4.0
     Generated by new atomic code, or converted to UPF format
     Using radial grid of  721 points,  4 beta functions with:
                l(1) =   0
                l(2) =   0
                l(3) =   1
                l(4) =   1
     Q(r) pseudized with  8 coefficients,  rinner =    0.800   0.800   0.800

     PseudoPot. # 5 for H  read from file:
     /storage/coda1/p-amedford6/0/shared/rich_project_chbe-medford/medford-share/data/pseudos_module/espresso/nninc/pbe/van/H.UPF
     MD5 check sum: b5ee9d7bfd3a09ee7748110bda690ff7
     Pseudo is Ultrasoft, Zval =  1.0
     Generated by new atomic code, or converted to UPF format
     Using radial grid of  615 points,  1 beta functions with:
                l(1) =   0
     Q(r) pseudized with  8 coefficients,  rinner =    0.800

     atomic species   valence    mass     pseudopotential
        Ti1           12.00    47.86700     Ti( 1.00)
        O1             6.00    15.99900     O ( 1.00)
        N1             5.00    14.00700     N ( 1.00)
        C1             4.00    12.01100     C ( 1.00)
        H1             1.00     1.00800     H ( 1.00)

     No symmetry found

   Cartesian axes

     site n.     atom                  positions (alat units)
         1           Ti1 tau(   1) = (   0.0004258   2.9801865   6.0000000  )
         2           Ti1 tau(   2) = (   3.2906075   1.4906267   6.0002472  )
         3           O1  tau(   3) = (   0.0006271   0.0005054   7.9858123  )
         4           O1  tau(   4) = (   3.2906025   0.0005020   7.3038282  )
         5           O1  tau(   5) = (   4.5942328   1.4918067   9.2879030  )
         6           O1  tau(   6) = (   1.9868534   1.4903216   9.2879459  )
         7           Ti1 tau(   7) = (   3.2907910   2.8959150   9.1758416  )
         8           Ti1 tau(   8) = (   0.0015273   1.4827037   9.2680791  )
         9           O1  tau(   9) = (   3.2925356   5.9605122  11.3387169  )
        10           O1  tau(  10) = (   0.0116148   5.9584955  10.6183126  )
        11           O1  tau(  11) = (   1.2897729   1.4809555  12.6268520  )
        12           O1  tau(  12) = (   5.2791511   1.4810064  12.6173870  )
        13           Ti1 tau(  13) = (   0.0595640   3.0140846  12.5912772  )
        14           Ti1 tau(  14) = (   3.3761946   1.4800080  12.4968112  )
        15           O1  tau(  15) = (   6.5629824   0.0009262  14.6613707  )
        16           O1  tau(  16) = (   3.3123588   5.9604043  13.9421911  )
        17           O1  tau(  17) = (   4.5376415   1.5680301  16.0260299  )
        18           O1  tau(  18) = (   2.0142527   1.4857506  15.9764776  )
        19           Ti1 tau(  19) = (   3.2467940   3.0138708  15.6952036  )
        20           Ti1 tau(  20) = (   6.5376764   1.5432071  15.7832198  )
        21           O1  tau(  21) = (   3.2904802   0.0005063   4.7018136  )
        22           O1  tau(  22) = (   6.4898080   0.0110182  17.2547379  )
        23           O1  tau(  23) = (   1.3043587   1.4918075   6.0039043  )
        24           O1  tau(  24) = (   5.2767064   1.4903225   6.0039473  )
        25           Ti1 tau(  25) = (   0.0000382   5.9609847   6.0000000  )
        26           Ti1 tau(  26) = (   3.2902200   4.4714249   6.0002472  )
        27           O1  tau(  27) = (   0.0002396   2.9813036   7.9858123  )
        28           O1  tau(  28) = (   3.2902150   2.9813002   7.3038282  )
        29           O1  tau(  29) = (   4.5938453   4.4726049   9.2879030  )
        30           O1  tau(  30) = (   1.9864658   4.4711199   9.2879459  )
        31           Ti1 tau(  31) = (   3.2891106   5.8743827   9.1763621  )
        32           Ti1 tau(  32) = (   0.0006254   4.4649316   9.2693709  )
        33           O1  tau(  33) = (   3.2967638   2.9790471  11.3409087  )
        34           O1  tau(  34) = (   0.0092240   2.9805883  10.6323155  )
        35           O1  tau(  35) = (   1.2869154   4.4778632  12.6304858  )
        36           O1  tau(  36) = (   5.2845859   4.4648683  12.6187650  )
        37           Ti1 tau(  37) = (   0.0627082   0.0241251  12.5486904  )
        38           Ti1 tau(  38) = (   3.3788516   4.4738568  12.4976958  )
        39           O1  tau(  39) = (   6.5772583   2.9562949  14.6416036  )
        40           O1  tau(  40) = (   3.2725681   2.9944745  13.9013672  )
        41           O1  tau(  41) = (   4.5452577   4.4055011  16.0651929  )
        42           O1  tau(  42) = (   2.0228361   4.5129635  16.0417754  )
        43           Ti1 tau(  43) = (   3.2583029   0.0391736  15.7773877  )
        44           Ti1 tau(  44) = (   6.5476622   4.6515957  16.1089089  )
        45           O1  tau(  45) = (   3.2900926   2.9813045   4.7018136  )
        46           O1  tau(  46) = (   1.3039711   4.4726057   6.0039043  )
        47           O1  tau(  47) = (   5.2763189   4.4711207   6.0039473  )
        48           N1  tau(  48) = (   1.2275869   2.8250850  18.3327965  )
        49           N1  tau(  49) = (   0.1007212   2.9268546  17.4424539  )
        50           C1  tau(  50) = (   0.9834745   3.5098297  19.5973225  )
        51           H1  tau(  51) = (   0.0800711   3.1483545  20.1177682  )
        52           H1  tau(  52) = (   1.8428167   3.3484677  20.2521386  )
        53           H1  tau(  53) = (   0.8645268   4.5787652  19.4145101  )
        54           H1  tau(  54) = (   1.4038961   1.8348574  18.5000659  )
        55           H1  tau(  55) = (   5.8167727   2.7947134  17.9807349  )
        56           O1  tau(  56) = (   3.6251350   0.0623402  18.1652986  )
        57           H1  tau(  57) = (   4.6063402   0.0342754  18.1216558  )
        58           H1  tau(  58) = (   3.3562690   5.1322054  18.4688733  )

     number of k points=    10  Fermi-Dirac smearing, width (Ry)=  0.0073
                       cart. coord. in units 2pi/alat
        k(    1) = (   0.0000000   0.0000000   0.0000000), wk =   0.1250000
        k(    2) = (   0.0000000   0.0419351   0.0000000), wk =   0.2500000
        k(    3) = (   0.0000000  -0.0838702   0.0000000), wk =   0.1250000
        k(    4) = (   0.0379955   0.0000049   0.0000000), wk =   0.2500000
        k(    5) = (   0.0379955   0.0419400   0.0000000), wk =   0.2500000
        k(    6) = (   0.0379955  -0.0838652   0.0000000), wk =   0.2500000
        k(    7) = (   0.0379955  -0.0419301   0.0000000), wk =   0.2500000
        k(    8) = (  -0.0759910  -0.0000099   0.0000000), wk =   0.1250000
        k(    9) = (  -0.0759910   0.0419252   0.0000000), wk =   0.2500000
        k(   10) = (  -0.0759910  -0.0838800   0.0000000), wk =   0.1250000

     Initial potential from superposition of free atoms

     starting charge  388.99913, renormalised to  405.00000

     negative rho (up, down):  1.445E-02 0.000E+00

     %%%%%%%%%%%%%%%%%%%%%%%%%%%%%%%%%%%%%%%%%%%%%%%%%%%%%%%%%%%%%%%%%%%%%%%%
     %                                                                      %
     % You are using vdW-DF, which was implemented by the Thonhauser group. %
     % Please cite the following two papers that made this development      %
     % possible and the two reviews that describe the various versions:     %
     %                                                                      %
     %   T. Thonhauser et al., PRL 115, 136402 (2015).                      %
     %   T. Thonhauser et al., PRB 76, 125112 (2007).                       %
     %   K. Berland et al., Rep. Prog. Phys. 78, 066501 (2015).             %
     %   D.C. Langreth et al., J. Phys.: Condens. Matter 21, 084203 (2009). %
     %                                                                      %
     %                                                                      %
     % If you are calculating the stress with vdW-DF, please also cite:     %
     %                                                                      %
     %   R. Sabatini et al., J. Phys.: Condens. Matter 24, 424209 (2012).   %
     %                                                                      %
     %%%%%%%%%%%%%%%%%%%%%%%%%%%%%%%%%%%%%%%%%%%%%%%%%%%%%%%%%%%%%%%%%%%%%%%%

     Adding external electric field

     Computed dipole along edir(3) :
        Dipole              -14.1501 Ry au,        -35.9660 Debye
        Dipole field         -0.0267 Ry au,

        Potential amp.        2.4753 Ry
        Total length         46.3494 bohr

     Starting wfcs are  307 atomic wfcs
  @ DRIVER MODE: Message from server: STATUS
  @ DRIVER MODE: Message from server: POSDATA
  @ DRIVER MODE: Reading and sharing cell
  @ DRIVER MODE: Reading and sharing positions
  @ DRIVER MODE: Received positions

     Self-consistent Calculation

     iteration #  1     ecut=    29.40 Ry     beta= 0.05
     Davidson diagonalization with overlap
     c_bands:  5 eigenvalues not converged
     c_bands:  1 eigenvalues not converged
     c_bands:  1 eigenvalues not converged
     c_bands:  3 eigenvalues not converged
     c_bands:  2 eigenvalues not converged
     ethr =  1.00E-05,  avg # of iterations = 29.4

[...]

     total energy              =   -2231.39198292 Ry
     estimated scf accuracy    <    8455.30230584 Ry

     iteration #  2     ecut=    29.40 Ry     beta= 0.05
     Davidson diagonalization with overlap
     ethr =  1.00E-02,  avg # of iterations = 29.0

[...]

     iteration # 79     ecut=    29.40 Ry     beta= 0.05
     Davidson diagonalization with overlap
     c_bands:  1 eigenvalues not converged
     ethr =  7.77E-11,  avg # of iterations = 13.5

[...]

     total energy              =   -2976.50541052 Ry
     estimated scf accuracy    <       0.00000035 Ry

     iteration # 83     ecut=    29.40 Ry     beta= 0.05
     Davidson diagonalization with overlap
     ethr =  3.83E-11,  avg # of iterations = 10.4

     negative rho (up, down):  1.503E-02 0.000E+00

     Adding external electric field

     Computed dipole along edir(3) :
        Dipole                0.9856 Ry au,          2.5051 Debye
        Dipole field          0.0019 Ry au,

        Potential amp.       -0.1724 Ry
        Total length         46.3494 bohr

     End of self-consistent calculation

          k = 0.0000 0.0000 0.0000 ( 18029 PWs)   bands (ev):

   -55.5112 -55.4805 -55.4771 -55.4471 -55.4445 -55.3594 -55.3286 -55.3268
   -55.3243 -55.2946 -55.2933 -55.2597 -55.0505 -54.8865 -54.4939 -54.4599
   -32.0248 -31.9949 -31.8833 -31.8606 -31.8267 -31.8037 -31.7851 -31.7836
   -31.7557 -31.7122 -31.7006 -31.6812 -31.6777 -31.6634 -31.6576 -31.6358
   -31.6168 -31.6113 -31.6100 -31.5780 -31.5683 -31.5593 -31.5332 -31.5214
   -31.5187 -31.5170 -31.5139 -31.5081 -31.4929 -31.4847 -31.4817 -31.4721
   -31.4696 -31.4581 -31.4467 -31.4376 -31.4056 -31.3063 -31.2610 -31.1500
   -31.1413 -31.0770 -30.9011 -30.8124 -30.7900 -30.7179 -30.6313 -30.5203
   -18.6843 -16.5582 -16.2214 -15.9841 -15.7618 -15.6685 -15.6263 -15.4294
   -15.3350 -15.2504 -15.1301 -15.0789 -15.0532 -15.0456 -15.0320 -15.0065
   -14.9723 -14.9665 -14.9632 -14.9390 -14.9196 -14.8683 -14.8621 -14.8554
   -14.7620 -14.6983 -14.6633 -14.6500 -14.6404 -14.5747 -14.2023 -12.9959
   -12.8793 -11.6402  -8.8693  -6.3852  -5.1555  -4.2806  -3.6995  -3.5958
    -3.4678  -3.4200  -3.3727  -3.3441  -3.1516  -3.1063  -2.9465  -2.7720
    -2.6985  -2.6596  -2.6269  -2.5918  -2.5566  -2.4344  -2.4091  -2.3352
    -2.3200  -2.3091  -2.2766  -2.2667  -2.2521  -2.2335  -2.1576  -2.1482
    -2.0631  -1.9514  -1.9014  -1.8867  -1.8679  -1.8265  -1.7881  -1.7753
    -1.7624  -1.7440  -1.7309  -1.6937  -1.5774  -1.5270  -1.4481  -1.3680
    -1.2974  -1.2088  -1.1324  -1.1042  -1.0362  -1.0113  -0.9514  -0.9270
    -0.9129  -0.9066  -0.7893  -0.6812  -0.6630  -0.5933  -0.5323  -0.4558
    -0.4127  -0.3867  -0.3150  -0.2838  -0.2729  -0.2601  -0.2333  -0.2177
    -0.1622  -0.0151   0.0621   0.0803   0.1393   0.1798   0.2314   0.2568
     0.2845   0.3316   0.3638   0.4038   0.4536   0.4572   0.4693   0.4933
     0.5075   0.6671   0.7218   0.7550   0.7804   0.8293   0.9419   0.9846
     1.1384   1.2072   1.2721   1.4547   1.5287   1.6093   1.7202   2.0662
     2.1001   2.1459   3.6145   3.7069   3.7479   3.7693   3.8563   3.8588
     4.0696   4.1146   4.1227   4.1889

[...]

          k = 0.0380-0.0419 0.0000 ( 17876 PWs)   bands (ev):

[...]

          k =-0.0760-0.0000 0.0000 ( 17886 PWs)   bands (ev):

[...]

          k =-0.0760-0.0839 0.0000 ( 17948 PWs)   bands (ev):

   -55.4945 -55.4937 -55.4646 -55.4603 -55.4445 -55.3452 -55.3386 -55.3293
   -55.3116 -55.3111 -55.2777 -55.2755 -55.0489 -54.8879 -54.4769 -54.4768
   -31.8383 -31.8216 -31.8105 -31.8099 -31.7895 -31.7887 -31.7485 -31.7412
   -31.7332 -31.7052 -31.6942 -31.6750 -31.6594 -31.6577 -31.6324 -31.6304
   -31.6278 -31.6258 -31.6177 -31.6168 -31.6145 -31.6132 -31.6127 -31.5610
   -31.5527 -31.5463 -31.5384 -31.5278 -31.5134 -31.5123 -31.5079 -31.5035
   -31.4931 -31.4906 -31.4854 -31.4834 -31.4119 -31.3090 -31.2564 -31.2112
   -31.1525 -31.1048 -30.8028 -30.8027 -30.7139 -30.7138 -30.6746 -30.6746
   -18.6828 -16.5348 -15.6583 -15.5872 -15.4713 -15.4423 -15.3826 -15.3324
   -15.3148 -15.2457 -15.2093 -15.1973 -15.1451 -15.1422 -15.0948 -15.0714
   -15.0443 -15.0406 -15.0256 -14.9827 -14.9720 -14.9567 -14.9526 -14.9491
   -14.8718 -14.8360 -14.8319 -14.8271 -14.7579 -14.6241 -14.3513 -12.9811
   -12.9811 -11.6472  -8.8782  -6.3810  -5.1584  -4.2755  -3.6427  -3.0962
    -2.9436  -2.7906  -2.7204  -2.6396  -2.6389  -2.5963  -2.4695  -2.4469
    -2.4084  -2.3811  -2.3501  -2.3399  -2.3307  -2.3268  -2.3149  -2.3008
    -2.2879  -2.2483  -2.2023  -2.1872  -2.1786  -2.1737  -2.1593  -2.1458
    -2.1301  -2.1276  -2.0914  -2.0629  -2.0356  -2.0002  -1.9449  -1.7456
    -1.7187  -1.6973  -1.6693  -1.6575  -1.6457  -1.6128  -1.5741  -1.5639
    -1.4915  -1.4038  -1.3152  -1.2376  -1.2045  -1.1916  -1.1223  -1.0365
    -0.9952  -0.9565  -0.9190  -0.8590  -0.7998  -0.7621  -0.7249  -0.6431
    -0.6248  -0.6149  -0.5535  -0.5371  -0.4772  -0.4689  -0.3908  -0.3478
    -0.3121  -0.2658  -0.2381  -0.2316  -0.2133  -0.1793  -0.1711  -0.1184
    -0.0007   0.0081   0.0271   0.1324   0.2208   0.4601   0.5168   0.5492
     0.6299   0.6922   0.7537   0.7747   0.7961   0.8003   0.8358   0.8972
     1.0108   1.0206   1.0593   1.1475   1.1742   1.8919   1.8928   1.9657
     1.9659   2.0692   3.9268   3.9531   3.9790   4.0147   4.1152   4.1324
     4.1548   4.1568   4.2705   4.2913

     the Fermi energy is     3.6198 ev

!    total energy              =   -2976.50541664 Ry
     estimated scf accuracy    <       0.00000007 Ry
     smearing contrib. (-TS)   =      -0.02132380 Ry
     internal energy E=F+TS    =   -2976.48409284 Ry

     The total energy is F=E-TS. E is the sum of the following terms:
     one-electron contribution =  -23892.15537243 Ry
     hartree contribution      =   12042.60877412 Ry
     xc contribution           =    -495.74612756 Ry
     ewald contribution        =    9368.80679994 Ry
     electric field correction =       0.00183310 Ry

     convergence has been achieved in  83 iterations

     Forces acting on atoms (cartesian axes, Ry/au):

     atom    1 type  1   force =     0.00015749   -0.00027827    0.09580187
     atom    2 type  1   force =    -0.00022741   -0.00062752   -0.17573812
     atom    3 type  2   force =     0.00006294   -0.00014678   -0.02383926
     atom    4 type  2   force =     0.00006563   -0.00154058    0.05350484
     atom    5 type  2   force =    -0.01126754   -0.00076444    0.00356778
     atom    6 type  2   force =     0.01296891    0.00005517    0.00269063
     atom    7 type  1   force =    -0.00097133    0.00065694   -0.00791722
     atom    8 type  1   force =     0.00042593    0.00624396    0.02298916
     atom    9 type  2   force =    -0.00005726   -0.00031209   -0.00096908
     atom   10 type  2   force =    -0.00136396    0.00128073   -0.01512283
     atom   11 type  2   force =    -0.00030142    0.00024636   -0.00022433
     atom   12 type  2   force =    -0.00021382    0.00022665   -0.00032680
     atom   13 type  1   force =     0.00073998   -0.00046769    0.00028609
     atom   14 type  1   force =    -0.00019333    0.00041708    0.00151546
     atom   15 type  2   force =     0.00001073   -0.00005813    0.00031815
     atom   16 type  2   force =     0.00026657    0.00006115    0.00008569
     atom   17 type  2   force =     0.00075539   -0.00004240    0.00005931
     atom   18 type  2   force =     0.00009983   -0.00041387    0.00037022
     atom   19 type  1   force =    -0.00125684   -0.00000586    0.00063441
     atom   20 type  1   force =     0.00069103   -0.00003096    0.00000503
     atom   21 type  2   force =     0.00008735   -0.00008627    0.10324886
     atom   22 type  2   force =    -0.00066103   -0.00056028   -0.00071763
     atom   23 type  2   force =    -0.07141145   -0.00018236   -0.02770141
     atom   24 type  2   force =     0.07137864    0.00027582   -0.02770414
     atom   25 type  1   force =     0.00002710   -0.00030996    0.09551421
     atom   26 type  1   force =    -0.00017914   -0.00030933   -0.17600950
     atom   27 type  2   force =     0.00009734   -0.00011904   -0.02294432
     atom   28 type  2   force =     0.00011496   -0.00127325    0.05315597
     atom   29 type  2   force =    -0.01151505    0.00015146    0.00362703
     atom   30 type  2   force =     0.01316590    0.00046374    0.00271855
     atom   31 type  1   force =    -0.00100990    0.00373463   -0.01103237
     atom   32 type  1   force =     0.00050933   -0.00740921    0.02338637
     atom   33 type  2   force =    -0.00023970    0.00031851   -0.00033531
     atom   34 type  2   force =    -0.00033403    0.00024813   -0.02184621
     atom   35 type  2   force =     0.00011954    0.00030545   -0.00036507
     atom   36 type  2   force =    -0.00037525    0.00030524   -0.00028483
     atom   37 type  1   force =     0.00040247    0.00057908   -0.00025568
     atom   38 type  1   force =    -0.00024038   -0.00042059    0.00134769
     atom   39 type  2   force =    -0.00006943   -0.00025666    0.00037469
     atom   40 type  2   force =     0.00032246    0.00010250   -0.00082887
     atom   41 type  2   force =     0.00103671    0.00072455    0.00047781
     atom   42 type  2   force =    -0.00063495    0.00036867    0.00012553
     atom   43 type  1   force =    -0.00091683   -0.00075712   -0.00015802
     atom   44 type  1   force =     0.00083569    0.00053691   -0.00011304
     atom   45 type  2   force =     0.00008652   -0.00010203    0.10324217
     atom   46 type  2   force =    -0.07142284   -0.00013610   -0.02768140
     atom   47 type  2   force =     0.07142151    0.00029557   -0.02771107
     atom   48 type  3   force =    -0.00041199   -0.00080139   -0.00033998
     atom   49 type  3   force =    -0.00065865    0.00039732   -0.00050398
     atom   50 type  4   force =    -0.00016541    0.00023832    0.00004840
     atom   51 type  5   force =     0.00011860    0.00071048    0.00008746
     atom   52 type  5   force =    -0.00048609   -0.00025016    0.00003616
     atom   53 type  5   force =     0.00036227   -0.00040927    0.00034275
     atom   54 type  5   force =     0.00013357    0.00014846    0.00004005
     atom   55 type  5   force =     0.00018497   -0.00011773    0.00049919
     atom   56 type  2   force =    -0.00430272   -0.01758464    0.00541659
     atom   57 type  5   force =     0.00112846    0.00155372   -0.00051288
     atom   58 type  5   force =     0.00310991    0.01512736   -0.00433478

     Total force =     0.367560     Total SCF correction =     0.000729
  @ DRIVER MODE: Message from server: STATUS
  @ DRIVER MODE: Message from server: GETFORCE
  @ DRIVER MODE: Returning v,forces,stress,ensemble

     Writing output data file ./calc.save/
  @ DRIVER MODE: Message from server: EXIT
  @ DRIVE MODE: Exiting

     General routines

     Parallel routines

   This run was terminated on:   9:38:23  16Sep2021

   JOB DONE.