     Program PWSCF v.6.7GPU starts on 16Sep2021 at  7:34:14

     R & G space division:  proc/nbgrp/npool/nimage =      10
     Reading input from /storage/home/hcoda1/3/ntian30/research/carbon/CxH_vib/H2O_calc/ads_slab/CH3NHH2O_a/out_0050/pw.inp
Warning: card &CELL ignored
Warning: card   CELL_DYNAMICS='IPI', ignored
Warning: card / ignored

     Current dimensions of program PWSCF are:
     Max number of different atomic species (ntypx) = 10
     Max number of k-points (npk) =  40000
     Max angular momentum in pseudopotentials (lmaxx) =  3
     Presently no symmetry can be used with electric field

     Message from routine cell_base_init:
     DEPRECATED: use true lattice parameter, not A to a.u. conversion factor

     IMPORTANT: XC functional enforced from input :
     Exchange-correlation= BEEF-VDW
                           (   1   4  43  14   2   0   0)
     Any further DFT definition will be discarded
     Please, verify this is what you really want

  @ DRIVER MODE: Connecting to
 qe_1139763_2852633.sched-torque.pace.gatech.edu5nvrr47p_scratch
  using UNIX socket
  @ DRIVER MODE: Message from server: STATUS
  @ DRIVER MODE: Message from server: INIT
  @ DRIVER MODE: Receiving replica           0          -1
  @ DRIVER MODE: Receiving encoded integer          25
  @ DRIVER MODE:  SCF:  T  FORCE:  T  STRESS:  F  VC:  F  ENSEMBLE:  F
  @ DRIVER MODE:  SCF:  T  FORCE:  T  STRESS:  F  VC:  F  ENSEMBLE:  F

     Using Slab Decomposition

     bravais-lattice index     =            0
     lattice parameter (alat)  =       1.8897  a.u.
     unit-cell volume          =    6658.9804 (a.u.)^3
     number of atoms/cell      =           56
     number of atomic types    =            5
     number of electrons       =       399.00
     number of Kohn-Sham states=          209
     kinetic-energy cutoff     =      29.3995  Ry
     charge density cutoff     =     293.9946  Ry
     scf convergence threshold =      7.3E-08
     mixing beta               =       0.0500
     number of iterations used =            8  plain     mixing
     Exchange-correlation= BEEF-VDW
                           (   1   4  43  14   2   0   0)

     celldm(1)=   1.889726  celldm(2)=   0.000000  celldm(3)=   0.000000
     celldm(4)=   0.000000  celldm(5)=   0.000000  celldm(6)=   0.000000

     crystal axes: (cart. coord. in units of alat)
               a(1) = (   6.579727   0.000000   0.000000 )
               a(2) = (  -0.000775   5.961596   0.000000 )
               a(3) = (   0.000000   0.000000  25.155947 )

     reciprocal axes: (cart. coord. in units 2 pi/alat)
               b(1) = (  0.151982  0.000020  0.000000 )
               b(2) = (  0.000000  0.167740  0.000000 )
               b(3) = (  0.000000  0.000000  0.039752 )

     PseudoPot. # 1 for Ti read from file:
     /storage/coda1/p-amedford6/0/shared/rich_project_chbe-medford/medford-share/data/pseudos_module/espresso/nninc/pbe/van/Ti.UPF
     MD5 check sum: 8e4df49b7f0d34bbd5052bf3f5ea0213
     Pseudo is Ultrasoft, Zval = 12.0
     Generated by new atomic code, or converted to UPF format
     Using radial grid of  851 points,  6 beta functions with:
                l(1) =   0
                l(2) =   0
                l(3) =   1
                l(4) =   1
                l(5) =   2
                l(6) =   2
     Q(r) pseudized with  8 coefficients,  rinner =    1.000   1.000   1.000
                                                       1.000   1.000

     PseudoPot. # 2 for O  read from file:
     /storage/coda1/p-amedford6/0/shared/rich_project_chbe-medford/medford-share/data/pseudos_module/espresso/nninc/pbe/van/O.UPF
     MD5 check sum: 78c19812648e8988a0fe644b0f25305e
     Pseudo is Ultrasoft, Zval =  6.0
     Generated by new atomic code, or converted to UPF format
     Using radial grid of  737 points,  4 beta functions with:
                l(1) =   0
                l(2) =   0
                l(3) =   1
                l(4) =   1
     Q(r) pseudized with  8 coefficients,  rinner =    0.800   0.800   0.800

     PseudoPot. # 3 for H  read from file:
     /storage/coda1/p-amedford6/0/shared/rich_project_chbe-medford/medford-share/data/pseudos_module/espresso/nninc/pbe/van/H.UPF
     MD5 check sum: b5ee9d7bfd3a09ee7748110bda690ff7
     Pseudo is Ultrasoft, Zval =  1.0
     Generated by new atomic code, or converted to UPF format
     Using radial grid of  615 points,  1 beta functions with:
                l(1) =   0
     Q(r) pseudized with  8 coefficients,  rinner =    0.800

     PseudoPot. # 4 for N  read from file:
     /storage/coda1/p-amedford6/0/shared/rich_project_chbe-medford/medford-share/data/pseudos_module/espresso/nninc/pbe/van/N.UPF
     MD5 check sum: 90d10febe142ad51ac9d5be1deb811c4
     Pseudo is Ultrasoft, Zval =  5.0
     Generated by new atomic code, or converted to UPF format
     Using radial grid of  729 points,  4 beta functions with:
                l(1) =   0
                l(2) =   0
                l(3) =   1
                l(4) =   1
     Q(r) pseudized with  8 coefficients,  rinner =    0.800   0.800   0.800

     PseudoPot. # 5 for C  read from file:
     /storage/coda1/p-amedford6/0/shared/rich_project_chbe-medford/medford-share/data/pseudos_module/espresso/nninc/pbe/van/C.UPF
     MD5 check sum: 1a69bf6b8db32088f5b2163dbdb77a27
     Pseudo is Ultrasoft, Zval =  4.0
     Generated by new atomic code, or converted to UPF format
     Using radial grid of  721 points,  4 beta functions with:
                l(1) =   0
                l(2) =   0
                l(3) =   1
                l(4) =   1
     Q(r) pseudized with  8 coefficients,  rinner =    0.800   0.800   0.800

     atomic species   valence    mass     pseudopotential
        Ti1           12.00    47.86700     Ti( 1.00)
        O1             6.00    15.99900     O ( 1.00)
        H1             1.00     1.00800     H ( 1.00)
        N1             5.00    14.00700     N ( 1.00)
        C1             4.00    12.01100     C ( 1.00)

     No symmetry found

   Cartesian axes

     site n.     atom                  positions (alat units)
         1           Ti1 tau(   1) = (   0.0004258   2.9801865   6.0000000  )
         2           Ti1 tau(   2) = (   3.2906075   1.4906267   6.0002472  )
         3           O1  tau(   3) = (   0.0006271   0.0005054   7.9858123  )
         4           O1  tau(   4) = (   3.2906025   0.0005020   7.3038282  )
         5           O1  tau(   5) = (   4.5942328   1.4918067   9.2879030  )
         6           O1  tau(   6) = (   1.9868534   1.4903216   9.2879459  )
         7           Ti1 tau(   7) = (   3.2907910   2.8959150   9.1758416  )
         8           Ti1 tau(   8) = (   0.0015273   1.4827037   9.2680791  )
         9           O1  tau(   9) = (   3.2896571   0.0076959  11.3233140  )
        10           O1  tau(  10) = (   0.0116148   5.9584955  10.6183126  )
        11           O1  tau(  11) = (   1.3168077   1.5009220  12.6157425  )
        12           O1  tau(  12) = (   5.2956243   1.4929856  12.6075824  )
        13           Ti1 tau(  13) = (   6.5239244   2.9540340  12.6210794  )
        14           Ti1 tau(  14) = (   3.2085880   1.4976218  12.4699624  )
        15           O1  tau(  15) = (   6.5712616   0.0419518  14.6436513  )
        16           O1  tau(  16) = (   3.3111435   0.0202601  13.9161875  )
        17           O1  tau(  17) = (   4.5291760   1.5523016  16.0784362  )
        18           O1  tau(  18) = (   2.0445308   1.5488630  16.0432715  )
        19           Ti1 tau(  19) = (   3.3059752   3.0257308  15.6838679  )
        20           Ti1 tau(  20) = (   0.0592185   1.5662548  15.8694889  )
        21           O1  tau(  21) = (   3.2904802   0.0005063   4.7018136  )
        22           O1  tau(  22) = (   0.0264932   0.0561689  17.2024660  )
        23           O1  tau(  23) = (   1.3043587   1.4918075   6.0039043  )
        24           O1  tau(  24) = (   5.2767064   1.4903225   6.0039473  )
        25           Ti1 tau(  25) = (   0.0000382   5.9609847   6.0000000  )
        26           Ti1 tau(  26) = (   3.2902200   4.4714249   6.0002472  )
        27           O1  tau(  27) = (   0.0002396   2.9813036   7.9858123  )
        28           O1  tau(  28) = (   3.2902150   2.9813002   7.3038282  )
        29           O1  tau(  29) = (   4.5938453   4.4726049   9.2879030  )
        30           O1  tau(  30) = (   1.9864658   4.4711199   9.2879459  )
        31           Ti1 tau(  31) = (   3.2891106   5.8743827   9.1763621  )
        32           Ti1 tau(  32) = (   0.0006254   4.4649316   9.2693709  )
        33           O1  tau(  33) = (   3.2898653   2.9926188  11.3210358  )
        34           O1  tau(  34) = (   0.0092240   2.9805883  10.6323155  )
        35           O1  tau(  35) = (   1.3106253   4.4883450  12.6271249  )
        36           O1  tau(  36) = (   5.2968722   4.4793810  12.6200386  )
        37           Ti1 tau(  37) = (   6.5212985   5.9329073  12.5685303  )
        38           Ti1 tau(  38) = (   3.2059443   4.4781599  12.4721232  )
        39           O1  tau(  39) = (   6.5764971   2.9600267  14.6431433  )
        40           O1  tau(  40) = (   3.3056941   3.0038382  13.8936370  )
        41           O1  tau(  41) = (   4.5394310   4.5052612  16.0827012  )
        42           O1  tau(  42) = (   2.0570581   4.5113261  16.0718816  )
        43           Ti1 tau(  43) = (   3.3383738   0.0382055  15.7109988  )
        44           Ti1 tau(  44) = (   0.0469139   4.6840235  16.0886640  )
        45           O1  tau(  45) = (   3.2900926   2.9813045   4.7018136  )
        46           O1  tau(  46) = (   1.3039711   4.4726057   6.0039043  )
        47           O1  tau(  47) = (   5.2763189   4.4711207   6.0039473  )
        48           H1  tau(  48) = (   5.6101632   2.9904038  17.7880820  )
        49           N1  tau(  49) = (   6.5649722   3.0046358  17.4438072  )
        50           C1  tau(  50) = (   0.8874553   2.9889031  18.6120612  )
        51           H1  tau(  51) = (   1.3591778   3.9628686  18.7739097  )
        52           H1  tau(  52) = (   0.3310755   2.7322232  19.5165709  )
        53           H1  tau(  53) = (   1.6717793   2.2402645  18.4914768  )
        54           O1  tau(  54) = (   3.2567199   5.9268012  21.6217354  )
        55           H1  tau(  55) = (   4.0245811   5.9269051  22.2091127  )
        56           H1  tau(  56) = (   2.4987544   5.9269923  22.2092946  )

     number of k points=    10  Fermi-Dirac smearing, width (Ry)=  0.0073
                       cart. coord. in units 2pi/alat
        k(    1) = (   0.0000000   0.0000000   0.0000000), wk =   0.1250000
        k(    2) = (   0.0000000   0.0419351   0.0000000), wk =   0.2500000
        k(    3) = (   0.0000000  -0.0838702   0.0000000), wk =   0.1250000
        k(    4) = (   0.0379955   0.0000049   0.0000000), wk =   0.2500000
        k(    5) = (   0.0379955   0.0419400   0.0000000), wk =   0.2500000
        k(    6) = (   0.0379955  -0.0838652   0.0000000), wk =   0.2500000
        k(    7) = (   0.0379955  -0.0419301   0.0000000), wk =   0.2500000
        k(    8) = (  -0.0759910  -0.0000099   0.0000000), wk =   0.1250000
        k(    9) = (  -0.0759910   0.0419252   0.0000000), wk =   0.2500000
        k(   10) = (  -0.0759910  -0.0838800   0.0000000), wk =   0.1250000

     Initial potential from superposition of free atoms

     starting charge  382.99914, renormalised to  399.00000

     negative rho (up, down):  9.630E-03 0.000E+00

     %%%%%%%%%%%%%%%%%%%%%%%%%%%%%%%%%%%%%%%%%%%%%%%%%%%%%%%%%%%%%%%%%%%%%%%%
     %                                                                      %
     % You are using vdW-DF, which was implemented by the Thonhauser group. %
     % Please cite the following two papers that made this development      %
     % possible and the two reviews that describe the various versions:     %
     %                                                                      %
     %   T. Thonhauser et al., PRL 115, 136402 (2015).                      %
     %   T. Thonhauser et al., PRB 76, 125112 (2007).                       %
     %   K. Berland et al., Rep. Prog. Phys. 78, 066501 (2015).             %
     %   D.C. Langreth et al., J. Phys.: Condens. Matter 21, 084203 (2009). %
     %                                                                      %
     %                                                                      %
     % If you are calculating the stress with vdW-DF, please also cite:     %
     %                                                                      %
     %   R. Sabatini et al., J. Phys.: Condens. Matter 24, 424209 (2012).   %
     %                                                                      %
     %%%%%%%%%%%%%%%%%%%%%%%%%%%%%%%%%%%%%%%%%%%%%%%%%%%%%%%%%%%%%%%%%%%%%%%%

     Adding external electric field

     Computed dipole along edir(3) :
        Dipole              -12.5493 Ry au,        -31.8972 Debye
        Dipole field         -0.0237 Ry au,

        Potential amp.        2.1953 Ry
        Total length         46.3494 bohr

     Starting wfcs are  302 atomic wfcs
  @ DRIVER MODE: Message from server: STATUS
  @ DRIVER MODE: Message from server: POSDATA
  @ DRIVER MODE: Reading and sharing cell
  @ DRIVER MODE: Reading and sharing positions
  @ DRIVER MODE: Received positions

     Self-consistent Calculation

     iteration #  1     ecut=    29.40 Ry     beta= 0.05
     Davidson diagonalization with overlap
     c_bands:  2 eigenvalues not converged
     c_bands:  2 eigenvalues not converged
     c_bands:  4 eigenvalues not converged
     c_bands:  3 eigenvalues not converged
     c_bands:  3 eigenvalues not converged
     c_bands:  3 eigenvalues not converged
     c_bands:  5 eigenvalues not converged
     c_bands:  4 eigenvalues not converged
     c_bands:  5 eigenvalues not converged
     ethr =  1.00E-05,  avg # of iterations = 22.0

[...]

     total energy              =   -2445.22598525 Ry
     estimated scf accuracy    <    5721.88016029 Ry

     iteration #  2     ecut=    29.40 Ry     beta= 0.05
     Davidson diagonalization with overlap
     ethr =  1.00E-02,  avg # of iterations = 22.0

[...]

     iteration # 60     ecut=    29.40 Ry     beta= 0.05
     Davidson diagonalization with overlap
     c_bands:  1 eigenvalues not converged
     ethr =  5.09E-09,  avg # of iterations = 12.7

[...]

     total energy              =   -2955.21554677 Ry
     estimated scf accuracy    <       0.00000012 Ry

     iteration # 72     ecut=    29.40 Ry     beta= 0.05
     Davidson diagonalization with overlap
     ethr =  2.97E-11,  avg # of iterations =  5.0

     negative rho (up, down):  1.112E-02 0.000E+00

     Adding external electric field

     Computed dipole along edir(3) :
        Dipole                1.3287 Ry au,          3.3772 Debye
        Dipole field          0.0025 Ry au,

        Potential amp.       -0.2324 Ry
        Total length         46.3494 bohr

     End of self-consistent calculation

          k = 0.0000 0.0000 0.0000 ( 18029 PWs)   bands (ev):

   -55.4954 -55.4866 -55.4613 -55.4506 -55.4058 -55.3369 -55.3337 -55.2997
   -55.2991 -55.2658 -55.2579 -55.2242 -55.0706 -54.7881 -54.4672 -54.4332
   -32.0448 -31.9767 -31.8505 -31.8354 -31.8147 -31.7991 -31.7886 -31.7490
   -31.7367 -31.7365 -31.7099 -31.7022 -31.6690 -31.6474 -31.6390 -31.6359
   -31.6287 -31.5987 -31.5772 -31.5525 -31.5450 -31.5404 -31.5247 -31.5035
   -31.4941 -31.4894 -31.4859 -31.4775 -31.4610 -31.4583 -31.4531 -31.4490
   -31.4353 -31.4299 -31.4113 -31.4067 -31.3706 -31.3346 -31.2400 -31.0621
   -31.0560 -30.9867 -30.8740 -30.7865 -30.7640 -30.6908 -30.6044 -30.4932
   -18.6344 -16.2535 -15.9717 -15.7918 -15.6492 -15.6169 -15.5288 -15.3310
   -15.2055 -15.1900 -15.0858 -15.0537 -15.0292 -15.0225 -14.9939 -14.9905
   -14.9350 -14.9280 -14.9189 -14.9060 -14.8471 -14.8232 -14.7825 -14.6917
   -14.6675 -14.6520 -14.6247 -14.5423 -14.5365 -14.0936 -13.6306 -12.9696
   -12.8533  -8.4740  -6.4053  -3.9139  -3.6239  -3.4500  -3.4116  -3.3973
    -3.3468  -3.0964  -3.0787  -2.8443  -2.7118  -2.6949  -2.6793  -2.6662
    -2.6489  -2.6302  -2.4391  -2.3934  -2.3258  -2.3097  -2.2878  -2.2796
    -2.2733  -2.2637  -2.2600  -2.2154  -2.1601  -2.0467  -2.0288  -1.9222
    -1.8785  -1.8529  -1.8044  -1.7600  -1.7539  -1.7435  -1.7241  -1.7122
    -1.6900  -1.6723  -1.5371  -1.4744  -1.3418  -1.2960  -1.2884  -1.0947
    -1.0568  -0.9642  -0.9377  -0.9212  -0.9131  -0.8810  -0.7991  -0.7072
    -0.6536  -0.6416  -0.5876  -0.5086  -0.4948  -0.4100  -0.3858  -0.3802
    -0.3270  -0.2638  -0.2540  -0.2451  -0.1997  -0.1319  -0.0559   0.0194
     0.0718   0.0932   0.1197   0.1987   0.2277   0.3226   0.3435   0.3886
     0.3956   0.4418   0.4838   0.4926   0.4981   0.5140   0.5333   0.6812
     0.7891   0.8447   0.8776   0.8886   1.0459   1.0818   1.1695   1.2565
     1.4821   1.5548   1.6494   1.7480   1.8046   2.1256   2.1709   3.6479
     3.7271   3.7808   3.7900   3.8855   3.8928   4.0975   4.1068   4.1178
     4.1898

[...]

          k = 0.0380-0.0419 0.0000 ( 17876 PWs)   bands (ev):

[...]

          k =-0.0760-0.0000 0.0000 ( 17886 PWs)   bands (ev):

[...]

          k =-0.0760-0.0839 0.0000 ( 17948 PWs)   bands (ev):

   -55.4787 -55.4779 -55.4687 -55.4682 -55.4011 -55.3414 -55.3185 -55.3142
   -55.2834 -55.2816 -55.2415 -55.2407 -55.0697 -54.7889 -54.4502 -54.4500
   -31.8491 -31.8473 -31.7923 -31.7917 -31.7824 -31.7743 -31.7735 -31.7580
   -31.6987 -31.6965 -31.6899 -31.6862 -31.6650 -31.6325 -31.6157 -31.6123
   -31.6041 -31.6001 -31.5980 -31.5973 -31.5946 -31.5818 -31.5795 -31.5470
   -31.5369 -31.5356 -31.5108 -31.4966 -31.4798 -31.4794 -31.4741 -31.4736
   -31.4568 -31.4564 -31.4561 -31.4524 -31.4029 -31.3374 -31.2352 -31.1250
   -31.0583 -31.0116 -30.7768 -30.7766 -30.6868 -30.6866 -30.6477 -30.6476
   -18.6343 -15.7047 -15.6724 -15.4341 -15.4282 -15.4182 -15.4037 -15.2619
   -15.2074 -15.1986 -15.1918 -15.1660 -15.1445 -15.0922 -15.0652 -15.0274
   -15.0218 -15.0163 -15.0134 -14.9515 -14.9456 -14.9244 -14.9170 -14.8030
   -14.8001 -14.7990 -14.7273 -14.6579 -14.5224 -14.2622 -13.6521 -12.9553
   -12.9550  -8.4777  -6.4068  -3.9252  -2.9982  -2.9607  -2.8134  -2.7177
    -2.6750  -2.6610  -2.6438  -2.5657  -2.4360  -2.4055  -2.3891  -2.3721
    -2.3576  -2.3204  -2.3138  -2.3014  -2.2888  -2.2814  -2.2633  -2.2273
    -2.1887  -2.1608  -2.1532  -2.1437  -2.1189  -2.1068  -2.0812  -2.0759
    -2.0415  -2.0332  -2.0168  -1.9930  -1.7358  -1.7127  -1.6941  -1.6239
    -1.6166  -1.5842  -1.5757  -1.5563  -1.5431  -1.4908  -1.3916  -1.2252
    -1.1919  -1.1853  -1.1650  -1.0998  -1.0786  -0.9291  -0.9019  -0.8828
    -0.8453  -0.7961  -0.7637  -0.7247  -0.6888  -0.6530  -0.5910  -0.5829
    -0.5030  -0.4544  -0.4534  -0.4290  -0.4280  -0.3571  -0.2782  -0.2594
    -0.2485  -0.2069  -0.1939  -0.1125  -0.0899   0.0080   0.0223   0.0876
     0.1212   0.1916   0.3866   0.4901   0.5492   0.5746   0.6281   0.7233
     0.7774   0.7913   0.8253   0.8305   0.8915   0.9329   1.0472   1.0542
     1.1219   1.2240   1.7507   1.9192   1.9200   1.9906   1.9908   3.9090
     3.9155   3.9666   3.9953   4.1477   4.1524   4.1749   4.1759   4.2958
     4.3144

     the Fermi energy is     3.6409 ev

!    total energy              =   -2955.21556326 Ry
     estimated scf accuracy    <       0.00000007 Ry
     smearing contrib. (-TS)   =      -0.02205159 Ry
     internal energy E=F+TS    =   -2955.19351167 Ry

     The total energy is F=E-TS. E is the sum of the following terms:
     one-electron contribution =  -23380.04382049 Ry
     hartree contribution      =   11781.92117335 Ry
     xc contribution           =    -489.68688970 Ry
     ewald contribution        =    9132.61269355 Ry
     electric field correction =       0.00333161 Ry

     convergence has been achieved in  72 iterations

     Forces acting on atoms (cartesian axes, Ry/au):

     atom    1 type  1   force =     0.00012099   -0.00019862    0.09688800
     atom    2 type  1   force =     0.00004117   -0.00046211   -0.17495383
     atom    3 type  2   force =     0.00013024    0.00001596   -0.02540478
     atom    4 type  2   force =    -0.00002969   -0.00126744    0.05223754
     atom    5 type  2   force =    -0.01216483    0.00000557    0.00289170
     atom    6 type  2   force =     0.01361956    0.00055223    0.00226495
     atom    7 type  1   force =     0.00059256    0.00031282   -0.01253428
     atom    8 type  1   force =     0.00044621    0.00706993    0.03084435
     atom    9 type  2   force =     0.00032396    0.00016098    0.00044970
     atom   10 type  2   force =    -0.00271456    0.00207595   -0.01689353
     atom   11 type  2   force =     0.00018374   -0.00035856    0.00013859
     atom   12 type  2   force =     0.00006258   -0.00035450    0.00023758
     atom   13 type  1   force =    -0.00019020    0.00035859   -0.00001523
     atom   14 type  1   force =    -0.00012541    0.00033599   -0.00036514
     atom   15 type  2   force =    -0.00003152   -0.00029868   -0.00005928
     atom   16 type  2   force =     0.00014621    0.00038147    0.00130260
     atom   17 type  2   force =    -0.00028002   -0.00036208    0.00027959
     atom   18 type  2   force =     0.00034905   -0.00033916    0.00003728
     atom   19 type  1   force =     0.00021711   -0.00038641    0.00037034
     atom   20 type  1   force =    -0.00046811    0.00025343    0.00031221
     atom   21 type  2   force =     0.00005981   -0.00002069    0.10305952
     atom   22 type  2   force =     0.00017157   -0.00082102    0.00026221
     atom   23 type  2   force =    -0.07165786   -0.00015979   -0.02782651
     atom   24 type  2   force =     0.07155686    0.00033857   -0.02788323
     atom   25 type  1   force =     0.00008691   -0.00017162    0.09666832
     atom   26 type  1   force =     0.00009564   -0.00024941   -0.17506648
     atom   27 type  2   force =     0.00011891   -0.00010941   -0.02446556
     atom   28 type  2   force =     0.00004006   -0.00101565    0.05207341
     atom   29 type  2   force =    -0.01235840    0.00066923    0.00265846
     atom   30 type  2   force =     0.01368417    0.00106096    0.00204004
     atom   31 type  1   force =     0.00049206    0.00306604   -0.01333815
     atom   32 type  1   force =     0.00030933   -0.00927048    0.03127781
     atom   33 type  2   force =    -0.00012686    0.00016411    0.00078270
     atom   34 type  2   force =    -0.00202541    0.00179146   -0.02552145
     atom   35 type  2   force =     0.00027435    0.00019090    0.00036667
     atom   36 type  2   force =     0.00021588    0.00010289    0.00035261
     atom   37 type  1   force =    -0.00026478   -0.00064378    0.00016050
     atom   38 type  1   force =    -0.00008814    0.00002417   -0.00023252
     atom   39 type  2   force =     0.00005487   -0.00079995    0.00028897
     atom   40 type  2   force =     0.00024785    0.00003261   -0.00008218
     atom   41 type  2   force =    -0.00040777    0.00009751   -0.00006251
     atom   42 type  2   force =     0.00037735   -0.00011776   -0.00032668
     atom   43 type  1   force =    -0.00032318    0.00050252   -0.00076380
     atom   44 type  1   force =    -0.00042638   -0.00061316    0.00122035
     atom   45 type  2   force =     0.00004219   -0.00004645    0.10310258
     atom   46 type  2   force =    -0.07165422   -0.00005574   -0.02782317
     atom   47 type  2   force =     0.07157448    0.00036213   -0.02789211
     atom   48 type  3   force =     0.00027930   -0.00044511    0.00011412
     atom   49 type  4   force =    -0.00007676   -0.00042849   -0.00024212
     atom   50 type  5   force =    -0.00023555   -0.00011668    0.00087929
     atom   51 type  3   force =    -0.00050076   -0.00036570    0.00042271
     atom   52 type  3   force =     0.00045582   -0.00067206   -0.00071081
     atom   53 type  3   force =     0.00029755    0.00028627   -0.00001983
     atom   54 type  2   force =     0.01247433   -0.00006521   -0.00815029
     atom   55 type  3   force =     0.00056776   -0.00001945   -0.00162426
     atom   56 type  3   force =    -0.01356004    0.00002289    0.00827301

     Total force =     0.368921     Total SCF correction =     0.000627
  @ DRIVER MODE: Message from server: STATUS
  @ DRIVER MODE: Message from server: GETFORCE
  @ DRIVER MODE: Returning v,forces,stress,ensemble

     Writing output data file ./calc.save/
  @ DRIVER MODE: Message from server: EXIT
  @ DRIVE MODE: Exiting

     General routines

     Parallel routines

   This run was terminated on:   7:53:46  16Sep2021

   JOB DONE.