     Program PWSCF v.6.7GPU starts on 25Sep2021 at 21:28:24

     R & G space division:  proc/nbgrp/npool/nimage =       8
     Reading input from /storage/home/hcoda1/3/ntian30/research/carbon/CxH_vib/H2O_calc/ads_slab/CH3N2OHHO_l/out_0014/pw.inp
Warning: card &CELL ignored
Warning: card   CELL_DYNAMICS='IPI', ignored
Warning: card / ignored

     Current dimensions of program PWSCF are:
     Max number of different atomic species (ntypx) = 10
     Max number of k-points (npk) =  40000
     Max angular momentum in pseudopotentials (lmaxx) =  3
     Presently no symmetry can be used with electric field

     Message from routine cell_base_init:
     DEPRECATED: use true lattice parameter, not A to a.u. conversion factor

     IMPORTANT: XC functional enforced from input :
     Exchange-correlation= BEEF-VDW
                           (   1   4  43  14   2   0   0)
     Any further DFT definition will be discarded
     Please, verify this is what you really want

  @ DRIVER MODE: Connecting to
 qe_1139763_2971669.sched-torque.pace.gatech.edu728jr456_scratch
  using UNIX socket
  @ DRIVER MODE: Message from server: STATUS
  @ DRIVER MODE: Message from server: INIT
  @ DRIVER MODE: Receiving replica           0          -1
  @ DRIVER MODE: Receiving encoded integer          25
  @ DRIVER MODE:  SCF:  T  FORCE:  T  STRESS:  F  VC:  F  ENSEMBLE:  F
  @ DRIVER MODE:  SCF:  T  FORCE:  T  STRESS:  F  VC:  F  ENSEMBLE:  F

     Using Slab Decomposition

     bravais-lattice index     =            0
     lattice parameter (alat)  =       1.8897  a.u.
     unit-cell volume          =    6658.9804 (a.u.)^3
     number of atoms/cell      =           57
     number of atomic types    =            5
     number of electrons       =       409.00
     number of Kohn-Sham states=          214
     kinetic-energy cutoff     =      29.3995  Ry
     charge density cutoff     =     293.9946  Ry
     scf convergence threshold =      7.3E-08
     mixing beta               =       0.0500
     number of iterations used =            8  plain     mixing
     Exchange-correlation= BEEF-VDW
                           (   1   4  43  14   2   0   0)

     celldm(1)=   1.889726  celldm(2)=   0.000000  celldm(3)=   0.000000
     celldm(4)=   0.000000  celldm(5)=   0.000000  celldm(6)=   0.000000

     crystal axes: (cart. coord. in units of alat)
               a(1) = (   6.579727   0.000000   0.000000 )
               a(2) = (  -0.000775   5.961596   0.000000 )
               a(3) = (   0.000000   0.000000  25.155947 )

     reciprocal axes: (cart. coord. in units 2 pi/alat)
               b(1) = (  0.151982  0.000020  0.000000 )
               b(2) = (  0.000000  0.167740  0.000000 )
               b(3) = (  0.000000  0.000000  0.039752 )

     PseudoPot. # 1 for Ti read from file:
     /storage/coda1/p-amedford6/0/shared/rich_project_chbe-medford/medford-share/data/pseudos_module/espresso/nninc/pbe/van/Ti.UPF
     MD5 check sum: 8e4df49b7f0d34bbd5052bf3f5ea0213
     Pseudo is Ultrasoft, Zval = 12.0
     Generated by new atomic code, or converted to UPF format
     Using radial grid of  851 points,  6 beta functions with:
                l(1) =   0
                l(2) =   0
                l(3) =   1
                l(4) =   1
                l(5) =   2
                l(6) =   2
     Q(r) pseudized with  8 coefficients,  rinner =    1.000   1.000   1.000
                                                       1.000   1.000

     PseudoPot. # 2 for O  read from file:
     /storage/coda1/p-amedford6/0/shared/rich_project_chbe-medford/medford-share/data/pseudos_module/espresso/nninc/pbe/van/O.UPF
     MD5 check sum: 78c19812648e8988a0fe644b0f25305e
     Pseudo is Ultrasoft, Zval =  6.0
     Generated by new atomic code, or converted to UPF format
     Using radial grid of  737 points,  4 beta functions with:
                l(1) =   0
                l(2) =   0
                l(3) =   1
                l(4) =   1
     Q(r) pseudized with  8 coefficients,  rinner =    0.800   0.800   0.800

     PseudoPot. # 3 for N  read from file:
     /storage/coda1/p-amedford6/0/shared/rich_project_chbe-medford/medford-share/data/pseudos_module/espresso/nninc/pbe/van/N.UPF
     MD5 check sum: 90d10febe142ad51ac9d5be1deb811c4
     Pseudo is Ultrasoft, Zval =  5.0
     Generated by new atomic code, or converted to UPF format
     Using radial grid of  729 points,  4 beta functions with:
                l(1) =   0
                l(2) =   0
                l(3) =   1
                l(4) =   1
     Q(r) pseudized with  8 coefficients,  rinner =    0.800   0.800   0.800

     PseudoPot. # 4 for C  read from file:
     /storage/coda1/p-amedford6/0/shared/rich_project_chbe-medford/medford-share/data/pseudos_module/espresso/nninc/pbe/van/C.UPF
     MD5 check sum: 1a69bf6b8db32088f5b2163dbdb77a27
     Pseudo is Ultrasoft, Zval =  4.0
     Generated by new atomic code, or converted to UPF format
     Using radial grid of  721 points,  4 beta functions with:
                l(1) =   0
                l(2) =   0
                l(3) =   1
                l(4) =   1
     Q(r) pseudized with  8 coefficients,  rinner =    0.800   0.800   0.800

     PseudoPot. # 5 for H  read from file:
     /storage/coda1/p-amedford6/0/shared/rich_project_chbe-medford/medford-share/data/pseudos_module/espresso/nninc/pbe/van/H.UPF
     MD5 check sum: b5ee9d7bfd3a09ee7748110bda690ff7
     Pseudo is Ultrasoft, Zval =  1.0
     Generated by new atomic code, or converted to UPF format
     Using radial grid of  615 points,  1 beta functions with:
                l(1) =   0
     Q(r) pseudized with  8 coefficients,  rinner =    0.800

     atomic species   valence    mass     pseudopotential
        Ti1           12.00    47.86700     Ti( 1.00)
        O1             6.00    15.99900     O ( 1.00)
        N1             5.00    14.00700     N ( 1.00)
        C1             4.00    12.01100     C ( 1.00)
        H1             1.00     1.00800     H ( 1.00)

     No symmetry found

   Cartesian axes

     site n.     atom                  positions (alat units)
         1           Ti1 tau(   1) = (   0.0004258   2.9801865   6.0000000  )
         2           Ti1 tau(   2) = (   3.2906075   1.4906267   6.0002472  )
         3           O1  tau(   3) = (   0.0006271   0.0005054   7.9858123  )
         4           O1  tau(   4) = (   3.2906025   0.0005020   7.3038282  )
         5           O1  tau(   5) = (   4.5942328   1.4918067   9.2879030  )
         6           O1  tau(   6) = (   1.9868534   1.4903216   9.2879459  )
         7           Ti1 tau(   7) = (   3.2907910   2.8959150   9.1758416  )
         8           Ti1 tau(   8) = (   0.0015273   1.4827037   9.2680791  )
         9           O1  tau(   9) = (   3.2779673   5.9607700  11.3423085  )
        10           O1  tau(  10) = (   0.0116148   5.9584955  10.6183126  )
        11           O1  tau(  11) = (   1.2787083   1.4818767  12.6451794  )
        12           O1  tau(  12) = (   5.2707140   1.4872516  12.6060838  )
        13           Ti1 tau(  13) = (   0.0520196   2.9452147  12.6012095  )
        14           Ti1 tau(  14) = (   3.3669591   1.4706787  12.5087448  )
        15           O1  tau(  15) = (   6.5166736   5.9505275  14.6414754  )
        16           O1  tau(  16) = (   3.3002175   0.0041348  13.9548274  )
        17           O1  tau(  17) = (   4.5235890   1.5203341  16.0633414  )
        18           O1  tau(  18) = (   1.9992342   1.5602939  15.9747780  )
        19           Ti1 tau(  19) = (   3.2541499   3.0080313  15.6961896  )
        20           Ti1 tau(  20) = (   6.5591015   1.5323982  15.7823192  )
        21           O1  tau(  21) = (   3.2904802   0.0005063   4.7018136  )
        22           O1  tau(  22) = (   0.0960927   0.0099221  17.2178370  )
        23           O1  tau(  23) = (   1.3043587   1.4918075   6.0039043  )
        24           O1  tau(  24) = (   5.2767064   1.4903225   6.0039473  )
        25           Ti1 tau(  25) = (   0.0000382   5.9609847   6.0000000  )
        26           Ti1 tau(  26) = (   3.2902200   4.4714249   6.0002472  )
        27           O1  tau(  27) = (   0.0002396   2.9813036   7.9858123  )
        28           O1  tau(  28) = (   3.2902150   2.9813002   7.3038282  )
        29           O1  tau(  29) = (   4.5938453   4.4726049   9.2879030  )
        30           O1  tau(  30) = (   1.9864658   4.4711199   9.2879459  )
        31           Ti1 tau(  31) = (   3.2891106   5.8743827   9.1763621  )
        32           Ti1 tau(  32) = (   0.0006254   4.4649316   9.2693709  )
        33           O1  tau(  33) = (   3.2807211   2.9768430  11.3440791  )
        34           O1  tau(  34) = (   0.0092240   2.9805883  10.6323155  )
        35           O1  tau(  35) = (   1.2789702   4.4681595  12.6395138  )
        36           O1  tau(  36) = (   5.2737968   4.4775610  12.6008310  )
        37           Ti1 tau(  37) = (   0.0460201   5.9176504  12.5434570  )
        38           Ti1 tau(  38) = (   3.3658678   4.4646095  12.4976877  )
        39           O1  tau(  39) = (   6.5297297   2.9761478  14.6509524  )
        40           O1  tau(  40) = (   3.3085871   2.9961499  13.9017917  )
        41           O1  tau(  41) = (   4.5138497   4.4896837  16.1272785  )
        42           O1  tau(  42) = (   1.9961282   4.4344792  16.0060688  )
        43           Ti1 tau(  43) = (   3.3116018   0.0224549  15.7990204  )
        44           Ti1 tau(  44) = (   6.5775847   4.6577750  16.0638065  )
        45           O1  tau(  45) = (   3.2900926   2.9813045   4.7018136  )
        46           O1  tau(  46) = (   1.3039711   4.4726057   6.0039043  )
        47           O1  tau(  47) = (   5.2763189   4.4711207   6.0039473  )
        48           N1  tau(  48) = (   6.5065777   2.6139801  18.6303060  )
        49           N1  tau(  49) = (   6.5364102   2.8728423  17.4370429  )
        50           C1  tau(  50) = (   6.4441180   3.7235584  19.6105657  )
        51           H1  tau(  51) = (   6.3066687   4.7022679  19.1488110  )
        52           H1  tau(  52) = (   5.6164842   3.4805663  20.2913871  )
        53           H1  tau(  53) = (   0.7823074   3.6964598  20.1845303  )
        54           O1  tau(  54) = (   3.0314481   5.0835218  18.9911038  )
        55           H1  tau(  55) = (   1.7414717   0.2044793  18.0242669  )
        56           O1  tau(  56) = (   2.7372941   0.2572207  18.0778760  )
        57           H1  tau(  57) = (   3.9343361   5.3466317  19.2487757  )

     number of k points=    10  Fermi-Dirac smearing, width (Ry)=  0.0073
                       cart. coord. in units 2pi/alat
        k(    1) = (   0.0000000   0.0000000   0.0000000), wk =   0.1250000
        k(    2) = (   0.0000000   0.0419351   0.0000000), wk =   0.2500000
        k(    3) = (   0.0000000  -0.0838702   0.0000000), wk =   0.1250000
        k(    4) = (   0.0379955   0.0000049   0.0000000), wk =   0.2500000
        k(    5) = (   0.0379955   0.0419400   0.0000000), wk =   0.2500000
        k(    6) = (   0.0379955  -0.0838652   0.0000000), wk =   0.2500000
        k(    7) = (   0.0379955  -0.0419301   0.0000000), wk =   0.2500000
        k(    8) = (  -0.0759910  -0.0000099   0.0000000), wk =   0.1250000
        k(    9) = (  -0.0759910   0.0419252   0.0000000), wk =   0.2500000
        k(   10) = (  -0.0759910  -0.0838800   0.0000000), wk =   0.1250000

     Initial potential from superposition of free atoms

     starting charge  392.99914, renormalised to  409.00000

     negative rho (up, down):  1.422E-02 0.000E+00

     %%%%%%%%%%%%%%%%%%%%%%%%%%%%%%%%%%%%%%%%%%%%%%%%%%%%%%%%%%%%%%%%%%%%%%%%
     %                                                                      %
     % You are using vdW-DF, which was implemented by the Thonhauser group. %
     % Please cite the following two papers that made this development      %
     % possible and the two reviews that describe the various versions:     %
     %                                                                      %
     %   T. Thonhauser et al., PRL 115, 136402 (2015).                      %
     %   T. Thonhauser et al., PRB 76, 125112 (2007).                       %
     %   K. Berland et al., Rep. Prog. Phys. 78, 066501 (2015).             %
     %   D.C. Langreth et al., J. Phys.: Condens. Matter 21, 084203 (2009). %
     %                                                                      %
     %                                                                      %
     % If you are calculating the stress with vdW-DF, please also cite:     %
     %                                                                      %
     %   R. Sabatini et al., J. Phys.: Condens. Matter 24, 424209 (2012).   %
     %                                                                      %
     %%%%%%%%%%%%%%%%%%%%%%%%%%%%%%%%%%%%%%%%%%%%%%%%%%%%%%%%%%%%%%%%%%%%%%%%

     Adding external electric field

     Computed dipole along edir(3) :
        Dipole              -16.7505 Ry au,        -42.5754 Debye
        Dipole field         -0.0316 Ry au,

        Potential amp.        2.9302 Ry
        Total length         46.3494 bohr

     Starting wfcs are  309 atomic wfcs
  @ DRIVER MODE: Message from server: STATUS
  @ DRIVER MODE: Message from server: POSDATA
  @ DRIVER MODE: Reading and sharing cell
  @ DRIVER MODE: Reading and sharing positions
  @ DRIVER MODE: Received positions

     Self-consistent Calculation

     iteration #  1     ecut=    29.40 Ry     beta= 0.05
     Davidson diagonalization with overlap
     c_bands:  5 eigenvalues not converged
     c_bands:  5 eigenvalues not converged
     c_bands:  3 eigenvalues not converged
     c_bands:  1 eigenvalues not converged
     c_bands:  4 eigenvalues not converged
     c_bands:  2 eigenvalues not converged
     c_bands:  5 eigenvalues not converged
     ethr =  1.00E-05,  avg # of iterations = 26.6

[...]

     total energy              =   -2110.46405290 Ry
     estimated scf accuracy    <   10326.53700825 Ry

     iteration #  2     ecut=    29.40 Ry     beta= 0.05
     Davidson diagonalization with overlap
     ethr =  1.00E-02,  avg # of iterations = 31.6

[...]

     iteration # 51     ecut=    29.40 Ry     beta= 0.05
     Davidson diagonalization with overlap
     c_bands:  1 eigenvalues not converged
     c_bands:  2 eigenvalues not converged
     c_bands:  3 eigenvalues not converged
     ethr =  8.98E-07,  avg # of iterations = 17.2

[...]

     total energy              =   -3006.13707627 Ry
     estimated scf accuracy    <       0.00000010 Ry

     iteration # 79     ecut=    29.40 Ry     beta= 0.05
     Davidson diagonalization with overlap
     ethr =  2.55E-11,  avg # of iterations =  8.6

     negative rho (up, down):  1.470E-02 0.000E+00

     Adding external electric field

     Computed dipole along edir(3) :
        Dipole                0.8087 Ry au,          2.0554 Debye
        Dipole field          0.0015 Ry au,

        Potential amp.       -0.1415 Ry
        Total length         46.3494 bohr

     End of self-consistent calculation

          k = 0.0000 0.0000 0.0000 ( 18029 PWs)   bands (ev):

   -55.6055 -55.5714 -55.5635 -55.5349 -55.5273 -55.4417 -55.4202 -55.4048
   -55.3863 -55.3844 -55.3668 -55.3507 -54.9886 -54.9184 -54.5864 -54.5523
   -32.1043 -32.0886 -31.9495 -31.9416 -31.9186 -31.8982 -31.8743 -31.8608
   -31.8495 -31.7952 -31.7802 -31.7647 -31.7578 -31.7413 -31.7298 -31.7196
   -31.7104 -31.7023 -31.6904 -31.6636 -31.6627 -31.6429 -31.6113 -31.6099
   -31.6004 -31.5960 -31.5935 -31.5830 -31.5647 -31.5607 -31.5548 -31.5498
   -31.5390 -31.5377 -31.5280 -31.5156 -31.4965 -31.2666 -31.2098 -31.1789
   -31.1252 -31.1027 -30.9936 -30.9049 -30.8825 -30.8103 -30.7238 -30.6127
   -20.7377 -18.2987 -16.3060 -16.0798 -15.8959 -15.7664 -15.7114 -15.5544
   -15.4964 -15.4106 -15.3401 -15.2034 -15.1510 -15.1423 -15.1362 -15.1176
   -15.1116 -15.0516 -15.0404 -15.0388 -15.0278 -15.0001 -14.9610 -14.9477
   -14.9430 -14.8600 -14.7668 -14.7439 -14.7236 -14.7203 -14.6627 -14.2762
   -13.0885 -12.9720 -11.2811  -6.8135  -5.7527  -5.3639  -4.1824  -3.8054
    -3.7705  -3.6733  -3.5509  -3.5119  -3.4323  -3.3848  -3.2315  -3.0802
    -3.0268  -2.8524  -2.7838  -2.7563  -2.7129  -2.6293  -2.5220  -2.4681
    -2.4136  -2.4100  -2.3954  -2.3789  -2.3624  -2.3457  -2.2381  -2.2195
    -2.1672  -2.1460  -2.1216  -1.9854  -1.9575  -1.9279  -1.9192  -1.8917
    -1.8780  -1.8667  -1.8382  -1.8198  -1.7815  -1.7558  -1.6203  -1.5822
    -1.5315  -1.4482  -1.3924  -1.3352  -1.2340  -1.2017  -1.1332  -1.0626
    -1.0571  -1.0373  -1.0040  -0.9958  -0.8694  -0.7648  -0.7547  -0.6812
    -0.6199  -0.5701  -0.5288  -0.4633  -0.3798  -0.3626  -0.3548  -0.3341
    -0.2819  -0.2584  -0.0988  -0.0597  -0.0117   0.0139   0.0707   0.1038
     0.1467   0.1873   0.2269   0.2767   0.3109   0.3440   0.3623   0.3766
     0.3920   0.4233   0.4441   0.6100   0.6455   0.6685   0.7295   0.7589
     0.8454   0.9022   0.9659   1.0496   1.1578   1.3631   1.4360   1.5272
     1.6279   2.0074   2.0532   2.8297   3.5236   3.6155   3.6564   3.6868
     3.7682   3.7800   3.9816   4.0032   4.0333   4.1081

[...]

          k = 0.0380-0.0419 0.0000 ( 17876 PWs)   bands (ev):

[...]

          k =-0.0760-0.0000 0.0000 ( 17886 PWs)   bands (ev):

[...]

          k =-0.0760-0.0839 0.0000 ( 17948 PWs)   bands (ev):

   -55.5890 -55.5878 -55.5484 -55.5423 -55.5330 -55.4299 -55.4166 -55.4035
   -55.4025 -55.3689 -55.3685 -55.3663 -54.9847 -54.9222 -54.5694 -54.5691
   -31.9185 -31.9043 -31.9034 -31.9011 -31.8842 -31.8830 -31.8270 -31.8184
   -31.8060 -31.7864 -31.7779 -31.7542 -31.7493 -31.7235 -31.7177 -31.7170
   -31.7087 -31.7081 -31.7077 -31.7064 -31.7043 -31.7020 -31.6753 -31.6470
   -31.6332 -31.6294 -31.6206 -31.6044 -31.6034 -31.5984 -31.5932 -31.5843
   -31.5813 -31.5735 -31.5727 -31.5709 -31.4175 -31.2683 -31.2485 -31.1867
   -31.1644 -31.1265 -30.8953 -30.8951 -30.8064 -30.8062 -30.7671 -30.7670
   -20.7371 -18.2947 -15.7434 -15.6966 -15.6317 -15.5648 -15.5297 -15.4596
   -15.4160 -15.3741 -15.3221 -15.2841 -15.2750 -15.2152 -15.1953 -15.1625
   -15.1532 -15.1236 -15.1141 -15.1120 -15.0584 -15.0523 -15.0464 -15.0394
   -15.0332 -14.9742 -14.9345 -14.9265 -14.9215 -14.8232 -14.7007 -14.4447
   -13.0738 -13.0737 -11.2794  -6.8363  -5.7500  -5.3399  -4.1105  -3.8216
    -3.7403  -3.1148  -3.0219  -2.8282  -2.7981  -2.7152  -2.7111  -2.6683
    -2.5460  -2.5131  -2.4672  -2.4490  -2.4281  -2.4192  -2.4137  -2.3942
    -2.3876  -2.3689  -2.3397  -2.3196  -2.2871  -2.2745  -2.2616  -2.2533
    -2.2391  -2.2161  -2.2139  -2.1655  -2.1451  -2.1265  -2.0629  -2.0281
    -1.8440  -1.7945  -1.7498  -1.7428  -1.7210  -1.6907  -1.6755  -1.6588
    -1.6117  -1.5917  -1.5173  -1.4623  -1.3286  -1.3109  -1.2942  -1.2730
    -1.2068  -1.1494  -1.0991  -1.0128  -1.0081  -0.9589  -0.8663  -0.8070
    -0.7980  -0.7687  -0.7121  -0.7025  -0.6621  -0.5688  -0.5631  -0.5450
    -0.5392  -0.4624  -0.4191  -0.3569  -0.3488  -0.3289  -0.2981  -0.2701
    -0.2367  -0.1977  -0.1019  -0.0686   0.0251   0.1307   0.2078   0.3428
     0.4616   0.4742   0.5590   0.5833   0.6844   0.6960   0.7082   0.7495
     0.7853   0.8099   0.9294   0.9434   0.9664   0.9942   1.0809   1.7994
     1.8004   1.8730   1.8731   2.8195   3.7647   3.8791   3.9109   3.9215
     4.0065   4.0434   4.0625   4.0644   4.1291   4.2036

     the Fermi energy is     3.5263 ev

!    total energy              =   -3006.13709516 Ry
     estimated scf accuracy    <       0.00000006 Ry
     smearing contrib. (-TS)   =      -0.02167119 Ry
     internal energy E=F+TS    =   -3006.11542397 Ry

     The total energy is F=E-TS. E is the sum of the following terms:
     one-electron contribution =  -23513.95068375 Ry
     hartree contribution      =   11854.94725014 Ry
     xc contribution           =    -501.16845675 Ry
     ewald contribution        =    9154.05523235 Ry
     electric field correction =       0.00123403 Ry

     convergence has been achieved in  79 iterations

     Forces acting on atoms (cartesian axes, Ry/au):

     atom    1 type  1   force =     0.00020922   -0.00032170    0.09614538
     atom    2 type  1   force =    -0.00013000   -0.00050926   -0.17561300
     atom    3 type  2   force =    -0.00002961   -0.00015757   -0.02417013
     atom    4 type  2   force =     0.00000571   -0.00155726    0.05346855
     atom    5 type  2   force =    -0.01167848   -0.00075797    0.00385403
     atom    6 type  2   force =     0.01286386   -0.00002328    0.00196932
     atom    7 type  1   force =    -0.00132071    0.00026066   -0.00662765
     atom    8 type  1   force =     0.00074325    0.00794591    0.02424005
     atom    9 type  2   force =     0.00000565    0.00003143    0.00002403
     atom   10 type  2   force =    -0.00082479    0.00166827   -0.01689386
     atom   11 type  2   force =    -0.00002053    0.00004151   -0.00001026
     atom   12 type  2   force =    -0.00000780    0.00001795   -0.00000857
     atom   13 type  1   force =     0.00000830   -0.00001133    0.00003340
     atom   14 type  1   force =     0.00001217    0.00004151    0.00001571
     atom   15 type  2   force =    -0.00000775    0.00001007   -0.00003697
     atom   16 type  2   force =    -0.00000997   -0.00003207   -0.00005770
     atom   17 type  2   force =    -0.00010090   -0.00002618   -0.00001096
     atom   18 type  2   force =    -0.00009648    0.00001834    0.00003747
     atom   19 type  1   force =     0.00006496   -0.00007000    0.00003184
     atom   20 type  1   force =    -0.00006643   -0.00001281   -0.00003143
     atom   21 type  2   force =     0.00005733   -0.00004968    0.10322311
     atom   22 type  2   force =    -0.00005716   -0.00000587   -0.00015271
     atom   23 type  2   force =    -0.07145712   -0.00011227   -0.02772064
     atom   24 type  2   force =     0.07135822    0.00029549   -0.02772586
     atom   25 type  1   force =    -0.00002823   -0.00028529    0.09577437
     atom   26 type  1   force =    -0.00023013   -0.00034482   -0.17586812
     atom   27 type  2   force =     0.00004703   -0.00017369   -0.02322327
     atom   28 type  2   force =     0.00007092   -0.00125854    0.05307317
     atom   29 type  2   force =    -0.01202653    0.00042233    0.00403128
     atom   30 type  2   force =     0.01310877    0.00076630    0.00211829
     atom   31 type  1   force =    -0.00118300    0.00399978   -0.00991949
     atom   32 type  1   force =     0.00067849   -0.01005330    0.02471559
     atom   33 type  2   force =     0.00001278   -0.00000915    0.00001158
     atom   34 type  2   force =    -0.00025131    0.00012527   -0.02259121
     atom   35 type  2   force =    -0.00001000   -0.00000570   -0.00002067
     atom   36 type  2   force =    -0.00001684    0.00001570   -0.00003128
     atom   37 type  1   force =    -0.00000330   -0.00004630    0.00004203
     atom   38 type  1   force =     0.00002719    0.00007360    0.00005575
     atom   39 type  2   force =    -0.00007914   -0.00000503   -0.00004195
     atom   40 type  2   force =    -0.00000547   -0.00004154   -0.00002696
     atom   41 type  2   force =     0.00004827   -0.00003161    0.00002983
     atom   42 type  2   force =     0.00003573   -0.00001341   -0.00003289
     atom   43 type  1   force =     0.00007902    0.00000067   -0.00002632
     atom   44 type  1   force =     0.00008782    0.00005568    0.00006446
     atom   45 type  2   force =     0.00004280   -0.00008895    0.10322854
     atom   46 type  2   force =    -0.07146934   -0.00009056   -0.02773699
     atom   47 type  2   force =     0.07138031    0.00035295   -0.02773073
     atom   48 type  3   force =     0.00219271   -0.00027051    0.00000357
     atom   49 type  3   force =    -0.00023688   -0.00001517   -0.00023939
     atom   50 type  4   force =    -0.01974707    0.00003296   -0.00050488
     atom   51 type  5   force =     0.00209075   -0.00114618    0.00056833
     atom   52 type  5   force =     0.00696909    0.00169513   -0.00435827
     atom   53 type  5   force =     0.00882142   -0.00034588    0.00456346
     atom   54 type  2   force =     0.00106390   -0.00002914   -0.00129879
     atom   55 type  5   force =    -0.00011895   -0.00003130   -0.00003271
     atom   56 type  2   force =    -0.00113804   -0.00002766    0.00134784
     atom   57 type  5   force =     0.00026628    0.00008947    0.00007271

     Total force =     0.367884     Total SCF correction =     0.000776
  @ DRIVER MODE: Message from server: STATUS
  @ DRIVER MODE: Message from server: GETFORCE
  @ DRIVER MODE: Returning v,forces,stress,ensemble

     Writing output data file ./calc.save/
  @ DRIVER MODE: Message from server: EXIT
  @ DRIVE MODE: Exiting

     General routines

     Parallel routines

   This run was terminated on:  22: 2:19  25Sep2021

   JOB DONE.