     Program PWSCF v.6.7GPU starts on 16Jul2021 at 10:23:45

     R & G space division:  proc/nbgrp/npool/nimage =      16
     Reading input from /storage/home/hcoda1/3/ntian30/research/carbon/15Jul_vib/ads_slab/CH3NNH3_a/out_0034/pw.inp
Warning: card &CELL ignored
Warning: card   CELL_DYNAMICS='IPI', ignored
Warning: card / ignored

     Current dimensions of program PWSCF are:
     Max number of different atomic species (ntypx) = 10
     Max number of k-points (npk) =  40000
     Max angular momentum in pseudopotentials (lmaxx) =  3
     Presently no symmetry can be used with electric field

     Message from routine cell_base_init:
     DEPRECATED: use true lattice parameter, not A to a.u. conversion factor

     IMPORTANT: XC functional enforced from input :
     Exchange-correlation= BEEF-VDW
                           (   1   4  43  14   2   0   0)
     Any further DFT definition will be discarded
     Please, verify this is what you really want

  @ DRIVER MODE: Connecting to
 qe_1139763_2351650.sched-torque.pace.gatech.edu_te3e4a__scratch
  using UNIX socket
  @ DRIVER MODE: Message from server: STATUS
  @ DRIVER MODE: Message from server: INIT
  @ DRIVER MODE: Receiving replica           0          -1
  @ DRIVER MODE: Receiving encoded integer          25
  @ DRIVER MODE:  SCF:  T  FORCE:  T  STRESS:  F  VC:  F  ENSEMBLE:  F
  @ DRIVER MODE:  SCF:  T  FORCE:  T  STRESS:  F  VC:  F  ENSEMBLE:  F

     Using Slab Decomposition

     bravais-lattice index     =            0
     lattice parameter (alat)  =       1.8897  a.u.
     unit-cell volume          =    6658.9804 (a.u.)^3
     number of atoms/cell      =           56
     number of atomic types    =            5
     number of electrons       =       398.00
     number of Kohn-Sham states=          209
     kinetic-energy cutoff     =      29.3995  Ry
     charge density cutoff     =     293.9946  Ry
     scf convergence threshold =      7.3E-08
     mixing beta               =       0.0500
     number of iterations used =            8  plain     mixing
     Exchange-correlation= BEEF-VDW
                           (   1   4  43  14   2   0   0)

     celldm(1)=   1.889726  celldm(2)=   0.000000  celldm(3)=   0.000000
     celldm(4)=   0.000000  celldm(5)=   0.000000  celldm(6)=   0.000000

     crystal axes: (cart. coord. in units of alat)
               a(1) = (   6.579727   0.000000   0.000000 )
               a(2) = (  -0.000775   5.961596   0.000000 )
               a(3) = (   0.000000   0.000000  25.155947 )

     reciprocal axes: (cart. coord. in units 2 pi/alat)
               b(1) = (  0.151982  0.000020  0.000000 )
               b(2) = (  0.000000  0.167740  0.000000 )
               b(3) = (  0.000000  0.000000  0.039752 )

     PseudoPot. # 1 for Ti read from file:
     /storage/coda1/p-amedford6/0/shared/rich_project_chbe-medford/medford-share/data/pseudos_module/espresso/nninc/pbe/van/Ti.UPF
     MD5 check sum: 8e4df49b7f0d34bbd5052bf3f5ea0213
     Pseudo is Ultrasoft, Zval = 12.0
     Generated by new atomic code, or converted to UPF format
     Using radial grid of  851 points,  6 beta functions with:
                l(1) =   0
                l(2) =   0
                l(3) =   1
                l(4) =   1
                l(5) =   2
                l(6) =   2
     Q(r) pseudized with  8 coefficients,  rinner =    1.000   1.000   1.000
                                                       1.000   1.000

     PseudoPot. # 2 for O  read from file:
     /storage/coda1/p-amedford6/0/shared/rich_project_chbe-medford/medford-share/data/pseudos_module/espresso/nninc/pbe/van/O.UPF
     MD5 check sum: 78c19812648e8988a0fe644b0f25305e
     Pseudo is Ultrasoft, Zval =  6.0
     Generated by new atomic code, or converted to UPF format
     Using radial grid of  737 points,  4 beta functions with:
                l(1) =   0
                l(2) =   0
                l(3) =   1
                l(4) =   1
     Q(r) pseudized with  8 coefficients,  rinner =    0.800   0.800   0.800

     PseudoPot. # 3 for N  read from file:
     /storage/coda1/p-amedford6/0/shared/rich_project_chbe-medford/medford-share/data/pseudos_module/espresso/nninc/pbe/van/N.UPF
     MD5 check sum: 90d10febe142ad51ac9d5be1deb811c4
     Pseudo is Ultrasoft, Zval =  5.0
     Generated by new atomic code, or converted to UPF format
     Using radial grid of  729 points,  4 beta functions with:
                l(1) =   0
                l(2) =   0
                l(3) =   1
                l(4) =   1
     Q(r) pseudized with  8 coefficients,  rinner =    0.800   0.800   0.800

     PseudoPot. # 4 for C  read from file:
     /storage/coda1/p-amedford6/0/shared/rich_project_chbe-medford/medford-share/data/pseudos_module/espresso/nninc/pbe/van/C.UPF
     MD5 check sum: 1a69bf6b8db32088f5b2163dbdb77a27
     Pseudo is Ultrasoft, Zval =  4.0
     Generated by new atomic code, or converted to UPF format
     Using radial grid of  721 points,  4 beta functions with:
                l(1) =   0
                l(2) =   0
                l(3) =   1
                l(4) =   1
     Q(r) pseudized with  8 coefficients,  rinner =    0.800   0.800   0.800

     PseudoPot. # 5 for H  read from file:
     /storage/coda1/p-amedford6/0/shared/rich_project_chbe-medford/medford-share/data/pseudos_module/espresso/nninc/pbe/van/H.UPF
     MD5 check sum: b5ee9d7bfd3a09ee7748110bda690ff7
     Pseudo is Ultrasoft, Zval =  1.0
     Generated by new atomic code, or converted to UPF format
     Using radial grid of  615 points,  1 beta functions with:
                l(1) =   0
     Q(r) pseudized with  8 coefficients,  rinner =    0.800

     atomic species   valence    mass     pseudopotential
        Ti1           12.00    47.86700     Ti( 1.00)
        O1             6.00    15.99900     O ( 1.00)
        N1             5.00    14.00700     N ( 1.00)
        C1             4.00    12.01100     C ( 1.00)
        H1             1.00     1.00800     H ( 1.00)

     Starting magnetic structure
     atomic species   magnetization
        Ti1          0.000
        O1           0.000
        N1           0.000
        C1           0.025
        H1           0.000

     No symmetry found

   Cartesian axes

     site n.     atom                  positions (alat units)
         1           Ti1 tau(   1) = (   0.0004258   2.9801865   6.0000000  )
         2           Ti1 tau(   2) = (   3.2906075   1.4906267   6.0002472  )
         3           O1  tau(   3) = (   0.0006271   0.0005054   7.9858123  )
         4           O1  tau(   4) = (   3.2906025   0.0005020   7.3038282  )
         5           O1  tau(   5) = (   4.5942328   1.4918067   9.2879030  )
         6           O1  tau(   6) = (   1.9868534   1.4903216   9.2879459  )
         7           Ti1 tau(   7) = (   3.2907910   2.8959150   9.1758416  )
         8           Ti1 tau(   8) = (   0.0015273   1.4827037   9.2680791  )
         9           O1  tau(   9) = (   3.3019049   5.9598586  11.2958584  )
        10           O1  tau(  10) = (   0.0116148   5.9584955  10.6183126  )
        11           O1  tau(  11) = (   1.3346742   1.4914638  12.6145280  )
        12           O1  tau(  12) = (   5.3113054   1.4894223  12.6320738  )
        13           Ti1 tau(  13) = (   6.4919192   2.9607050  12.7581921  )
        14           Ti1 tau(  14) = (   3.1808934   1.4809541  12.4628303  )
        15           O1  tau(  15) = (   0.0259758   5.9327586  14.5948705  )
        16           O1  tau(  16) = (   3.3179433   0.0111293  13.8771559  )
        17           O1  tau(  17) = (   4.5450242   1.5254396  16.0425357  )
        18           O1  tau(  18) = (   2.0945915   1.5254857  16.0466093  )
        19           Ti1 tau(  19) = (   3.3175380   3.0118254  15.6854273  )
        20           Ti1 tau(  20) = (   0.0287691   1.6153805  16.0968480  )
        21           O1  tau(  21) = (   3.2904802   0.0005063   4.7018136  )
        22           O1  tau(  22) = (   0.0272082   0.0527987  17.2096484  )
        23           O1  tau(  23) = (   1.3043587   1.4918075   6.0039043  )
        24           O1  tau(  24) = (   5.2767064   1.4903225   6.0039473  )
        25           Ti1 tau(  25) = (   0.0000382   5.9609847   6.0000000  )
        26           Ti1 tau(  26) = (   3.2902200   4.4714249   6.0002472  )
        27           O1  tau(  27) = (   0.0002396   2.9813036   7.9858123  )
        28           O1  tau(  28) = (   3.2902150   2.9813002   7.3038282  )
        29           O1  tau(  29) = (   4.5938453   4.4726049   9.2879030  )
        30           O1  tau(  30) = (   1.9864658   4.4711199   9.2879459  )
        31           Ti1 tau(  31) = (   3.2891106   5.8743827   9.1763621  )
        32           Ti1 tau(  32) = (   0.0006254   4.4649316   9.2693709  )
        33           O1  tau(  33) = (   3.3007599   2.9794320  11.2948048  )
        34           O1  tau(  34) = (   0.0092240   2.9805883  10.6323155  )
        35           O1  tau(  35) = (   1.3367187   4.4652043  12.6121808  )
        36           O1  tau(  36) = (   5.3110114   4.4536366  12.6300246  )
        37           Ti1 tau(  37) = (   6.5175235   5.9394146  12.7678677  )
        38           Ti1 tau(  38) = (   3.1810223   4.4618757  12.4682998  )
        39           O1  tau(  39) = (   0.0141956   2.9656780  14.6533049  )
        40           O1  tau(  40) = (   3.3125561   2.9946134  13.8784269  )
        41           O1  tau(  41) = (   4.5469694   4.5079638  16.0550352  )
        42           O1  tau(  42) = (   2.0896055   4.5089645  16.0567747  )
        43           Ti1 tau(  43) = (   3.3249511   0.0336637  15.6879192  )
        44           Ti1 tau(  44) = (   0.0309337   4.5948497  16.1324869  )
        45           O1  tau(  45) = (   3.2900926   2.9813045   4.7018136  )
        46           O1  tau(  46) = (   1.3039711   4.4726057   6.0039043  )
        47           O1  tau(  47) = (   5.2763189   4.4711207   6.0039473  )
        48           N1  tau(  48) = (   0.0510883   3.0100077  17.3315927  )
        49           C1  tau(  49) = (   0.2149723   3.0659314  18.7643681  )
        50           H1  tau(  50) = (   6.1109748   3.7957518  19.2115106  )
        51           H1  tau(  51) = (   0.0391147   2.0919789  19.2277120  )
        52           H1  tau(  52) = (   1.2341903   3.3897193  19.0223879  )
        53           N1  tau(  53) = (   4.7717085   1.8444328  21.5424420  )
        54           H1  tau(  54) = (   4.4711387   2.7986659  21.4441960  )
        55           H1  tau(  55) = (   4.1840297   1.2822813  20.9257432  )
        56           H1  tau(  56) = (   4.5427024   1.5537098  22.4892962  )

     number of k points=    10  Fermi-Dirac smearing, width (Ry)=  0.0073
                       cart. coord. in units 2pi/alat
        k(    1) = (   0.0000000   0.0000000   0.0000000), wk =   0.0625000
        k(    2) = (   0.0000000   0.0419351   0.0000000), wk =   0.1250000
        k(    3) = (   0.0000000  -0.0838702   0.0000000), wk =   0.0625000
        k(    4) = (   0.0379955   0.0000049   0.0000000), wk =   0.1250000
        k(    5) = (   0.0379955   0.0419400   0.0000000), wk =   0.1250000
[...]
     % You are using vdW-DF, which was implemented by the Thonhauser group. %
     % Please cite the following two papers that made this development      %
     % possible and the two reviews that describe the various versions:     %
     %                                                                      %
     %   T. Thonhauser et al., PRL 115, 136402 (2015).                      %
     %   T. Thonhauser et al., PRB 76, 125112 (2007).                       %
     %   K. Berland et al., Rep. Prog. Phys. 78, 066501 (2015).             %
     %   D.C. Langreth et al., J. Phys.: Condens. Matter 21, 084203 (2009). %
     %                                                                      %
     %                                                                      %
     % If you are calculating the stress with vdW-DF, please also cite:     %
     %                                                                      %
     %   R. Sabatini et al., J. Phys.: Condens. Matter 24, 424209 (2012).   %
     %                                                                      %
     %%%%%%%%%%%%%%%%%%%%%%%%%%%%%%%%%%%%%%%%%%%%%%%%%%%%%%%%%%%%%%%%%%%%%%%%

     Adding external electric field

     Computed dipole along edir(3) :
        Dipole              -11.2917 Ry au,        -28.7007 Debye
        Dipole field         -0.0213 Ry au,

        Potential amp.        1.9753 Ry
        Total length         46.3494 bohr

[...]

     Starting wfcs are  302 atomic wfcs
  @ DRIVER MODE: Message from server: STATUS
  @ DRIVER MODE: Message from server: POSDATA
  @ DRIVER MODE: Reading and sharing cell
  @ DRIVER MODE: Reading and sharing positions
  @ DRIVER MODE: Received positions

     Self-consistent Calculation

     iteration #  1     ecut=    29.40 Ry     beta= 0.05
     Davidson diagonalization with overlap
     c_bands:  1 eigenvalues not converged
     c_bands:  1 eigenvalues not converged
     c_bands:  2 eigenvalues not converged
     c_bands:  1 eigenvalues not converged
     c_bands:  1 eigenvalues not converged
     c_bands:  1 eigenvalues not converged
     c_bands:  2 eigenvalues not converged
     c_bands:  2 eigenvalues not converged
     c_bands:  1 eigenvalues not converged
     c_bands:  1 eigenvalues not converged
     c_bands:  2 eigenvalues not converged
     c_bands:  1 eigenvalues not converged
     c_bands:  1 eigenvalues not converged
     c_bands:  1 eigenvalues not converged
     c_bands:  2 eigenvalues not converged
     c_bands:  2 eigenvalues not converged
     ethr =  1.00E-05,  avg # of iterations = 19.6

[...]

     total energy              =   -2520.82168358 Ry
     estimated scf accuracy    <    4704.42806022 Ry

     total magnetization       =     0.00 Bohr mag/cell
     absolute magnetization    =     0.01 Bohr mag/cell

     iteration #  2     ecut=    29.40 Ry     beta= 0.05
     Davidson diagonalization with overlap
     ethr =  1.00E-02,  avg # of iterations = 22.0

[...]

     iteration # 38     ecut=    29.40 Ry     beta= 0.05
     Davidson diagonalization with overlap
     c_bands:  1 eigenvalues not converged
     ethr =  1.33E-06,  avg # of iterations =  3.6

[...]

     total energy              =   -2942.90752870 Ry
     estimated scf accuracy    <       0.00000017 Ry

[...]

     iteration # 64     ecut=    29.40 Ry     beta= 0.05
     Davidson diagonalization with overlap
     ethr =  4.25E-11,  avg # of iterations =  4.8

     negative rho (up, down):  5.680E-03 5.680E-03

[...]

     Adding external electric field

     Computed dipole along edir(3) :
        Dipole                0.4188 Ry au,          1.0646 Debye
        Dipole field          0.0008 Ry au,

        Potential amp.       -0.0733 Ry
        Total length         46.3494 bohr

     Magnetic moment per site  (integrated on atomic sphere of radius R)
     atom   1 (R=0.735)  charge=  8.0053  magn=  0.0003
     atom   2 (R=0.735)  charge=  8.0011  magn=  0.0001
     atom   3 (R=0.735)  charge=  4.9959  magn= -0.0001
     atom   4 (R=0.735)  charge=  5.0345  magn= -0.0001
     atom   5 (R=0.735)  charge=  4.9982  magn= -0.0000
     atom   6 (R=0.735)  charge=  4.9994  magn= -0.0000
     atom   7 (R=0.735)  charge=  7.9947  magn=  0.0000
     atom   8 (R=0.735)  charge=  7.9823  magn=  0.0001
     atom   9 (R=0.735)  charge=  5.0128  magn= -0.0000
     atom  10 (R=0.735)  charge=  4.9434  magn= -0.0001
     atom  11 (R=0.735)  charge=  4.9999  magn=  0.0000
     atom  12 (R=0.735)  charge=  5.0035  magn=  0.0000
     atom  13 (R=0.735)  charge=  7.9932  magn=  0.0000
     atom  14 (R=0.735)  charge=  8.0007  magn=  0.0000
     atom  15 (R=0.735)  charge=  4.9894  magn=  0.0000
     atom  16 (R=0.735)  charge=  5.0146  magn= -0.0000
     atom  17 (R=0.735)  charge=  4.9900  magn=  0.0000
     atom  18 (R=0.735)  charge=  4.9888  magn=  0.0000
     atom  19 (R=0.735)  charge=  8.0209  magn= -0.0000
     atom  20 (R=0.735)  charge=  8.0242  magn= -0.0000
     atom  21 (R=0.735)  charge=  4.8827  magn= -0.0001
     atom  22 (R=0.735)  charge=  4.9720  magn=  0.0000
     atom  23 (R=0.735)  charge=  4.9884  magn= -0.0002
     atom  24 (R=0.735)  charge=  4.9885  magn= -0.0002
     atom  25 (R=0.735)  charge=  8.0053  magn=  0.0003
     atom  26 (R=0.735)  charge=  8.0011  magn=  0.0001
     atom  27 (R=0.735)  charge=  4.9957  magn= -0.0000
     atom  28 (R=0.735)  charge=  5.0347  magn= -0.0000
     atom  29 (R=0.735)  charge=  4.9989  magn= -0.0000
     atom  30 (R=0.735)  charge=  5.0001  magn= -0.0000
     atom  31 (R=0.735)  charge=  7.9947  magn=  0.0000
     atom  32 (R=0.735)  charge=  7.9826  magn=  0.0001
     atom  33 (R=0.735)  charge=  5.0126  magn= -0.0001
     atom  34 (R=0.735)  charge=  4.9424  magn= -0.0001
     atom  35 (R=0.735)  charge=  5.0006  magn= -0.0000
     atom  36 (R=0.735)  charge=  5.0043  magn= -0.0000
     atom  37 (R=0.735)  charge=  7.9990  magn=  0.0000
     atom  38 (R=0.735)  charge=  8.0004  magn=  0.0000
     atom  39 (R=0.735)  charge=  4.9853  magn= -0.0000
     atom  40 (R=0.735)  charge=  5.0160  magn= -0.0000
     atom  41 (R=0.735)  charge=  4.9884  magn=  0.0000
     atom  42 (R=0.735)  charge=  4.9879  magn=  0.0000
     atom  43 (R=0.735)  charge=  8.0214  magn= -0.0000
     atom  44 (R=0.735)  charge=  8.0216  magn= -0.0000
     atom  45 (R=0.735)  charge=  4.8827  magn= -0.0001
     atom  46 (R=0.735)  charge=  4.9884  magn= -0.0002
     atom  47 (R=0.735)  charge=  4.9885  magn= -0.0002
     atom  48 (R=0.415)  charge=  1.2867  magn=  0.0000
     atom  49 (R=0.451)  charge=  0.8534  magn=  0.0000
     atom  50 (R=0.415)  charge=  0.4296  magn= -0.0000
     atom  51 (R=0.415)  charge=  0.4316  magn= -0.0000
     atom  52 (R=0.415)  charge=  0.4268  magn= -0.0000
     atom  53 (R=0.415)  charge=  1.3026  magn= -0.0000
     atom  54 (R=0.415)  charge=  0.4513  magn=  0.0000
     atom  55 (R=0.415)  charge=  0.4389  magn=  0.0000
     atom  56 (R=0.415)  charge=  0.4439  magn=  0.0000

     End of self-consistent calculation

 ------ SPIN UP ------------

          k = 0.0000 0.0000 0.0000 ( 18029 PWs)   bands (ev):

   -56.6314 -56.5978 -55.7556 -55.7437 -55.7207 -55.7108 -55.6103 -55.5750
   -55.3929 -55.3571 -55.2964 -55.2911 -55.2625 -55.1933 -54.7274 -54.6158
   -33.0591 -32.9060 -32.8778 -32.8072 -32.7161 -32.6851 -32.2263 -32.2201
   -32.1530 -32.0396 -31.9935 -31.9692 -31.9508 -31.9295 -31.8959 -31.8915
   -31.8903 -31.8846 -31.8590 -31.8566 -31.8450 -31.8178 -31.7930 -31.7780
   -31.7650 -31.7466 -31.7372 -31.7126 -31.6886 -31.6347 -31.6235 -31.6105
   -31.5338 -31.5310 -31.5072 -31.4668 -31.4589 -31.4237 -31.4212 -31.3970
   -31.3744 -31.3129 -31.2331 -30.9732 -30.9577 -30.8750 -30.8376 -30.7476
   -16.7956 -16.3637 -16.1332 -15.9935 -15.9282 -15.8716 -15.8292 -15.7037
   -15.6355 -15.6274 -15.5854 -15.5579 -15.4864 -15.3467 -15.2481 -15.1955
   -15.1509 -15.0305 -14.9694 -14.9371 -14.9267 -14.8838 -14.8743 -14.6803
   -14.6572 -14.5635 -14.5424 -14.4215 -14.1870 -13.7947 -13.7055 -13.6846
   -12.8001  -7.4980  -4.3610  -3.8597  -3.8306  -3.6952  -3.6211  -3.5347
    -3.4275  -3.4134  -3.3270  -3.2123  -3.1681  -3.1204  -3.0040  -3.0027
    -2.8545  -2.8097  -2.8066  -2.8044  -2.7553  -2.6962  -2.6726  -2.6409
    -2.6319  -2.6024  -2.4758  -2.3795  -2.3079  -2.2848  -2.2789  -2.2431
    -2.1680  -2.1385  -2.1299  -2.1263  -2.0189  -1.8734  -1.8672  -1.8440
    -1.8021  -1.7967  -1.7542  -1.7411  -1.6233  -1.5327  -1.4302  -1.4140
    -1.3699  -1.3136  -1.3057  -1.2159  -1.1378  -1.0470  -1.0458  -0.9359
    -0.8888  -0.8718  -0.7817  -0.7219  -0.6825  -0.6564  -0.6439  -0.5438
    -0.5209  -0.5111  -0.4270  -0.4153  -0.3661  -0.2772  -0.2543  -0.2455
    -0.1632  -0.1606  -0.0654  -0.0235   0.0165   0.0518   0.1677   0.1849
     0.2833   0.3120   0.3396   0.4524   0.4685   0.5338   0.6084   0.6710
     0.6987   0.7254   0.7545   0.7739   0.8485   0.9604   0.9695   1.0717
     1.1039   1.2782   1.3171   1.3944   1.6028   1.6355   2.3053   2.6432
     2.8024   3.1010   3.2889   3.4020   3.6177   3.6336   3.6389   3.8079
     3.8643

[...]

          k =-0.0760-0.0000 0.0000 ( 17886 PWs)   bands (ev):

[...]

 ------ SPIN DOWN ----------

[...]

          k = 0.0380-0.0419 0.0000 ( 17876 PWs)   bands (ev):

[...]

          k =-0.0760-0.0839 0.0000 ( 17948 PWs)   bands (ev):

   -56.6136 -56.6133 -55.7403 -55.7345 -55.7279 -55.7274 -55.5929 -55.5920
   -55.3792 -55.3707 -55.2879 -55.2792 -55.2791 -55.1964 -54.7246 -54.6186
   -32.8907 -32.8905 -32.8752 -32.8751 -32.7590 -32.7587 -32.0561 -32.0538
   -32.0445 -32.0379 -31.9848 -31.9839 -31.9412 -31.9408 -31.9388 -31.9376
   -31.9298 -31.9268 -31.9247 -31.9231 -31.8454 -31.8433 -31.7944 -31.7915
   -31.7299 -31.7195 -31.6608 -31.6528 -31.6233 -31.6232 -31.6171 -31.5775
   -31.5732 -31.5453 -31.5111 -31.5046 -31.5045 -31.4654 -31.4654 -31.4621
   -31.4387 -31.3992 -31.1133 -30.9931 -30.9574 -30.9269 -30.8402 -30.8031
   -16.1448 -16.1427 -16.1098 -16.1095 -15.8411 -15.8375 -15.7949 -15.7924
   -15.6186 -15.6125 -15.4059 -15.3972 -15.3906 -15.3891 -15.2612 -15.2553
   -15.1898 -15.1794 -15.0901 -15.0809 -15.0244 -15.0180 -14.9755 -14.9545
   -14.6443 -14.6351 -14.5144 -14.4970 -14.3306 -13.7884 -13.7884 -13.7047
   -12.8162  -7.4879  -3.8444  -3.6964  -3.2435  -3.2432  -3.1795  -3.1785
    -3.0572  -3.0531  -2.9740  -2.9734  -2.8755  -2.8743  -2.7601  -2.7316
    -2.7286  -2.7275  -2.7107  -2.6629  -2.5750  -2.5719  -2.5615  -2.5470
    -2.4886  -2.4867  -2.4644  -2.3986  -2.3848  -2.3535  -2.3157  -2.2016
    -2.1913  -2.1793  -2.1475  -2.0842  -2.0770  -2.0641  -2.0217  -1.9891
    -1.9123  -1.8398  -1.8015  -1.6882  -1.6836  -1.6717  -1.6598  -1.5062
    -1.4660  -1.4355  -1.4284  -1.4222  -1.3744  -1.2794  -1.2720  -1.1400
    -1.1383  -1.0643  -0.9826  -0.9615  -0.9331  -0.8044  -0.7604  -0.7259
    -0.7182  -0.6902  -0.6700  -0.6483  -0.6046  -0.4689  -0.4572  -0.4184
    -0.3839  -0.3617  -0.3274  -0.2697  -0.1839  -0.1054  -0.1049  -0.0503
     0.0182   0.0789   0.1660   0.1761   0.1815   0.4625   0.5413   0.6309
     0.7066   0.7727   0.8362   0.8672   0.9225   0.9673   1.1036   1.1069
     1.1261   1.1264   1.1857   1.1894   1.3774   1.6418   2.1953   3.2167
     3.2170   3.2840   3.2845   3.6078   3.6136   3.7217   3.7310   3.8376
     3.8426

     the Fermi energy is     2.4840 ev

!    total energy              =   -2942.90757161 Ry
     estimated scf accuracy    <       0.00000005 Ry
     smearing contrib. (-TS)   =      -0.00487823 Ry
     internal energy E=F+TS    =   -2942.90269338 Ry

     The total energy is F=E-TS. E is the sum of the following terms:
     one-electron contribution =  -23242.42082952 Ry
     hartree contribution      =   11711.41952358 Ry
     xc contribution           =    -487.47306143 Ry
     ewald contribution        =    9075.57134295 Ry
     electric field correction =       0.00033104 Ry

     total magnetization       =     0.00 Bohr mag/cell
     absolute magnetization    =     0.00 Bohr mag/cell

     convergence has been achieved in  64 iterations

     Forces acting on atoms (cartesian axes, Ry/au):

     atom    1 type  1   force =     0.00003672   -0.00040972    0.12406243
     atom    2 type  1   force =    -0.00010519   -0.00056838   -0.16064959
     atom    3 type  2   force =     0.00023543   -0.00026994   -0.06798168
     atom    4 type  2   force =     0.00001415   -0.00029131    0.02758755
     atom    5 type  2   force =    -0.01615139    0.00175120   -0.00936026
     atom    6 type  2   force =     0.01818521    0.00218999   -0.00898122
     atom    7 type  1   force =     0.00115160   -0.00377460    0.02169967
     atom    8 type  1   force =    -0.00057050   -0.00291210    0.11106977
     atom    9 type  2   force =    -0.00018063    0.00030595   -0.00045886
     atom   10 type  2   force =    -0.00196009    0.00129307   -0.07320999
     atom   11 type  2   force =     0.00021536   -0.00010713    0.00017767
     atom   12 type  2   force =    -0.00026393    0.00021763    0.00021198
     atom   13 type  1   force =    -0.00008823    0.00009210   -0.00041872
     atom   14 type  1   force =    -0.00057657    0.00044879    0.00041158
     atom   15 type  2   force =     0.00027834    0.00000493    0.00017575
     atom   16 type  2   force =    -0.00048912   -0.00036993    0.00055795
     atom   17 type  2   force =    -0.00059140    0.00023941    0.00007906
     atom   18 type  2   force =     0.00002111    0.00024493    0.00008743
     atom   19 type  1   force =     0.00038619   -0.00054636    0.00003529
     atom   20 type  1   force =    -0.00009852    0.00009031    0.00015188
     atom   21 type  2   force =     0.00005193   -0.00000845    0.09969422
     atom   22 type  2   force =     0.00027105   -0.00003482   -0.00037112
     atom   23 type  2   force =    -0.07915151    0.00000134   -0.03243876
     atom   24 type  2   force =     0.07903829    0.00043893   -0.03246163
     atom   25 type  1   force =     0.00001629   -0.00041200    0.12359791
     atom   26 type  1   force =    -0.00009892   -0.00047277   -0.16078609
     atom   27 type  2   force =     0.00033100   -0.00048415   -0.06703157
     atom   28 type  2   force =     0.00002855   -0.00012113    0.02731381
     atom   29 type  2   force =    -0.01662785    0.00127456   -0.00946604
     atom   30 type  2   force =     0.01855922    0.00165186   -0.00910148
     atom   31 type  1   force =     0.00117038   -0.00138072    0.02112806
     atom   32 type  1   force =    -0.00053763    0.00033725    0.11171630
     atom   33 type  2   force =    -0.00015976   -0.00024858    0.00006624
     atom   34 type  2   force =    -0.00132439    0.00066910   -0.07266714
     atom   35 type  2   force =    -0.00079324   -0.00043074   -0.00001711
     atom   36 type  2   force =     0.00010276   -0.00001641    0.00011406
     atom   37 type  1   force =     0.00005643    0.00063836    0.00020797
     atom   38 type  1   force =    -0.00021071    0.00002547   -0.00017918
     atom   39 type  2   force =     0.00013455   -0.00017861    0.00091021
     atom   40 type  2   force =    -0.00018118   -0.00046661    0.00032303
     atom   41 type  2   force =     0.00009044   -0.00009114    0.00004980
     atom   42 type  2   force =     0.00039292    0.00001918    0.00001541
     atom   43 type  1   force =    -0.00021936   -0.00012917    0.00007592
     atom   44 type  1   force =    -0.00027108    0.00048846    0.00007579
     atom   45 type  2   force =     0.00002709   -0.00003343    0.09972086
     atom   46 type  2   force =    -0.07915518    0.00005594   -0.03244070
     atom   47 type  2   force =     0.07903668    0.00047710   -0.03245761
     atom   48 type  3   force =     0.00091097    0.00074187   -0.00134724
     atom   49 type  4   force =     0.00010107   -0.00049731    0.00005377
     atom   50 type  5   force =    -0.00007602    0.00073709    0.00080725
     atom   51 type  5   force =     0.00025546    0.00053110   -0.00012654
     atom   52 type  5   force =    -0.00026768   -0.00024588   -0.00000373
     atom   53 type  3   force =    -0.00142491   -0.02462943    0.00049820
     atom   54 type  5   force =    -0.00547272    0.01488332   -0.00148532
     atom   55 type  5   force =     0.00544199    0.00624987    0.00315759
     atom   56 type  5   force =     0.00050657    0.00303170   -0.00239284

     Total force =     0.425459     Total SCF correction =     0.000423
  @ DRIVER MODE: Message from server: STATUS
  @ DRIVER MODE: Message from server: GETFORCE
  @ DRIVER MODE: Returning v,forces,stress,ensemble

     Writing output data file ./calc.save/
  @ DRIVER MODE: Message from server: EXIT
  @ DRIVE MODE: Exiting

     General routines

     Parallel routines

   This run was terminated on:  10:52:13  16Jul2021

   JOB DONE.