     Program PWSCF v.6.7GPU starts on 21Sep2021 at 18:12:51

     R & G space division:  proc/nbgrp/npool/nimage =      10
     Reading input from /storage/home/hcoda1/3/ntian30/research/carbon/CxH_vib/CH3_calc/ads_slab/CH3ON2_a/out_0019/pw.inp
Warning: card &CELL ignored
Warning: card   CELL_DYNAMICS='IPI', ignored
Warning: card / ignored

     Current dimensions of program PWSCF are:
     Max number of different atomic species (ntypx) = 10
     Max number of k-points (npk) =  40000
     Max angular momentum in pseudopotentials (lmaxx) =  3
     Presently no symmetry can be used with electric field

     Message from routine cell_base_init:
     DEPRECATED: use true lattice parameter, not A to a.u. conversion factor

     IMPORTANT: XC functional enforced from input :
     Exchange-correlation= BEEF-VDW
                           (   1   4  43  14   2   0   0)
     Any further DFT definition will be discarded
     Please, verify this is what you really want

  @ DRIVER MODE: Connecting to
 qe_1139763_2922197.sched-torque.pace.gatech.edulsmh_01c_scratch
  using UNIX socket
  @ DRIVER MODE: Message from server: STATUS
  @ DRIVER MODE: Message from server: INIT
  @ DRIVER MODE: Receiving replica           0          -1
  @ DRIVER MODE: Receiving encoded integer          25
  @ DRIVER MODE:  SCF:  T  FORCE:  T  STRESS:  F  VC:  F  ENSEMBLE:  F
  @ DRIVER MODE:  SCF:  T  FORCE:  T  STRESS:  F  VC:  F  ENSEMBLE:  F

     Using Slab Decomposition

     bravais-lattice index     =            0
     lattice parameter (alat)  =       1.8897  a.u.
     unit-cell volume          =    6658.9804 (a.u.)^3
     number of atoms/cell      =           54
     number of atomic types    =            5
     number of electrons       =       401.00
     number of Kohn-Sham states=          210
     kinetic-energy cutoff     =      29.3995  Ry
     charge density cutoff     =     293.9946  Ry
     scf convergence threshold =      7.3E-08
     mixing beta               =       0.0500
     number of iterations used =            8  plain     mixing
     Exchange-correlation= BEEF-VDW
                           (   1   4  43  14   2   0   0)

     celldm(1)=   1.889726  celldm(2)=   0.000000  celldm(3)=   0.000000
     celldm(4)=   0.000000  celldm(5)=   0.000000  celldm(6)=   0.000000

     crystal axes: (cart. coord. in units of alat)
               a(1) = (   6.579727   0.000000   0.000000 )
               a(2) = (  -0.000775   5.961596   0.000000 )
               a(3) = (   0.000000   0.000000  25.155947 )

     reciprocal axes: (cart. coord. in units 2 pi/alat)
               b(1) = (  0.151982  0.000020  0.000000 )
               b(2) = (  0.000000  0.167740  0.000000 )
               b(3) = (  0.000000  0.000000  0.039752 )

     PseudoPot. # 1 for Ti read from file:
     /storage/coda1/p-amedford6/0/shared/rich_project_chbe-medford/medford-share/data/pseudos_module/espresso/nninc/pbe/van/Ti.UPF
     MD5 check sum: 8e4df49b7f0d34bbd5052bf3f5ea0213
     Pseudo is Ultrasoft, Zval = 12.0
     Generated by new atomic code, or converted to UPF format
     Using radial grid of  851 points,  6 beta functions with:
                l(1) =   0
                l(2) =   0
                l(3) =   1
                l(4) =   1
                l(5) =   2
                l(6) =   2
     Q(r) pseudized with  8 coefficients,  rinner =    1.000   1.000   1.000
                                                       1.000   1.000

     PseudoPot. # 2 for O  read from file:
     /storage/coda1/p-amedford6/0/shared/rich_project_chbe-medford/medford-share/data/pseudos_module/espresso/nninc/pbe/van/O.UPF
     MD5 check sum: 78c19812648e8988a0fe644b0f25305e
     Pseudo is Ultrasoft, Zval =  6.0
     Generated by new atomic code, or converted to UPF format
     Using radial grid of  737 points,  4 beta functions with:
                l(1) =   0
                l(2) =   0
                l(3) =   1
                l(4) =   1
     Q(r) pseudized with  8 coefficients,  rinner =    0.800   0.800   0.800

     PseudoPot. # 3 for C  read from file:
     /storage/coda1/p-amedford6/0/shared/rich_project_chbe-medford/medford-share/data/pseudos_module/espresso/nninc/pbe/van/C.UPF
     MD5 check sum: 1a69bf6b8db32088f5b2163dbdb77a27
     Pseudo is Ultrasoft, Zval =  4.0
     Generated by new atomic code, or converted to UPF format
     Using radial grid of  721 points,  4 beta functions with:
                l(1) =   0
                l(2) =   0
                l(3) =   1
                l(4) =   1
     Q(r) pseudized with  8 coefficients,  rinner =    0.800   0.800   0.800

     PseudoPot. # 4 for H  read from file:
     /storage/coda1/p-amedford6/0/shared/rich_project_chbe-medford/medford-share/data/pseudos_module/espresso/nninc/pbe/van/H.UPF
     MD5 check sum: b5ee9d7bfd3a09ee7748110bda690ff7
     Pseudo is Ultrasoft, Zval =  1.0
     Generated by new atomic code, or converted to UPF format
     Using radial grid of  615 points,  1 beta functions with:
                l(1) =   0
     Q(r) pseudized with  8 coefficients,  rinner =    0.800

     PseudoPot. # 5 for N  read from file:
     /storage/coda1/p-amedford6/0/shared/rich_project_chbe-medford/medford-share/data/pseudos_module/espresso/nninc/pbe/van/N.UPF
     MD5 check sum: 90d10febe142ad51ac9d5be1deb811c4
     Pseudo is Ultrasoft, Zval =  5.0
     Generated by new atomic code, or converted to UPF format
     Using radial grid of  729 points,  4 beta functions with:
                l(1) =   0
                l(2) =   0
                l(3) =   1
                l(4) =   1
     Q(r) pseudized with  8 coefficients,  rinner =    0.800   0.800   0.800

     atomic species   valence    mass     pseudopotential
        Ti1           12.00    47.86700     Ti( 1.00)
        O1             6.00    15.99900     O ( 1.00)
        C1             4.00    12.01100     C ( 1.00)
        H1             1.00     1.00800     H ( 1.00)
        N1             5.00    14.00700     N ( 1.00)

     No symmetry found

   Cartesian axes

     site n.     atom                  positions (alat units)
         1           Ti1 tau(   1) = (   0.0004258   2.9801865   6.0000000  )
         2           Ti1 tau(   2) = (   3.2906075   1.4906267   6.0002472  )
         3           O1  tau(   3) = (   0.0006271   0.0005054   7.9858123  )
         4           O1  tau(   4) = (   3.2906025   0.0005020   7.3038282  )
         5           O1  tau(   5) = (   4.5942328   1.4918067   9.2879030  )
         6           O1  tau(   6) = (   1.9868534   1.4903216   9.2879459  )
         7           Ti1 tau(   7) = (   3.3204934   3.0328528   9.1574130  )
         8           Ti1 tau(   8) = (   0.0292148   1.6159158   9.3632543  )
         9           O1  tau(   9) = (   3.3070435   0.0102262  11.3480939  )
        10           O1  tau(  10) = (   0.0088878   0.0096727  10.6115680  )
        11           O1  tau(  11) = (   1.3030819   1.4981340  12.6442205  )
        12           O1  tau(  12) = (   5.3040506   1.5010416  12.6455732  )
        13           Ti1 tau(  13) = (   0.0403577   3.0063940  12.8112948  )
        14           Ti1 tau(  14) = (   3.3464846   1.5065728  12.4912112  )
        15           O1  tau(  15) = (   0.0134291   0.0009660  14.7247257  )
        16           O1  tau(  16) = (   3.3093041   0.0058478  13.9373560  )
        17           O1  tau(  17) = (   4.5500255   1.4945122  16.1009386  )
        18           O1  tau(  18) = (   2.0583445   1.4942802  16.1012567  )
        19           Ti1 tau(  19) = (   3.3037885   2.9813703  15.7231771  )
        20           Ti1 tau(  20) = (   0.0263689   1.3683668  16.1009981  )
        21           O1  tau(  21) = (   3.2904802   0.0005063   4.7018136  )
        22           O1  tau(  22) = (   0.0160251   5.9515368  17.2504238  )
        23           O1  tau(  23) = (   1.3043587   1.4918075   6.0039043  )
        24           O1  tau(  24) = (   5.2767064   1.4903225   6.0039473  )
        25           Ti1 tau(  25) = (   0.0000382   5.9609847   6.0000000  )
        26           Ti1 tau(  26) = (   3.2902200   4.4714249   6.0002472  )
        27           O1  tau(  27) = (   0.0002396   2.9813036   7.9858123  )
        28           O1  tau(  28) = (   3.2902150   2.9813002   7.3038282  )
        29           O1  tau(  29) = (   4.5938453   4.4726049   9.2879030  )
        30           O1  tau(  30) = (   1.9864658   4.4711199   9.2879459  )
        31           Ti1 tau(  31) = (   3.3068128   0.0556959   9.1539818  )
        32           Ti1 tau(  32) = (   0.0329352   4.5395830   9.2719105  )
        33           O1  tau(  33) = (   3.3067668   2.9902038  11.3487497  )
        34           O1  tau(  34) = (   0.0086428   2.9933526  10.5732881  )
        35           O1  tau(  35) = (   1.3040514   4.4849883  12.6410176  )
        36           O1  tau(  36) = (   5.3019722   4.4792838  12.6433842  )
        37           Ti1 tau(  37) = (   0.0449501   0.0247790  12.5283380  )
        38           Ti1 tau(  38) = (   3.3452221   4.4882979  12.4886840  )
        39           O1  tau(  39) = (   0.0326844   3.0101588  14.7024583  )
        40           O1  tau(  40) = (   3.3056340   2.9839048  13.9300935  )
        41           O1  tau(  41) = (   4.5482541   4.4683137  16.0944903  )
        42           O1  tau(  42) = (   2.0564524   4.4684886  16.0889558  )
        43           Ti1 tau(  43) = (   3.3155465   0.0028818  15.7289974  )
        44           Ti1 tau(  44) = (   0.0293978   4.5260084  15.9878609  )
        45           O1  tau(  45) = (   3.2900926   2.9813045   4.7018136  )
        46           O1  tau(  46) = (   1.3039711   4.4726057   6.0039043  )
        47           O1  tau(  47) = (   5.2763189   4.4711207   6.0039473  )
        48           C1  tau(  48) = (   6.0941187   3.0165090  18.6783144  )
        49           O1  tau(  49) = (   6.5649259   2.9843894  17.3344459  )
        50           H1  tau(  50) = (   5.0084317   2.8724860  18.7083625  )
        51           H1  tau(  51) = (   6.5564557   2.2147430  19.2506469  )
        52           H1  tau(  52) = (   6.3318479   3.9831036  19.1258517  )
        53           N1  tau(  53) = (   6.0286935   3.0693532  22.8641725  )
        54           N1  tau(  54) = (   5.2900788   3.1330812  22.0463807  )

     number of k points=    10  Fermi-Dirac smearing, width (Ry)=  0.0073
                       cart. coord. in units 2pi/alat
        k(    1) = (   0.0000000   0.0000000   0.0000000), wk =   0.1250000
        k(    2) = (   0.0000000   0.0419351   0.0000000), wk =   0.2500000
        k(    3) = (   0.0000000  -0.0838702   0.0000000), wk =   0.1250000
        k(    4) = (   0.0379955   0.0000049   0.0000000), wk =   0.2500000
        k(    5) = (   0.0379955   0.0419400   0.0000000), wk =   0.2500000
        k(    6) = (   0.0379955  -0.0838652   0.0000000), wk =   0.2500000
        k(    7) = (   0.0379955  -0.0419301   0.0000000), wk =   0.2500000
        k(    8) = (  -0.0759910  -0.0000099   0.0000000), wk =   0.1250000
        k(    9) = (  -0.0759910   0.0419252   0.0000000), wk =   0.2500000
        k(   10) = (  -0.0759910  -0.0838800   0.0000000), wk =   0.1250000

     Initial potential from superposition of free atoms

     starting charge  384.99916, renormalised to  401.00000

     negative rho (up, down):  1.014E-02 0.000E+00

     %%%%%%%%%%%%%%%%%%%%%%%%%%%%%%%%%%%%%%%%%%%%%%%%%%%%%%%%%%%%%%%%%%%%%%%%
     %                                                                      %
     % You are using vdW-DF, which was implemented by the Thonhauser group. %
     % Please cite the following two papers that made this development      %
     % possible and the two reviews that describe the various versions:     %
     %                                                                      %
     %   T. Thonhauser et al., PRL 115, 136402 (2015).                      %
     %   T. Thonhauser et al., PRB 76, 125112 (2007).                       %
     %   K. Berland et al., Rep. Prog. Phys. 78, 066501 (2015).             %
     %   D.C. Langreth et al., J. Phys.: Condens. Matter 21, 084203 (2009). %
     %                                                                      %
     %                                                                      %
     % If you are calculating the stress with vdW-DF, please also cite:     %
     %                                                                      %
     %   R. Sabatini et al., J. Phys.: Condens. Matter 24, 424209 (2012).   %
     %                                                                      %
     %%%%%%%%%%%%%%%%%%%%%%%%%%%%%%%%%%%%%%%%%%%%%%%%%%%%%%%%%%%%%%%%%%%%%%%%

     Adding external electric field

     Computed dipole along edir(3) :
        Dipole              -14.4684 Ry au,        -36.7751 Debye
        Dipole field         -0.0273 Ry au,

        Potential amp.        2.5310 Ry
        Total length         46.3494 bohr

     Starting wfcs are  303 atomic wfcs
  @ DRIVER MODE: Message from server: STATUS
  @ DRIVER MODE: Message from server: POSDATA
  @ DRIVER MODE: Reading and sharing cell
  @ DRIVER MODE: Reading and sharing positions
  @ DRIVER MODE: Received positions

     Self-consistent Calculation

     iteration #  1     ecut=    29.40 Ry     beta= 0.05
     Davidson diagonalization with overlap
     c_bands:  3 eigenvalues not converged
     c_bands:  3 eigenvalues not converged
     c_bands:  4 eigenvalues not converged
     c_bands:  3 eigenvalues not converged
     c_bands:  5 eigenvalues not converged
     c_bands:  3 eigenvalues not converged
     c_bands:  5 eigenvalues not converged
     c_bands:  3 eigenvalues not converged
     c_bands:  3 eigenvalues not converged
     c_bands:  1 eigenvalues not converged
     ethr =  1.00E-05,  avg # of iterations = 24.0

[...]

     total energy              =   -2414.27089641 Ry
     estimated scf accuracy    <    6341.48539258 Ry

     iteration #  2     ecut=    29.40 Ry     beta= 0.05
     Davidson diagonalization with overlap
     ethr =  1.00E-02,  avg # of iterations = 23.9

[...]

     iteration # 83     ecut=    29.40 Ry     beta= 0.05
     Davidson diagonalization with overlap
     c_bands:  1 eigenvalues not converged
     ethr =  2.38E-10,  avg # of iterations = 12.5

[...]

     total energy              =   -2971.68369537 Ry
     estimated scf accuracy    <       0.00000011 Ry

     iteration # 88     ecut=    29.40 Ry     beta= 0.05
     Davidson diagonalization with overlap
     ethr =  2.20E-11,  avg # of iterations =  5.9

     negative rho (up, down):  1.203E-02 0.000E+00

     Adding external electric field

     Computed dipole along edir(3) :
        Dipole                0.7560 Ry au,          1.9216 Debye
        Dipole field          0.0014 Ry au,

        Potential amp.       -0.1323 Ry
        Total length         46.3494 bohr

     End of self-consistent calculation

          k = 0.0000 0.0000 0.0000 ( 18029 PWs)   bands (ev):

   -55.6074 -55.5925 -55.5708 -55.5562 -55.5020 -55.4914 -55.4679 -55.4401
   -55.4337 -55.3796 -55.3706 -55.3638 -55.3301 -55.2511 -54.6216 -54.5875
   -32.1585 -32.0754 -32.0108 -31.9564 -31.9266 -31.9070 -31.8988 -31.8760
   -31.8432 -31.8318 -31.8133 -31.8081 -31.8060 -31.7739 -31.7676 -31.7519
   -31.7458 -31.7379 -31.7262 -31.6978 -31.6964 -31.6724 -31.6695 -31.6567
   -31.6480 -31.6464 -31.6239 -31.6171 -31.6082 -31.5959 -31.5886 -31.5883
   -31.5828 -31.5660 -31.5454 -31.5381 -31.5339 -31.5080 -31.4750 -31.4676
   -31.4462 -31.4394 -31.0314 -30.9342 -30.9118 -30.8480 -30.7620 -30.6508
   -21.1893 -17.3486 -16.3448 -16.0522 -15.8898 -15.7558 -15.7253 -15.6211
   -15.4314 -15.2934 -15.2746 -15.2117 -15.1739 -15.1623 -15.1334 -15.1289
   -15.1162 -15.1131 -15.0637 -15.0318 -15.0283 -15.0106 -14.9866 -14.9250
   -14.8845 -14.8051 -14.7573 -14.7259 -14.6698 -14.6076 -14.5917 -13.1221
   -13.0039  -9.1874  -6.3561  -4.3311  -4.3121  -4.0658  -3.8291  -3.7043
    -3.5324  -3.5222  -3.4967  -3.4720  -3.4104  -3.1635  -3.1468  -3.0507
    -2.8292  -2.7707  -2.7469  -2.7320  -2.7268  -2.4842  -2.4646  -2.4344
    -2.4244  -2.4145  -2.3879  -2.3612  -2.3576  -2.3264  -2.3082  -2.2162
    -2.1367  -2.1257  -2.0191  -1.9827  -1.9567  -1.9088  -1.8783  -1.8628
    -1.8464  -1.8186  -1.8049  -1.7757  -1.7730  -1.6743  -1.5496  -1.4378
    -1.4080  -1.3711  -1.3072  -1.1017  -1.0529  -1.0213  -1.0086  -0.9504
    -0.9243  -0.9153  -0.8375  -0.8050  -0.7835  -0.6760  -0.6139  -0.5945
    -0.5644  -0.5016  -0.4691  -0.4242  -0.3462  -0.3309  -0.3177  -0.1000
    -0.0781  -0.0686  -0.0591   0.0551   0.1056   0.1636   0.1754   0.1844
     0.2148   0.2958   0.3475   0.3667   0.3869   0.4083   0.4461   0.5193
     0.5436   0.5729   0.5981   0.6263   0.7169   0.7680   0.9088   1.0388
     1.0635   1.1604   1.3061   1.4027   1.4770   1.5735   1.9918   2.0512
     3.5800   3.6077   3.6409   3.6705   3.7333   3.8471   3.9664   4.0157
     4.0385   4.0626

[...]

          k = 0.0380-0.0419 0.0000 ( 17876 PWs)   bands (ev):

[...]

          k =-0.0760-0.0000 0.0000 ( 17886 PWs)   bands (ev):

[...]

          k =-0.0760-0.0839 0.0000 ( 17948 PWs)   bands (ev):

   -55.5959 -55.5823 -55.5753 -55.5732 -55.4994 -55.4857 -55.4515 -55.4501
   -55.4458 -55.3768 -55.3728 -55.3493 -55.3449 -55.2534 -54.6050 -54.6039
   -31.9627 -31.9572 -31.9110 -31.8989 -31.8879 -31.8844 -31.8664 -31.8618
   -31.8582 -31.8166 -31.7939 -31.7883 -31.7870 -31.7486 -31.7381 -31.7324
   -31.7224 -31.7221 -31.7183 -31.7131 -31.7096 -31.6924 -31.6875 -31.6822
   -31.6777 -31.6714 -31.6648 -31.6539 -31.6536 -31.6491 -31.6253 -31.6017
   -31.6009 -31.5983 -31.5930 -31.5760 -31.5711 -31.5601 -31.5538 -31.5433
   -31.4834 -31.4477 -30.9252 -30.9238 -30.8448 -30.8439 -30.8055 -30.8045
   -21.1892 -17.3122 -15.7819 -15.7708 -15.5271 -15.5249 -15.5226 -15.4541
   -15.3627 -15.3456 -15.3272 -15.3228 -15.2648 -15.2575 -15.2430 -15.1829
   -15.1432 -15.1239 -15.1118 -15.1096 -15.0567 -15.0526 -14.9998 -14.9776
   -14.9626 -14.9555 -14.9380 -14.9314 -14.8419 -14.8387 -14.7662 -13.1063
   -13.1040  -9.1880  -6.3566  -4.3287  -4.3191  -3.9411  -3.7984  -3.5270
    -3.0742  -3.0601  -3.0416  -2.7687  -2.7439  -2.7421  -2.6484  -2.5613
    -2.5224  -2.4850  -2.4473  -2.4441  -2.4427  -2.4238  -2.4045  -2.3925
    -2.3704  -2.3562  -2.3448  -2.2852  -2.2487  -2.2405  -2.2358  -2.2275
    -2.1997  -2.1803  -2.1587  -2.1527  -2.1425  -2.1223  -2.0290  -1.8899
    -1.8559  -1.7466  -1.7365  -1.7066  -1.6924  -1.6607  -1.6536  -1.6342
    -1.5272  -1.4583  -1.3364  -1.3239  -1.3060  -1.2541  -1.1848  -1.1115
    -1.0538  -1.0229  -1.0045  -0.9140  -0.9021  -0.8236  -0.8117  -0.7592
    -0.7243  -0.7053  -0.6132  -0.5747  -0.5619  -0.5496  -0.4781  -0.4631
    -0.4384  -0.4040  -0.3449  -0.3353  -0.2608  -0.2293  -0.1810  -0.1201
    -0.0985  -0.0463   0.0416   0.2089   0.3034   0.4032   0.4391   0.4972
     0.5101   0.6067   0.6503   0.6686   0.6740   0.7583   0.8253   0.8516
     0.9184   0.9329   0.9555   1.0187   1.7627   1.7642   1.8545   1.8646
     3.7856   3.8137   3.8338   3.8803   4.0395   4.0441   4.0632   4.0666
     4.1423   4.2053

     the Fermi energy is     3.5478 ev

!    total energy              =   -2971.68370655 Ry
     estimated scf accuracy    <       0.00000006 Ry
     smearing contrib. (-TS)   =      -0.02320955 Ry
     internal energy E=F+TS    =   -2971.66049700 Ry

     The total energy is F=E-TS. E is the sum of the following terms:
     one-electron contribution =  -22785.50124514 Ry
     hartree contribution      =   11484.72202897 Ry
     xc contribution           =    -492.27205384 Ry
     ewald contribution        =    8821.38969446 Ry
     electric field correction =       0.00107855 Ry

     convergence has been achieved in  88 iterations

     Forces acting on atoms (cartesian axes, Ry/au):

     atom    1 type  1   force =    -0.00021004   -0.00154579    0.10613976
     atom    2 type  1   force =    -0.00045268    0.00047559   -0.17982357
     atom    3 type  2   force =     0.00026704   -0.00690229   -0.03319044
     atom    4 type  2   force =     0.00053958    0.00050904    0.04562822
     atom    5 type  2   force =    -0.01840513    0.00015676    0.00400781
     atom    6 type  2   force =     0.02061793   -0.00127939    0.00460243
     atom    7 type  1   force =    -0.00033611   -0.00019673    0.00007057
     atom    8 type  1   force =    -0.00017743   -0.00126915    0.00020700
     atom    9 type  2   force =     0.00001306    0.00011671   -0.00076399
     atom   10 type  2   force =    -0.00005506    0.00002282   -0.00042446
     atom   11 type  2   force =     0.00004342    0.00007417    0.00041076
     atom   12 type  2   force =    -0.00071196    0.00014969    0.00037341
     atom   13 type  1   force =    -0.00000269    0.00043308    0.00051419
     atom   14 type  1   force =    -0.00014309    0.00088080    0.00019517
     atom   15 type  2   force =    -0.00044397   -0.00031080    0.00005674
     atom   16 type  2   force =    -0.00018933    0.00013249   -0.00072057
     atom   17 type  2   force =    -0.00038615    0.00005678    0.00012482
     atom   18 type  2   force =     0.00039243   -0.00010218   -0.00048798
     atom   19 type  1   force =    -0.00002608    0.00071029   -0.00052330
     atom   20 type  1   force =    -0.00027369    0.00009363   -0.00040679
     atom   21 type  2   force =    -0.00006679    0.00009828    0.10419947
     atom   22 type  2   force =    -0.00009895   -0.00045553   -0.00069833
     atom   23 type  2   force =    -0.06902370    0.00067636   -0.02956058
     atom   24 type  2   force =     0.06867782    0.00115369   -0.02961870
     atom   25 type  1   force =    -0.00012945    0.00147372    0.11714594
     atom   26 type  1   force =    -0.00022687    0.00000231   -0.17989763
     atom   27 type  2   force =     0.00042387    0.00389782   -0.02757984
     atom   28 type  2   force =     0.00072581    0.00077927    0.04707533
     atom   29 type  2   force =    -0.01718354    0.00151707    0.00338918
     atom   30 type  2   force =     0.01883025    0.00099601    0.00381052
     atom   31 type  1   force =    -0.00037943    0.00044189   -0.00029596
     atom   32 type  1   force =    -0.00022596    0.00076029    0.00041881
     atom   33 type  2   force =    -0.00028225   -0.00010202   -0.00017197
     atom   34 type  2   force =    -0.00003244    0.00047864    0.00028689
     atom   35 type  2   force =    -0.00005595    0.00006055    0.00053748
     atom   36 type  2   force =    -0.00067534   -0.00005940    0.00041965
     atom   37 type  1   force =    -0.00005280   -0.00017202    0.00007642
     atom   38 type  1   force =    -0.00007307   -0.00115314    0.00008209
     atom   39 type  2   force =    -0.00021849    0.00002212    0.00050132
     atom   40 type  2   force =    -0.00022400    0.00020402    0.00071539
     atom   41 type  2   force =    -0.00091576   -0.00039056   -0.00023599
     atom   42 type  2   force =     0.00079735   -0.00015679   -0.00005005
     atom   43 type  1   force =     0.00022263   -0.00087219    0.00025723
     atom   44 type  1   force =     0.00001572    0.00116829   -0.00023543
     atom   45 type  2   force =    -0.00006392    0.00007383    0.10425138
     atom   46 type  2   force =    -0.06860888   -0.00128170   -0.02960782
     atom   47 type  2   force =     0.06836407   -0.00085867   -0.02969085
     atom   48 type  3   force =    -0.00362974    0.00256734   -0.00254838
     atom   49 type  2   force =     0.00014073    0.00002297    0.00052489
     atom   50 type  4   force =    -0.00036258    0.00094306   -0.00091987
     atom   51 type  4   force =     0.00383062   -0.00355184    0.00188818
     atom   52 type  4   force =     0.00056860   -0.00037853   -0.00012488
     atom   53 type  5   force =     0.00059739    0.00001375    0.00081957
     atom   54 type  5   force =    -0.00072503   -0.00012442   -0.00115324

     Total force =     0.376273     Total SCF correction =     0.000732
  @ DRIVER MODE: Message from server: STATUS
  @ DRIVER MODE: Message from server: GETFORCE
  @ DRIVER MODE: Returning v,forces,stress,ensemble

     Writing output data file ./calc.save/
  @ DRIVER MODE: Message from server: EXIT
  @ DRIVE MODE: Exiting

     General routines

     Parallel routines

   This run was terminated on:  18:37:38  21Sep2021

   JOB DONE.