     Program PWSCF v.6.7GPU starts on 15Sep2021 at 11:19:31

     R & G space division:  proc/nbgrp/npool/nimage =      10
     Reading input from /storage/home/hcoda1/3/ntian30/research/carbon/CxH_vib/CH_calc/ads_slab/CHNHNH_b/out_0006/pw.inp
Warning: card &CELL ignored
Warning: card   CELL_DYNAMICS='IPI', ignored
Warning: card / ignored

     Current dimensions of program PWSCF are:
     Max number of different atomic species (ntypx) = 10
     Max number of k-points (npk) =  40000
     Max angular momentum in pseudopotentials (lmaxx) =  3
     Presently no symmetry can be used with electric field

     Message from routine cell_base_init:
     DEPRECATED: use true lattice parameter, not A to a.u. conversion factor

     IMPORTANT: XC functional enforced from input :
     Exchange-correlation= BEEF-VDW
                           (   1   4  43  14   2   0   0)
     Any further DFT definition will be discarded
     Please, verify this is what you really want

  @ DRIVER MODE: Connecting to
 qe_1139763_2850202.sched-torque.pace.gatech.eduo2bkcl4l_scratch
  using UNIX socket
  @ DRIVER MODE: Message from server: STATUS
  @ DRIVER MODE: Message from server: INIT
  @ DRIVER MODE: Receiving replica           0          -1
  @ DRIVER MODE: Receiving encoded integer          25
  @ DRIVER MODE:  SCF:  T  FORCE:  T  STRESS:  F  VC:  F  ENSEMBLE:  F
  @ DRIVER MODE:  SCF:  T  FORCE:  T  STRESS:  F  VC:  F  ENSEMBLE:  F

     Using Slab Decomposition

     bravais-lattice index     =            0
     lattice parameter (alat)  =       1.8897  a.u.
     unit-cell volume          =    6658.9804 (a.u.)^3
     number of atoms/cell      =           53
     number of atomic types    =            5
     number of electrons       =       395.00
     number of Kohn-Sham states=          207
     kinetic-energy cutoff     =      29.3995  Ry
     charge density cutoff     =     293.9946  Ry
     scf convergence threshold =      7.3E-08
     mixing beta               =       0.0500
     number of iterations used =            8  plain     mixing
     Exchange-correlation= BEEF-VDW
                           (   1   4  43  14   2   0   0)

     celldm(1)=   1.889726  celldm(2)=   0.000000  celldm(3)=   0.000000
     celldm(4)=   0.000000  celldm(5)=   0.000000  celldm(6)=   0.000000

     crystal axes: (cart. coord. in units of alat)
               a(1) = (   6.579727   0.000000   0.000000 )
               a(2) = (  -0.000775   5.961596   0.000000 )
               a(3) = (   0.000000   0.000000  25.155947 )

     reciprocal axes: (cart. coord. in units 2 pi/alat)
               b(1) = (  0.151982  0.000020  0.000000 )
               b(2) = (  0.000000  0.167740  0.000000 )
               b(3) = (  0.000000  0.000000  0.039752 )

     PseudoPot. # 1 for Ti read from file:
     /storage/coda1/p-amedford6/0/shared/rich_project_chbe-medford/medford-share/data/pseudos_module/espresso/nninc/pbe/van/Ti.UPF
     MD5 check sum: 8e4df49b7f0d34bbd5052bf3f5ea0213
     Pseudo is Ultrasoft, Zval = 12.0
     Generated by new atomic code, or converted to UPF format
     Using radial grid of  851 points,  6 beta functions with:
                l(1) =   0
                l(2) =   0
                l(3) =   1
                l(4) =   1
                l(5) =   2
                l(6) =   2
     Q(r) pseudized with  8 coefficients,  rinner =    1.000   1.000   1.000
                                                       1.000   1.000

     PseudoPot. # 2 for O  read from file:
     /storage/coda1/p-amedford6/0/shared/rich_project_chbe-medford/medford-share/data/pseudos_module/espresso/nninc/pbe/van/O.UPF
     MD5 check sum: 78c19812648e8988a0fe644b0f25305e
     Pseudo is Ultrasoft, Zval =  6.0
     Generated by new atomic code, or converted to UPF format
     Using radial grid of  737 points,  4 beta functions with:
                l(1) =   0
                l(2) =   0
                l(3) =   1
                l(4) =   1
     Q(r) pseudized with  8 coefficients,  rinner =    0.800   0.800   0.800

     PseudoPot. # 3 for N  read from file:
     /storage/coda1/p-amedford6/0/shared/rich_project_chbe-medford/medford-share/data/pseudos_module/espresso/nninc/pbe/van/N.UPF
     MD5 check sum: 90d10febe142ad51ac9d5be1deb811c4
     Pseudo is Ultrasoft, Zval =  5.0
     Generated by new atomic code, or converted to UPF format
     Using radial grid of  729 points,  4 beta functions with:
                l(1) =   0
                l(2) =   0
                l(3) =   1
                l(4) =   1
     Q(r) pseudized with  8 coefficients,  rinner =    0.800   0.800   0.800

     PseudoPot. # 4 for C  read from file:
     /storage/coda1/p-amedford6/0/shared/rich_project_chbe-medford/medford-share/data/pseudos_module/espresso/nninc/pbe/van/C.UPF
     MD5 check sum: 1a69bf6b8db32088f5b2163dbdb77a27
     Pseudo is Ultrasoft, Zval =  4.0
     Generated by new atomic code, or converted to UPF format
     Using radial grid of  721 points,  4 beta functions with:
                l(1) =   0
                l(2) =   0
                l(3) =   1
                l(4) =   1
     Q(r) pseudized with  8 coefficients,  rinner =    0.800   0.800   0.800

     PseudoPot. # 5 for H  read from file:
     /storage/coda1/p-amedford6/0/shared/rich_project_chbe-medford/medford-share/data/pseudos_module/espresso/nninc/pbe/van/H.UPF
     MD5 check sum: b5ee9d7bfd3a09ee7748110bda690ff7
     Pseudo is Ultrasoft, Zval =  1.0
     Generated by new atomic code, or converted to UPF format
     Using radial grid of  615 points,  1 beta functions with:
                l(1) =   0
     Q(r) pseudized with  8 coefficients,  rinner =    0.800

     atomic species   valence    mass     pseudopotential
        Ti1           12.00    47.86700     Ti( 1.00)
        O1             6.00    15.99900     O ( 1.00)
        N1             5.00    14.00700     N ( 1.00)
        C1             4.00    12.01100     C ( 1.00)
        H1             1.00     1.00800     H ( 1.00)

     No symmetry found

   Cartesian axes

     site n.     atom                  positions (alat units)
         1           Ti1 tau(   1) = (   0.0004258   2.9801865   6.0000000  )
         2           Ti1 tau(   2) = (   3.2906075   1.4906267   6.0002472  )
         3           O1  tau(   3) = (   0.0006271   0.0005054   7.9858123  )
         4           O1  tau(   4) = (   3.2906025   0.0005020   7.3038282  )
         5           O1  tau(   5) = (   4.5942328   1.4918067   9.2879030  )
         6           O1  tau(   6) = (   1.9868534   1.4903216   9.2879459  )
         7           Ti1 tau(   7) = (   3.2907910   2.8959150   9.1758416  )
         8           Ti1 tau(   8) = (   0.0015273   1.4827037   9.2680791  )
         9           O1  tau(   9) = (   3.2799393   5.9535521  11.3540639  )
        10           O1  tau(  10) = (   0.0116148   5.9584955  10.6183126  )
        11           O1  tau(  11) = (   1.2974255   1.4613897  12.6506698  )
        12           O1  tau(  12) = (   5.3017888   1.4901577  12.6050164  )
        13           Ti1 tau(  13) = (   6.5221663   3.0180504  12.5986966  )
        14           Ti1 tau(  14) = (   3.2221172   1.5532140  12.5512791  )
        15           O1  tau(  15) = (   6.4783894   5.9520290  14.6579590  )
        16           O1  tau(  16) = (   3.3696489   5.9508513  13.9183136  )
        17           O1  tau(  17) = (   4.5179258   1.5103438  16.1624884  )
        18           O1  tau(  18) = (   1.9802590   1.4047766  15.9099196  )
        19           Ti1 tau(  19) = (   3.2637731   3.0080032  15.8837983  )
        20           Ti1 tau(  20) = (   6.5766856   1.4756295  15.8014380  )
        21           O1  tau(  21) = (   3.2904802   0.0005063   4.7018136  )
        22           O1  tau(  22) = (   0.0065935   5.9492922  17.2122405  )
        23           O1  tau(  23) = (   1.3043587   1.4918075   6.0039043  )
        24           O1  tau(  24) = (   5.2767064   1.4903225   6.0039473  )
        25           Ti1 tau(  25) = (   0.0000382   5.9609847   6.0000000  )
        26           Ti1 tau(  26) = (   3.2902200   4.4714249   6.0002472  )
        27           O1  tau(  27) = (   0.0002396   2.9813036   7.9858123  )
        28           O1  tau(  28) = (   3.2902150   2.9813002   7.3038282  )
        29           O1  tau(  29) = (   4.5938453   4.4726049   9.2879030  )
        30           O1  tau(  30) = (   1.9864658   4.4711199   9.2879459  )
        31           Ti1 tau(  31) = (   3.2891106   5.8743827   9.1763621  )
        32           Ti1 tau(  32) = (   0.0006254   4.4649316   9.2693709  )
        33           O1  tau(  33) = (   3.2772596   2.9828089  11.3369495  )
        34           O1  tau(  34) = (   0.0092240   2.9805883  10.6323155  )
        35           O1  tau(  35) = (   1.2916203   4.4718874  12.6594431  )
        36           O1  tau(  36) = (   5.2999639   4.4615573  12.6129894  )
        37           Ti1 tau(  37) = (   6.5361528   0.0312684  12.5125129  )
        38           Ti1 tau(  38) = (   3.2177194   4.4831555  12.4956785  )
        39           O1  tau(  39) = (   6.5168025   2.9395006  14.7032746  )
        40           O1  tau(  40) = (   3.2870264   2.9515371  13.9313172  )
        41           O1  tau(  41) = (   4.5204763   4.4345026  16.1736457  )
        42           O1  tau(  42) = (   1.9972348   4.5331091  15.9467552  )
        43           Ti1 tau(  43) = (   3.2981618   0.0182476  15.6956140  )
        44           Ti1 tau(  44) = (   0.0010288   4.6427453  16.0560918  )
        45           O1  tau(  45) = (   3.2900926   2.9813045   4.7018136  )
        46           O1  tau(  46) = (   1.3039711   4.4726057   6.0039043  )
        47           O1  tau(  47) = (   5.2763189   4.4711207   6.0039473  )
        48           N1  tau(  48) = (   1.3052520   2.8252889  18.3886263  )
        49           N1  tau(  49) = (   0.2128110   2.9323531  17.5195281  )
        50           C1  tau(  50) = (   2.5582938   2.8657590  18.0399718  )
        51           H1  tau(  51) = (   3.1786551   2.7222395  18.9297303  )
        52           H1  tau(  52) = (   1.0317423   2.6491596  19.3433462  )
        53           H1  tau(  53) = (   5.9645394   2.8535341  18.1048464  )

     number of k points=    10  Fermi-Dirac smearing, width (Ry)=  0.0073
                       cart. coord. in units 2pi/alat
        k(    1) = (   0.0000000   0.0000000   0.0000000), wk =   0.1250000
        k(    2) = (   0.0000000   0.0419351   0.0000000), wk =   0.2500000
        k(    3) = (   0.0000000  -0.0838702   0.0000000), wk =   0.1250000
        k(    4) = (   0.0379955   0.0000049   0.0000000), wk =   0.2500000
        k(    5) = (   0.0379955   0.0419400   0.0000000), wk =   0.2500000
        k(    6) = (   0.0379955  -0.0838652   0.0000000), wk =   0.2500000
        k(    7) = (   0.0379955  -0.0419301   0.0000000), wk =   0.2500000
        k(    8) = (  -0.0759910  -0.0000099   0.0000000), wk =   0.1250000
        k(    9) = (  -0.0759910   0.0419252   0.0000000), wk =   0.2500000
        k(   10) = (  -0.0759910  -0.0838800   0.0000000), wk =   0.1250000

     Initial potential from superposition of free atoms

[...]
     MD5 check sum: 90d10febe142ad51ac9d5be1deb811c4
     Pseudo is Ultrasoft, Zval =  5.0
     Generated by new atomic code, or converted to UPF format
     Using radial grid of  729 points,  4 beta functions with:
                l(1) =   0
                l(2) =   0
                l(3) =   1
                l(4) =   1
     Q(r) pseudized with  8 coefficients,  rinner =    0.800   0.800   0.800

     PseudoPot. # 4 for C  read from file:
     /storage/coda1/p-amedford6/0/shared/rich_project_chbe-medford/medford-share/data/pseudos_module/espresso/nninc/pbe/van/C.UPF
     MD5 check sum: 1a69bf6b8db32088f5b2163dbdb77a27
     Pseudo is Ultrasoft, Zval =  4.0
     Generated by new atomic code, or converted to UPF format
     Using radial grid of  721 points,  4 beta functions with:
                l(1) =   0
                l(2) =   0
                l(3) =   1
                l(4) =   1
     Q(r) pseudized with  8 coefficients,  rinner =    0.800   0.800   0.800

     PseudoPot. # 5 for H  read from file:
     /storage/coda1/p-amedford6/0/shared/rich_project_chbe-medford/medford-share/data/pseudos_module/espresso/nninc/pbe/van/H.UPF
     MD5 check sum: b5ee9d7bfd3a09ee7748110bda690ff7
     Pseudo is Ultrasoft, Zval =  1.0
     Generated by new atomic code, or converted to UPF format
     Using radial grid of  615 points,  1 beta functions with:
                l(1) =   0
     Q(r) pseudized with  8 coefficients,  rinner =    0.800

     atomic species   valence    mass     pseudopotential
        Ti1           12.00    47.86700     Ti( 1.00)
        O1             6.00    15.99900     O ( 1.00)
        N1             5.00    14.00700     N ( 1.00)
        C1             4.00    12.01100     C ( 1.00)
        H1             1.00     1.00800     H ( 1.00)

     No symmetry found

   Cartesian axes

     site n.     atom                  positions (alat units)
         1           Ti1 tau(   1) = (   0.0004258   2.9801865   6.0000000  )
         2           Ti1 tau(   2) = (   3.2906075   1.4906267   6.0002472  )
         3           O1  tau(   3) = (   0.0006271   0.0005054   7.9858123  )
         4           O1  tau(   4) = (   3.2906025   0.0005020   7.3038282  )
         5           O1  tau(   5) = (   4.5942328   1.4918067   9.2879030  )
         6           O1  tau(   6) = (   1.9868534   1.4903216   9.2879459  )
         7           Ti1 tau(   7) = (   3.2907910   2.8959150   9.1758416  )
         8           Ti1 tau(   8) = (   0.0015273   1.4827037   9.2680791  )
         9           O1  tau(   9) = (   3.2799393   5.9535521  11.3540639  )
        10           O1  tau(  10) = (   0.0116148   5.9584955  10.6183126  )
        11           O1  tau(  11) = (   1.2974255   1.4613897  12.6506698  )
        12           O1  tau(  12) = (   5.3017888   1.4901577  12.6050164  )
        13           Ti1 tau(  13) = (   6.5221663   3.0180504  12.5986966  )
        14           Ti1 tau(  14) = (   3.2221172   1.5532140  12.5512791  )
        15           O1  tau(  15) = (   6.4783894   5.9520290  14.6579590  )
        16           O1  tau(  16) = (   3.3696489   5.9508513  13.9183136  )
        17           O1  tau(  17) = (   4.5179258   1.5103438  16.1624884  )
        18           O1  tau(  18) = (   1.9802590   1.4047766  15.9099196  )
        19           Ti1 tau(  19) = (   3.2637731   3.0080032  15.8837983  )
        20           Ti1 tau(  20) = (   6.5766856   1.4756295  15.8014380  )
        21           O1  tau(  21) = (   3.2904802   0.0005063   4.7018136  )
        22           O1  tau(  22) = (   0.0065935   5.9492922  17.2122405  )
        23           O1  tau(  23) = (   1.3043587   1.4918075   6.0039043  )
        24           O1  tau(  24) = (   5.2767064   1.4903225   6.0039473  )
        25           Ti1 tau(  25) = (   0.0000382   5.9609847   6.0000000  )
        26           Ti1 tau(  26) = (   3.2902200   4.4714249   6.0002472  )
        27           O1  tau(  27) = (   0.0002396   2.9813036   7.9858123  )
        28           O1  tau(  28) = (   3.2902150   2.9813002   7.3038282  )
        29           O1  tau(  29) = (   4.5938453   4.4726049   9.2879030  )
        30           O1  tau(  30) = (   1.9864658   4.4711199   9.2879459  )
        31           Ti1 tau(  31) = (   3.2891106   5.8743827   9.1763621  )
        32           Ti1 tau(  32) = (   0.0006254   4.4649316   9.2693709  )
        33           O1  tau(  33) = (   3.2772596   2.9828089  11.3369495  )
        34           O1  tau(  34) = (   0.0092240   2.9805883  10.6323155  )
        35           O1  tau(  35) = (   1.2916203   4.4718874  12.6594431  )
        36           O1  tau(  36) = (   5.2999639   4.4615573  12.6129894  )
        37           Ti1 tau(  37) = (   6.5361528   0.0312684  12.5125129  )
        38           Ti1 tau(  38) = (   3.2177194   4.4831555  12.4956785  )
        39           O1  tau(  39) = (   6.5168025   2.9395006  14.7032746  )
        40           O1  tau(  40) = (   3.2870264   2.9515371  13.9313172  )
        41           O1  tau(  41) = (   4.5204763   4.4345026  16.1736457  )
        42           O1  tau(  42) = (   1.9972348   4.5331091  15.9467552  )
        43           Ti1 tau(  43) = (   3.2981618   0.0182476  15.6956140  )
        44           Ti1 tau(  44) = (   0.0010288   4.6427453  16.0560918  )
        45           O1  tau(  45) = (   3.2900926   2.9813045   4.7018136  )
        46           O1  tau(  46) = (   1.3039711   4.4726057   6.0039043  )
        47           O1  tau(  47) = (   5.2763189   4.4711207   6.0039473  )
        48           N1  tau(  48) = (   1.3052520   2.8252889  18.3786263  )
        49           N1  tau(  49) = (   0.2128110   2.9323531  17.5195281  )
        50           C1  tau(  50) = (   2.5582938   2.8657590  18.0399718  )
        51           H1  tau(  51) = (   3.1786551   2.7222395  18.9297303  )
        52           H1  tau(  52) = (   1.0317423   2.6491596  19.3433462  )
        53           H1  tau(  53) = (   5.9545394   2.8535341  18.1048464  )

     number of k points=    10  Fermi-Dirac smearing, width (Ry)=  0.0073
                       cart. coord. in units 2pi/alat
        k(    1) = (   0.0000000   0.0000000   0.0000000), wk =   0.1250000
        k(    2) = (   0.0000000   0.0419351   0.0000000), wk =   0.2500000
        k(    3) = (   0.0000000  -0.0838702   0.0000000), wk =   0.1250000
        k(    4) = (   0.0379955   0.0000049   0.0000000), wk =   0.2500000
        k(    5) = (   0.0379955   0.0419400   0.0000000), wk =   0.2500000
        k(    6) = (   0.0379955  -0.0838652   0.0000000), wk =   0.2500000
        k(    7) = (   0.0379955  -0.0419301   0.0000000), wk =   0.2500000
        k(    8) = (  -0.0759910  -0.0000099   0.0000000), wk =   0.1250000
        k(    9) = (  -0.0759910   0.0419252   0.0000000), wk =   0.2500000
        k(   10) = (  -0.0759910  -0.0838800   0.0000000), wk =   0.1250000

     Initial potential from superposition of free atoms

     starting charge  378.99916, renormalised to  395.00000

[...]

     %%%%%%%%%%%%%%%%%%%%%%%%%%%%%%%%%%%%%%%%%%%%%%%%%%%%%%%%%%%%%%%%%%%%%%%%
     %                                                                      %
     % You are using vdW-DF, which was implemented by the Thonhauser group. %
     % Please cite the following two papers that made this development      %
     % possible and the two reviews that describe the various versions:     %
     %                                                                      %
     %   T. Thonhauser et al., PRL 115, 136402 (2015).                      %
     %   T. Thonhauser et al., PRB 76, 125112 (2007).                       %
     %   K. Berland et al., Rep. Prog. Phys. 78, 066501 (2015).             %
     %   D.C. Langreth et al., J. Phys.: Condens. Matter 21, 084203 (2009). %
     %                                                                      %
     %                                                                      %
     % If you are calculating the stress with vdW-DF, please also cite:     %
     %                                                                      %
     %   R. Sabatini et al., J. Phys.: Condens. Matter 24, 424209 (2012).   %
     %                                                                      %
     %%%%%%%%%%%%%%%%%%%%%%%%%%%%%%%%%%%%%%%%%%%%%%%%%%%%%%%%%%%%%%%%%%%%%%%%

[...]

     Starting wfcs are  299 atomic wfcs
  @ DRIVER MODE: Message from server: STATUS
  @ DRIVER MODE: Message from server: POSDATA
  @ DRIVER MODE: Reading and sharing cell
  @ DRIVER MODE: Reading and sharing positions
  @ DRIVER MODE: Received positions

     Self-consistent Calculation

[...]

     iteration # 50     ecut=    29.40 Ry     beta= 0.05
     Davidson diagonalization with overlap
     c_bands:  1 eigenvalues not converged
     ethr =  6.56E-09,  avg # of iterations = 12.1

[...]

     total energy              =   -2939.10937966 Ry
     estimated scf accuracy    <       0.00000013 Ry

     iteration # 64     ecut=    29.40 Ry     beta= 0.05
     Davidson diagonalization with overlap
     ethr =  3.25E-11,  avg # of iterations =  7.4

     negative rho (up, down):  1.780E-02 0.000E+00

     Adding external electric field

     Computed dipole along edir(3) :
        Dipole                1.3669 Ry au,          3.4744 Debye
        Dipole field          0.0026 Ry au,

        Potential amp.       -0.2391 Ry
        Total length         46.3494 bohr

     End of self-consistent calculation

[...]

          k = 0.0380-0.0419 0.0000 ( 17876 PWs)   bands (ev):

[...]

          k =-0.0760-0.0839 0.0000 ( 17948 PWs)   bands (ev):

   -55.4675 -55.4668 -55.3827 -55.3542 -55.3235 -55.3130 -55.3060 -55.3036
   -55.2855 -55.2843 -55.2476 -55.2385 -55.1434 -54.9919 -54.4473 -54.4471
   -31.7836 -31.7831 -31.7620 -31.7617 -31.7614 -31.7316 -31.6679 -31.6642
   -31.6494 -31.6288 -31.6216 -31.6117 -31.6011 -31.6003 -31.5906 -31.5870
   -31.5863 -31.5798 -31.5795 -31.5775 -31.5617 -31.5587 -31.5455 -31.5331
   -31.5320 -31.5138 -31.5104 -31.5085 -31.4872 -31.4855 -31.4751 -31.4628
   -31.4604 -31.4581 -31.4565 -31.4552 -31.4411 -31.3857 -31.3733 -31.2885
   -31.2454 -31.2329 -30.7734 -30.7733 -30.6840 -30.6837 -30.6449 -30.6448
   -18.7408 -15.5996 -15.5040 -15.4873 -15.4127 -15.3889 -15.2885 -15.2523
   -15.2122 -15.1881 -15.1811 -15.1491 -15.0999 -15.0858 -15.0469 -15.0355
   -15.0100 -14.9757 -14.9661 -14.9292 -14.9263 -14.9194 -14.8827 -14.8225
   -14.8057 -14.7980 -14.7960 -14.7157 -14.6093 -14.3541 -13.4966 -12.9507
   -12.9504  -8.8807  -7.2694  -4.5785  -3.6491  -2.8499  -2.7848  -2.7585
    -2.6716  -2.5924  -2.5273  -2.4857  -2.4601  -2.4032  -2.3944  -2.3402
    -2.3315  -2.3054  -2.2907  -2.2774  -2.2433  -2.2265  -2.2241  -2.1900
    -2.1831  -2.1594  -2.1329  -2.1106  -2.0996  -2.0836  -2.0680  -2.0436
    -2.0302  -1.9987  -1.9575  -1.8259  -1.7091  -1.6603  -1.6298  -1.6093
    -1.5865  -1.5557  -1.5384  -1.5269  -1.4940  -1.4518  -1.3105  -1.1727
    -1.1507  -1.0616  -1.0138  -0.9921  -0.9545  -0.8998  -0.8769  -0.8739
    -0.8158  -0.7910  -0.7061  -0.6570  -0.6157  -0.5898  -0.4587  -0.4507
    -0.4463  -0.4311  -0.3994  -0.3807  -0.3270  -0.2475  -0.2160  -0.2099
    -0.1642  -0.1620  -0.1496  -0.0083   0.0569   0.1013   0.1928   0.2402
     0.3889   0.5427   0.5672   0.6019   0.6933   0.7486   0.7902   0.8279
     0.8444   0.8964   0.9623   1.0301   1.0427   1.0963   1.1193   1.1977
     1.2362   1.9238   1.9247   1.9954   1.9957   3.9951   4.0020   4.0175
     4.0869   4.1484   4.1549   4.1879   4.1889   4.2910   4.3229

     the Fermi energy is     3.6443 ev

!    total energy              =   -2939.10941022 Ry
     estimated scf accuracy    <       0.00000005 Ry
     smearing contrib. (-TS)   =      -0.02093444 Ry
     internal energy E=F+TS    =   -2939.08847578 Ry

     The total energy is F=E-TS. E is the sum of the following terms:
     one-electron contribution =  -24577.66398725 Ry
     hartree contribution      =   12380.41506206 Ry
     xc contribution           =    -485.20122252 Ry
     ewald contribution        =    9743.35814588 Ry
     electric field correction =       0.00352606 Ry

     convergence has been achieved in  64 iterations

     Forces acting on atoms (cartesian axes, Ry/au):

     atom    1 type  1   force =     0.00005503   -0.00021775    0.09564988
     atom    2 type  1   force =    -0.00001651   -0.00051897   -0.17546802
     atom    3 type  2   force =     0.00008659   -0.00008325   -0.02326510
     atom    4 type  2   force =    -0.00003445   -0.00149223    0.05266414
     atom    5 type  2   force =    -0.01057236   -0.00049815    0.00372742
     atom    6 type  2   force =     0.01176061   -0.00006895    0.00224955
     atom    7 type  1   force =    -0.00003254   -0.00027778   -0.00806103
     atom    8 type  1   force =     0.00049893    0.01257654    0.01817543
     atom    9 type  2   force =    -0.00031700    0.00004944    0.00007997
     atom   10 type  2   force =    -0.00242710    0.00020500   -0.01643960
     atom   11 type  2   force =    -0.00028914    0.00019667    0.00000993
     atom   12 type  2   force =    -0.00045704   -0.00014467   -0.00013737
     atom   13 type  1   force =     0.00021908   -0.00008013    0.00003207
     atom   14 type  1   force =     0.00033507    0.00004282   -0.00006452
     atom   15 type  2   force =     0.00014898    0.00022832    0.00003461
     atom   16 type  2   force =    -0.00015840   -0.00020029    0.00019228
     atom   17 type  2   force =    -0.00003041   -0.00021780   -0.00026066
     atom   18 type  2   force =     0.00005752   -0.00008135   -0.00037660
     atom   19 type  1   force =     0.00014604    0.00004300   -0.00076313
     atom   20 type  1   force =     0.00037587    0.00012822   -0.00034635
     atom   21 type  2   force =     0.00005496   -0.00006455    0.10318001
     atom   22 type  2   force =     0.00003493    0.00013707    0.00000894
     atom   23 type  2   force =    -0.07161261   -0.00015945   -0.02755661
     atom   24 type  2   force =     0.07153839    0.00028270   -0.02761632
     atom   25 type  1   force =     0.00016922   -0.00026385    0.09536723
     atom   26 type  1   force =     0.00004524   -0.00030490   -0.17586085
     atom   27 type  2   force =     0.00008996   -0.00019718   -0.02225185
     atom   28 type  2   force =    -0.00001738   -0.00114492    0.05314006
     atom   29 type  2   force =    -0.01040097   -0.00021234    0.00332429
     atom   30 type  2   force =     0.01139658    0.00020043    0.00189659
     atom   31 type  1   force =    -0.00014082    0.00482058   -0.00022564
     atom   32 type  1   force =     0.00058809   -0.01318841    0.01871040
     atom   33 type  2   force =    -0.00015114    0.00013137   -0.00008330
     atom   34 type  2   force =    -0.00060208    0.00042939   -0.01726143
     atom   35 type  2   force =    -0.00035733   -0.00015034    0.00013566
     atom   36 type  2   force =    -0.00020644   -0.00033737    0.00019790
     atom   37 type  1   force =     0.00033711   -0.00017198    0.00006461
     atom   38 type  1   force =     0.00015692    0.00021486    0.00017824
     atom   39 type  2   force =    -0.00032044   -0.00005621   -0.00027823
     atom   40 type  2   force =    -0.00012607   -0.00010578    0.00043517
     atom   41 type  2   force =    -0.00007015    0.00007868    0.00001550
     atom   42 type  2   force =     0.00033373   -0.00003549    0.00010975
     atom   43 type  1   force =    -0.00016570    0.00013309    0.00010447
     atom   44 type  1   force =     0.00033548    0.00013152    0.00022625
     atom   45 type  2   force =     0.00006804   -0.00009516    0.10319582
     atom   46 type  2   force =    -0.07166774   -0.00011751   -0.02760527
     atom   47 type  2   force =     0.07155411    0.00026803   -0.02764596
     atom   48 type  3   force =    -0.00116004   -0.00036789    0.00061178
     atom   49 type  3   force =    -0.00994131   -0.00103125    0.00510732
     atom   50 type  4   force =    -0.00062613   -0.00015461   -0.00036402
     atom   51 type  5   force =     0.00009538    0.00000053    0.00035491
     atom   52 type  5   force =    -0.00028222    0.00124704   -0.00053726
     atom   53 type  5   force =     0.01170164    0.00049519   -0.00671110

     Total force =     0.366004     Total SCF correction =     0.000617
  @ DRIVER MODE: Message from server: STATUS
  @ DRIVER MODE: Message from server: GETFORCE
  @ DRIVER MODE: Returning v,forces,stress,ensemble

     Writing output data file ./calc.save/
  @ DRIVER MODE: Message from server: EXIT
  @ DRIVE MODE: Exiting

     General routines

     Parallel routines

   This run was terminated on:  17:33:39  15Sep2021

   JOB DONE.