     Program PWSCF v.6.7GPU starts on 23Sep2021 at 11:30:58

     R & G space division:  proc/nbgrp/npool/nimage =       8
     Reading input from /storage/home/hcoda1/3/ntian30/research/carbon/CxH_vib/H2O_calc/ads_slab/CH2NNHHHHO_a/out_0002/pw.inp
Warning: card &CELL ignored
Warning: card   CELL_DYNAMICS='IPI', ignored
Warning: card / ignored

     Current dimensions of program PWSCF are:
     Max number of different atomic species (ntypx) = 10
     Max number of k-points (npk) =  40000
     Max angular momentum in pseudopotentials (lmaxx) =  3
     Presently no symmetry can be used with electric field

     Message from routine cell_base_init:
     DEPRECATED: use true lattice parameter, not A to a.u. conversion factor

     IMPORTANT: XC functional enforced from input :
     Exchange-correlation= BEEF-VDW
                           (   1   4  43  14   2   0   0)
     Any further DFT definition will be discarded
     Please, verify this is what you really want

  @ DRIVER MODE: Connecting to
 qe_1139763_2947316.sched-torque.pace.gatech.eduezby_yfm_scratch
  using UNIX socket
  @ DRIVER MODE: Message from server: STATUS
  @ DRIVER MODE: Message from server: INIT
  @ DRIVER MODE: Receiving replica           0          -1
  @ DRIVER MODE: Receiving encoded integer          25
  @ DRIVER MODE:  SCF:  T  FORCE:  T  STRESS:  F  VC:  F  ENSEMBLE:  F
  @ DRIVER MODE:  SCF:  T  FORCE:  T  STRESS:  F  VC:  F  ENSEMBLE:  F

     Using Slab Decomposition

     bravais-lattice index     =            0
     lattice parameter (alat)  =       1.8897  a.u.
     unit-cell volume          =    6658.9804 (a.u.)^3
     number of atoms/cell      =           57
     number of atomic types    =            5
     number of electrons       =       404.00
     number of Kohn-Sham states=          212
     kinetic-energy cutoff     =      29.3995  Ry
     charge density cutoff     =     293.9946  Ry
     scf convergence threshold =      7.3E-08
     mixing beta               =       0.0500
     number of iterations used =            8  plain     mixing
     Exchange-correlation= BEEF-VDW
                           (   1   4  43  14   2   0   0)

     celldm(1)=   1.889726  celldm(2)=   0.000000  celldm(3)=   0.000000
     celldm(4)=   0.000000  celldm(5)=   0.000000  celldm(6)=   0.000000

     crystal axes: (cart. coord. in units of alat)
               a(1) = (   6.579727   0.000000   0.000000 )
               a(2) = (  -0.000775   5.961596   0.000000 )
               a(3) = (   0.000000   0.000000  25.155947 )

     reciprocal axes: (cart. coord. in units 2 pi/alat)
               b(1) = (  0.151982  0.000020  0.000000 )
               b(2) = (  0.000000  0.167740  0.000000 )
               b(3) = (  0.000000  0.000000  0.039752 )

     PseudoPot. # 1 for Ti read from file:
     /storage/coda1/p-amedford6/0/shared/rich_project_chbe-medford/medford-share/data/pseudos_module/espresso/nninc/pbe/van/Ti.UPF
     MD5 check sum: 8e4df49b7f0d34bbd5052bf3f5ea0213
     Pseudo is Ultrasoft, Zval = 12.0
     Generated by new atomic code, or converted to UPF format
     Using radial grid of  851 points,  6 beta functions with:
                l(1) =   0
                l(2) =   0
                l(3) =   1
                l(4) =   1
                l(5) =   2
                l(6) =   2
     Q(r) pseudized with  8 coefficients,  rinner =    1.000   1.000   1.000
                                                       1.000   1.000

     PseudoPot. # 2 for O  read from file:
     /storage/coda1/p-amedford6/0/shared/rich_project_chbe-medford/medford-share/data/pseudos_module/espresso/nninc/pbe/van/O.UPF
     MD5 check sum: 78c19812648e8988a0fe644b0f25305e
     Pseudo is Ultrasoft, Zval =  6.0
     Generated by new atomic code, or converted to UPF format
     Using radial grid of  737 points,  4 beta functions with:
                l(1) =   0
                l(2) =   0
                l(3) =   1
                l(4) =   1
     Q(r) pseudized with  8 coefficients,  rinner =    0.800   0.800   0.800

     PseudoPot. # 3 for N  read from file:
     /storage/coda1/p-amedford6/0/shared/rich_project_chbe-medford/medford-share/data/pseudos_module/espresso/nninc/pbe/van/N.UPF
     MD5 check sum: 90d10febe142ad51ac9d5be1deb811c4
     Pseudo is Ultrasoft, Zval =  5.0
     Generated by new atomic code, or converted to UPF format
     Using radial grid of  729 points,  4 beta functions with:
                l(1) =   0
                l(2) =   0
                l(3) =   1
                l(4) =   1
     Q(r) pseudized with  8 coefficients,  rinner =    0.800   0.800   0.800

     PseudoPot. # 4 for C  read from file:
     /storage/coda1/p-amedford6/0/shared/rich_project_chbe-medford/medford-share/data/pseudos_module/espresso/nninc/pbe/van/C.UPF
     MD5 check sum: 1a69bf6b8db32088f5b2163dbdb77a27
     Pseudo is Ultrasoft, Zval =  4.0
     Generated by new atomic code, or converted to UPF format
     Using radial grid of  721 points,  4 beta functions with:
                l(1) =   0
                l(2) =   0
                l(3) =   1
                l(4) =   1
     Q(r) pseudized with  8 coefficients,  rinner =    0.800   0.800   0.800

     PseudoPot. # 5 for H  read from file:
     /storage/coda1/p-amedford6/0/shared/rich_project_chbe-medford/medford-share/data/pseudos_module/espresso/nninc/pbe/van/H.UPF
     MD5 check sum: b5ee9d7bfd3a09ee7748110bda690ff7
     Pseudo is Ultrasoft, Zval =  1.0
     Generated by new atomic code, or converted to UPF format
     Using radial grid of  615 points,  1 beta functions with:
                l(1) =   0
     Q(r) pseudized with  8 coefficients,  rinner =    0.800

     atomic species   valence    mass     pseudopotential
        Ti1           12.00    47.86700     Ti( 1.00)
        O1             6.00    15.99900     O ( 1.00)
        N1             5.00    14.00700     N ( 1.00)
        C1             4.00    12.01100     C ( 1.00)
        H1             1.00     1.00800     H ( 1.00)

     No symmetry found

   Cartesian axes

     site n.     atom                  positions (alat units)
         1           Ti1 tau(   1) = (   0.0004258   2.9801865   6.0000000  )
         2           Ti1 tau(   2) = (   3.2906075   1.4906267   6.0002472  )
         3           O1  tau(   3) = (   0.0006271   0.0005054   7.9858123  )
         4           O1  tau(   4) = (   3.2906025   0.0005020   7.3038282  )
         5           O1  tau(   5) = (   4.5942328   1.4918067   9.2879030  )
         6           O1  tau(   6) = (   1.9868534   1.4903216   9.2879459  )
         7           Ti1 tau(   7) = (   3.2907910   2.8959150   9.1758416  )
         8           Ti1 tau(   8) = (   0.0015273   1.4827037   9.2680791  )
         9           O1  tau(   9) = (   3.3027076   5.9092304  11.3732431  )
        10           O1  tau(  10) = (   0.0116148   5.9584955  10.6183126  )
        11           O1  tau(  11) = (   1.2953868   1.4751764  12.6403503  )
        12           O1  tau(  12) = (   5.3168701   1.4807623  12.6366210  )
        13           Ti1 tau(  13) = (   0.0172323   2.9996225  12.5311828  )
        14           Ti1 tau(  14) = (   3.3257086   1.2755711  12.7138078  )
        15           O1  tau(  15) = (   6.5733368   0.1082846  14.6600873  )
        16           O1  tau(  16) = (   3.3238075   0.0838359  14.0473399  )
        17           O1  tau(  17) = (   4.5575128   1.5393005  16.2317518  )
        18           O1  tau(  18) = (   2.0302387   1.4963625  16.2670071  )
        19           Ti1 tau(  19) = (   3.2366114   2.9448900  15.6849520  )
        20           Ti1 tau(  20) = (   6.5300729   1.3987400  16.1165465  )
        21           O1  tau(  21) = (   3.2904802   0.0005063   4.7018136  )
        22           O1  tau(  22) = (   0.0022030   5.7760056  17.1861099  )
        23           O1  tau(  23) = (   1.3043587   1.4918075   6.0039043  )
        24           O1  tau(  24) = (   5.2767064   1.4903225   6.0039473  )
        25           Ti1 tau(  25) = (   0.0000382   5.9609847   6.0000000  )
        26           Ti1 tau(  26) = (   3.2902200   4.4714249   6.0002472  )
        27           O1  tau(  27) = (   0.0002396   2.9813036   7.9858123  )
        28           O1  tau(  28) = (   3.2902150   2.9813002   7.3038282  )
        29           O1  tau(  29) = (   4.5938453   4.4726049   9.2879030  )
        30           O1  tau(  30) = (   1.9864658   4.4711199   9.2879459  )
        31           Ti1 tau(  31) = (   3.2891106   5.8743827   9.1763621  )
        32           Ti1 tau(  32) = (   0.0006254   4.4649316   9.2693709  )
        33           O1  tau(  33) = (   3.3012885   2.9833904  11.3212188  )
        34           O1  tau(  34) = (   0.0092240   2.9805883  10.6323155  )
        35           O1  tau(  35) = (   1.2895456   4.4501540  12.7025460  )
        36           O1  tau(  36) = (   5.3143371   4.4382646  12.6927937  )
        37           Ti1 tau(  37) = (   0.0343555   0.0433052  12.5107970  )
        38           Ti1 tau(  38) = (   3.3217552   4.3482123  12.4486840  )
        39           O1  tau(  39) = (   0.0141661   2.9064423  14.8877341  )
        40           O1  tau(  40) = (   3.2920978   2.9424077  13.9176102  )
        41           O1  tau(  41) = (   4.5506947   4.3398720  16.1100615  )
        42           O1  tau(  42) = (   2.0210198   4.4131678  16.0160425  )
        43           Ti1 tau(  43) = (   3.3132698   5.9358869  16.2610495  )
        44           Ti1 tau(  44) = (   0.0826266   4.5979890  15.7080129  )
        45           O1  tau(  45) = (   3.2900926   2.9813045   4.7018136  )
        46           O1  tau(  46) = (   1.3039711   4.4726057   6.0039043  )
        47           O1  tau(  47) = (   5.2763189   4.4711207   6.0039473  )
        48           N1  tau(  48) = (   6.5743472   2.7424576  18.0625816  )
        49           C1  tau(  49) = (   0.8744728   2.5686873  19.0232366  )
        50           H1  tau(  50) = (   0.8543601   3.1364980  19.9465443  )
        51           H1  tau(  51) = (   1.6733950   1.8773151  18.8242213  )
        52           N1  tau(  52) = (   5.5366205   3.6779994  18.4753393  )
        53           H1  tau(  53) = (   5.9486539   4.6347284  18.5635686  )
        54           H1  tau(  54) = (   4.8775701   3.8234783  17.6645784  )
        55           H1  tau(  55) = (   5.0440791   3.3775604  19.3232938  )
        56           O1  tau(  56) = (   3.4091604   5.6710612  18.1544331  )
        57           H1  tau(  57) = (   3.1368125   0.4262250  18.7404830  )

     number of k points=    10  Fermi-Dirac smearing, width (Ry)=  0.0073
                       cart. coord. in units 2pi/alat
        k(    1) = (   0.0000000   0.0000000   0.0000000), wk =   0.1250000
        k(    2) = (   0.0000000   0.0419351   0.0000000), wk =   0.2500000
        k(    3) = (   0.0000000  -0.0838702   0.0000000), wk =   0.1250000
        k(    4) = (   0.0379955   0.0000049   0.0000000), wk =   0.2500000
        k(    5) = (   0.0379955   0.0419400   0.0000000), wk =   0.2500000
        k(    6) = (   0.0379955  -0.0838652   0.0000000), wk =   0.2500000
        k(    7) = (   0.0379955  -0.0419301   0.0000000), wk =   0.2500000
        k(    8) = (  -0.0759910  -0.0000099   0.0000000), wk =   0.1250000
        k(    9) = (  -0.0759910   0.0419252   0.0000000), wk =   0.2500000
        k(   10) = (  -0.0759910  -0.0838800   0.0000000), wk =   0.1250000

     Initial potential from superposition of free atoms

     starting charge  387.99913, renormalised to  404.00000

     negative rho (up, down):  1.545E-02 0.000E+00

     %%%%%%%%%%%%%%%%%%%%%%%%%%%%%%%%%%%%%%%%%%%%%%%%%%%%%%%%%%%%%%%%%%%%%%%%
     %                                                                      %
     % You are using vdW-DF, which was implemented by the Thonhauser group. %
     % Please cite the following two papers that made this development      %
     % possible and the two reviews that describe the various versions:     %
     %                                                                      %
     %   T. Thonhauser et al., PRL 115, 136402 (2015).                      %
     %   T. Thonhauser et al., PRB 76, 125112 (2007).                       %
     %   K. Berland et al., Rep. Prog. Phys. 78, 066501 (2015).             %
     %   D.C. Langreth et al., J. Phys.: Condens. Matter 21, 084203 (2009). %
     %                                                                      %
     %                                                                      %
     % If you are calculating the stress with vdW-DF, please also cite:     %
     %                                                                      %
     %   R. Sabatini et al., J. Phys.: Condens. Matter 24, 424209 (2012).   %
     %                                                                      %
     %%%%%%%%%%%%%%%%%%%%%%%%%%%%%%%%%%%%%%%%%%%%%%%%%%%%%%%%%%%%%%%%%%%%%%%%

     Adding external electric field

     Computed dipole along edir(3) :
        Dipole              -13.5862 Ry au,        -34.5326 Debye
        Dipole field         -0.0256 Ry au,

        Potential amp.        2.3767 Ry
        Total length         46.3494 bohr

     Starting wfcs are  306 atomic wfcs
  @ DRIVER MODE: Message from server: STATUS
  @ DRIVER MODE: Message from server: POSDATA
  @ DRIVER MODE: Reading and sharing cell
  @ DRIVER MODE: Reading and sharing positions
  @ DRIVER MODE: Received positions

     Self-consistent Calculation

     iteration #  1     ecut=    29.40 Ry     beta= 0.05
     Davidson diagonalization with overlap
     c_bands:  4 eigenvalues not converged
     c_bands:  1 eigenvalues not converged
     c_bands:  1 eigenvalues not converged
     c_bands:  1 eigenvalues not converged
     c_bands:  2 eigenvalues not converged
     c_bands:  4 eigenvalues not converged
     c_bands:  5 eigenvalues not converged
     c_bands:  2 eigenvalues not converged
     ethr =  1.00E-05,  avg # of iterations = 29.7

[...]

     total energy              =   -2247.84350762 Ry
     estimated scf accuracy    <    8242.53894410 Ry

     iteration #  2     ecut=    29.40 Ry     beta= 0.05
     Davidson diagonalization with overlap
     ethr =  1.00E-02,  avg # of iterations = 26.4

[...]

     iteration # 64     ecut=    29.40 Ry     beta= 0.05
     Davidson diagonalization with overlap
     c_bands:  1 eigenvalues not converged
     ethr =  4.19E-10,  avg # of iterations = 16.6

[...]

     total energy              =   -2975.12430599 Ry
     estimated scf accuracy    <       0.00000012 Ry

     iteration # 69     ecut=    29.40 Ry     beta= 0.05
     Davidson diagonalization with overlap
     ethr =  2.96E-11,  avg # of iterations = 11.0

     negative rho (up, down):  1.376E-02 0.000E+00

     Adding external electric field

     Computed dipole along edir(3) :
        Dipole                1.3837 Ry au,          3.5171 Debye
        Dipole field          0.0026 Ry au,

        Potential amp.       -0.2421 Ry
        Total length         46.3494 bohr

     End of self-consistent calculation

          k = 0.0000 0.0000 0.0000 ( 18029 PWs)   bands (ev):

   -55.3799 -55.2399 -55.2058 -55.1149 -55.0797 -55.0743 -55.0693 -55.0353
   -55.0292 -54.9811 -54.9534 -54.9175 -54.8653 -54.7373 -54.2206 -54.1866
   -31.7254 -31.7091 -31.6071 -31.5997 -31.5789 -31.5711 -31.5308 -31.5236
   -31.5129 -31.4859 -31.4443 -31.4395 -31.3925 -31.3651 -31.3636 -31.3532
   -31.3472 -31.3066 -31.2973 -31.2963 -31.2791 -31.2677 -31.2636 -31.2583
   -31.2566 -31.2176 -31.2138 -31.2130 -31.2094 -31.1966 -31.1878 -31.1820
   -31.1751 -31.1427 -31.1353 -31.1051 -31.0969 -31.0822 -31.0752 -31.0713
   -30.9984 -30.9048 -30.6270 -30.5398 -30.5173 -30.4444 -30.3580 -30.2462
   -19.1606 -16.3150 -15.9200 -15.7642 -15.5837 -15.4438 -15.4036 -15.1800
   -15.1250 -15.0382 -15.0284 -14.9023 -14.7825 -14.7814 -14.7612 -14.7544
   -14.7410 -14.7036 -14.6932 -14.6878 -14.6662 -14.6449 -14.6243 -14.6144
   -14.5767 -14.5354 -14.4140 -14.3839 -14.3469 -14.3014 -14.1649 -14.0023
   -12.7197 -12.6032  -9.1775  -7.6821  -6.8970  -6.1611  -4.3249  -3.6214
    -3.2681  -3.1707  -3.1472  -3.1393  -3.0041  -2.8339  -2.6389  -2.5794
    -2.5157  -2.3997  -2.3715  -2.2761  -2.2563  -2.2140  -2.1579  -2.1346
    -2.1070  -2.0530  -2.0389  -2.0303  -1.9402  -1.9207  -1.8208  -1.7975
    -1.7738  -1.7108  -1.6908  -1.6160  -1.5799  -1.5571  -1.5558  -1.5473
    -1.5260  -1.5107  -1.4894  -1.4487  -1.4113  -1.3426  -1.2841  -1.2028
    -1.1321  -0.9061  -0.8574  -0.8413  -0.7846  -0.7469  -0.6833  -0.6626
    -0.6383  -0.6272  -0.5613  -0.4483  -0.3999  -0.3616  -0.3041  -0.2795
    -0.2502  -0.1416  -0.0650  -0.0469  -0.0008   0.0389   0.0634   0.1274
     0.1638   0.2056   0.2731   0.2861   0.3654   0.4024   0.4285   0.4741
     0.5145   0.5779   0.6238   0.6739   0.6806   0.7089   0.7284   0.7594
     0.8450   0.8612   0.9039   0.9367   0.9983   1.0525   1.0776   1.2498
     1.3745   1.4117   1.4797   1.7478   1.8055   1.8211   1.9962   2.3737
     2.4193   3.8462   3.9863   3.9960   4.0051   4.0740   4.1289   4.1521
     4.3324   4.3697   4.4888   4.5241

[...]

          k = 0.0380-0.0419 0.0000 ( 17876 PWs)   bands (ev):

[...]

          k =-0.0760-0.0000 0.0000 ( 17886 PWs)   bands (ev):

[...]

          k =-0.0760-0.0839 0.0000 ( 17948 PWs)   bands (ev):

   -55.3792 -55.2230 -55.2227 -55.1004 -55.0941 -55.0749 -55.0525 -55.0516
   -55.0225 -54.9880 -54.9522 -54.9117 -54.8710 -54.7384 -54.2039 -54.2032
   -31.6485 -31.5902 -31.5818 -31.5408 -31.5406 -31.5164 -31.5160 -31.4967
   -31.4346 -31.4093 -31.3881 -31.3756 -31.3732 -31.3696 -31.3613 -31.3429
   -31.3423 -31.3384 -31.3362 -31.3253 -31.3216 -31.3033 -31.2958 -31.2753
   -31.2616 -31.2543 -31.2482 -31.2386 -31.2294 -31.2275 -31.2249 -31.2173
   -31.2093 -31.2044 -31.1777 -31.1413 -31.1149 -31.1012 -31.0890 -31.0777
   -31.0002 -30.9772 -30.5303 -30.5298 -30.4404 -30.4392 -30.4015 -30.4009
   -19.1567 -16.3020 -15.4527 -15.4055 -15.2205 -15.2143 -15.1925 -15.1255
   -15.0888 -15.0373 -15.0190 -14.9843 -14.9455 -14.9277 -14.9054 -14.8314
   -14.7878 -14.7614 -14.7501 -14.7139 -14.6977 -14.6971 -14.6654 -14.6430
   -14.6331 -14.5666 -14.5542 -14.5351 -14.4313 -14.4086 -14.2792 -14.2598
   -12.7052 -12.7048  -9.1652  -7.6934  -6.8826  -6.1698  -4.3553  -3.6097
    -2.6415  -2.6377  -2.4391  -2.4066  -2.3452  -2.2717  -2.2370  -2.2191
    -2.1689  -2.1620  -2.1231  -2.1000  -2.0635  -2.0383  -2.0276  -2.0102
    -1.9931  -1.9713  -1.9490  -1.9312  -1.9254  -1.8964  -1.8752  -1.8646
    -1.8218  -1.8155  -1.7901  -1.7728  -1.7433  -1.6789  -1.6177  -1.4981
    -1.4556  -1.4341  -1.4129  -1.4002  -1.3734  -1.3272  -1.3117  -1.3033
    -1.2691  -1.2553  -1.1499  -1.0001  -0.9938  -0.8921  -0.8593  -0.8552
    -0.7481  -0.7150  -0.6819  -0.6593  -0.6060  -0.5669  -0.4627  -0.4522
    -0.4105  -0.3423  -0.2449  -0.2343  -0.2192  -0.1894  -0.1664  -0.1598
    -0.1021  -0.0637  -0.0273   0.0240   0.0451   0.0676   0.0986   0.1907
     0.2227   0.3344   0.4594   0.4963   0.5212   0.5534   0.6860   0.7381
     0.7853   0.8589   0.9233   0.9430   1.0462   1.0651   1.0960   1.1490
     1.2210   1.2721   1.2883   1.3160   1.3292   2.1664   2.1745   2.2395
     2.2399   3.8037   4.0067   4.2594   4.3334   4.3551   4.3845   4.4067
     4.4391   4.4647   4.5082   4.5236

     the Fermi energy is     3.8820 ev

!    total energy              =   -2975.12432978 Ry
     estimated scf accuracy    <       0.00000006 Ry
     smearing contrib. (-TS)   =      -0.03108572 Ry
     internal energy E=F+TS    =   -2975.09324407 Ry

     The total energy is F=E-TS. E is the sum of the following terms:
     one-electron contribution =  -23510.34202775 Ry
     hartree contribution      =   11853.52963727 Ry
     xc contribution           =    -494.86033049 Ry
     ewald contribution        =    9176.57586362 Ry
     electric field correction =       0.00361328 Ry

     convergence has been achieved in  69 iterations

     Forces acting on atoms (cartesian axes, Ry/au):

     atom    1 type  1   force =     0.00014501   -0.00021117    0.09450556
     atom    2 type  1   force =    -0.00007840    0.00040437   -0.17562739
     atom    3 type  2   force =     0.00003301   -0.00002819   -0.02144036
     atom    4 type  2   force =     0.00000247   -0.00223399    0.05509805
     atom    5 type  2   force =    -0.00784217   -0.00314059    0.00369715
     atom    6 type  2   force =     0.00956220   -0.00256799    0.00358794
     atom    7 type  1   force =     0.00003010   -0.00297277    0.00575079
     atom    8 type  1   force =    -0.00022939    0.00256420    0.00562964
     atom    9 type  2   force =    -0.00035331   -0.00027175    0.00002692
     atom   10 type  2   force =    -0.00116216   -0.00257067   -0.00853856
     atom   11 type  2   force =    -0.00070892   -0.00068711   -0.00013818
     atom   12 type  2   force =     0.00030783   -0.00069516   -0.00005276
     atom   13 type  1   force =     0.00007975    0.00006947    0.00035697
     atom   14 type  1   force =    -0.00015731   -0.00034144    0.00009363
     atom   15 type  2   force =     0.00014515   -0.00043591    0.00017209
     atom   16 type  2   force =     0.00006120   -0.00075047   -0.00015637
     atom   17 type  2   force =     0.00045390    0.00048207    0.00008939
     atom   18 type  2   force =    -0.00047037    0.00034054   -0.00030417
     atom   19 type  1   force =     0.00030866    0.00030780   -0.00033649
     atom   20 type  1   force =     0.00057868   -0.00076077   -0.00098272
     atom   21 type  2   force =     0.00005281    0.00002608    0.10325202
     atom   22 type  2   force =    -0.00004374    0.00087342   -0.00020711
     atom   23 type  2   force =    -0.07175753   -0.00019850   -0.02725180
     atom   24 type  2   force =     0.07159133    0.00024132   -0.02731691
     atom   25 type  1   force =     0.00007053   -0.00033884    0.09388796
     atom   26 type  1   force =    -0.00017150   -0.00123395   -0.17590948
     atom   27 type  2   force =     0.00013592   -0.00024301   -0.02016413
     atom   28 type  2   force =     0.00003308   -0.00056068    0.05062271
     atom   29 type  2   force =    -0.00679483    0.00147590    0.00206051
     atom   30 type  2   force =     0.00848779    0.00183318    0.00197384
     atom   31 type  1   force =     0.00015201    0.00700726   -0.00370206
     atom   32 type  1   force =    -0.00028284   -0.00257230    0.00510279
     atom   33 type  2   force =    -0.00000622    0.00030800   -0.00011975
     atom   34 type  2   force =    -0.00012247    0.00278950   -0.00825836
     atom   35 type  2   force =     0.00026489    0.00067128   -0.00028326
     atom   36 type  2   force =    -0.00102099    0.00055009   -0.00043103
     atom   37 type  1   force =     0.00012794   -0.00046636    0.00006054
     atom   38 type  1   force =    -0.00015701   -0.00008058   -0.00013043
     atom   39 type  2   force =    -0.00011588    0.00004510    0.00031307
     atom   40 type  2   force =    -0.00046926    0.00014598    0.00002453
     atom   41 type  2   force =     0.00007494    0.00026450   -0.00010008
     atom   42 type  2   force =     0.00035879    0.00026660    0.00035811
     atom   43 type  1   force =     0.00021468    0.00059058   -0.00044457
     atom   44 type  1   force =    -0.00006820   -0.00020858   -0.00041127
     atom   45 type  2   force =     0.00001400   -0.00010966    0.10301451
     atom   46 type  2   force =    -0.07182010   -0.00004360   -0.02731011
     atom   47 type  2   force =     0.07165889    0.00035137   -0.02734970
     atom   48 type  3   force =    -0.01388387    0.00511088   -0.00694284
     atom   49 type  4   force =     0.00815403   -0.00141919    0.00698330
     atom   50 type  5   force =     0.00028548   -0.00053640   -0.00054649
     atom   51 type  5   force =    -0.00056512    0.00014500    0.00024901
     atom   52 type  3   force =     0.00417842   -0.00180441   -0.00152834
     atom   53 type  5   force =    -0.00082499    0.00031517   -0.00062277
     atom   54 type  5   force =     0.00090176   -0.00034145    0.00021192
     atom   55 type  5   force =     0.00086524   -0.00041360   -0.00010016
     atom   56 type  2   force =     0.00041191    0.00135903    0.00062507
     atom   57 type  5   force =    -0.00063582   -0.00029962   -0.00104036

     Total force =     0.363205     Total SCF correction =     0.000789
  @ DRIVER MODE: Message from server: STATUS
  @ DRIVER MODE: Message from server: GETFORCE
  @ DRIVER MODE: Returning v,forces,stress,ensemble

     Writing output data file ./calc.save/
  @ DRIVER MODE: Message from server: EXIT
  @ DRIVE MODE: Exiting

     General routines

     Parallel routines

   This run was terminated on:  11:55:22  23Sep2021

   JOB DONE.