     Program PWSCF v.6.7GPU starts on 15Jul2021 at 17: 3:26

     R & G space division:  proc/nbgrp/npool/nimage =      16
     Reading input from /storage/home/hcoda1/3/ntian30/research/carbon/15Jul_vib/ads_slab/CH3NNHH_a/out_0001/pw.inp
Warning: card &CELL ignored
Warning: card   CELL_DYNAMICS='IPI', ignored
Warning: card / ignored

     Current dimensions of program PWSCF are:
     Max number of different atomic species (ntypx) = 10
     Max number of k-points (npk) =  40000
     Max angular momentum in pseudopotentials (lmaxx) =  3
     Presently no symmetry can be used with electric field

     Message from routine cell_base_init:
     DEPRECATED: use true lattice parameter, not A to a.u. conversion factor

     IMPORTANT: XC functional enforced from input :
     Exchange-correlation= BEEF-VDW
                           (   1   4  43  14   2   0   0)
     Any further DFT definition will be discarded
     Please, verify this is what you really want

  @ DRIVER MODE: Connecting to
 qe_1139763_2351651.sched-torque.pace.gatech.edu1aol24wg_scratch
  using UNIX socket
  @ DRIVER MODE: Message from server: STATUS
  @ DRIVER MODE: Message from server: INIT
  @ DRIVER MODE: Receiving replica           0          -1
  @ DRIVER MODE: Receiving encoded integer          25
  @ DRIVER MODE:  SCF:  T  FORCE:  T  STRESS:  F  VC:  F  ENSEMBLE:  F
  @ DRIVER MODE:  SCF:  T  FORCE:  T  STRESS:  F  VC:  F  ENSEMBLE:  F

     Using Slab Decomposition

     bravais-lattice index     =            0
     lattice parameter (alat)  =       1.8897  a.u.
     unit-cell volume          =    6658.9804 (a.u.)^3
     number of atoms/cell      =           55
     number of atomic types    =            5
     number of electrons       =       397.00
     number of Kohn-Sham states=          208
     kinetic-energy cutoff     =      29.3995  Ry
     charge density cutoff     =     293.9946  Ry
     scf convergence threshold =      7.3E-08
     mixing beta               =       0.0500
     number of iterations used =            8  plain     mixing
     Exchange-correlation= BEEF-VDW
                           (   1   4  43  14   2   0   0)

     celldm(1)=   1.889726  celldm(2)=   0.000000  celldm(3)=   0.000000
     celldm(4)=   0.000000  celldm(5)=   0.000000  celldm(6)=   0.000000

     crystal axes: (cart. coord. in units of alat)
               a(1) = (   6.579727   0.000000   0.000000 )
               a(2) = (  -0.000775   5.961596   0.000000 )
               a(3) = (   0.000000   0.000000  25.155947 )

     reciprocal axes: (cart. coord. in units 2 pi/alat)
               b(1) = (  0.151982  0.000020  0.000000 )
               b(2) = (  0.000000  0.167740  0.000000 )
               b(3) = (  0.000000  0.000000  0.039752 )

     PseudoPot. # 1 for Ti read from file:
     /storage/coda1/p-amedford6/0/shared/rich_project_chbe-medford/medford-share/data/pseudos_module/espresso/nninc/pbe/van/Ti.UPF
     MD5 check sum: 8e4df49b7f0d34bbd5052bf3f5ea0213
     Pseudo is Ultrasoft, Zval = 12.0
     Generated by new atomic code, or converted to UPF format
     Using radial grid of  851 points,  6 beta functions with:
                l(1) =   0
                l(2) =   0
                l(3) =   1
                l(4) =   1
                l(5) =   2
                l(6) =   2
     Q(r) pseudized with  8 coefficients,  rinner =    1.000   1.000   1.000
                                                       1.000   1.000

     PseudoPot. # 2 for O  read from file:
     /storage/coda1/p-amedford6/0/shared/rich_project_chbe-medford/medford-share/data/pseudos_module/espresso/nninc/pbe/van/O.UPF
     MD5 check sum: 78c19812648e8988a0fe644b0f25305e
     Pseudo is Ultrasoft, Zval =  6.0
     Generated by new atomic code, or converted to UPF format
     Using radial grid of  737 points,  4 beta functions with:
                l(1) =   0
                l(2) =   0
                l(3) =   1
                l(4) =   1
     Q(r) pseudized with  8 coefficients,  rinner =    0.800   0.800   0.800

     PseudoPot. # 3 for N  read from file:
     /storage/coda1/p-amedford6/0/shared/rich_project_chbe-medford/medford-share/data/pseudos_module/espresso/nninc/pbe/van/N.UPF
     MD5 check sum: 90d10febe142ad51ac9d5be1deb811c4
     Pseudo is Ultrasoft, Zval =  5.0
     Generated by new atomic code, or converted to UPF format
     Using radial grid of  729 points,  4 beta functions with:
                l(1) =   0
                l(2) =   0
                l(3) =   1
                l(4) =   1
     Q(r) pseudized with  8 coefficients,  rinner =    0.800   0.800   0.800

     PseudoPot. # 4 for C  read from file:
     /storage/coda1/p-amedford6/0/shared/rich_project_chbe-medford/medford-share/data/pseudos_module/espresso/nninc/pbe/van/C.UPF
     MD5 check sum: 1a69bf6b8db32088f5b2163dbdb77a27
     Pseudo is Ultrasoft, Zval =  4.0
     Generated by new atomic code, or converted to UPF format
     Using radial grid of  721 points,  4 beta functions with:
                l(1) =   0
                l(2) =   0
                l(3) =   1
                l(4) =   1
     Q(r) pseudized with  8 coefficients,  rinner =    0.800   0.800   0.800

     PseudoPot. # 5 for H  read from file:
     /storage/coda1/p-amedford6/0/shared/rich_project_chbe-medford/medford-share/data/pseudos_module/espresso/nninc/pbe/van/H.UPF
     MD5 check sum: b5ee9d7bfd3a09ee7748110bda690ff7
     Pseudo is Ultrasoft, Zval =  1.0
     Generated by new atomic code, or converted to UPF format
     Using radial grid of  615 points,  1 beta functions with:
                l(1) =   0
     Q(r) pseudized with  8 coefficients,  rinner =    0.800

     atomic species   valence    mass     pseudopotential
        Ti1           12.00    47.86700     Ti( 1.00)
        O1             6.00    15.99900     O ( 1.00)
        N1             5.00    14.00700     N ( 1.00)
        C1             4.00    12.01100     C ( 1.00)
        H1             1.00     1.00800     H ( 1.00)

     Starting magnetic structure
     atomic species   magnetization
        Ti1          0.000
        O1           0.000
        N1           0.000
        C1           0.025
        H1           0.000

     No symmetry found

   Cartesian axes

     site n.     atom                  positions (alat units)
         1           Ti1 tau(   1) = (   0.0004258   2.9801865   6.0000000  )
         2           Ti1 tau(   2) = (   3.2906075   1.4906267   6.0002472  )
         3           O1  tau(   3) = (   0.0006271   0.0005054   7.9858123  )
         4           O1  tau(   4) = (   3.2906025   0.0005020   7.3038282  )
         5           O1  tau(   5) = (   4.5942328   1.4918067   9.2879030  )
         6           O1  tau(   6) = (   1.9868534   1.4903216   9.2879459  )
         7           Ti1 tau(   7) = (   3.2907910   2.8959150   9.1758416  )
         8           Ti1 tau(   8) = (   0.0015273   1.4827037   9.2680791  )
         9           O1  tau(   9) = (   3.3020592   5.9599881  11.3075072  )
        10           O1  tau(  10) = (   0.0116148   5.9584955  10.6183126  )
        11           O1  tau(  11) = (   1.3218652   1.4872367  12.6142461  )
        12           O1  tau(  12) = (   5.3149618   1.4866655  12.6283206  )
        13           Ti1 tau(  13) = (   6.5343381   3.0098038  12.6530281  )
        14           Ti1 tau(  14) = (   3.2132235   1.4912063  12.4551521  )
        15           O1  tau(  15) = (   0.0515422   5.9562953  14.6829507  )
        16           O1  tau(  16) = (   3.3088797   0.0214154  13.8770011  )
        17           O1  tau(  17) = (   4.5726725   1.5412406  16.1224456  )
        18           O1  tau(  18) = (   2.0900022   1.5114086  15.9969863  )
        19           Ti1 tau(  19) = (   3.3311046   3.0200058  15.6476981  )
        20           Ti1 tau(  20) = (   0.0790784   1.4105808  15.8036947  )
        21           O1  tau(  21) = (   3.2904802   0.0005063   4.7018136  )
        22           O1  tau(  22) = (   0.0613336   0.0214447  17.2555488  )
        23           O1  tau(  23) = (   1.3043587   1.4918075   6.0039043  )
        24           O1  tau(  24) = (   5.2767064   1.4903225   6.0039473  )
        25           Ti1 tau(  25) = (   0.0000382   5.9609847   6.0000000  )
        26           Ti1 tau(  26) = (   3.2902200   4.4714249   6.0002472  )
        27           O1  tau(  27) = (   0.0002396   2.9813036   7.9858123  )
        28           O1  tau(  28) = (   3.2902150   2.9813002   7.3038282  )
        29           O1  tau(  29) = (   4.5938453   4.4726049   9.2879030  )
        30           O1  tau(  30) = (   1.9864658   4.4711199   9.2879459  )
        31           Ti1 tau(  31) = (   3.2891106   5.8743827   9.1763621  )
        32           Ti1 tau(  32) = (   0.0006254   4.4649316   9.2693709  )
        33           O1  tau(  33) = (   3.3026341   2.9893090  11.3092672  )
        34           O1  tau(  34) = (   0.0092240   2.9805883  10.6323155  )
        35           O1  tau(  35) = (   1.3182942   4.4670451  12.6271195  )
        36           O1  tau(  36) = (   5.3124783   4.4780259  12.6376329  )
        37           Ti1 tau(  37) = (   6.5365500   0.0194685  12.5464133  )
        38           Ti1 tau(  38) = (   3.2155898   4.4753301  12.4613306  )
        39           O1  tau(  39) = (   0.0167368   2.9407051  14.7244952  )
        40           O1  tau(  40) = (   3.3149560   2.9822459  13.8616979  )
        41           O1  tau(  41) = (   4.5706274   4.5128733  15.9228735  )
        42           O1  tau(  42) = (   2.1262058   4.4922812  16.0793225  )
        43           Ti1 tau(  43) = (   3.3222298   0.0210159  15.6751784  )
        44           Ti1 tau(  44) = (   6.5499002   4.5104744  16.2959303  )
        45           O1  tau(  45) = (   3.2900926   2.9813045   4.7018136  )
        46           O1  tau(  46) = (   1.3039711   4.4726057   6.0039043  )
        47           O1  tau(  47) = (   5.2763189   4.4711207   6.0039473  )
        48           N1  tau(  48) = (   0.3635289   2.9861087  17.6038306  )
        49           C1  tau(  49) = (   1.3580301   2.7301661  18.6431808  )
        50           H1  tau(  50) = (   1.5128655   3.6233449  19.2641712  )
        51           H1  tau(  51) = (   1.0354786   1.8978442  19.2795547  )
        52           H1  tau(  52) = (   2.3065860   2.4473273  18.1987077  )
        53           N1  tau(  53) = (   5.7326324   3.4596218  18.1373629  )
        54           H1  tau(  54) = (   5.8436824   4.0267099  18.9748678  )
        55           H1  tau(  55) = (   5.0375616   2.7244768  18.2555579  )

     number of k points=    10  Fermi-Dirac smearing, width (Ry)=  0.0073
                       cart. coord. in units 2pi/alat
        k(    1) = (   0.0000000   0.0000000   0.0000000), wk =   0.0625000
        k(    2) = (   0.0000000   0.0419351   0.0000000), wk =   0.1250000
        k(    3) = (   0.0000000  -0.0838702   0.0000000), wk =   0.0625000
        k(    4) = (   0.0379955   0.0000049   0.0000000), wk =   0.1250000
        k(    5) = (   0.0379955   0.0419400   0.0000000), wk =   0.1250000
        k(    6) = (   0.0379955  -0.0838652   0.0000000), wk =   0.1250000
[...]
     %                                                                      %
     % You are using vdW-DF, which was implemented by the Thonhauser group. %
     % Please cite the following two papers that made this development      %
     % possible and the two reviews that describe the various versions:     %
     %                                                                      %
     %   T. Thonhauser et al., PRL 115, 136402 (2015).                      %
     %   T. Thonhauser et al., PRB 76, 125112 (2007).                       %
     %   K. Berland et al., Rep. Prog. Phys. 78, 066501 (2015).             %
     %   D.C. Langreth et al., J. Phys.: Condens. Matter 21, 084203 (2009). %
     %                                                                      %
     %                                                                      %
     % If you are calculating the stress with vdW-DF, please also cite:     %
     %                                                                      %
     %   R. Sabatini et al., J. Phys.: Condens. Matter 24, 424209 (2012).   %
     %                                                                      %
     %%%%%%%%%%%%%%%%%%%%%%%%%%%%%%%%%%%%%%%%%%%%%%%%%%%%%%%%%%%%%%%%%%%%%%%%

     Adding external electric field

     Computed dipole along edir(3) :
        Dipole               -9.2582 Ry au,        -23.5319 Debye
        Dipole field         -0.0175 Ry au,

        Potential amp.        1.6196 Ry
        Total length         46.3494 bohr

[...]

     Starting wfcs are  301 atomic wfcs
  @ DRIVER MODE: Message from server: STATUS
  @ DRIVER MODE: Message from server: POSDATA
  @ DRIVER MODE: Reading and sharing cell
  @ DRIVER MODE: Reading and sharing positions
  @ DRIVER MODE: Received positions

     Self-consistent Calculation

     iteration #  1     ecut=    29.40 Ry     beta= 0.05
     Davidson diagonalization with overlap
     c_bands:  1 eigenvalues not converged
     c_bands:  2 eigenvalues not converged
     c_bands:  1 eigenvalues not converged
     c_bands:  2 eigenvalues not converged
     c_bands:  2 eigenvalues not converged
     c_bands:  2 eigenvalues not converged
     c_bands:  2 eigenvalues not converged
     c_bands:  1 eigenvalues not converged
     c_bands:  4 eigenvalues not converged
     c_bands:  1 eigenvalues not converged
     c_bands:  2 eigenvalues not converged
     c_bands:  1 eigenvalues not converged
     c_bands:  2 eigenvalues not converged
     c_bands:  2 eigenvalues not converged
     c_bands:  2 eigenvalues not converged
     c_bands:  2 eigenvalues not converged
     c_bands:  1 eigenvalues not converged
     c_bands:  4 eigenvalues not converged
     ethr =  1.00E-05,  avg # of iterations = 19.8

[...]

     total energy              =   -2525.27077550 Ry
     estimated scf accuracy    <    4616.40958553 Ry

     total magnetization       =     0.00 Bohr mag/cell
     absolute magnetization    =     0.03 Bohr mag/cell

     iteration #  2     ecut=    29.40 Ry     beta= 0.05
     Davidson diagonalization with overlap
     ethr =  1.00E-02,  avg # of iterations = 23.9

[...]

     iteration # 91     ecut=    29.40 Ry     beta= 0.05
     Davidson diagonalization with overlap
     c_bands:  1 eigenvalues not converged
     ethr =  2.07E-11,  avg # of iterations = 13.8

[...]

     total energy              =   -2941.63797960 Ry
     estimated scf accuracy    <       0.00000008 Ry

[...]

     iteration # 95     ecut=    29.40 Ry     beta= 0.05
     Davidson diagonalization with overlap
     ethr =  1.90E-11,  avg # of iterations =  6.5

     negative rho (up, down):  8.388E-03 8.389E-03

[...]

     Adding external electric field

     Computed dipole along edir(3) :
        Dipole                1.1515 Ry au,          2.9269 Debye
        Dipole field          0.0022 Ry au,

        Potential amp.       -0.2014 Ry
        Total length         46.3494 bohr

     Magnetic moment per site  (integrated on atomic sphere of radius R)
     atom   1 (R=0.726)  charge=  7.9408  magn=  0.0199
     atom   2 (R=0.726)  charge=  7.9244  magn=  0.0009
     atom   3 (R=0.726)  charge=  4.9319  magn= -0.0016
     atom   4 (R=0.726)  charge=  4.9681  magn= -0.0002
     atom   5 (R=0.726)  charge=  4.9368  magn= -0.0002
     atom   6 (R=0.726)  charge=  4.9376  magn= -0.0002
     atom   7 (R=0.726)  charge=  7.9229  magn=  0.0007
     atom   8 (R=0.726)  charge=  7.9151  magn=  0.0057
     atom   9 (R=0.726)  charge=  4.9562  magn= -0.0000
     atom  10 (R=0.726)  charge=  4.9311  magn= -0.0005
     atom  11 (R=0.726)  charge=  4.9388  magn= -0.0001
     atom  12 (R=0.726)  charge=  4.9369  magn= -0.0001
     atom  13 (R=0.726)  charge=  7.9088  magn=  0.0012
     atom  14 (R=0.726)  charge=  7.9274  magn=  0.0003
     atom  15 (R=0.726)  charge=  4.9165  magn= -0.0000
     atom  16 (R=0.726)  charge=  4.9542  magn= -0.0000
     atom  17 (R=0.726)  charge=  4.9068  magn=  0.0000
     atom  18 (R=0.726)  charge=  4.9387  magn=  0.0000
     atom  19 (R=0.726)  charge=  7.9528  magn= -0.0000
     atom  20 (R=0.726)  charge=  7.9410  magn=  0.0002
     atom  21 (R=0.726)  charge=  4.8211  magn= -0.0008
     atom  22 (R=0.726)  charge=  4.9008  magn=  0.0000
     atom  23 (R=0.726)  charge=  4.9281  magn= -0.0024
     atom  24 (R=0.726)  charge=  4.9282  magn= -0.0024
     atom  25 (R=0.726)  charge=  7.9408  magn=  0.0198
     atom  26 (R=0.726)  charge=  7.9244  magn=  0.0009
     atom  27 (R=0.726)  charge=  4.9305  magn= -0.0016
     atom  28 (R=0.726)  charge=  4.9683  magn= -0.0002
     atom  29 (R=0.726)  charge=  4.9375  magn= -0.0002
     atom  30 (R=0.726)  charge=  4.9382  magn= -0.0002
     atom  31 (R=0.726)  charge=  7.9236  magn=  0.0007
     atom  32 (R=0.726)  charge=  7.9153  magn=  0.0056
     atom  33 (R=0.726)  charge=  4.9540  magn= -0.0000
     atom  34 (R=0.726)  charge=  4.9049  magn= -0.0005
     atom  35 (R=0.726)  charge=  4.9378  magn= -0.0001
     atom  36 (R=0.726)  charge=  4.9369  magn= -0.0001
     atom  37 (R=0.726)  charge=  7.9159  magn=  0.0013
     atom  38 (R=0.726)  charge=  7.9271  magn=  0.0003
     atom  39 (R=0.726)  charge=  4.9089  magn= -0.0000
     atom  40 (R=0.726)  charge=  4.9620  magn= -0.0000
     atom  41 (R=0.726)  charge=  4.9464  magn=  0.0000
     atom  42 (R=0.726)  charge=  4.9157  magn=  0.0000
     atom  43 (R=0.726)  charge=  7.9491  magn=  0.0000
     atom  44 (R=0.726)  charge=  7.9604  magn= -0.0000
     atom  45 (R=0.726)  charge=  4.8212  magn= -0.0008
     atom  46 (R=0.726)  charge=  4.9281  magn= -0.0024
     atom  47 (R=0.726)  charge=  4.9282  magn= -0.0024
     atom  48 (R=0.420)  charge=  1.3157  magn= -0.0000
     atom  49 (R=0.448)  charge=  0.8395  magn= -0.0000
     atom  50 (R=0.420)  charge=  0.4415  magn=  0.0000
     atom  51 (R=0.420)  charge=  0.4405  magn=  0.0000
     atom  52 (R=0.420)  charge=  0.4485  magn=  0.0000
     atom  53 (R=0.420)  charge=  1.3391  magn=  0.0000
     atom  54 (R=0.420)  charge=  0.4533  magn=  0.0000
     atom  55 (R=0.420)  charge=  0.4500  magn=  0.0000

     End of self-consistent calculation

 ------ SPIN UP ------------

          k = 0.0000 0.0000 0.0000 ( 18029 PWs)   bands (ev):

   -55.5859 -55.5726 -55.5519 -55.5347 -55.4598 -55.4226 -55.4217 -55.3862
   -55.3739 -55.3399 -55.3256 -55.2916 -55.0290 -54.8677 -54.5360 -54.5019
   -32.1345 -32.0564 -31.9569 -31.8903 -31.8862 -31.8819 -31.8800 -31.8237
   -31.8175 -31.8042 -31.7826 -31.7575 -31.7529 -31.7415 -31.7245 -31.7137
   -31.6786 -31.6587 -31.6570 -31.6492 -31.6481 -31.6470 -31.6125 -31.5954
   -31.5687 -31.5681 -31.5659 -31.5603 -31.5561 -31.5292 -31.5075 -31.5065
   -31.4917 -31.4897 -31.4798 -31.4773 -31.4388 -31.3027 -31.2541 -31.1501
   -31.1219 -31.0287 -30.9418 -30.8558 -30.8331 -30.7592 -30.6727 -30.5610
   -17.6533 -16.3597 -16.0457 -15.8332 -15.7230 -15.7200 -15.6363 -15.4140
   -15.2932 -15.2775 -15.1638 -15.1599 -15.0970 -15.0582 -15.0515 -15.0451
   -15.0118 -15.0000 -14.9792 -14.9457 -14.9132 -14.8950 -14.8715 -14.7704
   -14.7027 -14.6950 -14.6799 -14.6145 -14.5667 -14.2066 -13.0360 -12.9197
   -12.4918  -9.2335  -6.3724  -5.0959  -4.1975  -3.7381  -3.5484  -3.4718
    -3.4366  -3.3695  -3.3414  -3.1791  -3.1718  -2.7923  -2.7730  -2.7548
    -2.7335  -2.7303  -2.4612  -2.4088  -2.3935  -2.3910  -2.3740  -2.3555
    -2.3349  -2.3239  -2.2959  -2.2868  -2.1520  -2.1073  -2.0290  -2.0032
    -1.9869  -1.8773  -1.8511  -1.8311  -1.8192  -1.8063  -1.7777  -1.7700
    -1.7481  -1.6412  -1.5322  -1.4514  -1.4219  -1.3637  -1.3504  -1.1609
    -1.1096  -1.0499  -1.0259  -1.0007  -0.9858  -0.9522  -0.8772  -0.8496
    -0.7112  -0.6720  -0.6179  -0.5921  -0.5635  -0.5061  -0.4741  -0.4437
    -0.3506  -0.3352  -0.3227  -0.3115  -0.2558  -0.0627  -0.0161   0.0032
     0.0182   0.1173   0.1565   0.1830   0.2156   0.2726   0.3005   0.3656
     0.3938   0.4166   0.4256   0.4536   0.4701   0.6019   0.6279   0.6573
     0.7197   0.7726   0.8501   0.9603   1.0434   1.1009   1.2023   1.4205
     1.4881   1.5719   1.6817   1.7170   2.0584   2.1027   3.5578   3.6352
     3.6932   3.7054   3.8134   3.8692   4.0072   4.0242   4.0617   4.0965

[...]

          k =-0.0760-0.0000 0.0000 ( 17886 PWs)   bands (ev):

[...]

 ------ SPIN DOWN ----------

[...]

          k = 0.0380-0.0419 0.0000 ( 17876 PWs)   bands (ev):

[...]

          k =-0.0760-0.0839 0.0000 ( 17948 PWs)   bands (ev):

   -55.5584 -55.5476 -55.5320 -55.5308 -55.4464 -55.4315 -55.4075 -55.4003
   -55.3479 -55.3446 -55.3092 -55.3056 -55.0274 -54.8688 -54.5173 -54.5171
   -31.9399 -31.9295 -31.8563 -31.8555 -31.8419 -31.8254 -31.8244 -31.8234
   -31.7998 -31.7859 -31.7661 -31.7467 -31.7205 -31.7098 -31.7054 -31.6796
   -31.6729 -31.6626 -31.6597 -31.6499 -31.6474 -31.6468 -31.6454 -31.6434
   -31.6214 -31.6116 -31.6012 -31.5980 -31.5470 -31.5450 -31.5417 -31.5393
   -31.5279 -31.5256 -31.5233 -31.5220 -31.4077 -31.3127 -31.2557 -31.2115
   -31.1272 -31.0399 -30.8438 -30.8437 -30.7537 -30.7535 -30.7142 -30.7142
   -17.6420 -15.8196 -15.7797 -15.5246 -15.5160 -15.5131 -15.4737 -15.3494
   -15.3009 -15.2751 -15.2642 -15.2457 -15.2372 -15.1354 -15.1218 -15.1052
   -15.0954 -15.0683 -15.0251 -15.0199 -15.0116 -15.0021 -14.9903 -14.9232
   -14.8709 -14.8670 -14.7522 -14.6615 -14.5202 -14.4315 -13.0233 -13.0230
   -12.5113  -9.1946  -6.3312  -5.1263  -4.1293  -3.4110  -3.1202  -3.0726
    -2.7845  -2.7650  -2.7488  -2.6352  -2.5173  -2.5079  -2.4814  -2.4603
    -2.4255  -2.4142  -2.4026  -2.3955  -2.3771  -2.3579  -2.3474  -2.3079
    -2.2392  -2.2312  -2.2238  -2.2147  -2.1976  -2.1739  -2.1636  -2.1360
    -2.1119  -2.0771  -2.0182  -1.9880  -1.8385  -1.7942  -1.7425  -1.6934
    -1.6853  -1.6559  -1.6220  -1.6145  -1.5082  -1.4962  -1.4560  -1.3281
    -1.2666  -1.2585  -1.2254  -1.1374  -1.1009  -0.9695  -0.9564  -0.9197
    -0.8632  -0.8559  -0.8201  -0.7813  -0.7305  -0.6784  -0.6343  -0.6118
    -0.5940  -0.5219  -0.5214  -0.4734  -0.4190  -0.3461  -0.3235  -0.3160
    -0.2850  -0.2417  -0.1937  -0.1303  -0.0549  -0.0371  -0.0210   0.0779
     0.1514   0.3707   0.4174   0.5147   0.5364   0.5631   0.6240   0.6736
     0.7418   0.7564   0.7847   0.8588   0.8798   0.9730   0.9844   1.0011
     1.1790   1.6554   1.8527   1.8536   1.9217   1.9223   3.8605   3.8762
     3.9007   3.9243   4.0969   4.1018   4.1109   4.1136   4.2328   4.2625

     the Fermi energy is     3.5656 ev

!    total energy              =   -2941.63798132 Ry
     estimated scf accuracy    <       0.00000007 Ry
     smearing contrib. (-TS)   =      -0.02167851 Ry
     internal energy E=F+TS    =   -2941.61630281 Ry

     The total energy is F=E-TS. E is the sum of the following terms:
     one-electron contribution =  -24388.24794713 Ry
     hartree contribution      =   12286.10386243 Ry
     xc contribution           =    -486.94439889 Ry
     ewald contribution        =    9647.46967842 Ry
     electric field correction =       0.00250236 Ry

     total magnetization       =     0.07 Bohr mag/cell
     absolute magnetization    =     0.11 Bohr mag/cell

     convergence has been achieved in  95 iterations

     Forces acting on atoms (cartesian axes, Ry/au):

     atom    1 type  1   force =    -0.00000959   -0.00019315    0.09678756
     atom    2 type  1   force =     0.00009135   -0.00069612   -0.17465644
     atom    3 type  2   force =     0.00018230   -0.00005926   -0.02504979
     atom    4 type  2   force =     0.00001070   -0.00125070    0.05120369
     atom    5 type  2   force =    -0.01126340   -0.00080400    0.00228332
     atom    6 type  2   force =     0.01310629   -0.00035420    0.00272771
     atom    7 type  1   force =     0.00100368    0.00020995   -0.01341625
     atom    8 type  1   force =    -0.00009309    0.01533226    0.02823142
     atom    9 type  2   force =    -0.00007082   -0.00001350    0.00010011
     atom   10 type  2   force =    -0.00233786    0.00080758   -0.01059298
     atom   11 type  2   force =     0.00037231    0.00005887   -0.00002214
     atom   12 type  2   force =    -0.00044322   -0.00006810    0.00025558
     atom   13 type  1   force =     0.00015767   -0.00018793   -0.00001300
     atom   14 type  1   force =     0.00010267   -0.00021361    0.00000857
     atom   15 type  2   force =    -0.00005330    0.00029979   -0.00023047
     atom   16 type  2   force =    -0.00020013    0.00003497   -0.00014145
     atom   17 type  2   force =    -0.00024018    0.00004474   -0.00004854
     atom   18 type  2   force =    -0.00039843    0.00016937    0.00002744
     atom   19 type  1   force =    -0.00025043    0.00023152   -0.00001628
     atom   20 type  1   force =    -0.00014118   -0.00049042    0.00009853
     atom   21 type  2   force =     0.00003910   -0.00009063    0.10300376
     atom   22 type  2   force =     0.00004595    0.00043506    0.00070580
     atom   23 type  2   force =    -0.07179313   -0.00021032   -0.02779365
     atom   24 type  2   force =     0.07175506    0.00024483   -0.02785729
     atom   25 type  1   force =     0.00003256   -0.00025706    0.09639742
     atom   26 type  1   force =    -0.00000633   -0.00029856   -0.17491221
     atom   27 type  2   force =     0.00019419   -0.00025526   -0.02391204
     atom   28 type  2   force =     0.00005500   -0.00100542    0.05147578
     atom   29 type  2   force =    -0.01129284    0.00078575    0.00169720
     atom   30 type  2   force =     0.01298486    0.00111305    0.00209631
     atom   31 type  1   force =     0.00103687    0.00257112   -0.01544101
     atom   32 type  1   force =     0.00006356   -0.01663303    0.02911234
     atom   33 type  2   force =     0.00011850    0.00003028   -0.00011303
     atom   34 type  2   force =    -0.00270794    0.00093435   -0.01869370
     atom   35 type  2   force =     0.00018494   -0.00007076   -0.00008677
     atom   36 type  2   force =    -0.00038988   -0.00007471    0.00012851
     atom   37 type  1   force =    -0.00011638   -0.00018999    0.00020975
     atom   38 type  1   force =     0.00008534    0.00008224   -0.00008291
     atom   39 type  2   force =     0.00001616    0.00042043   -0.00015677
     atom   40 type  2   force =    -0.00037685    0.00015025   -0.00009877
     atom   41 type  2   force =     0.00000283   -0.00003220   -0.00013241
     atom   42 type  2   force =    -0.00024154   -0.00001979    0.00031630
     atom   43 type  1   force =     0.00025588   -0.00000487   -0.00019903
     atom   44 type  1   force =    -0.00105720   -0.00007598   -0.00117929
     atom   45 type  2   force =     0.00005610   -0.00010969    0.10300729
     atom   46 type  2   force =    -0.07181680   -0.00016117   -0.02781612
     atom   47 type  2   force =     0.07176103    0.00022484   -0.02786012
     atom   48 type  3   force =     0.01424903   -0.00333742    0.00162085
     atom   49 type  4   force =    -0.00397064    0.00004651   -0.00274269
     atom   50 type  5   force =    -0.00079439    0.00012640   -0.00043935
     atom   51 type  5   force =    -0.00043756    0.00011236   -0.00032811
     atom   52 type  5   force =    -0.00004190   -0.00005051   -0.00055914
     atom   53 type  3   force =    -0.00615922    0.00175593    0.00298827
     atom   54 type  5   force =     0.00019704    0.00016514    0.00122464
     atom   55 type  5   force =    -0.00145674    0.00082078   -0.00111636

     Total force =     0.367617     Total SCF correction =     0.000326
  @ DRIVER MODE: Message from server: STATUS
  @ DRIVER MODE: Message from server: GETFORCE
  @ DRIVER MODE: Returning v,forces,stress,ensemble

     Writing output data file ./calc.save/
  @ DRIVER MODE: Message from server: EXIT
  @ DRIVE MODE: Exiting

     General routines

     Parallel routines

   This run was terminated on:  17:44:50  15Jul2021

   JOB DONE.