     Program PWSCF v.6.7GPU starts on 25Aug2021 at  6:58: 1

     R & G space division:  proc/nbgrp/npool/nimage =       6
     Reading input from /storage/home/hcoda1/3/ntian30/research/carbon/CH3_vib_end_on/ads_slab/CH3N2H_a/out_0029/pw.inp
Warning: card &CELL ignored
Warning: card   CELL_DYNAMICS='IPI', ignored
Warning: card / ignored

     Current dimensions of program PWSCF are:
     Max number of different atomic species (ntypx) = 10
     Max number of k-points (npk) =  40000
     Max angular momentum in pseudopotentials (lmaxx) =  3
     Presently no symmetry can be used with electric field

     Message from routine cell_base_init:
     DEPRECATED: use true lattice parameter, not A to a.u. conversion factor

     IMPORTANT: XC functional enforced from input :
     Exchange-correlation= BEEF-VDW
                           (   1   4  43  14   2   0   0)
     Any further DFT definition will be discarded
     Please, verify this is what you really want

  @ DRIVER MODE: Connecting to
 qe_1139763_2643869.sched-torque.pace.gatech.edu1scmv_yh_scratch
  using UNIX socket
  @ DRIVER MODE: Message from server: STATUS
  @ DRIVER MODE: Message from server: INIT
  @ DRIVER MODE: Receiving replica           0          -1
  @ DRIVER MODE: Receiving encoded integer          25
  @ DRIVER MODE:  SCF:  T  FORCE:  T  STRESS:  F  VC:  F  ENSEMBLE:  F
  @ DRIVER MODE:  SCF:  T  FORCE:  T  STRESS:  F  VC:  F  ENSEMBLE:  F

     Using Slab Decomposition

     bravais-lattice index     =            0
     lattice parameter (alat)  =       1.8897  a.u.
     unit-cell volume          =    6658.9804 (a.u.)^3
     number of atoms/cell      =           54
     number of atomic types    =            5
     number of electrons       =       396.00
     number of Kohn-Sham states=          208
     kinetic-energy cutoff     =      29.3995  Ry
     charge density cutoff     =     293.9946  Ry
     scf convergence threshold =      7.3E-08
     mixing beta               =       0.0500
     number of iterations used =            8  plain     mixing
     Exchange-correlation= BEEF-VDW
                           (   1   4  43  14   2   0   0)

     celldm(1)=   1.889726  celldm(2)=   0.000000  celldm(3)=   0.000000
     celldm(4)=   0.000000  celldm(5)=   0.000000  celldm(6)=   0.000000

     crystal axes: (cart. coord. in units of alat)
               a(1) = (   6.579727   0.000000   0.000000 )
               a(2) = (  -0.000775   5.961596   0.000000 )
               a(3) = (   0.000000   0.000000  25.155947 )

     reciprocal axes: (cart. coord. in units 2 pi/alat)
               b(1) = (  0.151982  0.000020  0.000000 )
               b(2) = (  0.000000  0.167740  0.000000 )
               b(3) = (  0.000000  0.000000  0.039752 )

     PseudoPot. # 1 for Ti read from file:
     /storage/coda1/p-amedford6/0/shared/rich_project_chbe-medford/medford-share/data/pseudos_module/espresso/nninc/pbe/van/Ti.UPF
     MD5 check sum: 8e4df49b7f0d34bbd5052bf3f5ea0213
     Pseudo is Ultrasoft, Zval = 12.0
     Generated by new atomic code, or converted to UPF format
     Using radial grid of  851 points,  6 beta functions with:
                l(1) =   0
                l(2) =   0
                l(3) =   1
                l(4) =   1
                l(5) =   2
                l(6) =   2
     Q(r) pseudized with  8 coefficients,  rinner =    1.000   1.000   1.000
                                                       1.000   1.000

     PseudoPot. # 2 for O  read from file:
     /storage/coda1/p-amedford6/0/shared/rich_project_chbe-medford/medford-share/data/pseudos_module/espresso/nninc/pbe/van/O.UPF
     MD5 check sum: 78c19812648e8988a0fe644b0f25305e
     Pseudo is Ultrasoft, Zval =  6.0
     Generated by new atomic code, or converted to UPF format
     Using radial grid of  737 points,  4 beta functions with:
                l(1) =   0
                l(2) =   0
                l(3) =   1
                l(4) =   1
     Q(r) pseudized with  8 coefficients,  rinner =    0.800   0.800   0.800

     PseudoPot. # 3 for N  read from file:
     /storage/coda1/p-amedford6/0/shared/rich_project_chbe-medford/medford-share/data/pseudos_module/espresso/nninc/pbe/van/N.UPF
     MD5 check sum: 90d10febe142ad51ac9d5be1deb811c4
     Pseudo is Ultrasoft, Zval =  5.0
     Generated by new atomic code, or converted to UPF format
     Using radial grid of  729 points,  4 beta functions with:
                l(1) =   0
                l(2) =   0
                l(3) =   1
                l(4) =   1
     Q(r) pseudized with  8 coefficients,  rinner =    0.800   0.800   0.800

     PseudoPot. # 4 for C  read from file:
     /storage/coda1/p-amedford6/0/shared/rich_project_chbe-medford/medford-share/data/pseudos_module/espresso/nninc/pbe/van/C.UPF
     MD5 check sum: 1a69bf6b8db32088f5b2163dbdb77a27
     Pseudo is Ultrasoft, Zval =  4.0
     Generated by new atomic code, or converted to UPF format
     Using radial grid of  721 points,  4 beta functions with:
                l(1) =   0
                l(2) =   0
                l(3) =   1
                l(4) =   1
     Q(r) pseudized with  8 coefficients,  rinner =    0.800   0.800   0.800

     PseudoPot. # 5 for H  read from file:
     /storage/coda1/p-amedford6/0/shared/rich_project_chbe-medford/medford-share/data/pseudos_module/espresso/nninc/pbe/van/H.UPF
     MD5 check sum: b5ee9d7bfd3a09ee7748110bda690ff7
     Pseudo is Ultrasoft, Zval =  1.0
     Generated by new atomic code, or converted to UPF format
     Using radial grid of  615 points,  1 beta functions with:
                l(1) =   0
     Q(r) pseudized with  8 coefficients,  rinner =    0.800

     atomic species   valence    mass     pseudopotential
        Ti1           12.00    47.86700     Ti( 1.00)
        O1             6.00    15.99900     O ( 1.00)
        N1             5.00    14.00700     N ( 1.00)
        C1             4.00    12.01100     C ( 1.00)
        H1             1.00     1.00800     H ( 1.00)

     No symmetry found

   Cartesian axes

     site n.     atom                  positions (alat units)
         1           Ti1 tau(   1) = (   0.0004258   2.9801865   6.0000000  )
         2           Ti1 tau(   2) = (   3.2906075   1.4906267   6.0002472  )
         3           O1  tau(   3) = (   0.0006271   0.0005054   7.9858123  )
         4           O1  tau(   4) = (   3.2906025   0.0005020   7.3038282  )
         5           O1  tau(   5) = (   4.5942328   1.4918067   9.2879030  )
         6           O1  tau(   6) = (   1.9868534   1.4903216   9.2879459  )
         7           Ti1 tau(   7) = (   3.2907910   2.8959150   9.1758416  )
         8           Ti1 tau(   8) = (   0.0015273   1.4827037   9.2680791  )
         9           O1  tau(   9) = (   3.2896288   0.0042867  11.3205077  )
        10           O1  tau(  10) = (   0.0116148   5.9584955  10.6183126  )
        11           O1  tau(  11) = (   1.2848067   1.4985890  12.6232755  )
        12           O1  tau(  12) = (   5.2688617   1.4893877  12.6055203  )
        13           Ti1 tau(  13) = (   0.0799559   3.0171279  12.6206390  )
        14           Ti1 tau(  14) = (   3.4009582   1.4891986  12.4726338  )
        15           O1  tau(  15) = (   6.5707323   0.0080309  14.6263129  )
        16           O1  tau(  16) = (   3.2902489   0.0120312  13.8979102  )
        17           O1  tau(  17) = (   4.5126121   1.5346005  16.0500440  )
        18           O1  tau(  18) = (   2.0453867   1.5362785  16.0447169  )
        19           Ti1 tau(  19) = (   3.2767562   3.0203775  15.6892921  )
        20           Ti1 tau(  20) = (   6.5596632   1.5778499  15.8310978  )
        21           O1  tau(  21) = (   3.2904802   0.0005063   4.7018136  )
        22           O1  tau(  22) = (   6.5709656   0.0671247  17.2345223  )
        23           O1  tau(  23) = (   1.3043587   1.4918075   6.0039043  )
        24           O1  tau(  24) = (   5.2767064   1.4903225   6.0039473  )
        25           Ti1 tau(  25) = (   0.0000382   5.9609847   6.0000000  )
        26           Ti1 tau(  26) = (   3.2902200   4.4714249   6.0002472  )
        27           O1  tau(  27) = (   0.0002396   2.9813036   7.9858123  )
        28           O1  tau(  28) = (   3.2902150   2.9813002   7.3038282  )
        29           O1  tau(  29) = (   4.5938453   4.4726049   9.2879030  )
        30           O1  tau(  30) = (   1.9864658   4.4711199   9.2879459  )
        31           Ti1 tau(  31) = (   3.2891106   5.8743827   9.1763621  )
        32           Ti1 tau(  32) = (   0.0006254   4.4649316   9.2693709  )
        33           O1  tau(  33) = (   3.2919429   2.9835650  11.3172650  )
        34           O1  tau(  34) = (   0.0092240   2.9805883  10.6323155  )
        35           O1  tau(  35) = (   1.2842535   4.4799506  12.6241420  )
        36           O1  tau(  36) = (   5.2755836   4.4732255  12.6042992  )
        37           Ti1 tau(  37) = (   0.0783641   0.0295629  12.6394962  )
        38           Ti1 tau(  38) = (   3.4022659   4.4693352  12.4708195  )
        39           O1  tau(  39) = (   6.5693815   2.9799975  14.6326336  )
        40           O1  tau(  40) = (   3.2899495   3.0014797  13.8849495  )
        41           O1  tau(  41) = (   4.5062741   4.5069571  16.0893315  )
        42           O1  tau(  42) = (   2.0480812   4.5060041  16.0753496  )
        43           Ti1 tau(  43) = (   3.2742444   0.0367023  15.7020416  )
        44           Ti1 tau(  44) = (   6.5658628   4.6518251  16.1481936  )
        45           O1  tau(  45) = (   3.2900926   2.9813045   4.7018136  )
        46           O1  tau(  46) = (   1.3039711   4.4726057   6.0039043  )
        47           O1  tau(  47) = (   5.2763189   4.4711207   6.0039473  )
        48           N1  tau(  48) = (   6.5201982   2.6597193  18.5868863  )
        49           N1  tau(  49) = (   6.5663212   2.9659568  17.3251533  )
        50           C1  tau(  50) = (   0.1092964   3.6297355  19.6533281  )
        51           H1  tau(  51) = (   6.1365678   4.5355971  19.4091500  )
        52           H1  tau(  52) = (   6.3142024   3.1981282  20.5713133  )
        53           H1  tau(  53) = (   1.1661384   3.8973747  19.7839464  )
        54           H1  tau(  54) = (   6.5756389   1.6632157  18.8047554  )

     number of k points=    10  Fermi-Dirac smearing, width (Ry)=  0.0073
                       cart. coord. in units 2pi/alat
        k(    1) = (   0.0000000   0.0000000   0.0000000), wk =   0.1250000
        k(    2) = (   0.0000000   0.0419351   0.0000000), wk =   0.2500000
        k(    3) = (   0.0000000  -0.0838702   0.0000000), wk =   0.1250000
        k(    4) = (   0.0379955   0.0000049   0.0000000), wk =   0.2500000
        k(    5) = (   0.0379955   0.0419400   0.0000000), wk =   0.2500000
        k(    6) = (   0.0379955  -0.0838652   0.0000000), wk =   0.2500000
        k(    7) = (   0.0379955  -0.0419301   0.0000000), wk =   0.2500000
        k(    8) = (  -0.0759910  -0.0000099   0.0000000), wk =   0.1250000
        k(    9) = (  -0.0759910   0.0419252   0.0000000), wk =   0.2500000
        k(   10) = (  -0.0759910  -0.0838800   0.0000000), wk =   0.1250000

     Initial potential from superposition of free atoms

     starting charge  379.99915, renormalised to  396.00000

     negative rho (up, down):  1.475E-02 0.000E+00

     %%%%%%%%%%%%%%%%%%%%%%%%%%%%%%%%%%%%%%%%%%%%%%%%%%%%%%%%%%%%%%%%%%%%%%%%
     %                                                                      %
     % You are using vdW-DF, which was implemented by the Thonhauser group. %
     % Please cite the following two papers that made this development      %
     % possible and the two reviews that describe the various versions:     %
     %                                                                      %
     %   T. Thonhauser et al., PRL 115, 136402 (2015).                      %
     %   T. Thonhauser et al., PRB 76, 125112 (2007).                       %
     %   K. Berland et al., Rep. Prog. Phys. 78, 066501 (2015).             %
     %   D.C. Langreth et al., J. Phys.: Condens. Matter 21, 084203 (2009). %
     %                                                                      %
     %                                                                      %
     % If you are calculating the stress with vdW-DF, please also cite:     %
     %                                                                      %
     %   R. Sabatini et al., J. Phys.: Condens. Matter 24, 424209 (2012).   %
     %                                                                      %
     %%%%%%%%%%%%%%%%%%%%%%%%%%%%%%%%%%%%%%%%%%%%%%%%%%%%%%%%%%%%%%%%%%%%%%%%

     Adding external electric field

     Computed dipole along edir(3) :
        Dipole               -9.2696 Ry au,        -23.5610 Debye
        Dipole field         -0.0175 Ry au,

        Potential amp.        1.6216 Ry
        Total length         46.3494 bohr

     Starting wfcs are  300 atomic wfcs
  @ DRIVER MODE: Message from server: STATUS
  @ DRIVER MODE: Message from server: POSDATA
  @ DRIVER MODE: Reading and sharing cell
  @ DRIVER MODE: Reading and sharing positions
  @ DRIVER MODE: Received positions

     Self-consistent Calculation

     iteration #  1     ecut=    29.40 Ry     beta= 0.05
     Davidson diagonalization with overlap
     c_bands:  1 eigenvalues not converged
     c_bands:  1 eigenvalues not converged
     c_bands:  1 eigenvalues not converged
     ethr =  1.00E-05,  avg # of iterations = 17.9

[...]

     total energy              =   -2585.56782330 Ry
     estimated scf accuracy    <    3944.03111566 Ry

     iteration #  2     ecut=    29.40 Ry     beta= 0.05
     Davidson diagonalization with overlap
     ethr =  1.00E-02,  avg # of iterations = 23.3

[...]

     iteration # 46     ecut=    29.40 Ry     beta= 0.05
     Davidson diagonalization with overlap
     c_bands:  1 eigenvalues not converged
     ethr =  4.32E-07,  avg # of iterations =  9.6

[...]

     total energy              =   -2940.39761237 Ry
     estimated scf accuracy    <       0.00000008 Ry

     iteration # 67     ecut=    29.40 Ry     beta= 0.05
     Davidson diagonalization with overlap
     ethr =  1.91E-11,  avg # of iterations =  5.0

     negative rho (up, down):  1.569E-02 0.000E+00

     Adding external electric field

     Computed dipole along edir(3) :
        Dipole                1.1327 Ry au,          2.8791 Debye
        Dipole field          0.0021 Ry au,

        Potential amp.       -0.1982 Ry
        Total length         46.3494 bohr

     End of self-consistent calculation

          k = 0.0000 0.0000 0.0000 ( 18029 PWs)   bands (ev):

   -55.6426 -55.6086 -55.5504 -55.5127 -55.4066 -55.3840 -55.3728 -55.3489
   -55.3417 -55.3347 -55.3150 -55.2651 -54.7244 -54.5844 -54.5561 -54.5504
   -32.1171 -32.0939 -31.9369 -31.9238 -31.8935 -31.8632 -31.8450 -31.8383
   -31.7959 -31.7790 -31.7782 -31.7394 -31.7302 -31.7123 -31.7014 -31.6913
   -31.6809 -31.6721 -31.6388 -31.6275 -31.6048 -31.5848 -31.5774 -31.5633
   -31.5502 -31.5438 -31.5372 -31.5355 -31.5298 -31.5127 -31.5033 -31.5019
   -31.4979 -31.4611 -31.4467 -31.3792 -31.2222 -30.9903 -30.9474 -30.9329
   -30.9055 -30.8935 -30.8828 -30.8070 -30.7645 -30.7357 -30.7207 -30.6098
   -18.0002 -16.2769 -16.0491 -15.7717 -15.6708 -15.6473 -15.5265 -15.3941
   -15.2938 -15.1986 -15.1584 -15.1040 -15.0994 -15.0701 -15.0399 -15.0039
   -14.9761 -14.9368 -14.9186 -14.8992 -14.8736 -14.8647 -14.7545 -14.7406
   -14.7163 -14.6249 -14.6146 -14.5415 -14.5156 -14.0853 -13.0868 -12.9710
   -12.0320  -8.9338  -5.7326  -4.4583  -4.1596  -3.6597  -3.5339  -3.5036
    -3.4022  -3.2302  -3.1377  -3.0776  -2.9678  -2.7639  -2.7290  -2.7191
    -2.6990  -2.6412  -2.4432  -2.4176  -2.3861  -2.3465  -2.3365  -2.3343
    -2.3201  -2.2583  -2.1919  -2.1274  -2.0289  -2.0243  -1.9677  -1.9544
    -1.9374  -1.9023  -1.8590  -1.8197  -1.7982  -1.7561  -1.7375  -1.7309
    -1.6893  -1.6074  -1.5047  -1.3475  -1.3307  -1.3000  -1.2516  -1.1966
    -1.0321  -1.0162  -0.9791  -0.9730  -0.9409  -0.8657  -0.7988  -0.7135
    -0.6774  -0.6003  -0.5846  -0.5558  -0.4815  -0.3959  -0.3731  -0.3582
    -0.3506  -0.3350  -0.2768  -0.1623  -0.0672  -0.0373   0.0840   0.0885
     0.1237   0.1680   0.1845   0.2663   0.3024   0.3164   0.3676   0.3681
     0.3798   0.4236   0.4466   0.5092   0.5651   0.6493   0.7225   0.7880
     0.8248   0.9411   1.0120   1.0773   1.1095   1.2386   1.3678   1.3756
     1.4371   1.6327   1.6351   2.0057   2.0500   3.5287   3.5498   3.6426
     3.6860   3.7839   3.8230   3.9673   4.0223   4.0598   4.1735   4.2053

[...]

          k = 0.0380-0.0419 0.0000 ( 17876 PWs)   bands (ev):

[...]

          k =-0.0760-0.0000 0.0000 ( 17886 PWs)   bands (ev):

[...]

          k =-0.0760-0.0839 0.0000 ( 17948 PWs)   bands (ev):

   -55.6257 -55.6254 -55.5374 -55.5256 -55.3897 -55.3893 -55.3750 -55.3506
   -55.3333 -55.3306 -55.3300 -55.2696 -54.7228 -54.5674 -54.5673 -54.5575
   -31.9326 -31.9325 -31.9222 -31.9221 -31.9018 -31.8924 -31.7950 -31.7852
   -31.7613 -31.7486 -31.7466 -31.7461 -31.7016 -31.6986 -31.6861 -31.6827
   -31.6740 -31.6703 -31.6698 -31.6445 -31.6001 -31.5983 -31.5854 -31.5824
   -31.5779 -31.5763 -31.5746 -31.5642 -31.5618 -31.5561 -31.5482 -31.5453
   -31.5383 -31.5280 -31.5019 -31.4674 -31.1314 -30.9678 -30.9338 -30.9208
   -30.8956 -30.8955 -30.8033 -30.8031 -30.7835 -30.7657 -30.7639 -30.7639
   -17.9944 -15.6998 -15.6885 -15.5095 -15.5043 -15.4437 -15.4375 -15.2848
   -15.2839 -15.2653 -15.2571 -15.1341 -15.1303 -15.0985 -15.0949 -15.0526
   -15.0439 -15.0259 -15.0175 -15.0159 -15.0093 -14.9825 -14.9316 -14.8979
   -14.8923 -14.7150 -14.7142 -14.5938 -14.5609 -14.2206 -13.0731 -13.0729
   -12.0329  -8.9436  -5.7248  -4.3972  -4.1620  -2.9900  -2.9866  -2.9774
    -2.7043  -2.6991  -2.6748  -2.6642  -2.4591  -2.4463  -2.4251  -2.4195
    -2.3922  -2.3864  -2.3715  -2.3644  -2.2815  -2.2708  -2.2595  -2.2355
    -2.2327  -2.2274  -2.2111  -2.2036  -2.1937  -2.1601  -2.1245  -2.0953
    -2.0607  -2.0382  -1.9188  -1.8084  -1.7307  -1.7240  -1.6934  -1.6876
    -1.6818  -1.6753  -1.6422  -1.5378  -1.4826  -1.4270  -1.2900  -1.2643
    -1.2474  -1.2010  -1.1127  -1.0321  -0.9689  -0.9515  -0.9043  -0.8611
    -0.8362  -0.7519  -0.7278  -0.7202  -0.6526  -0.6199  -0.5754  -0.5698
    -0.5548  -0.4892  -0.4411  -0.3916  -0.3683  -0.3376  -0.2923  -0.2717
    -0.2088  -0.1570  -0.1095  -0.1040  -0.0557  -0.0474   0.0180   0.1674
     0.2169   0.4703   0.4847   0.5156   0.6401   0.7112   0.7166   0.7447
     0.7765   0.8279   0.8398   0.9734   0.9852   0.9878   1.1530   1.1773
     1.2657   1.8055   1.8058   1.8691   1.8695   3.4312   3.9213   3.9386
     3.9637   3.9789   4.0501   4.0511   4.0593   4.0668   4.2589   4.2653

     the Fermi energy is     3.5058 ev

!    total energy              =   -2940.39763503 Ry
     estimated scf accuracy    <       0.00000005 Ry
     smearing contrib. (-TS)   =      -0.02302084 Ry
     internal energy E=F+TS    =   -2940.37461419 Ry

     The total energy is F=E-TS. E is the sum of the following terms:
     one-electron contribution =  -24109.74226558 Ry
     hartree contribution      =   12146.10915072 Ry
     xc contribution           =    -486.05189835 Ry
     ewald contribution        =    9509.30797779 Ry
     electric field correction =       0.00242124 Ry

     convergence has been achieved in  67 iterations

     Forces acting on atoms (cartesian axes, Ry/au):

     atom    1 type  1   force =     0.00015511   -0.00012484    0.09933668
     atom    2 type  1   force =    -0.00012701   -0.00047459   -0.17359733
     atom    3 type  2   force =    -0.00005095   -0.00000150   -0.02879253
     atom    4 type  2   force =     0.00007419   -0.00125142    0.04997357
     atom    5 type  2   force =    -0.01306441    0.00057753    0.00121008
     atom    6 type  2   force =     0.01461244    0.00138529   -0.00011352
     atom    7 type  1   force =    -0.00144485   -0.00059220   -0.00836311
     atom    8 type  1   force =     0.00087778   -0.00412912    0.04512107
     atom    9 type  2   force =    -0.00003095   -0.00065994   -0.00025270
     atom   10 type  2   force =    -0.00129180    0.00227620   -0.02841075
     atom   11 type  2   force =     0.00018225    0.00061436   -0.00003359
     atom   12 type  2   force =     0.00025880    0.00040906    0.00011203
     atom   13 type  1   force =     0.00038196    0.00021428   -0.00057412
     atom   14 type  1   force =     0.00003235    0.00047441    0.00032521
     atom   15 type  2   force =     0.00034226   -0.00011392   -0.00007091
     atom   16 type  2   force =    -0.00040719   -0.00023471   -0.00016967
     atom   17 type  2   force =    -0.00102950    0.00014209   -0.00052099
     atom   18 type  2   force =     0.00090853    0.00019704    0.00023995
     atom   19 type  1   force =     0.00021816   -0.00006599    0.00000950
     atom   20 type  1   force =    -0.00048784   -0.00079554    0.00023144
     atom   21 type  2   force =     0.00009091   -0.00007236    0.10277334
     atom   22 type  2   force =     0.00010978    0.00004578    0.00010905
     atom   23 type  2   force =    -0.07213904   -0.00015723   -0.02833020
     atom   24 type  2   force =     0.07213917    0.00030170   -0.02833041
     atom   25 type  1   force =     0.00012636   -0.00020286    0.09863734
     atom   26 type  1   force =    -0.00011213   -0.00045901   -0.17381636
     atom   27 type  2   force =     0.00001133   -0.00002872   -0.02807139
     atom   28 type  2   force =     0.00011507   -0.00099987    0.04942502
     atom   29 type  2   force =    -0.01338487    0.00005767    0.00127232
     atom   30 type  2   force =     0.01484040    0.00042245   -0.00007112
     atom   31 type  1   force =    -0.00139248    0.00251672   -0.00864962
     atom   32 type  1   force =     0.00106341    0.00237644    0.04543859
     atom   33 type  2   force =    -0.00012883    0.00104690    0.00056851
     atom   34 type  2   force =    -0.00071903    0.00120173   -0.03114821
     atom   35 type  2   force =     0.00067311   -0.00051729   -0.00017934
     atom   36 type  2   force =    -0.00162550   -0.00011454    0.00006737
     atom   37 type  1   force =    -0.00017617   -0.00153639    0.00022025
     atom   38 type  1   force =     0.00078268   -0.00004899    0.00051840
     atom   39 type  2   force =     0.00032524    0.00018166   -0.00058461
     atom   40 type  2   force =    -0.00040184    0.00033151   -0.00002515
     atom   41 type  2   force =     0.00041769   -0.00059034    0.00003139
     atom   42 type  2   force =    -0.00040499   -0.00071436    0.00053100
     atom   43 type  1   force =     0.00036560   -0.00032442   -0.00058174
     atom   44 type  1   force =    -0.00034859   -0.00068614   -0.00022429
     atom   45 type  2   force =     0.00011105   -0.00006989    0.10278472
     atom   46 type  2   force =    -0.07216315   -0.00009740   -0.02832684
     atom   47 type  2   force =     0.07214758    0.00034237   -0.02830170
     atom   48 type  3   force =     0.00017908   -0.00003198   -0.00195657
     atom   49 type  3   force =     0.00000874   -0.00066285   -0.00026234
     atom   50 type  4   force =     0.00400693    0.00359567   -0.00778725
     atom   51 type  5   force =    -0.00013760   -0.00042114   -0.00002313
     atom   52 type  5   force =    -0.00284894   -0.00344688    0.00931811
     atom   53 type  5   force =    -0.00107624    0.00048898   -0.00077198
     atom   54 type  5   force =    -0.00056408    0.00042659    0.00008650

     Total force =     0.372477     Total SCF correction =     0.000386
  @ DRIVER MODE: Message from server: STATUS
  @ DRIVER MODE: Message from server: GETFORCE
  @ DRIVER MODE: Returning v,forces,stress,ensemble

     Writing output data file ./calc.save/
  @ DRIVER MODE: Message from server: EXIT
  @ DRIVE MODE: Exiting

     General routines

     Parallel routines

   This run was terminated on:   7:26: 9  25Aug2021

   JOB DONE.