     Program PWSCF v.6.7GPU starts on 25Aug2021 at  0:17:41

     R & G space division:  proc/nbgrp/npool/nimage =       6
     Reading input from /storage/home/hcoda1/3/ntian30/research/carbon/CH3_vib_end_on/ads_slab/CH3N_a/out_0019/pw.inp
Warning: card &CELL ignored
Warning: card   CELL_DYNAMICS='IPI', ignored
Warning: card / ignored

     Current dimensions of program PWSCF are:
     Max number of different atomic species (ntypx) = 10
     Max number of k-points (npk) =  40000
     Max angular momentum in pseudopotentials (lmaxx) =  3
     Presently no symmetry can be used with electric field

     Message from routine cell_base_init:
     DEPRECATED: use true lattice parameter, not A to a.u. conversion factor

     IMPORTANT: XC functional enforced from input :
     Exchange-correlation= BEEF-VDW
                           (   1   4  43  14   2   0   0)
     Any further DFT definition will be discarded
     Please, verify this is what you really want

  @ DRIVER MODE: Connecting to
 qe_1139763_2643872.sched-torque.pace.gatech.edupwzieizx_scratch
  using UNIX socket
  @ DRIVER MODE: Message from server: STATUS
  @ DRIVER MODE: Message from server: INIT
  @ DRIVER MODE: Receiving replica           0          -1
  @ DRIVER MODE: Receiving encoded integer          25
  @ DRIVER MODE:  SCF:  T  FORCE:  T  STRESS:  F  VC:  F  ENSEMBLE:  F
  @ DRIVER MODE:  SCF:  T  FORCE:  T  STRESS:  F  VC:  F  ENSEMBLE:  F

     Using Slab Decomposition

     bravais-lattice index     =            0
     lattice parameter (alat)  =       1.8897  a.u.
     unit-cell volume          =    6658.9804 (a.u.)^3
     number of atoms/cell      =           52
     number of atomic types    =            5
     number of electrons       =       390.00
     number of Kohn-Sham states=          205
     kinetic-energy cutoff     =      29.3995  Ry
     charge density cutoff     =     293.9946  Ry
     scf convergence threshold =      7.3E-08
     mixing beta               =       0.0500
     number of iterations used =            8  plain     mixing
     Exchange-correlation= BEEF-VDW
                           (   1   4  43  14   2   0   0)

     celldm(1)=   1.889726  celldm(2)=   0.000000  celldm(3)=   0.000000
     celldm(4)=   0.000000  celldm(5)=   0.000000  celldm(6)=   0.000000

     crystal axes: (cart. coord. in units of alat)
               a(1) = (   6.579727   0.000000   0.000000 )
               a(2) = (  -0.000775   5.961596   0.000000 )
               a(3) = (   0.000000   0.000000  25.155947 )

     reciprocal axes: (cart. coord. in units 2 pi/alat)
               b(1) = (  0.151982  0.000020  0.000000 )
               b(2) = (  0.000000  0.167740  0.000000 )
               b(3) = (  0.000000  0.000000  0.039752 )

     PseudoPot. # 1 for Ti read from file:
     /storage/coda1/p-amedford6/0/shared/rich_project_chbe-medford/medford-share/data/pseudos_module/espresso/nninc/pbe/van/Ti.UPF
     MD5 check sum: 8e4df49b7f0d34bbd5052bf3f5ea0213
     Pseudo is Ultrasoft, Zval = 12.0
     Generated by new atomic code, or converted to UPF format
     Using radial grid of  851 points,  6 beta functions with:
                l(1) =   0
                l(2) =   0
                l(3) =   1
                l(4) =   1
                l(5) =   2
                l(6) =   2
     Q(r) pseudized with  8 coefficients,  rinner =    1.000   1.000   1.000
                                                       1.000   1.000

     PseudoPot. # 2 for O  read from file:
     /storage/coda1/p-amedford6/0/shared/rich_project_chbe-medford/medford-share/data/pseudos_module/espresso/nninc/pbe/van/O.UPF
     MD5 check sum: 78c19812648e8988a0fe644b0f25305e
     Pseudo is Ultrasoft, Zval =  6.0
     Generated by new atomic code, or converted to UPF format
     Using radial grid of  737 points,  4 beta functions with:
                l(1) =   0
                l(2) =   0
                l(3) =   1
                l(4) =   1
     Q(r) pseudized with  8 coefficients,  rinner =    0.800   0.800   0.800

     PseudoPot. # 3 for N  read from file:
     /storage/coda1/p-amedford6/0/shared/rich_project_chbe-medford/medford-share/data/pseudos_module/espresso/nninc/pbe/van/N.UPF
     MD5 check sum: 90d10febe142ad51ac9d5be1deb811c4
     Pseudo is Ultrasoft, Zval =  5.0
     Generated by new atomic code, or converted to UPF format
     Using radial grid of  729 points,  4 beta functions with:
                l(1) =   0
                l(2) =   0
                l(3) =   1
                l(4) =   1
     Q(r) pseudized with  8 coefficients,  rinner =    0.800   0.800   0.800

     PseudoPot. # 4 for C  read from file:
     /storage/coda1/p-amedford6/0/shared/rich_project_chbe-medford/medford-share/data/pseudos_module/espresso/nninc/pbe/van/C.UPF
     MD5 check sum: 1a69bf6b8db32088f5b2163dbdb77a27
     Pseudo is Ultrasoft, Zval =  4.0
     Generated by new atomic code, or converted to UPF format
     Using radial grid of  721 points,  4 beta functions with:
                l(1) =   0
                l(2) =   0
                l(3) =   1
                l(4) =   1
     Q(r) pseudized with  8 coefficients,  rinner =    0.800   0.800   0.800

     PseudoPot. # 5 for H  read from file:
     /storage/coda1/p-amedford6/0/shared/rich_project_chbe-medford/medford-share/data/pseudos_module/espresso/nninc/pbe/van/H.UPF
     MD5 check sum: b5ee9d7bfd3a09ee7748110bda690ff7
     Pseudo is Ultrasoft, Zval =  1.0
     Generated by new atomic code, or converted to UPF format
     Using radial grid of  615 points,  1 beta functions with:
                l(1) =   0
     Q(r) pseudized with  8 coefficients,  rinner =    0.800

     atomic species   valence    mass     pseudopotential
        Ti1           12.00    47.86700     Ti( 1.00)
        O1             6.00    15.99900     O ( 1.00)
        N1             5.00    14.00700     N ( 1.00)
        C1             4.00    12.01100     C ( 1.00)
        H1             1.00     1.00800     H ( 1.00)

     No symmetry found

   Cartesian axes

     site n.     atom                  positions (alat units)
         1           Ti1 tau(   1) = (   0.0004258   2.9801865   6.0000000  )
         2           Ti1 tau(   2) = (   3.2906075   1.4906267   6.0002472  )
         3           O1  tau(   3) = (   0.0006271   0.0005054   7.9858123  )
         4           O1  tau(   4) = (   3.2906025   0.0005020   7.3038282  )
         5           O1  tau(   5) = (   4.5942328   1.4918067   9.2879030  )
         6           O1  tau(   6) = (   1.9868534   1.4903216   9.2879459  )
         7           Ti1 tau(   7) = (   3.2907910   2.8959150   9.1758416  )
         8           Ti1 tau(   8) = (   0.0015273   1.4827037   9.2680791  )
         9           O1  tau(   9) = (   3.3018735   5.9614316  11.2970789  )
        10           O1  tau(  10) = (   0.0116148   5.9584955  10.6183126  )
        11           O1  tau(  11) = (   1.3353665   1.4968727  12.6140821  )
        12           O1  tau(  12) = (   5.3123320   1.5002621  12.6324210  )
        13           Ti1 tau(  13) = (   6.4913169   2.9877414  12.7576577  )
        14           Ti1 tau(  14) = (   3.1819880   1.4874128  12.4666476  )
        15           O1  tau(  15) = (   0.0325390   5.9514364  14.5942808  )
        16           O1  tau(  16) = (   3.3157460   0.0104736  13.8786857  )
        17           O1  tau(  17) = (   4.5538541   1.5308062  16.0536203  )
        18           O1  tau(  18) = (   2.1012647   1.5271178  16.0466835  )
        19           Ti1 tau(  19) = (   3.3239613   3.0121693  15.6870930  )
        20           Ti1 tau(  20) = (   0.0188375   1.6096557  16.0875739  )
        21           O1  tau(  21) = (   3.2904802   0.0005063   4.7018136  )
        22           O1  tau(  22) = (   0.0443345   0.0604659  17.2041813  )
        23           O1  tau(  23) = (   1.3043587   1.4918075   6.0039043  )
        24           O1  tau(  24) = (   5.2767064   1.4903225   6.0039473  )
        25           Ti1 tau(  25) = (   0.0000382   5.9609847   6.0000000  )
        26           Ti1 tau(  26) = (   3.2902200   4.4714249   6.0002472  )
        27           O1  tau(  27) = (   0.0002396   2.9813036   7.9858123  )
        28           O1  tau(  28) = (   3.2902150   2.9813002   7.3038282  )
        29           O1  tau(  29) = (   4.5938453   4.4726049   9.2879030  )
        30           O1  tau(  30) = (   1.9864658   4.4711199   9.2879459  )
        31           Ti1 tau(  31) = (   3.2891106   5.8743827   9.1763621  )
        32           Ti1 tau(  32) = (   0.0006254   4.4649316   9.2693709  )
        33           O1  tau(  33) = (   3.3028429   2.9834257  11.2952420  )
        34           O1  tau(  34) = (   0.0092240   2.9805883  10.6323155  )
        35           O1  tau(  35) = (   1.3370139   4.4664586  12.6123119  )
        36           O1  tau(  36) = (   5.3107101   4.4655690  12.6333123  )
        37           Ti1 tau(  37) = (   6.5188704   0.0058144  12.7695920  )
        38           Ti1 tau(  38) = (   3.1805296   4.4670443  12.4671176  )
        39           O1  tau(  39) = (   0.0099197   2.9765079  14.6559069  )
        40           O1  tau(  40) = (   3.3143426   2.9928857  13.8797190  )
        41           O1  tau(  41) = (   4.5573730   4.5089470  16.0521860  )
        42           O1  tau(  42) = (   2.1018054   4.5121927  16.0508938  )
        43           Ti1 tau(  43) = (   3.3145791   0.0316975  15.6896801  )
        44           Ti1 tau(  44) = (   0.0207397   4.5876961  16.1385408  )
        45           O1  tau(  45) = (   3.2900926   2.9813045   4.7018136  )
        46           O1  tau(  46) = (   1.3039711   4.4726057   6.0039043  )
        47           O1  tau(  47) = (   5.2763189   4.4711207   6.0039473  )
        48           N1  tau(  48) = (   0.0936308   3.0233000  17.3257847  )
        49           C1  tau(  49) = (   0.4281149   3.0137428  18.7308649  )
        50           H1  tau(  50) = (   0.7292188   4.0033843  19.0862330  )
        51           H1  tau(  51) = (   6.1345545   2.6862439  19.3232575  )
        52           H1  tau(  52) = (   1.2401080   2.3040860  18.9332505  )

     number of k points=    10  Fermi-Dirac smearing, width (Ry)=  0.0073
                       cart. coord. in units 2pi/alat
        k(    1) = (   0.0000000   0.0000000   0.0000000), wk =   0.1250000
        k(    2) = (   0.0000000   0.0419351   0.0000000), wk =   0.2500000
        k(    3) = (   0.0000000  -0.0838702   0.0000000), wk =   0.1250000
        k(    4) = (   0.0379955   0.0000049   0.0000000), wk =   0.2500000
        k(    5) = (   0.0379955   0.0419400   0.0000000), wk =   0.2500000
        k(    6) = (   0.0379955  -0.0838652   0.0000000), wk =   0.2500000
        k(    7) = (   0.0379955  -0.0419301   0.0000000), wk =   0.2500000
        k(    8) = (  -0.0759910  -0.0000099   0.0000000), wk =   0.1250000
        k(    9) = (  -0.0759910   0.0419252   0.0000000), wk =   0.2500000
        k(   10) = (  -0.0759910  -0.0838800   0.0000000), wk =   0.1250000

     Initial potential from superposition of free atoms

     starting charge  373.99917, renormalised to  390.00000

     negative rho (up, down):  1.729E-02 0.000E+00

     %%%%%%%%%%%%%%%%%%%%%%%%%%%%%%%%%%%%%%%%%%%%%%%%%%%%%%%%%%%%%%%%%%%%%%%%
     %                                                                      %
     % You are using vdW-DF, which was implemented by the Thonhauser group. %
     % Please cite the following two papers that made this development      %
     % possible and the two reviews that describe the various versions:     %
     %                                                                      %
     %   T. Thonhauser et al., PRL 115, 136402 (2015).                      %
     %   T. Thonhauser et al., PRB 76, 125112 (2007).                       %
     %   K. Berland et al., Rep. Prog. Phys. 78, 066501 (2015).             %
     %   D.C. Langreth et al., J. Phys.: Condens. Matter 21, 084203 (2009). %
     %                                                                      %
     %                                                                      %
     % If you are calculating the stress with vdW-DF, please also cite:     %
     %                                                                      %
     %   R. Sabatini et al., J. Phys.: Condens. Matter 24, 424209 (2012).   %
     %                                                                      %
     %%%%%%%%%%%%%%%%%%%%%%%%%%%%%%%%%%%%%%%%%%%%%%%%%%%%%%%%%%%%%%%%%%%%%%%%

     Adding external electric field

     Computed dipole along edir(3) :
        Dipole               -4.6272 Ry au,        -11.7612 Debye
        Dipole field         -0.0087 Ry au,

        Potential amp.        0.8095 Ry
        Total length         46.3494 bohr

     Starting wfcs are  295 atomic wfcs
  @ DRIVER MODE: Message from server: STATUS
  @ DRIVER MODE: Message from server: POSDATA
  @ DRIVER MODE: Reading and sharing cell
  @ DRIVER MODE: Reading and sharing positions
  @ DRIVER MODE: Received positions

     Self-consistent Calculation

     iteration #  1     ecut=    29.40 Ry     beta= 0.05
     Davidson diagonalization with overlap
     c_bands:  4 eigenvalues not converged
     c_bands:  2 eigenvalues not converged
     c_bands:  2 eigenvalues not converged
     c_bands:  4 eigenvalues not converged
     c_bands:  4 eigenvalues not converged
     c_bands:  2 eigenvalues not converged
     c_bands:  2 eigenvalues not converged
     c_bands:  2 eigenvalues not converged
     ethr =  1.00E-05,  avg # of iterations = 19.7

[...]

     total energy              =   -2877.36476827 Ry
     estimated scf accuracy    <     481.87256169 Ry

     iteration #  2     ecut=    29.40 Ry     beta= 0.05
     Davidson diagonalization with overlap
     ethr =  1.00E-02,  avg # of iterations = 14.0

[...]

     iteration # 39     ecut=    29.40 Ry     beta= 0.05
     Davidson diagonalization with overlap
     c_bands:  1 eigenvalues not converged
     ethr =  4.52E-08,  avg # of iterations =  7.8

[...]

     total energy              =   -2919.13178873 Ry
     estimated scf accuracy    <       0.00000016 Ry

     iteration # 63     ecut=    29.40 Ry     beta= 0.05
     Davidson diagonalization with overlap
     ethr =  3.79E-11,  avg # of iterations =  6.0

     negative rho (up, down):  1.785E-02 0.000E+00

     Adding external electric field

     Computed dipole along edir(3) :
        Dipole                0.2589 Ry au,          0.6580 Debye
        Dipole field          0.0005 Ry au,

        Potential amp.       -0.0453 Ry
        Total length         46.3494 bohr

     End of self-consistent calculation

          k = 0.0000 0.0000 0.0000 ( 18029 PWs)   bands (ev):

   -56.8879 -56.8543 -56.0103 -55.9985 -55.9754 -55.9656 -55.8635 -55.8248
   -55.6473 -55.6120 -55.5522 -55.5494 -55.5183 -55.4401 -54.9686 -54.9217
   -33.3158 -33.1627 -33.1346 -33.0639 -32.9728 -32.9418 -32.4812 -32.4749
   -32.4041 -32.2945 -32.2480 -32.2240 -32.2056 -32.1843 -32.1508 -32.1464
   -32.1426 -32.1395 -32.1138 -32.1116 -32.0998 -32.0706 -32.0443 -32.0305
   -32.0174 -31.9977 -31.9909 -31.9674 -31.9445 -31.8907 -31.8786 -31.8666
   -31.7909 -31.7860 -31.7632 -31.7245 -31.7139 -31.6798 -31.6694 -31.6445
   -31.6258 -31.5688 -31.4986 -31.2194 -31.1937 -31.1729 -31.1426 -31.0274
   -17.0523 -16.6171 -16.3867 -16.2506 -16.1835 -16.1287 -16.0849 -15.9612
   -15.8879 -15.8830 -15.8425 -15.8106 -15.7398 -15.6014 -15.5028 -15.4457
   -15.4021 -15.2830 -15.2241 -15.1907 -15.1849 -15.1459 -15.1311 -14.9339
   -14.9073 -14.8192 -14.7999 -14.6725 -14.4406 -14.0511 -13.9410 -13.0809
    -7.7942  -4.6178  -4.1135  -3.8724  -3.7894  -3.6812  -3.6684  -3.5883
    -3.4689  -3.4222  -3.3756  -3.2595  -3.2562  -3.1097  -3.1029  -3.0637
    -3.0612  -3.0244  -2.9667  -2.9434  -2.8946  -2.8927  -2.8854  -2.7331
    -2.6333  -2.5663  -2.5394  -2.5265  -2.4959  -2.4238  -2.3943  -2.3848
    -2.3809  -2.2758  -2.1304  -2.1286  -2.0972  -2.0552  -2.0525  -2.0124
    -2.0019  -1.8767  -1.7862  -1.6770  -1.6675  -1.6300  -1.5683  -1.5616
    -1.4654  -1.3897  -1.3194  -1.3015  -1.1920  -1.1482  -1.1251  -1.0357
    -0.9738  -0.9363  -0.9136  -0.8971  -0.7933  -0.7775  -0.7704  -0.6769
    -0.6646  -0.6212  -0.5281  -0.5048  -0.4991  -0.4172  -0.4102  -0.3051
    -0.2769  -0.2322  -0.1994  -0.0944  -0.0740   0.0243   0.0611   0.0801
     0.2013   0.2185   0.2793   0.3514   0.4169   0.4337   0.4692   0.4997
     0.5160   0.5939   0.7063   0.7135   0.8172   0.8501   1.0217   1.0606
     1.3451   1.3536   2.0458   2.3867   2.5463   2.8447   3.0336   3.1469
     3.3615   3.3770   3.3824   3.5537   3.6059

[...]

          k = 0.0380-0.0419 0.0000 ( 17876 PWs)   bands (ev):

[...]

          k =-0.0760-0.0000 0.0000 ( 17886 PWs)   bands (ev):

[...]

          k =-0.0760-0.0839 0.0000 ( 17948 PWs)   bands (ev):

   -56.8712 -56.8709 -55.9951 -55.9894 -55.9828 -55.9822 -55.8520 -55.8361
   -55.6325 -55.6266 -55.5466 -55.5352 -55.5351 -55.4429 -54.9606 -54.9295
   -33.1485 -33.1483 -33.1327 -33.1326 -33.0169 -33.0167 -32.3111 -32.3087
   -32.2994 -32.2929 -32.2398 -32.2364 -32.1979 -32.1938 -32.1926 -32.1887
   -32.1847 -32.1818 -32.1797 -32.1780 -32.1024 -32.0898 -32.0511 -32.0389
   -31.9830 -31.9744 -31.9148 -31.9089 -31.8796 -31.8795 -31.8746 -31.8312
   -31.8294 -31.7995 -31.7627 -31.7608 -31.7607 -31.7217 -31.7217 -31.7202
   -31.6857 -31.6462 -31.3634 -31.2859 -31.1904 -31.1632 -31.1513 -31.1097
   -16.4009 -16.3989 -16.3661 -16.3658 -16.0970 -16.0935 -16.0474 -16.0440
   -15.8726 -15.8654 -15.6604 -15.6515 -15.6445 -15.6417 -15.5139 -15.5082
   -15.4450 -15.4308 -15.3432 -15.3407 -15.2775 -15.2715 -15.2331 -15.2134
   -14.9031 -14.8854 -14.7733 -14.7480 -14.5842 -14.0445 -14.0444 -13.0974
    -7.7848  -3.4995  -3.4987  -3.4352  -3.4342  -3.3099  -3.3041  -3.2307
    -3.2299  -3.1285  -3.1248  -3.0791  -2.9978  -2.9856  -2.9825  -2.9716
    -2.9550  -2.8291  -2.8275  -2.8171  -2.8013  -2.7451  -2.7429  -2.7273
    -2.6534  -2.6390  -2.6051  -2.5667  -2.4581  -2.4446  -2.4313  -2.3999
    -2.3433  -2.3301  -2.3170  -2.2752  -2.2504  -2.1630  -2.1083  -2.0560
    -1.9399  -1.9367  -1.9284  -1.9129  -1.7614  -1.7197  -1.6922  -1.6848
    -1.6770  -1.6333  -1.5347  -1.5280  -1.3935  -1.3930  -1.3132  -1.2341
    -1.2166  -1.1863  -1.0566  -1.0160  -0.9796  -0.9714  -0.9440  -0.9244
    -0.9007  -0.8635  -0.7222  -0.7090  -0.6721  -0.6370  -0.6321  -0.5759
    -0.5185  -0.4385  -0.3620  -0.3610  -0.3069  -0.2341  -0.1740  -0.0924
    -0.0788  -0.0742   0.2059   0.2856   0.3776   0.4540   0.5225   0.5760
     0.6108   0.6757   0.7142   0.8475   0.8521   0.8699   0.8702   0.9323
     0.9338   1.3361   1.9352   2.9596   2.9599   3.0268   3.0272   3.3508
     3.3566   3.4648   3.4743   3.5851   3.5873

     the Fermi energy is     2.2257 ev

!    total energy              =   -2919.13181593 Ry
     estimated scf accuracy    <       0.00000004 Ry
     smearing contrib. (-TS)   =      -0.00481916 Ry
     internal energy E=F+TS    =   -2919.12699677 Ry

     The total energy is F=E-TS. E is the sum of the following terms:
     one-electron contribution =  -24569.30472002 Ry
     hartree contribution      =   12368.86797740 Ry
     xc contribution           =    -479.89479236 Ry
     ewald contribution        =    9761.20441175 Ry
     electric field correction =       0.00012646 Ry

     convergence has been achieved in  63 iterations

     Forces acting on atoms (cartesian axes, Ry/au):

     atom    1 type  1   force =     0.00005377   -0.00050298    0.12427469
     atom    2 type  1   force =    -0.00009227   -0.00055255   -0.16062652
     atom    3 type  2   force =     0.00022121   -0.00024073   -0.06808473
     atom    4 type  2   force =    -0.00000188   -0.00032230    0.02758785
     atom    5 type  2   force =    -0.01621379    0.00174748   -0.00936631
     atom    6 type  2   force =     0.01826806    0.00228426   -0.00891884
     atom    7 type  1   force =     0.00112429   -0.00382227    0.02201555
     atom    8 type  1   force =    -0.00061682   -0.00325165    0.11121293
     atom    9 type  2   force =    -0.00010760    0.00138809   -0.00033477
     atom   10 type  2   force =    -0.00190757    0.00178628   -0.07347066
     atom   11 type  2   force =     0.00081929    0.00006303    0.00005959
     atom   12 type  2   force =    -0.00065027    0.00020308    0.00015963
     atom   13 type  1   force =     0.00005759    0.00022795   -0.00040259
     atom   14 type  1   force =    -0.00101655   -0.00024647   -0.00049023
     atom   15 type  2   force =     0.00000757   -0.00028869    0.00008905
     atom   16 type  2   force =    -0.00006098    0.00106856    0.00077858
     atom   17 type  2   force =     0.00010553    0.00015315   -0.00045923
     atom   18 type  2   force =     0.00005865    0.00020699   -0.00007320
     atom   19 type  1   force =     0.00013519    0.00003683   -0.00077922
     atom   20 type  1   force =     0.00033455   -0.00100268    0.00006581
     atom   21 type  2   force =     0.00004009   -0.00006702    0.09974067
     atom   22 type  2   force =     0.00016652   -0.00052660   -0.00011113
     atom   23 type  2   force =    -0.07918566   -0.00005337   -0.03242124
     atom   24 type  2   force =     0.07905236    0.00038213   -0.03244584
     atom   25 type  1   force =     0.00004156   -0.00050126    0.12372078
     atom   26 type  1   force =    -0.00009903   -0.00050718   -0.16064048
     atom   27 type  2   force =     0.00032618   -0.00048024   -0.06714054
     atom   28 type  2   force =     0.00002691   -0.00014428    0.02727932
     atom   29 type  2   force =    -0.01661232    0.00134803   -0.00956843
     atom   30 type  2   force =     0.01855467    0.00165438   -0.00913722
     atom   31 type  1   force =     0.00110260   -0.00129576    0.02157209
     atom   32 type  1   force =    -0.00051824    0.00069524    0.11186321
     atom   33 type  2   force =    -0.00034192   -0.00115292    0.00016707
     atom   34 type  2   force =    -0.00156624    0.00135655   -0.07240488
     atom   35 type  2   force =    -0.00178315   -0.00019939    0.00027609
     atom   36 type  2   force =     0.00069322   -0.00042214   -0.00004242
     atom   37 type  1   force =     0.00072471   -0.00033383    0.00070600
     atom   38 type  1   force =    -0.00016598    0.00052589    0.00019481
     atom   39 type  2   force =     0.00017731   -0.00031302   -0.00035216
     atom   40 type  2   force =     0.00010552   -0.00017290    0.00036839
     atom   41 type  2   force =     0.00002814    0.00044177   -0.00014645
     atom   42 type  2   force =     0.00026467    0.00053295   -0.00004618
     atom   43 type  1   force =     0.00037671    0.00016373   -0.00040251
     atom   44 type  1   force =    -0.00023198    0.00011502    0.00002789
     atom   45 type  2   force =     0.00002436   -0.00007090    0.09975115
     atom   46 type  2   force =    -0.07919530   -0.00000725   -0.03242175
     atom   47 type  2   force =     0.07906460    0.00042355   -0.03244512
     atom   48 type  3   force =     0.00030928   -0.00082154   -0.00065035
     atom   49 type  4   force =    -0.00787335   -0.00224226    0.00428730
     atom   50 type  5   force =    -0.00096596   -0.00000614    0.00030233
     atom   51 type  5   force =     0.00810116    0.00252848   -0.00372509
     atom   52 type  5   force =    -0.00115940    0.00021488    0.00060731

     Total force =     0.424777     Total SCF correction =     0.000633
  @ DRIVER MODE: Message from server: STATUS
  @ DRIVER MODE: Message from server: GETFORCE
  @ DRIVER MODE: Returning v,forces,stress,ensemble

     Writing output data file ./calc.save/
  @ DRIVER MODE: Message from server: EXIT
  @ DRIVE MODE: Exiting

     General routines

     Parallel routines

   This run was terminated on:   0:41:45  25Aug2021

   JOB DONE.