     Program PWSCF v.6.7GPU starts on 18Oct2021 at 11:52:13

     R & G space division:  proc/nbgrp/npool/nimage =       8
     Reading input from /storage/home/hcoda1/3/ntian30/research/carbon/CxH_vib/Thiel_calc/ads_slab/NH3_perslab/out_0001/pw.inp
Warning: card &CELL ignored
Warning: card   CELL_DYNAMICS='IPI', ignored
Warning: card / ignored

     Current dimensions of program PWSCF are:
     Max number of different atomic species (ntypx) = 10
     Max number of k-points (npk) =  40000
     Max angular momentum in pseudopotentials (lmaxx) =  3
     Presently no symmetry can be used with electric field

     Message from routine cell_base_init:
     DEPRECATED: use true lattice parameter, not A to a.u. conversion factor

     IMPORTANT: XC functional enforced from input :
     Exchange-correlation= BEEF-VDW
                           (   1   4  43  14   2   0   0)
     Any further DFT definition will be discarded
     Please, verify this is what you really want

  @ DRIVER MODE: Connecting to
 qe_1139763_3255128.sched-torque.pace.gatech.edur2tq8_7a_scratch
  using UNIX socket
  @ DRIVER MODE: Message from server: STATUS
  @ DRIVER MODE: Message from server: INIT
  @ DRIVER MODE: Receiving replica           0          -1
  @ DRIVER MODE: Receiving encoded integer          25
  @ DRIVER MODE:  SCF:  T  FORCE:  T  STRESS:  F  VC:  F  ENSEMBLE:  F
  @ DRIVER MODE:  SCF:  T  FORCE:  T  STRESS:  F  VC:  F  ENSEMBLE:  F

     Using Slab Decomposition

     bravais-lattice index     =            0
     lattice parameter (alat)  =       1.8897  a.u.
     unit-cell volume          =    9988.4706 (a.u.)^3
     number of atoms/cell      =           57
     number of atomic types    =            4
     number of electrons       =       434.00
     number of Kohn-Sham states=          227
     kinetic-energy cutoff     =      29.3995  Ry
     charge density cutoff     =     293.9946  Ry
     scf convergence threshold =      7.3E-08
     mixing beta               =       0.0500
     number of iterations used =            8  plain     mixing
     Exchange-correlation= BEEF-VDW
                           (   1   4  43  14   2   0   0)

     celldm(1)=   1.889726  celldm(2)=   0.000000  celldm(3)=   0.000000
     celldm(4)=   0.000000  celldm(5)=   0.000000  celldm(6)=   0.000000

     crystal axes: (cart. coord. in units of alat)
               a(1) = (   6.579727   0.000000   0.000000 )
               a(2) = (  -0.001163   8.942395   0.000000 )
               a(3) = (   0.000000   0.000000  25.155947 )

     reciprocal axes: (cart. coord. in units 2 pi/alat)
               b(1) = (  0.151982  0.000020  0.000000 )
               b(2) = (  0.000000  0.111827  0.000000 )
               b(3) = (  0.000000  0.000000  0.039752 )

     PseudoPot. # 1 for O  read from file:
     /storage/coda1/p-amedford6/0/shared/rich_project_chbe-medford/medford-share/data/pseudos_module/espresso/nninc/pbe/van/O.UPF
     MD5 check sum: 78c19812648e8988a0fe644b0f25305e
     Pseudo is Ultrasoft, Zval =  6.0
     Generated by new atomic code, or converted to UPF format
     Using radial grid of  737 points,  4 beta functions with:
                l(1) =   0
                l(2) =   0
                l(3) =   1
                l(4) =   1
     Q(r) pseudized with  8 coefficients,  rinner =    0.800   0.800   0.800

     PseudoPot. # 2 for Ti read from file:
     /storage/coda1/p-amedford6/0/shared/rich_project_chbe-medford/medford-share/data/pseudos_module/espresso/nninc/pbe/van/Ti.UPF
     MD5 check sum: 8e4df49b7f0d34bbd5052bf3f5ea0213
     Pseudo is Ultrasoft, Zval = 12.0
     Generated by new atomic code, or converted to UPF format
     Using radial grid of  851 points,  6 beta functions with:
                l(1) =   0
                l(2) =   0
                l(3) =   1
                l(4) =   1
                l(5) =   2
                l(6) =   2
     Q(r) pseudized with  8 coefficients,  rinner =    1.000   1.000   1.000
                                                       1.000   1.000

     PseudoPot. # 3 for N  read from file:
     /storage/coda1/p-amedford6/0/shared/rich_project_chbe-medford/medford-share/data/pseudos_module/espresso/nninc/pbe/van/N.UPF
     MD5 check sum: 90d10febe142ad51ac9d5be1deb811c4
     Pseudo is Ultrasoft, Zval =  5.0
     Generated by new atomic code, or converted to UPF format
     Using radial grid of  729 points,  4 beta functions with:
                l(1) =   0
                l(2) =   0
                l(3) =   1
                l(4) =   1
     Q(r) pseudized with  8 coefficients,  rinner =    0.800   0.800   0.800

     PseudoPot. # 4 for H  read from file:
     /storage/coda1/p-amedford6/0/shared/rich_project_chbe-medford/medford-share/data/pseudos_module/espresso/nninc/pbe/van/H.UPF
     MD5 check sum: b5ee9d7bfd3a09ee7748110bda690ff7
     Pseudo is Ultrasoft, Zval =  1.0
     Generated by new atomic code, or converted to UPF format
     Using radial grid of  615 points,  1 beta functions with:
                l(1) =   0
     Q(r) pseudized with  8 coefficients,  rinner =    0.800

     atomic species   valence    mass     pseudopotential
        O1             6.00    15.99900     O ( 1.00)
        Ti1           12.00    47.86700     Ti( 1.00)
        N1             5.00    14.00700     N ( 1.00)
        H1             1.00     1.00800     H ( 1.00)

     No symmetry found

   Cartesian axes

     site n.     atom                  positions (alat units)
         1           O1  tau(   1) = (   0.0007354   0.0005023  10.5931620  )
         2           O1  tau(   2) = (   3.2904414   0.0112058  13.8964882  )
         3           O1  tau(   3) = (   0.0005401   0.0771385  17.1949530  )
         4           O1  tau(   4) = (   0.0006271   0.0005054   7.9858123  )
         5           O1  tau(   5) = (   3.2895838   8.9314717  11.1944372  )
         6           O1  tau(   6) = (   0.0004542   0.0037726  14.5839567  )
         7           O1  tau(   7) = (   1.9868534   1.4903216   9.2879459  )
         8           O1  tau(   8) = (   5.2378633   1.6121790  12.5812404  )
         9           O1  tau(   9) = (   2.0187564   1.5175485  16.0920123  )
        10           Ti1 tau(  10) = (   0.0007404   1.4906270   9.2895810  )
        11           Ti1 tau(  11) = (   3.2908292   1.3533612  12.4825321  )
        12           Ti1 tau(  12) = (   6.5791587   1.3318727  15.7218970  )
        13           O1  tau(  13) = (   4.5942328   1.4918067   9.2879030  )
        14           O1  tau(  14) = (   1.3429762   1.6114357  12.5808800  )
        15           O1  tau(  15) = (   4.5614660   1.5177748  16.0924020  )
        16           Ti1 tau(  16) = (   3.2902859   2.9801868   9.2893338  )
        17           Ti1 tau(  17) = (   0.0008758   2.8334547  12.4616519  )
        18           Ti1 tau(  18) = (   3.2892168   3.0031368  15.7199352  )
        19           O1  tau(  19) = (   0.0003479   2.9813005  10.5931620  )
        20           O1  tau(  20) = (   3.2898890   2.9669551  13.9060418  )
        21           O1  tau(  21) = (   0.0002396   2.9813036   7.9858123  )
        22           O1  tau(  22) = (   3.2903741   2.9784362  11.1973051  )
        23           O1  tau(  23) = (   0.0002543   2.9904732  14.7865853  )
        24           O1  tau(  24) = (   1.9864658   4.4711199   9.2879459  )
        25           O1  tau(  25) = (   5.2421976   4.5796938  12.5913975  )
        26           O1  tau(  26) = (   1.9868962   4.3874993  16.0752682  )
        27           Ti1 tau(  27) = (   0.0003529   4.4714252   9.2895810  )
        28           Ti1 tau(  28) = (   3.2909855   4.3334338  12.5384581  )
        29           Ti1 tau(  29) = (  -0.0001346   4.7016419  15.7431722  )
        30           O1  tau(  30) = (   4.5938453   4.4726049   9.2879030  )
        31           O1  tau(  31) = (   1.3385138   4.5792087  12.5910896  )
        32           O1  tau(  32) = (   4.5924143   4.3878248  16.0749966  )
        33           Ti1 tau(  33) = (   3.2898983   5.9609850   9.2893338  )
        34           Ti1 tau(  34) = (   0.0009896   5.8105845  12.4545566  )
        35           Ti1 tau(  35) = (   3.2904027   6.0159751  15.8417138  )
        36           O1  tau(  36) = (  -0.0000397   5.9620987  10.5931620  )
        37           O1  tau(  37) = (   3.2899583   5.9542551  13.9530320  )
        38           O1  tau(  38) = (  -0.0003598   5.9221528  17.2055630  )
        39           O1  tau(  39) = (  -0.0001480   5.9621018   7.9858123  )
        40           O1  tau(  40) = (   3.2900585   5.9465535  11.2077716  )
        41           O1  tau(  41) = (   0.0000491   6.0342996  14.6037136  )
        42           O1  tau(  42) = (   1.9860782   7.4519181   9.2879459  )
        43           O1  tau(  43) = (   5.2346004   7.5551364  12.5649479  )
        44           O1  tau(  44) = (   2.0242992   7.4812189  16.0368393  )
        45           Ti1 tau(  45) = (  -0.0000347   7.4522234   9.2895810  )
        46           Ti1 tau(  46) = (   3.2903849   7.2707884  12.5514019  )
        47           Ti1 tau(  47) = (  -0.0000376   7.4906229  16.2622595  )
        48           O1  tau(  48) = (   4.5934577   7.4534031   9.2879030  )
        49           O1  tau(  49) = (   1.3450914   7.5544588  12.5647554  )
        50           O1  tau(  50) = (   4.5547502   7.4813962  16.0367022  )
        51           Ti1 tau(  51) = (   3.2895107   8.9417832   9.2893338  )
        52           Ti1 tau(  52) = (   0.0003618   8.7732999  12.4519576  )
        53           Ti1 tau(  53) = (   3.2901532   0.0195992  15.7030453  )
        54           N1  tau(  54) = (   3.2794534   5.9569964  18.1695816  )
        55           H1  tau(  55) = (   3.2894156   5.0059420  18.5212279  )
        56           H1  tau(  56) = (   2.4599617   6.4194056  18.5308046  )
        57           H1  tau(  57) = (   4.1186270   6.4195692  18.5314737  )

     number of k points=    10  Fermi-Dirac smearing, width (Ry)=  0.0073
                       cart. coord. in units 2pi/alat
        k(    1) = (   0.0000000   0.0000000   0.0000000), wk =   0.1250000
        k(    2) = (   0.0000000   0.0279567   0.0000000), wk =   0.2500000
        k(    3) = (   0.0000000  -0.0559134   0.0000000), wk =   0.1250000
        k(    4) = (   0.0379955   0.0000049   0.0000000), wk =   0.2500000
        k(    5) = (   0.0379955   0.0279617   0.0000000), wk =   0.2500000
        k(    6) = (   0.0379955  -0.0559085   0.0000000), wk =   0.2500000
        k(    7) = (   0.0379955  -0.0279518   0.0000000), wk =   0.2500000
        k(    8) = (  -0.0759910  -0.0000099   0.0000000), wk =   0.1250000
        k(    9) = (  -0.0759910   0.0279468   0.0000000), wk =   0.2500000
        k(   10) = (  -0.0759910  -0.0559233   0.0000000), wk =   0.1250000

     Initial potential from superposition of free atoms

     starting charge  415.99912, renormalised to  434.00000

     negative rho (up, down):  3.900E-02 0.000E+00

     %%%%%%%%%%%%%%%%%%%%%%%%%%%%%%%%%%%%%%%%%%%%%%%%%%%%%%%%%%%%%%%%%%%%%%%%
     %                                                                      %
     % You are using vdW-DF, which was implemented by the Thonhauser group. %
     % Please cite the following two papers that made this development      %
     % possible and the two reviews that describe the various versions:     %
     %                                                                      %
     %   T. Thonhauser et al., PRL 115, 136402 (2015).                      %
     %   T. Thonhauser et al., PRB 76, 125112 (2007).                       %
     %   K. Berland et al., Rep. Prog. Phys. 78, 066501 (2015).             %
     %   D.C. Langreth et al., J. Phys.: Condens. Matter 21, 084203 (2009). %
     %                                                                      %
     %                                                                      %
     % If you are calculating the stress with vdW-DF, please also cite:     %
     %                                                                      %
     %   R. Sabatini et al., J. Phys.: Condens. Matter 24, 424209 (2012).   %
     %                                                                      %
     %%%%%%%%%%%%%%%%%%%%%%%%%%%%%%%%%%%%%%%%%%%%%%%%%%%%%%%%%%%%%%%%%%%%%%%%

     Adding external electric field

     Computed dipole along edir(3) :
        Dipole               -2.9258 Ry au,         -7.4367 Debye
        Dipole field         -0.0037 Ry au,

        Potential amp.        0.3412 Ry
        Total length         46.3494 bohr

     Starting wfcs are  327 atomic wfcs
  @ DRIVER MODE: Message from server: STATUS
  @ DRIVER MODE: Message from server: POSDATA
  @ DRIVER MODE: Reading and sharing cell
  @ DRIVER MODE: Reading and sharing positions
  @ DRIVER MODE: Received positions

     Self-consistent Calculation

     iteration #  1     ecut=    29.40 Ry     beta= 0.05
     Davidson diagonalization with overlap
     c_bands:  4 eigenvalues not converged
     c_bands:  3 eigenvalues not converged
     c_bands:  4 eigenvalues not converged
     c_bands:  2 eigenvalues not converged
     c_bands:  2 eigenvalues not converged
     c_bands:  1 eigenvalues not converged
     c_bands:  2 eigenvalues not converged
     c_bands:  1 eigenvalues not converged
     c_bands:  1 eigenvalues not converged
     c_bands:  4 eigenvalues not converged
     ethr =  1.00E-05,  avg # of iterations = 22.0

[...]

     total energy              =   -3273.66868978 Ry
     estimated scf accuracy    <      14.21515925 Ry

     iteration #  2     ecut=    29.40 Ry     beta= 0.05
     Davidson diagonalization with overlap
     ethr =  3.28E-03,  avg # of iterations =  1.0

[...]

     iteration # 53     ecut=    29.40 Ry     beta= 0.05
     Davidson diagonalization with overlap
     c_bands:  1 eigenvalues not converged
     ethr =  4.09E-11,  avg # of iterations =  8.6

[...]

     total energy              =   -3272.09842717 Ry
     estimated scf accuracy    <       0.00000011 Ry

     iteration # 54     ecut=    29.40 Ry     beta= 0.05
     Davidson diagonalization with overlap
     ethr =  2.43E-11,  avg # of iterations = 11.5

     negative rho (up, down):  3.686E-02 0.000E+00

     Adding external electric field

     Computed dipole along edir(3) :
        Dipole                1.4017 Ry au,          3.5628 Debye
        Dipole field          0.0018 Ry au,

        Potential amp.       -0.1635 Ry
        Total length         46.3494 bohr

     End of self-consistent calculation

          k = 0.0000 0.0000 0.0000 ( 26871 PWs)   bands (ev):

   -57.9215 -57.9027 -57.8792 -57.8726 -57.8395 -57.7387 -57.7364 -57.7092
   -57.6945 -57.6873 -57.6551 -57.6197 -57.4807 -57.4641 -57.3995 -56.9348
   -56.9100 -56.9082 -34.2874 -34.2853 -34.2802 -34.2407 -34.2304 -34.2123
   -34.2093 -34.1750 -34.1666 -34.1548 -34.1473 -34.1354 -34.1211 -34.1014
   -34.0925 -34.0788 -34.0698 -34.0252 -34.0215 -34.0183 -34.0056 -34.0015
   -33.9959 -33.9940 -33.9804 -33.9516 -33.9259 -33.9220 -33.9215 -33.9210
   -33.9051 -33.9006 -33.8921 -33.8786 -33.8756 -33.8652 -33.8609 -33.8452
   -33.8322 -33.7576 -33.6923 -33.6728 -33.6665 -33.6536 -33.5286 -33.2490
   -33.2483 -33.2466 -33.2319 -33.2305 -33.1615 -33.0980 -33.0961 -32.9613
   -18.7196 -18.3391 -18.1781 -18.1233 -18.0952 -18.0096 -17.9644 -17.9235
   -17.7354 -17.6951 -17.6747 -17.6541 -17.6298 -17.6013 -17.5902 -17.5777
   -17.5552 -17.5461 -17.5446 -17.5185 -17.5075 -17.4325 -17.3794 -17.3529
   -17.3510 -17.3358 -17.3353 -17.3247 -17.2329 -17.1507 -17.0300 -16.9165
   -16.8305 -15.4012 -15.3436 -15.3407  -7.7798  -7.6451  -6.0469  -5.8226
    -5.8100  -5.7026  -5.3364  -5.2708  -5.2548  -5.2483  -5.1889  -5.1713
    -5.1480  -5.1243  -5.0907  -5.0296  -5.0106  -5.0048  -4.9508  -4.8861
    -4.8639  -4.8391  -4.7854  -4.7529  -4.7325  -4.7144  -4.6843  -4.6578
    -4.6104  -4.5916  -4.5508  -4.5413  -4.4639  -4.4291  -4.2898  -4.2348
    -4.2224  -4.1663  -4.1528  -4.1419  -4.0827  -4.0578  -4.0282  -4.0007
    -3.9593  -3.9541  -3.8726  -3.8130  -3.6940  -3.6397  -3.6199  -3.6044
    -3.5206  -3.5070  -3.4571  -3.3271  -3.3221  -3.2500  -3.2268  -3.1836
    -3.1406  -3.0818  -3.0014  -2.9690  -2.9196  -2.8982  -2.8377  -2.7872
    -2.7451  -2.7195  -2.6714  -2.6667  -2.6121  -2.5708  -2.5693  -2.5373
    -2.5105  -2.4649  -2.4564  -2.3969  -2.3608  -2.3168  -2.2538  -2.2411
    -2.2112  -2.1874  -2.1337  -2.1030  -2.0662  -2.0549  -2.0387  -1.9292
    -1.7612  -1.7582  -1.7531  -1.7407  -1.6362  -1.6070  -1.5052  -1.3331
    -1.1309  -0.9771  -0.6883  -0.6399  -0.6384  -0.3722  -0.3699  -0.2398
     1.1085   1.2975   1.3259   1.5235   1.5452   1.5919   1.6843   1.7032
     1.7654   1.8547   1.8626

[...]

          k = 0.0380-0.0280 0.0000 ( 26873 PWs)   bands (ev):

[...]

          k =-0.0760-0.0000 0.0000 ( 26902 PWs)   bands (ev):

[...]

          k =-0.0760-0.0559 0.0000 ( 26868 PWs)   bands (ev):

   -57.9213 -57.8967 -57.8908 -57.8670 -57.8397 -57.7378 -57.7349 -57.7139
   -57.6916 -57.6864 -57.6572 -57.6188 -57.4790 -57.4662 -57.3991 -56.9271
   -56.9253 -56.9006 -34.3762 -34.3327 -34.2576 -34.2332 -34.2315 -34.2232
   -34.2191 -34.1780 -34.1657 -34.1282 -34.1186 -34.0939 -34.0877 -34.0617
   -34.0596 -34.0456 -34.0406 -34.0314 -34.0222 -34.0202 -33.9870 -33.9808
   -33.9775 -33.9750 -33.9575 -33.9564 -33.9505 -33.9502 -33.9438 -33.9294
   -33.9190 -33.9162 -33.9145 -33.9137 -33.8847 -33.8832 -33.8674 -33.8608
   -33.8354 -33.7080 -33.6984 -33.6773 -33.6645 -33.6531 -33.5670 -33.3394
   -33.2477 -33.2463 -33.2227 -33.1411 -33.1390 -33.0754 -33.0592 -33.0572
   -18.4000 -18.3329 -18.0668 -18.0251 -18.0075 -18.0058 -17.9418 -17.9074
   -17.8325 -17.8160 -17.7323 -17.6840 -17.6643 -17.6613 -17.6380 -17.6039
   -17.6025 -17.5888 -17.5797 -17.5433 -17.5367 -17.5232 -17.4982 -17.3987
   -17.3470 -17.3128 -17.2740 -17.2658 -17.2275 -17.1238 -17.0635 -17.0578
   -16.7219 -15.3994 -15.3965 -15.2801  -7.7699  -7.6368  -5.6543  -5.6454
    -5.5895  -5.5214  -5.3393  -5.2146  -5.1902  -5.1867  -5.1068  -5.0716
    -5.0476  -5.0407  -5.0333  -5.0182  -5.0059  -4.9915  -4.9340  -4.8974
    -4.8399  -4.8227  -4.8179  -4.8095  -4.7818  -4.7566  -4.6171  -4.6159
    -4.5582  -4.5389  -4.4501  -4.4456  -4.4015  -4.3984  -4.3566  -4.3093
    -4.2702  -4.2602  -4.0672  -4.0426  -3.9974  -3.9875  -3.9822  -3.9300
    -3.8855  -3.7756  -3.6832  -3.6032  -3.5660  -3.5401  -3.5315  -3.5191
    -3.4856  -3.4430  -3.3910  -3.3781  -3.3638  -3.3453  -3.3202  -3.2652
    -3.1832  -3.1199  -3.0872  -3.0771  -3.0481  -3.0290  -3.0178  -3.0108
    -2.9437  -2.9422  -2.8774  -2.8491  -2.8087  -2.7885  -2.7547  -2.7226
    -2.6561  -2.6395  -2.6126  -2.4775  -2.4527  -2.4469  -2.4286  -2.3992
    -2.3018  -2.1760  -2.1579  -2.1311  -1.9836  -1.9472  -1.9432  -1.9259
    -1.8628  -1.7967  -1.6788  -1.6706  -1.5521  -1.5106  -1.4817  -1.4715
    -1.4613  -1.2579  -0.8504  -0.5726  -0.5556  -0.5297  -0.3718  -0.3697
     1.2438   1.3363   1.3702   1.4021   1.4451   1.4528   1.4670   1.5197
     1.5843   1.6192   1.8035

     the Fermi energy is     1.1857 ev

!    total energy              =   -3272.09849816 Ry
     estimated scf accuracy    <       0.00000007 Ry
     smearing contrib. (-TS)   =      -0.03416669 Ry
     internal energy E=F+TS    =   -3272.06433147 Ry

     The total energy is F=E-TS. E is the sum of the following terms:
     one-electron contribution =  -34227.87743450 Ry
     hartree contribution      =   17175.09762950 Ry
     xc contribution           =    -536.09670344 Ry
     ewald contribution        =   14316.80970507 Ry
     electric field correction =       0.00247189 Ry

     convergence has been achieved in  54 iterations

     Forces acting on atoms (cartesian axes, Ry/au):

     atom    1 type  1   force =     0.00003723    0.00678434    0.05073155
     atom    2 type  1   force =     0.00001719    0.00017270   -0.00010679
     atom    3 type  1   force =     0.00000296    0.00095300    0.00022343
     atom    4 type  1   force =     0.00005978    0.00003054    0.10705652
     atom    5 type  1   force =    -0.00000062   -0.00021192    0.00740151
     atom    6 type  1   force =    -0.00001842   -0.00258080    0.00289023
     atom    7 type  1   force =     0.06678209   -0.00011290   -0.02922436
     atom    8 type  1   force =     0.00531471   -0.02806924    0.00304907
     atom    9 type  1   force =     0.00872523   -0.01018052   -0.00350731
     atom   10 type  2   force =    -0.00004490   -0.00260450   -0.18471086
     atom   11 type  2   force =    -0.00000890    0.02119822   -0.00781921
     atom   12 type  2   force =     0.00004606    0.00855976    0.00654368
     atom   13 type  1   force =    -0.06687962   -0.00056607   -0.02920717
     atom   14 type  1   force =    -0.00534095   -0.02801691    0.00306306
     atom   15 type  1   force =    -0.00875676   -0.01018478   -0.00353633
     atom   16 type  2   force =     0.00011409    0.00034769    0.06937502
     atom   17 type  2   force =    -0.00000891    0.03413908    0.00274594
     atom   18 type  2   force =    -0.00008663   -0.00325272   -0.00522700
     atom   19 type  1   force =     0.00003179    0.00400998    0.06215706
     atom   20 type  1   force =     0.00002537    0.00065566   -0.00576002
     atom   21 type  1   force =     0.00006014    0.00057496    0.10771198
     atom   22 type  1   force =     0.00000744   -0.00106855    0.00865015
     atom   23 type  1   force =    -0.00003913    0.00172959    0.00489034
     atom   24 type  1   force =     0.06725445    0.00041615   -0.02917898
     atom   25 type  1   force =     0.00510740   -0.03017280    0.00336991
     atom   26 type  1   force =     0.01012467    0.01519769   -0.00092846
     atom   27 type  2   force =    -0.00006620   -0.00057642   -0.18586881
     atom   28 type  2   force =    -0.00001099    0.02136458   -0.00696167
     atom   29 type  2   force =     0.00013989   -0.01798365   -0.00050033
     atom   30 type  1   force =    -0.06734793   -0.00004063   -0.02916578
     atom   31 type  1   force =    -0.00514910   -0.03010807    0.00337346
     atom   32 type  1   force =    -0.01028747    0.01556803   -0.00041278
     atom   33 type  2   force =     0.00009376   -0.00103927    0.07139819
     atom   34 type  2   force =     0.00000820    0.03677794    0.00392675
     atom   35 type  2   force =    -0.00035313   -0.02102062    0.01018281
     atom   36 type  1   force =     0.00004380    0.00352925    0.05348818
     atom   37 type  1   force =    -0.00004149    0.00214144   -0.00345877
     atom   38 type  1   force =    -0.00009988    0.00361633    0.00118084
     atom   39 type  1   force =     0.00005925   -0.00014260    0.10728392
     atom   40 type  1   force =    -0.00000151   -0.00048258    0.00803818
     atom   41 type  1   force =    -0.00001186    0.00235504    0.00209778
     atom   42 type  1   force =     0.06750822   -0.00106528   -0.02900060
     atom   43 type  1   force =     0.00378752   -0.02774296    0.00194161
     atom   44 type  1   force =     0.01105415    0.00360451    0.00281105
     atom   45 type  2   force =    -0.00005684   -0.00030214   -0.18503158
     atom   46 type  2   force =     0.00001381    0.01829823   -0.00605548
     atom   47 type  2   force =     0.00007566   -0.00314244   -0.01509680
     atom   48 type  1   force =    -0.06759731   -0.00151132   -0.02898891
     atom   49 type  1   force =    -0.00385196   -0.02769317    0.00195209
     atom   50 type  1   force =    -0.01110449    0.00333232    0.00305554
     atom   51 type  2   force =     0.00012253   -0.00224598    0.07047998
     atom   52 type  2   force =    -0.00003872    0.03273518    0.00638229
     atom   53 type  2   force =    -0.00004004    0.01442533    0.00242423
     atom   54 type  3   force =     0.02484061    0.00031006   -0.00075480
     atom   55 type  4   force =    -0.00219175   -0.00054587   -0.00018296
     atom   56 type  4   force =    -0.01123846    0.00476432    0.00538336
     atom   57 type  4   force =    -0.01078405   -0.00492722   -0.00457393

     Total force =     0.456302     Total SCF correction =     0.000510
  @ DRIVER MODE: Message from server: STATUS
  @ DRIVER MODE: Message from server: GETFORCE
  @ DRIVER MODE: Returning v,forces,stress,ensemble

     Writing output data file ./calc.save/
  @ DRIVER MODE: Message from server: EXIT
  @ DRIVE MODE: Exiting

     General routines

     Parallel routines

   This run was terminated on:  12:19:22  18Oct2021

   JOB DONE.