     Program PWSCF v.6.7GPU starts on 29Jul2021 at 14:41:20

     R & G space division:  proc/nbgrp/npool/nimage =      16
     Reading input from /storage/home/hcoda1/3/ntian30/research/carbon/26Jul_spin_polarization/ads_slab/CH3NH3_a/26Jul_spin_polarization.log/pw.inp
Warning: card &CELL ignored
Warning: card   CELL_DYNAMICS='IPI', ignored
Warning: card / ignored

     Current dimensions of program PWSCF are:
     Max number of different atomic species (ntypx) = 10
     Max number of k-points (npk) =  40000
     Max angular momentum in pseudopotentials (lmaxx) =  3
     Presently no symmetry can be used with electric field

     Message from routine cell_base_init:
     DEPRECATED: use true lattice parameter, not A to a.u. conversion factor

     IMPORTANT: XC functional enforced from input :
     Exchange-correlation= BEEF-VDW
                           (   1   4  43  14   2   0   0)
     Any further DFT definition will be discarded
     Please, verify this is what you really want

  @ DRIVER MODE: Connecting to
 qe_1139763_2455096.sched-torque.pace.gatech.edu_6q_w45s_scratch
  using UNIX socket
  @ DRIVER MODE: Message from server: STATUS
  @ DRIVER MODE: Message from server: INIT
  @ DRIVER MODE: Receiving replica           0          -1
  @ DRIVER MODE: Receiving encoded integer          25
  @ DRIVER MODE:  SCF:  T  FORCE:  T  STRESS:  F  VC:  F  ENSEMBLE:  F
  @ DRIVER MODE:  SCF:  T  FORCE:  T  STRESS:  F  VC:  F  ENSEMBLE:  F

     Using Slab Decomposition

     bravais-lattice index     =            0
     lattice parameter (alat)  =       1.8897  a.u.
     unit-cell volume          =    6658.9804 (a.u.)^3
     number of atoms/cell      =           55
     number of atomic types    =            5
     number of electrons       =       393.00
     number of Kohn-Sham states=          206
     kinetic-energy cutoff     =      29.3995  Ry
     charge density cutoff     =     293.9946  Ry
     scf convergence threshold =      7.3E-08
     mixing beta               =       0.0500
     number of iterations used =            8  plain     mixing
     Exchange-correlation= BEEF-VDW
                           (   1   4  43  14   2   0   0)

     celldm(1)=   1.889726  celldm(2)=   0.000000  celldm(3)=   0.000000
     celldm(4)=   0.000000  celldm(5)=   0.000000  celldm(6)=   0.000000

     crystal axes: (cart. coord. in units of alat)
               a(1) = (   6.579727   0.000000   0.000000 )
               a(2) = (  -0.000775   5.961596   0.000000 )
               a(3) = (   0.000000   0.000000  25.155947 )

     reciprocal axes: (cart. coord. in units 2 pi/alat)
               b(1) = (  0.151982  0.000020  0.000000 )
               b(2) = (  0.000000  0.167740  0.000000 )
               b(3) = (  0.000000  0.000000  0.039752 )

     PseudoPot. # 1 for Ti read from file:
     /storage/coda1/p-amedford6/0/shared/rich_project_chbe-medford/medford-share/data/pseudos_module/espresso/nninc/pbe/van/Ti.UPF
     MD5 check sum: 8e4df49b7f0d34bbd5052bf3f5ea0213
     Pseudo is Ultrasoft, Zval = 12.0
     Generated by new atomic code, or converted to UPF format
     Using radial grid of  851 points,  6 beta functions with:
                l(1) =   0
                l(2) =   0
                l(3) =   1
                l(4) =   1
                l(5) =   2
                l(6) =   2
     Q(r) pseudized with  8 coefficients,  rinner =    1.000   1.000   1.000
                                                       1.000   1.000

     PseudoPot. # 2 for O  read from file:
     /storage/coda1/p-amedford6/0/shared/rich_project_chbe-medford/medford-share/data/pseudos_module/espresso/nninc/pbe/van/O.UPF
     MD5 check sum: 78c19812648e8988a0fe644b0f25305e
     Pseudo is Ultrasoft, Zval =  6.0
     Generated by new atomic code, or converted to UPF format
     Using radial grid of  737 points,  4 beta functions with:
                l(1) =   0
                l(2) =   0
                l(3) =   1
                l(4) =   1
     Q(r) pseudized with  8 coefficients,  rinner =    0.800   0.800   0.800

     PseudoPot. # 3 for C  read from file:
     /storage/coda1/p-amedford6/0/shared/rich_project_chbe-medford/medford-share/data/pseudos_module/espresso/nninc/pbe/van/C.UPF
     MD5 check sum: 1a69bf6b8db32088f5b2163dbdb77a27
     Pseudo is Ultrasoft, Zval =  4.0
     Generated by new atomic code, or converted to UPF format
     Using radial grid of  721 points,  4 beta functions with:
                l(1) =   0
                l(2) =   0
                l(3) =   1
                l(4) =   1
     Q(r) pseudized with  8 coefficients,  rinner =    0.800   0.800   0.800

     PseudoPot. # 4 for H  read from file:
     /storage/coda1/p-amedford6/0/shared/rich_project_chbe-medford/medford-share/data/pseudos_module/espresso/nninc/pbe/van/H.UPF
     MD5 check sum: b5ee9d7bfd3a09ee7748110bda690ff7
     Pseudo is Ultrasoft, Zval =  1.0
     Generated by new atomic code, or converted to UPF format
     Using radial grid of  615 points,  1 beta functions with:
                l(1) =   0
     Q(r) pseudized with  8 coefficients,  rinner =    0.800

     PseudoPot. # 5 for N  read from file:
     /storage/coda1/p-amedford6/0/shared/rich_project_chbe-medford/medford-share/data/pseudos_module/espresso/nninc/pbe/van/N.UPF
     MD5 check sum: 90d10febe142ad51ac9d5be1deb811c4
     Pseudo is Ultrasoft, Zval =  5.0
     Generated by new atomic code, or converted to UPF format
     Using radial grid of  729 points,  4 beta functions with:
                l(1) =   0
                l(2) =   0
                l(3) =   1
                l(4) =   1
     Q(r) pseudized with  8 coefficients,  rinner =    0.800   0.800   0.800

     atomic species   valence    mass     pseudopotential
        Ti1           12.00    47.86700     Ti( 1.00)
        O1             6.00    15.99900     O ( 1.00)
        C1             4.00    12.01100     C ( 1.00)
        H1             1.00     1.00800     H ( 1.00)
        N1             5.00    14.00700     N ( 1.00)

     Starting magnetic structure
     atomic species   magnetization
        Ti1          0.000
        O1           0.000
        C1           0.046
        H1           0.000
        N1           0.040

     No symmetry found

   Cartesian axes

     site n.     atom                  positions (alat units)
         1           Ti1 tau(   1) = (   0.0004258   2.9801865   6.0000000  )
         2           Ti1 tau(   2) = (   3.2906075   1.4906267   6.0002472  )
         3           O1  tau(   3) = (   0.0006271   0.0005054   7.9858123  )
         4           O1  tau(   4) = (   3.2906025   0.0005020   7.3038282  )
         5           O1  tau(   5) = (   4.5942328   1.4918067   9.2879030  )
         6           O1  tau(   6) = (   1.9868534   1.4903216   9.2879459  )
         7           Ti1 tau(   7) = (   3.2907910   2.8959150   9.1758416  )
         8           Ti1 tau(   8) = (   0.0015273   1.4827037   9.2680791  )
         9           O1  tau(   9) = (   3.2981156   0.0012339  11.3300471  )
        10           O1  tau(  10) = (   0.0116148   5.9584955  10.6183126  )
        11           O1  tau(  11) = (   1.3033605   1.5036236  12.6199488  )
        12           O1  tau(  12) = (   5.2811161   1.5074500  12.6162500  )
        13           Ti1 tau(  13) = (   0.0407500   2.9455431  12.6352795  )
        14           Ti1 tau(  14) = (   3.3444429   1.4910927  12.4779025  )
        15           O1  tau(  15) = (   0.0052662   0.0451097  14.6026341  )
        16           O1  tau(  16) = (   3.2946143   0.0124870  13.9210852  )
        17           O1  tau(  17) = (   4.5465206   1.5046604  16.0624161  )
        18           O1  tau(  18) = (   2.0546879   1.5048301  16.0609706  )
        19           Ti1 tau(  19) = (   3.2991624   2.9918142  15.6995589  )
        20           Ti1 tau(  20) = (   6.5707204   1.4025535  15.8059435  )
        21           O1  tau(  21) = (   3.2904802   0.0005063   4.7018136  )
        22           O1  tau(  22) = (   0.0164654   0.0145536  17.1360041  )
        23           O1  tau(  23) = (   1.3043587   1.4918075   6.0039043  )
        24           O1  tau(  24) = (   5.2767064   1.4903225   6.0039473  )
        25           Ti1 tau(  25) = (   0.0000382   5.9609847   6.0000000  )
        26           Ti1 tau(  26) = (   3.2902200   4.4714249   6.0002472  )
        27           O1  tau(  27) = (   0.0002396   2.9813036   7.9858123  )
        28           O1  tau(  28) = (   3.2902150   2.9813002   7.3038282  )
        29           O1  tau(  29) = (   4.5938453   4.4726049   9.2879030  )
        30           O1  tau(  30) = (   1.9864658   4.4711199   9.2879459  )
        31           Ti1 tau(  31) = (   3.2891106   5.8743827   9.1763621  )
        32           Ti1 tau(  32) = (   0.0006254   4.4649316   9.2693709  )
        33           O1  tau(  33) = (   3.2977166   2.9913250  11.3287690  )
        34           O1  tau(  34) = (   0.0092240   2.9805883  10.6323155  )
        35           O1  tau(  35) = (   1.3008534   4.4801743  12.6308489  )
        36           O1  tau(  36) = (   5.2850400   4.4860598  12.6280017  )
        37           Ti1 tau(  37) = (   0.0409916   5.9178611  12.5441859  )
        38           Ti1 tau(  38) = (   3.3442415   4.4710906  12.4862270  )
        39           O1  tau(  39) = (   0.0109228   2.9791018  14.7123696  )
        40           O1  tau(  40) = (   3.2998940   2.9912248  13.9043662  )
        41           O1  tau(  41) = (   4.5474046   4.4713503  16.0779382  )
        42           O1  tau(  42) = (   2.0618872   4.4767818  16.0643778  )
        43           Ti1 tau(  43) = (   3.2722838   0.0128901  15.7174356  )
        44           Ti1 tau(  44) = (   6.5592075   4.4947239  16.1563676  )
        45           O1  tau(  45) = (   3.2900926   2.9813045   4.7018136  )
        46           O1  tau(  46) = (   1.3039711   4.4726057   6.0039043  )
        47           O1  tau(  47) = (   5.2763189   4.4711207   6.0039473  )
        48           C1  tau(  48) = (   0.0359503   3.0870652  17.8341721  )
        49           H1  tau(  49) = (   5.8142062   3.6010452  18.3763092  )
        50           H1  tau(  50) = (   6.4784518   2.0305676  18.0614951  )
        51           H1  tau(  51) = (   0.9863100   3.3782628  18.2908018  )
        52           N1  tau(  52) = (   4.7642638   1.7931862  21.6370373  )
        53           H1  tau(  53) = (   4.5527921   2.7808570  21.5386679  )
        54           H1  tau(  54) = (   4.1042548   1.2952780  21.0483319  )
        55           H1  tau(  55) = (   4.5435699   1.5432347  22.5953497  )

     number of k points=    10  Fermi-Dirac smearing, width (Ry)=  0.0073
                       cart. coord. in units 2pi/alat
        k(    1) = (   0.0000000   0.0000000   0.0000000), wk =   0.0625000
        k(    2) = (   0.0000000   0.0419351   0.0000000), wk =   0.1250000
        k(    3) = (   0.0000000  -0.0838702   0.0000000), wk =   0.0625000
        k(    4) = (   0.0379955   0.0000049   0.0000000), wk =   0.1250000
        k(    5) = (   0.0379955   0.0419400   0.0000000), wk =   0.1250000
        k(    6) = (   0.0379955  -0.0838652   0.0000000), wk =   0.1250000
[...]
     atom  21 (R=0.733)  charge=  4.8659  magn=  0.0007
     atom  22 (R=0.733)  charge=  4.9586  magn=  0.0000
     atom  23 (R=0.733)  charge=  4.9752  magn=  0.0014
     atom  24 (R=0.733)  charge=  4.9753  magn=  0.0014
     atom  25 (R=0.733)  charge=  7.9994  magn= -0.0114
     atom  26 (R=0.733)  charge=  7.9827  magn= -0.0007
     atom  27 (R=0.733)  charge=  4.9786  magn=  0.0008
     atom  28 (R=0.733)  charge=  5.0159  magn=  0.0002
     atom  29 (R=0.733)  charge=  4.9848  magn=  0.0001
     atom  30 (R=0.733)  charge=  4.9848  magn=  0.0001
     atom  31 (R=0.733)  charge=  7.9812  magn= -0.0004
     atom  32 (R=0.733)  charge=  7.9726  magn= -0.0029
     atom  33 (R=0.733)  charge=  4.9975  magn= -0.0000
     atom  34 (R=0.733)  charge=  4.9562  magn=  0.0002
     atom  35 (R=0.733)  charge=  4.9836  magn=  0.0000
     atom  36 (R=0.733)  charge=  4.9836  magn=  0.0000
     atom  37 (R=0.733)  charge=  7.9745  magn= -0.0005
     atom  38 (R=0.733)  charge=  7.9805  magn=  0.0001
     atom  39 (R=0.733)  charge=  4.9601  magn=  0.0000
     atom  40 (R=0.733)  charge=  5.0026  magn= -0.0001
     atom  41 (R=0.733)  charge=  4.9735  magn= -0.0000
     atom  42 (R=0.733)  charge=  4.9717  magn= -0.0000
     atom  43 (R=0.733)  charge=  8.0053  magn=  0.0001
     atom  44 (R=0.733)  charge=  7.9958  magn= -0.0001
     atom  45 (R=0.733)  charge=  4.8660  magn=  0.0007
     atom  46 (R=0.733)  charge=  4.9752  magn=  0.0014
     atom  47 (R=0.733)  charge=  4.9753  magn=  0.0014
     atom  48 (R=0.449)  charge=  0.8513  magn=  0.0001
     atom  49 (R=0.419)  charge=  0.4295  magn= -0.0000
     atom  50 (R=0.419)  charge=  0.4313  magn= -0.0000
     atom  51 (R=0.419)  charge=  0.4317  magn= -0.0000
     atom  52 (R=0.419)  charge=  1.3321  magn=  0.0001
     atom  53 (R=0.419)  charge=  0.4529  magn= -0.0000
     atom  54 (R=0.419)  charge=  0.4529  magn= -0.0000
     atom  55 (R=0.419)  charge=  0.4547  magn= -0.0000

     End of self-consistent calculation

 ------ SPIN UP ------------

          k = 0.0000 0.0000 0.0000 ( 18029 PWs)   bands (ev):

   -56.0299 -56.0226 -55.9934 -55.9885 -55.9012 -55.8665 -55.8655 -55.8389
   -55.8224 -55.8050 -55.8020 -55.7683 -55.5683 -55.4012 -55.0081 -54.9741
   -32.5881 -32.5103 -32.3606 -32.3543 -32.3397 -32.3356 -32.3141 -32.2927
   -32.2656 -32.2391 -32.2331 -32.2324 -32.2093 -32.1729 -32.1727 -32.1667
   -32.1349 -32.1321 -32.1193 -32.0790 -32.0774 -32.0691 -32.0382 -32.0326
   -32.0267 -32.0266 -32.0122 -32.0103 -32.0042 -31.9792 -31.9777 -31.9754
   -31.9714 -31.9696 -31.9550 -31.9437 -31.9143 -31.8470 -31.7824 -31.6887
   -31.6295 -31.5186 -31.4153 -31.3266 -31.3043 -31.2316 -31.1451 -31.0344
   -16.7677 -16.5046 -16.2725 -16.1821 -16.1319 -16.0454 -15.8681 -15.7518
   -15.7029 -15.6021 -15.5704 -15.5497 -15.5333 -15.5028 -15.4945 -15.4694
   -15.4584 -15.4524 -15.4173 -15.3894 -15.3642 -15.3496 -15.2297 -15.1776
   -15.1616 -15.1301 -15.0821 -15.0659 -14.6113 -13.6560 -13.5122 -13.3959
    -9.0477  -4.1423  -3.9621  -3.9362  -3.8884  -3.8468  -3.7146  -3.6974
    -3.6437  -3.5838  -3.2660  -3.2088  -3.2006  -3.1599  -3.1453  -2.9879
    -2.9233  -2.8492  -2.8330  -2.8274  -2.8020  -2.7969  -2.7921  -2.7496
    -2.7072  -2.6518  -2.6281  -2.5584  -2.5164  -2.4430  -2.3701  -2.3418
    -2.3002  -2.2976  -2.2612  -2.2491  -2.2411  -2.2309  -2.1952  -2.1799
    -2.0004  -1.9499  -1.8816  -1.8159  -1.8013  -1.6376  -1.5309  -1.4829
    -1.4643  -1.4572  -1.4391  -1.4219  -1.3264  -1.2085  -1.1753  -1.1259
    -1.0783  -1.0296  -0.9997  -0.8993  -0.8828  -0.7924  -0.7786  -0.7600
    -0.6488  -0.6246  -0.4911  -0.4691  -0.4634  -0.4031  -0.3875  -0.3146
    -0.2902  -0.2339  -0.1691  -0.1565  -0.0884  -0.0623  -0.0598  -0.0024
     0.0020   0.0474   0.0620   0.1716   0.2274   0.2768   0.3309   0.4372
     0.5169   0.6313   0.6782   0.7374   0.9391   1.0124   1.1223   1.1830
     1.2056   1.4658   1.5833   1.6294   3.1112   3.2027   3.2129   3.2412
     3.3473   3.3704   3.5630   3.5726   3.6078   3.6277

[...]

          k =-0.0760-0.0000 0.0000 ( 17886 PWs)   bands (ev):

[...]

 ------ SPIN DOWN ----------

[...]

          k = 0.0380-0.0419 0.0000 ( 17876 PWs)   bands (ev):

[...]

          k =-0.0760-0.0839 0.0000 ( 17948 PWs)   bands (ev):

   -56.0269 -56.0257 -56.0140 -56.0082 -55.8860 -55.8809 -55.8578 -55.8318
   -55.8275 -55.8256 -55.7872 -55.7848 -55.5670 -55.4028 -54.9927 -54.9924
   -32.3937 -32.3872 -32.3350 -32.3342 -32.3233 -32.3223 -32.2924 -32.2878
   -32.2215 -32.2206 -32.2175 -32.2068 -32.1665 -32.1654 -32.1483 -32.1480
   -32.1469 -32.1429 -32.1404 -32.1272 -32.1265 -32.1237 -32.0873 -32.0768
   -32.0726 -32.0511 -32.0463 -32.0332 -32.0250 -32.0240 -32.0188 -32.0169
   -32.0016 -32.0002 -31.9974 -31.9910 -31.9251 -31.8300 -31.7847 -31.6917
   -31.6741 -31.5631 -31.3187 -31.3186 -31.2292 -31.2290 -31.1900 -31.1899
   -16.2097 -16.1867 -15.9798 -15.9460 -15.9419 -15.9355 -15.8044 -15.7234
   -15.7229 -15.6978 -15.6370 -15.6256 -15.6033 -15.5643 -15.5406 -15.5381
   -15.5196 -15.5145 -15.4881 -15.4782 -15.4648 -15.4577 -15.3657 -15.3457
   -15.3419 -15.2927 -15.1473 -15.0010 -14.8920 -13.6548 -13.4961 -13.4959
    -9.0616  -3.7167  -3.7081  -3.5059  -3.4745  -3.2324  -3.1939  -3.1807
    -3.1119  -2.9553  -2.9157  -2.8977  -2.8901  -2.8456  -2.8380  -2.8329
    -2.8212  -2.7930  -2.7758  -2.7387  -2.7326  -2.7172  -2.7101  -2.6987
    -2.6817  -2.6516  -2.6430  -2.6122  -2.6075  -2.5869  -2.5708  -2.5429
    -2.5380  -2.4103  -2.2514  -2.2276  -2.1669  -2.1595  -2.1129  -2.0999
    -2.0933  -2.0660  -2.0370  -2.0098  -1.8507  -1.7397  -1.7251  -1.7083
    -1.6397  -1.6120  -1.5269  -1.4367  -1.3956  -1.3774  -1.3092  -1.3057
    -1.2557  -1.2311  -1.2103  -1.1426  -1.0863  -1.0490  -0.9917  -0.9854
    -0.9776  -0.9078  -0.8654  -0.7907  -0.7820  -0.7442  -0.7092  -0.6545
    -0.6203  -0.6090  -0.5189  -0.4864  -0.3742  -0.3254  -0.0669  -0.0187
     0.0343   0.0625   0.1276   0.1857   0.1898   0.2880   0.2918   0.3274
     0.4067   0.4281   0.4991   0.5184   0.5682   0.7300   1.2791   1.3775
     1.3783   1.4499   1.4502   1.4569   3.4031   3.4148   3.4220   3.4665
     3.6052   3.6098   3.6310   3.6326   3.7749   3.7952

     the Fermi energy is     3.1019 ev

!    total energy              =   -2922.78993458 Ry
     estimated scf accuracy    <       0.00000006 Ry
     smearing contrib. (-TS)   =      -0.02168451 Ry
     internal energy E=F+TS    =   -2922.76825007 Ry

     The total energy is F=E-TS. E is the sum of the following terms:
     one-electron contribution =  -23651.36068901 Ry
     hartree contribution      =   11909.89900519 Ry
     xc contribution           =    -482.26421163 Ry
     ewald contribution        =    9300.95707340 Ry
     electric field correction =       0.00057198 Ry

     total magnetization       =    -0.04 Bohr mag/cell
     absolute magnetization    =     0.06 Bohr mag/cell

     convergence has been achieved in  76 iterations

     Forces acting on atoms (cartesian axes, Ry/au):

     atom    1 type  1   force =     0.00006198   -0.00022779    0.09683426
     atom    2 type  1   force =    -0.00018387   -0.00057709   -0.17516022
     atom    3 type  2   force =     0.00002135   -0.00004734   -0.02500056
     atom    4 type  2   force =     0.00002632   -0.00140173    0.05267028
     atom    5 type  2   force =    -0.01205523   -0.00051002    0.00330618
     atom    6 type  2   force =     0.01378583    0.00008535    0.00270321
     atom    7 type  1   force =    -0.00059007    0.00056310   -0.01155775
     atom    8 type  1   force =     0.00018979    0.01202522    0.02897427
     atom    9 type  2   force =    -0.00029757    0.00057644    0.00057267
     atom   10 type  2   force =    -0.00153646    0.00252454   -0.01948130
     atom   11 type  2   force =    -0.00017601   -0.00037647   -0.00014942
     atom   12 type  2   force =    -0.00090415    0.00003437   -0.00030336
     atom   13 type  1   force =     0.00056917   -0.00098250    0.00109008
     atom   14 type  1   force =     0.00145783    0.00058465   -0.00068889
     atom   15 type  2   force =    -0.00014038   -0.00106073    0.00038441
     atom   16 type  2   force =    -0.00020854   -0.00019988   -0.00147816
     atom   17 type  2   force =    -0.00065975    0.00074662    0.00000266
     atom   18 type  2   force =     0.00049257    0.00092859    0.00003527
     atom   19 type  1   force =    -0.00017584   -0.00112152    0.00064544
     atom   20 type  1   force =    -0.00011906    0.00045407   -0.00005121
     atom   21 type  2   force =     0.00005024   -0.00003929    0.10323602
     atom   22 type  2   force =     0.00027331   -0.00029645    0.00094257
     atom   23 type  2   force =    -0.07155988   -0.00014271   -0.02770087
     atom   24 type  2   force =     0.07145238    0.00027161   -0.02773300
     atom   25 type  1   force =     0.00004527   -0.00027416    0.09643867
     atom   26 type  1   force =    -0.00020557   -0.00030149   -0.17536800
     atom   27 type  2   force =     0.00008529   -0.00017119   -0.02379145
     atom   28 type  2   force =     0.00004418   -0.00114069    0.05275091
     atom   29 type  2   force =    -0.01209600    0.00085060    0.00277227
     atom   30 type  2   force =     0.01374152    0.00123765    0.00218880
     atom   31 type  1   force =    -0.00045304    0.00302170   -0.01243012
     atom   32 type  1   force =     0.00017452   -0.01423370    0.02936310
     atom   33 type  2   force =    -0.00023079   -0.00062608    0.00042732
     atom   34 type  2   force =    -0.00098363    0.00176159   -0.02268845
     atom   35 type  2   force =    -0.00066748   -0.00060124   -0.00012464
     atom   36 type  2   force =     0.00002940   -0.00014768   -0.00033959
     atom   37 type  1   force =     0.00066557    0.00025743    0.00054068
     atom   38 type  1   force =     0.00150913    0.00019614   -0.00070364
     atom   39 type  2   force =     0.00006195    0.00014408   -0.00126918
     atom   40 type  2   force =    -0.00034746   -0.00009723    0.00175017
     atom   41 type  2   force =    -0.00077132   -0.00106379   -0.00010885
     atom   42 type  2   force =     0.00028170   -0.00146520    0.00027863
     atom   43 type  1   force =     0.00021287    0.00068367    0.00109066
     atom   44 type  1   force =     0.00043901   -0.00023192    0.00073349
     atom   45 type  2   force =     0.00005876   -0.00009111    0.10320259
     atom   46 type  2   force =    -0.07154700   -0.00011401   -0.02770355
     atom   47 type  2   force =     0.07145269    0.00031740   -0.02773564
     atom   48 type  3   force =     0.00030561    0.00086742   -0.00066757
     atom   49 type  4   force =    -0.00079890    0.00000433   -0.00049278
     atom   50 type  4   force =    -0.00031778   -0.00055168    0.00098768
     atom   51 type  4   force =    -0.00080754   -0.00014235   -0.00023619
     atom   52 type  5   force =    -0.00009223   -0.00018503   -0.00037525
     atom   53 type  4   force =     0.00064238   -0.00006267   -0.00037111
     atom   54 type  4   force =     0.00007685    0.00021561   -0.00009714
     atom   55 type  4   force =    -0.00028190    0.00013259   -0.00011439

     Total force =     0.368364     Total SCF correction =     0.000555
  @ DRIVER MODE: Message from server: STATUS
  @ DRIVER MODE: Message from server: GETFORCE
  @ DRIVER MODE: Returning v,forces,stress,ensemble

     Writing output data file ./calc.save/
  @ DRIVER MODE: Message from server: STATUS
  @ DRIVER MODE: Message from server: INIT
  @ DRIVER MODE: Receiving replica           0           0
  @ DRIVER MODE: Receiving encoded integer           2
  @ DRIVER MODE:  SCF:  T  FORCE:  T  STRESS:  F  VC:  F  ENSEMBLE:  F
  @ DRIVER MODE:  SCF:  F  FORCE:  F  STRESS:  F  VC:  F  ENSEMBLE:  T
  @ DRIVER MODE: Message from server: STATUS
  @ DRIVER MODE: Message from server: POSDATA
  @ DRIVER MODE: Reading and sharing positions
  @ DRIVER MODE: Received positions
     NEW-OLD atomic charge density approx. for the potential

[...]

     Adding external electric field

     Computed dipole along edir(3) :
        Dipole                0.5505 Ry au,          1.3993 Debye
        Dipole field          0.0010 Ry au,

        Potential amp.       -0.0963 Ry
        Total length         46.3494 bohr

     Generating pointlists ...
  @ DRIVER MODE: BEEF-vdw

[...]

     negative rho (up, down):  5.688E-03 5.688E-03

     negative rho (up, down):  5.688E-03 5.688E-03
 BEEFens 2000 ensemble energies
             -0.346318946966354E+02
             -0.200713238499659E+01
             -0.712449278925096E+01
              0.240313957173218E+02
             -0.119039333280359E+02
             -0.918857566412512E+01
             -0.240148478452960E+02
             -0.502401573494998E+02
             -0.214046744056981E+02
             -0.225671430277338E+02
             -0.209688590108763E+02
              0.423701394702943E+01
              0.198568172240152E+01
             -0.105978986708597E+01
              0.171717116364326E+01
              0.264738196445552E+02
             -0.101913691213244E+02
             -0.717739033921427E+01
              0.117684570839079E+02
             -0.618226619957702E+02
              0.309928089347552E+02
             -0.133124043503034E+02
             -0.240559509539904E+01
             -0.558171560824955E+01
             -0.963381729721050E+00
             -0.211493562287498E+01
              0.479571608069610E+02
             -0.150160398168563E+02
             -0.398120347979579E+01
             -0.303384143586299E+02
              0.391973569910360E+02
             -0.431547671746584E+01
             -0.213436033805214E+02
              0.111819937637484E+02
             -0.204978034403999E+01
              0.130345900885566E+02
             -0.544033422586523E+00
              0.270382235247637E+01
              0.189507057154156E+02
             -0.545524035672221E+02
              0.304084699243442E+02
              0.810492840803184E+01
             -0.626097379005017E+01
             -0.174218908088943E+02
              0.690103599744089E+01
             -0.109206793401920E+02
              0.248846308958802E+02
              0.198620326947502E+02
             -0.127985749982411E+02
             -0.163651615615902E+02
             -0.173069216165452E+02
             -0.207742711255795E+02
              0.105802098494385E+02
             -0.270349488698402E+02
              0.827612134267753E+01
              0.345462938581050E+02
              0.398512495174366E+02
              0.185561199013187E+02
              0.827377077634249E+01
              0.173187833618064E+02
[...]
             -0.407641998859327E+02
              0.279466647620904E+01
             -0.145520548442968E+01
             -0.566750170226629E+01
              0.502691028824813E-01
             -0.362858146570700E+02
             -0.698920736931225E+01
              0.493266885535940E+01
              0.741793932734261E+01
              0.271921603604040E+02
             -0.237658231268481E+02
              0.309865663981003E+02
             -0.221975768195278E+02
              0.142747193660994E+02
              0.224762317382359E+02

 BEEF-vdW xc energy contributions
           1 :   -408.515480270988
           2 :    355.704274298872
           3 :   -270.653769692030
           4 :    182.008443921515
           5 :   -112.469020115925
           6 :    70.9886428051196
           7 :   -53.7956317866989
           8 :    50.8057096608965
           9 :   -52.5598571850207
          10 :    53.8145865570519
          11 :   -53.3662671186319
          12 :    51.7920463668639
          13 :   -49.5379186611740
          14 :    46.3665239690758
          15 :   -41.9414806058743
          16 :    36.4839071785192
          17 :   -30.9112292047025
          18 :    26.3768011565912
          19 :   -23.6895124633745
          20 :    22.9690085134445
          21 :   -23.7351804226280
          22 :    25.2291061058085
          23 :   -26.7513366573143
          24 :    27.7964116929419
          25 :   -28.0392039098715
          26 :    27.2826003216720
          27 :   -25.4966845133260
          28 :    22.8898038301862
          29 :   -19.9393436123879
          30 :    17.2751337639360
          31 :   -48.0636814040142
          32 :   -32.6021056869347
  @ DRIVER MODE: Message from server: STATUS
  @ DRIVER MODE: Message from server: GETFORCE
  @ DRIVER MODE: Returning v,forces,stress,ensemble
  @ DRIVE MODE: Returning Ensemble Energies

     Writing output data file ./calc.save/
  @ DRIVER MODE: Message from server: EXIT
  @ DRIVE MODE: Exiting

     General routines

     Parallel routines

   This run was terminated on:  15:14:37  29Jul2021

   JOB DONE.