     Program PWSCF v.6.7GPU starts on  9Sep2021 at  5:12:53

     R & G space division:  proc/nbgrp/npool/nimage =      10
     Reading input from /storage/home/hcoda1/3/ntian30/research/carbon/CxH_vib/CH3_calc/ads_slab/CH3N_a/out_0029/pw.inp
Warning: card &CELL ignored
Warning: card   CELL_DYNAMICS='IPI', ignored
Warning: card / ignored

     Current dimensions of program PWSCF are:
     Max number of different atomic species (ntypx) = 10
     Max number of k-points (npk) =  40000
     Max angular momentum in pseudopotentials (lmaxx) =  3
     Presently no symmetry can be used with electric field

     Message from routine cell_base_init:
     DEPRECATED: use true lattice parameter, not A to a.u. conversion factor

     IMPORTANT: XC functional enforced from input :
     Exchange-correlation= BEEF-VDW
                           (   1   4  43  14   2   0   0)
     Any further DFT definition will be discarded
     Please, verify this is what you really want

  @ DRIVER MODE: Connecting to
 qe_1139763_2767403.sched-torque.pace.gatech.eduzngpmxn0_scratch
  using UNIX socket
  @ DRIVER MODE: Message from server: STATUS
  @ DRIVER MODE: Message from server: INIT
  @ DRIVER MODE: Receiving replica           0          -1
  @ DRIVER MODE: Receiving encoded integer          25
  @ DRIVER MODE:  SCF:  T  FORCE:  T  STRESS:  F  VC:  F  ENSEMBLE:  F
  @ DRIVER MODE:  SCF:  T  FORCE:  T  STRESS:  F  VC:  F  ENSEMBLE:  F

     Using Slab Decomposition

     bravais-lattice index     =            0
     lattice parameter (alat)  =       1.8897  a.u.
     unit-cell volume          =    6658.9804 (a.u.)^3
     number of atoms/cell      =           52
     number of atomic types    =            5
     number of electrons       =       390.00
     number of Kohn-Sham states=          205
     kinetic-energy cutoff     =      29.3995  Ry
     charge density cutoff     =     293.9946  Ry
     scf convergence threshold =      7.3E-08
     mixing beta               =       0.0500
     number of iterations used =            8  plain     mixing
     Exchange-correlation= BEEF-VDW
                           (   1   4  43  14   2   0   0)

     celldm(1)=   1.889726  celldm(2)=   0.000000  celldm(3)=   0.000000
     celldm(4)=   0.000000  celldm(5)=   0.000000  celldm(6)=   0.000000

     crystal axes: (cart. coord. in units of alat)
               a(1) = (   6.579727   0.000000   0.000000 )
               a(2) = (  -0.000775   5.961596   0.000000 )
               a(3) = (   0.000000   0.000000  25.155947 )

     reciprocal axes: (cart. coord. in units 2 pi/alat)
               b(1) = (  0.151982  0.000020  0.000000 )
               b(2) = (  0.000000  0.167740  0.000000 )
               b(3) = (  0.000000  0.000000  0.039752 )

     PseudoPot. # 1 for Ti read from file:
     /storage/coda1/p-amedford6/0/shared/rich_project_chbe-medford/medford-share/data/pseudos_module/espresso/nninc/pbe/van/Ti.UPF
     MD5 check sum: 8e4df49b7f0d34bbd5052bf3f5ea0213
     Pseudo is Ultrasoft, Zval = 12.0
     Generated by new atomic code, or converted to UPF format
     Using radial grid of  851 points,  6 beta functions with:
                l(1) =   0
                l(2) =   0
                l(3) =   1
                l(4) =   1
                l(5) =   2
                l(6) =   2
     Q(r) pseudized with  8 coefficients,  rinner =    1.000   1.000   1.000
                                                       1.000   1.000

     PseudoPot. # 2 for O  read from file:
     /storage/coda1/p-amedford6/0/shared/rich_project_chbe-medford/medford-share/data/pseudos_module/espresso/nninc/pbe/van/O.UPF
     MD5 check sum: 78c19812648e8988a0fe644b0f25305e
     Pseudo is Ultrasoft, Zval =  6.0
     Generated by new atomic code, or converted to UPF format
     Using radial grid of  737 points,  4 beta functions with:
                l(1) =   0
                l(2) =   0
                l(3) =   1
                l(4) =   1
     Q(r) pseudized with  8 coefficients,  rinner =    0.800   0.800   0.800

     PseudoPot. # 3 for N  read from file:
     /storage/coda1/p-amedford6/0/shared/rich_project_chbe-medford/medford-share/data/pseudos_module/espresso/nninc/pbe/van/N.UPF
     MD5 check sum: 90d10febe142ad51ac9d5be1deb811c4
     Pseudo is Ultrasoft, Zval =  5.0
     Generated by new atomic code, or converted to UPF format
     Using radial grid of  729 points,  4 beta functions with:
                l(1) =   0
                l(2) =   0
                l(3) =   1
                l(4) =   1
     Q(r) pseudized with  8 coefficients,  rinner =    0.800   0.800   0.800

     PseudoPot. # 4 for C  read from file:
     /storage/coda1/p-amedford6/0/shared/rich_project_chbe-medford/medford-share/data/pseudos_module/espresso/nninc/pbe/van/C.UPF
     MD5 check sum: 1a69bf6b8db32088f5b2163dbdb77a27
     Pseudo is Ultrasoft, Zval =  4.0
     Generated by new atomic code, or converted to UPF format
     Using radial grid of  721 points,  4 beta functions with:
                l(1) =   0
                l(2) =   0
                l(3) =   1
                l(4) =   1
     Q(r) pseudized with  8 coefficients,  rinner =    0.800   0.800   0.800

     PseudoPot. # 5 for H  read from file:
     /storage/coda1/p-amedford6/0/shared/rich_project_chbe-medford/medford-share/data/pseudos_module/espresso/nninc/pbe/van/H.UPF
     MD5 check sum: b5ee9d7bfd3a09ee7748110bda690ff7
     Pseudo is Ultrasoft, Zval =  1.0
     Generated by new atomic code, or converted to UPF format
     Using radial grid of  615 points,  1 beta functions with:
                l(1) =   0
     Q(r) pseudized with  8 coefficients,  rinner =    0.800

     atomic species   valence    mass     pseudopotential
        Ti1           12.00    47.86700     Ti( 1.00)
        O1             6.00    15.99900     O ( 1.00)
        N1             5.00    14.00700     N ( 1.00)
        C1             4.00    12.01100     C ( 1.00)
        H1             1.00     1.00800     H ( 1.00)

     No symmetry found

   Cartesian axes

     site n.     atom                  positions (alat units)
         1           Ti1 tau(   1) = (   0.0004258   2.9801865   6.0000000  )
         2           Ti1 tau(   2) = (   3.2906075   1.4906267   6.0002472  )
         3           O1  tau(   3) = (   0.0006271   0.0005054   7.9858123  )
         4           O1  tau(   4) = (   3.2906025   0.0005020   7.3038282  )
         5           O1  tau(   5) = (   4.5942328   1.4918067   9.2879030  )
         6           O1  tau(   6) = (   1.9868534   1.4903216   9.2879459  )
         7           Ti1 tau(   7) = (   3.2907910   2.8959150   9.1758416  )
         8           Ti1 tau(   8) = (   0.0015273   1.4827037   9.2680791  )
         9           O1  tau(   9) = (   3.3018735   5.9614316  11.2970789  )
        10           O1  tau(  10) = (   0.0116148   5.9584955  10.6183126  )
        11           O1  tau(  11) = (   1.3353665   1.4968727  12.6140821  )
        12           O1  tau(  12) = (   5.3123320   1.5002621  12.6324210  )
        13           Ti1 tau(  13) = (   6.4913169   2.9877414  12.7576577  )
        14           Ti1 tau(  14) = (   3.1819880   1.4874128  12.4666476  )
        15           O1  tau(  15) = (   0.0325390   5.9514364  14.5942808  )
        16           O1  tau(  16) = (   3.3157460   0.0104736  13.8786857  )
        17           O1  tau(  17) = (   4.5538541   1.5308062  16.0536203  )
        18           O1  tau(  18) = (   2.1012647   1.5271178  16.0466835  )
        19           Ti1 tau(  19) = (   3.3239613   3.0121693  15.6870930  )
        20           Ti1 tau(  20) = (   0.0188375   1.6096557  16.0875739  )
        21           O1  tau(  21) = (   3.2904802   0.0005063   4.7018136  )
        22           O1  tau(  22) = (   0.0443345   0.0604659  17.2041813  )
        23           O1  tau(  23) = (   1.3043587   1.4918075   6.0039043  )
        24           O1  tau(  24) = (   5.2767064   1.4903225   6.0039473  )
        25           Ti1 tau(  25) = (   0.0000382   5.9609847   6.0000000  )
        26           Ti1 tau(  26) = (   3.2902200   4.4714249   6.0002472  )
        27           O1  tau(  27) = (   0.0002396   2.9813036   7.9858123  )
        28           O1  tau(  28) = (   3.2902150   2.9813002   7.3038282  )
        29           O1  tau(  29) = (   4.5938453   4.4726049   9.2879030  )
        30           O1  tau(  30) = (   1.9864658   4.4711199   9.2879459  )
        31           Ti1 tau(  31) = (   3.2891106   5.8743827   9.1763621  )
        32           Ti1 tau(  32) = (   0.0006254   4.4649316   9.2693709  )
        33           O1  tau(  33) = (   3.3028429   2.9834257  11.2952420  )
        34           O1  tau(  34) = (   0.0092240   2.9805883  10.6323155  )
        35           O1  tau(  35) = (   1.3370139   4.4664586  12.6123119  )
        36           O1  tau(  36) = (   5.3107101   4.4655690  12.6333123  )
        37           Ti1 tau(  37) = (   6.5188704   0.0058144  12.7695920  )
        38           Ti1 tau(  38) = (   3.1805296   4.4670443  12.4671176  )
        39           O1  tau(  39) = (   0.0099197   2.9765079  14.6559069  )
        40           O1  tau(  40) = (   3.3143426   2.9928857  13.8797190  )
        41           O1  tau(  41) = (   4.5573730   4.5089470  16.0521860  )
        42           O1  tau(  42) = (   2.1018054   4.5121927  16.0508938  )
        43           Ti1 tau(  43) = (   3.3145791   0.0316975  15.6896801  )
        44           Ti1 tau(  44) = (   0.0207397   4.5876961  16.1385408  )
        45           O1  tau(  45) = (   3.2900926   2.9813045   4.7018136  )
        46           O1  tau(  46) = (   1.3039711   4.4726057   6.0039043  )
        47           O1  tau(  47) = (   5.2763189   4.4711207   6.0039473  )
        48           N1  tau(  48) = (   0.0936308   3.0233000  17.3257847  )
        49           C1  tau(  49) = (   0.4281149   3.0137428  18.7308649  )
        50           H1  tau(  50) = (   0.7292188   4.0033843  19.0862330  )
        51           H1  tau(  51) = (   6.1445545   2.6862439  19.3232575  )
        52           H1  tau(  52) = (   1.2401080   2.3040860  18.9232505  )

     number of k points=    10  Fermi-Dirac smearing, width (Ry)=  0.0073
                       cart. coord. in units 2pi/alat
        k(    1) = (   0.0000000   0.0000000   0.0000000), wk =   0.1250000
        k(    2) = (   0.0000000   0.0419351   0.0000000), wk =   0.2500000
        k(    3) = (   0.0000000  -0.0838702   0.0000000), wk =   0.1250000
        k(    4) = (   0.0379955   0.0000049   0.0000000), wk =   0.2500000
        k(    5) = (   0.0379955   0.0419400   0.0000000), wk =   0.2500000
        k(    6) = (   0.0379955  -0.0838652   0.0000000), wk =   0.2500000
        k(    7) = (   0.0379955  -0.0419301   0.0000000), wk =   0.2500000
        k(    8) = (  -0.0759910  -0.0000099   0.0000000), wk =   0.1250000
        k(    9) = (  -0.0759910   0.0419252   0.0000000), wk =   0.2500000
        k(   10) = (  -0.0759910  -0.0838800   0.0000000), wk =   0.1250000

     Initial potential from superposition of free atoms

     starting charge  373.99917, renormalised to  390.00000

     negative rho (up, down):  1.730E-02 0.000E+00

     %%%%%%%%%%%%%%%%%%%%%%%%%%%%%%%%%%%%%%%%%%%%%%%%%%%%%%%%%%%%%%%%%%%%%%%%
     %                                                                      %
     % You are using vdW-DF, which was implemented by the Thonhauser group. %
     % Please cite the following two papers that made this development      %
     % possible and the two reviews that describe the various versions:     %
     %                                                                      %
     %   T. Thonhauser et al., PRL 115, 136402 (2015).                      %
     %   T. Thonhauser et al., PRB 76, 125112 (2007).                       %
     %   K. Berland et al., Rep. Prog. Phys. 78, 066501 (2015).             %
     %   D.C. Langreth et al., J. Phys.: Condens. Matter 21, 084203 (2009). %
     %                                                                      %
     %                                                                      %
     % If you are calculating the stress with vdW-DF, please also cite:     %
     %                                                                      %
     %   R. Sabatini et al., J. Phys.: Condens. Matter 24, 424209 (2012).   %
     %                                                                      %
     %%%%%%%%%%%%%%%%%%%%%%%%%%%%%%%%%%%%%%%%%%%%%%%%%%%%%%%%%%%%%%%%%%%%%%%%

     Adding external electric field

     Computed dipole along edir(3) :
        Dipole               -4.6264 Ry au,        -11.7591 Debye
        Dipole field         -0.0087 Ry au,

        Potential amp.        0.8093 Ry
        Total length         46.3494 bohr

     Starting wfcs are  295 atomic wfcs
  @ DRIVER MODE: Message from server: STATUS
  @ DRIVER MODE: Message from server: POSDATA
  @ DRIVER MODE: Reading and sharing cell
  @ DRIVER MODE: Reading and sharing positions
  @ DRIVER MODE: Received positions

     Self-consistent Calculation

     iteration #  1     ecut=    29.40 Ry     beta= 0.05
     Davidson diagonalization with overlap
     c_bands:  3 eigenvalues not converged
     c_bands:  2 eigenvalues not converged
     c_bands:  2 eigenvalues not converged
     c_bands:  4 eigenvalues not converged
     c_bands:  4 eigenvalues not converged
     c_bands:  2 eigenvalues not converged
     c_bands:  2 eigenvalues not converged
     c_bands:  3 eigenvalues not converged
     ethr =  1.00E-05,  avg # of iterations = 19.7

[...]

     total energy              =   -2877.63901287 Ry
     estimated scf accuracy    <     478.93460309 Ry

     iteration #  2     ecut=    29.40 Ry     beta= 0.05
     Davidson diagonalization with overlap
     ethr =  1.00E-02,  avg # of iterations = 13.3

[...]

     iteration # 30     ecut=    29.40 Ry     beta= 0.05
     Davidson diagonalization with overlap
     c_bands:  1 eigenvalues not converged
     ethr =  9.38E-08,  avg # of iterations =  8.5

[...]

     total energy              =   -2919.13183633 Ry
     estimated scf accuracy    <       0.00000007 Ry

     iteration # 61     ecut=    29.40 Ry     beta= 0.05
     Davidson diagonalization with overlap
     ethr =  1.92E-11,  avg # of iterations =  1.0

     negative rho (up, down):  1.787E-02 0.000E+00

     Adding external electric field

     Computed dipole along edir(3) :
        Dipole                0.2599 Ry au,          0.6606 Debye
        Dipole field          0.0005 Ry au,

        Potential amp.       -0.0455 Ry
        Total length         46.3494 bohr

     End of self-consistent calculation

          k = 0.0000 0.0000 0.0000 ( 18029 PWs)   bands (ev):

   -56.8871 -56.8535 -56.0093 -55.9975 -55.9743 -55.9646 -55.8624 -55.8237
   -55.6463 -55.6110 -55.5513 -55.5482 -55.5174 -55.4388 -54.9668 -54.9199
   -33.3150 -33.1619 -33.1337 -33.0631 -32.9720 -32.9410 -32.4802 -32.4739
   -32.4030 -32.2934 -32.2470 -32.2230 -32.2046 -32.1833 -32.1497 -32.1454
   -32.1415 -32.1384 -32.1128 -32.1106 -32.0987 -32.0694 -32.0431 -32.0293
   -32.0162 -31.9966 -31.9898 -31.9664 -31.9437 -31.8899 -31.8776 -31.8658
   -31.7897 -31.7850 -31.7624 -31.7233 -31.7129 -31.6789 -31.6682 -31.6432
   -31.6246 -31.5680 -31.4969 -31.2176 -31.1919 -31.1711 -31.1410 -31.0256
   -17.0513 -16.6161 -16.3856 -16.2497 -16.1825 -16.1278 -16.0840 -15.9601
   -15.8868 -15.8820 -15.8416 -15.8094 -15.7387 -15.6004 -15.5018 -15.4445
   -15.4009 -15.2818 -15.2231 -15.1895 -15.1838 -15.1446 -15.1300 -14.9326
   -14.9060 -14.8181 -14.7988 -14.6713 -14.4394 -14.0498 -13.9397 -13.0859
    -7.8086  -4.6169  -4.1124  -3.8712  -3.7884  -3.6801  -3.6675  -3.5869
    -3.4680  -3.4212  -3.3747  -3.2585  -3.2551  -3.1105  -3.1087  -3.0628
    -3.0603  -3.0247  -2.9684  -2.9413  -2.9093  -2.8930  -2.8852  -2.7340
    -2.6323  -2.5654  -2.5383  -2.5254  -2.4950  -2.4229  -2.3933  -2.3838
    -2.3800  -2.2747  -2.1295  -2.1281  -2.0959  -2.0540  -2.0516  -2.0127
    -2.0009  -1.8756  -1.7851  -1.6755  -1.6664  -1.6290  -1.5673  -1.5607
    -1.4641  -1.3886  -1.3178  -1.3006  -1.1911  -1.1469  -1.1239  -1.0345
    -0.9728  -0.9352  -0.9125  -0.8960  -0.7930  -0.7766  -0.7690  -0.6758
    -0.6638  -0.6201  -0.5270  -0.5039  -0.4987  -0.4161  -0.4091  -0.3041
    -0.2758  -0.2311  -0.1983  -0.0934  -0.0729   0.0254   0.0623   0.0812
     0.2024   0.2197   0.2804   0.3527   0.4181   0.4349   0.4704   0.5009
     0.5172   0.5952   0.7074   0.7146   0.8182   0.8513   1.0229   1.0618
     1.3468   1.3549   2.0465   2.3875   2.5472   2.8455   3.0345   3.1478
     3.3624   3.3779   3.3835   3.5548   3.6069

[...]

          k = 0.0380-0.0419 0.0000 ( 17876 PWs)   bands (ev):

[...]

          k =-0.0760-0.0000 0.0000 ( 17886 PWs)   bands (ev):

[...]

          k =-0.0760-0.0839 0.0000 ( 17948 PWs)   bands (ev):

   -56.8704 -56.8700 -55.9941 -55.9883 -55.9818 -55.9812 -55.8508 -55.8350
   -55.6315 -55.6256 -55.5454 -55.5344 -55.5343 -55.4416 -54.9588 -54.9278
   -33.1477 -33.1474 -33.1319 -33.1317 -33.0161 -33.0159 -32.3100 -32.3077
   -32.2984 -32.2918 -32.2387 -32.2354 -32.1968 -32.1928 -32.1916 -32.1876
   -32.1836 -32.1807 -32.1786 -32.1770 -32.1012 -32.0887 -32.0500 -32.0378
   -31.9820 -31.9734 -31.9138 -31.9079 -31.8788 -31.8787 -31.8735 -31.8301
   -31.8285 -31.7983 -31.7615 -31.7599 -31.7598 -31.7208 -31.7208 -31.7190
   -31.6844 -31.6449 -31.3617 -31.2842 -31.1886 -31.1613 -31.1496 -31.1079
   -16.4000 -16.3980 -16.3652 -16.3649 -16.0961 -16.0926 -16.0463 -16.0429
   -15.8714 -15.8643 -15.6594 -15.6505 -15.6434 -15.6406 -15.5128 -15.5072
   -15.4438 -15.4296 -15.3421 -15.3395 -15.2763 -15.2702 -15.2320 -15.2122
   -14.9017 -14.8841 -14.7721 -14.7467 -14.5830 -14.0432 -14.0432 -13.1024
    -7.7994  -3.4985  -3.4978  -3.4343  -3.4333  -3.3088  -3.3030  -3.2297
    -3.2290  -3.1275  -3.1238  -3.0886  -2.9986  -2.9847  -2.9816  -2.9708
    -2.9664  -2.8299  -2.8276  -2.8162  -2.8003  -2.7442  -2.7420  -2.7283
    -2.6522  -2.6378  -2.6039  -2.5656  -2.4570  -2.4435  -2.4302  -2.3988
    -2.3425  -2.3287  -2.3159  -2.2742  -2.2514  -2.1634  -2.1056  -2.0548
    -1.9388  -1.9357  -1.9271  -1.9116  -1.7604  -1.7187  -1.6912  -1.6839
    -1.6759  -1.6325  -1.5337  -1.5271  -1.3925  -1.3919  -1.3121  -1.2331
    -1.2154  -1.1857  -1.0555  -1.0152  -0.9785  -0.9703  -0.9428  -0.9233
    -0.8998  -0.8624  -0.7210  -0.7079  -0.6709  -0.6359  -0.6309  -0.5758
    -0.5173  -0.4375  -0.3609  -0.3599  -0.3060  -0.2330  -0.1728  -0.0914
    -0.0778  -0.0732   0.2070   0.2866   0.3787   0.4552   0.5236   0.5773
     0.6119   0.6768   0.7155   0.8487   0.8533   0.8710   0.8714   0.9335
     0.9350   1.3381   1.9360   2.9605   2.9608   3.0277   3.0281   3.3516
     3.3575   3.4657   3.4752   3.5863   3.5883

     the Fermi energy is     2.2264 ev

!    total energy              =   -2919.13186967 Ry
     estimated scf accuracy    <       0.00000007 Ry
     smearing contrib. (-TS)   =      -0.00481381 Ry
     internal energy E=F+TS    =   -2919.12705586 Ry

     The total energy is F=E-TS. E is the sum of the following terms:
     one-electron contribution =  -24569.89066503 Ry
     hartree contribution      =   12369.18095001 Ry
     xc contribution           =    -479.90136382 Ry
     ewald contribution        =    9761.48389552 Ry
     electric field correction =       0.00012746 Ry

     convergence has been achieved in  61 iterations

     Forces acting on atoms (cartesian axes, Ry/au):

     atom    1 type  1   force =     0.00005567   -0.00050523    0.12427713
     atom    2 type  1   force =    -0.00009054   -0.00055311   -0.16064763
     atom    3 type  2   force =     0.00022097   -0.00024098   -0.06810219
     atom    4 type  2   force =    -0.00000227   -0.00032135    0.02758733
     atom    5 type  2   force =    -0.01621367    0.00174785   -0.00936403
     atom    6 type  2   force =     0.01826713    0.00228517   -0.00891785
     atom    7 type  1   force =     0.00112392   -0.00382080    0.02203029
     atom    8 type  1   force =    -0.00061736   -0.00325205    0.11123676
     atom    9 type  2   force =    -0.00010423    0.00138847   -0.00035197
     atom   10 type  2   force =    -0.00190892    0.00178600   -0.07347774
     atom   11 type  2   force =     0.00082313    0.00006108    0.00005598
     atom   12 type  2   force =    -0.00065468    0.00020359    0.00015522
     atom   13 type  1   force =     0.00004442    0.00022418   -0.00039033
     atom   14 type  1   force =    -0.00101089   -0.00024433   -0.00049361
     atom   15 type  2   force =    -0.00000522   -0.00028102    0.00005174
     atom   16 type  2   force =    -0.00005985    0.00106973    0.00077570
     atom   17 type  2   force =     0.00006349    0.00012832   -0.00045426
     atom   18 type  2   force =     0.00002793    0.00022174   -0.00000600
     atom   19 type  1   force =     0.00017335    0.00005238   -0.00079620
     atom   20 type  1   force =     0.00025402   -0.00082740    0.00010270
     atom   21 type  2   force =     0.00003966   -0.00006670    0.09976100
     atom   22 type  2   force =     0.00016976   -0.00049615   -0.00002388
     atom   23 type  2   force =    -0.07920104   -0.00005388   -0.03245065
     atom   24 type  2   force =     0.07906733    0.00038165   -0.03247450
     atom   25 type  1   force =     0.00004373   -0.00050168    0.12372155
     atom   26 type  1   force =    -0.00009871   -0.00050679   -0.16066453
     atom   27 type  2   force =     0.00032537   -0.00048074   -0.06715673
     atom   28 type  2   force =     0.00002681   -0.00014322    0.02727861
     atom   29 type  2   force =    -0.01661272    0.00134879   -0.00956611
     atom   30 type  2   force =     0.01855401    0.00165516   -0.00913615
     atom   31 type  1   force =     0.00110276   -0.00129547    0.02158609
     atom   32 type  1   force =    -0.00051979    0.00069510    0.11188571
     atom   33 type  2   force =    -0.00033869   -0.00115308    0.00015027
     atom   34 type  2   force =    -0.00156668    0.00135611   -0.07241486
     atom   35 type  2   force =    -0.00177928   -0.00019822    0.00027227
     atom   36 type  2   force =     0.00068954   -0.00042146   -0.00004543
     atom   37 type  1   force =     0.00071569   -0.00033356    0.00072185
     atom   38 type  1   force =    -0.00016224    0.00052311    0.00019131
     atom   39 type  2   force =     0.00019485   -0.00030636   -0.00038250
     atom   40 type  2   force =     0.00010735   -0.00017435    0.00036404
     atom   41 type  2   force =    -0.00000514    0.00046114   -0.00013366
     atom   42 type  2   force =     0.00026671    0.00053085   -0.00002033
     atom   43 type  1   force =     0.00040534    0.00014714   -0.00041553
     atom   44 type  1   force =    -0.00020951   -0.00001442    0.00007489
     atom   45 type  2   force =     0.00002406   -0.00007077    0.09977225
     atom   46 type  2   force =    -0.07921022   -0.00000601   -0.03245056
     atom   47 type  2   force =     0.07907854    0.00042367   -0.03247320
     atom   48 type  3   force =    -0.00105738   -0.00028838   -0.00147056
     atom   49 type  4   force =    -0.00147282    0.00068937   -0.00082690
     atom   50 type  5   force =    -0.00043769   -0.00011692    0.00023972
     atom   51 type  5   force =     0.00063358   -0.00022493    0.00033902
     atom   52 type  5   force =     0.00084042   -0.00048124    0.00247647

     Total force =     0.424656     Total SCF correction =     0.000510
  @ DRIVER MODE: Message from server: STATUS
  @ DRIVER MODE: Message from server: GETFORCE
  @ DRIVER MODE: Returning v,forces,stress,ensemble

     Writing output data file ./calc.save/
  @ DRIVER MODE: Message from server: EXIT
  @ DRIVE MODE: Exiting

     General routines

     Parallel routines

   This run was terminated on:   5:28: 5   9Sep2021

   JOB DONE.