     Program PWSCF v.6.7GPU starts on 21Sep2021 at 23:25: 2

     R & G space division:  proc/nbgrp/npool/nimage =      10
     Reading input from /storage/home/hcoda1/3/ntian30/research/carbon/CxH_vib/CH_calc/ads_slab/CHNHNHH2O_b/out_0004/pw.inp
Warning: card &CELL ignored
Warning: card   CELL_DYNAMICS='IPI', ignored
Warning: card / ignored

     Current dimensions of program PWSCF are:
     Max number of different atomic species (ntypx) = 10
     Max number of k-points (npk) =  40000
     Max angular momentum in pseudopotentials (lmaxx) =  3
     Presently no symmetry can be used with electric field

     Message from routine cell_base_init:
     DEPRECATED: use true lattice parameter, not A to a.u. conversion factor

     IMPORTANT: XC functional enforced from input :
     Exchange-correlation= BEEF-VDW
                           (   1   4  43  14   2   0   0)
     Any further DFT definition will be discarded
     Please, verify this is what you really want

  @ DRIVER MODE: Connecting to
 qe_1139763_2927424.sched-torque.pace.gatech.edut0udzark_scratch
  using UNIX socket
  @ DRIVER MODE: Message from server: STATUS
  @ DRIVER MODE: Message from server: INIT
  @ DRIVER MODE: Receiving replica           0          -1
  @ DRIVER MODE: Receiving encoded integer          25
  @ DRIVER MODE:  SCF:  T  FORCE:  T  STRESS:  F  VC:  F  ENSEMBLE:  F
  @ DRIVER MODE:  SCF:  T  FORCE:  T  STRESS:  F  VC:  F  ENSEMBLE:  F

     Using Slab Decomposition

     bravais-lattice index     =            0
     lattice parameter (alat)  =       1.8897  a.u.
     unit-cell volume          =    6658.9804 (a.u.)^3
     number of atoms/cell      =           56
     number of atomic types    =            5
     number of electrons       =       403.00
     number of Kohn-Sham states=          211
     kinetic-energy cutoff     =      29.3995  Ry
     charge density cutoff     =     293.9946  Ry
     scf convergence threshold =      7.3E-08
     mixing beta               =       0.0500
     number of iterations used =            8  plain     mixing
     Exchange-correlation= BEEF-VDW
                           (   1   4  43  14   2   0   0)

     celldm(1)=   1.889726  celldm(2)=   0.000000  celldm(3)=   0.000000
     celldm(4)=   0.000000  celldm(5)=   0.000000  celldm(6)=   0.000000

     crystal axes: (cart. coord. in units of alat)
               a(1) = (   6.579727   0.000000   0.000000 )
               a(2) = (  -0.000775   5.961596   0.000000 )
               a(3) = (   0.000000   0.000000  25.155947 )

     reciprocal axes: (cart. coord. in units 2 pi/alat)
               b(1) = (  0.151982  0.000020  0.000000 )
               b(2) = (  0.000000  0.167740  0.000000 )
               b(3) = (  0.000000  0.000000  0.039752 )

     PseudoPot. # 1 for Ti read from file:
     /storage/coda1/p-amedford6/0/shared/rich_project_chbe-medford/medford-share/data/pseudos_module/espresso/nninc/pbe/van/Ti.UPF
     MD5 check sum: 8e4df49b7f0d34bbd5052bf3f5ea0213
     Pseudo is Ultrasoft, Zval = 12.0
     Generated by new atomic code, or converted to UPF format
     Using radial grid of  851 points,  6 beta functions with:
                l(1) =   0
                l(2) =   0
                l(3) =   1
                l(4) =   1
                l(5) =   2
                l(6) =   2
     Q(r) pseudized with  8 coefficients,  rinner =    1.000   1.000   1.000
                                                       1.000   1.000

     PseudoPot. # 2 for O  read from file:
     /storage/coda1/p-amedford6/0/shared/rich_project_chbe-medford/medford-share/data/pseudos_module/espresso/nninc/pbe/van/O.UPF
     MD5 check sum: 78c19812648e8988a0fe644b0f25305e
     Pseudo is Ultrasoft, Zval =  6.0
     Generated by new atomic code, or converted to UPF format
     Using radial grid of  737 points,  4 beta functions with:
                l(1) =   0
                l(2) =   0
                l(3) =   1
                l(4) =   1
     Q(r) pseudized with  8 coefficients,  rinner =    0.800   0.800   0.800

     PseudoPot. # 3 for N  read from file:
     /storage/coda1/p-amedford6/0/shared/rich_project_chbe-medford/medford-share/data/pseudos_module/espresso/nninc/pbe/van/N.UPF
     MD5 check sum: 90d10febe142ad51ac9d5be1deb811c4
     Pseudo is Ultrasoft, Zval =  5.0
     Generated by new atomic code, or converted to UPF format
     Using radial grid of  729 points,  4 beta functions with:
                l(1) =   0
                l(2) =   0
                l(3) =   1
                l(4) =   1
     Q(r) pseudized with  8 coefficients,  rinner =    0.800   0.800   0.800

     PseudoPot. # 4 for C  read from file:
     /storage/coda1/p-amedford6/0/shared/rich_project_chbe-medford/medford-share/data/pseudos_module/espresso/nninc/pbe/van/C.UPF
     MD5 check sum: 1a69bf6b8db32088f5b2163dbdb77a27
     Pseudo is Ultrasoft, Zval =  4.0
     Generated by new atomic code, or converted to UPF format
     Using radial grid of  721 points,  4 beta functions with:
                l(1) =   0
                l(2) =   0
                l(3) =   1
                l(4) =   1
     Q(r) pseudized with  8 coefficients,  rinner =    0.800   0.800   0.800

     PseudoPot. # 5 for H  read from file:
     /storage/coda1/p-amedford6/0/shared/rich_project_chbe-medford/medford-share/data/pseudos_module/espresso/nninc/pbe/van/H.UPF
     MD5 check sum: b5ee9d7bfd3a09ee7748110bda690ff7
     Pseudo is Ultrasoft, Zval =  1.0
     Generated by new atomic code, or converted to UPF format
     Using radial grid of  615 points,  1 beta functions with:
                l(1) =   0
     Q(r) pseudized with  8 coefficients,  rinner =    0.800

     atomic species   valence    mass     pseudopotential
        Ti1           12.00    47.86700     Ti( 1.00)
        O1             6.00    15.99900     O ( 1.00)
        N1             5.00    14.00700     N ( 1.00)
        C1             4.00    12.01100     C ( 1.00)
        H1             1.00     1.00800     H ( 1.00)

     No symmetry found

   Cartesian axes

     site n.     atom                  positions (alat units)
         1           Ti1 tau(   1) = (   0.0004258   2.9801865   6.0000000  )
         2           Ti1 tau(   2) = (   3.2906075   1.4906267   6.0002472  )
         3           O1  tau(   3) = (   0.0006271   0.0005054   7.9858123  )
         4           O1  tau(   4) = (   3.2906025   0.0005020   7.3038282  )
         5           O1  tau(   5) = (   4.5942328   1.4918067   9.2879030  )
         6           O1  tau(   6) = (   1.9868534   1.4903216   9.2879459  )
         7           Ti1 tau(   7) = (   3.2907910   2.8959150   9.1758416  )
         8           Ti1 tau(   8) = (   0.0015273   1.4827037   9.2680791  )
         9           O1  tau(   9) = (   3.2780774   5.9605562  11.3537357  )
        10           O1  tau(  10) = (   0.0116148   5.9584955  10.6183126  )
        11           O1  tau(  11) = (   1.2922713   1.4781662  12.6511241  )
        12           O1  tau(  12) = (   5.2965393   1.5043564  12.6031353  )
        13           Ti1 tau(  13) = (   6.5273184   3.0207086  12.5807821  )
        14           Ti1 tau(  14) = (   3.2344070   1.4559942  12.5004267  )
        15           O1  tau(  15) = (   6.4759410   0.0295824  14.6525783  )
        16           O1  tau(  16) = (   3.3604338   0.0238249  13.9383540  )
        17           O1  tau(  17) = (   4.5324113   1.5808541  16.1066768  )
        18           O1  tau(  18) = (   1.9684897   1.4712893  15.8817925  )
        19           Ti1 tau(  19) = (   3.2566353   3.0739815  15.8599551  )
        20           Ti1 tau(  20) = (   6.5466614   1.5318677  15.7800735  )
        21           O1  tau(  21) = (   3.2904802   0.0005063   4.7018136  )
        22           O1  tau(  22) = (   6.5744325   0.0155309  17.2227980  )
        23           O1  tau(  23) = (   1.3043587   1.4918075   6.0039043  )
        24           O1  tau(  24) = (   5.2767064   1.4903225   6.0039473  )
        25           Ti1 tau(  25) = (   0.0000382   5.9609847   6.0000000  )
        26           Ti1 tau(  26) = (   3.2902200   4.4714249   6.0002472  )
        27           O1  tau(  27) = (   0.0002396   2.9813036   7.9858123  )
        28           O1  tau(  28) = (   3.2902150   2.9813002   7.3038282  )
        29           O1  tau(  29) = (   4.5938453   4.4726049   9.2879030  )
        30           O1  tau(  30) = (   1.9864658   4.4711199   9.2879459  )
        31           Ti1 tau(  31) = (   3.2891106   5.8743827   9.1763621  )
        32           Ti1 tau(  32) = (   0.0006254   4.4649316   9.2693709  )
        33           O1  tau(  33) = (   3.2727763   2.9788165  11.3438337  )
        34           O1  tau(  34) = (   0.0092240   2.9805883  10.6323155  )
        35           O1  tau(  35) = (   1.2865780   4.4896361  12.6556599  )
        36           O1  tau(  36) = (   5.2967437   4.4749066  12.6066920  )
        37           Ti1 tau(  37) = (   6.5467059   0.0356701  12.5108493  )
        38           Ti1 tau(  38) = (   3.2305653   4.4019604  12.5605372  )
        39           O1  tau(  39) = (   6.5199767   2.9846217  14.6905747  )
        40           O1  tau(  40) = (   3.2851694   3.0254550  13.9321539  )
        41           O1  tau(  41) = (   4.5310495   4.4602642  16.1636806  )
        42           O1  tau(  42) = (   1.9842988   4.5744318  15.9411167  )
        43           Ti1 tau(  43) = (   3.2691225   0.1036042  15.7405456  )
        44           Ti1 tau(  44) = (   6.5697781   4.6877429  16.0360384  )
        45           O1  tau(  45) = (   3.2900926   2.9813045   4.7018136  )
        46           O1  tau(  46) = (   1.3039711   4.4726057   6.0039043  )
        47           O1  tau(  47) = (   5.2763189   4.4711207   6.0039473  )
        48           N1  tau(  48) = (   1.2792381   2.8678196  18.3696018  )
        49           N1  tau(  49) = (   0.1888888   2.9646215  17.5057353  )
        50           C1  tau(  50) = (   2.5352320   2.9081513  18.0382144  )
        51           H1  tau(  51) = (   3.1442446   2.7411670  18.9317345  )
        52           H1  tau(  52) = (   1.0014291   2.6635404  19.3302151  )
        53           H1  tau(  53) = (   5.9397212   2.8571719  18.0851170  )
        54           O1  tau(  54) = (   3.2630597   0.0341043  18.2348460  )
        55           H1  tau(  55) = (   4.0455299   5.4198958  18.2485053  )
        56           H1  tau(  56) = (   2.4923979   5.4091459  18.3156537  )

     number of k points=    10  Fermi-Dirac smearing, width (Ry)=  0.0073
                       cart. coord. in units 2pi/alat
        k(    1) = (   0.0000000   0.0000000   0.0000000), wk =   0.1250000
        k(    2) = (   0.0000000   0.0419351   0.0000000), wk =   0.2500000
        k(    3) = (   0.0000000  -0.0838702   0.0000000), wk =   0.1250000
        k(    4) = (   0.0379955   0.0000049   0.0000000), wk =   0.2500000
        k(    5) = (   0.0379955   0.0419400   0.0000000), wk =   0.2500000
        k(    6) = (   0.0379955  -0.0838652   0.0000000), wk =   0.2500000
        k(    7) = (   0.0379955  -0.0419301   0.0000000), wk =   0.2500000
        k(    8) = (  -0.0759910  -0.0000099   0.0000000), wk =   0.1250000
        k(    9) = (  -0.0759910   0.0419252   0.0000000), wk =   0.2500000
        k(   10) = (  -0.0759910  -0.0838800   0.0000000), wk =   0.1250000

     Initial potential from superposition of free atoms

     starting charge  386.99914, renormalised to  403.00000

     negative rho (up, down):  1.739E-02 0.000E+00

     %%%%%%%%%%%%%%%%%%%%%%%%%%%%%%%%%%%%%%%%%%%%%%%%%%%%%%%%%%%%%%%%%%%%%%%%
     %                                                                      %
     % You are using vdW-DF, which was implemented by the Thonhauser group. %
     % Please cite the following two papers that made this development      %
     % possible and the two reviews that describe the various versions:     %
     %                                                                      %
     %   T. Thonhauser et al., PRL 115, 136402 (2015).                      %
     %   T. Thonhauser et al., PRB 76, 125112 (2007).                       %
     %   K. Berland et al., Rep. Prog. Phys. 78, 066501 (2015).             %
     %   D.C. Langreth et al., J. Phys.: Condens. Matter 21, 084203 (2009). %
     %                                                                      %
     %                                                                      %
     % If you are calculating the stress with vdW-DF, please also cite:     %
     %                                                                      %
     %   R. Sabatini et al., J. Phys.: Condens. Matter 24, 424209 (2012).   %
     %                                                                      %
     %%%%%%%%%%%%%%%%%%%%%%%%%%%%%%%%%%%%%%%%%%%%%%%%%%%%%%%%%%%%%%%%%%%%%%%%

     Adding external electric field

     Computed dipole along edir(3) :
        Dipole              -12.3463 Ry au,        -31.3811 Debye
        Dipole field         -0.0233 Ry au,

        Potential amp.        2.1598 Ry
        Total length         46.3494 bohr

     Starting wfcs are  305 atomic wfcs
  @ DRIVER MODE: Message from server: STATUS
  @ DRIVER MODE: Message from server: POSDATA
  @ DRIVER MODE: Reading and sharing cell
  @ DRIVER MODE: Reading and sharing positions
  @ DRIVER MODE: Received positions

     Self-consistent Calculation

     iteration #  1     ecut=    29.40 Ry     beta= 0.05
     Davidson diagonalization with overlap
     c_bands:  5 eigenvalues not converged
     c_bands:  3 eigenvalues not converged
     c_bands:  3 eigenvalues not converged
     c_bands:  1 eigenvalues not converged
     c_bands:  2 eigenvalues not converged
     c_bands:  2 eigenvalues not converged
     c_bands:  5 eigenvalues not converged
     c_bands:  2 eigenvalues not converged
     c_bands:  4 eigenvalues not converged
     ethr =  1.00E-05,  avg # of iterations = 29.3

[...]

     total energy              =   -2358.72952704 Ry
     estimated scf accuracy    <    6971.29221125 Ry

     iteration #  2     ecut=    29.40 Ry     beta= 0.05
     Davidson diagonalization with overlap
     ethr =  1.00E-02,  avg # of iterations = 28.4

[...]

     iteration # 88     ecut=    29.40 Ry     beta= 0.05
     Davidson diagonalization with overlap
     c_bands:  1 eigenvalues not converged
     ethr =  4.76E-11,  avg # of iterations = 14.9

[...]

     total energy              =   -2973.94007324 Ry
     estimated scf accuracy    <       0.00000011 Ry

     iteration # 90     ecut=    29.40 Ry     beta= 0.05
     Davidson diagonalization with overlap
     ethr =  2.75E-11,  avg # of iterations = 10.8

     negative rho (up, down):  1.725E-02 0.000E+00

     Adding external electric field

     Computed dipole along edir(3) :
        Dipole                1.3986 Ry au,          3.5548 Debye
        Dipole field          0.0026 Ry au,

        Potential amp.       -0.2447 Ry
        Total length         46.3494 bohr

     End of self-consistent calculation

          k = 0.0000 0.0000 0.0000 ( 18029 PWs)   bands (ev):

   -55.3199 -55.2858 -55.2103 -55.1862 -55.1673 -55.1559 -55.1407 -55.1186
   -55.1068 -55.1042 -55.0978 -55.0632 -54.9928 -54.8341 -54.3003 -54.2663
   -31.8042 -31.7313 -31.6571 -31.6503 -31.6405 -31.6118 -31.5875 -31.5650
   -31.5202 -31.5017 -31.4723 -31.4641 -31.4558 -31.4411 -31.4260 -31.4217
   -31.3985 -31.3804 -31.3772 -31.3651 -31.3354 -31.3333 -31.3292 -31.3260
   -31.3231 -31.3195 -31.3154 -31.2972 -31.2894 -31.2794 -31.2726 -31.2721
   -31.2618 -31.2605 -31.2523 -31.2485 -31.2409 -31.2153 -31.2104 -31.0904
   -31.0755 -31.0497 -30.7071 -30.6190 -30.5966 -30.5241 -30.4376 -30.3264
   -18.8786 -18.6573 -15.9782 -15.7944 -15.6134 -15.4743 -15.3923 -15.1608
   -15.1024 -15.0639 -14.9827 -14.9602 -14.8594 -14.8406 -14.8391 -14.8207
   -14.8178 -14.7627 -14.7476 -14.7432 -14.6946 -14.6877 -14.6625 -14.6470
   -14.5946 -14.5158 -14.5070 -14.4608 -14.4155 -14.3690 -14.0231 -13.4184
   -12.8009 -12.6844  -8.7881  -7.2764  -6.6176  -4.3299  -3.7952  -3.3614
    -3.2851  -3.2496  -3.2247  -3.0887  -2.9722  -2.8677  -2.7550  -2.6717
    -2.5851  -2.4806  -2.4241  -2.3784  -2.3177  -2.2580  -2.2318  -2.1460
    -2.1265  -2.1067  -2.0850  -2.0583  -2.0289  -1.9921  -1.8693  -1.8586
    -1.7765  -1.7204  -1.6814  -1.6637  -1.6395  -1.6342  -1.6016  -1.5814
    -1.5726  -1.5611  -1.5596  -1.5243  -1.3853  -1.3612  -1.3327  -1.3104
    -1.1638  -1.0264  -0.9375  -0.9349  -0.8255  -0.7607  -0.7576  -0.7192
    -0.7035  -0.6012  -0.5157  -0.4792  -0.4545  -0.3748  -0.3176  -0.2633
    -0.2115  -0.1756  -0.1092  -0.0855  -0.0689  -0.0520   0.0169   0.0796
     0.1406   0.2261   0.2695   0.2939   0.3848   0.3990   0.4223   0.4869
     0.5187   0.5638   0.5991   0.6284   0.6519   0.6822   0.7076   0.7508
     0.7890   0.9145   0.9326   0.9614   0.9824   1.1568   1.2063   1.3104
     1.3396   1.4404   1.4834   1.6626   1.7238   1.8030   1.9157   2.2938
     2.3396   3.7893   3.9007   3.9348   3.9598   3.9990   4.0504   4.2570
     4.3301   4.3713   4.4313

[...]

          k = 0.0380-0.0419 0.0000 ( 17876 PWs)   bands (ev):

[...]

          k =-0.0760-0.0000 0.0000 ( 17886 PWs)   bands (ev):

[...]

          k =-0.0760-0.0839 0.0000 ( 17948 PWs)   bands (ev):

   -55.3030 -55.3026 -55.2008 -55.1828 -55.1760 -55.1444 -55.1305 -55.1238
   -55.1230 -55.1078 -55.0846 -55.0766 -54.9911 -54.8357 -54.2834 -54.2830
   -31.6195 -31.6194 -31.5974 -31.5971 -31.5655 -31.5337 -31.5027 -31.4901
   -31.4831 -31.4678 -31.4492 -31.4439 -31.4400 -31.4305 -31.4256 -31.4241
   -31.4224 -31.4222 -31.4169 -31.4011 -31.3904 -31.3761 -31.3653 -31.3631
   -31.3581 -31.3536 -31.3445 -31.3319 -31.3261 -31.3246 -31.3094 -31.3002
   -31.2970 -31.2962 -31.2945 -31.2918 -31.2610 -31.2342 -31.2200 -31.1465
   -31.0928 -31.0785 -30.6095 -30.6092 -30.5201 -30.5198 -30.4811 -30.4807
   -18.8676 -18.6639 -15.3556 -15.3206 -15.2824 -15.2553 -15.2392 -15.1183
   -15.1046 -15.0690 -15.0275 -15.0142 -14.9839 -14.9553 -14.9065 -14.8979
   -14.8636 -14.8441 -14.8049 -14.7785 -14.7592 -14.7548 -14.7380 -14.7165
   -14.6728 -14.6510 -14.6385 -14.6342 -14.5824 -14.4881 -14.2084 -13.4410
   -12.7862 -12.7862  -8.7837  -7.2020  -6.6187  -4.5377  -3.5794  -2.8667
    -2.6678  -2.6312  -2.5789  -2.4884  -2.4413  -2.3195  -2.3130  -2.2902
    -2.2449  -2.2320  -2.1913  -2.1510  -2.1450  -2.1171  -2.1047  -2.0601
    -2.0488  -2.0458  -2.0315  -1.9977  -1.9922  -1.9717  -1.9476  -1.9444
    -1.9343  -1.9179  -1.8849  -1.8778  -1.8507  -1.8315  -1.6806  -1.6068
    -1.5634  -1.4859  -1.4628  -1.4461  -1.4270  -1.3923  -1.3721  -1.3464
    -1.3181  -1.1722  -1.0314  -0.9969  -0.9720  -0.8734  -0.8584  -0.8391
    -0.7916  -0.7504  -0.7153  -0.6568  -0.6477  -0.6019  -0.5806  -0.4608
    -0.4232  -0.3239  -0.2884  -0.2867  -0.2690  -0.2543  -0.2373  -0.2114
    -0.1615  -0.0905  -0.0750  -0.0263  -0.0025   0.0000   0.0132   0.1590
     0.2299   0.2501   0.3530   0.3828   0.5576   0.7215   0.7335   0.8013
     0.8643   0.9192   0.9533   0.9931   1.0034   1.0695   1.0939   1.1988
     1.2086   1.2575   1.2633   1.3406   1.3539   2.0875   2.0892   2.1595
     2.1597   4.1531   4.1692   4.1972   4.2602   4.3037   4.3153   4.3528
     4.3564   4.4593   4.4770

     the Fermi energy is     3.8075 ev

!    total energy              =   -2973.94007892 Ry
     estimated scf accuracy    <       0.00000004 Ry
     smearing contrib. (-TS)   =      -0.02072116 Ry
     internal energy E=F+TS    =   -2973.91935776 Ry

     The total energy is F=E-TS. E is the sum of the following terms:
     one-electron contribution =  -24338.99238473 Ry
     hartree contribution      =   12267.20526246 Ry
     xc contribution           =    -494.11735733 Ry
     ewald contribution        =    9591.98143072 Ry
     electric field correction =       0.00369112 Ry

     convergence has been achieved in  90 iterations

     Forces acting on atoms (cartesian axes, Ry/au):

     atom    1 type  1   force =     0.00000795   -0.00009553    0.09508311
     atom    2 type  1   force =     0.00018731   -0.00068212   -0.17565215
     atom    3 type  2   force =     0.00008878   -0.00004475   -0.02295371
     atom    4 type  2   force =     0.00002146   -0.00142699    0.05289278
     atom    5 type  2   force =    -0.01000073   -0.00031771    0.00380699
     atom    6 type  2   force =     0.01112457    0.00019855    0.00206253
     atom    7 type  1   force =    -0.00020754    0.00176852   -0.00589170
     atom    8 type  1   force =     0.00080695    0.01007756    0.01605911
     atom    9 type  2   force =    -0.00015992    0.00085719    0.00030874
     atom   10 type  2   force =    -0.00226812    0.00217805   -0.01801468
     atom   11 type  2   force =     0.00023121   -0.00003101    0.00008805
     atom   12 type  2   force =    -0.00035225   -0.00018434    0.00056518
     atom   13 type  1   force =    -0.00002090    0.00125667    0.00018265
     atom   14 type  1   force =    -0.00011862    0.00011487    0.00001265
     atom   15 type  2   force =     0.00011262    0.00032524   -0.00004478
     atom   16 type  2   force =    -0.00037429    0.00044528   -0.00020907
     atom   17 type  2   force =    -0.00007935   -0.00021965    0.00002670
     atom   18 type  2   force =    -0.00008503    0.00000737    0.00048550
     atom   19 type  1   force =    -0.00047353    0.00027303   -0.00022977
     atom   20 type  1   force =    -0.00012719   -0.00019112    0.00020480
     atom   21 type  2   force =     0.00008946   -0.00008247    0.10318914
     atom   22 type  2   force =     0.00040313    0.00000209    0.00055160
     atom   23 type  2   force =    -0.07160837   -0.00017107   -0.02757350
     atom   24 type  2   force =     0.07156481    0.00024578   -0.02761973
     atom   25 type  1   force =     0.00023725   -0.00039638    0.09517657
     atom   26 type  1   force =    -0.00004305   -0.00020310   -0.17581188
     atom   27 type  2   force =     0.00012346   -0.00012778   -0.02197879
     atom   28 type  2   force =     0.00001635   -0.00140316    0.05322506
     atom   29 type  2   force =    -0.01034322   -0.00023138    0.00365195
     atom   30 type  2   force =     0.01138117    0.00042166    0.00192169
     atom   31 type  1   force =    -0.00030066    0.00266467   -0.00008657
     atom   32 type  1   force =     0.00067436   -0.01114998    0.01694145
     atom   33 type  2   force =     0.00037374   -0.00026624   -0.00001074
     atom   34 type  2   force =    -0.00033555    0.00143666   -0.01894258
     atom   35 type  2   force =    -0.00000474   -0.00035150   -0.00015810
     atom   36 type  2   force =    -0.00000998   -0.00024329    0.00044224
     atom   37 type  1   force =    -0.00005513   -0.00120694    0.00033842
     atom   38 type  1   force =    -0.00038847    0.00087853    0.00006933
     atom   39 type  2   force =     0.00010436    0.00006017    0.00007206
     atom   40 type  2   force =    -0.00049710   -0.00059868   -0.00003230
     atom   41 type  2   force =     0.00014921   -0.00009666    0.00026664
     atom   42 type  2   force =    -0.00021637   -0.00038588   -0.00017342
     atom   43 type  1   force =    -0.00021869   -0.00022367    0.00042143
     atom   44 type  1   force =    -0.00012580   -0.00031939    0.00014158
     atom   45 type  2   force =     0.00010035   -0.00010581    0.10320448
     atom   46 type  2   force =    -0.07159534   -0.00016810   -0.02756531
     atom   47 type  2   force =     0.07159765    0.00024637   -0.02757811
     atom   48 type  3   force =    -0.00097463   -0.00564662    0.00410866
     atom   49 type  3   force =    -0.00031371    0.00159675   -0.00095815
     atom   50 type  4   force =     0.00126182    0.00147255   -0.00031903
     atom   51 type  5   force =    -0.00040107   -0.00045097   -0.00025425
     atom   52 type  5   force =     0.00067052    0.00058055   -0.00325204
     atom   53 type  5   force =     0.00032485   -0.00015262   -0.00049248
     atom   54 type  2   force =    -0.00010201    0.00110180   -0.00010899
     atom   55 type  5   force =     0.00015043   -0.00022799   -0.00000873
     atom   56 type  5   force =    -0.00000238   -0.00080699    0.00041949

     Total force =     0.365297     Total SCF correction =     0.000548
  @ DRIVER MODE: Message from server: STATUS
  @ DRIVER MODE: Message from server: GETFORCE
  @ DRIVER MODE: Returning v,forces,stress,ensemble

     Writing output data file ./calc.save/
  @ DRIVER MODE: Message from server: EXIT
  @ DRIVE MODE: Exiting

     General routines

     Parallel routines

   This run was terminated on:  23:52:32  21Sep2021

   JOB DONE.