     Program PWSCF v.6.7GPU starts on 15Sep2021 at 16: 1:38

     R & G space division:  proc/nbgrp/npool/nimage =      10
     Reading input from /storage/home/hcoda1/3/ntian30/research/carbon/CxH_vib/CH_calc/ads_slab/CHNHNH_b/out_0021/pw.inp
Warning: card &CELL ignored
Warning: card   CELL_DYNAMICS='IPI', ignored
Warning: card / ignored

     Current dimensions of program PWSCF are:
     Max number of different atomic species (ntypx) = 10
     Max number of k-points (npk) =  40000
     Max angular momentum in pseudopotentials (lmaxx) =  3
     Presently no symmetry can be used with electric field

     Message from routine cell_base_init:
     DEPRECATED: use true lattice parameter, not A to a.u. conversion factor

     IMPORTANT: XC functional enforced from input :
     Exchange-correlation= BEEF-VDW
                           (   1   4  43  14   2   0   0)
     Any further DFT definition will be discarded
     Please, verify this is what you really want

  @ DRIVER MODE: Connecting to
 qe_1139763_2850202.sched-torque.pace.gatech.edu92vcm17x_scratch
  using UNIX socket
  @ DRIVER MODE: Message from server: STATUS
  @ DRIVER MODE: Message from server: INIT
  @ DRIVER MODE: Receiving replica           0          -1
  @ DRIVER MODE: Receiving encoded integer          25
  @ DRIVER MODE:  SCF:  T  FORCE:  T  STRESS:  F  VC:  F  ENSEMBLE:  F
  @ DRIVER MODE:  SCF:  T  FORCE:  T  STRESS:  F  VC:  F  ENSEMBLE:  F

     Using Slab Decomposition

     bravais-lattice index     =            0
     lattice parameter (alat)  =       1.8897  a.u.
     unit-cell volume          =    6658.9804 (a.u.)^3
     number of atoms/cell      =           53
     number of atomic types    =            5
     number of electrons       =       395.00
     number of Kohn-Sham states=          207
     kinetic-energy cutoff     =      29.3995  Ry
     charge density cutoff     =     293.9946  Ry
     scf convergence threshold =      7.3E-08
     mixing beta               =       0.0500
     number of iterations used =            8  plain     mixing
     Exchange-correlation= BEEF-VDW
                           (   1   4  43  14   2   0   0)

     celldm(1)=   1.889726  celldm(2)=   0.000000  celldm(3)=   0.000000
     celldm(4)=   0.000000  celldm(5)=   0.000000  celldm(6)=   0.000000

     crystal axes: (cart. coord. in units of alat)
               a(1) = (   6.579727   0.000000   0.000000 )
               a(2) = (  -0.000775   5.961596   0.000000 )
               a(3) = (   0.000000   0.000000  25.155947 )

     reciprocal axes: (cart. coord. in units 2 pi/alat)
               b(1) = (  0.151982  0.000020  0.000000 )
               b(2) = (  0.000000  0.167740  0.000000 )
               b(3) = (  0.000000  0.000000  0.039752 )

     PseudoPot. # 1 for Ti read from file:
     /storage/coda1/p-amedford6/0/shared/rich_project_chbe-medford/medford-share/data/pseudos_module/espresso/nninc/pbe/van/Ti.UPF
     MD5 check sum: 8e4df49b7f0d34bbd5052bf3f5ea0213
     Pseudo is Ultrasoft, Zval = 12.0
     Generated by new atomic code, or converted to UPF format
     Using radial grid of  851 points,  6 beta functions with:
                l(1) =   0
                l(2) =   0
                l(3) =   1
                l(4) =   1
                l(5) =   2
                l(6) =   2
     Q(r) pseudized with  8 coefficients,  rinner =    1.000   1.000   1.000
                                                       1.000   1.000

     PseudoPot. # 2 for O  read from file:
     /storage/coda1/p-amedford6/0/shared/rich_project_chbe-medford/medford-share/data/pseudos_module/espresso/nninc/pbe/van/O.UPF
     MD5 check sum: 78c19812648e8988a0fe644b0f25305e
     Pseudo is Ultrasoft, Zval =  6.0
     Generated by new atomic code, or converted to UPF format
     Using radial grid of  737 points,  4 beta functions with:
                l(1) =   0
                l(2) =   0
                l(3) =   1
                l(4) =   1
     Q(r) pseudized with  8 coefficients,  rinner =    0.800   0.800   0.800

     PseudoPot. # 3 for N  read from file:
     /storage/coda1/p-amedford6/0/shared/rich_project_chbe-medford/medford-share/data/pseudos_module/espresso/nninc/pbe/van/N.UPF
     MD5 check sum: 90d10febe142ad51ac9d5be1deb811c4
     Pseudo is Ultrasoft, Zval =  5.0
     Generated by new atomic code, or converted to UPF format
     Using radial grid of  729 points,  4 beta functions with:
                l(1) =   0
                l(2) =   0
                l(3) =   1
                l(4) =   1
     Q(r) pseudized with  8 coefficients,  rinner =    0.800   0.800   0.800

     PseudoPot. # 4 for C  read from file:
     /storage/coda1/p-amedford6/0/shared/rich_project_chbe-medford/medford-share/data/pseudos_module/espresso/nninc/pbe/van/C.UPF
     MD5 check sum: 1a69bf6b8db32088f5b2163dbdb77a27
     Pseudo is Ultrasoft, Zval =  4.0
     Generated by new atomic code, or converted to UPF format
     Using radial grid of  721 points,  4 beta functions with:
                l(1) =   0
                l(2) =   0
                l(3) =   1
                l(4) =   1
     Q(r) pseudized with  8 coefficients,  rinner =    0.800   0.800   0.800

     PseudoPot. # 5 for H  read from file:
     /storage/coda1/p-amedford6/0/shared/rich_project_chbe-medford/medford-share/data/pseudos_module/espresso/nninc/pbe/van/H.UPF
     MD5 check sum: b5ee9d7bfd3a09ee7748110bda690ff7
     Pseudo is Ultrasoft, Zval =  1.0
     Generated by new atomic code, or converted to UPF format
     Using radial grid of  615 points,  1 beta functions with:
                l(1) =   0
     Q(r) pseudized with  8 coefficients,  rinner =    0.800

     atomic species   valence    mass     pseudopotential
        Ti1           12.00    47.86700     Ti( 1.00)
        O1             6.00    15.99900     O ( 1.00)
        N1             5.00    14.00700     N ( 1.00)
        C1             4.00    12.01100     C ( 1.00)
        H1             1.00     1.00800     H ( 1.00)

     No symmetry found

   Cartesian axes

     site n.     atom                  positions (alat units)
         1           Ti1 tau(   1) = (   0.0004258   2.9801865   6.0000000  )
         2           Ti1 tau(   2) = (   3.2906075   1.4906267   6.0002472  )
         3           O1  tau(   3) = (   0.0006271   0.0005054   7.9858123  )
         4           O1  tau(   4) = (   3.2906025   0.0005020   7.3038282  )
         5           O1  tau(   5) = (   4.5942328   1.4918067   9.2879030  )
         6           O1  tau(   6) = (   1.9868534   1.4903216   9.2879459  )
         7           Ti1 tau(   7) = (   3.2907910   2.8959150   9.1758416  )
         8           Ti1 tau(   8) = (   0.0015273   1.4827037   9.2680791  )
         9           O1  tau(   9) = (   3.2799393   5.9535521  11.3540639  )
        10           O1  tau(  10) = (   0.0116148   5.9584955  10.6183126  )
        11           O1  tau(  11) = (   1.2974255   1.4613897  12.6506698  )
        12           O1  tau(  12) = (   5.3017888   1.4901577  12.6050164  )
        13           Ti1 tau(  13) = (   6.5221663   3.0180504  12.5986966  )
        14           Ti1 tau(  14) = (   3.2221172   1.5532140  12.5512791  )
        15           O1  tau(  15) = (   6.4783894   5.9520290  14.6579590  )
        16           O1  tau(  16) = (   3.3696489   5.9508513  13.9183136  )
        17           O1  tau(  17) = (   4.5179258   1.5103438  16.1624884  )
        18           O1  tau(  18) = (   1.9802590   1.4047766  15.9099196  )
        19           Ti1 tau(  19) = (   3.2637731   3.0080032  15.8837983  )
        20           Ti1 tau(  20) = (   6.5766856   1.4756295  15.8014380  )
        21           O1  tau(  21) = (   3.2904802   0.0005063   4.7018136  )
        22           O1  tau(  22) = (   0.0065935   5.9492922  17.2122405  )
        23           O1  tau(  23) = (   1.3043587   1.4918075   6.0039043  )
        24           O1  tau(  24) = (   5.2767064   1.4903225   6.0039473  )
        25           Ti1 tau(  25) = (   0.0000382   5.9609847   6.0000000  )
        26           Ti1 tau(  26) = (   3.2902200   4.4714249   6.0002472  )
        27           O1  tau(  27) = (   0.0002396   2.9813036   7.9858123  )
        28           O1  tau(  28) = (   3.2902150   2.9813002   7.3038282  )
        29           O1  tau(  29) = (   4.5938453   4.4726049   9.2879030  )
        30           O1  tau(  30) = (   1.9864658   4.4711199   9.2879459  )
        31           Ti1 tau(  31) = (   3.2891106   5.8743827   9.1763621  )
        32           Ti1 tau(  32) = (   0.0006254   4.4649316   9.2693709  )
        33           O1  tau(  33) = (   3.2772596   2.9828089  11.3369495  )
        34           O1  tau(  34) = (   0.0092240   2.9805883  10.6323155  )
        35           O1  tau(  35) = (   1.2916203   4.4718874  12.6594431  )
        36           O1  tau(  36) = (   5.2999639   4.4615573  12.6129894  )
        37           Ti1 tau(  37) = (   6.5361528   0.0312684  12.5125129  )
        38           Ti1 tau(  38) = (   3.2177194   4.4831555  12.4956785  )
        39           O1  tau(  39) = (   6.5168025   2.9395006  14.7032746  )
        40           O1  tau(  40) = (   3.2870264   2.9515371  13.9313172  )
        41           O1  tau(  41) = (   4.5204763   4.4345026  16.1736457  )
        42           O1  tau(  42) = (   1.9972348   4.5331091  15.9467552  )
        43           Ti1 tau(  43) = (   3.2981618   0.0182476  15.6956140  )
        44           Ti1 tau(  44) = (   0.0010288   4.6427453  16.0560918  )
        45           O1  tau(  45) = (   3.2900926   2.9813045   4.7018136  )
        46           O1  tau(  46) = (   1.3039711   4.4726057   6.0039043  )
        47           O1  tau(  47) = (   5.2763189   4.4711207   6.0039473  )
        48           N1  tau(  48) = (   1.3052520   2.8252889  18.3786263  )
        49           N1  tau(  49) = (   0.2128110   2.9323531  17.5195281  )
        50           C1  tau(  50) = (   2.5582938   2.8657590  18.0399718  )
        51           H1  tau(  51) = (   3.1786551   2.7222395  18.9197303  )
        52           H1  tau(  52) = (   1.0317423   2.6491596  19.3433462  )
        53           H1  tau(  53) = (   5.9645394   2.8535341  18.1048464  )

     number of k points=    10  Fermi-Dirac smearing, width (Ry)=  0.0073
                       cart. coord. in units 2pi/alat
        k(    1) = (   0.0000000   0.0000000   0.0000000), wk =   0.1250000
        k(    2) = (   0.0000000   0.0419351   0.0000000), wk =   0.2500000
        k(    3) = (   0.0000000  -0.0838702   0.0000000), wk =   0.1250000
        k(    4) = (   0.0379955   0.0000049   0.0000000), wk =   0.2500000
        k(    5) = (   0.0379955   0.0419400   0.0000000), wk =   0.2500000
        k(    6) = (   0.0379955  -0.0838652   0.0000000), wk =   0.2500000
        k(    7) = (   0.0379955  -0.0419301   0.0000000), wk =   0.2500000
        k(    8) = (  -0.0759910  -0.0000099   0.0000000), wk =   0.1250000
        k(    9) = (  -0.0759910   0.0419252   0.0000000), wk =   0.2500000
        k(   10) = (  -0.0759910  -0.0838800   0.0000000), wk =   0.1250000

     Initial potential from superposition of free atoms

     starting charge  378.99916, renormalised to  395.00000

     negative rho (up, down):  1.762E-02 0.000E+00

     %%%%%%%%%%%%%%%%%%%%%%%%%%%%%%%%%%%%%%%%%%%%%%%%%%%%%%%%%%%%%%%%%%%%%%%%
     %                                                                      %
     % You are using vdW-DF, which was implemented by the Thonhauser group. %
     % Please cite the following two papers that made this development      %
     % possible and the two reviews that describe the various versions:     %
     %                                                                      %
     %   T. Thonhauser et al., PRL 115, 136402 (2015).                      %
     %   T. Thonhauser et al., PRB 76, 125112 (2007).                       %
     %   K. Berland et al., Rep. Prog. Phys. 78, 066501 (2015).             %
     %   D.C. Langreth et al., J. Phys.: Condens. Matter 21, 084203 (2009). %
     %                                                                      %
     %                                                                      %
     % If you are calculating the stress with vdW-DF, please also cite:     %
     %                                                                      %
     %   R. Sabatini et al., J. Phys.: Condens. Matter 24, 424209 (2012).   %
     %                                                                      %
     %%%%%%%%%%%%%%%%%%%%%%%%%%%%%%%%%%%%%%%%%%%%%%%%%%%%%%%%%%%%%%%%%%%%%%%%

     Adding external electric field

     Computed dipole along edir(3) :
        Dipole               -7.9492 Ry au,        -20.2049 Debye
        Dipole field         -0.0150 Ry au,

        Potential amp.        1.3906 Ry
        Total length         46.3494 bohr

     Starting wfcs are  299 atomic wfcs
  @ DRIVER MODE: Message from server: STATUS
  @ DRIVER MODE: Message from server: POSDATA
  @ DRIVER MODE: Reading and sharing cell
  @ DRIVER MODE: Reading and sharing positions
  @ DRIVER MODE: Received positions

     Self-consistent Calculation

     iteration #  1     ecut=    29.40 Ry     beta= 0.05
     Davidson diagonalization with overlap
     c_bands:  1 eigenvalues not converged
     c_bands:  2 eigenvalues not converged
     c_bands:  2 eigenvalues not converged
     c_bands:  3 eigenvalues not converged
     c_bands:  3 eigenvalues not converged
     c_bands:  1 eigenvalues not converged
     c_bands:  1 eigenvalues not converged
     ethr =  1.00E-05,  avg # of iterations = 19.2

[...]

     total energy              =   -2627.20507752 Ry
     estimated scf accuracy    <    3449.95807375 Ry

[...]

     iteration #  3     ecut=    29.40 Ry     beta= 0.05
     Davidson diagonalization with overlap
     ethr =  1.00E-02,  avg # of iterations = 14.7

[...]

     iteration # 69     ecut=    29.40 Ry     beta= 0.05
     Davidson diagonalization with overlap
     c_bands:  1 eigenvalues not converged
     ethr =  5.07E-11,  avg # of iterations = 15.1

[...]

     total energy              =   -2939.10941880 Ry
     estimated scf accuracy    <       0.00000023 Ry

     iteration # 71     ecut=    29.40 Ry     beta= 0.05
     Davidson diagonalization with overlap
     ethr =  5.07E-11,  avg # of iterations = 11.9

     negative rho (up, down):  1.782E-02 0.000E+00

     Adding external electric field

     Computed dipole along edir(3) :
        Dipole                1.3702 Ry au,          3.4827 Debye
        Dipole field          0.0026 Ry au,

        Potential amp.       -0.2397 Ry
        Total length         46.3494 bohr

     End of self-consistent calculation

          k = 0.0000 0.0000 0.0000 ( 18029 PWs)   bands (ev):

   -55.4835 -55.4494 -55.3901 -55.3448 -55.3330 -55.3243 -55.3013 -55.2944
   -55.2891 -55.2672 -55.2597 -55.2248 -55.1452 -54.9903 -54.4630 -54.4290
   -31.9674 -31.9180 -31.8311 -31.8042 -31.8011 -31.7754 -31.7491 -31.7281
   -31.7137 -31.6558 -31.6459 -31.6358 -31.6349 -31.6005 -31.5893 -31.5822
   -31.5660 -31.5631 -31.5482 -31.5407 -31.5064 -31.4954 -31.4950 -31.4929
   -31.4925 -31.4842 -31.4798 -31.4780 -31.4512 -31.4419 -31.4402 -31.4387
   -31.4327 -31.4252 -31.4137 -31.4080 -31.3917 -31.3718 -31.3690 -31.2431
   -31.2293 -31.1952 -30.8699 -30.7818 -30.7594 -30.6868 -30.6003 -30.4891
   -18.7525 -16.1634 -15.9621 -15.7762 -15.6457 -15.5919 -15.3573 -15.2532
   -15.2186 -15.1354 -15.0904 -15.0616 -15.0231 -15.0082 -14.9923 -14.9855
   -14.9263 -14.9078 -14.9017 -14.8710 -14.8524 -14.8287 -14.8154 -14.7264
   -14.6411 -14.6371 -14.6257 -14.6007 -14.5377 -14.1494 -13.5046 -12.9644
   -12.8479  -8.8970  -7.3839  -4.4821  -3.6738  -3.5318  -3.4227  -3.4077
    -3.3881  -3.2625  -3.1459  -2.8961  -2.8846  -2.7486  -2.6615  -2.6209
    -2.5482  -2.4740  -2.4393  -2.3809  -2.3159  -2.2932  -2.2757  -2.2426
    -2.2206  -2.2105  -2.1810  -2.0374  -2.0188  -1.9522  -1.8644  -1.8557
    -1.7984  -1.7931  -1.7725  -1.7417  -1.7388  -1.7316  -1.7110  -1.6909
    -1.6209  -1.5426  -1.4978  -1.4575  -1.3182  -1.1889  -1.1337  -1.0941
    -1.0305  -0.9548  -0.9202  -0.9057  -0.8909  -0.8747  -0.7259  -0.6787
    -0.6560  -0.6190  -0.5007  -0.4193  -0.3637  -0.3166  -0.2834  -0.2552
    -0.2343  -0.2216  -0.1859  -0.0670   0.0017   0.0489   0.0811   0.1573
     0.2135   0.2482   0.2599   0.3247   0.3607   0.3865   0.4362   0.4748
     0.4884   0.5113   0.5446   0.5623   0.6395   0.7515   0.7743   0.7775
     0.8174   1.0077   1.0718   1.1370   1.1748   1.2938   1.3238   1.4954
     1.5603   1.6366   1.7530   2.1306   2.1764   3.6306   3.7372   3.7738
     3.8137   3.8488   3.8952   4.0936   4.1397   4.1846   4.2699

[...]

          k = 0.0380-0.0419 0.0000 ( 17876 PWs)   bands (ev):

[...]

          k =-0.0760-0.0000 0.0000 ( 17886 PWs)   bands (ev):

[...]

          k =-0.0760-0.0839 0.0000 ( 17948 PWs)   bands (ev):

   -55.4668 -55.4660 -55.3814 -55.3531 -55.3225 -55.3119 -55.3052 -55.3013
   -55.2846 -55.2834 -55.2469 -55.2378 -55.1435 -54.9920 -54.4460 -54.4459
   -31.7830 -31.7824 -31.7612 -31.7605 -31.7604 -31.7305 -31.6668 -31.6632
   -31.6485 -31.6272 -31.6203 -31.6108 -31.6001 -31.5992 -31.5898 -31.5864
   -31.5855 -31.5791 -31.5789 -31.5768 -31.5598 -31.5576 -31.5445 -31.5322
   -31.5312 -31.5128 -31.5095 -31.5077 -31.4863 -31.4846 -31.4743 -31.4621
   -31.4595 -31.4574 -31.4558 -31.4543 -31.4385 -31.3858 -31.3732 -31.2886
   -31.2456 -31.2328 -30.7722 -30.7721 -30.6828 -30.6825 -30.6436 -30.6435
   -18.7488 -15.5987 -15.5032 -15.4864 -15.4118 -15.3883 -15.2877 -15.2515
   -15.2115 -15.1872 -15.1804 -15.1485 -15.0992 -15.0851 -15.0462 -15.0347
   -15.0093 -14.9749 -14.9655 -14.9284 -14.9255 -14.9186 -14.8819 -14.8216
   -14.8048 -14.7971 -14.7950 -14.7149 -14.6088 -14.3548 -13.5243 -12.9498
   -12.9496  -8.8876  -7.3019  -4.6146  -3.6506  -2.8489  -2.7847  -2.7697
    -2.6709  -2.5921  -2.5266  -2.4849  -2.4594  -2.4026  -2.3938  -2.3395
    -2.3308  -2.3046  -2.2900  -2.2766  -2.2425  -2.2257  -2.2233  -2.1895
    -2.1823  -2.1586  -2.1321  -2.1100  -2.0990  -2.0832  -2.0677  -2.0432
    -2.0302  -1.9981  -1.9575  -1.8253  -1.7085  -1.6595  -1.6290  -1.6085
    -1.5858  -1.5550  -1.5378  -1.5263  -1.4932  -1.4512  -1.3102  -1.1718
    -1.1498  -1.0608  -1.0133  -0.9913  -0.9534  -0.8992  -0.8764  -0.8732
    -0.8151  -0.7911  -0.7053  -0.6562  -0.6156  -0.5897  -0.4580  -0.4501
    -0.4456  -0.4304  -0.3987  -0.3799  -0.3266  -0.2467  -0.2153  -0.2091
    -0.1635  -0.1611  -0.1489  -0.0077   0.0577   0.1019   0.1928   0.2410
     0.3896   0.5435   0.5679   0.6027   0.6940   0.7490   0.7910   0.8286
     0.8453   0.8969   0.9638   1.0311   1.0440   1.0971   1.1218   1.1987
     1.2345   1.9246   1.9255   1.9962   1.9965   3.9961   4.0030   4.0185
     4.0880   4.1492   4.1557   4.1888   4.1897   4.2916   4.3208

     the Fermi energy is     3.6451 ev

!    total energy              =   -2939.10943894 Ry
     estimated scf accuracy    <       0.00000007 Ry
     smearing contrib. (-TS)   =      -0.02093058 Ry
     internal energy E=F+TS    =   -2939.08850835 Ry

     The total energy is F=E-TS. E is the sum of the following terms:
     one-electron contribution =  -24578.29694202 Ry
     hartree contribution      =   12380.73977452 Ry
     xc contribution           =    -485.21340350 Ry
     ewald contribution        =    9743.67851967 Ry
     electric field correction =       0.00354298 Ry

     convergence has been achieved in  71 iterations

     Forces acting on atoms (cartesian axes, Ry/au):

     atom    1 type  1   force =     0.00005207   -0.00021776    0.09563258
     atom    2 type  1   force =    -0.00001665   -0.00052437   -0.17544942
     atom    3 type  2   force =     0.00008710   -0.00008520   -0.02325123
     atom    4 type  2   force =    -0.00003298   -0.00149027    0.05265587
     atom    5 type  2   force =    -0.01057671   -0.00050431    0.00372310
     atom    6 type  2   force =     0.01176456   -0.00007369    0.00224617
     atom    7 type  1   force =    -0.00002663   -0.00027784   -0.00805674
     atom    8 type  1   force =     0.00049821    0.01258499    0.01817851
     atom    9 type  2   force =    -0.00031339    0.00004697    0.00006179
     atom   10 type  2   force =    -0.00242782    0.00020705   -0.01643646
     atom   11 type  2   force =    -0.00030713    0.00019887    0.00001628
     atom   12 type  2   force =    -0.00045753   -0.00013997   -0.00013123
     atom   13 type  1   force =     0.00022859   -0.00008171    0.00000959
     atom   14 type  1   force =     0.00033737    0.00006902   -0.00003444
     atom   15 type  2   force =     0.00013167    0.00022625    0.00006433
     atom   16 type  2   force =    -0.00015329   -0.00020091    0.00019367
     atom   17 type  2   force =     0.00000886   -0.00023003   -0.00019089
     atom   18 type  2   force =     0.00001887   -0.00014377   -0.00040013
     atom   19 type  1   force =    -0.00000690    0.00009170   -0.00064721
     atom   20 type  1   force =     0.00039984    0.00010118   -0.00046716
     atom   21 type  2   force =     0.00005472   -0.00006489    0.10317032
     atom   22 type  2   force =     0.00003026    0.00016246    0.00009083
     atom   23 type  2   force =    -0.07158376   -0.00015833   -0.02753798
     atom   24 type  2   force =     0.07151190    0.00028336   -0.02759365
     atom   25 type  1   force =     0.00017153   -0.00025781    0.09533035
     atom   26 type  1   force =     0.00004777   -0.00030139   -0.17584049
     atom   27 type  2   force =     0.00008846   -0.00019764   -0.02223917
     atom   28 type  2   force =    -0.00001598   -0.00114643    0.05313530
     atom   29 type  2   force =    -0.01040552   -0.00021855    0.00332289
     atom   30 type  2   force =     0.01140254    0.00019640    0.00189581
     atom   31 type  1   force =    -0.00013972    0.00482205   -0.00022337
     atom   32 type  1   force =     0.00058837   -0.01317874    0.01872290
     atom   33 type  2   force =    -0.00014930    0.00013830   -0.00010197
     atom   34 type  2   force =    -0.00060111    0.00042559   -0.01725279
     atom   35 type  2   force =    -0.00036910   -0.00015258    0.00014440
     atom   36 type  2   force =    -0.00020968   -0.00034085    0.00020606
     atom   37 type  1   force =     0.00033660   -0.00016963    0.00004729
     atom   38 type  1   force =     0.00016111    0.00018713    0.00019532
     atom   39 type  2   force =    -0.00030481   -0.00005204   -0.00024659
     atom   40 type  2   force =    -0.00014571   -0.00011440    0.00032880
     atom   41 type  2   force =    -0.00002150    0.00010564    0.00005888
     atom   42 type  2   force =     0.00027390    0.00004211    0.00006080
     atom   43 type  1   force =    -0.00019795    0.00010412    0.00002716
     atom   44 type  1   force =     0.00036609    0.00014553    0.00007989
     atom   45 type  2   force =     0.00006701   -0.00009477    0.10318644
     atom   46 type  2   force =    -0.07164380   -0.00011944   -0.02757841
     atom   47 type  2   force =     0.07152832    0.00026747   -0.02761930
     atom   48 type  3   force =     0.00086641   -0.00024886   -0.00029461
     atom   49 type  3   force =     0.00016025   -0.00024269   -0.00013961
     atom   50 type  4   force =    -0.00611690    0.00099727   -0.00872781
     atom   51 type  5   force =     0.00507559   -0.00120367    0.00869935
     atom   52 type  5   force =    -0.00034700    0.00115700   -0.00036140
     atom   53 type  5   force =     0.00031288   -0.00032793   -0.00066260

     Total force =     0.365809     Total SCF correction =     0.000843
  @ DRIVER MODE: Message from server: STATUS
  @ DRIVER MODE: Message from server: GETFORCE
  @ DRIVER MODE: Returning v,forces,stress,ensemble

     Writing output data file ./calc.save/
  @ DRIVER MODE: Message from server: EXIT
  @ DRIVE MODE: Exiting

     General routines

     Parallel routines

   This run was terminated on:  16:19:33  15Sep2021

   JOB DONE.