     Program PWSCF v.6.7GPU starts on 15Sep2021 at 18:52:17

     R & G space division:  proc/nbgrp/npool/nimage =      10
     Reading input from /storage/home/hcoda1/3/ntian30/research/carbon/CxH_vib/H2O_calc/ads_slab/CH3NNHHHH2O_a/out_0009/pw.inp
Warning: card &CELL ignored
Warning: card   CELL_DYNAMICS='IPI', ignored
Warning: card / ignored

     Current dimensions of program PWSCF are:
     Max number of different atomic species (ntypx) = 10
     Max number of k-points (npk) =  40000
     Max angular momentum in pseudopotentials (lmaxx) =  3
     Presently no symmetry can be used with electric field

     Message from routine cell_base_init:
     DEPRECATED: use true lattice parameter, not A to a.u. conversion factor

     IMPORTANT: XC functional enforced from input :
     Exchange-correlation= BEEF-VDW
                           (   1   4  43  14   2   0   0)
     Any further DFT definition will be discarded
     Please, verify this is what you really want

  @ DRIVER MODE: Connecting to
 qe_1139763_2852622.sched-torque.pace.gatech.eduvxobe9jx_scratch
  using UNIX socket
  @ DRIVER MODE: Message from server: STATUS
  @ DRIVER MODE: Message from server: INIT
  @ DRIVER MODE: Receiving replica           0          -1
  @ DRIVER MODE: Receiving encoded integer          25
  @ DRIVER MODE:  SCF:  T  FORCE:  T  STRESS:  F  VC:  F  ENSEMBLE:  F
  @ DRIVER MODE:  SCF:  T  FORCE:  T  STRESS:  F  VC:  F  ENSEMBLE:  F

     Using Slab Decomposition

     bravais-lattice index     =            0
     lattice parameter (alat)  =       1.8897  a.u.
     unit-cell volume          =    6658.9804 (a.u.)^3
     number of atoms/cell      =           59
     number of atomic types    =            5
     number of electrons       =       406.00
     number of Kohn-Sham states=          213
     kinetic-energy cutoff     =      29.3995  Ry
     charge density cutoff     =     293.9946  Ry
     scf convergence threshold =      7.3E-08
     mixing beta               =       0.0500
     number of iterations used =            8  plain     mixing
     Exchange-correlation= BEEF-VDW
                           (   1   4  43  14   2   0   0)

     celldm(1)=   1.889726  celldm(2)=   0.000000  celldm(3)=   0.000000
     celldm(4)=   0.000000  celldm(5)=   0.000000  celldm(6)=   0.000000

     crystal axes: (cart. coord. in units of alat)
               a(1) = (   6.579727   0.000000   0.000000 )
               a(2) = (  -0.000775   5.961596   0.000000 )
               a(3) = (   0.000000   0.000000  25.155947 )

     reciprocal axes: (cart. coord. in units 2 pi/alat)
               b(1) = (  0.151982  0.000020  0.000000 )
               b(2) = (  0.000000  0.167740  0.000000 )
               b(3) = (  0.000000  0.000000  0.039752 )

     PseudoPot. # 1 for Ti read from file:
     /storage/coda1/p-amedford6/0/shared/rich_project_chbe-medford/medford-share/data/pseudos_module/espresso/nninc/pbe/van/Ti.UPF
     MD5 check sum: 8e4df49b7f0d34bbd5052bf3f5ea0213
     Pseudo is Ultrasoft, Zval = 12.0
     Generated by new atomic code, or converted to UPF format
     Using radial grid of  851 points,  6 beta functions with:
                l(1) =   0
                l(2) =   0
                l(3) =   1
                l(4) =   1
                l(5) =   2
                l(6) =   2
     Q(r) pseudized with  8 coefficients,  rinner =    1.000   1.000   1.000
                                                       1.000   1.000

     PseudoPot. # 2 for O  read from file:
     /storage/coda1/p-amedford6/0/shared/rich_project_chbe-medford/medford-share/data/pseudos_module/espresso/nninc/pbe/van/O.UPF
     MD5 check sum: 78c19812648e8988a0fe644b0f25305e
     Pseudo is Ultrasoft, Zval =  6.0
     Generated by new atomic code, or converted to UPF format
     Using radial grid of  737 points,  4 beta functions with:
                l(1) =   0
                l(2) =   0
                l(3) =   1
                l(4) =   1
     Q(r) pseudized with  8 coefficients,  rinner =    0.800   0.800   0.800

     PseudoPot. # 3 for N  read from file:
     /storage/coda1/p-amedford6/0/shared/rich_project_chbe-medford/medford-share/data/pseudos_module/espresso/nninc/pbe/van/N.UPF
     MD5 check sum: 90d10febe142ad51ac9d5be1deb811c4
     Pseudo is Ultrasoft, Zval =  5.0
     Generated by new atomic code, or converted to UPF format
     Using radial grid of  729 points,  4 beta functions with:
                l(1) =   0
                l(2) =   0
                l(3) =   1
                l(4) =   1
     Q(r) pseudized with  8 coefficients,  rinner =    0.800   0.800   0.800

     PseudoPot. # 4 for C  read from file:
     /storage/coda1/p-amedford6/0/shared/rich_project_chbe-medford/medford-share/data/pseudos_module/espresso/nninc/pbe/van/C.UPF
     MD5 check sum: 1a69bf6b8db32088f5b2163dbdb77a27
     Pseudo is Ultrasoft, Zval =  4.0
     Generated by new atomic code, or converted to UPF format
     Using radial grid of  721 points,  4 beta functions with:
                l(1) =   0
                l(2) =   0
                l(3) =   1
                l(4) =   1
     Q(r) pseudized with  8 coefficients,  rinner =    0.800   0.800   0.800

     PseudoPot. # 5 for H  read from file:
     /storage/coda1/p-amedford6/0/shared/rich_project_chbe-medford/medford-share/data/pseudos_module/espresso/nninc/pbe/van/H.UPF
     MD5 check sum: b5ee9d7bfd3a09ee7748110bda690ff7
     Pseudo is Ultrasoft, Zval =  1.0
     Generated by new atomic code, or converted to UPF format
     Using radial grid of  615 points,  1 beta functions with:
                l(1) =   0
     Q(r) pseudized with  8 coefficients,  rinner =    0.800

     atomic species   valence    mass     pseudopotential
        Ti1           12.00    47.86700     Ti( 1.00)
        O1             6.00    15.99900     O ( 1.00)
        N1             5.00    14.00700     N ( 1.00)
        C1             4.00    12.01100     C ( 1.00)
        H1             1.00     1.00800     H ( 1.00)

     No symmetry found

   Cartesian axes

     site n.     atom                  positions (alat units)
         1           Ti1 tau(   1) = (   0.0004258   2.9801865   6.0000000  )
         2           Ti1 tau(   2) = (   3.2906075   1.4906267   6.0002472  )
         3           O1  tau(   3) = (   0.0006271   0.0005054   7.9858123  )
         4           O1  tau(   4) = (   3.2906025   0.0005020   7.3038282  )
         5           O1  tau(   5) = (   4.5942328   1.4918067   9.2879030  )
         6           O1  tau(   6) = (   1.9868534   1.4903216   9.2879459  )
         7           Ti1 tau(   7) = (   3.2907910   2.8959150   9.1758416  )
         8           Ti1 tau(   8) = (   0.0015273   1.4827037   9.2680791  )
         9           O1  tau(   9) = (   3.2800960   5.9426830  11.3808346  )
        10           O1  tau(  10) = (   0.0116148   5.9584955  10.6183126  )
        11           O1  tau(  11) = (   1.2797812   1.4911726  12.6624455  )
        12           O1  tau(  12) = (   5.2824698   1.4871998  12.6412817  )
        13           Ti1 tau(  13) = (   0.0041451   2.9720195  12.5119452  )
        14           Ti1 tau(  14) = (   3.3095611   1.4699318  12.5307708  )
        15           O1  tau(  15) = (   6.5436702   0.0697967  14.6864816  )
        16           O1  tau(  16) = (   3.2812162   5.9597207  14.0300411  )
        17           O1  tau(  17) = (   4.5129646   1.5046642  16.2361130  )
        18           O1  tau(  18) = (   1.9708392   1.5012857  16.1671103  )
        19           Ti1 tau(  19) = (   3.2655272   2.9480959  15.7331506  )
        20           Ti1 tau(  20) = (   6.5674642   1.4497656  15.9937491  )
        21           O1  tau(  21) = (   3.2904802   0.0005063   4.7018136  )
        22           O1  tau(  22) = (   6.5217933   5.8323795  17.2454964  )
        23           O1  tau(  23) = (   1.3043587   1.4918075   6.0039043  )
        24           O1  tau(  24) = (   5.2767064   1.4903225   6.0039473  )
        25           Ti1 tau(  25) = (   0.0000382   5.9609847   6.0000000  )
        26           Ti1 tau(  26) = (   3.2902200   4.4714249   6.0002472  )
        27           O1  tau(  27) = (   0.0002396   2.9813036   7.9858123  )
        28           O1  tau(  28) = (   3.2902150   2.9813002   7.3038282  )
        29           O1  tau(  29) = (   4.5938453   4.4726049   9.2879030  )
        30           O1  tau(  30) = (   1.9864658   4.4711199   9.2879459  )
        31           Ti1 tau(  31) = (   3.2891106   5.8743827   9.1763621  )
        32           Ti1 tau(  32) = (   0.0006254   4.4649316   9.2693709  )
        33           O1  tau(  33) = (   3.2830490   2.9749636  11.3746576  )
        34           O1  tau(  34) = (   0.0092240   2.9805883  10.6323155  )
        35           O1  tau(  35) = (   1.2760807   4.4612897  12.6946019  )
        36           O1  tau(  36) = (   5.2846406   4.4647657  12.6742532  )
        37           Ti1 tau(  37) = (   0.0173662   5.9591775  12.4970172  )
        38           Ti1 tau(  38) = (   3.3070294   4.4569304  12.5379467  )
        39           O1  tau(  39) = (   6.5190077   2.9374781  14.9220565  )
        40           O1  tau(  40) = (   3.2909943   2.9519766  13.9498127  )
        41           O1  tau(  41) = (   4.5146313   4.4149292  16.1460290  )
        42           O1  tau(  42) = (   1.9668235   4.4047650  16.1116202  )
        43           Ti1 tau(  43) = (   3.2426406   5.9218513  15.8539982  )
        44           Ti1 tau(  44) = (   6.5337747   4.6515477  15.8702276  )
        45           O1  tau(  45) = (   3.2900926   2.9813045   4.7018136  )
        46           O1  tau(  46) = (   1.3039711   4.4726057   6.0039043  )
        47           O1  tau(  47) = (   5.2763189   4.4711207   6.0039473  )
        48           N1  tau(  48) = (   1.0802268   3.0592680  18.8437747  )
        49           N1  tau(  49) = (   6.4825355   2.6267244  18.1156036  )
        50           C1  tau(  50) = (   0.7269815   3.7261681  20.0984356  )
        51           H1  tau(  51) = (   0.0344531   4.5672025  19.9493712  )
        52           H1  tau(  52) = (   0.2718923   3.0081313  20.7822053  )
        53           H1  tau(  53) = (   1.6424345   4.1087450  20.5485440  )
        54           H1  tau(  54) = (   5.7152520   3.3097272  18.2274121  )
        55           H1  tau(  55) = (   6.1788988   1.7551022  18.5268573  )
        56           H1  tau(  56) = (   1.5478348   3.7306874  18.2371031  )
        57           O1  tau(  57) = (   3.1661568   0.0027346  18.3937517  )
        58           H1  tau(  58) = (   4.0701885   0.3469208  18.4697374  )
        59           H1  tau(  59) = (   2.5798038   0.7742236  18.5044111  )

     number of k points=    10  Fermi-Dirac smearing, width (Ry)=  0.0073
                       cart. coord. in units 2pi/alat
        k(    1) = (   0.0000000   0.0000000   0.0000000), wk =   0.1250000
        k(    2) = (   0.0000000   0.0419351   0.0000000), wk =   0.2500000
        k(    3) = (   0.0000000  -0.0838702   0.0000000), wk =   0.1250000
        k(    4) = (   0.0379955   0.0000049   0.0000000), wk =   0.2500000
        k(    5) = (   0.0379955   0.0419400   0.0000000), wk =   0.2500000
        k(    6) = (   0.0379955  -0.0838652   0.0000000), wk =   0.2500000
        k(    7) = (   0.0379955  -0.0419301   0.0000000), wk =   0.2500000
        k(    8) = (  -0.0759910  -0.0000099   0.0000000), wk =   0.1250000
        k(    9) = (  -0.0759910   0.0419252   0.0000000), wk =   0.2500000
        k(   10) = (  -0.0759910  -0.0838800   0.0000000), wk =   0.1250000

     Initial potential from superposition of free atoms

     starting charge  389.99912, renormalised to  406.00000

     negative rho (up, down):  1.306E-02 0.000E+00

     %%%%%%%%%%%%%%%%%%%%%%%%%%%%%%%%%%%%%%%%%%%%%%%%%%%%%%%%%%%%%%%%%%%%%%%%
     %                                                                      %
     % You are using vdW-DF, which was implemented by the Thonhauser group. %
     % Please cite the following two papers that made this development      %
     % possible and the two reviews that describe the various versions:     %
     %                                                                      %
     %   T. Thonhauser et al., PRL 115, 136402 (2015).                      %
     %   T. Thonhauser et al., PRB 76, 125112 (2007).                       %
     %   K. Berland et al., Rep. Prog. Phys. 78, 066501 (2015).             %
     %   D.C. Langreth et al., J. Phys.: Condens. Matter 21, 084203 (2009). %
     %                                                                      %
     %                                                                      %
     % If you are calculating the stress with vdW-DF, please also cite:     %
     %                                                                      %
     %   R. Sabatini et al., J. Phys.: Condens. Matter 24, 424209 (2012).   %
     %                                                                      %
     %%%%%%%%%%%%%%%%%%%%%%%%%%%%%%%%%%%%%%%%%%%%%%%%%%%%%%%%%%%%%%%%%%%%%%%%

     Adding external electric field

     Computed dipole along edir(3) :
        Dipole              -16.1158 Ry au,        -40.9623 Debye
        Dipole field         -0.0304 Ry au,

        Potential amp.        2.8192 Ry
        Total length         46.3494 bohr

     Starting wfcs are  308 atomic wfcs
  @ DRIVER MODE: Message from server: STATUS
  @ DRIVER MODE: Message from server: POSDATA
  @ DRIVER MODE: Reading and sharing cell
  @ DRIVER MODE: Reading and sharing positions
  @ DRIVER MODE: Received positions

     Self-consistent Calculation

     iteration #  1     ecut=    29.40 Ry     beta= 0.05
     Davidson diagonalization with overlap
     c_bands:  2 eigenvalues not converged
     c_bands:  3 eigenvalues not converged
     c_bands:  2 eigenvalues not converged
     c_bands:  3 eigenvalues not converged
     c_bands:  4 eigenvalues not converged
     c_bands:  2 eigenvalues not converged
     c_bands:  1 eigenvalues not converged
     c_bands:  5 eigenvalues not converged
     c_bands:  1 eigenvalues not converged
     ethr =  1.00E-05,  avg # of iterations = 23.1

[...]

     total energy              =   -2140.64808215 Ry
     estimated scf accuracy    <    9598.77817034 Ry

     iteration #  2     ecut=    29.40 Ry     beta= 0.05
     Davidson diagonalization with overlap
     ethr =  1.00E-02,  avg # of iterations = 32.2

[...]

     iteration # 65     ecut=    29.40 Ry     beta= 0.05
     Davidson diagonalization with overlap
     c_bands:  1 eigenvalues not converged
     ethr =  3.56E-11,  avg # of iterations = 14.2

[...]

     total energy              =   -2977.69990228 Ry
     estimated scf accuracy    <       0.00000011 Ry

     iteration # 66     ecut=    29.40 Ry     beta= 0.05
     Davidson diagonalization with overlap
     ethr =  2.61E-11,  avg # of iterations =  2.3

     negative rho (up, down):  1.407E-02 0.000E+00

     Adding external electric field

     Computed dipole along edir(3) :
        Dipole                1.3389 Ry au,          3.4031 Debye
        Dipole field          0.0025 Ry au,

        Potential amp.       -0.2342 Ry
        Total length         46.3494 bohr

     End of self-consistent calculation

          k = 0.0000 0.0000 0.0000 ( 18029 PWs)   bands (ev):

   -55.1181 -55.0815 -55.0740 -55.0399 -55.0335 -55.0289 -54.9975 -54.9616
   -54.9430 -54.9082 -54.9043 -54.8876 -54.8706 -54.8371 -54.1041 -54.0700
   -31.6800 -31.5937 -31.5664 -31.4865 -31.4321 -31.4295 -31.4158 -31.4098
   -31.3629 -31.3402 -31.3298 -31.3187 -31.3114 -31.3092 -31.2909 -31.2825
   -31.2625 -31.2598 -31.2575 -31.2392 -31.2266 -31.2173 -31.1996 -31.1955
   -31.1878 -31.1762 -31.1731 -31.1439 -31.1312 -31.1283 -31.1233 -31.1028
   -31.1003 -31.0925 -31.0891 -31.0655 -31.0564 -31.0399 -31.0323 -31.0306
   -31.0153 -31.0142 -30.5134 -30.4192 -30.3971 -30.3298 -30.2430 -30.1321
   -18.8059 -17.7985 -15.9493 -15.6938 -15.5573 -15.4563 -15.3215 -15.2153
   -15.1340 -15.0199 -14.9700 -14.8550 -14.8225 -14.8182 -14.7787 -14.7471
   -14.6983 -14.6595 -14.6574 -14.6350 -14.6156 -14.6077 -14.5649 -14.5581
   -14.5188 -14.5166 -14.4968 -14.3606 -14.2790 -14.2091 -14.0271 -13.2186
   -12.6064 -12.4889  -9.7750  -6.5377  -6.3851  -5.4751  -4.9093  -3.5410
    -3.2829  -3.1380  -3.0858  -3.0500  -3.0144  -2.9604  -2.8802  -2.8061
    -2.6501  -2.5806  -2.5555  -2.4029  -2.3290  -2.3194  -2.2628  -2.1633
    -2.1383  -2.0915  -2.0497  -1.9846  -1.9473  -1.9238  -1.9020  -1.8668
    -1.8632  -1.8092  -1.7554  -1.6861  -1.5964  -1.5649  -1.5191  -1.4753
    -1.4549  -1.4513  -1.4103  -1.4039  -1.3941  -1.3492  -1.3433  -1.3126
    -1.2684  -1.1570  -1.0094  -0.9449  -0.8584  -0.7616  -0.7433  -0.7100
    -0.6898  -0.6274  -0.6049  -0.5777  -0.5002  -0.4517  -0.3726  -0.3267
    -0.3037  -0.2241  -0.1194  -0.1023  -0.0949  -0.0067   0.0854   0.0987
     0.1129   0.1227   0.2204   0.2859   0.3196   0.3615   0.4255   0.4346
     0.4918   0.5215   0.5740   0.6394   0.6727   0.7522   0.7910   0.8124
     0.8174   0.8397   0.8615   0.8730   0.9525   0.9614   0.9869   1.0756
     1.1800   1.3343   1.4804   1.4913   1.8245   1.8256   1.9190   2.1026
     2.4951   2.5434   3.9762   4.0519   4.1104   4.1215   4.1271   4.2120
     4.4611   4.4788   4.4903   4.4919   4.5268

[...]

          k = 0.0380-0.0419 0.0000 ( 17876 PWs)   bands (ev):

[...]

          k =-0.0760-0.0000 0.0000 ( 17886 PWs)   bands (ev):

[...]

          k =-0.0760-0.0839 0.0000 ( 17948 PWs)   bands (ev):

   -55.1037 -55.0957 -55.0570 -55.0568 -55.0306 -55.0280 -54.9847 -54.9744
   -54.9285 -54.9222 -54.8895 -54.8881 -54.8870 -54.8388 -54.0870 -54.0869
   -31.5089 -31.4897 -31.4799 -31.3816 -31.3814 -31.3760 -31.3694 -31.3482
   -31.3481 -31.3277 -31.3226 -31.3170 -31.3073 -31.2878 -31.2749 -31.2604
   -31.2561 -31.2548 -31.2512 -31.2449 -31.2429 -31.2387 -31.2273 -31.2262
   -31.1968 -31.1960 -31.1789 -31.1767 -31.1765 -31.1678 -31.1677 -31.1617
   -31.1533 -31.1409 -31.1353 -31.1197 -31.1182 -31.1022 -31.0682 -31.0677
   -31.0665 -31.0432 -30.4098 -30.4097 -30.3260 -30.3258 -30.2865 -30.2864
   -18.8045 -17.7950 -15.5293 -15.3907 -15.2516 -15.1479 -15.1330 -15.0795
   -15.0304 -14.9889 -14.9471 -14.9028 -14.8926 -14.8746 -14.8462 -14.8192
   -14.7949 -14.7356 -14.7193 -14.7037 -14.6814 -14.6345 -14.6267 -14.6239
   -14.6168 -14.5706 -14.5680 -14.5438 -14.4744 -14.4723 -14.2862 -13.2202
   -12.5904 -12.5903  -9.7717  -6.5864  -6.3103  -5.4730  -4.9202  -3.5150
    -2.9555  -2.8216  -2.6528  -2.6169  -2.4712  -2.3708  -2.3257  -2.2978
    -2.2437  -2.1982  -2.1380  -2.1229  -2.1046  -2.0460  -2.0208  -2.0017
    -1.9702  -1.9513  -1.9376  -1.9195  -1.9018  -1.8738  -1.8472  -1.8386
    -1.8340  -1.8064  -1.7893  -1.7499  -1.7432  -1.7352  -1.6923  -1.6801
    -1.6539  -1.5975  -1.4901  -1.4796  -1.3270  -1.3247  -1.2935  -1.2452
    -1.2253  -1.2154  -1.1545  -1.1469  -1.1346  -0.9025  -0.8713  -0.8613
    -0.8344  -0.7764  -0.7599  -0.6956  -0.6861  -0.6022  -0.5878  -0.4858
    -0.4706  -0.4217  -0.3302  -0.3222  -0.3102  -0.1989  -0.1498  -0.1117
    -0.0851  -0.0749  -0.0573  -0.0195  -0.0194   0.0705   0.1138   0.1442
     0.1593   0.1893   0.3543   0.4024   0.4113   0.5509   0.5644   0.7133
     0.7755   0.7898   0.8817   0.8987   0.9866   0.9956   1.0352   1.1748
     1.1864   1.2096   1.2567   1.2851   1.3370   1.3422   2.2753   2.2766
     2.3633   2.3635   4.1086   4.2340   4.2401   4.3009   4.4103   4.4441
     4.4896   4.5233   4.5606   4.5632   4.6308

     the Fermi energy is     4.0383 ev

!    total energy              =   -2977.69993379 Ry
     estimated scf accuracy    <       0.00000007 Ry
     smearing contrib. (-TS)   =      -0.03675101 Ry
     internal energy E=F+TS    =   -2977.66318278 Ry

     The total energy is F=E-TS. E is the sum of the following terms:
     one-electron contribution =  -23082.85815703 Ry
     hartree contribution      =   11640.57921356 Ry
     xc contribution           =    -496.62129978 Ry
     ewald contribution        =    8961.23367763 Ry
     electric field correction =       0.00338284 Ry

     convergence has been achieved in  66 iterations

     Forces acting on atoms (cartesian axes, Ry/au):

     atom    1 type  1   force =     0.00018118   -0.00018942    0.09317412
     atom    2 type  1   force =    -0.00009996   -0.00034156   -0.17817963
     atom    3 type  2   force =     0.00002176   -0.00017555   -0.02036964
     atom    4 type  2   force =    -0.00002659   -0.00200529    0.05899633
     atom    5 type  2   force =    -0.01060330   -0.00141640    0.00859871
     atom    6 type  2   force =     0.01186798   -0.00069813    0.00713142
     atom    7 type  1   force =    -0.00088804    0.00313782   -0.01228486
     atom    8 type  1   force =     0.00054854    0.00113529   -0.00451672
     atom    9 type  2   force =    -0.00007545   -0.00036934    0.00015129
     atom   10 type  2   force =    -0.00129449   -0.00050860   -0.00196140
     atom   11 type  2   force =    -0.00021595   -0.00021450   -0.00006558
     atom   12 type  2   force =     0.00060677   -0.00007165   -0.00025053
     atom   13 type  1   force =    -0.00102804   -0.00062061    0.00017998
     atom   14 type  1   force =     0.00010228   -0.00003790    0.00016615
     atom   15 type  2   force =    -0.00028022   -0.00074047   -0.00005155
     atom   16 type  2   force =    -0.00000919   -0.00008387    0.00067948
     atom   17 type  2   force =    -0.00034764    0.00020690    0.00050309
     atom   18 type  2   force =     0.00027488    0.00003339    0.00023486
     atom   19 type  1   force =     0.00023808   -0.00002394    0.00059355
     atom   20 type  1   force =    -0.00011303   -0.00030292    0.00025721
     atom   21 type  2   force =     0.00007289   -0.00001803    0.10398541
     atom   22 type  2   force =     0.00003780   -0.00069389   -0.00120702
     atom   23 type  2   force =    -0.07040253   -0.00011285   -0.02687439
     atom   24 type  2   force =     0.07028111    0.00033084   -0.02691575
     atom   25 type  1   force =    -0.00000342   -0.00022951    0.09282219
     atom   26 type  1   force =    -0.00020096   -0.00036842   -0.17829438
     atom   27 type  2   force =     0.00010548   -0.00028606   -0.01933828
     atom   28 type  2   force =     0.00003689   -0.00162411    0.05807272
     atom   29 type  2   force =    -0.01068897   -0.00080271    0.00799573
     atom   30 type  2   force =     0.01180673   -0.00047438    0.00652115
     atom   31 type  1   force =    -0.00072587    0.00505402   -0.01491231
     atom   32 type  1   force =     0.00040101   -0.00140076   -0.00478543
     atom   33 type  2   force =    -0.00011101    0.00021590    0.00030024
     atom   34 type  2   force =    -0.00128867    0.00140474   -0.00090988
     atom   35 type  2   force =     0.00019969    0.00013497    0.00000645
     atom   36 type  2   force =     0.00011196   -0.00001499   -0.00012954
     atom   37 type  1   force =    -0.00103783    0.00055351    0.00002161
     atom   38 type  1   force =     0.00014528   -0.00014977   -0.00004580
     atom   39 type  2   force =    -0.00002444   -0.00014881    0.00026841
     atom   40 type  2   force =    -0.00020714    0.00020970    0.00025287
     atom   41 type  2   force =     0.00005777   -0.00018508    0.00041974
     atom   42 type  2   force =    -0.00017840   -0.00007913    0.00008880
     atom   43 type  1   force =     0.00012164    0.00036006    0.00036964
     atom   44 type  1   force =    -0.00011756    0.00067865   -0.00061199
     atom   45 type  2   force =     0.00003985   -0.00004965    0.10396723
     atom   46 type  2   force =    -0.07039260   -0.00005033   -0.02690594
     atom   47 type  2   force =     0.07030007    0.00037700   -0.02693874
     atom   48 type  3   force =    -0.00019871   -0.00325058   -0.00048498
     atom   49 type  3   force =    -0.00121413    0.02364479   -0.00247170
     atom   50 type  4   force =    -0.00005422   -0.00011228   -0.00114478
     atom   51 type  5   force =    -0.00001215   -0.00019328    0.00010713
     atom   52 type  5   force =     0.00038498   -0.00054118    0.00053437
     atom   53 type  5   force =     0.00062849    0.00008377   -0.00035777
     atom   54 type  5   force =     0.00647493   -0.00790323   -0.00217659
     atom   55 type  5   force =    -0.00287565   -0.01083550    0.00647563
     atom   56 type  5   force =    -0.00098250   -0.00009200   -0.00055533
     atom   57 type  2   force =    -0.00034552    0.00059680   -0.00059191
     atom   58 type  5   force =     0.00074506   -0.00044069    0.00011322
     atom   59 type  5   force =     0.00025107   -0.00030081    0.00034371

     Total force =     0.367252     Total SCF correction =     0.000811
  @ DRIVER MODE: Message from server: STATUS
  @ DRIVER MODE: Message from server: GETFORCE
  @ DRIVER MODE: Returning v,forces,stress,ensemble

     Writing output data file ./calc.save/
  @ DRIVER MODE: Message from server: EXIT
  @ DRIVE MODE: Exiting

     General routines

     Parallel routines

   This run was terminated on:  19:11:46  15Sep2021

   JOB DONE.