     Program PWSCF v.6.7GPU starts on  2Aug2021 at 19:45:41

     R & G space division:  proc/nbgrp/npool/nimage =      16
     Reading input from /storage/home/hcoda1/3/ntian30/research/carbon/02Aug_vib_paired/ads_slab/CH3NNH3_a/out_0027/pw.inp
Warning: card &CELL ignored
Warning: card   CELL_DYNAMICS='IPI', ignored
Warning: card / ignored

     Current dimensions of program PWSCF are:
     Max number of different atomic species (ntypx) = 10
     Max number of k-points (npk) =  40000
     Max angular momentum in pseudopotentials (lmaxx) =  3
     Presently no symmetry can be used with electric field

     Message from routine cell_base_init:
     DEPRECATED: use true lattice parameter, not A to a.u. conversion factor

     IMPORTANT: XC functional enforced from input :
     Exchange-correlation= BEEF-VDW
                           (   1   4  43  14   2   0   0)
     Any further DFT definition will be discarded
     Please, verify this is what you really want

  @ DRIVER MODE: Connecting to
 qe_1139763_2482544.sched-torque.pace.gatech.edu0cjpjl82_scratch
  using UNIX socket
  @ DRIVER MODE: Message from server: STATUS
  @ DRIVER MODE: Message from server: INIT
  @ DRIVER MODE: Receiving replica           0          -1
  @ DRIVER MODE: Receiving encoded integer          25
  @ DRIVER MODE:  SCF:  T  FORCE:  T  STRESS:  F  VC:  F  ENSEMBLE:  F
  @ DRIVER MODE:  SCF:  T  FORCE:  T  STRESS:  F  VC:  F  ENSEMBLE:  F

     Using Slab Decomposition

     bravais-lattice index     =            0
     lattice parameter (alat)  =       1.8897  a.u.
     unit-cell volume          =    6658.9804 (a.u.)^3
     number of atoms/cell      =           56
     number of atomic types    =            5
     number of electrons       =       398.00
     number of Kohn-Sham states=          209
     kinetic-energy cutoff     =      29.3995  Ry
     charge density cutoff     =     293.9946  Ry
     scf convergence threshold =      7.3E-08
     mixing beta               =       0.0500
     number of iterations used =            8  plain     mixing
     Exchange-correlation= BEEF-VDW
                           (   1   4  43  14   2   0   0)

     celldm(1)=   1.889726  celldm(2)=   0.000000  celldm(3)=   0.000000
     celldm(4)=   0.000000  celldm(5)=   0.000000  celldm(6)=   0.000000

     crystal axes: (cart. coord. in units of alat)
               a(1) = (   6.579727   0.000000   0.000000 )
               a(2) = (  -0.000775   5.961596   0.000000 )
               a(3) = (   0.000000   0.000000  25.155947 )

     reciprocal axes: (cart. coord. in units 2 pi/alat)
               b(1) = (  0.151982  0.000020  0.000000 )
               b(2) = (  0.000000  0.167740  0.000000 )
               b(3) = (  0.000000  0.000000  0.039752 )

     PseudoPot. # 1 for Ti read from file:
     /storage/coda1/p-amedford6/0/shared/rich_project_chbe-medford/medford-share/data/pseudos_module/espresso/nninc/pbe/van/Ti.UPF
     MD5 check sum: 8e4df49b7f0d34bbd5052bf3f5ea0213
     Pseudo is Ultrasoft, Zval = 12.0
     Generated by new atomic code, or converted to UPF format
     Using radial grid of  851 points,  6 beta functions with:
                l(1) =   0
                l(2) =   0
                l(3) =   1
                l(4) =   1
                l(5) =   2
                l(6) =   2
     Q(r) pseudized with  8 coefficients,  rinner =    1.000   1.000   1.000
                                                       1.000   1.000

     PseudoPot. # 2 for O  read from file:
     /storage/coda1/p-amedford6/0/shared/rich_project_chbe-medford/medford-share/data/pseudos_module/espresso/nninc/pbe/van/O.UPF
     MD5 check sum: 78c19812648e8988a0fe644b0f25305e
     Pseudo is Ultrasoft, Zval =  6.0
     Generated by new atomic code, or converted to UPF format
     Using radial grid of  737 points,  4 beta functions with:
                l(1) =   0
                l(2) =   0
                l(3) =   1
                l(4) =   1
     Q(r) pseudized with  8 coefficients,  rinner =    0.800   0.800   0.800

     PseudoPot. # 3 for N  read from file:
     /storage/coda1/p-amedford6/0/shared/rich_project_chbe-medford/medford-share/data/pseudos_module/espresso/nninc/pbe/van/N.UPF
     MD5 check sum: 90d10febe142ad51ac9d5be1deb811c4
     Pseudo is Ultrasoft, Zval =  5.0
     Generated by new atomic code, or converted to UPF format
     Using radial grid of  729 points,  4 beta functions with:
                l(1) =   0
                l(2) =   0
                l(3) =   1
                l(4) =   1
     Q(r) pseudized with  8 coefficients,  rinner =    0.800   0.800   0.800

     PseudoPot. # 4 for C  read from file:
     /storage/coda1/p-amedford6/0/shared/rich_project_chbe-medford/medford-share/data/pseudos_module/espresso/nninc/pbe/van/C.UPF
     MD5 check sum: 1a69bf6b8db32088f5b2163dbdb77a27
     Pseudo is Ultrasoft, Zval =  4.0
     Generated by new atomic code, or converted to UPF format
     Using radial grid of  721 points,  4 beta functions with:
                l(1) =   0
                l(2) =   0
                l(3) =   1
                l(4) =   1
     Q(r) pseudized with  8 coefficients,  rinner =    0.800   0.800   0.800

     PseudoPot. # 5 for H  read from file:
     /storage/coda1/p-amedford6/0/shared/rich_project_chbe-medford/medford-share/data/pseudos_module/espresso/nninc/pbe/van/H.UPF
     MD5 check sum: b5ee9d7bfd3a09ee7748110bda690ff7
     Pseudo is Ultrasoft, Zval =  1.0
     Generated by new atomic code, or converted to UPF format
     Using radial grid of  615 points,  1 beta functions with:
                l(1) =   0
     Q(r) pseudized with  8 coefficients,  rinner =    0.800

     atomic species   valence    mass     pseudopotential
        Ti1           12.00    47.86700     Ti( 1.00)
        O1             6.00    15.99900     O ( 1.00)
        N1             5.00    14.00700     N ( 1.00)
        C1             4.00    12.01100     C ( 1.00)
        H1             1.00     1.00800     H ( 1.00)

     No symmetry found

   Cartesian axes

     site n.     atom                  positions (alat units)
         1           Ti1 tau(   1) = (   0.0004258   2.9801865   6.0000000  )
         2           Ti1 tau(   2) = (   3.2906075   1.4906267   6.0002472  )
         3           O1  tau(   3) = (   0.0006271   0.0005054   7.9858123  )
         4           O1  tau(   4) = (   3.2906025   0.0005020   7.3038282  )
         5           O1  tau(   5) = (   4.5942328   1.4918067   9.2879030  )
         6           O1  tau(   6) = (   1.9868534   1.4903216   9.2879459  )
         7           Ti1 tau(   7) = (   3.2907910   2.8959150   9.1758416  )
         8           Ti1 tau(   8) = (   0.0015273   1.4827037   9.2680791  )
         9           O1  tau(   9) = (   3.2727297   5.9424138  11.2974721  )
        10           O1  tau(  10) = (   0.0116148   5.9584955  10.6183126  )
        11           O1  tau(  11) = (   1.3027692   1.4721713  12.6242268  )
        12           O1  tau(  12) = (   5.2784376   1.4723552  12.6258992  )
        13           Ti1 tau(  13) = (   6.4570204   2.9507206  12.7630554  )
        14           Ti1 tau(  14) = (   3.1467966   1.4649636  12.4688949  )
        15           O1  tau(  15) = (   6.5600513   5.9133837  14.5918744  )
        16           O1  tau(  16) = (   3.2766225   5.9390981  13.8789110  )
        17           O1  tau(  17) = (   4.4915826   1.4834571  16.0540230  )
        18           O1  tau(  18) = (   2.0416982   1.4849982  16.0411193  )
        19           Ti1 tau(  19) = (   3.2679172   2.9642910  15.6858091  )
        20           Ti1 tau(  20) = (   6.5495220   1.5641796  16.1095294  )
        21           O1  tau(  21) = (   3.2904802   0.0005063   4.7018136  )
        22           O1  tau(  22) = (   6.5606002   0.0080969  17.2010096  )
        23           O1  tau(  23) = (   1.3043587   1.4918075   6.0039043  )
        24           O1  tau(  24) = (   5.2767064   1.4903225   6.0039473  )
        25           Ti1 tau(  25) = (   0.0000382   5.9609847   6.0000000  )
        26           Ti1 tau(  26) = (   3.2902200   4.4714249   6.0002472  )
        27           O1  tau(  27) = (   0.0002396   2.9813036   7.9858123  )
        28           O1  tau(  28) = (   3.2902150   2.9813002   7.3038282  )
        29           O1  tau(  29) = (   4.5938453   4.4726049   9.2879030  )
        30           O1  tau(  30) = (   1.9864658   4.4711199   9.2879459  )
        31           Ti1 tau(  31) = (   3.2891106   5.8743827   9.1763621  )
        32           Ti1 tau(  32) = (   0.0006254   4.4649316   9.2693709  )
        33           O1  tau(  33) = (   3.2718307   2.9587034  11.2961003  )
        34           O1  tau(  34) = (   0.0092240   2.9805883  10.6323155  )
        35           O1  tau(  35) = (   1.3028232   4.4416136  12.6207192  )
        36           O1  tau(  36) = (   5.2777600   4.4366566  12.6238879  )
        37           Ti1 tau(  37) = (   6.4830488   5.9304874  12.7660964  )
        38           Ti1 tau(  38) = (   3.1463657   4.4448748  12.4639736  )
        39           O1  tau(  39) = (   6.5417323   2.9404903  14.6589984  )
        40           O1  tau(  40) = (   3.2789452   2.9619718  13.8791424  )
        41           O1  tau(  41) = (   4.4971312   4.4676043  16.0556370  )
        42           O1  tau(  42) = (   2.0400509   4.4648231  16.0515753  )
        43           Ti1 tau(  43) = (   3.2598176   5.9476019  15.6881950  )
        44           Ti1 tau(  44) = (   6.5485469   4.5424454  16.1156095  )
        45           O1  tau(  45) = (   3.2900926   2.9813045   4.7018136  )
        46           O1  tau(  46) = (   1.3039711   4.4726057   6.0039043  )
        47           O1  tau(  47) = (   5.2763189   4.4711207   6.0039473  )
        48           N1  tau(  48) = (   0.0016189   2.9795595  17.3279962  )
        49           C1  tau(  49) = (   0.1681806   3.0735589  18.7581663  )
        50           H1  tau(  50) = (   6.0068595   3.7517258  19.1994632  )
        51           H1  tau(  51) = (   0.0766375   2.0971904  19.2409400  )
        52           H1  tau(  52) = (   1.1565538   3.4801639  19.0026035  )
        53           N1  tau(  53) = (   4.7601180   1.8141088  21.6614004  )
        54           H1  tau(  54) = (   4.4666586   2.7830198  21.5980365  )
        55           H1  tau(  55) = (   4.1231612   1.2775871  21.0809158  )
        56           H1  tau(  56) = (   4.6015807   1.5257772  22.6208530  )

     number of k points=    10  Fermi-Dirac smearing, width (Ry)=  0.0073
                       cart. coord. in units 2pi/alat
        k(    1) = (   0.0000000   0.0000000   0.0000000), wk =   0.1250000
        k(    2) = (   0.0000000   0.0419351   0.0000000), wk =   0.2500000
        k(    3) = (   0.0000000  -0.0838702   0.0000000), wk =   0.1250000
        k(    4) = (   0.0379955   0.0000049   0.0000000), wk =   0.2500000
        k(    5) = (   0.0379955   0.0419400   0.0000000), wk =   0.2500000
        k(    6) = (   0.0379955  -0.0838652   0.0000000), wk =   0.2500000
        k(    7) = (   0.0379955  -0.0419301   0.0000000), wk =   0.2500000
        k(    8) = (  -0.0759910  -0.0000099   0.0000000), wk =   0.1250000
        k(    9) = (  -0.0759910   0.0419252   0.0000000), wk =   0.2500000
        k(   10) = (  -0.0759910  -0.0838800   0.0000000), wk =   0.1250000

     Initial potential from superposition of free atoms

     starting charge  381.99914, renormalised to  398.00000

     negative rho (up, down):  9.480E-03 0.000E+00

     %%%%%%%%%%%%%%%%%%%%%%%%%%%%%%%%%%%%%%%%%%%%%%%%%%%%%%%%%%%%%%%%%%%%%%%%
     %                                                                      %
     % You are using vdW-DF, which was implemented by the Thonhauser group. %
     % Please cite the following two papers that made this development      %
     % possible and the two reviews that describe the various versions:     %
     %                                                                      %
     %   T. Thonhauser et al., PRL 115, 136402 (2015).                      %
     %   T. Thonhauser et al., PRB 76, 125112 (2007).                       %
     %   K. Berland et al., Rep. Prog. Phys. 78, 066501 (2015).             %
     %   D.C. Langreth et al., J. Phys.: Condens. Matter 21, 084203 (2009). %
     %                                                                      %
     %                                                                      %
     % If you are calculating the stress with vdW-DF, please also cite:     %
     %                                                                      %
     %   R. Sabatini et al., J. Phys.: Condens. Matter 24, 424209 (2012).   %
     %                                                                      %
     %%%%%%%%%%%%%%%%%%%%%%%%%%%%%%%%%%%%%%%%%%%%%%%%%%%%%%%%%%%%%%%%%%%%%%%%

     Adding external electric field

     Computed dipole along edir(3) :
        Dipole              -11.3717 Ry au,        -28.9040 Debye
        Dipole field         -0.0215 Ry au,

        Potential amp.        1.9893 Ry
        Total length         46.3494 bohr

     Starting wfcs are  302 atomic wfcs
  @ DRIVER MODE: Message from server: STATUS
  @ DRIVER MODE: Message from server: POSDATA
  @ DRIVER MODE: Reading and sharing cell
  @ DRIVER MODE: Reading and sharing positions
  @ DRIVER MODE: Received positions

     Self-consistent Calculation

     iteration #  1     ecut=    29.40 Ry     beta= 0.05
     Davidson diagonalization with overlap
     c_bands:  1 eigenvalues not converged
     c_bands:  1 eigenvalues not converged
     c_bands:  2 eigenvalues not converged
     c_bands:  1 eigenvalues not converged
     c_bands:  1 eigenvalues not converged
     c_bands:  1 eigenvalues not converged
     c_bands:  1 eigenvalues not converged
     c_bands:  2 eigenvalues not converged
     c_bands:  2 eigenvalues not converged
     ethr =  1.00E-05,  avg # of iterations = 19.6

[...]

     total energy              =   -2520.80156602 Ry
     estimated scf accuracy    <    4705.88169111 Ry

     iteration #  2     ecut=    29.40 Ry     beta= 0.05
     Davidson diagonalization with overlap
     ethr =  1.00E-02,  avg # of iterations = 21.9

[...]

     iteration # 48     ecut=    29.40 Ry     beta= 0.05
     Davidson diagonalization with overlap
     c_bands:  1 eigenvalues not converged
     ethr =  5.64E-07,  avg # of iterations =  7.2

[...]

     total energy              =   -2942.90673413 Ry
     estimated scf accuracy    <       0.00000017 Ry

     iteration # 67     ecut=    29.40 Ry     beta= 0.05
     Davidson diagonalization with overlap
     ethr =  3.05E-11,  avg # of iterations =  5.0

     negative rho (up, down):  1.096E-02 0.000E+00

     Adding external electric field

     Computed dipole along edir(3) :
        Dipole                0.4534 Ry au,          1.1525 Debye
        Dipole field          0.0009 Ry au,

        Potential amp.       -0.0793 Ry
        Total length         46.3494 bohr

     End of self-consistent calculation

          k = 0.0000 0.0000 0.0000 ( 18029 PWs)   bands (ev):

   -56.6144 -56.5808 -55.7333 -55.7247 -55.6979 -55.6924 -55.5876 -55.5519
   -55.3703 -55.3350 -55.2789 -55.2722 -55.2450 -55.1700 -54.7323 -54.6194
   -33.0423 -32.8890 -32.8609 -32.7907 -32.6996 -32.6683 -32.2079 -32.1971
   -32.1305 -32.0197 -31.9747 -31.9465 -31.9325 -31.9077 -31.8751 -31.8725
   -31.8683 -31.8618 -31.8387 -31.8349 -31.8239 -31.7958 -31.7705 -31.7568
   -31.7436 -31.7237 -31.7154 -31.6920 -31.6712 -31.6173 -31.6017 -31.5932
   -31.5143 -31.5090 -31.4899 -31.4476 -31.4369 -31.4064 -31.3989 -31.3745
   -31.3532 -31.2955 -31.2339 -30.9733 -30.9608 -30.8788 -30.8394 -30.7482
   -16.7784 -16.3437 -16.1138 -15.9770 -15.9090 -15.8551 -15.8095 -15.6877
   -15.6153 -15.6090 -15.5689 -15.5378 -15.4674 -15.3267 -15.2285 -15.1749
   -15.1305 -15.0095 -14.9497 -14.9166 -14.9117 -14.8772 -14.8577 -14.6620
   -14.6375 -14.5352 -14.5249 -14.3996 -14.1764 -13.7777 -13.7215 -13.6676
   -12.7977  -7.4998  -4.3442  -3.8389  -3.7996  -3.7699  -3.6013  -3.5145
    -3.4068  -3.3942  -3.3125  -3.1952  -3.1489  -3.1012  -2.9853  -2.9850
    -2.8358  -2.7904  -2.7902  -2.7853  -2.7365  -2.6838  -2.6675  -2.6230
    -2.6198  -2.6067  -2.4594  -2.3571  -2.2891  -2.2683  -2.2577  -2.2223
    -2.1435  -2.1236  -2.1093  -2.1057  -2.0046  -1.8569  -1.8549  -1.8234
    -1.7800  -1.7788  -1.7414  -1.7252  -1.5901  -1.5165  -1.4136  -1.3964
    -1.3579  -1.2939  -1.2878  -1.1892  -1.1151  -1.0522  -1.0272  -0.9183
    -0.8753  -0.8528  -0.7628  -0.7012  -0.6616  -0.6438  -0.6271  -0.5241
    -0.5039  -0.4924  -0.4075  -0.3958  -0.3387  -0.2572  -0.2377  -0.2318
    -0.1432  -0.1378  -0.0453  -0.0040   0.0381   0.0829   0.1790   0.1972
     0.3001   0.3353   0.3572   0.4766   0.4897   0.5525   0.6200   0.6872
     0.7184   0.7424   0.7723   0.7938   0.8675   0.9822   0.9866   1.0891
     1.1283   1.2954   1.3344   1.3808   1.6229   1.6517   2.3186   2.6602
     2.8203   3.1187   3.3099   3.4210   3.6357   3.6508   3.6561   3.8338
     3.8799

[...]

          k = 0.0380-0.0419 0.0000 ( 17876 PWs)   bands (ev):

[...]

          k =-0.0760-0.0000 0.0000 ( 17886 PWs)   bands (ev):

[...]

          k =-0.0760-0.0839 0.0000 ( 17948 PWs)   bands (ev):

   -56.5978 -56.5974 -55.7172 -55.7121 -55.7097 -55.7090 -55.5724 -55.5669
   -55.3554 -55.3497 -55.2691 -55.2619 -55.2618 -55.1730 -54.7294 -54.6221
   -32.8749 -32.8746 -32.8593 -32.8590 -32.7437 -32.7434 -32.0375 -32.0349
   -32.0214 -32.0154 -31.9652 -31.9641 -31.9219 -31.9205 -31.9191 -31.9180
   -31.9071 -31.9045 -31.9031 -31.9008 -31.8244 -31.8199 -31.7736 -31.7682
   -31.7068 -31.6995 -31.6384 -31.6317 -31.6063 -31.6061 -31.5986 -31.5543
   -31.5523 -31.5248 -31.4897 -31.4875 -31.4873 -31.4484 -31.4483 -31.4428
   -31.4158 -31.3765 -31.1126 -30.9935 -30.9604 -30.9285 -30.8419 -30.8070
   -16.1266 -16.1246 -16.0925 -16.0922 -15.8224 -15.8186 -15.7742 -15.7724
   -15.5996 -15.5937 -15.3872 -15.3770 -15.3711 -15.3670 -15.2428 -15.2340
   -15.1704 -15.1596 -15.0702 -15.0666 -15.0040 -14.9978 -14.9596 -14.9399
   -14.6235 -14.6161 -14.4886 -14.4797 -14.3262 -13.7711 -13.7710 -13.7207
   -12.8142  -7.4899  -3.7992  -3.7850  -3.2262  -3.2256  -3.1600  -3.1587
    -3.0375  -3.0328  -2.9567  -2.9562  -2.8564  -2.8521  -2.7467  -2.7126
    -2.7104  -2.7082  -2.6933  -2.6685  -2.5567  -2.5561  -2.5417  -2.5266
    -2.4714  -2.4693  -2.4541  -2.3817  -2.3681  -2.3323  -2.2930  -2.1863
    -2.1728  -2.1558  -2.1303  -2.0703  -2.0562  -2.0445  -1.9970  -1.9743
    -1.8943  -1.8278  -1.7863  -1.6671  -1.6637  -1.6536  -1.6414  -1.4866
    -1.4507  -1.4193  -1.4101  -1.4037  -1.3591  -1.2616  -1.2536  -1.1189
    -1.1163  -1.0462  -0.9645  -0.9416  -0.9194  -0.7849  -0.7448  -0.7037
    -0.6987  -0.6735  -0.6476  -0.6283  -0.6005  -0.4490  -0.4297  -0.3957
    -0.3648  -0.3566  -0.3160  -0.2471  -0.1676  -0.0871  -0.0859  -0.0186
     0.0335   0.0950   0.1831   0.1954   0.1993   0.4822   0.5622   0.6497
     0.7287   0.7929   0.8583   0.8831   0.9437   0.9827   1.1220   1.1249
     1.1434   1.1439   1.2044   1.2127   1.3635   1.6478   2.2052   3.2334
     3.2336   3.3008   3.3013   3.6250   3.6304   3.7395   3.7485   3.8590
     3.8643

     the Fermi energy is     2.4981 ev

!    total energy              =   -2942.90677851 Ry
     estimated scf accuracy    <       0.00000005 Ry
     smearing contrib. (-TS)   =      -0.00476771 Ry
     internal energy E=F+TS    =   -2942.90201080 Ry

     The total energy is F=E-TS. E is the sum of the following terms:
     one-electron contribution =  -23225.53113737 Ry
     hartree contribution      =   11703.05253564 Ry
     xc contribution           =    -487.47115335 Ry
     ewald contribution        =    9067.04735628 Ry
     electric field correction =       0.00038800 Ry

     convergence has been achieved in  67 iterations

     Forces acting on atoms (cartesian axes, Ry/au):

     atom    1 type  1   force =     0.00000802   -0.00043339    0.12432977
     atom    2 type  1   force =    -0.00005831   -0.00055522   -0.16062177
     atom    3 type  2   force =     0.00016637   -0.00030315   -0.06836668
     atom    4 type  2   force =    -0.00005495   -0.00038913    0.02750813
     atom    5 type  2   force =    -0.01678434    0.00112641   -0.00833697
     atom    6 type  2   force =     0.01783434    0.00162788   -0.01023527
     atom    7 type  1   force =     0.00039494   -0.00407699    0.02182875
     atom    8 type  1   force =     0.00019986   -0.00219451    0.11169812
     atom    9 type  2   force =     0.00010507    0.00018464   -0.00032758
     atom   10 type  2   force =    -0.00319599    0.00010704   -0.07308300
     atom   11 type  2   force =    -0.00035014    0.00032966   -0.00008077
     atom   12 type  2   force =     0.00013394    0.00044908   -0.00004150
     atom   13 type  1   force =     0.00014120   -0.00023890    0.00001530
     atom   14 type  1   force =    -0.00015429    0.00003394   -0.00031405
     atom   15 type  2   force =    -0.00004078   -0.00023931    0.00016610
     atom   16 type  2   force =     0.00032807    0.00076614   -0.00000563
     atom   17 type  2   force =     0.00018406    0.00030980   -0.00027436
     atom   18 type  2   force =    -0.00019013    0.00021267    0.00013371
     atom   19 type  1   force =     0.00052233   -0.00006559   -0.00018976
     atom   20 type  1   force =     0.00026989   -0.00034520   -0.00043799
     atom   21 type  2   force =     0.00009887    0.00008066    0.09964836
     atom   22 type  2   force =     0.00007138    0.00095543    0.00043566
     atom   23 type  2   force =    -0.07916418    0.00008478   -0.03244794
     atom   24 type  2   force =     0.07907280    0.00051302   -0.03244679
     atom   25 type  1   force =     0.00002648   -0.00042669    0.12384475
     atom   26 type  1   force =    -0.00003680   -0.00042419   -0.16073551
     atom   27 type  2   force =     0.00028788   -0.00046870   -0.06735586
     atom   28 type  2   force =    -0.00005655   -0.00020221    0.02724071
     atom   29 type  2   force =    -0.01731468    0.00073953   -0.00826582
     atom   30 type  2   force =     0.01828209    0.00113716   -0.01010625
     atom   31 type  1   force =     0.00033581   -0.00099887    0.02129305
     atom   32 type  1   force =     0.00021855   -0.00027388    0.11224862
     atom   33 type  2   force =     0.00012194    0.00051274   -0.00009689
     atom   34 type  2   force =    -0.00294396   -0.00065656   -0.07293840
     atom   35 type  2   force =    -0.00025119    0.00027542   -0.00010315
     atom   36 type  2   force =     0.00009081    0.00013691   -0.00004259
     atom   37 type  1   force =     0.00013380   -0.00015307    0.00027943
     atom   38 type  1   force =     0.00007936    0.00005405    0.00031302
     atom   39 type  2   force =     0.00021423    0.00038438   -0.00018931
     atom   40 type  2   force =     0.00010164    0.00034551    0.00014191
     atom   41 type  2   force =    -0.00018421    0.00033693    0.00016749
     atom   42 type  2   force =    -0.00000038    0.00060114   -0.00001462
     atom   43 type  1   force =     0.00061413    0.00051341    0.00051392
     atom   44 type  1   force =     0.00014660    0.00029289   -0.00030270
     atom   45 type  2   force =     0.00010414    0.00005013    0.09969660
     atom   46 type  2   force =    -0.07917294    0.00012721   -0.03244551
     atom   47 type  2   force =     0.07907361    0.00056072   -0.03243353
     atom   48 type  3   force =     0.00039264    0.00031304   -0.00055380
     atom   49 type  4   force =    -0.00236573   -0.00327509    0.00133017
     atom   50 type  5   force =     0.00125323   -0.00011078   -0.00024024
     atom   51 type  5   force =    -0.00121342   -0.00002564   -0.00031505
     atom   52 type  5   force =     0.00268696    0.00240784    0.00098228
     atom   53 type  3   force =     0.00094371   -0.00022785    0.00037860
     atom   54 type  5   force =    -0.00011709    0.00080342   -0.00090916
     atom   55 type  5   force =     0.00022151    0.00034308    0.00030237
     atom   56 type  5   force =    -0.00121019   -0.00063177   -0.00023839

     Total force =     0.424974     Total SCF correction =     0.001075
  @ DRIVER MODE: Message from server: STATUS
  @ DRIVER MODE: Message from server: GETFORCE
  @ DRIVER MODE: Returning v,forces,stress,ensemble

     Writing output data file ./calc.save/
  @ DRIVER MODE: Message from server: EXIT
  @ DRIVE MODE: Exiting

     General routines

     Parallel routines

   This run was terminated on:  20: 0:27   2Aug2021

   JOB DONE.