     Program PWSCF v.6.7GPU starts on 22Sep2021 at  8:32:12

     R & G space division:  proc/nbgrp/npool/nimage =      10
     Reading input from /storage/home/hcoda1/3/ntian30/research/carbon/CxH_vib/CH_calc/ads_slab/CHNHNHH2O_b/out_0029/pw.inp
Warning: card &CELL ignored
Warning: card   CELL_DYNAMICS='IPI', ignored
Warning: card / ignored

     Current dimensions of program PWSCF are:
     Max number of different atomic species (ntypx) = 10
     Max number of k-points (npk) =  40000
     Max angular momentum in pseudopotentials (lmaxx) =  3
     Presently no symmetry can be used with electric field

     Message from routine cell_base_init:
     DEPRECATED: use true lattice parameter, not A to a.u. conversion factor

     IMPORTANT: XC functional enforced from input :
     Exchange-correlation= BEEF-VDW
                           (   1   4  43  14   2   0   0)
     Any further DFT definition will be discarded
     Please, verify this is what you really want

  @ DRIVER MODE: Connecting to
 qe_1139763_2927424.sched-torque.pace.gatech.edubt62y74t_scratch
  using UNIX socket
  @ DRIVER MODE: Message from server: STATUS
  @ DRIVER MODE: Message from server: INIT
  @ DRIVER MODE: Receiving replica           0          -1
  @ DRIVER MODE: Receiving encoded integer          25
  @ DRIVER MODE:  SCF:  T  FORCE:  T  STRESS:  F  VC:  F  ENSEMBLE:  F
  @ DRIVER MODE:  SCF:  T  FORCE:  T  STRESS:  F  VC:  F  ENSEMBLE:  F

     Using Slab Decomposition

     bravais-lattice index     =            0
     lattice parameter (alat)  =       1.8897  a.u.
     unit-cell volume          =    6658.9804 (a.u.)^3
     number of atoms/cell      =           56
     number of atomic types    =            5
     number of electrons       =       403.00
     number of Kohn-Sham states=          211
     kinetic-energy cutoff     =      29.3995  Ry
     charge density cutoff     =     293.9946  Ry
     scf convergence threshold =      7.3E-08
     mixing beta               =       0.0500
     number of iterations used =            8  plain     mixing
     Exchange-correlation= BEEF-VDW
                           (   1   4  43  14   2   0   0)

     celldm(1)=   1.889726  celldm(2)=   0.000000  celldm(3)=   0.000000
     celldm(4)=   0.000000  celldm(5)=   0.000000  celldm(6)=   0.000000

     crystal axes: (cart. coord. in units of alat)
               a(1) = (   6.579727   0.000000   0.000000 )
               a(2) = (  -0.000775   5.961596   0.000000 )
               a(3) = (   0.000000   0.000000  25.155947 )

     reciprocal axes: (cart. coord. in units 2 pi/alat)
               b(1) = (  0.151982  0.000020  0.000000 )
               b(2) = (  0.000000  0.167740  0.000000 )
               b(3) = (  0.000000  0.000000  0.039752 )

     PseudoPot. # 1 for Ti read from file:
     /storage/coda1/p-amedford6/0/shared/rich_project_chbe-medford/medford-share/data/pseudos_module/espresso/nninc/pbe/van/Ti.UPF
     MD5 check sum: 8e4df49b7f0d34bbd5052bf3f5ea0213
     Pseudo is Ultrasoft, Zval = 12.0
     Generated by new atomic code, or converted to UPF format
     Using radial grid of  851 points,  6 beta functions with:
                l(1) =   0
                l(2) =   0
                l(3) =   1
                l(4) =   1
                l(5) =   2
                l(6) =   2
     Q(r) pseudized with  8 coefficients,  rinner =    1.000   1.000   1.000
                                                       1.000   1.000

     PseudoPot. # 2 for O  read from file:
     /storage/coda1/p-amedford6/0/shared/rich_project_chbe-medford/medford-share/data/pseudos_module/espresso/nninc/pbe/van/O.UPF
     MD5 check sum: 78c19812648e8988a0fe644b0f25305e
     Pseudo is Ultrasoft, Zval =  6.0
     Generated by new atomic code, or converted to UPF format
     Using radial grid of  737 points,  4 beta functions with:
                l(1) =   0
                l(2) =   0
                l(3) =   1
                l(4) =   1
     Q(r) pseudized with  8 coefficients,  rinner =    0.800   0.800   0.800

     PseudoPot. # 3 for N  read from file:
     /storage/coda1/p-amedford6/0/shared/rich_project_chbe-medford/medford-share/data/pseudos_module/espresso/nninc/pbe/van/N.UPF
     MD5 check sum: 90d10febe142ad51ac9d5be1deb811c4
     Pseudo is Ultrasoft, Zval =  5.0
     Generated by new atomic code, or converted to UPF format
     Using radial grid of  729 points,  4 beta functions with:
                l(1) =   0
                l(2) =   0
                l(3) =   1
                l(4) =   1
     Q(r) pseudized with  8 coefficients,  rinner =    0.800   0.800   0.800

     PseudoPot. # 4 for C  read from file:
     /storage/coda1/p-amedford6/0/shared/rich_project_chbe-medford/medford-share/data/pseudos_module/espresso/nninc/pbe/van/C.UPF
     MD5 check sum: 1a69bf6b8db32088f5b2163dbdb77a27
     Pseudo is Ultrasoft, Zval =  4.0
     Generated by new atomic code, or converted to UPF format
     Using radial grid of  721 points,  4 beta functions with:
                l(1) =   0
                l(2) =   0
                l(3) =   1
                l(4) =   1
     Q(r) pseudized with  8 coefficients,  rinner =    0.800   0.800   0.800

     PseudoPot. # 5 for H  read from file:
     /storage/coda1/p-amedford6/0/shared/rich_project_chbe-medford/medford-share/data/pseudos_module/espresso/nninc/pbe/van/H.UPF
     MD5 check sum: b5ee9d7bfd3a09ee7748110bda690ff7
     Pseudo is Ultrasoft, Zval =  1.0
     Generated by new atomic code, or converted to UPF format
     Using radial grid of  615 points,  1 beta functions with:
                l(1) =   0
     Q(r) pseudized with  8 coefficients,  rinner =    0.800

     atomic species   valence    mass     pseudopotential
        Ti1           12.00    47.86700     Ti( 1.00)
        O1             6.00    15.99900     O ( 1.00)
        N1             5.00    14.00700     N ( 1.00)
        C1             4.00    12.01100     C ( 1.00)
        H1             1.00     1.00800     H ( 1.00)

     No symmetry found

   Cartesian axes

     site n.     atom                  positions (alat units)
         1           Ti1 tau(   1) = (   0.0004258   2.9801865   6.0000000  )
         2           Ti1 tau(   2) = (   3.2906075   1.4906267   6.0002472  )
         3           O1  tau(   3) = (   0.0006271   0.0005054   7.9858123  )
         4           O1  tau(   4) = (   3.2906025   0.0005020   7.3038282  )
         5           O1  tau(   5) = (   4.5942328   1.4918067   9.2879030  )
         6           O1  tau(   6) = (   1.9868534   1.4903216   9.2879459  )
         7           Ti1 tau(   7) = (   3.2907910   2.8959150   9.1758416  )
         8           Ti1 tau(   8) = (   0.0015273   1.4827037   9.2680791  )
         9           O1  tau(   9) = (   3.2780774   5.9605562  11.3537357  )
        10           O1  tau(  10) = (   0.0116148   5.9584955  10.6183126  )
        11           O1  tau(  11) = (   1.2922713   1.4781662  12.6511241  )
        12           O1  tau(  12) = (   5.2965393   1.5043564  12.6031353  )
        13           Ti1 tau(  13) = (   6.5273184   3.0207086  12.5807821  )
        14           Ti1 tau(  14) = (   3.2344070   1.4559942  12.5004267  )
        15           O1  tau(  15) = (   6.4759410   0.0295824  14.6525783  )
        16           O1  tau(  16) = (   3.3604338   0.0238249  13.9383540  )
        17           O1  tau(  17) = (   4.5324113   1.5808541  16.1066768  )
        18           O1  tau(  18) = (   1.9684897   1.4712893  15.8817925  )
        19           Ti1 tau(  19) = (   3.2566353   3.0739815  15.8599551  )
        20           Ti1 tau(  20) = (   6.5466614   1.5318677  15.7800735  )
        21           O1  tau(  21) = (   3.2904802   0.0005063   4.7018136  )
        22           O1  tau(  22) = (   6.5744325   0.0155309  17.2227980  )
        23           O1  tau(  23) = (   1.3043587   1.4918075   6.0039043  )
        24           O1  tau(  24) = (   5.2767064   1.4903225   6.0039473  )
        25           Ti1 tau(  25) = (   0.0000382   5.9609847   6.0000000  )
        26           Ti1 tau(  26) = (   3.2902200   4.4714249   6.0002472  )
        27           O1  tau(  27) = (   0.0002396   2.9813036   7.9858123  )
        28           O1  tau(  28) = (   3.2902150   2.9813002   7.3038282  )
        29           O1  tau(  29) = (   4.5938453   4.4726049   9.2879030  )
        30           O1  tau(  30) = (   1.9864658   4.4711199   9.2879459  )
        31           Ti1 tau(  31) = (   3.2891106   5.8743827   9.1763621  )
        32           Ti1 tau(  32) = (   0.0006254   4.4649316   9.2693709  )
        33           O1  tau(  33) = (   3.2727763   2.9788165  11.3438337  )
        34           O1  tau(  34) = (   0.0092240   2.9805883  10.6323155  )
        35           O1  tau(  35) = (   1.2865780   4.4896361  12.6556599  )
        36           O1  tau(  36) = (   5.2967437   4.4749066  12.6066920  )
        37           Ti1 tau(  37) = (   6.5467059   0.0356701  12.5108493  )
        38           Ti1 tau(  38) = (   3.2305653   4.4019604  12.5605372  )
        39           O1  tau(  39) = (   6.5199767   2.9846217  14.6905747  )
        40           O1  tau(  40) = (   3.2851694   3.0254550  13.9321539  )
        41           O1  tau(  41) = (   4.5310495   4.4602642  16.1636806  )
        42           O1  tau(  42) = (   1.9842988   4.5744318  15.9411167  )
        43           Ti1 tau(  43) = (   3.2691225   0.1036042  15.7405456  )
        44           Ti1 tau(  44) = (   6.5697781   4.6877429  16.0360384  )
        45           O1  tau(  45) = (   3.2900926   2.9813045   4.7018136  )
        46           O1  tau(  46) = (   1.3039711   4.4726057   6.0039043  )
        47           O1  tau(  47) = (   5.2763189   4.4711207   6.0039473  )
        48           N1  tau(  48) = (   1.2792381   2.8578196  18.3696018  )
        49           N1  tau(  49) = (   0.1888888   2.9646215  17.5057353  )
        50           C1  tau(  50) = (   2.5352320   2.9081513  18.0382144  )
        51           H1  tau(  51) = (   3.1442446   2.7411670  18.9317345  )
        52           H1  tau(  52) = (   1.0014291   2.6635404  19.3202151  )
        53           H1  tau(  53) = (   5.9397212   2.8571719  18.0851170  )
        54           O1  tau(  54) = (   3.2630597   0.0341043  18.2348460  )
        55           H1  tau(  55) = (   4.0455299   5.4198958  18.2485053  )
        56           H1  tau(  56) = (   2.4923979   5.4091459  18.3156537  )

     number of k points=    10  Fermi-Dirac smearing, width (Ry)=  0.0073
                       cart. coord. in units 2pi/alat
        k(    1) = (   0.0000000   0.0000000   0.0000000), wk =   0.1250000
        k(    2) = (   0.0000000   0.0419351   0.0000000), wk =   0.2500000
        k(    3) = (   0.0000000  -0.0838702   0.0000000), wk =   0.1250000
        k(    4) = (   0.0379955   0.0000049   0.0000000), wk =   0.2500000
        k(    5) = (   0.0379955   0.0419400   0.0000000), wk =   0.2500000
        k(    6) = (   0.0379955  -0.0838652   0.0000000), wk =   0.2500000
        k(    7) = (   0.0379955  -0.0419301   0.0000000), wk =   0.2500000
        k(    8) = (  -0.0759910  -0.0000099   0.0000000), wk =   0.1250000
        k(    9) = (  -0.0759910   0.0419252   0.0000000), wk =   0.2500000
        k(   10) = (  -0.0759910  -0.0838800   0.0000000), wk =   0.1250000

     Initial potential from superposition of free atoms

     starting charge  386.99914, renormalised to  403.00000

     negative rho (up, down):  1.739E-02 0.000E+00

     %%%%%%%%%%%%%%%%%%%%%%%%%%%%%%%%%%%%%%%%%%%%%%%%%%%%%%%%%%%%%%%%%%%%%%%%
     %                                                                      %
     % You are using vdW-DF, which was implemented by the Thonhauser group. %
     % Please cite the following two papers that made this development      %
     % possible and the two reviews that describe the various versions:     %
     %                                                                      %
     %   T. Thonhauser et al., PRL 115, 136402 (2015).                      %
     %   T. Thonhauser et al., PRB 76, 125112 (2007).                       %
     %   K. Berland et al., Rep. Prog. Phys. 78, 066501 (2015).             %
     %   D.C. Langreth et al., J. Phys.: Condens. Matter 21, 084203 (2009). %
     %                                                                      %
     %                                                                      %
     % If you are calculating the stress with vdW-DF, please also cite:     %
     %                                                                      %
     %   R. Sabatini et al., J. Phys.: Condens. Matter 24, 424209 (2012).   %
     %                                                                      %
     %%%%%%%%%%%%%%%%%%%%%%%%%%%%%%%%%%%%%%%%%%%%%%%%%%%%%%%%%%%%%%%%%%%%%%%%

     Adding external electric field

     Computed dipole along edir(3) :
        Dipole              -12.3455 Ry au,        -31.3791 Debye
        Dipole field         -0.0233 Ry au,

        Potential amp.        2.1597 Ry
        Total length         46.3494 bohr

     Starting wfcs are  305 atomic wfcs
  @ DRIVER MODE: Message from server: STATUS
  @ DRIVER MODE: Message from server: POSDATA
  @ DRIVER MODE: Reading and sharing cell
  @ DRIVER MODE: Reading and sharing positions
  @ DRIVER MODE: Received positions

     Self-consistent Calculation

     iteration #  1     ecut=    29.40 Ry     beta= 0.05
     Davidson diagonalization with overlap
     c_bands:  5 eigenvalues not converged
     c_bands:  3 eigenvalues not converged
     c_bands:  3 eigenvalues not converged
     c_bands:  1 eigenvalues not converged
     c_bands:  2 eigenvalues not converged
     c_bands:  2 eigenvalues not converged
     c_bands:  5 eigenvalues not converged
     c_bands:  2 eigenvalues not converged
     c_bands:  4 eigenvalues not converged
     ethr =  1.00E-05,  avg # of iterations = 29.3

[...]

     total energy              =   -2358.68356369 Ry
     estimated scf accuracy    <    6971.48339967 Ry

     iteration #  2     ecut=    29.40 Ry     beta= 0.05
     Davidson diagonalization with overlap
     ethr =  1.00E-02,  avg # of iterations = 26.5

[...]

     iteration # 69     ecut=    29.40 Ry     beta= 0.05
     Davidson diagonalization with overlap
     c_bands:  1 eigenvalues not converged
     ethr =  4.00E-11,  avg # of iterations = 14.4

[...]

     total energy              =   -2973.93999398 Ry
     estimated scf accuracy    <       0.00000017 Ry

     iteration # 70     ecut=    29.40 Ry     beta= 0.05
     Davidson diagonalization with overlap
     ethr =  4.00E-11,  avg # of iterations = 12.0

     negative rho (up, down):  1.727E-02 0.000E+00

     Adding external electric field

     Computed dipole along edir(3) :
        Dipole                1.3982 Ry au,          3.5540 Debye
        Dipole field          0.0026 Ry au,

        Potential amp.       -0.2446 Ry
        Total length         46.3494 bohr

     End of self-consistent calculation

          k = 0.0000 0.0000 0.0000 ( 18029 PWs)   bands (ev):

   -55.3205 -55.2864 -55.2115 -55.1873 -55.1686 -55.1568 -55.1415 -55.1196
   -55.1076 -55.1054 -55.0987 -55.0642 -54.9929 -54.8350 -54.3010 -54.2670
   -31.8046 -31.7325 -31.6582 -31.6512 -31.6413 -31.6125 -31.5884 -31.5658
   -31.5213 -31.5020 -31.4729 -31.4652 -31.4569 -31.4422 -31.4265 -31.4226
   -31.3993 -31.3815 -31.3777 -31.3663 -31.3366 -31.3342 -31.3300 -31.3271
   -31.3244 -31.3204 -31.3162 -31.2982 -31.2903 -31.2803 -31.2734 -31.2732
   -31.2630 -31.2616 -31.2532 -31.2493 -31.2410 -31.2156 -31.2113 -31.0912
   -31.0763 -31.0504 -30.7079 -30.6198 -30.5974 -30.5249 -30.4384 -30.3271
   -18.8810 -18.6737 -15.9789 -15.7952 -15.6142 -15.4750 -15.3931 -15.1615
   -15.1030 -15.0646 -14.9834 -14.9609 -14.8599 -14.8413 -14.8398 -14.8214
   -14.8186 -14.7634 -14.7482 -14.7437 -14.6953 -14.6885 -14.6632 -14.6477
   -14.5953 -14.5165 -14.5079 -14.4614 -14.4162 -14.3697 -14.0238 -13.4192
   -12.8020 -12.6855  -8.8641  -7.2755  -6.6194  -4.3239  -3.7948  -3.3621
    -3.2858  -3.2503  -3.2253  -3.0898  -2.9729  -2.8686  -2.7578  -2.6725
    -2.5858  -2.4814  -2.4249  -2.3793  -2.3188  -2.2588  -2.2325  -2.1468
    -2.1271  -2.1074  -2.0857  -2.0591  -2.0297  -1.9928  -1.8700  -1.8594
    -1.7774  -1.7211  -1.6826  -1.6644  -1.6404  -1.6347  -1.6025  -1.5820
    -1.5735  -1.5619  -1.5605  -1.5251  -1.3862  -1.3626  -1.3335  -1.3113
    -1.1645  -1.0271  -0.9382  -0.9357  -0.8262  -0.7615  -0.7582  -0.7197
    -0.7042  -0.6019  -0.5165  -0.4800  -0.4553  -0.3761  -0.3188  -0.2638
    -0.2121  -0.1767  -0.1101  -0.0862  -0.0695  -0.0526   0.0162   0.0789
     0.1400   0.2253   0.2688   0.2932   0.3841   0.3983   0.4214   0.4861
     0.5180   0.5631   0.5985   0.6277   0.6514   0.6816   0.7068   0.7500
     0.7880   0.9138   0.9320   0.9606   0.9817   1.1561   1.2057   1.3081
     1.3387   1.4401   1.4825   1.6615   1.7227   1.8022   1.9147   2.2929
     2.3388   3.7886   3.9000   3.9341   3.9589   3.9982   4.0495   4.2564
     4.3291   4.3704   4.4284

[...]

          k = 0.0380-0.0419 0.0000 ( 17876 PWs)   bands (ev):

[...]

          k =-0.0760-0.0000 0.0000 ( 17886 PWs)   bands (ev):

[...]

          k =-0.0760-0.0839 0.0000 ( 17948 PWs)   bands (ev):

   -55.3037 -55.3030 -55.2021 -55.1839 -55.1773 -55.1453 -55.1314 -55.1246
   -55.1239 -55.1090 -55.0855 -55.0775 -54.9911 -54.8366 -54.2839 -54.2839
   -31.6201 -31.6197 -31.5982 -31.5977 -31.5667 -31.5349 -31.5037 -31.4912
   -31.4840 -31.4687 -31.4501 -31.4450 -31.4408 -31.4317 -31.4265 -31.4245
   -31.4231 -31.4227 -31.4178 -31.4022 -31.3914 -31.3772 -31.3663 -31.3641
   -31.3590 -31.3547 -31.3454 -31.3329 -31.3270 -31.3255 -31.3103 -31.3011
   -31.2978 -31.2972 -31.2954 -31.2926 -31.2623 -31.2343 -31.2203 -31.1472
   -31.0936 -31.0793 -30.6101 -30.6101 -30.5207 -30.5206 -30.4817 -30.4817
   -18.8693 -18.6811 -15.3563 -15.3214 -15.2832 -15.2558 -15.2399 -15.1190
   -15.1054 -15.0698 -15.0282 -15.0149 -14.9846 -14.9560 -14.9072 -14.8985
   -14.8643 -14.8448 -14.8055 -14.7792 -14.7598 -14.7555 -14.7388 -14.7172
   -14.6736 -14.6518 -14.6393 -14.6350 -14.5830 -14.4887 -14.2091 -13.4419
   -12.7873 -12.7872  -8.8603  -7.2003  -6.6204  -4.5324  -3.5783  -2.8678
    -2.6718  -2.6319  -2.5798  -2.4894  -2.4422  -2.3203  -2.3138  -2.2911
    -2.2457  -2.2327  -2.1920  -2.1516  -2.1457  -2.1178  -2.1055  -2.0608
    -2.0496  -2.0465  -2.0322  -1.9985  -1.9929  -1.9725  -1.9484  -1.9451
    -1.9349  -1.9186  -1.8855  -1.8783  -1.8513  -1.8323  -1.6814  -1.6077
    -1.5641  -1.4867  -1.4636  -1.4468  -1.4277  -1.3929  -1.3727  -1.3471
    -1.3188  -1.1730  -1.0324  -0.9976  -0.9730  -0.8743  -0.8592  -0.8398
    -0.7928  -0.7513  -0.7159  -0.6575  -0.6488  -0.6026  -0.5813  -0.4612
    -0.4239  -0.3247  -0.2891  -0.2875  -0.2696  -0.2550  -0.2379  -0.2121
    -0.1625  -0.0911  -0.0757  -0.0270  -0.0032  -0.0005   0.0125   0.1583
     0.2292   0.2495   0.3520   0.3820   0.5568   0.7208   0.7326   0.8006
     0.8635   0.9185   0.9524   0.9924   1.0026   1.0681   1.0930   1.1975
     1.2079   1.2568   1.2615   1.3401   1.3531   2.0865   2.0882   2.1587
     2.1589   4.1523   4.1675   4.1961   4.2593   4.3028   4.3145   4.3520
     4.3557   4.4585   4.4744

     the Fermi energy is     3.8067 ev

!    total energy              =   -2973.94001510 Ry
     estimated scf accuracy    <       0.00000003 Ry
     smearing contrib. (-TS)   =      -0.02072704 Ry
     internal energy E=F+TS    =   -2973.91928806 Ry

     The total energy is F=E-TS. E is the sum of the following terms:
     one-electron contribution =  -24339.52629213 Ry
     hartree contribution      =   12267.46591568 Ry
     xc contribution           =    -494.12578004 Ry
     ewald contribution        =    9592.26317899 Ry
     electric field correction =       0.00368944 Ry

     convergence has been achieved in  70 iterations

     Forces acting on atoms (cartesian axes, Ry/au):

     atom    1 type  1   force =     0.00002603   -0.00009847    0.09506566
     atom    2 type  1   force =     0.00018000   -0.00068678   -0.17563625
     atom    3 type  2   force =     0.00008816   -0.00004840   -0.02294650
     atom    4 type  2   force =     0.00002212   -0.00143509    0.05291271
     atom    5 type  2   force =    -0.01001420   -0.00031559    0.00380634
     atom    6 type  2   force =     0.01113890    0.00020203    0.00206059
     atom    7 type  1   force =    -0.00021175    0.00178438   -0.00589621
     atom    8 type  1   force =     0.00080836    0.01009198    0.01604537
     atom    9 type  2   force =    -0.00015508    0.00086486    0.00032611
     atom   10 type  2   force =    -0.00227306    0.00217606   -0.01801516
     atom   11 type  2   force =     0.00024104   -0.00002792    0.00007873
     atom   12 type  2   force =    -0.00035304   -0.00018151    0.00055792
     atom   13 type  1   force =    -0.00002757    0.00125310    0.00018393
     atom   14 type  1   force =    -0.00011801    0.00009377   -0.00002156
     atom   15 type  2   force =     0.00011976    0.00021636   -0.00001453
     atom   16 type  2   force =    -0.00037436    0.00044230   -0.00022598
     atom   17 type  2   force =    -0.00017382   -0.00024422   -0.00001497
     atom   18 type  2   force =    -0.00005236    0.00005268    0.00045804
     atom   19 type  1   force =    -0.00048887    0.00034592   -0.00020063
     atom   20 type  1   force =    -0.00029633   -0.00005406    0.00015643
     atom   21 type  2   force =     0.00009155   -0.00008552    0.10318939
     atom   22 type  2   force =     0.00039646    0.00002357    0.00055530
     atom   23 type  2   force =    -0.07158390   -0.00016670   -0.02757709
     atom   24 type  2   force =     0.07154242    0.00024772   -0.02762557
     atom   25 type  1   force =     0.00023825   -0.00039451    0.09517470
     atom   26 type  1   force =    -0.00003720   -0.00020548   -0.17579793
     atom   27 type  2   force =     0.00012096   -0.00012075   -0.02197480
     atom   28 type  2   force =     0.00001432   -0.00139633    0.05323962
     atom   29 type  2   force =    -0.01035885   -0.00022698    0.00364861
     atom   30 type  2   force =     0.01139634    0.00042412    0.00191649
     atom   31 type  1   force =    -0.00029802    0.00266249   -0.00009446
     atom   32 type  1   force =     0.00067544   -0.01114751    0.01692467
     atom   33 type  2   force =     0.00037027   -0.00027040    0.00000198
     atom   34 type  2   force =    -0.00033846    0.00144240   -0.01894060
     atom   35 type  2   force =    -0.00000432   -0.00035455   -0.00016782
     atom   36 type  2   force =    -0.00000554   -0.00024569    0.00043185
     atom   37 type  1   force =    -0.00005417   -0.00122341    0.00033990
     atom   38 type  1   force =    -0.00039357    0.00088712    0.00004636
     atom   39 type  2   force =     0.00010067    0.00007390    0.00007402
     atom   40 type  2   force =    -0.00049577   -0.00059665   -0.00002811
     atom   41 type  2   force =     0.00018885   -0.00012266    0.00029980
     atom   42 type  2   force =    -0.00021738   -0.00033826   -0.00018803
     atom   43 type  1   force =    -0.00021656   -0.00021327    0.00042606
     atom   44 type  1   force =     0.00003740   -0.00039742    0.00022650
     atom   45 type  2   force =     0.00010057   -0.00010051    0.10320963
     atom   46 type  2   force =    -0.07156940   -0.00016768   -0.02756891
     atom   47 type  2   force =     0.07157029    0.00024428   -0.02758212
     atom   48 type  3   force =     0.00335472    0.00203050   -0.01334899
     atom   49 type  3   force =    -0.00006580    0.00028070   -0.00100984
     atom   50 type  4   force =     0.00071338   -0.00012527    0.00023337
     atom   51 type  5   force =    -0.00022296   -0.00059412   -0.00008083
     atom   52 type  5   force =    -0.00334465   -0.00381522    0.01361373
     atom   53 type  5   force =     0.00014351   -0.00042776   -0.00051300
     atom   54 type  2   force =    -0.00007513    0.00103633   -0.00009736
     atom   55 type  5   force =     0.00015491   -0.00023957   -0.00002028
     atom   56 type  5   force =    -0.00001456   -0.00080833    0.00038370

     Total force =     0.365728     Total SCF correction =     0.000426
  @ DRIVER MODE: Message from server: STATUS
  @ DRIVER MODE: Message from server: GETFORCE
  @ DRIVER MODE: Returning v,forces,stress,ensemble

     Writing output data file ./calc.save/
  @ DRIVER MODE: Message from server: EXIT
  @ DRIVE MODE: Exiting

     General routines

     Parallel routines

   This run was terminated on:   8:53:44  22Sep2021

   JOB DONE.