     Program PWSCF v.6.7GPU starts on  9Sep2021 at 10: 7:34

     R & G space division:  proc/nbgrp/npool/nimage =      10
     Reading input from /storage/home/hcoda1/3/ntian30/research/carbon/CxH_vib/CH3_calc/ads_slab/CH3NNH3_a/out_0037/pw.inp
Warning: card &CELL ignored
Warning: card   CELL_DYNAMICS='IPI', ignored
Warning: card / ignored

     Current dimensions of program PWSCF are:
     Max number of different atomic species (ntypx) = 10
     Max number of k-points (npk) =  40000
     Max angular momentum in pseudopotentials (lmaxx) =  3
     Presently no symmetry can be used with electric field

     Message from routine cell_base_init:
     DEPRECATED: use true lattice parameter, not A to a.u. conversion factor

     IMPORTANT: XC functional enforced from input :
     Exchange-correlation= BEEF-VDW
                           (   1   4  43  14   2   0   0)
     Any further DFT definition will be discarded
     Please, verify this is what you really want

  @ DRIVER MODE: Connecting to
 qe_1139763_2767402.sched-torque.pace.gatech.eduk136vwfr_scratch
  using UNIX socket
  @ DRIVER MODE: Message from server: STATUS
  @ DRIVER MODE: Message from server: INIT
  @ DRIVER MODE: Receiving replica           0          -1
  @ DRIVER MODE: Receiving encoded integer          25
  @ DRIVER MODE:  SCF:  T  FORCE:  T  STRESS:  F  VC:  F  ENSEMBLE:  F
  @ DRIVER MODE:  SCF:  T  FORCE:  T  STRESS:  F  VC:  F  ENSEMBLE:  F

     Using Slab Decomposition

     bravais-lattice index     =            0
     lattice parameter (alat)  =       1.8897  a.u.
     unit-cell volume          =    6658.9804 (a.u.)^3
     number of atoms/cell      =           56
     number of atomic types    =            5
     number of electrons       =       398.00
     number of Kohn-Sham states=          209
     kinetic-energy cutoff     =      29.3995  Ry
     charge density cutoff     =     293.9946  Ry
     scf convergence threshold =      7.3E-08
     mixing beta               =       0.0500
     number of iterations used =            8  plain     mixing
     Exchange-correlation= BEEF-VDW
                           (   1   4  43  14   2   0   0)

     celldm(1)=   1.889726  celldm(2)=   0.000000  celldm(3)=   0.000000
     celldm(4)=   0.000000  celldm(5)=   0.000000  celldm(6)=   0.000000

     crystal axes: (cart. coord. in units of alat)
               a(1) = (   6.579727   0.000000   0.000000 )
               a(2) = (  -0.000775   5.961596   0.000000 )
               a(3) = (   0.000000   0.000000  25.155947 )

     reciprocal axes: (cart. coord. in units 2 pi/alat)
               b(1) = (  0.151982  0.000020  0.000000 )
               b(2) = (  0.000000  0.167740  0.000000 )
               b(3) = (  0.000000  0.000000  0.039752 )

     PseudoPot. # 1 for Ti read from file:
     /storage/coda1/p-amedford6/0/shared/rich_project_chbe-medford/medford-share/data/pseudos_module/espresso/nninc/pbe/van/Ti.UPF
     MD5 check sum: 8e4df49b7f0d34bbd5052bf3f5ea0213
     Pseudo is Ultrasoft, Zval = 12.0
     Generated by new atomic code, or converted to UPF format
     Using radial grid of  851 points,  6 beta functions with:
                l(1) =   0
                l(2) =   0
                l(3) =   1
                l(4) =   1
                l(5) =   2
                l(6) =   2
     Q(r) pseudized with  8 coefficients,  rinner =    1.000   1.000   1.000
                                                       1.000   1.000

     PseudoPot. # 2 for O  read from file:
     /storage/coda1/p-amedford6/0/shared/rich_project_chbe-medford/medford-share/data/pseudos_module/espresso/nninc/pbe/van/O.UPF
     MD5 check sum: 78c19812648e8988a0fe644b0f25305e
     Pseudo is Ultrasoft, Zval =  6.0
     Generated by new atomic code, or converted to UPF format
     Using radial grid of  737 points,  4 beta functions with:
                l(1) =   0
                l(2) =   0
                l(3) =   1
                l(4) =   1
     Q(r) pseudized with  8 coefficients,  rinner =    0.800   0.800   0.800

     PseudoPot. # 3 for N  read from file:
     /storage/coda1/p-amedford6/0/shared/rich_project_chbe-medford/medford-share/data/pseudos_module/espresso/nninc/pbe/van/N.UPF
     MD5 check sum: 90d10febe142ad51ac9d5be1deb811c4
     Pseudo is Ultrasoft, Zval =  5.0
     Generated by new atomic code, or converted to UPF format
     Using radial grid of  729 points,  4 beta functions with:
                l(1) =   0
                l(2) =   0
                l(3) =   1
                l(4) =   1
     Q(r) pseudized with  8 coefficients,  rinner =    0.800   0.800   0.800

     PseudoPot. # 4 for C  read from file:
     /storage/coda1/p-amedford6/0/shared/rich_project_chbe-medford/medford-share/data/pseudos_module/espresso/nninc/pbe/van/C.UPF
     MD5 check sum: 1a69bf6b8db32088f5b2163dbdb77a27
     Pseudo is Ultrasoft, Zval =  4.0
     Generated by new atomic code, or converted to UPF format
     Using radial grid of  721 points,  4 beta functions with:
                l(1) =   0
                l(2) =   0
                l(3) =   1
                l(4) =   1
     Q(r) pseudized with  8 coefficients,  rinner =    0.800   0.800   0.800

     PseudoPot. # 5 for H  read from file:
     /storage/coda1/p-amedford6/0/shared/rich_project_chbe-medford/medford-share/data/pseudos_module/espresso/nninc/pbe/van/H.UPF
     MD5 check sum: b5ee9d7bfd3a09ee7748110bda690ff7
     Pseudo is Ultrasoft, Zval =  1.0
     Generated by new atomic code, or converted to UPF format
     Using radial grid of  615 points,  1 beta functions with:
                l(1) =   0
     Q(r) pseudized with  8 coefficients,  rinner =    0.800

     atomic species   valence    mass     pseudopotential
        Ti1           12.00    47.86700     Ti( 1.00)
        O1             6.00    15.99900     O ( 1.00)
        N1             5.00    14.00700     N ( 1.00)
        C1             4.00    12.01100     C ( 1.00)
        H1             1.00     1.00800     H ( 1.00)

     No symmetry found

   Cartesian axes

     site n.     atom                  positions (alat units)
         1           Ti1 tau(   1) = (   0.0004258   2.9801865   6.0000000  )
         2           Ti1 tau(   2) = (   3.2906075   1.4906267   6.0002472  )
         3           O1  tau(   3) = (   0.0006271   0.0005054   7.9858123  )
         4           O1  tau(   4) = (   3.2906025   0.0005020   7.3038282  )
         5           O1  tau(   5) = (   4.5942328   1.4918067   9.2879030  )
         6           O1  tau(   6) = (   1.9868534   1.4903216   9.2879459  )
         7           Ti1 tau(   7) = (   3.2907910   2.8959150   9.1758416  )
         8           Ti1 tau(   8) = (   0.0015273   1.4827037   9.2680791  )
         9           O1  tau(   9) = (   3.2915376   0.0135470  11.3011085  )
        10           O1  tau(  10) = (   0.0116148   5.9584955  10.6183126  )
        11           O1  tau(  11) = (   1.3264285   1.5112823  12.6233503  )
        12           O1  tau(  12) = (   5.3038506   1.5117067  12.6402039  )
        13           Ti1 tau(  13) = (   6.4820107   2.9926285  12.7699842  )
        14           Ti1 tau(  14) = (   3.1705855   1.5046985  12.4703807  )
        15           O1  tau(  15) = (   0.0265921   0.0018185  14.6022993  )
        16           O1  tau(  16) = (   3.3077976   0.0231332  13.8844522  )
        17           O1  tau(  17) = (   4.5431088   1.5356983  16.0582573  )
        18           O1  tau(  18) = (   2.0919096   1.5355568  16.0602035  )
        19           Ti1 tau(  19) = (   3.3160089   3.0194793  15.6930983  )
        20           Ti1 tau(  20) = (   0.0166562   1.5958061  16.1043543  )
        21           O1  tau(  21) = (   3.2904802   0.0005063   4.7018136  )
        22           O1  tau(  22) = (   0.0292894   0.0555714  17.2141426  )
        23           O1  tau(  23) = (   1.3043587   1.4918075   6.0039043  )
        24           O1  tau(  24) = (   5.2767064   1.4903225   6.0039473  )
        25           Ti1 tau(  25) = (   0.0000382   5.9609847   6.0000000  )
        26           Ti1 tau(  26) = (   3.2902200   4.4714249   6.0002472  )
        27           O1  tau(  27) = (   0.0002396   2.9813036   7.9858123  )
        28           O1  tau(  28) = (   3.2902150   2.9813002   7.3038282  )
        29           O1  tau(  29) = (   4.5938453   4.4726049   9.2879030  )
        30           O1  tau(  30) = (   1.9864658   4.4711199   9.2879459  )
        31           Ti1 tau(  31) = (   3.2891106   5.8743827   9.1763621  )
        32           Ti1 tau(  32) = (   0.0006254   4.4649316   9.2693709  )
        33           O1  tau(  33) = (   3.2938734   2.9940915  11.3014364  )
        34           O1  tau(  34) = (   0.0092240   2.9805883  10.6323155  )
        35           O1  tau(  35) = (   1.3265148   4.4779228  12.6213786  )
        36           O1  tau(  36) = (   5.3043665   4.4729268  12.6387898  )
        37           Ti1 tau(  37) = (   6.5102921   0.0103953  12.7821347  )
        38           Ti1 tau(  38) = (   3.1702703   4.4844908  12.4724723  )
        39           O1  tau(  39) = (   0.0044238   2.9856840  14.6711682  )
        40           O1  tau(  40) = (   3.3052367   3.0047533  13.8869641  )
        41           O1  tau(  41) = (   4.5463945   4.5179403  16.0573015  )
        42           O1  tau(  42) = (   2.0913021   4.5186677  16.0620504  )
        43           Ti1 tau(  43) = (   3.3128124   0.0388915  15.6953448  )
        44           Ti1 tau(  44) = (   0.0191476   4.5695365  16.1495174  )
        45           O1  tau(  45) = (   3.2900926   2.9813045   4.7018136  )
        46           O1  tau(  46) = (   1.3039711   4.4726057   6.0039043  )
        47           O1  tau(  47) = (   5.2763189   4.4711207   6.0039473  )
        48           N1  tau(  48) = (   0.0657769   3.0188755  17.3428317  )
        49           N1  tau(  49) = (   6.3710133   2.5762042  22.6422586  )
        50           C1  tau(  50) = (   0.3130180   3.0007025  18.7658599  )
        51           H1  tau(  51) = (   0.2928038   4.0066326  19.1970245  )
        52           H1  tau(  52) = (   6.1505335   2.3845869  19.2855718  )
        53           H1  tau(  53) = (   1.2957935   2.5555442  18.9776258  )
        54           H1  tau(  54) = (   5.9455952   3.1943721  23.3306195  )
        55           H1  tau(  55) = (   0.0098814   1.7053999  23.1148127  )
        56           H1  tau(  56) = (   0.6724875   2.9916800  22.3598805  )

     number of k points=    10  Fermi-Dirac smearing, width (Ry)=  0.0073
                       cart. coord. in units 2pi/alat
        k(    1) = (   0.0000000   0.0000000   0.0000000), wk =   0.1250000
        k(    2) = (   0.0000000   0.0419351   0.0000000), wk =   0.2500000
        k(    3) = (   0.0000000  -0.0838702   0.0000000), wk =   0.1250000
        k(    4) = (   0.0379955   0.0000049   0.0000000), wk =   0.2500000
        k(    5) = (   0.0379955   0.0419400   0.0000000), wk =   0.2500000
        k(    6) = (   0.0379955  -0.0838652   0.0000000), wk =   0.2500000
        k(    7) = (   0.0379955  -0.0419301   0.0000000), wk =   0.2500000
        k(    8) = (  -0.0759910  -0.0000099   0.0000000), wk =   0.1250000
        k(    9) = (  -0.0759910   0.0419252   0.0000000), wk =   0.2500000
        k(   10) = (  -0.0759910  -0.0838800   0.0000000), wk =   0.1250000

     Initial potential from superposition of free atoms

     starting charge  381.99914, renormalised to  398.00000

     negative rho (up, down):  7.221E-03 0.000E+00

     %%%%%%%%%%%%%%%%%%%%%%%%%%%%%%%%%%%%%%%%%%%%%%%%%%%%%%%%%%%%%%%%%%%%%%%%
     %                                                                      %
     % You are using vdW-DF, which was implemented by the Thonhauser group. %
     % Please cite the following two papers that made this development      %
     % possible and the two reviews that describe the various versions:     %
     %                                                                      %
     %   T. Thonhauser et al., PRL 115, 136402 (2015).                      %
     %   T. Thonhauser et al., PRB 76, 125112 (2007).                       %
     %   K. Berland et al., Rep. Prog. Phys. 78, 066501 (2015).             %
     %   D.C. Langreth et al., J. Phys.: Condens. Matter 21, 084203 (2009). %
     %                                                                      %
     %                                                                      %
     % If you are calculating the stress with vdW-DF, please also cite:     %
     %                                                                      %
     %   R. Sabatini et al., J. Phys.: Condens. Matter 24, 424209 (2012).   %
     %                                                                      %
     %%%%%%%%%%%%%%%%%%%%%%%%%%%%%%%%%%%%%%%%%%%%%%%%%%%%%%%%%%%%%%%%%%%%%%%%

     Adding external electric field

     Computed dipole along edir(3) :
        Dipole              -12.0378 Ry au,        -30.5970 Debye
        Dipole field         -0.0227 Ry au,

        Potential amp.        2.1058 Ry
        Total length         46.3494 bohr

     Starting wfcs are  302 atomic wfcs
  @ DRIVER MODE: Message from server: STATUS
  @ DRIVER MODE: Message from server: POSDATA
  @ DRIVER MODE: Reading and sharing cell
  @ DRIVER MODE: Reading and sharing positions
  @ DRIVER MODE: Received positions

     Self-consistent Calculation

     iteration #  1     ecut=    29.40 Ry     beta= 0.05
     Davidson diagonalization with overlap
     c_bands:  1 eigenvalues not converged
     c_bands:  1 eigenvalues not converged
     c_bands:  1 eigenvalues not converged
     c_bands:  1 eigenvalues not converged
     c_bands:  1 eigenvalues not converged
     c_bands:  1 eigenvalues not converged
     c_bands:  1 eigenvalues not converged
     c_bands:  2 eigenvalues not converged
     c_bands:  1 eigenvalues not converged
     ethr =  1.00E-05,  avg # of iterations = 19.6

[...]

     total energy              =   -2520.05294828 Ry
     estimated scf accuracy    <    4725.45306912 Ry

     iteration #  2     ecut=    29.40 Ry     beta= 0.05
     Davidson diagonalization with overlap
     ethr =  1.00E-02,  avg # of iterations = 21.8

[...]

     iteration # 38     ecut=    29.40 Ry     beta= 0.05
     Davidson diagonalization with overlap
     c_bands:  2 eigenvalues not converged
     ethr =  2.89E-07,  avg # of iterations =  4.0

[...]

     total energy              =   -2942.90432763 Ry
     estimated scf accuracy    <       0.00000011 Ry

     iteration # 66     ecut=    29.40 Ry     beta= 0.05
     Davidson diagonalization with overlap
     ethr =  2.65E-11,  avg # of iterations =  5.2

     negative rho (up, down):  9.730E-03 0.000E+00

     Adding external electric field

     Computed dipole along edir(3) :
        Dipole                0.6791 Ry au,          1.7262 Debye
        Dipole field          0.0013 Ry au,

        Potential amp.       -0.1188 Ry
        Total length         46.3494 bohr

     End of self-consistent calculation

          k = 0.0000 0.0000 0.0000 ( 18029 PWs)   bands (ev):

   -56.5053 -56.4717 -55.6137 -55.6047 -55.5784 -55.5722 -55.4752 -55.4396
   -55.2605 -55.2253 -55.1692 -55.1622 -55.1352 -55.0494 -54.6102 -54.5667
   -32.9328 -32.7791 -32.7510 -32.6821 -32.5911 -32.5589 -32.0929 -32.0713
   -32.0166 -31.9015 -31.8604 -31.8210 -31.8188 -31.7853 -31.7564 -31.7551
   -31.7539 -31.7361 -31.7251 -31.7213 -31.7003 -31.6838 -31.6576 -31.6437
   -31.6308 -31.6106 -31.6041 -31.5802 -31.5614 -31.5076 -31.4920 -31.4835
   -31.4039 -31.3994 -31.3800 -31.3355 -31.3276 -31.2966 -31.2793 -31.2555
   -31.2363 -31.1857 -31.1373 -30.8546 -30.8308 -30.8135 -30.7883 -30.6683
   -16.6669 -16.2249 -15.9967 -15.8668 -15.7934 -15.7449 -15.6920 -15.5755
   -15.4984 -15.4959 -15.4587 -15.4219 -15.3527 -15.2101 -15.1123 -15.0554
   -15.0133 -14.8985 -14.8328 -14.8058 -14.7959 -14.7646 -14.7470 -14.5482
   -14.5048 -14.4143 -14.4050 -14.2683 -14.0659 -13.9735 -13.6677 -13.5577
   -12.6984  -7.4299  -4.2339  -4.0876  -4.0664  -3.7211  -3.4790  -3.3929
    -3.2897  -3.2777  -3.2040  -3.0846  -3.0315  -2.9856  -2.8709  -2.8683
    -2.7256  -2.7068  -2.6803  -2.6697  -2.6330  -2.5859  -2.5559  -2.5086
    -2.5032  -2.4943  -2.3405  -2.2433  -2.1765  -2.1484  -2.1331  -2.1039
    -2.0283  -2.0035  -1.9926  -1.9844  -1.8959  -1.7469  -1.7409  -1.7125
    -1.6681  -1.6673  -1.6239  -1.6124  -1.4712  -1.3962  -1.2861  -1.2805
    -1.2442  -1.1773  -1.1753  -1.0724  -1.0025  -0.9504  -0.9118  -0.8059
    -0.7619  -0.7354  -0.6503  -0.5795  -0.5458  -0.5297  -0.5064  -0.4090
    -0.3921  -0.3693  -0.2860  -0.2766  -0.2284  -0.1407  -0.1200  -0.1163
    -0.0282  -0.0201   0.0818   0.1184   0.1605   0.1886   0.2784   0.3073
     0.4083   0.4521   0.4678   0.5899   0.6072   0.6665   0.7420   0.8037
     0.8239   0.8523   0.8850   0.8955   0.9777   1.0972   1.1029   1.1487
     1.2053   1.2515   1.4064   1.4452   1.7300   1.7418   2.4146   2.7700
     2.9315   3.2301   3.4310   3.5377   3.7470   3.7607   3.7664   3.9428
     3.9937

[...]

          k = 0.0380-0.0419 0.0000 ( 17876 PWs)   bands (ev):

[...]

          k =-0.0760-0.0000 0.0000 ( 17886 PWs)   bands (ev):

[...]

          k =-0.0760-0.0839 0.0000 ( 17948 PWs)   bands (ev):

   -56.4886 -56.4883 -55.5956 -55.5949 -55.5920 -55.5864 -55.4594 -55.4553
   -55.2454 -55.2402 -55.1594 -55.1522 -55.1521 -55.0521 -54.6011 -54.5757
   -32.7650 -32.7647 -32.7498 -32.7496 -32.6352 -32.6349 -31.9217 -31.9193
   -31.8959 -31.8896 -31.8510 -31.8501 -31.8079 -31.8055 -31.8053 -31.8045
   -31.7822 -31.7803 -31.7788 -31.7752 -31.7106 -31.7071 -31.6618 -31.6561
   -31.5960 -31.5874 -31.5278 -31.5230 -31.4965 -31.4964 -31.4885 -31.4442
   -31.4431 -31.4116 -31.3777 -31.3776 -31.3729 -31.3385 -31.3385 -31.3310
   -31.2951 -31.2571 -30.9996 -30.9268 -30.8271 -30.7997 -30.7957 -30.7537
   -16.0137 -16.0118 -15.9820 -15.9817 -15.7074 -15.7039 -15.6564 -15.6543
   -15.4849 -15.4786 -15.2688 -15.2604 -15.2563 -15.2522 -15.1240 -15.1175
   -15.0589 -15.0414 -14.9583 -14.9541 -14.8921 -14.8819 -14.8464 -14.8279
   -14.5067 -14.4857 -14.3674 -14.3491 -14.2139 -13.9728 -13.6611 -13.6611
   -12.7149  -7.4205  -4.0913  -4.0776  -3.1140  -3.1134  -3.0425  -3.0416
    -2.9191  -2.9140  -2.8459  -2.8451  -2.7346  -2.7322  -2.6794  -2.5999
    -2.5983  -2.5959  -2.5766  -2.5567  -2.4449  -2.4373  -2.4249  -2.4063
    -2.3609  -2.3579  -2.3481  -2.2673  -2.2533  -2.2173  -2.1773  -2.0713
    -2.0592  -2.0443  -2.0146  -1.9537  -1.9435  -1.9284  -1.8790  -1.8621
    -1.7787  -1.7231  -1.6603  -1.5532  -1.5491  -1.5395  -1.5271  -1.3724
    -1.3331  -1.3048  -1.2987  -1.2897  -1.2453  -1.1470  -1.1395  -0.9973
    -0.9969  -0.9247  -0.8444  -0.8287  -0.7985  -0.6680  -0.6250  -0.5846
    -0.5781  -0.5559  -0.5317  -0.5116  -0.4791  -0.3330  -0.3209  -0.2902
    -0.2497  -0.2419  -0.1953  -0.1280  -0.0403   0.0229   0.0244   0.0886
     0.1517   0.2115   0.2920   0.3075   0.3124   0.5936   0.6767   0.7646
     0.8410   0.9086   0.9730   0.9951   1.0638   1.0961   1.1485   1.2326
     1.2366   1.2537   1.2541   1.3255   1.3274   1.7071   2.3065   3.3439
     3.3443   3.4123   3.4128   3.7366   3.7422   3.8525   3.8627   3.9733
     3.9768

     the Fermi energy is     2.6026 ev

!    total energy              =   -2942.90435381 Ry
     estimated scf accuracy    <       0.00000005 Ry
     smearing contrib. (-TS)   =      -0.00455314 Ry
     internal energy E=F+TS    =   -2942.89980067 Ry

     The total energy is F=E-TS. E is the sum of the following terms:
     one-electron contribution =  -23042.94617501 Ry
     hartree contribution      =   11612.09644977 Ry
     xc contribution           =    -487.43831127 Ry
     ewald contribution        =    8975.38736547 Ry
     electric field correction =       0.00087037 Ry

     convergence has been achieved in  66 iterations

     Forces acting on atoms (cartesian axes, Ry/au):

     atom    1 type  1   force =     0.00001158   -0.00050153    0.12498285
     atom    2 type  1   force =    -0.00013430   -0.00063296   -0.16061015
     atom    3 type  2   force =     0.00017171   -0.00022389   -0.06935396
     atom    4 type  2   force =    -0.00004181   -0.00027784    0.02763624
     atom    5 type  2   force =    -0.01718622    0.00222251   -0.00888115
     atom    6 type  2   force =     0.01886788    0.00287300   -0.00920249
     atom    7 type  1   force =     0.00088283   -0.00375501    0.02232865
     atom    8 type  1   force =    -0.00036591   -0.00328360    0.11352487
     atom    9 type  2   force =     0.00050407   -0.00039683    0.00006163
     atom   10 type  2   force =    -0.00234541    0.00260087   -0.07317472
     atom   11 type  2   force =     0.00013449   -0.00095446   -0.00009612
     atom   12 type  2   force =     0.00000362   -0.00058309   -0.00002117
     atom   13 type  1   force =     0.00019635   -0.00019306   -0.00029192
     atom   14 type  1   force =    -0.00008221   -0.00053752   -0.00002878
     atom   15 type  2   force =    -0.00035547   -0.00098878    0.00084070
     atom   16 type  2   force =    -0.00013269   -0.00016988    0.00047450
     atom   17 type  2   force =     0.00088391   -0.00042958   -0.00035777
     atom   18 type  2   force =    -0.00057627   -0.00046532   -0.00032461
     atom   19 type  1   force =    -0.00025405    0.00006660   -0.00051981
     atom   20 type  1   force =     0.00054706   -0.00088803   -0.00097797
     atom   21 type  2   force =     0.00005509   -0.00006277    0.09967147
     atom   22 type  2   force =     0.00015195   -0.00038007   -0.00095620
     atom   23 type  2   force =    -0.07922536   -0.00006156   -0.03252402
     atom   24 type  2   force =     0.07908183    0.00037071   -0.03254991
     atom   25 type  1   force =     0.00002870   -0.00050019    0.12432199
     atom   26 type  1   force =    -0.00012445   -0.00048302   -0.16062404
     atom   27 type  2   force =     0.00028199   -0.00044561   -0.06835862
     atom   28 type  2   force =     0.00000367   -0.00013486    0.02749354
     atom   29 type  2   force =    -0.01764495    0.00173299   -0.00895384
     atom   30 type  2   force =     0.01921895    0.00199603   -0.00929213
     atom   31 type  1   force =     0.00080415   -0.00116316    0.02194836
     atom   32 type  1   force =    -0.00029234    0.00070919    0.11416463
     atom   33 type  2   force =    -0.00007678    0.00003867   -0.00056049
     atom   34 type  2   force =    -0.00201664    0.00206137   -0.07183795
     atom   35 type  2   force =     0.00002252   -0.00020976    0.00013760
     atom   36 type  2   force =    -0.00051678    0.00020433    0.00022449
     atom   37 type  1   force =     0.00086698    0.00095496   -0.00021928
     atom   38 type  1   force =    -0.00021037    0.00026728   -0.00016660
     atom   39 type  2   force =    -0.00002177   -0.00029670   -0.00001218
     atom   40 type  2   force =    -0.00001255   -0.00019635   -0.00023551
     atom   41 type  2   force =     0.00021886   -0.00042480   -0.00033670
     atom   42 type  2   force =     0.00000900   -0.00038601   -0.00038727
     atom   43 type  1   force =    -0.00036802    0.00007300   -0.00040569
     atom   44 type  1   force =     0.00006161    0.00092922    0.00031494
     atom   45 type  2   force =     0.00003974   -0.00007442    0.09969395
     atom   46 type  2   force =    -0.07922752   -0.00002854   -0.03252822
     atom   47 type  2   force =     0.07908322    0.00041711   -0.03253047
     atom   48 type  3   force =    -0.00033054    0.00103590   -0.00095879
     atom   49 type  3   force =    -0.00402083    0.00187049    0.00390049
     atom   50 type  4   force =    -0.00009554    0.00055823    0.00143510
     atom   51 type  5   force =    -0.00050966   -0.00047874   -0.00047020
     atom   52 type  5   force =     0.00001022    0.00020840   -0.00016892
     atom   53 type  5   force =    -0.00014005    0.00043056   -0.00012949
     atom   54 type  5   force =     0.00457627   -0.00387836   -0.00495561
     atom   55 type  5   force =     0.00012375    0.00114422   -0.00035088
     atom   56 type  5   force =    -0.00053351    0.00072063    0.00019761

     Total force =     0.426745     Total SCF correction =     0.000469
  @ DRIVER MODE: Message from server: STATUS
  @ DRIVER MODE: Message from server: GETFORCE
  @ DRIVER MODE: Returning v,forces,stress,ensemble

     Writing output data file ./calc.save/
  @ DRIVER MODE: Message from server: EXIT
  @ DRIVE MODE: Exiting

     General routines

     Parallel routines

   This run was terminated on:  10:24:19   9Sep2021

   JOB DONE.