     Program PWSCF v.6.7GPU starts on 19Oct2021 at  5:35:58

     R & G space division:  proc/nbgrp/npool/nimage =       8
     Reading input from /storage/home/hcoda1/3/ntian30/research/carbon/CxH_vib/Thiel_calc/ads_slab/NH3NH3_perslab/out_0038/pw.inp
Warning: card &CELL ignored
Warning: card   CELL_DYNAMICS='IPI', ignored
Warning: card / ignored

     Current dimensions of program PWSCF are:
     Max number of different atomic species (ntypx) = 10
     Max number of k-points (npk) =  40000
     Max angular momentum in pseudopotentials (lmaxx) =  3
     Presently no symmetry can be used with electric field

     Message from routine cell_base_init:
     DEPRECATED: use true lattice parameter, not A to a.u. conversion factor

     IMPORTANT: XC functional enforced from input :
     Exchange-correlation= BEEF-VDW
                           (   1   4  43  14   2   0   0)
     Any further DFT definition will be discarded
     Please, verify this is what you really want

  @ DRIVER MODE: Connecting to
 qe_1139763_3255140.sched-torque.pace.gatech.eduzdu7on42_scratch
  using UNIX socket
  @ DRIVER MODE: Message from server: STATUS
  @ DRIVER MODE: Message from server: INIT
  @ DRIVER MODE: Receiving replica           0          -1
  @ DRIVER MODE: Receiving encoded integer          25
  @ DRIVER MODE:  SCF:  T  FORCE:  T  STRESS:  F  VC:  F  ENSEMBLE:  F
  @ DRIVER MODE:  SCF:  T  FORCE:  T  STRESS:  F  VC:  F  ENSEMBLE:  F

     Using Slab Decomposition

     bravais-lattice index     =            0
     lattice parameter (alat)  =       1.8897  a.u.
     unit-cell volume          =    9988.4706 (a.u.)^3
     number of atoms/cell      =           61
     number of atomic types    =            4
     number of electrons       =       442.00
     number of Kohn-Sham states=          231
     kinetic-energy cutoff     =      29.3995  Ry
     charge density cutoff     =     293.9946  Ry
     scf convergence threshold =      7.3E-08
     mixing beta               =       0.0500
     number of iterations used =            8  plain     mixing
     Exchange-correlation= BEEF-VDW
                           (   1   4  43  14   2   0   0)

     celldm(1)=   1.889726  celldm(2)=   0.000000  celldm(3)=   0.000000
     celldm(4)=   0.000000  celldm(5)=   0.000000  celldm(6)=   0.000000

     crystal axes: (cart. coord. in units of alat)
               a(1) = (   6.579727   0.000000   0.000000 )
               a(2) = (  -0.001163   8.942395   0.000000 )
               a(3) = (   0.000000   0.000000  25.155947 )

     reciprocal axes: (cart. coord. in units 2 pi/alat)
               b(1) = (  0.151982  0.000020  0.000000 )
               b(2) = (  0.000000  0.111827  0.000000 )
               b(3) = (  0.000000  0.000000  0.039752 )

     PseudoPot. # 1 for O  read from file:
     /storage/coda1/p-amedford6/0/shared/rich_project_chbe-medford/medford-share/data/pseudos_module/espresso/nninc/pbe/van/O.UPF
     MD5 check sum: 78c19812648e8988a0fe644b0f25305e
     Pseudo is Ultrasoft, Zval =  6.0
     Generated by new atomic code, or converted to UPF format
     Using radial grid of  737 points,  4 beta functions with:
                l(1) =   0
                l(2) =   0
                l(3) =   1
                l(4) =   1
     Q(r) pseudized with  8 coefficients,  rinner =    0.800   0.800   0.800

     PseudoPot. # 2 for Ti read from file:
     /storage/coda1/p-amedford6/0/shared/rich_project_chbe-medford/medford-share/data/pseudos_module/espresso/nninc/pbe/van/Ti.UPF
     MD5 check sum: 8e4df49b7f0d34bbd5052bf3f5ea0213
     Pseudo is Ultrasoft, Zval = 12.0
     Generated by new atomic code, or converted to UPF format
     Using radial grid of  851 points,  6 beta functions with:
                l(1) =   0
                l(2) =   0
                l(3) =   1
                l(4) =   1
                l(5) =   2
                l(6) =   2
     Q(r) pseudized with  8 coefficients,  rinner =    1.000   1.000   1.000
                                                       1.000   1.000

     PseudoPot. # 3 for N  read from file:
     /storage/coda1/p-amedford6/0/shared/rich_project_chbe-medford/medford-share/data/pseudos_module/espresso/nninc/pbe/van/N.UPF
     MD5 check sum: 90d10febe142ad51ac9d5be1deb811c4
     Pseudo is Ultrasoft, Zval =  5.0
     Generated by new atomic code, or converted to UPF format
     Using radial grid of  729 points,  4 beta functions with:
                l(1) =   0
                l(2) =   0
                l(3) =   1
                l(4) =   1
     Q(r) pseudized with  8 coefficients,  rinner =    0.800   0.800   0.800

     PseudoPot. # 4 for H  read from file:
     /storage/coda1/p-amedford6/0/shared/rich_project_chbe-medford/medford-share/data/pseudos_module/espresso/nninc/pbe/van/H.UPF
     MD5 check sum: b5ee9d7bfd3a09ee7748110bda690ff7
     Pseudo is Ultrasoft, Zval =  1.0
     Generated by new atomic code, or converted to UPF format
     Using radial grid of  615 points,  1 beta functions with:
                l(1) =   0
     Q(r) pseudized with  8 coefficients,  rinner =    0.800

     atomic species   valence    mass     pseudopotential
        O1             6.00    15.99900     O ( 1.00)
        Ti1           12.00    47.86700     Ti( 1.00)
        N1             5.00    14.00700     N ( 1.00)
        H1             1.00     1.00800     H ( 1.00)

     No symmetry found

   Cartesian axes

     site n.     atom                  positions (alat units)
         1           O1  tau(   1) = (   0.0007354   0.0005023  10.5931620  )
         2           O1  tau(   2) = (   3.2905679   0.0262843  13.8966672  )
         3           O1  tau(   3) = (   0.0007290   0.0579300  17.2579193  )
         4           O1  tau(   4) = (   0.0006271   0.0005054   7.9858123  )
         5           O1  tau(   5) = (   3.2893100   8.9214726  11.1892856  )
         6           O1  tau(   6) = (   0.0005199   0.0455907  14.6396817  )
         7           O1  tau(   7) = (   1.9868534   1.4903216   9.2879459  )
         8           O1  tau(   8) = (   5.2380180   1.6024468  12.5713634  )
         9           O1  tau(   9) = (   2.0277759   1.4975965  16.1012153  )
        10           Ti1 tau(  10) = (   0.0007404   1.4906270   9.2895810  )
        11           Ti1 tau(  11) = (   3.2903786   1.3551844  12.4711573  )
        12           Ti1 tau(  12) = (   0.0003174   1.4440192  15.7330511  )
        13           O1  tau(  13) = (   4.5942328   1.4918067   9.2879030  )
        14           O1  tau(  14) = (   1.3426987   1.6023923  12.5713351  )
        15           O1  tau(  15) = (   4.5529958   1.4977110  16.1013444  )
        16           Ti1 tau(  16) = (   3.2902859   2.9801868   9.2893338  )
        17           Ti1 tau(  17) = (   0.0005333   2.8255407  12.4640987  )
        18           Ti1 tau(  18) = (   3.2895849   3.0341113  15.6952405  )
        19           O1  tau(  19) = (   0.0003479   2.9813005  10.5931620  )
        20           O1  tau(  20) = (   3.2900438   2.9627632  13.8881152  )
        21           O1  tau(  21) = (   0.0002396   2.9813036   7.9858123  )
        22           O1  tau(  22) = (   3.2902621   2.9759438  11.1922459  )
        23           O1  tau(  23) = (   0.0002943   2.9805036  14.7119039  )
        24           O1  tau(  24) = (   1.9864658   4.4711199   9.2879459  )
        25           O1  tau(  25) = (   5.2407125   4.5787950  12.5855407  )
        26           O1  tau(  26) = (   1.9842138   4.3634165  16.0604883  )
        27           Ti1 tau(  27) = (   0.0003529   4.4714252   9.2895810  )
        28           Ti1 tau(  28) = (   3.2904166   4.3402611  12.5252975  )
        29           Ti1 tau(  29) = (  -0.0003584   4.7219071  15.7914592  )
        30           O1  tau(  30) = (   4.5938453   4.4726049   9.2879030  )
        31           O1  tau(  31) = (   1.3394863   4.5787101  12.5854501  )
        32           O1  tau(  32) = (   4.5953883   4.3633133  16.0606172  )
        33           Ti1 tau(  33) = (   3.2898983   5.9609850   9.2893338  )
        34           Ti1 tau(  34) = (   0.0004309   5.8055675  12.4642027  )
        35           Ti1 tau(  35) = (   3.2895961   6.0676247  15.8182862  )
        36           O1  tau(  36) = (  -0.0000397   5.9620987  10.5931620  )
        37           O1  tau(  37) = (   3.2897974   5.9491097  13.9522666  )
        38           O1  tau(  38) = (  -0.0001005   5.9419674  17.2168411  )
        39           O1  tau(  39) = (  -0.0001480   5.9621018   7.9858123  )
        40           O1  tau(  40) = (   3.2898294   5.9516608  11.2068290  )
        41           O1  tau(  41) = (  -0.0002620   6.0093330  14.6024556  )
        42           O1  tau(  42) = (   1.9860782   7.4519181   9.2879459  )
        43           O1  tau(  43) = (   5.2335766   7.5615516  12.5803788  )
        44           O1  tau(  44) = (   2.0229086   7.4656171  16.0362607  )
        45           Ti1 tau(  45) = (  -0.0000347   7.4522234   9.2895810  )
        46           Ti1 tau(  46) = (   3.2895523   7.2794780  12.5477951  )
        47           Ti1 tau(  47) = (  -0.0001499   7.5569733  16.2601047  )
        48           O1  tau(  48) = (   4.5934577   7.4534031   9.2879030  )
        49           O1  tau(  49) = (   1.3453152   7.5613653  12.5804751  )
        50           O1  tau(  50) = (   4.5562564   7.4656138  16.0364310  )
        51           Ti1 tau(  51) = (   3.2895107   8.9417832   9.2893338  )
        52           Ti1 tau(  52) = (  -0.0004710   8.7769229  12.4586551  )
        53           Ti1 tau(  53) = (   3.2909234   0.0582169  15.6986445  )
        54           N1  tau(  54) = (   3.2892347   5.9685454  18.1810142  )
        55           H1  tau(  55) = (   3.2893406   5.0219839  18.5418895  )
        56           H1  tau(  56) = (   2.4590131   6.4368771  18.5304692  )
        57           H1  tau(  57) = (   4.1190552   6.4372901  18.5310312  )
        58           N1  tau(  58) = (  -0.0003436   2.9015831  17.9177722  )
        59           H1  tau(  59) = (   6.5794260   1.9611702  18.3102355  )
        60           H1  tau(  60) = (   5.7693157   3.3919262  18.2600543  )
        61           H1  tau(  61) = (   0.8192290   3.3923488  18.2608005  )

     number of k points=    10  Fermi-Dirac smearing, width (Ry)=  0.0073
                       cart. coord. in units 2pi/alat
        k(    1) = (   0.0000000   0.0000000   0.0000000), wk =   0.1250000
        k(    2) = (   0.0000000   0.0279567   0.0000000), wk =   0.2500000
        k(    3) = (   0.0000000  -0.0559134   0.0000000), wk =   0.1250000
        k(    4) = (   0.0379955   0.0000049   0.0000000), wk =   0.2500000
        k(    5) = (   0.0379955   0.0279617   0.0000000), wk =   0.2500000
        k(    6) = (   0.0379955  -0.0559085   0.0000000), wk =   0.2500000
        k(    7) = (   0.0379955  -0.0279518   0.0000000), wk =   0.2500000
        k(    8) = (  -0.0759910  -0.0000099   0.0000000), wk =   0.1250000
        k(    9) = (  -0.0759910   0.0279468   0.0000000), wk =   0.2500000
        k(   10) = (  -0.0759910  -0.0559233   0.0000000), wk =   0.1250000

     Initial potential from superposition of free atoms

     starting charge  423.99908, renormalised to  442.00000

     negative rho (up, down):  3.646E-02 0.000E+00

     %%%%%%%%%%%%%%%%%%%%%%%%%%%%%%%%%%%%%%%%%%%%%%%%%%%%%%%%%%%%%%%%%%%%%%%%
     %                                                                      %
     % You are using vdW-DF, which was implemented by the Thonhauser group. %
     % Please cite the following two papers that made this development      %
     % possible and the two reviews that describe the various versions:     %
     %                                                                      %
     %   T. Thonhauser et al., PRL 115, 136402 (2015).                      %
     %   T. Thonhauser et al., PRB 76, 125112 (2007).                       %
     %   K. Berland et al., Rep. Prog. Phys. 78, 066501 (2015).             %
     %   D.C. Langreth et al., J. Phys.: Condens. Matter 21, 084203 (2009). %
     %                                                                      %
     %                                                                      %
     % If you are calculating the stress with vdW-DF, please also cite:     %
     %                                                                      %
     %   R. Sabatini et al., J. Phys.: Condens. Matter 24, 424209 (2012).   %
     %                                                                      %
     %%%%%%%%%%%%%%%%%%%%%%%%%%%%%%%%%%%%%%%%%%%%%%%%%%%%%%%%%%%%%%%%%%%%%%%%

     Adding external electric field

     Computed dipole along edir(3) :
        Dipole               -6.4271 Ry au,        -16.3360 Debye
        Dipole field         -0.0081 Ry au,

        Potential amp.        0.7495 Ry
        Total length         46.3494 bohr

     Starting wfcs are  334 atomic wfcs
  @ DRIVER MODE: Message from server: STATUS
  @ DRIVER MODE: Message from server: POSDATA
  @ DRIVER MODE: Reading and sharing cell
  @ DRIVER MODE: Reading and sharing positions
  @ DRIVER MODE: Received positions

     Self-consistent Calculation

     iteration #  1     ecut=    29.40 Ry     beta= 0.05
     Davidson diagonalization with overlap
     c_bands:  1 eigenvalues not converged
     c_bands:  2 eigenvalues not converged
     c_bands:  2 eigenvalues not converged
     c_bands:  2 eigenvalues not converged
     c_bands:  3 eigenvalues not converged
     c_bands:  5 eigenvalues not converged
     c_bands:  3 eigenvalues not converged
     c_bands:  2 eigenvalues not converged
     c_bands:  3 eigenvalues not converged
     ethr =  1.00E-05,  avg # of iterations = 19.8

[...]

     total energy              =   -3273.09786254 Ry
     estimated scf accuracy    <     292.45236339 Ry

[...]

     iteration #  4     ecut=    29.40 Ry     beta= 0.05
     Davidson diagonalization with overlap
     ethr =  2.65E-03,  avg # of iterations =  3.2

[...]

     iteration # 63     ecut=    29.40 Ry     beta= 0.05
     Davidson diagonalization with overlap
     c_bands:  1 eigenvalues not converged
     ethr =  2.80E-11,  avg # of iterations =  9.4

[...]

     total energy              =   -3295.91275199 Ry
     estimated scf accuracy    <       0.00000014 Ry

     iteration # 65     ecut=    29.40 Ry     beta= 0.05
     Davidson diagonalization with overlap
     ethr =  2.80E-11,  avg # of iterations =  5.2

     negative rho (up, down):  3.470E-02 0.000E+00

     Adding external electric field

     Computed dipole along edir(3) :
        Dipole                1.8692 Ry au,          4.7511 Debye
        Dipole field          0.0024 Ry au,

        Potential amp.       -0.2180 Ry
        Total length         46.3494 bohr

     End of self-consistent calculation

          k = 0.0000 0.0000 0.0000 ( 26871 PWs)   bands (ev):

   -57.5937 -57.5536 -57.5300 -57.5240 -57.4938 -57.3945 -57.3867 -57.3662
   -57.3515 -57.3264 -57.3001 -57.2811 -57.2181 -57.1584 -57.0619 -56.5656
   -56.5405 -56.5395 -33.9746 -33.9351 -33.9307 -33.9045 -33.8864 -33.8678
   -33.8657 -33.8563 -33.8295 -33.8193 -33.8084 -33.7933 -33.7768 -33.7588
   -33.7486 -33.7350 -33.7207 -33.6879 -33.6801 -33.6773 -33.6670 -33.6521
   -33.6469 -33.6441 -33.6384 -33.6068 -33.5879 -33.5846 -33.5746 -33.5604
   -33.5573 -33.5514 -33.5377 -33.5360 -33.5327 -33.5187 -33.5144 -33.5008
   -33.4990 -33.4707 -33.4120 -33.3664 -33.3386 -33.3329 -33.2391 -32.8810
   -32.8787 -32.8771 -32.8644 -32.8633 -32.7914 -32.7275 -32.7264 -32.5913
   -18.3892 -18.0514 -17.8385 -17.7842 -17.7612 -17.6886 -17.6387 -17.6216
   -17.5539 -17.4965 -17.3689 -17.3269 -17.3226 -17.3120 -17.3061 -17.2373
   -17.2226 -17.2106 -17.2029 -17.1861 -17.1822 -17.1395 -17.0657 -17.0569
   -17.0159 -17.0018 -16.9812 -16.9785 -16.9307 -16.8778 -16.8682 -16.6739
   -16.6354 -16.4821 -15.0324 -14.9753 -14.9729  -7.7453  -7.7258  -7.5406
    -7.4599  -5.7130  -5.5306  -5.4655  -5.3710  -4.9987  -4.9411  -4.9267
    -4.9007  -4.8589  -4.8179  -4.8030  -4.7778  -4.7768  -4.7332  -4.6894
    -4.6641  -4.6446  -4.5450  -4.5079  -4.4697  -4.4395  -4.4330  -4.3817
    -4.3662  -4.3263  -4.3259  -4.2775  -4.2374  -4.2265  -4.2057  -4.1383
    -4.1203  -4.0161  -3.9277  -3.8698  -3.8627  -3.8221  -3.8087  -3.7630
    -3.7403  -3.7030  -3.6809  -3.6346  -3.6106  -3.5425  -3.4905  -3.3903
    -3.2940  -3.2673  -3.2410  -3.2189  -3.1742  -3.1212  -3.0014  -2.9610
    -2.9285  -2.9072  -2.8174  -2.8171  -2.7264  -2.7118  -2.6959  -2.6518
    -2.6005  -2.5859  -2.5519  -2.4354  -2.4144  -2.3227  -2.3126  -2.3106
    -2.2812  -2.2194  -2.2078  -2.1838  -2.1621  -2.1345  -2.1201  -2.0813
    -2.0780  -1.9792  -1.9579  -1.9014  -1.8788  -1.8788  -1.7803  -1.7628
    -1.7372  -1.7248  -1.6571  -1.5732  -1.4633  -1.4122  -1.3870  -1.3840
    -1.2848  -1.2564  -1.2134  -1.1331  -0.7972  -0.6005  -0.3135  -0.2692
    -0.2689  -0.0064  -0.0046   0.1239   1.4465   1.6618   1.6832   1.8752
     1.8974   1.9413   2.0279   2.0358   2.0979   2.1974   2.2155

[...]

          k = 0.0380-0.0280 0.0000 ( 26873 PWs)   bands (ev):

[...]

          k =-0.0760-0.0000 0.0000 ( 26902 PWs)   bands (ev):

[...]

          k =-0.0760-0.0559 0.0000 ( 26868 PWs)   bands (ev):

   -57.5936 -57.5474 -57.5420 -57.5182 -57.4940 -57.3922 -57.3866 -57.3710
   -57.3487 -57.3243 -57.3045 -57.2789 -57.2179 -57.1588 -57.0617 -56.5576
   -56.5565 -56.5315 -34.0261 -34.0140 -33.9176 -33.8924 -33.8826 -33.8778
   -33.8762 -33.8546 -33.8260 -33.8129 -33.7777 -33.7436 -33.7382 -33.7351
   -33.7243 -33.6963 -33.6928 -33.6880 -33.6825 -33.6796 -33.6419 -33.6360
   -33.6330 -33.6260 -33.6078 -33.6073 -33.6047 -33.6026 -33.5987 -33.5861
   -33.5784 -33.5707 -33.5692 -33.5601 -33.5393 -33.5274 -33.5229 -33.5152
   -33.4993 -33.4251 -33.4184 -33.3718 -33.3391 -33.3346 -33.2721 -32.9696
   -32.8801 -32.8790 -32.8553 -32.7706 -32.7695 -32.7053 -32.6889 -32.6876
   -18.0790 -18.0157 -17.7598 -17.7055 -17.6893 -17.6538 -17.6379 -17.5607
   -17.5407 -17.5252 -17.5040 -17.4598 -17.3855 -17.3367 -17.3347 -17.3280
   -17.2579 -17.2534 -17.2453 -17.2407 -17.1946 -17.1803 -17.1679 -17.1149
   -17.0367 -16.9670 -16.9538 -16.9474 -16.9084 -16.8935 -16.8424 -16.7077
   -16.6999 -16.4093 -15.0309 -15.0283 -14.9118  -7.7547  -7.7102  -7.5485
    -7.4599  -5.3358  -5.3057  -5.2761  -5.2117  -5.0210  -4.8614  -4.8304
    -4.8240  -4.7864  -4.7369  -4.7096  -4.7030  -4.6940  -4.6767  -4.6619
    -4.6137  -4.6099  -4.5841  -4.5114  -4.4703  -4.4655  -4.4466  -4.4325
    -4.4266  -4.3584  -4.2837  -4.2167  -4.1706  -4.1557  -4.1395  -4.0916
    -4.0550  -4.0252  -3.9825  -3.9717  -3.9035  -3.7964  -3.7116  -3.6717
    -3.6714  -3.6306  -3.5816  -3.5805  -3.4800  -3.4177  -3.3437  -3.2113
    -3.2051  -3.1925  -3.1678  -3.1536  -3.1149  -3.1039  -3.0795  -3.0283
    -3.0183  -2.9967  -2.9361  -2.8698  -2.7845  -2.7567  -2.7234  -2.7170
    -2.6926  -2.6813  -2.6536  -2.6507  -2.6165  -2.6077  -2.5538  -2.5264
    -2.4754  -2.4478  -2.4043  -2.3189  -2.3030  -2.2808  -2.1905  -2.1270
    -2.1102  -2.1050  -2.0760  -2.0295  -1.9319  -1.8382  -1.8022  -1.7578
    -1.6461  -1.6458  -1.6420  -1.6262  -1.5523  -1.5380  -1.3344  -1.3223
    -1.2632  -1.1877  -1.1481  -1.1124  -1.1100  -0.8926  -0.4822  -0.1988
    -0.1857  -0.1620  -0.0094  -0.0042   1.5928   1.6746   1.7095   1.7591
     1.7948   1.7981   1.8041   1.8678   1.9315   1.9414   2.1804

     the Fermi energy is     1.5308 ev

!    total energy              =   -3295.91277652 Ry
     estimated scf accuracy    <       0.00000004 Ry
     smearing contrib. (-TS)   =      -0.03397235 Ry
     internal energy E=F+TS    =   -3295.87880417 Ry

     The total energy is F=E-TS. E is the sum of the following terms:
     one-electron contribution =  -34427.57178898 Ry
     hartree contribution      =   17282.30549411 Ry
     xc contribution           =    -543.76373695 Ry
     ewald contribution        =   14393.14683190 Ry
     electric field correction =       0.00439575 Ry

     convergence has been achieved in  65 iterations

     Forces acting on atoms (cartesian axes, Ry/au):

     atom    1 type  1   force =     0.00001621    0.00450765    0.05616874
     atom    2 type  1   force =     0.00000003   -0.00095198   -0.00072987
     atom    3 type  1   force =    -0.00000237    0.00153378   -0.00017530
     atom    4 type  1   force =     0.00005789    0.00031337    0.10697321
     atom    5 type  1   force =     0.00000228    0.00080222    0.00980238
     atom    6 type  1   force =     0.00000559   -0.00264348    0.00105522
     atom    7 type  1   force =     0.06728527   -0.00022994   -0.02910767
     atom    8 type  1   force =     0.00474871   -0.02828185    0.00258013
     atom    9 type  1   force =     0.00732285   -0.00160455   -0.00304146
     atom   10 type  2   force =    -0.00005061   -0.00147787   -0.18423098
     atom   11 type  2   force =     0.00003721    0.02164931   -0.00779914
     atom   12 type  2   force =     0.00001762   -0.00245994    0.01221978
     atom   13 type  1   force =    -0.06738719   -0.00069035   -0.02907211
     atom   14 type  1   force =    -0.00477508   -0.02828285    0.00257985
     atom   15 type  1   force =    -0.00734785   -0.00160738   -0.00306150
     atom   16 type  2   force =     0.00009732    0.00013443    0.06631678
     atom   17 type  2   force =    -0.00001156    0.03586945    0.00370319
     atom   18 type  2   force =     0.00005265   -0.01052922   -0.00429242
     atom   19 type  1   force =     0.00001992    0.00444163    0.05989110
     atom   20 type  1   force =    -0.00000240    0.00082181   -0.00596274
     atom   21 type  1   force =     0.00005866    0.00018746    0.10720873
     atom   22 type  1   force =    -0.00000074   -0.00066693    0.00885016
     atom   23 type  1   force =    -0.00000306    0.00498925    0.00312968
     atom   24 type  1   force =     0.06803755    0.00050955   -0.02900600
     atom   25 type  1   force =     0.00341927   -0.02997779    0.00209244
     atom   26 type  1   force =     0.01010520    0.02032262    0.00202644
     atom   27 type  2   force =    -0.00005905    0.00003383   -0.18364923
     atom   28 type  2   force =     0.00003207    0.02158215   -0.00595938
     atom   29 type  2   force =    -0.00000580   -0.02176027   -0.00603301
     atom   30 type  1   force =    -0.06813724    0.00006252   -0.02897464
     atom   31 type  1   force =    -0.00345120   -0.02996488    0.00210058
     atom   32 type  1   force =    -0.01011104    0.02031875    0.00202378
     atom   33 type  2   force =     0.00010206   -0.00026438    0.06933258
     atom   34 type  2   force =    -0.00001616    0.03686644    0.00369955
     atom   35 type  2   force =     0.00001373   -0.02933214    0.01040047
     atom   36 type  1   force =     0.00002606    0.00482129    0.05629533
     atom   37 type  1   force =    -0.00001081    0.00204855   -0.00518902
     atom   38 type  1   force =    -0.00000750    0.00419808   -0.00000523
     atom   39 type  1   force =     0.00005636    0.00002694    0.10682691
     atom   40 type  1   force =    -0.00000514   -0.00061377    0.00811755
     atom   41 type  1   force =     0.00000341    0.00072664    0.00247892
     atom   42 type  1   force =     0.06805860   -0.00121236   -0.02960397
     atom   43 type  1   force =     0.00352840   -0.02805470    0.00205901
     atom   44 type  1   force =     0.01051486    0.01133262    0.00282376
     atom   45 type  2   force =    -0.00005970   -0.00197514   -0.18352623
     atom   46 type  2   force =     0.00003479    0.01958813   -0.00655602
     atom   47 type  2   force =    -0.00000939   -0.01029101   -0.01269394
     atom   48 type  1   force =    -0.06815509   -0.00165160   -0.02956764
     atom   49 type  1   force =    -0.00354282   -0.02805619    0.00205683
     atom   50 type  1   force =    -0.01053678    0.01133561    0.00281137
     atom   51 type  2   force =     0.00009722   -0.00308075    0.06760761
     atom   52 type  2   force =    -0.00002023    0.03494896    0.00625652
     atom   53 type  2   force =     0.00000536    0.00514628    0.00129790
     atom   54 type  3   force =     0.00007099    0.00064390   -0.00246778
     atom   55 type  4   force =     0.00001289   -0.00144334   -0.00040226
     atom   56 type  4   force =    -0.00129373    0.00057767    0.00022586
     atom   57 type  4   force =     0.00119637    0.00052993    0.00018877
     atom   58 type  3   force =     0.01118934   -0.00709882   -0.00226359
     atom   59 type  4   force =    -0.00006654    0.00002168    0.00012303
     atom   60 type  4   force =    -0.01125488    0.00497383    0.00336606
     atom   61 type  4   force =     0.00009722   -0.00166286   -0.00131911

     Total force =     0.455149     Total SCF correction =     0.000560
  @ DRIVER MODE: Message from server: STATUS
  @ DRIVER MODE: Message from server: GETFORCE
  @ DRIVER MODE: Returning v,forces,stress,ensemble

     Writing output data file ./calc.save/
  @ DRIVER MODE: Message from server: EXIT
  @ DRIVE MODE: Exiting

     General routines

     Parallel routines

   This run was terminated on:   6: 7: 0  19Oct2021

   JOB DONE.