     Program PWSCF v.6.7GPU starts on  5Oct2021 at 15:50:25

     R & G space division:  proc/nbgrp/npool/nimage =       8
     Reading input from /storage/home/hcoda1/3/ntian30/research/carbon/CxH_vib/pristine/ads_slab/OH_a/out_0006/pw.inp
Warning: card &CELL ignored
Warning: card   CELL_DYNAMICS='IPI', ignored
Warning: card / ignored

     Current dimensions of program PWSCF are:
     Max number of different atomic species (ntypx) = 10
     Max number of k-points (npk) =  40000
     Max angular momentum in pseudopotentials (lmaxx) =  3
     Presently no symmetry can be used with electric field

     Message from routine cell_base_init:
     DEPRECATED: use true lattice parameter, not A to a.u. conversion factor

     IMPORTANT: XC functional enforced from input :
     Exchange-correlation= BEEF-VDW
                           (   1   4  43  14   2   0   0)
     Any further DFT definition will be discarded
     Please, verify this is what you really want

  @ DRIVER MODE: Connecting to
 qe_1139763_3092461.sched-torque.pace.gatech.edu_rkp1ro2_scratch
  using UNIX socket
  @ DRIVER MODE: Message from server: STATUS
  @ DRIVER MODE: Message from server: INIT
  @ DRIVER MODE: Receiving replica           0          -1
  @ DRIVER MODE: Receiving encoded integer          25
  @ DRIVER MODE:  SCF:  T  FORCE:  T  STRESS:  F  VC:  F  ENSEMBLE:  F
  @ DRIVER MODE:  SCF:  T  FORCE:  T  STRESS:  F  VC:  F  ENSEMBLE:  F

     Using Slab Decomposition

     bravais-lattice index     =            0
     lattice parameter (alat)  =       1.8897  a.u.
     unit-cell volume          =    6658.9804 (a.u.)^3
     number of atoms/cell      =           49
     number of atomic types    =            3
     number of electrons       =       385.00
     number of Kohn-Sham states=          202
     kinetic-energy cutoff     =      29.3995  Ry
     charge density cutoff     =     293.9946  Ry
     scf convergence threshold =      7.3E-08
     mixing beta               =       0.0500
     number of iterations used =            8  plain     mixing
     Exchange-correlation= BEEF-VDW
                           (   1   4  43  14   2   0   0)

     celldm(1)=   1.889726  celldm(2)=   0.000000  celldm(3)=   0.000000
     celldm(4)=   0.000000  celldm(5)=   0.000000  celldm(6)=   0.000000

     crystal axes: (cart. coord. in units of alat)
               a(1) = (   6.579727   0.000000   0.000000 )
               a(2) = (  -0.000775   5.961596   0.000000 )
               a(3) = (   0.000000   0.000000  25.155947 )

     reciprocal axes: (cart. coord. in units 2 pi/alat)
               b(1) = (  0.151982  0.000020  0.000000 )
               b(2) = (  0.000000  0.167740  0.000000 )
               b(3) = (  0.000000  0.000000  0.039752 )

     PseudoPot. # 1 for H  read from file:
     /storage/coda1/p-amedford6/0/shared/rich_project_chbe-medford/medford-share/data/pseudos_module/espresso/nninc/pbe/van/H.UPF
     MD5 check sum: b5ee9d7bfd3a09ee7748110bda690ff7
     Pseudo is Ultrasoft, Zval =  1.0
     Generated by new atomic code, or converted to UPF format
     Using radial grid of  615 points,  1 beta functions with:
                l(1) =   0
     Q(r) pseudized with  8 coefficients,  rinner =    0.800

     PseudoPot. # 2 for O  read from file:
     /storage/coda1/p-amedford6/0/shared/rich_project_chbe-medford/medford-share/data/pseudos_module/espresso/nninc/pbe/van/O.UPF
     MD5 check sum: 78c19812648e8988a0fe644b0f25305e
     Pseudo is Ultrasoft, Zval =  6.0
     Generated by new atomic code, or converted to UPF format
     Using radial grid of  737 points,  4 beta functions with:
                l(1) =   0
                l(2) =   0
                l(3) =   1
                l(4) =   1
     Q(r) pseudized with  8 coefficients,  rinner =    0.800   0.800   0.800

     PseudoPot. # 3 for Ti read from file:
     /storage/coda1/p-amedford6/0/shared/rich_project_chbe-medford/medford-share/data/pseudos_module/espresso/nninc/pbe/van/Ti.UPF
     MD5 check sum: 8e4df49b7f0d34bbd5052bf3f5ea0213
     Pseudo is Ultrasoft, Zval = 12.0
     Generated by new atomic code, or converted to UPF format
     Using radial grid of  851 points,  6 beta functions with:
                l(1) =   0
                l(2) =   0
                l(3) =   1
                l(4) =   1
                l(5) =   2
                l(6) =   2
     Q(r) pseudized with  8 coefficients,  rinner =    1.000   1.000   1.000
                                                       1.000   1.000

     atomic species   valence    mass     pseudopotential
        H1             1.00     1.00800     H ( 1.00)
        O1             6.00    15.99900     O ( 1.00)
        Ti1           12.00    47.86700     Ti( 1.00)

     No symmetry found

   Cartesian axes

     site n.     atom                  positions (alat units)
         1           H1  tau(   1) = (   6.1285627   2.9271563  18.1978583  )
         2           O1  tau(   2) = (   0.0006271   0.0005054   7.9858123  )
         3           O1  tau(   3) = (   3.2906025   0.0005020   7.3038282  )
         4           O1  tau(   4) = (   4.5942328   1.4918067   9.2879030  )
         5           O1  tau(   5) = (   1.9868534   1.4903216   9.2879459  )
         6           O1  tau(   6) = (   3.2706409   0.0174512  11.3459279  )
         7           O1  tau(   7) = (   6.5740518   0.0106632  10.6119017  )
         8           O1  tau(   8) = (   1.2784420   1.5051768  12.6495664  )
         9           O1  tau(   9) = (   5.2777641   1.5057411  12.6372187  )
        10           O1  tau(  10) = (   6.5277286   0.0194253  14.7314476  )
        11           O1  tau(  11) = (   3.2772156   0.0218198  13.9356907  )
        12           O1  tau(  12) = (   4.4925954   1.5252930  16.1022717  )
        13           O1  tau(  13) = (   2.0005661   1.5201685  16.0636378  )
        14           O1  tau(  14) = (   3.2904802   0.0005063   4.7018136  )
        15           O1  tau(  15) = (   6.5406378   0.0426308  17.2527531  )
        16           O1  tau(  16) = (   1.3043587   1.4918075   6.0039043  )
        17           O1  tau(  17) = (   5.2767064   1.4903225   6.0039473  )
        18           O1  tau(  18) = (   0.0002396   2.9813036   7.9858123  )
        19           O1  tau(  19) = (   3.2902150   2.9813002   7.3038282  )
        20           O1  tau(  20) = (   4.5938453   4.4726049   9.2879030  )
        21           O1  tau(  21) = (   1.9864658   4.4711199   9.2879459  )
        22           O1  tau(  22) = (   3.2713702   3.0002330  11.3479749  )
        23           O1  tau(  23) = (   0.0000412   2.9948241  10.5696328  )
        24           O1  tau(  24) = (   1.2752127   4.4878296  12.6567543  )
        25           O1  tau(  25) = (   5.2773950   4.4893484  12.6450210  )
        26           O1  tau(  26) = (   6.5457704   2.9801347  14.7053517  )
        27           O1  tau(  27) = (   3.2760166   3.0039015  13.9301991  )
        28           O1  tau(  28) = (   4.4930617   4.4968681  16.1151247  )
        29           O1  tau(  29) = (   1.9976114   4.4995801  16.0783546  )
        30           O1  tau(  30) = (   3.2900926   2.9813045   4.7018136  )
        31           O1  tau(  31) = (   1.3039711   4.4726057   6.0039043  )
        32           O1  tau(  32) = (   5.2763189   4.4711207   6.0039473  )
        33           O1  tau(  33) = (   6.5611248   2.9942543  17.3379038  )
        34           Ti1 tau(  34) = (   0.0004258   2.9801865   6.0000000  )
        35           Ti1 tau(  35) = (   3.2906075   1.4906267   6.0002472  )
        36           Ti1 tau(  36) = (   3.3318975   3.0330250   9.1579500  )
        37           Ti1 tau(  37) = (   0.0205117   1.6124020   9.3622821  )
        38           Ti1 tau(  38) = (   6.5366237   3.0123281  12.8261813  )
        39           Ti1 tau(  39) = (   3.2219039   1.5139177  12.4898250  )
        40           Ti1 tau(  40) = (   3.2511232   3.0127314  15.7226336  )
        41           Ti1 tau(  41) = (   6.5498889   1.4452159  15.9768866  )
        42           Ti1 tau(  42) = (   0.0000382   5.9609847   6.0000000  )
        43           Ti1 tau(  43) = (   3.2902200   4.4714249   6.0002472  )
        44           Ti1 tau(  44) = (   3.2860949   0.0564500   9.1526048  )
        45           Ti1 tau(  45) = (   0.0290565   4.5316589   9.2718247  )
        46           Ti1 tau(  46) = (   6.5192412   0.0260524  12.5185800  )
        47           Ti1 tau(  47) = (   3.2223028   4.4950945  12.4895861  )
        48           Ti1 tau(  48) = (   3.2594166   0.0314875  15.7369021  )
        49           Ti1 tau(  49) = (   6.5484344   4.6157387  16.1276880  )

     number of k points=    10  Fermi-Dirac smearing, width (Ry)=  0.0073
                       cart. coord. in units 2pi/alat
        k(    1) = (   0.0000000   0.0000000   0.0000000), wk =   0.1250000
        k(    2) = (   0.0000000   0.0419351   0.0000000), wk =   0.2500000
        k(    3) = (   0.0000000  -0.0838702   0.0000000), wk =   0.1250000
        k(    4) = (   0.0379955   0.0000049   0.0000000), wk =   0.2500000
        k(    5) = (   0.0379955   0.0419400   0.0000000), wk =   0.2500000
        k(    6) = (   0.0379955  -0.0838652   0.0000000), wk =   0.2500000
        k(    7) = (   0.0379955  -0.0419301   0.0000000), wk =   0.2500000
        k(    8) = (  -0.0759910  -0.0000099   0.0000000), wk =   0.1250000
        k(    9) = (  -0.0759910   0.0419252   0.0000000), wk =   0.2500000
        k(   10) = (  -0.0759910  -0.0838800   0.0000000), wk =   0.1250000

     Initial potential from superposition of free atoms

     starting charge  368.99924, renormalised to  385.00000

     negative rho (up, down):  2.282E-02 0.000E+00

     %%%%%%%%%%%%%%%%%%%%%%%%%%%%%%%%%%%%%%%%%%%%%%%%%%%%%%%%%%%%%%%%%%%%%%%%
     %                                                                      %
     % You are using vdW-DF, which was implemented by the Thonhauser group. %
     % Please cite the following two papers that made this development      %
     % possible and the two reviews that describe the various versions:     %
     %                                                                      %
     %   T. Thonhauser et al., PRL 115, 136402 (2015).                      %
     %   T. Thonhauser et al., PRB 76, 125112 (2007).                       %
     %   K. Berland et al., Rep. Prog. Phys. 78, 066501 (2015).             %
     %   D.C. Langreth et al., J. Phys.: Condens. Matter 21, 084203 (2009). %
     %                                                                      %
     %                                                                      %
     % If you are calculating the stress with vdW-DF, please also cite:     %
     %                                                                      %
     %   R. Sabatini et al., J. Phys.: Condens. Matter 24, 424209 (2012).   %
     %                                                                      %
     %%%%%%%%%%%%%%%%%%%%%%%%%%%%%%%%%%%%%%%%%%%%%%%%%%%%%%%%%%%%%%%%%%%%%%%%

     Adding external electric field

     Computed dipole along edir(3) :
        Dipole               -1.6774 Ry au,         -4.2634 Debye
        Dipole field         -0.0032 Ry au,

        Potential amp.        0.2934 Ry
        Total length         46.3494 bohr

     Starting wfcs are  289 atomic wfcs
  @ DRIVER MODE: Message from server: STATUS
  @ DRIVER MODE: Message from server: POSDATA
  @ DRIVER MODE: Reading and sharing cell
  @ DRIVER MODE: Reading and sharing positions
  @ DRIVER MODE: Received positions

     Self-consistent Calculation

     iteration #  1     ecut=    29.40 Ry     beta= 0.05
     Davidson diagonalization with overlap
     c_bands:  2 eigenvalues not converged
     c_bands:  1 eigenvalues not converged
     c_bands:  2 eigenvalues not converged
     c_bands:  1 eigenvalues not converged
     c_bands:  1 eigenvalues not converged
     ethr =  1.00E-05,  avg # of iterations = 18.1

[...]

     total energy              =   -2919.00208960 Ry
     estimated scf accuracy    <      12.35914139 Ry

     iteration #  2     ecut=    29.40 Ry     beta= 0.05
     Davidson diagonalization with overlap
     ethr =  3.21E-03,  avg # of iterations =  1.0

[...]

     iteration # 41     ecut=    29.40 Ry     beta= 0.05
     Davidson diagonalization with overlap
     c_bands:  1 eigenvalues not converged
     ethr =  2.69E-10,  avg # of iterations = 15.2

[...]

     total energy              =   -2917.56693256 Ry
     estimated scf accuracy    <       0.00000015 Ry

     iteration # 47     ecut=    29.40 Ry     beta= 0.05
     Davidson diagonalization with overlap
     ethr =  2.64E-11,  avg # of iterations =  9.2

     negative rho (up, down):  2.172E-02 0.000E+00

     Adding external electric field

     Computed dipole along edir(3) :
        Dipole                0.7073 Ry au,          1.7977 Debye
        Dipole field          0.0013 Ry au,

        Potential amp.       -0.1237 Ry
        Total length         46.3494 bohr

     End of self-consistent calculation

          k = 0.0000 0.0000 0.0000 ( 18029 PWs)   bands (ev):

   -56.1454 -56.1313 -56.1080 -56.0951 -56.0574 -56.0297 -56.0124 -55.9781
   -55.9730 -55.9586 -55.9216 -55.8975 -55.8640 -55.7964 -55.1584 -55.1243
   -32.6934 -32.6131 -32.5874 -32.4921 -32.4732 -32.4444 -32.4383 -32.4148
   -32.3772 -32.3722 -32.3560 -32.3472 -32.3427 -32.3118 -32.3060 -32.3052
   -32.3042 -32.2735 -32.2683 -32.2428 -32.2352 -32.2106 -32.2099 -32.2086
   -32.1873 -32.1838 -32.1627 -32.1590 -32.1532 -32.1517 -32.1484 -32.1371
   -32.1227 -32.1221 -32.1165 -32.0836 -32.0776 -32.0424 -32.0196 -32.0035
   -31.9861 -31.9825 -31.5682 -31.4711 -31.4488 -31.3849 -31.2989 -31.1877
   -17.5109 -16.8745 -16.5898 -16.4294 -16.2935 -16.2631 -16.1437 -15.9747
   -15.8341 -15.8153 -15.7485 -15.7095 -15.7023 -15.6774 -15.6666 -15.6599
   -15.6528 -15.6089 -15.5738 -15.5651 -15.5481 -15.5227 -15.4817 -15.4237
   -15.3526 -15.2995 -15.2634 -15.2293 -15.1451 -15.1247 -13.6589 -13.5407
    -5.4524  -4.2354  -4.0701  -4.0589  -4.0325  -3.9486  -3.6979  -3.6870
    -3.3927  -3.3134  -3.2757  -3.2735  -3.2648  -3.0918  -3.0256  -2.9792
    -2.9717  -2.9557  -2.9494  -2.9278  -2.8864  -2.8805  -2.8521  -2.8410
    -2.7147  -2.6841  -2.5536  -2.5412  -2.5262  -2.4703  -2.4462  -2.4159
    -2.4059  -2.3965  -2.3633  -2.3493  -2.3126  -2.2271  -2.2126  -2.0830
    -1.9678  -1.9231  -1.8449  -1.6970  -1.6225  -1.6034  -1.5735  -1.5462
    -1.5312  -1.4861  -1.4569  -1.4005  -1.3413  -1.3396  -1.2376  -1.1508
    -1.1082  -1.0481  -1.0174  -0.9821  -0.8913  -0.8686  -0.8556  -0.6852
    -0.6297  -0.6153  -0.6074  -0.4792  -0.4375  -0.4062  -0.3929  -0.3647
    -0.3364  -0.2917  -0.2436  -0.1864  -0.1628  -0.1503  -0.1361  -0.1237
    -0.0930   0.0243   0.0424   0.0588   0.1635   0.1837   0.3726   0.3773
     0.5023   0.6062   0.7700   0.8662   0.9383   1.0366   1.4548   1.5150
     3.0429   3.0780   3.1064   3.1244   3.1922   3.3119   3.4246   3.4849
     3.5015   3.5260

[...]

          k = 0.0380-0.0419 0.0000 ( 17876 PWs)   bands (ev):

[...]

          k =-0.0760-0.0000 0.0000 ( 17886 PWs)   bands (ev):

[...]

          k =-0.0760-0.0839 0.0000 ( 17948 PWs)   bands (ev):

   -56.1344 -56.1188 -56.1139 -56.1122 -56.0541 -56.0246 -55.9954 -55.9951
   -55.9780 -55.9615 -55.9189 -55.8813 -55.8804 -55.7987 -55.1419 -55.1408
   -32.4976 -32.4935 -32.4900 -32.4376 -32.4271 -32.4211 -32.4032 -32.4023
   -32.3927 -32.3570 -32.3359 -32.3268 -32.3249 -32.2962 -32.2889 -32.2847
   -32.2651 -32.2643 -32.2602 -32.2517 -32.2501 -32.2394 -32.2356 -32.2308
   -32.2261 -32.2055 -32.2008 -32.2002 -32.1935 -32.1869 -32.1841 -32.1631
   -32.1567 -32.1403 -32.1376 -32.1331 -32.1166 -32.1004 -32.0877 -32.0789
   -32.0270 -31.9917 -31.4621 -31.4607 -31.3816 -31.3808 -31.3424 -31.3415
   -17.4559 -16.3187 -16.2891 -16.0785 -16.0600 -16.0481 -15.9973 -15.9114
   -15.8897 -15.8663 -15.8609 -15.8081 -15.7950 -15.7857 -15.7283 -15.6883
   -15.6635 -15.6488 -15.6446 -15.5941 -15.5886 -15.5496 -15.5264 -15.5058
   -15.4989 -15.4745 -15.4696 -15.4174 -15.3704 -15.2983 -13.6431 -13.6407
    -5.3818  -3.6097  -3.5726  -3.3445  -3.2811  -3.2726  -3.2010  -3.1247
    -3.0707  -3.0261  -2.9986  -2.9891  -2.9769  -2.9704  -2.9650  -2.9444
    -2.9311  -2.9134  -2.8900  -2.8381  -2.8195  -2.8015  -2.7776  -2.7663
    -2.7568  -2.7207  -2.6997  -2.6902  -2.6704  -2.6690  -2.6047  -2.4464
    -2.3937  -2.3181  -2.2990  -2.2800  -2.2331  -2.2103  -2.1933  -2.1791
    -2.1351  -2.1069  -1.9435  -1.8747  -1.8531  -1.8380  -1.8049  -1.7399
    -1.6634  -1.6271  -1.5575  -1.5514  -1.5101  -1.4429  -1.3780  -1.3398
    -1.3063  -1.2536  -1.2141  -1.1561  -1.1209  -1.1029  -1.0951  -1.0414
    -0.9888  -0.9463  -0.8895  -0.8660  -0.8040  -0.7631  -0.7212  -0.6698
    -0.6394  -0.6044  -0.4951  -0.3782  -0.2583  -0.2160  -0.1211  -0.0990
    -0.0784  -0.0510   0.0672   0.0954   0.1421   0.1646   0.2495   0.3054
     0.3754   0.3952   0.4216   0.4820   1.2263   1.2277   1.3170   1.3281
     3.2419   3.2810   3.2996   3.3499   3.5008   3.5057   3.5246   3.5327
     3.5930   3.6637

     the Fermi energy is     3.0097 ev

!    total energy              =   -2917.56706202 Ry
     estimated scf accuracy    <       0.00000003 Ry
     smearing contrib. (-TS)   =      -0.02328882 Ry
     internal energy E=F+TS    =   -2917.54377320 Ry

     The total energy is F=E-TS. E is the sum of the following terms:
     one-electron contribution =  -25013.78010971 Ry
     hartree contribution      =   12587.38748629 Ry
     xc contribution           =    -476.90887414 Ry
     ewald contribution        =    9985.75678031 Ry
     electric field correction =       0.00094405 Ry

     convergence has been achieved in  47 iterations

     Forces acting on atoms (cartesian axes, Ry/au):

     atom    1 type  1   force =    -0.00078461    0.00096213   -0.00014131
     atom    2 type  2   force =     0.00033009   -0.00693757   -0.03319294
     atom    3 type  2   force =     0.00003803    0.00053911    0.04509048
     atom    4 type  2   force =    -0.02017365    0.00056860    0.00443181
     atom    5 type  2   force =     0.01811877   -0.00156898    0.00401427
     atom    6 type  2   force =     0.00016085   -0.00001449    0.00045995
     atom    7 type  2   force =     0.00000462   -0.00008184   -0.00054945
     atom    8 type  2   force =    -0.00017240   -0.00016755   -0.00005095
     atom    9 type  2   force =     0.00006031    0.00009073   -0.00008901
     atom   10 type  2   force =     0.00006141    0.00060836    0.00138881
     atom   11 type  2   force =     0.00016565   -0.00042215    0.00428647
     atom   12 type  2   force =     0.00033435    0.00010074    0.00132546
     atom   13 type  2   force =    -0.00045783   -0.00026246    0.00126288
     atom   14 type  2   force =     0.00004260    0.00005969    0.10422889
     atom   15 type  2   force =    -0.00009238   -0.00052766    0.00136490
     atom   16 type  2   force =    -0.06900032    0.00074908   -0.02959986
     atom   17 type  2   force =     0.06876348    0.00130143   -0.02960657
     atom   18 type  2   force =     0.00035986    0.00396241   -0.02781721
     atom   19 type  2   force =     0.00080003    0.00084124    0.04704611
     atom   20 type  2   force =    -0.01785193    0.00130852    0.00373144
     atom   21 type  2   force =     0.01743755    0.00214651    0.00319743
     atom   22 type  2   force =     0.00018024   -0.00003020    0.00009877
     atom   23 type  2   force =    -0.00004470    0.00023293   -0.00032268
     atom   24 type  2   force =     0.00013566   -0.00023995   -0.00021796
     atom   25 type  2   force =     0.00029002   -0.00029168   -0.00027001
     atom   26 type  2   force =    -0.00016484   -0.00001267    0.00004360
     atom   27 type  2   force =     0.00004430    0.00000765    0.00020714
     atom   28 type  2   force =     0.00019105   -0.00089565    0.00149859
     atom   29 type  2   force =     0.00012480   -0.00028268    0.00123042
     atom   30 type  2   force =     0.00004942    0.00003554    0.10428475
     atom   31 type  2   force =    -0.06857144   -0.00140534   -0.02965209
     atom   32 type  2   force =     0.06844448   -0.00102218   -0.02964392
     atom   33 type  2   force =     0.00041661    0.00158997   -0.00033536
     atom   34 type  3   force =    -0.00000096   -0.00165023    0.10540866
     atom   35 type  3   force =    -0.00016437    0.00084573   -0.17981959
     atom   36 type  3   force =    -0.00025850    0.00002403    0.00019091
     atom   37 type  3   force =     0.00010953   -0.00053117    0.00014408
     atom   38 type  3   force =    -0.00015259    0.00027489   -0.00022524
     atom   39 type  3   force =     0.00002512   -0.00125987    0.00111166
     atom   40 type  3   force =    -0.00022067    0.00008323   -0.00166413
     atom   41 type  3   force =     0.00026651   -0.00101641   -0.00144095
     atom   42 type  3   force =    -0.00002935    0.00126396    0.11805824
     atom   43 type  3   force =     0.00001676   -0.00036460   -0.17999631
     atom   44 type  3   force =     0.00030392    0.00000516    0.00037859
     atom   45 type  3   force =     0.00003339    0.00063208   -0.00022265
     atom   46 type  3   force =     0.00028143    0.00025759    0.00099542
     atom   47 type  3   force =     0.00000223    0.00119207    0.00123153
     atom   48 type  3   force =     0.00035676   -0.00019527   -0.01005749
     atom   49 type  3   force =     0.00019076   -0.00050277   -0.00179557

     Total force =     0.376417     Total SCF correction =     0.000412
  @ DRIVER MODE: Message from server: STATUS
  @ DRIVER MODE: Message from server: GETFORCE
  @ DRIVER MODE: Returning v,forces,stress,ensemble

     Writing output data file ./calc.save/
  @ DRIVER MODE: Message from server: EXIT
  @ DRIVE MODE: Exiting

     General routines

     Parallel routines

   This run was terminated on:  16: 9:33   5Oct2021

   JOB DONE.