     Program PWSCF v.6.7GPU starts on 29Sep2021 at  6: 7:43

     R & G space division:  proc/nbgrp/npool/nimage =       8
     Reading input from /storage/home/hcoda1/3/ntian30/research/carbon/CxH_vib/H2O_calc/ads_slab/CHNHNH2HO_b/out_0047/pw.inp
Warning: card &CELL ignored
Warning: card   CELL_DYNAMICS='IPI', ignored
Warning: card / ignored

     Current dimensions of program PWSCF are:
     Max number of different atomic species (ntypx) = 10
     Max number of k-points (npk) =  40000
     Max angular momentum in pseudopotentials (lmaxx) =  3
     Presently no symmetry can be used with electric field

     Message from routine cell_base_init:
     DEPRECATED: use true lattice parameter, not A to a.u. conversion factor

     IMPORTANT: XC functional enforced from input :
     Exchange-correlation= BEEF-VDW
                           (   1   4  43  14   2   0   0)
     Any further DFT definition will be discarded
     Please, verify this is what you really want

  @ DRIVER MODE: Connecting to
 qe_1139763_3009830.sched-torque.pace.gatech.edubuvp5ds0_scratch
  using UNIX socket
  @ DRIVER MODE: Message from server: STATUS
  @ DRIVER MODE: Message from server: INIT
  @ DRIVER MODE: Receiving replica           0          -1
  @ DRIVER MODE: Receiving encoded integer          25
  @ DRIVER MODE:  SCF:  T  FORCE:  T  STRESS:  F  VC:  F  ENSEMBLE:  F
  @ DRIVER MODE:  SCF:  T  FORCE:  T  STRESS:  F  VC:  F  ENSEMBLE:  F

     Using Slab Decomposition

     bravais-lattice index     =            0
     lattice parameter (alat)  =       1.8897  a.u.
     unit-cell volume          =    6658.9804 (a.u.)^3
     number of atoms/cell      =           56
     number of atomic types    =            5
     number of electrons       =       403.00
     number of Kohn-Sham states=          211
     kinetic-energy cutoff     =      29.3995  Ry
     charge density cutoff     =     293.9946  Ry
     scf convergence threshold =      7.3E-08
     mixing beta               =       0.0500
     number of iterations used =            8  plain     mixing
     Exchange-correlation= BEEF-VDW
                           (   1   4  43  14   2   0   0)

     celldm(1)=   1.889726  celldm(2)=   0.000000  celldm(3)=   0.000000
     celldm(4)=   0.000000  celldm(5)=   0.000000  celldm(6)=   0.000000

     crystal axes: (cart. coord. in units of alat)
               a(1) = (   6.579727   0.000000   0.000000 )
               a(2) = (  -0.000775   5.961596   0.000000 )
               a(3) = (   0.000000   0.000000  25.155947 )

     reciprocal axes: (cart. coord. in units 2 pi/alat)
               b(1) = (  0.151982  0.000020  0.000000 )
               b(2) = (  0.000000  0.167740  0.000000 )
               b(3) = (  0.000000  0.000000  0.039752 )

     PseudoPot. # 1 for Ti read from file:
     /storage/coda1/p-amedford6/0/shared/rich_project_chbe-medford/medford-share/data/pseudos_module/espresso/nninc/pbe/van/Ti.UPF
     MD5 check sum: 8e4df49b7f0d34bbd5052bf3f5ea0213
     Pseudo is Ultrasoft, Zval = 12.0
     Generated by new atomic code, or converted to UPF format
     Using radial grid of  851 points,  6 beta functions with:
                l(1) =   0
                l(2) =   0
                l(3) =   1
                l(4) =   1
                l(5) =   2
                l(6) =   2
     Q(r) pseudized with  8 coefficients,  rinner =    1.000   1.000   1.000
                                                       1.000   1.000

     PseudoPot. # 2 for O  read from file:
     /storage/coda1/p-amedford6/0/shared/rich_project_chbe-medford/medford-share/data/pseudos_module/espresso/nninc/pbe/van/O.UPF
     MD5 check sum: 78c19812648e8988a0fe644b0f25305e
     Pseudo is Ultrasoft, Zval =  6.0
     Generated by new atomic code, or converted to UPF format
     Using radial grid of  737 points,  4 beta functions with:
                l(1) =   0
                l(2) =   0
                l(3) =   1
                l(4) =   1
     Q(r) pseudized with  8 coefficients,  rinner =    0.800   0.800   0.800

     PseudoPot. # 3 for N  read from file:
     /storage/coda1/p-amedford6/0/shared/rich_project_chbe-medford/medford-share/data/pseudos_module/espresso/nninc/pbe/van/N.UPF
     MD5 check sum: 90d10febe142ad51ac9d5be1deb811c4
     Pseudo is Ultrasoft, Zval =  5.0
     Generated by new atomic code, or converted to UPF format
     Using radial grid of  729 points,  4 beta functions with:
                l(1) =   0
                l(2) =   0
                l(3) =   1
                l(4) =   1
     Q(r) pseudized with  8 coefficients,  rinner =    0.800   0.800   0.800

     PseudoPot. # 4 for C  read from file:
     /storage/coda1/p-amedford6/0/shared/rich_project_chbe-medford/medford-share/data/pseudos_module/espresso/nninc/pbe/van/C.UPF
     MD5 check sum: 1a69bf6b8db32088f5b2163dbdb77a27
     Pseudo is Ultrasoft, Zval =  4.0
     Generated by new atomic code, or converted to UPF format
     Using radial grid of  721 points,  4 beta functions with:
                l(1) =   0
                l(2) =   0
                l(3) =   1
                l(4) =   1
     Q(r) pseudized with  8 coefficients,  rinner =    0.800   0.800   0.800

     PseudoPot. # 5 for H  read from file:
     /storage/coda1/p-amedford6/0/shared/rich_project_chbe-medford/medford-share/data/pseudos_module/espresso/nninc/pbe/van/H.UPF
     MD5 check sum: b5ee9d7bfd3a09ee7748110bda690ff7
     Pseudo is Ultrasoft, Zval =  1.0
     Generated by new atomic code, or converted to UPF format
     Using radial grid of  615 points,  1 beta functions with:
                l(1) =   0
     Q(r) pseudized with  8 coefficients,  rinner =    0.800

     atomic species   valence    mass     pseudopotential
        Ti1           12.00    47.86700     Ti( 1.00)
        O1             6.00    15.99900     O ( 1.00)
        N1             5.00    14.00700     N ( 1.00)
        C1             4.00    12.01100     C ( 1.00)
        H1             1.00     1.00800     H ( 1.00)

     No symmetry found

   Cartesian axes

     site n.     atom                  positions (alat units)
         1           Ti1 tau(   1) = (   0.0004258   2.9801865   6.0000000  )
         2           Ti1 tau(   2) = (   3.2906075   1.4906267   6.0002472  )
         3           O1  tau(   3) = (   0.0006271   0.0005054   7.9858123  )
         4           O1  tau(   4) = (   3.2906025   0.0005020   7.3038282  )
         5           O1  tau(   5) = (   4.5942328   1.4918067   9.2879030  )
         6           O1  tau(   6) = (   1.9868534   1.4903216   9.2879459  )
         7           Ti1 tau(   7) = (   3.2907910   2.8959150   9.1758416  )
         8           Ti1 tau(   8) = (   0.0015273   1.4827037   9.2680791  )
         9           O1  tau(   9) = (   3.2982983   0.0405180  11.3424948  )
        10           O1  tau(  10) = (   0.0116148   5.9584955  10.6183126  )
        11           O1  tau(  11) = (   1.2753745   1.5072422  12.7016807  )
        12           O1  tau(  12) = (   5.3195175   1.5181342  12.6954276  )
        13           Ti1 tau(  13) = (   0.0019584   2.9687762  12.4995492  )
        14           Ti1 tau(  14) = (   3.3051642   1.5697923  12.4614731  )
        15           O1  tau(  15) = (   6.5474216   5.8614089  14.6874354  )
        16           O1  tau(  16) = (   3.3077571   5.9224049  13.9445013  )
        17           O1  tau(  17) = (   4.5645563   1.5748115  16.1270233  )
        18           O1  tau(  18) = (   2.0342606   1.5395256  16.0843959  )
        19           Ti1 tau(  19) = (   3.2752269   2.9899004  15.7194909  )
        20           Ti1 tau(  20) = (   6.5310352   1.3332667  15.7916221  )
        21           O1  tau(  21) = (   3.2904802   0.0005063   4.7018136  )
        22           O1  tau(  22) = (   0.0193913   0.2006272  17.2172921  )
        23           O1  tau(  23) = (   1.3043587   1.4918075   6.0039043  )
        24           O1  tau(  24) = (   5.2767064   1.4903225   6.0039473  )
        25           Ti1 tau(  25) = (   0.0000382   5.9609847   6.0000000  )
        26           Ti1 tau(  26) = (   3.2902200   4.4714249   6.0002472  )
        27           O1  tau(  27) = (   0.0002396   2.9813036   7.9858123  )
        28           O1  tau(  28) = (   3.2902150   2.9813002   7.3038282  )
        29           O1  tau(  29) = (   4.5938453   4.4726049   9.2879030  )
        30           O1  tau(  30) = (   1.9864658   4.4711199   9.2879459  )
        31           Ti1 tau(  31) = (   3.2891106   5.8743827   9.1763621  )
        32           Ti1 tau(  32) = (   0.0006254   4.4649316   9.2693709  )
        33           O1  tau(  33) = (   3.2939295   2.9453814  11.3217152  )
        34           O1  tau(  34) = (   0.0092240   2.9805883  10.6323155  )
        35           O1  tau(  35) = (   1.2781447   4.4822909  12.6561401  )
        36           O1  tau(  36) = (   5.3212068   4.4743896  12.6463055  )
        37           Ti1 tau(  37) = (   0.0302233   5.9315785  12.5023592  )
        38           Ti1 tau(  38) = (   3.3112215   4.6713144  12.7097751  )
        39           O1  tau(  39) = (   0.0192075   3.0624537  14.9697097  )
        40           O1  tau(  40) = (   3.2993887   3.0147307  13.9488589  )
        41           O1  tau(  41) = (   4.5718800   4.4489939  16.2708329  )
        42           O1  tau(  42) = (   2.0246426   4.4466800  16.2581844  )
        43           Ti1 tau(  43) = (   3.2612680   0.0306108  16.4716933  )
        44           Ti1 tau(  44) = (   6.5506247   4.5497786  16.0606151  )
        45           O1  tau(  45) = (   3.2900926   2.9813045   4.7018136  )
        46           O1  tau(  46) = (   1.3039711   4.4726057   6.0039043  )
        47           O1  tau(  47) = (   5.2763189   4.4711207   6.0039473  )
        48           N1  tau(  48) = (   0.9981237   2.4704741  18.7333368  )
        49           N1  tau(  49) = (   6.5532285   3.4232418  18.2716252  )
        50           C1  tau(  50) = (   2.1690532   2.7243113  19.1879583  )
        51           H1  tau(  51) = (   2.3212509   3.8010200  19.3435938  )
        52           H1  tau(  52) = (   0.7222050   1.5235952  18.4365492  )
        53           H1  tau(  53) = (   0.1086806   4.2950834  18.7847415  )
        54           H1  tau(  54) = (   5.6367167   3.0457734  18.5222562  )
        55           O1  tau(  55) = (   3.2473456   0.1866190  18.2587603  )
        56           H1  tau(  56) = (   3.0571027   1.0491837  18.7494863  )

     number of k points=    10  Fermi-Dirac smearing, width (Ry)=  0.0073
                       cart. coord. in units 2pi/alat
        k(    1) = (   0.0000000   0.0000000   0.0000000), wk =   0.1250000
        k(    2) = (   0.0000000   0.0419351   0.0000000), wk =   0.2500000
        k(    3) = (   0.0000000  -0.0838702   0.0000000), wk =   0.1250000
        k(    4) = (   0.0379955   0.0000049   0.0000000), wk =   0.2500000
        k(    5) = (   0.0379955   0.0419400   0.0000000), wk =   0.2500000
        k(    6) = (   0.0379955  -0.0838652   0.0000000), wk =   0.2500000
        k(    7) = (   0.0379955  -0.0419301   0.0000000), wk =   0.2500000
        k(    8) = (  -0.0759910  -0.0000099   0.0000000), wk =   0.1250000
        k(    9) = (  -0.0759910   0.0419252   0.0000000), wk =   0.2500000
        k(   10) = (  -0.0759910  -0.0838800   0.0000000), wk =   0.1250000

     Initial potential from superposition of free atoms

     starting charge  386.99914, renormalised to  403.00000

     negative rho (up, down):  1.628E-02 0.000E+00

     %%%%%%%%%%%%%%%%%%%%%%%%%%%%%%%%%%%%%%%%%%%%%%%%%%%%%%%%%%%%%%%%%%%%%%%%
     %                                                                      %
     % You are using vdW-DF, which was implemented by the Thonhauser group. %
     % Please cite the following two papers that made this development      %
     % possible and the two reviews that describe the various versions:     %
     %                                                                      %
     %   T. Thonhauser et al., PRL 115, 136402 (2015).                      %
     %   T. Thonhauser et al., PRB 76, 125112 (2007).                       %
     %   K. Berland et al., Rep. Prog. Phys. 78, 066501 (2015).             %
     %   D.C. Langreth et al., J. Phys.: Condens. Matter 21, 084203 (2009). %
     %                                                                      %
     %                                                                      %
     % If you are calculating the stress with vdW-DF, please also cite:     %
     %                                                                      %
     %   R. Sabatini et al., J. Phys.: Condens. Matter 24, 424209 (2012).   %
     %                                                                      %
     %%%%%%%%%%%%%%%%%%%%%%%%%%%%%%%%%%%%%%%%%%%%%%%%%%%%%%%%%%%%%%%%%%%%%%%%

     Adding external electric field

     Computed dipole along edir(3) :
        Dipole              -13.0921 Ry au,        -33.2768 Debye
        Dipole field         -0.0247 Ry au,

        Potential amp.        2.2903 Ry
        Total length         46.3494 bohr

     Starting wfcs are  305 atomic wfcs
  @ DRIVER MODE: Message from server: STATUS
  @ DRIVER MODE: Message from server: POSDATA
  @ DRIVER MODE: Reading and sharing cell
  @ DRIVER MODE: Reading and sharing positions
  @ DRIVER MODE: Received positions

     Self-consistent Calculation

     iteration #  1     ecut=    29.40 Ry     beta= 0.05
     Davidson diagonalization with overlap
     c_bands:  5 eigenvalues not converged
     c_bands:  2 eigenvalues not converged
     c_bands:  5 eigenvalues not converged
     c_bands:  1 eigenvalues not converged
     c_bands:  1 eigenvalues not converged
     c_bands:  5 eigenvalues not converged
     c_bands:  3 eigenvalues not converged
     c_bands:  1 eigenvalues not converged
     ethr =  1.00E-05,  avg # of iterations = 26.0

[...]

     total energy              =   -2290.65234258 Ry
     estimated scf accuracy    <    7735.18728706 Ry

     iteration #  2     ecut=    29.40 Ry     beta= 0.05
     Davidson diagonalization with overlap
     ethr =  1.00E-02,  avg # of iterations = 26.8

[...]

     iteration # 65     ecut=    29.40 Ry     beta= 0.05
     Davidson diagonalization with overlap
     c_bands:  1 eigenvalues not converged
     ethr =  2.77E-07,  avg # of iterations = 12.4

[...]

     total energy              =   -2973.89796367 Ry
     estimated scf accuracy    <       0.00000008 Ry

     iteration # 90     ecut=    29.40 Ry     beta= 0.05
     Davidson diagonalization with overlap
     ethr =  1.87E-11,  avg # of iterations =  7.9

     negative rho (up, down):  1.611E-02 0.000E+00

     Adding external electric field

     Computed dipole along edir(3) :
        Dipole                0.8697 Ry au,          2.2106 Debye
        Dipole field          0.0016 Ry au,

        Potential amp.       -0.1521 Ry
        Total length         46.3494 bohr

     End of self-consistent calculation

          k = 0.0000 0.0000 0.0000 ( 18029 PWs)   bands (ev):

   -55.6269 -55.6226 -55.5928 -55.5594 -55.4767 -55.4544 -55.4347 -55.4308
   -55.4204 -55.3782 -55.3359 -55.2810 -55.1991 -55.0533 -54.5905 -54.5565
   -32.1113 -32.0874 -31.9592 -31.9591 -31.9579 -31.9175 -31.8987 -31.8728
   -31.8660 -31.8450 -31.8316 -31.8229 -31.7795 -31.7497 -31.7366 -31.7333
   -31.7284 -31.7147 -31.6942 -31.6893 -31.6845 -31.6608 -31.6527 -31.6401
   -31.6277 -31.6269 -31.6054 -31.5969 -31.5815 -31.5777 -31.5720 -31.5606
   -31.5497 -31.5329 -31.4896 -31.4848 -31.4815 -31.4629 -31.3992 -31.3129
   -31.2790 -31.2710 -30.9956 -30.9112 -30.8887 -30.8135 -30.7272 -30.6152
   -18.7190 -16.3072 -16.2502 -16.1017 -15.8770 -15.7900 -15.7586 -15.5973
   -15.4708 -15.4290 -15.3082 -15.1591 -15.1287 -15.1211 -15.1146 -15.1064
   -15.0885 -15.0608 -15.0476 -15.0430 -15.0294 -14.9650 -14.9461 -14.9172
   -14.8383 -14.7847 -14.7577 -14.6873 -14.6443 -14.5463 -14.5318 -14.2584
   -13.0881 -12.9719  -9.6030  -6.9295  -5.8767  -4.3343  -4.1182  -3.8509
    -3.6148  -3.5256  -3.5023  -3.3942  -3.3054  -3.0730  -3.0517  -2.9829
    -2.8294  -2.7362  -2.6519  -2.6246  -2.5834  -2.5301  -2.5161  -2.4735
    -2.4072  -2.3763  -2.3349  -2.3229  -2.2735  -2.2648  -2.2194  -2.1417
    -2.1342  -2.0288  -1.9602  -1.9555  -1.9411  -1.9325  -1.8831  -1.8677
    -1.8608  -1.7901  -1.7352  -1.7024  -1.6354  -1.6079  -1.5361  -1.3044
    -1.2135  -1.2023  -1.1450  -1.0581  -1.0307  -1.0177  -1.0033  -0.9806
    -0.9587  -0.8646  -0.8394  -0.6950  -0.6885  -0.6616  -0.6308  -0.6042
    -0.4858  -0.4242  -0.3967  -0.3521  -0.3319  -0.2968  -0.2273  -0.2122
    -0.1296  -0.0879  -0.0225  -0.0049   0.0210   0.0907   0.1521   0.1866
     0.2008   0.3035   0.3184   0.3471   0.3539   0.3761   0.4028   0.4958
     0.5137   0.5546   0.5773   0.7202   0.7305   0.7822   0.9236   0.9531
     1.0586   1.1561   1.3429   1.3961   1.4368   1.4645   1.6331   2.0020
     2.0468   3.4527   3.6121   3.6251   3.7223   3.7369   3.8120   3.9471
     4.0420   4.1115   4.1467

[...]

          k = 0.0380-0.0419 0.0000 ( 17876 PWs)   bands (ev):

[...]

          k =-0.0760-0.0000 0.0000 ( 17886 PWs)   bands (ev):

[...]

          k =-0.0760-0.0839 0.0000 ( 17948 PWs)   bands (ev):

   -55.6217 -55.6099 -55.6097 -55.5582 -55.4685 -55.4400 -55.4380 -55.4354
   -55.4353 -55.3698 -55.3442 -55.2821 -55.1972 -55.0551 -54.5735 -54.5733
   -32.0124 -31.9267 -31.9265 -31.9174 -31.9032 -31.9028 -31.8950 -31.8249
   -31.8046 -31.7993 -31.7872 -31.7716 -31.7660 -31.7519 -31.7479 -31.7298
   -31.7297 -31.7199 -31.7189 -31.7072 -31.7065 -31.6930 -31.6840 -31.6748
   -31.6389 -31.6351 -31.6345 -31.6282 -31.6133 -31.6106 -31.6030 -31.5907
   -31.5741 -31.5684 -31.5606 -31.5542 -31.4861 -31.4543 -31.4026 -31.3941
   -31.3175 -31.2744 -30.9014 -30.9014 -30.8088 -30.8084 -30.7705 -30.7702
   -18.7129 -16.2700 -15.9305 -15.6230 -15.6218 -15.6021 -15.4434 -15.4098
   -15.3778 -15.3481 -15.2978 -15.2925 -15.2667 -15.2321 -15.2201 -15.1651
   -15.1409 -15.1240 -15.1053 -15.0864 -15.0668 -15.0382 -15.0274 -15.0260
   -14.9476 -14.9372 -14.9229 -14.9151 -14.8456 -14.6252 -14.5019 -14.4161
   -13.0739 -13.0738  -9.5898  -6.9234  -5.8400  -4.5143  -3.9770  -3.7850
    -3.0571  -2.8573  -2.8276  -2.7017  -2.6676  -2.6446  -2.5799  -2.5392
    -2.5378  -2.4608  -2.4482  -2.4029  -2.3989  -2.3539  -2.3527  -2.3238
    -2.3150  -2.3012  -2.2923  -2.2851  -2.2360  -2.2106  -2.2074  -2.1945
    -2.1713  -2.1584  -2.1333  -2.1174  -2.0572  -1.9826  -1.8699  -1.8494
    -1.7874  -1.7525  -1.7381  -1.7191  -1.6971  -1.6705  -1.6512  -1.5579
    -1.4728  -1.4135  -1.3143  -1.2268  -1.2024  -1.1491  -1.1411  -1.0994
    -1.0765  -1.0545  -1.0192  -0.9647  -0.8404  -0.8340  -0.7733  -0.6768
    -0.6392  -0.5674  -0.5648  -0.5584  -0.5428  -0.5254  -0.5002  -0.4589
    -0.4450  -0.3556  -0.3319  -0.3226  -0.3054  -0.2805  -0.1408  -0.1067
    -0.0545   0.1482   0.1539   0.1824   0.2900   0.3753   0.4395   0.4557
     0.5092   0.5618   0.5962   0.6355   0.6915   0.7155   0.7786   0.8911
     0.8976   0.9166   0.9582   1.0198   1.2185   1.8021   1.8088   1.8671
     1.8674   3.6677   3.8571   3.9772   3.9822   3.9974   4.0388   4.0483
     4.0612   4.1241   4.1321

     the Fermi energy is     3.4934 ev

!    total energy              =   -2973.89796797 Ry
     estimated scf accuracy    <       0.00000003 Ry
     smearing contrib. (-TS)   =      -0.01933348 Ry
     internal energy E=F+TS    =   -2973.87863449 Ry

     The total energy is F=E-TS. E is the sum of the following terms:
     one-electron contribution =  -23225.04626068 Ry
     hartree contribution      =   11707.05238440 Ry
     xc contribution           =    -493.95889442 Ry
     ewald contribution        =    9038.07270884 Ry
     electric field correction =       0.00142738 Ry

     convergence has been achieved in  90 iterations

     Forces acting on atoms (cartesian axes, Ry/au):

     atom    1 type  1   force =     0.00006620   -0.00020692    0.09417968
     atom    2 type  1   force =    -0.00015750    0.00003086   -0.17480285
     atom    3 type  2   force =     0.00002935   -0.00050514   -0.02071973
     atom    4 type  2   force =     0.00004140   -0.00070807    0.05227348
     atom    5 type  2   force =    -0.00298513   -0.00196828    0.00012439
     atom    6 type  2   force =     0.00461936   -0.00150423   -0.00033030
     atom    7 type  1   force =    -0.00019202    0.00280520    0.01409401
     atom    8 type  1   force =    -0.00011896   -0.00121413   -0.00060159
     atom    9 type  2   force =     0.00005253   -0.00009362   -0.00013136
     atom   10 type  2   force =    -0.00139785    0.00346565   -0.00730842
     atom   11 type  2   force =    -0.00019756    0.00025244    0.00022509
     atom   12 type  2   force =     0.00038536    0.00039043    0.00063421
     atom   13 type  1   force =    -0.00042505    0.00057476   -0.00034347
     atom   14 type  1   force =     0.00000358   -0.00013642    0.00071606
     atom   15 type  2   force =     0.00038731    0.00084282    0.00075696
     atom   16 type  2   force =    -0.00008853   -0.00080117    0.00072706
     atom   17 type  2   force =     0.00090167    0.00005186   -0.00014447
     atom   18 type  2   force =    -0.00010415    0.00034182   -0.00033775
     atom   19 type  1   force =    -0.00006404   -0.00000445   -0.00080928
     atom   20 type  1   force =    -0.00027012   -0.00004508   -0.00094694
     atom   21 type  2   force =     0.00006683   -0.00000371    0.10297684
     atom   22 type  2   force =     0.00042625    0.00036047    0.00061199
     atom   23 type  2   force =    -0.07237071   -0.00018333   -0.02724310
     atom   24 type  2   force =     0.07231071    0.00026077   -0.02729171
     atom   25 type  1   force =     0.00007146   -0.00030005    0.09362813
     atom   26 type  1   force =    -0.00005907   -0.00116434   -0.17490839
     atom   27 type  2   force =     0.00017284   -0.00002101   -0.01958691
     atom   28 type  2   force =     0.00003185   -0.00104110    0.04855311
     atom   29 type  2   force =    -0.00593358    0.00105759    0.00312393
     atom   30 type  2   force =     0.00741361    0.00157207    0.00262526
     atom   31 type  1   force =     0.00004636    0.00141169    0.00270225
     atom   32 type  1   force =     0.00006461    0.00068383   -0.00037884
     atom   33 type  2   force =    -0.00016906   -0.00011748   -0.00052884
     atom   34 type  2   force =    -0.00061516   -0.00196923   -0.01092851
     atom   35 type  2   force =     0.00022212   -0.00040634   -0.00012835
     atom   36 type  2   force =    -0.00002217   -0.00026108   -0.00019343
     atom   37 type  1   force =    -0.00024901   -0.00041092   -0.00058648
     atom   38 type  1   force =     0.00025192    0.00031425    0.00041604
     atom   39 type  2   force =    -0.00037948   -0.00126069   -0.00017616
     atom   40 type  2   force =    -0.00012751    0.00035818    0.00084353
     atom   41 type  2   force =    -0.00042977   -0.00024478    0.00034932
     atom   42 type  2   force =    -0.00004371   -0.00092986   -0.00002258
     atom   43 type  1   force =    -0.00020220   -0.00001086   -0.00741220
     atom   44 type  1   force =     0.00012282   -0.00110338   -0.00065129
     atom   45 type  2   force =     0.00006577    0.00005844    0.10282724
     atom   46 type  2   force =    -0.07232605   -0.00005668   -0.02719132
     atom   47 type  2   force =     0.07223321    0.00039054   -0.02722549
     atom   48 type  3   force =    -0.00148672    0.00029742    0.00013238
     atom   49 type  3   force =     0.00014471   -0.00002019    0.00095640
     atom   50 type  4   force =     0.00062821   -0.00031741    0.00020948
     atom   51 type  5   force =    -0.00016573   -0.00121196    0.00033354
     atom   52 type  5   force =    -0.00015281    0.00133878    0.00033382
     atom   53 type  5   force =     0.00007960   -0.00028502   -0.00078033
     atom   54 type  5   force =     0.00039259    0.00064730    0.00027163
     atom   55 type  2   force =    -0.00089805    0.00641977    0.01113266
     atom   56 type  5   force =     0.00039948   -0.00542005   -0.00404840

     Total force =     0.361385     Total SCF correction =     0.000433
  @ DRIVER MODE: Message from server: STATUS
  @ DRIVER MODE: Message from server: GETFORCE
  @ DRIVER MODE: Returning v,forces,stress,ensemble

     Writing output data file ./calc.save/
  @ DRIVER MODE: Message from server: EXIT
  @ DRIVE MODE: Exiting

     General routines

     Parallel routines

   This run was terminated on:   6:37:44  29Sep2021

   JOB DONE.