     Program PWSCF v.6.7GPU starts on 15Sep2021 at 17:29:28

     R & G space division:  proc/nbgrp/npool/nimage =      10
     Reading input from /storage/home/hcoda1/3/ntian30/research/carbon/CxH_vib/H2O_calc/ads_slab/CH2NH2O_a/out_0006/pw.inp
Warning: card &CELL ignored
Warning: card   CELL_DYNAMICS='IPI', ignored
Warning: card / ignored

     Current dimensions of program PWSCF are:
     Max number of different atomic species (ntypx) = 10
     Max number of k-points (npk) =  40000
     Max angular momentum in pseudopotentials (lmaxx) =  3
     Presently no symmetry can be used with electric field

     Message from routine cell_base_init:
     DEPRECATED: use true lattice parameter, not A to a.u. conversion factor

     IMPORTANT: XC functional enforced from input :
     Exchange-correlation= BEEF-VDW
                           (   1   4  43  14   2   0   0)
     Any further DFT definition will be discarded
     Please, verify this is what you really want

  @ DRIVER MODE: Connecting to
 qe_1139763_2852607.sched-torque.pace.gatech.edujbjetcg3_scratch
  using UNIX socket
  @ DRIVER MODE: Message from server: STATUS
  @ DRIVER MODE: Message from server: INIT
  @ DRIVER MODE: Receiving replica           0          -1
  @ DRIVER MODE: Receiving encoded integer          25
  @ DRIVER MODE:  SCF:  T  FORCE:  T  STRESS:  F  VC:  F  ENSEMBLE:  F
  @ DRIVER MODE:  SCF:  T  FORCE:  T  STRESS:  F  VC:  F  ENSEMBLE:  F

     Using Slab Decomposition

     bravais-lattice index     =            0
     lattice parameter (alat)  =       1.8897  a.u.
     unit-cell volume          =    6658.9804 (a.u.)^3
     number of atoms/cell      =           54
     number of atomic types    =            5
     number of electrons       =       397.00
     number of Kohn-Sham states=          208
     kinetic-energy cutoff     =      29.3995  Ry
     charge density cutoff     =     293.9946  Ry
     scf convergence threshold =      7.3E-08
     mixing beta               =       0.0500
     number of iterations used =            8  plain     mixing
     Exchange-correlation= BEEF-VDW
                           (   1   4  43  14   2   0   0)

     celldm(1)=   1.889726  celldm(2)=   0.000000  celldm(3)=   0.000000
     celldm(4)=   0.000000  celldm(5)=   0.000000  celldm(6)=   0.000000

     crystal axes: (cart. coord. in units of alat)
               a(1) = (   6.579727   0.000000   0.000000 )
               a(2) = (  -0.000775   5.961596   0.000000 )
               a(3) = (   0.000000   0.000000  25.155947 )

     reciprocal axes: (cart. coord. in units 2 pi/alat)
               b(1) = (  0.151982  0.000020  0.000000 )
               b(2) = (  0.000000  0.167740  0.000000 )
               b(3) = (  0.000000  0.000000  0.039752 )

     PseudoPot. # 1 for Ti read from file:
     /storage/coda1/p-amedford6/0/shared/rich_project_chbe-medford/medford-share/data/pseudos_module/espresso/nninc/pbe/van/Ti.UPF
     MD5 check sum: 8e4df49b7f0d34bbd5052bf3f5ea0213
     Pseudo is Ultrasoft, Zval = 12.0
     Generated by new atomic code, or converted to UPF format
     Using radial grid of  851 points,  6 beta functions with:
                l(1) =   0
                l(2) =   0
                l(3) =   1
                l(4) =   1
                l(5) =   2
                l(6) =   2
     Q(r) pseudized with  8 coefficients,  rinner =    1.000   1.000   1.000
                                                       1.000   1.000

     PseudoPot. # 2 for O  read from file:
     /storage/coda1/p-amedford6/0/shared/rich_project_chbe-medford/medford-share/data/pseudos_module/espresso/nninc/pbe/van/O.UPF
     MD5 check sum: 78c19812648e8988a0fe644b0f25305e
     Pseudo is Ultrasoft, Zval =  6.0
     Generated by new atomic code, or converted to UPF format
     Using radial grid of  737 points,  4 beta functions with:
                l(1) =   0
                l(2) =   0
                l(3) =   1
                l(4) =   1
     Q(r) pseudized with  8 coefficients,  rinner =    0.800   0.800   0.800

     PseudoPot. # 3 for N  read from file:
     /storage/coda1/p-amedford6/0/shared/rich_project_chbe-medford/medford-share/data/pseudos_module/espresso/nninc/pbe/van/N.UPF
     MD5 check sum: 90d10febe142ad51ac9d5be1deb811c4
     Pseudo is Ultrasoft, Zval =  5.0
     Generated by new atomic code, or converted to UPF format
     Using radial grid of  729 points,  4 beta functions with:
                l(1) =   0
                l(2) =   0
                l(3) =   1
                l(4) =   1
     Q(r) pseudized with  8 coefficients,  rinner =    0.800   0.800   0.800

     PseudoPot. # 4 for C  read from file:
     /storage/coda1/p-amedford6/0/shared/rich_project_chbe-medford/medford-share/data/pseudos_module/espresso/nninc/pbe/van/C.UPF
     MD5 check sum: 1a69bf6b8db32088f5b2163dbdb77a27
     Pseudo is Ultrasoft, Zval =  4.0
     Generated by new atomic code, or converted to UPF format
     Using radial grid of  721 points,  4 beta functions with:
                l(1) =   0
                l(2) =   0
                l(3) =   1
                l(4) =   1
     Q(r) pseudized with  8 coefficients,  rinner =    0.800   0.800   0.800

     PseudoPot. # 5 for H  read from file:
     /storage/coda1/p-amedford6/0/shared/rich_project_chbe-medford/medford-share/data/pseudos_module/espresso/nninc/pbe/van/H.UPF
     MD5 check sum: b5ee9d7bfd3a09ee7748110bda690ff7
     Pseudo is Ultrasoft, Zval =  1.0
     Generated by new atomic code, or converted to UPF format
     Using radial grid of  615 points,  1 beta functions with:
                l(1) =   0
     Q(r) pseudized with  8 coefficients,  rinner =    0.800

     atomic species   valence    mass     pseudopotential
        Ti1           12.00    47.86700     Ti( 1.00)
        O1             6.00    15.99900     O ( 1.00)
        N1             5.00    14.00700     N ( 1.00)
        C1             4.00    12.01100     C ( 1.00)
        H1             1.00     1.00800     H ( 1.00)

     No symmetry found

   Cartesian axes

     site n.     atom                  positions (alat units)
         1           Ti1 tau(   1) = (   0.0004258   2.9801865   6.0000000  )
         2           Ti1 tau(   2) = (   3.2906075   1.4906267   6.0002472  )
         3           O1  tau(   3) = (   0.0006271   0.0005054   7.9858123  )
         4           O1  tau(   4) = (   3.2906025   0.0005020   7.3038282  )
         5           O1  tau(   5) = (   4.5942328   1.4918067   9.2879030  )
         6           O1  tau(   6) = (   1.9868534   1.4903216   9.2879459  )
         7           Ti1 tau(   7) = (   3.2907910   2.8959150   9.1758416  )
         8           Ti1 tau(   8) = (   0.0015273   1.4827037   9.2680791  )
         9           O1  tau(   9) = (   3.3024300   0.0156651  11.3362489  )
        10           O1  tau(  10) = (   0.0116148   5.9584955  10.6183126  )
        11           O1  tau(  11) = (   1.3202942   1.5021919  12.6211084  )
        12           O1  tau(  12) = (   5.3089492   1.4933221  12.6244093  )
        13           Ti1 tau(  13) = (   6.5318549   2.9554166  12.6004298  )
        14           Ti1 tau(  14) = (   3.2163550   1.4959796  12.4995714  )
        15           O1  tau(  15) = (   0.0198598   0.0281632  14.6562685  )
        16           O1  tau(  16) = (   3.3115091   0.0214956  13.9462002  )
        17           O1  tau(  17) = (   4.5768415   1.5604546  16.0171077  )
        18           O1  tau(  18) = (   2.0579415   1.5629007  16.0064375  )
        19           Ti1 tau(  19) = (   3.3180608   3.0267156  15.6839788  )
        20           Ti1 tau(  20) = (   0.0373526   1.5614015  15.8096867  )
        21           O1  tau(  21) = (   3.2904802   0.0005063   4.7018136  )
        22           O1  tau(  22) = (   0.0417102   0.0258274  17.2400240  )
        23           O1  tau(  23) = (   1.3043587   1.4918075   6.0039043  )
        24           O1  tau(  24) = (   5.2767064   1.4903225   6.0039473  )
        25           Ti1 tau(  25) = (   0.0000382   5.9609847   6.0000000  )
        26           Ti1 tau(  26) = (   3.2902200   4.4714249   6.0002472  )
        27           O1  tau(  27) = (   0.0002396   2.9813036   7.9858123  )
        28           O1  tau(  28) = (   3.2902150   2.9813002   7.3038282  )
        29           O1  tau(  29) = (   4.5938453   4.4726049   9.2879030  )
        30           O1  tau(  30) = (   1.9864658   4.4711199   9.2879459  )
        31           Ti1 tau(  31) = (   3.2891106   5.8743827   9.1763621  )
        32           Ti1 tau(  32) = (   0.0006254   4.4649316   9.2693709  )
        33           O1  tau(  33) = (   3.2972593   2.9937737  11.3378417  )
        34           O1  tau(  34) = (   0.0092240   2.9805883  10.6323155  )
        35           O1  tau(  35) = (   1.3143161   4.4928581  12.6237603  )
        36           O1  tau(  36) = (   5.3098643   4.4818631  12.6293382  )
        37           Ti1 tau(  37) = (   6.5333161   5.9285706  12.5502982  )
        38           Ti1 tau(  38) = (   3.2144982   4.4885123  12.4917375  )
        39           O1  tau(  39) = (   0.0198576   2.9709144  14.6477637  )
        40           O1  tau(  40) = (   3.3145585   3.0140958  13.8917140  )
        41           O1  tau(  41) = (   4.5688195   4.4932876  16.0791699  )
        42           O1  tau(  42) = (   2.0650477   4.4875755  16.0663885  )
        43           Ti1 tau(  43) = (   3.3331689   0.0560974  15.7812046  )
        44           Ti1 tau(  44) = (   0.0348837   4.6827776  16.0884590  )
        45           O1  tau(  45) = (   3.2900926   2.9813045   4.7018136  )
        46           O1  tau(  46) = (   1.3039711   4.4726057   6.0039043  )
        47           O1  tau(  47) = (   5.2763189   4.4711207   6.0039473  )
        48           N1  tau(  48) = (   0.0359943   2.9709886  17.4034402  )
        49           C1  tau(  49) = (   0.0487696   2.8543938  18.6443550  )
        50           H1  tau(  50) = (   0.0551173   3.7295775  19.3121947  )
        51           H1  tau(  51) = (   0.0550652   1.8705629  19.1311967  )
        52           O1  tau(  52) = (   3.2796845   0.1561466  18.1797653  )
        53           H1  tau(  53) = (   4.0301203   5.5808867  18.4795516  )
        54           H1  tau(  54) = (   2.4663764   5.6445902  18.4210942  )

     number of k points=    10  Fermi-Dirac smearing, width (Ry)=  0.0073
                       cart. coord. in units 2pi/alat
        k(    1) = (   0.0000000   0.0000000   0.0000000), wk =   0.1250000
        k(    2) = (   0.0000000   0.0419351   0.0000000), wk =   0.2500000
        k(    3) = (   0.0000000  -0.0838702   0.0000000), wk =   0.1250000
        k(    4) = (   0.0379955   0.0000049   0.0000000), wk =   0.2500000
        k(    5) = (   0.0379955   0.0419400   0.0000000), wk =   0.2500000
        k(    6) = (   0.0379955  -0.0838652   0.0000000), wk =   0.2500000
        k(    7) = (   0.0379955  -0.0419301   0.0000000), wk =   0.2500000
        k(    8) = (  -0.0759910  -0.0000099   0.0000000), wk =   0.1250000
        k(    9) = (  -0.0759910   0.0419252   0.0000000), wk =   0.2500000
        k(   10) = (  -0.0759910  -0.0838800   0.0000000), wk =   0.1250000

     Initial potential from superposition of free atoms

     starting charge  380.99916, renormalised to  397.00000

     negative rho (up, down):  1.695E-02 0.000E+00

     %%%%%%%%%%%%%%%%%%%%%%%%%%%%%%%%%%%%%%%%%%%%%%%%%%%%%%%%%%%%%%%%%%%%%%%%
     %                                                                      %
     % You are using vdW-DF, which was implemented by the Thonhauser group. %
     % Please cite the following two papers that made this development      %
     % possible and the two reviews that describe the various versions:     %
     %                                                                      %
     %   T. Thonhauser et al., PRL 115, 136402 (2015).                      %
     %   T. Thonhauser et al., PRB 76, 125112 (2007).                       %
     %   K. Berland et al., Rep. Prog. Phys. 78, 066501 (2015).             %
     %   D.C. Langreth et al., J. Phys.: Condens. Matter 21, 084203 (2009). %
     %                                                                      %
     %                                                                      %
     % If you are calculating the stress with vdW-DF, please also cite:     %
     %                                                                      %
     %   R. Sabatini et al., J. Phys.: Condens. Matter 24, 424209 (2012).   %
     %                                                                      %
     %%%%%%%%%%%%%%%%%%%%%%%%%%%%%%%%%%%%%%%%%%%%%%%%%%%%%%%%%%%%%%%%%%%%%%%%

     Adding external electric field

     Computed dipole along edir(3) :
        Dipole               -9.2304 Ry au,        -23.4614 Debye
        Dipole field         -0.0174 Ry au,

        Potential amp.        1.6147 Ry
        Total length         46.3494 bohr

     Starting wfcs are  300 atomic wfcs
  @ DRIVER MODE: Message from server: STATUS
  @ DRIVER MODE: Message from server: POSDATA
  @ DRIVER MODE: Reading and sharing cell
  @ DRIVER MODE: Reading and sharing positions
  @ DRIVER MODE: Received positions

     Self-consistent Calculation

     iteration #  1     ecut=    29.40 Ry     beta= 0.05
     Davidson diagonalization with overlap
     c_bands:  1 eigenvalues not converged
     c_bands:  1 eigenvalues not converged
     c_bands:  1 eigenvalues not converged
     c_bands:  1 eigenvalues not converged
     c_bands:  1 eigenvalues not converged
     c_bands:  1 eigenvalues not converged
     c_bands:  1 eigenvalues not converged
     ethr =  1.00E-05,  avg # of iterations = 19.0

[...]

     total energy              =   -2550.51608854 Ry
     estimated scf accuracy    <    4467.77305467 Ry

     iteration #  2     ecut=    29.40 Ry     beta= 0.05
     Davidson diagonalization with overlap
     ethr =  1.00E-02,  avg # of iterations = 25.1

[...]

     iteration # 60     ecut=    29.40 Ry     beta= 0.05
     Davidson diagonalization with overlap
     c_bands:  1 eigenvalues not converged
     c_bands:  5 eigenvalues not converged
     ethr =  8.59E-11,  avg # of iterations = 17.2

[...]

     total energy              =   -2952.76118070 Ry
     estimated scf accuracy    <       0.00000008 Ry

     iteration # 75     ecut=    29.40 Ry     beta= 0.05
     Davidson diagonalization with overlap
     ethr =  1.95E-11,  avg # of iterations =  6.3

     negative rho (up, down):  1.681E-02 0.000E+00

     Adding external electric field

     Computed dipole along edir(3) :
        Dipole                1.0136 Ry au,          2.5762 Debye
        Dipole field          0.0019 Ry au,

        Potential amp.       -0.1773 Ry
        Total length         46.3494 bohr

     End of self-consistent calculation

          k = 0.0000 0.0000 0.0000 ( 18029 PWs)   bands (ev):

   -55.6937 -55.6621 -55.6596 -55.6345 -55.6262 -55.5419 -55.5073 -55.5067
   -55.4765 -55.4732 -55.4698 -55.4360 -55.2246 -55.0082 -54.6731 -54.6391
   -32.2063 -32.1770 -32.0491 -32.0451 -32.0057 -31.9863 -31.9668 -31.9600
   -31.9373 -31.8971 -31.8881 -31.8582 -31.8458 -31.8457 -31.8402 -31.8198
   -31.7989 -31.7915 -31.7885 -31.7562 -31.7507 -31.7436 -31.7117 -31.6988
   -31.6981 -31.6966 -31.6872 -31.6704 -31.6693 -31.6635 -31.6563 -31.6468
   -31.6396 -31.6371 -31.6233 -31.6154 -31.5821 -31.4735 -31.4191 -31.2802
   -31.2603 -31.2221 -31.0803 -30.9918 -30.9694 -30.8970 -30.8105 -30.6995
   -19.1460 -16.4105 -16.1678 -15.9512 -15.8507 -15.8140 -15.6157 -15.5134
   -15.4261 -15.3168 -15.2525 -15.2334 -15.2310 -15.2057 -15.1953 -15.1533
   -15.1397 -15.1363 -15.1161 -15.0994 -15.0457 -15.0367 -15.0294 -14.9438
   -14.8728 -14.8658 -14.8306 -14.8148 -14.8050 -14.7520 -14.3083 -13.1752
   -13.0588  -7.4526  -6.9560  -4.2840  -3.8287  -3.7533  -3.6496  -3.6008
    -3.5581  -3.4127  -3.3541  -3.2654  -3.1514  -2.9408  -2.8814  -2.8414
    -2.8137  -2.7528  -2.6026  -2.5589  -2.5062  -2.4971  -2.4851  -2.4725
    -2.4448  -2.4295  -2.3339  -2.2934  -2.2467  -2.2362  -2.0980  -2.0858
    -2.0577  -2.0070  -1.9739  -1.9599  -1.9537  -1.9421  -1.9277  -1.9045
    -1.8792  -1.7782  -1.6865  -1.6144  -1.5076  -1.4606  -1.4245  -1.3177
    -1.3083  -1.2375  -1.1614  -1.1484  -1.1237  -1.0948  -1.0859  -0.9711
    -0.8674  -0.8522  -0.7532  -0.6990  -0.6162  -0.5862  -0.5316  -0.4857
    -0.4568  -0.4534  -0.4370  -0.3863  -0.2468  -0.2175  -0.1807  -0.0997
    -0.0442  -0.0314   0.0151   0.0557   0.1098   0.1337   0.1897   0.1990
     0.2317   0.2751   0.2791   0.2978   0.3154   0.3396   0.5147   0.5547
     0.5680   0.6427   0.6524   0.8205   0.8328   0.9609   1.0705   1.2760
     1.3493   1.4350   1.5415   1.6795   1.9204   1.9661   3.4347   3.5264
     3.5691   3.5996   3.6781   3.6819   3.8926   3.9108   3.9311   4.0153

[...]

          k = 0.0380-0.0419 0.0000 ( 17876 PWs)   bands (ev):

[...]

          k =-0.0760-0.0000 0.0000 ( 17886 PWs)   bands (ev):

[...]

          k =-0.0760-0.0839 0.0000 ( 17948 PWs)   bands (ev):

   -55.6769 -55.6762 -55.6451 -55.6430 -55.6324 -55.5274 -55.5214 -55.4902
   -55.4897 -55.4783 -55.4542 -55.4518 -55.2234 -55.0093 -54.6561 -54.6559
   -32.0186 -32.0042 -31.9925 -31.9920 -31.9720 -31.9713 -31.9286 -31.9236
   -31.9106 -31.8883 -31.8799 -31.8579 -31.8414 -31.8271 -31.8122 -31.8089
   -31.8056 -31.8022 -31.7964 -31.7957 -31.7931 -31.7903 -31.7800 -31.7450
   -31.7375 -31.7258 -31.7155 -31.6910 -31.6897 -31.6846 -31.6798 -31.6782
   -31.6698 -31.6670 -31.6644 -31.6622 -31.5941 -31.4770 -31.4138 -31.3544
   -31.2621 -31.2430 -30.9822 -30.9821 -30.8931 -30.8929 -30.8538 -30.8538
   -19.1452 -15.8621 -15.7635 -15.6489 -15.6181 -15.5671 -15.5028 -15.4918
   -15.4250 -15.3788 -15.3756 -15.3065 -15.3005 -15.2672 -15.2575 -15.2222
   -15.2209 -15.2147 -15.1637 -15.1502 -15.1347 -15.1324 -15.1258 -15.0507
   -15.0135 -15.0085 -15.0028 -14.9180 -14.9041 -14.7805 -14.4658 -13.1606
   -13.1605  -7.4494  -6.9489  -4.2580  -3.5282  -3.4441  -3.1468  -2.9757
    -2.8913  -2.8245  -2.7993  -2.7742  -2.6243  -2.6026  -2.5495  -2.5467
    -2.5219  -2.5192  -2.5154  -2.4965  -2.4892  -2.4640  -2.4382  -2.3980
    -2.3711  -2.3645  -2.3523  -2.3400  -2.3156  -2.3028  -2.2946  -2.2458
    -2.2440  -2.2250  -2.1321  -2.0611  -1.9180  -1.8992  -1.8561  -1.8343
    -1.8217  -1.7881  -1.7615  -1.7440  -1.6919  -1.6153  -1.5180  -1.4282
    -1.3865  -1.3746  -1.3140  -1.2912  -1.1982  -1.1721  -1.0971  -1.0783
    -0.9999  -0.9809  -0.8913  -0.8489  -0.8289  -0.7939  -0.7611  -0.7517
    -0.7172  -0.6612  -0.6490  -0.5967  -0.5714  -0.5083  -0.4451  -0.4240
    -0.4122  -0.3764  -0.3561  -0.3300  -0.1920  -0.1596  -0.1543  -0.1026
     0.0324   0.0633   0.2719   0.3595   0.3803   0.4580   0.5091   0.5898
     0.6144   0.6232   0.6413   0.6746   0.7663   0.8386   0.8500   0.8821
     0.9823   1.5212   1.7129   1.7138   1.7860   1.7860   3.7268   3.7675
     3.8030   3.8254   3.9235   3.9528   3.9738   3.9757   4.0334   4.1072

     the Fermi energy is     3.4385 ev

!    total energy              =   -2952.76119657 Ry
     estimated scf accuracy    <       0.00000004 Ry
     smearing contrib. (-TS)   =      -0.02152938 Ry
     internal energy E=F+TS    =   -2952.73966720 Ry

     The total energy is F=E-TS. E is the sum of the following terms:
     one-electron contribution =  -24470.12440886 Ry
     hartree contribution      =   12326.11000526 Ry
     xc contribution           =    -488.07452501 Ry
     ewald contribution        =    9679.34732275 Ry
     electric field correction =       0.00193866 Ry

     convergence has been achieved in  75 iterations

     Forces acting on atoms (cartesian axes, Ry/au):

     atom    1 type  1   force =    -0.00001200   -0.00028875    0.09610538
     atom    2 type  1   force =     0.00008249   -0.00045171   -0.17559788
     atom    3 type  2   force =     0.00011188   -0.00005005   -0.02422115
     atom    4 type  2   force =     0.00000793   -0.00136738    0.05324607
     atom    5 type  2   force =    -0.01131038    0.00005199    0.00283424
     atom    6 type  2   force =     0.01306166    0.00039748    0.00284231
     atom    7 type  1   force =     0.00079936    0.00047409   -0.00790359
     atom    8 type  1   force =     0.00008034    0.00682247    0.02438545
     atom    9 type  2   force =    -0.00025311   -0.00080190    0.00031452
     atom   10 type  2   force =    -0.00266357    0.00235174   -0.01473425
     atom   11 type  2   force =    -0.00025243   -0.00012026   -0.00051503
     atom   12 type  2   force =     0.00054874   -0.00002267   -0.00058168
     atom   13 type  1   force =    -0.00054162   -0.00161134    0.00024066
     atom   14 type  1   force =     0.00046845   -0.00022695   -0.00031787
     atom   15 type  2   force =     0.00001157   -0.00047624   -0.00016785
     atom   16 type  2   force =    -0.00005673   -0.00043163   -0.00029124
     atom   17 type  2   force =    -0.00082465   -0.00062023    0.00005086
     atom   18 type  2   force =     0.00123606   -0.00036921    0.00010548
     atom   19 type  1   force =    -0.00038282    0.00058710    0.00012595
     atom   20 type  1   force =     0.00040330   -0.00028112    0.00091076
     atom   21 type  2   force =     0.00005253   -0.00001451    0.10322140
     atom   22 type  2   force =    -0.00008986   -0.00045362    0.00063532
     atom   23 type  2   force =    -0.07152123   -0.00012459   -0.02768716
     atom   24 type  2   force =     0.07143936    0.00035387   -0.02775970
     atom   25 type  1   force =     0.00017678   -0.00025805    0.09583514
     atom   26 type  1   force =     0.00005817   -0.00033506   -0.17580430
     atom   27 type  2   force =     0.00014604   -0.00004173   -0.02330579
     atom   28 type  2   force =     0.00000830   -0.00107057    0.05285538
     atom   29 type  2   force =    -0.01165184    0.00075083    0.00297469
     atom   30 type  2   force =     0.01328138    0.00126251    0.00300324
     atom   31 type  1   force =     0.00071046    0.00394946   -0.01081540
     atom   32 type  1   force =     0.00010386   -0.00902494    0.02484741
     atom   33 type  2   force =    -0.00007244    0.00061180   -0.00013537
     atom   34 type  2   force =    -0.00203089    0.00169645   -0.02177369
     atom   35 type  2   force =     0.00000555   -0.00025219   -0.00023127
     atom   36 type  2   force =    -0.00006774   -0.00006573   -0.00056480
     atom   37 type  1   force =    -0.00028190    0.00155877   -0.00020376
     atom   38 type  1   force =     0.00055820    0.00041635    0.00018290
     atom   39 type  2   force =    -0.00008510   -0.00004757   -0.00038558
     atom   40 type  2   force =     0.00013111    0.00012190    0.00039123
     atom   41 type  2   force =     0.00034463   -0.00030212    0.00005295
     atom   42 type  2   force =     0.00021139   -0.00038879    0.00011638
     atom   43 type  1   force =    -0.00105237   -0.00056993    0.00063800
     atom   44 type  1   force =     0.00038841   -0.00039017    0.00098958
     atom   45 type  2   force =     0.00004418   -0.00005373    0.10320453
     atom   46 type  2   force =    -0.07154302   -0.00006099   -0.02770507
     atom   47 type  2   force =     0.07145714    0.00037470   -0.02776188
     atom   48 type  3   force =    -0.00058629    0.00189639   -0.03030190
     atom   49 type  4   force =     0.00007606   -0.00230575    0.02481085
     atom   50 type  5   force =    -0.00012327    0.00067569    0.00179223
     atom   51 type  5   force =    -0.00014545   -0.00078980    0.00209878
     atom   52 type  2   force =     0.00152055    0.00037967   -0.00057129
     atom   53 type  5   force =    -0.00046035   -0.00041262    0.00005286
     atom   54 type  5   force =    -0.00151683   -0.00065139    0.00047292

     Total force =     0.369080     Total SCF correction =     0.000442
  @ DRIVER MODE: Message from server: STATUS
  @ DRIVER MODE: Message from server: GETFORCE
  @ DRIVER MODE: Returning v,forces,stress,ensemble

     Writing output data file ./calc.save/
  @ DRIVER MODE: Message from server: EXIT
  @ DRIVE MODE: Exiting

     General routines

     Parallel routines

   This run was terminated on:  17:49:48  15Sep2021

   JOB DONE.