     Program PWSCF v.6.7GPU starts on  2Aug2021 at 16:23:50

     R & G space division:  proc/nbgrp/npool/nimage =      16
     Reading input from /storage/home/hcoda1/3/ntian30/research/carbon/02Aug_vib_paired/ads_slab/CH3N2_b/out_0013/pw.inp
Warning: card &CELL ignored
Warning: card   CELL_DYNAMICS='IPI', ignored
Warning: card / ignored

     Current dimensions of program PWSCF are:
     Max number of different atomic species (ntypx) = 10
     Max number of k-points (npk) =  40000
     Max angular momentum in pseudopotentials (lmaxx) =  3
     Presently no symmetry can be used with electric field

     Message from routine cell_base_init:
     DEPRECATED: use true lattice parameter, not A to a.u. conversion factor

     IMPORTANT: XC functional enforced from input :
     Exchange-correlation= BEEF-VDW
                           (   1   4  43  14   2   0   0)
     Any further DFT definition will be discarded
     Please, verify this is what you really want

  @ DRIVER MODE: Connecting to
 qe_1139763_2482536.sched-torque.pace.gatech.edupvc1vsl9_scratch
  using UNIX socket
  @ DRIVER MODE: Message from server: STATUS
  @ DRIVER MODE: Message from server: INIT
  @ DRIVER MODE: Receiving replica           0          -1
  @ DRIVER MODE: Receiving encoded integer          25
  @ DRIVER MODE:  SCF:  T  FORCE:  T  STRESS:  F  VC:  F  ENSEMBLE:  F
  @ DRIVER MODE:  SCF:  T  FORCE:  T  STRESS:  F  VC:  F  ENSEMBLE:  F

     Using Slab Decomposition

     bravais-lattice index     =            0
     lattice parameter (alat)  =       1.8897  a.u.
     unit-cell volume          =    6658.9804 (a.u.)^3
     number of atoms/cell      =           53
     number of atomic types    =            5
     number of electrons       =       395.00
     number of Kohn-Sham states=          207
     kinetic-energy cutoff     =      29.3995  Ry
     charge density cutoff     =     293.9946  Ry
     scf convergence threshold =      7.3E-08
     mixing beta               =       0.0500
     number of iterations used =            8  plain     mixing
     Exchange-correlation= BEEF-VDW
                           (   1   4  43  14   2   0   0)

     celldm(1)=   1.889726  celldm(2)=   0.000000  celldm(3)=   0.000000
     celldm(4)=   0.000000  celldm(5)=   0.000000  celldm(6)=   0.000000

     crystal axes: (cart. coord. in units of alat)
               a(1) = (   6.579727   0.000000   0.000000 )
               a(2) = (  -0.000775   5.961596   0.000000 )
               a(3) = (   0.000000   0.000000  25.155947 )

     reciprocal axes: (cart. coord. in units 2 pi/alat)
               b(1) = (  0.151982  0.000020  0.000000 )
               b(2) = (  0.000000  0.167740  0.000000 )
               b(3) = (  0.000000  0.000000  0.039752 )

     PseudoPot. # 1 for Ti read from file:
     /storage/coda1/p-amedford6/0/shared/rich_project_chbe-medford/medford-share/data/pseudos_module/espresso/nninc/pbe/van/Ti.UPF
     MD5 check sum: 8e4df49b7f0d34bbd5052bf3f5ea0213
     Pseudo is Ultrasoft, Zval = 12.0
     Generated by new atomic code, or converted to UPF format
     Using radial grid of  851 points,  6 beta functions with:
                l(1) =   0
                l(2) =   0
                l(3) =   1
                l(4) =   1
                l(5) =   2
                l(6) =   2
     Q(r) pseudized with  8 coefficients,  rinner =    1.000   1.000   1.000
                                                       1.000   1.000

     PseudoPot. # 2 for O  read from file:
     /storage/coda1/p-amedford6/0/shared/rich_project_chbe-medford/medford-share/data/pseudos_module/espresso/nninc/pbe/van/O.UPF
     MD5 check sum: 78c19812648e8988a0fe644b0f25305e
     Pseudo is Ultrasoft, Zval =  6.0
     Generated by new atomic code, or converted to UPF format
     Using radial grid of  737 points,  4 beta functions with:
                l(1) =   0
                l(2) =   0
                l(3) =   1
                l(4) =   1
     Q(r) pseudized with  8 coefficients,  rinner =    0.800   0.800   0.800

     PseudoPot. # 3 for N  read from file:
     /storage/coda1/p-amedford6/0/shared/rich_project_chbe-medford/medford-share/data/pseudos_module/espresso/nninc/pbe/van/N.UPF
     MD5 check sum: 90d10febe142ad51ac9d5be1deb811c4
     Pseudo is Ultrasoft, Zval =  5.0
     Generated by new atomic code, or converted to UPF format
     Using radial grid of  729 points,  4 beta functions with:
                l(1) =   0
                l(2) =   0
                l(3) =   1
                l(4) =   1
     Q(r) pseudized with  8 coefficients,  rinner =    0.800   0.800   0.800

     PseudoPot. # 4 for C  read from file:
     /storage/coda1/p-amedford6/0/shared/rich_project_chbe-medford/medford-share/data/pseudos_module/espresso/nninc/pbe/van/C.UPF
     MD5 check sum: 1a69bf6b8db32088f5b2163dbdb77a27
     Pseudo is Ultrasoft, Zval =  4.0
     Generated by new atomic code, or converted to UPF format
     Using radial grid of  721 points,  4 beta functions with:
                l(1) =   0
                l(2) =   0
                l(3) =   1
                l(4) =   1
     Q(r) pseudized with  8 coefficients,  rinner =    0.800   0.800   0.800

     PseudoPot. # 5 for H  read from file:
     /storage/coda1/p-amedford6/0/shared/rich_project_chbe-medford/medford-share/data/pseudos_module/espresso/nninc/pbe/van/H.UPF
     MD5 check sum: b5ee9d7bfd3a09ee7748110bda690ff7
     Pseudo is Ultrasoft, Zval =  1.0
     Generated by new atomic code, or converted to UPF format
     Using radial grid of  615 points,  1 beta functions with:
                l(1) =   0
     Q(r) pseudized with  8 coefficients,  rinner =    0.800

     atomic species   valence    mass     pseudopotential
        Ti1           12.00    47.86700     Ti( 1.00)
        O1             6.00    15.99900     O ( 1.00)
        N1             5.00    14.00700     N ( 1.00)
        C1             4.00    12.01100     C ( 1.00)
        H1             1.00     1.00800     H ( 1.00)

     No symmetry found

   Cartesian axes

     site n.     atom                  positions (alat units)
         1           Ti1 tau(   1) = (   0.0004258   2.9801865   6.0000000  )
         2           Ti1 tau(   2) = (   3.2906075   1.4906267   6.0002472  )
         3           O1  tau(   3) = (   0.0006271   0.0005054   7.9858123  )
         4           O1  tau(   4) = (   3.2906025   0.0005020   7.3038282  )
         5           O1  tau(   5) = (   4.5942328   1.4918067   9.2879030  )
         6           O1  tau(   6) = (   1.9868534   1.4903216   9.2879459  )
         7           Ti1 tau(   7) = (   3.2907910   2.8959150   9.1758416  )
         8           Ti1 tau(   8) = (   0.0015273   1.4827037   9.2680791  )
         9           O1  tau(   9) = (   3.3037365   0.0094216  11.3222111  )
        10           O1  tau(  10) = (   0.0116148   5.9584955  10.6183126  )
        11           O1  tau(  11) = (   1.3152514   1.5075076  12.6320051  )
        12           O1  tau(  12) = (   5.3186361   1.4995162  12.6508707  )
        13           Ti1 tau(  13) = (   6.5540705   2.9956815  12.5884341  )
        14           Ti1 tau(  14) = (   3.2234832   1.4927074  12.4921739  )
        15           O1  tau(  15) = (   0.0610261   5.9052480  14.6017706  )
        16           O1  tau(  16) = (   3.2936532   0.0132264  13.8830087  )
        17           O1  tau(  17) = (   4.5722397   1.5061520  16.0138922  )
        18           O1  tau(  18) = (   2.0767725   1.5295127  16.0808449  )
        19           Ti1 tau(  19) = (   3.3650854   3.0251465  15.6907462  )
        20           Ti1 tau(  20) = (   0.0387768   1.3037779  15.7216176  )
        21           O1  tau(  21) = (   3.2904802   0.0005063   4.7018136  )
        22           O1  tau(  22) = (   0.0189486   0.1070799  17.1824039  )
        23           O1  tau(  23) = (   1.3043587   1.4918075   6.0039043  )
        24           O1  tau(  24) = (   5.2767064   1.4903225   6.0039473  )
        25           Ti1 tau(  25) = (   0.0000382   5.9609847   6.0000000  )
        26           Ti1 tau(  26) = (   3.2902200   4.4714249   6.0002472  )
        27           O1  tau(  27) = (   0.0002396   2.9813036   7.9858123  )
        28           O1  tau(  28) = (   3.2902150   2.9813002   7.3038282  )
        29           O1  tau(  29) = (   4.5938453   4.4726049   9.2879030  )
        30           O1  tau(  30) = (   1.9864658   4.4711199   9.2879459  )
        31           Ti1 tau(  31) = (   3.2891106   5.8743827   9.1763621  )
        32           Ti1 tau(  32) = (   0.0006254   4.4649316   9.2693709  )
        33           O1  tau(  33) = (   3.3043114   2.9829305  11.3227053  )
        34           O1  tau(  34) = (   0.0092240   2.9805883  10.6323155  )
        35           O1  tau(  35) = (   1.3131995   4.4620516  12.6081187  )
        36           O1  tau(  36) = (   5.3117129   4.4692194  12.6284301  )
        37           Ti1 tau(  37) = (   6.5303063   5.9583428  12.5400172  )
        38           Ti1 tau(  38) = (   3.2255477   4.4746212  12.4748647  )
        39           O1  tau(  39) = (   0.0377805   3.0059521  14.8845374  )
        40           O1  tau(  40) = (   3.3120027   2.9986483  13.8863452  )
        41           O1  tau(  41) = (   4.5434534   4.5277214  16.0148975  )
        42           O1  tau(  42) = (   2.1165747   4.4940517  16.0783766  )
        43           Ti1 tau(  43) = (   3.3042555   0.0241951  15.7004812  )
        44           Ti1 tau(  44) = (   0.0495666   4.4505358  16.3362958  )
        45           O1  tau(  45) = (   3.2900926   2.9813045   4.7018136  )
        46           O1  tau(  46) = (   1.3039711   4.4726057   6.0039043  )
        47           O1  tau(  47) = (   5.2763189   4.4711207   6.0039473  )
        48           N1  tau(  48) = (   0.5348212   3.4288502  18.0689430  )
        49           C1  tau(  49) = (   1.3556880   3.0079929  19.2215664  )
        50           H1  tau(  50) = (   1.4762090   3.8900195  19.8496782  )
        51           H1  tau(  51) = (   0.8469181   2.2141957  19.7647163  )
        52           H1  tau(  52) = (   2.3296892   2.6851793  18.8624704  )
        53           N1  tau(  53) = (   5.9145885   3.2636146  17.9655992  )

     number of k points=    10  Fermi-Dirac smearing, width (Ry)=  0.0073
                       cart. coord. in units 2pi/alat
        k(    1) = (   0.0000000   0.0000000   0.0000000), wk =   0.1250000
        k(    2) = (   0.0000000   0.0419351   0.0000000), wk =   0.2500000
        k(    3) = (   0.0000000  -0.0838702   0.0000000), wk =   0.1250000
        k(    4) = (   0.0379955   0.0000049   0.0000000), wk =   0.2500000
        k(    5) = (   0.0379955   0.0419400   0.0000000), wk =   0.2500000
        k(    6) = (   0.0379955  -0.0838652   0.0000000), wk =   0.2500000
        k(    7) = (   0.0379955  -0.0419301   0.0000000), wk =   0.2500000
        k(    8) = (  -0.0759910  -0.0000099   0.0000000), wk =   0.1250000
        k(    9) = (  -0.0759910   0.0419252   0.0000000), wk =   0.2500000
        k(   10) = (  -0.0759910  -0.0838800   0.0000000), wk =   0.1250000

     Initial potential from superposition of free atoms

     starting charge  378.99916, renormalised to  395.00000

     negative rho (up, down):  1.610E-02 0.000E+00

     %%%%%%%%%%%%%%%%%%%%%%%%%%%%%%%%%%%%%%%%%%%%%%%%%%%%%%%%%%%%%%%%%%%%%%%%
     %                                                                      %
     % You are using vdW-DF, which was implemented by the Thonhauser group. %
     % Please cite the following two papers that made this development      %
     % possible and the two reviews that describe the various versions:     %
     %                                                                      %
     %   T. Thonhauser et al., PRL 115, 136402 (2015).                      %
     %   T. Thonhauser et al., PRB 76, 125112 (2007).                       %
     %   K. Berland et al., Rep. Prog. Phys. 78, 066501 (2015).             %
     %   D.C. Langreth et al., J. Phys.: Condens. Matter 21, 084203 (2009). %
     %                                                                      %
     %                                                                      %
     % If you are calculating the stress with vdW-DF, please also cite:     %
     %                                                                      %
     %   R. Sabatini et al., J. Phys.: Condens. Matter 24, 424209 (2012).   %
     %                                                                      %
     %%%%%%%%%%%%%%%%%%%%%%%%%%%%%%%%%%%%%%%%%%%%%%%%%%%%%%%%%%%%%%%%%%%%%%%%

     Adding external electric field

     Computed dipole along edir(3) :
        Dipole               -8.5786 Ry au,        -21.8047 Debye
        Dipole field         -0.0162 Ry au,

        Potential amp.        1.5007 Ry
        Total length         46.3494 bohr

     Starting wfcs are  299 atomic wfcs
  @ DRIVER MODE: Message from server: STATUS
  @ DRIVER MODE: Message from server: POSDATA
  @ DRIVER MODE: Reading and sharing cell
  @ DRIVER MODE: Reading and sharing positions
  @ DRIVER MODE: Received positions

     Self-consistent Calculation

     iteration #  1     ecut=    29.40 Ry     beta= 0.05
     Davidson diagonalization with overlap
     c_bands:  1 eigenvalues not converged
     c_bands:  2 eigenvalues not converged
     c_bands:  1 eigenvalues not converged
     c_bands:  3 eigenvalues not converged
     c_bands:  1 eigenvalues not converged
     c_bands:  2 eigenvalues not converged
     c_bands:  2 eigenvalues not converged
     c_bands:  2 eigenvalues not converged
     ethr =  1.00E-05,  avg # of iterations = 19.2

[...]

     total energy              =   -2599.38035489 Ry
     estimated scf accuracy    <    3763.39377116 Ry

     iteration #  2     ecut=    29.40 Ry     beta= 0.05
     Davidson diagonalization with overlap
     ethr =  1.00E-02,  avg # of iterations = 22.8

[...]

     iteration # 57     ecut=    29.40 Ry     beta= 0.05
     Davidson diagonalization with overlap
     c_bands:  1 eigenvalues not converged
     ethr =  8.13E-09,  avg # of iterations =  8.3

[...]

     total energy              =   -2939.12541499 Ry
     estimated scf accuracy    <       0.00000018 Ry

     iteration # 74     ecut=    29.40 Ry     beta= 0.05
     Davidson diagonalization with overlap
     ethr =  2.69E-11,  avg # of iterations =  9.4

     negative rho (up, down):  1.618E-02 0.000E+00

     Adding external electric field

     Computed dipole along edir(3) :
        Dipole                0.9122 Ry au,          2.3185 Debye
        Dipole field          0.0017 Ry au,

        Potential amp.       -0.1596 Ry
        Total length         46.3494 bohr

     End of self-consistent calculation

          k = 0.0000 0.0000 0.0000 ( 18029 PWs)   bands (ev):

   -55.7756 -55.7697 -55.7415 -55.7337 -55.6832 -55.6349 -55.5962 -55.5622
   -55.5554 -55.5217 -55.5195 -55.4465 -54.9565 -54.8070 -54.7555 -54.7215
   -32.3185 -32.2597 -32.1745 -32.0957 -32.0678 -32.0561 -32.0473 -32.0208
   -32.0056 -31.9702 -31.9400 -31.9279 -31.9216 -31.9047 -31.8826 -31.8815
   -31.8786 -31.8781 -31.8650 -31.8349 -31.8328 -31.8215 -31.8004 -31.7916
   -31.7885 -31.7822 -31.7811 -31.7554 -31.7410 -31.7361 -31.7253 -31.7105
   -31.7065 -31.6692 -31.6362 -31.5639 -31.4927 -31.3383 -31.1677 -31.1625
   -31.1051 -31.0745 -31.0663 -31.0521 -30.9795 -30.9131 -30.8930 -30.7817
   -19.4387 -16.5172 -16.2523 -15.9669 -15.9153 -15.8411 -15.7477 -15.6245
   -15.5289 -15.4103 -15.3716 -15.3152 -15.3080 -15.2636 -15.2366 -15.2326
   -15.2063 -15.1980 -15.1340 -15.1265 -15.0761 -15.0644 -15.0164 -14.9815
   -14.9699 -14.9146 -14.8458 -14.8047 -14.6857 -14.1601 -13.2571 -13.1407
   -12.3116  -7.2580  -4.9335  -4.7917  -3.8995  -3.7570  -3.7041  -3.6849
    -3.6405  -3.4401  -3.3531  -3.2839  -3.0441  -2.9526  -2.9282  -2.9174
    -2.8684  -2.7115  -2.6702  -2.6044  -2.5890  -2.5621  -2.5403  -2.5321
    -2.4967  -2.4866  -2.4567  -2.4279  -2.3263  -2.2129  -2.1837  -2.1059
    -2.0903  -2.0752  -2.0444  -2.0345  -2.0249  -2.0150  -1.9966  -1.9593
    -1.8941  -1.8520  -1.7866  -1.7023  -1.5612  -1.5392  -1.4608  -1.3849
    -1.3053  -1.2627  -1.2409  -1.2125  -1.1726  -1.0930  -1.0670  -0.9209
    -0.8239  -0.7908  -0.7737  -0.7313  -0.6952  -0.5930  -0.5713  -0.5422
    -0.5330  -0.5054  -0.4317  -0.3752  -0.2433  -0.2126  -0.2087  -0.1710
    -0.1002  -0.0465   0.0070   0.0562   0.0640   0.0999   0.1600   0.1851
     0.1900   0.2327   0.2750   0.3498   0.3760   0.4501   0.4541   0.5183
     0.5620   0.6437   0.7513   0.8736   1.0169   1.1539   1.1986   1.2676
     1.3628   1.4595   1.8378   1.8834   2.1438   3.3377   3.4451   3.4684
     3.4806   3.5873   3.7959   3.8183   3.8674   3.8877   3.8959

[...]

          k = 0.0380-0.0419 0.0000 ( 17876 PWs)   bands (ev):

[...]

          k =-0.0760-0.0000 0.0000 ( 17886 PWs)   bands (ev):

[...]

          k =-0.0760-0.0839 0.0000 ( 17948 PWs)   bands (ev):

   -55.7585 -55.7585 -55.7523 -55.7508 -55.6760 -55.6421 -55.5792 -55.5787
   -55.5388 -55.5384 -55.5150 -55.4508 -54.9551 -54.8082 -54.7385 -54.7384
   -32.1221 -32.1185 -32.0749 -32.0749 -32.0533 -32.0531 -32.0195 -32.0047
   -31.9984 -31.9897 -31.9209 -31.9157 -31.9048 -31.8985 -31.8821 -31.8798
   -31.8792 -31.8778 -31.8775 -31.8723 -31.8539 -31.8512 -31.8499 -31.8137
   -31.7843 -31.7824 -31.7806 -31.7683 -31.7680 -31.7586 -31.7576 -31.7560
   -31.7547 -31.7364 -31.7118 -31.6609 -31.4399 -31.3204 -31.1696 -31.1591
   -31.0834 -31.0648 -31.0648 -30.9753 -30.9752 -30.9363 -30.9363 -30.9160
   -19.4365 -15.9176 -15.9115 -15.7500 -15.7155 -15.6498 -15.6410 -15.5733
   -15.5062 -15.4613 -15.4563 -15.3413 -15.3392 -15.3246 -15.3030 -15.2487
   -15.2325 -15.2311 -15.2276 -15.2199 -15.2083 -15.1808 -15.1500 -15.0993
   -15.0943 -15.0737 -15.0633 -14.9419 -14.5320 -14.4704 -13.2425 -13.2424
   -12.3141  -7.2448  -4.9352  -4.7893  -3.6290  -3.2069  -3.1905  -3.0026
    -2.9193  -2.9081  -2.8928  -2.7429  -2.7295  -2.7113  -2.6547  -2.6500
    -2.6373  -2.6003  -2.5842  -2.5603  -2.5195  -2.5146  -2.4664  -2.4640
    -2.4488  -2.4304  -2.4084  -2.4029  -2.3893  -2.3743  -2.3371  -2.2812
    -2.2425  -2.2156  -2.1873  -2.0908  -2.0300  -1.9942  -1.9270  -1.9184
    -1.8674  -1.8427  -1.8282  -1.7615  -1.6914  -1.6619  -1.5779  -1.4862
    -1.4677  -1.4524  -1.3337  -1.3198  -1.2451  -1.2213  -1.1374  -1.1204
    -1.0807  -0.9702  -0.9468  -0.9155  -0.8808  -0.8369  -0.7732  -0.7363
    -0.7343  -0.6859  -0.6416  -0.5855  -0.5241  -0.5122  -0.4969  -0.4881
    -0.4245  -0.3909  -0.3690  -0.2866  -0.2714  -0.1897  -0.0460  -0.0132
     0.1444   0.1935   0.3024   0.3301   0.4209   0.4425   0.5366   0.5398
     0.5725   0.7017   0.7205   0.7381   0.7543   0.7741   0.7980   0.9368
     1.6319   1.6320   1.7035   1.7035   2.0816   3.6707   3.7078   3.7580
     3.7799   3.8839   3.8890   3.8916   3.8993   4.0212   4.0227

     the Fermi energy is     3.3513 ev

!    total energy              =   -2939.12543496 Ry
     estimated scf accuracy    <       0.00000005 Ry
     smearing contrib. (-TS)   =      -0.02052736 Ry
     internal energy E=F+TS    =   -2939.10490761 Ry

     The total energy is F=E-TS. E is the sum of the following terms:
     one-electron contribution =  -24213.39870621 Ry
     hartree contribution      =   12195.44040612 Ry
     xc contribution           =    -485.19998669 Ry
     ewald contribution        =    9564.05180893 Ry
     electric field correction =       0.00157025 Ry

     convergence has been achieved in  74 iterations

     Forces acting on atoms (cartesian axes, Ry/au):

     atom    1 type  1   force =     0.00010914   -0.00020190    0.09587667
     atom    2 type  1   force =     0.00006211   -0.00061156   -0.17547914
     atom    3 type  2   force =     0.00017507   -0.00019568   -0.02305729
     atom    4 type  2   force =     0.00004039   -0.00128369    0.05260880
     atom    5 type  2   force =    -0.00975924   -0.00031830    0.00253265
     atom    6 type  2   force =     0.01164408    0.00022238    0.00291284
     atom    7 type  1   force =     0.00088534    0.00000993   -0.00992353
     atom    8 type  1   force =    -0.00000149    0.00532355    0.01818005
     atom    9 type  2   force =    -0.00001725   -0.00028895   -0.00011452
     atom   10 type  2   force =    -0.00253605    0.00216376   -0.01348294
     atom   11 type  2   force =    -0.00098124    0.00010870    0.00017743
     atom   12 type  2   force =     0.00039154   -0.00025621    0.00049186
     atom   13 type  1   force =     0.00011084   -0.00008766    0.00051693
     atom   14 type  1   force =    -0.00004323   -0.00016727   -0.00016849
     atom   15 type  2   force =    -0.00059360    0.00022774    0.00043361
     atom   16 type  2   force =    -0.00043792    0.00007765    0.00020332
     atom   17 type  2   force =    -0.00015413   -0.00008552   -0.00033223
     atom   18 type  2   force =     0.00028038    0.00023368    0.00009214
     atom   19 type  1   force =    -0.00059953   -0.00054129    0.00068782
     atom   20 type  1   force =    -0.00028584    0.00036069   -0.00074909
     atom   21 type  2   force =     0.00007330   -0.00006491    0.10322893
     atom   22 type  2   force =     0.00009815   -0.00006079   -0.00042355
     atom   23 type  2   force =    -0.07153210   -0.00019249   -0.02751755
     atom   24 type  2   force =     0.07150499    0.00030870   -0.02757366
     atom   25 type  1   force =     0.00013226   -0.00028847    0.09519965
     atom   26 type  1   force =     0.00009392   -0.00047249   -0.17562882
     atom   27 type  2   force =     0.00015761   -0.00011787   -0.02180133
     atom   28 type  2   force =     0.00008201   -0.00106044    0.05248030
     atom   29 type  2   force =    -0.01013685    0.00023232    0.00291018
     atom   30 type  2   force =     0.01195380    0.00051817    0.00328632
     atom   31 type  1   force =     0.00089251    0.00415586   -0.01179920
     atom   32 type  1   force =     0.00012115   -0.00634068    0.01831332
     atom   33 type  2   force =     0.00016199    0.00041974   -0.00011261
     atom   34 type  2   force =    -0.00308405   -0.00010228   -0.00866221
     atom   35 type  2   force =    -0.00021489    0.00006925    0.00001468
     atom   36 type  2   force =    -0.00003503    0.00028342   -0.00005915
     atom   37 type  1   force =     0.00045544   -0.00094160    0.00019403
     atom   38 type  1   force =    -0.00032467    0.00008337    0.00032099
     atom   39 type  2   force =     0.00011290   -0.00026159    0.00052637
     atom   40 type  2   force =    -0.00008663    0.00026586    0.00016681
     atom   41 type  2   force =     0.00002900   -0.00014411   -0.00021062
     atom   42 type  2   force =    -0.00046028    0.00013438   -0.00042696
     atom   43 type  1   force =     0.00023901    0.00047131    0.00008234
     atom   44 type  1   force =    -0.00019125   -0.00080493   -0.00089393
     atom   45 type  2   force =     0.00007821   -0.00005828    0.10317702
     atom   46 type  2   force =    -0.07154261   -0.00009727   -0.02750880
     atom   47 type  2   force =     0.07152700    0.00025533   -0.02757257
     atom   48 type  3   force =     0.00023613   -0.00125081    0.00009227
     atom   49 type  4   force =    -0.00129646   -0.00071515   -0.00111659
     atom   50 type  5   force =     0.00215060    0.00115046    0.00073833
     atom   51 type  5   force =    -0.00087458   -0.00068869   -0.00042031
     atom   52 type  5   force =     0.00041724    0.00004557    0.00000689
     atom   53 type  3   force =     0.00097281    0.00057905   -0.00041747

     Total force =     0.364734     Total SCF correction =     0.000421
  @ DRIVER MODE: Message from server: STATUS
  @ DRIVER MODE: Message from server: GETFORCE
  @ DRIVER MODE: Returning v,forces,stress,ensemble

     Writing output data file ./calc.save/
  @ DRIVER MODE: Message from server: EXIT
  @ DRIVE MODE: Exiting

     General routines

     Parallel routines

   This run was terminated on:  16:43:35   2Aug2021

   JOB DONE.