     Program PWSCF v.6.7GPU starts on 15Sep2021 at 17:23:38

     R & G space division:  proc/nbgrp/npool/nimage =      10
     Reading input from /storage/home/hcoda1/3/ntian30/research/carbon/CxH_vib/CH_calc/ads_slab/CHNHNH2_b/out_0025/pw.inp
Warning: card &CELL ignored
Warning: card   CELL_DYNAMICS='IPI', ignored
Warning: card / ignored

     Current dimensions of program PWSCF are:
     Max number of different atomic species (ntypx) = 10
     Max number of k-points (npk) =  40000
     Max angular momentum in pseudopotentials (lmaxx) =  3
     Presently no symmetry can be used with electric field

     Message from routine cell_base_init:
     DEPRECATED: use true lattice parameter, not A to a.u. conversion factor

     IMPORTANT: XC functional enforced from input :
     Exchange-correlation= BEEF-VDW
                           (   1   4  43  14   2   0   0)
     Any further DFT definition will be discarded
     Please, verify this is what you really want

  @ DRIVER MODE: Connecting to
 qe_1139763_2850203.sched-torque.pace.gatech.edutqmoeuq7_scratch
  using UNIX socket
  @ DRIVER MODE: Message from server: STATUS
  @ DRIVER MODE: Message from server: INIT
  @ DRIVER MODE: Receiving replica           0          -1
  @ DRIVER MODE: Receiving encoded integer          25
  @ DRIVER MODE:  SCF:  T  FORCE:  T  STRESS:  F  VC:  F  ENSEMBLE:  F
  @ DRIVER MODE:  SCF:  T  FORCE:  T  STRESS:  F  VC:  F  ENSEMBLE:  F

     Using Slab Decomposition

     bravais-lattice index     =            0
     lattice parameter (alat)  =       1.8897  a.u.
     unit-cell volume          =    6658.9804 (a.u.)^3
     number of atoms/cell      =           54
     number of atomic types    =            5
     number of electrons       =       396.00
     number of Kohn-Sham states=          208
     kinetic-energy cutoff     =      29.3995  Ry
     charge density cutoff     =     293.9946  Ry
     scf convergence threshold =      7.3E-08
     mixing beta               =       0.0500
     number of iterations used =            8  plain     mixing
     Exchange-correlation= BEEF-VDW
                           (   1   4  43  14   2   0   0)

     celldm(1)=   1.889726  celldm(2)=   0.000000  celldm(3)=   0.000000
     celldm(4)=   0.000000  celldm(5)=   0.000000  celldm(6)=   0.000000

     crystal axes: (cart. coord. in units of alat)
               a(1) = (   6.579727   0.000000   0.000000 )
               a(2) = (  -0.000775   5.961596   0.000000 )
               a(3) = (   0.000000   0.000000  25.155947 )

     reciprocal axes: (cart. coord. in units 2 pi/alat)
               b(1) = (  0.151982  0.000020  0.000000 )
               b(2) = (  0.000000  0.167740  0.000000 )
               b(3) = (  0.000000  0.000000  0.039752 )

     PseudoPot. # 1 for Ti read from file:
     /storage/coda1/p-amedford6/0/shared/rich_project_chbe-medford/medford-share/data/pseudos_module/espresso/nninc/pbe/van/Ti.UPF
     MD5 check sum: 8e4df49b7f0d34bbd5052bf3f5ea0213
     Pseudo is Ultrasoft, Zval = 12.0
     Generated by new atomic code, or converted to UPF format
     Using radial grid of  851 points,  6 beta functions with:
                l(1) =   0
                l(2) =   0
                l(3) =   1
                l(4) =   1
                l(5) =   2
                l(6) =   2
     Q(r) pseudized with  8 coefficients,  rinner =    1.000   1.000   1.000
                                                       1.000   1.000

     PseudoPot. # 2 for O  read from file:
     /storage/coda1/p-amedford6/0/shared/rich_project_chbe-medford/medford-share/data/pseudos_module/espresso/nninc/pbe/van/O.UPF
     MD5 check sum: 78c19812648e8988a0fe644b0f25305e
     Pseudo is Ultrasoft, Zval =  6.0
     Generated by new atomic code, or converted to UPF format
     Using radial grid of  737 points,  4 beta functions with:
                l(1) =   0
                l(2) =   0
                l(3) =   1
                l(4) =   1
     Q(r) pseudized with  8 coefficients,  rinner =    0.800   0.800   0.800

     PseudoPot. # 3 for N  read from file:
     /storage/coda1/p-amedford6/0/shared/rich_project_chbe-medford/medford-share/data/pseudos_module/espresso/nninc/pbe/van/N.UPF
     MD5 check sum: 90d10febe142ad51ac9d5be1deb811c4
     Pseudo is Ultrasoft, Zval =  5.0
     Generated by new atomic code, or converted to UPF format
     Using radial grid of  729 points,  4 beta functions with:
                l(1) =   0
                l(2) =   0
                l(3) =   1
                l(4) =   1
     Q(r) pseudized with  8 coefficients,  rinner =    0.800   0.800   0.800

     PseudoPot. # 4 for C  read from file:
     /storage/coda1/p-amedford6/0/shared/rich_project_chbe-medford/medford-share/data/pseudos_module/espresso/nninc/pbe/van/C.UPF
     MD5 check sum: 1a69bf6b8db32088f5b2163dbdb77a27
     Pseudo is Ultrasoft, Zval =  4.0
     Generated by new atomic code, or converted to UPF format
     Using radial grid of  721 points,  4 beta functions with:
                l(1) =   0
                l(2) =   0
                l(3) =   1
                l(4) =   1
     Q(r) pseudized with  8 coefficients,  rinner =    0.800   0.800   0.800

     PseudoPot. # 5 for H  read from file:
     /storage/coda1/p-amedford6/0/shared/rich_project_chbe-medford/medford-share/data/pseudos_module/espresso/nninc/pbe/van/H.UPF
     MD5 check sum: b5ee9d7bfd3a09ee7748110bda690ff7
     Pseudo is Ultrasoft, Zval =  1.0
     Generated by new atomic code, or converted to UPF format
     Using radial grid of  615 points,  1 beta functions with:
                l(1) =   0
     Q(r) pseudized with  8 coefficients,  rinner =    0.800

     atomic species   valence    mass     pseudopotential
        Ti1           12.00    47.86700     Ti( 1.00)
        O1             6.00    15.99900     O ( 1.00)
        N1             5.00    14.00700     N ( 1.00)
        C1             4.00    12.01100     C ( 1.00)
        H1             1.00     1.00800     H ( 1.00)

     No symmetry found

   Cartesian axes

     site n.     atom                  positions (alat units)
         1           Ti1 tau(   1) = (   0.0004258   2.9801865   6.0000000  )
         2           Ti1 tau(   2) = (   3.2906075   1.4906267   6.0002472  )
         3           O1  tau(   3) = (   0.0006271   0.0005054   7.9858123  )
         4           O1  tau(   4) = (   3.2906025   0.0005020   7.3038282  )
         5           O1  tau(   5) = (   4.5942328   1.4918067   9.2879030  )
         6           O1  tau(   6) = (   1.9868534   1.4903216   9.2879459  )
         7           Ti1 tau(   7) = (   3.2907910   2.8959150   9.1758416  )
         8           Ti1 tau(   8) = (   0.0015273   1.4827037   9.2680791  )
         9           O1  tau(   9) = (   3.2793096   0.0109766  11.3808719  )
        10           O1  tau(  10) = (   0.0116148   5.9584955  10.6183126  )
        11           O1  tau(  11) = (   1.2765542   1.4933007  12.7034215  )
        12           O1  tau(  12) = (   5.2857700   1.4936877  12.6893616  )
        13           Ti1 tau(  13) = (   6.5704964   2.9736084  12.5041408  )
        14           Ti1 tau(  14) = (   3.2751742   1.4933391  12.5393049  )
        15           O1  tau(  15) = (   6.5372820   5.8718772  14.6936981  )
        16           O1  tau(  16) = (   3.2837545   5.9462538  13.9991140  )
        17           O1  tau(  17) = (   4.5218413   1.5222141  16.1415557  )
        18           O1  tau(  18) = (   2.0028246   1.5144184  16.0917912  )
        19           Ti1 tau(  19) = (   3.2608137   3.0032599  15.7731319  )
        20           Ti1 tau(  20) = (   6.5347537   1.3176600  15.8357148  )
        21           O1  tau(  21) = (   3.2904802   0.0005063   4.7018136  )
        22           O1  tau(  22) = (   0.0001116   0.1817366  17.2468837  )
        23           O1  tau(  23) = (   1.3043587   1.4918075   6.0039043  )
        24           O1  tau(  24) = (   5.2767064   1.4903225   6.0039473  )
        25           Ti1 tau(  25) = (   0.0000382   5.9609847   6.0000000  )
        26           Ti1 tau(  26) = (   3.2902200   4.4714249   6.0002472  )
        27           O1  tau(  27) = (   0.0002396   2.9813036   7.9858123  )
        28           O1  tau(  28) = (   3.2902150   2.9813002   7.3038282  )
        29           O1  tau(  29) = (   4.5938453   4.4726049   9.2879030  )
        30           O1  tau(  30) = (   1.9864658   4.4711199   9.2879459  )
        31           Ti1 tau(  31) = (   3.2891106   5.8743827   9.1763621  )
        32           Ti1 tau(  32) = (   0.0006254   4.4649316   9.2693709  )
        33           O1  tau(  33) = (   3.2784652   2.9723947  11.3763700  )
        34           O1  tau(  34) = (   0.0092240   2.9805883  10.6323155  )
        35           O1  tau(  35) = (   1.2785823   4.4627939  12.6603399  )
        36           O1  tau(  36) = (   5.2819334   4.4612839  12.6411408  )
        37           Ti1 tau(  37) = (   6.5651122   5.9414744  12.5010122  )
        38           Ti1 tau(  38) = (   3.2748416   4.4711967  12.5285960  )
        39           O1  tau(  39) = (   6.5535135   3.0442902  14.9788272  )
        40           O1  tau(  40) = (   3.2854610   3.0101546  13.9792171  )
        41           O1  tau(  41) = (   4.5276217   4.4805847  16.2446860  )
        42           O1  tau(  42) = (   2.0020726   4.4828838  16.2214318  )
        43           Ti1 tau(  43) = (   3.2599196   0.0196740  15.7976440  )
        44           Ti1 tau(  44) = (   6.5457193   4.5363361  16.0654255  )
        45           O1  tau(  45) = (   3.2900926   2.9813045   4.7018136  )
        46           O1  tau(  46) = (   1.3039711   4.4726057   6.0039043  )
        47           O1  tau(  47) = (   5.2763189   4.4711207   6.0039473  )
        48           N1  tau(  48) = (   1.1367570   2.6896871  18.7516802  )
        49           N1  tau(  49) = (   6.5001796   3.3781512  18.2049158  )
        50           C1  tau(  50) = (   2.1807708   3.2122984  19.2750733  )
        51           H1  tau(  51) = (   2.0427863   4.2979755  19.4033283  )
        52           H1  tau(  52) = (   1.0785778   1.7047639  18.4906217  )
        53           H1  tau(  53) = (   6.4155442   4.2515232  18.7250902  )
        54           H1  tau(  54) = (   5.6874363   2.7987760  18.4315970  )

     number of k points=    10  Fermi-Dirac smearing, width (Ry)=  0.0073
                       cart. coord. in units 2pi/alat
        k(    1) = (   0.0000000   0.0000000   0.0000000), wk =   0.1250000
        k(    2) = (   0.0000000   0.0419351   0.0000000), wk =   0.2500000
        k(    3) = (   0.0000000  -0.0838702   0.0000000), wk =   0.1250000
        k(    4) = (   0.0379955   0.0000049   0.0000000), wk =   0.2500000
        k(    5) = (   0.0379955   0.0419400   0.0000000), wk =   0.2500000
        k(    6) = (   0.0379955  -0.0838652   0.0000000), wk =   0.2500000
        k(    7) = (   0.0379955  -0.0419301   0.0000000), wk =   0.2500000
        k(    8) = (  -0.0759910  -0.0000099   0.0000000), wk =   0.1250000
        k(    9) = (  -0.0759910   0.0419252   0.0000000), wk =   0.2500000
        k(   10) = (  -0.0759910  -0.0838800   0.0000000), wk =   0.1250000

     Initial potential from superposition of free atoms

     starting charge  379.99915, renormalised to  396.00000

     negative rho (up, down):  1.651E-02 0.000E+00

     %%%%%%%%%%%%%%%%%%%%%%%%%%%%%%%%%%%%%%%%%%%%%%%%%%%%%%%%%%%%%%%%%%%%%%%%
     %                                                                      %
     % You are using vdW-DF, which was implemented by the Thonhauser group. %
     % Please cite the following two papers that made this development      %
     % possible and the two reviews that describe the various versions:     %
     %                                                                      %
     %   T. Thonhauser et al., PRL 115, 136402 (2015).                      %
     %   T. Thonhauser et al., PRB 76, 125112 (2007).                       %
     %   K. Berland et al., Rep. Prog. Phys. 78, 066501 (2015).             %
     %   D.C. Langreth et al., J. Phys.: Condens. Matter 21, 084203 (2009). %
     %                                                                      %
     %                                                                      %
     % If you are calculating the stress with vdW-DF, please also cite:     %
     %                                                                      %
     %   R. Sabatini et al., J. Phys.: Condens. Matter 24, 424209 (2012).   %
     %                                                                      %
     %%%%%%%%%%%%%%%%%%%%%%%%%%%%%%%%%%%%%%%%%%%%%%%%%%%%%%%%%%%%%%%%%%%%%%%%

     Adding external electric field

     Computed dipole along edir(3) :
        Dipole               -9.9915 Ry au,        -25.3958 Debye
        Dipole field         -0.0189 Ry au,

        Potential amp.        1.7479 Ry
        Total length         46.3494 bohr

     Starting wfcs are  300 atomic wfcs
  @ DRIVER MODE: Message from server: STATUS
  @ DRIVER MODE: Message from server: POSDATA
  @ DRIVER MODE: Reading and sharing cell
  @ DRIVER MODE: Reading and sharing positions
  @ DRIVER MODE: Received positions

     Self-consistent Calculation

     iteration #  1     ecut=    29.40 Ry     beta= 0.05
     Davidson diagonalization with overlap
     c_bands:  2 eigenvalues not converged
     c_bands:  2 eigenvalues not converged
     c_bands:  3 eigenvalues not converged
     c_bands:  2 eigenvalues not converged
     c_bands:  3 eigenvalues not converged
     c_bands:  1 eigenvalues not converged
     c_bands:  3 eigenvalues not converged
     c_bands:  2 eigenvalues not converged
     c_bands:  1 eigenvalues not converged
     c_bands:  1 eigenvalues not converged
     ethr =  1.00E-05,  avg # of iterations = 20.0

[...]

     total energy              =   -2519.96050842 Ry
     estimated scf accuracy    <    4700.65901909 Ry

     iteration #  2     ecut=    29.40 Ry     beta= 0.05
     Davidson diagonalization with overlap
     ethr =  1.00E-02,  avg # of iterations = 25.2

[...]

     iteration # 63     ecut=    29.40 Ry     beta= 0.05
     Davidson diagonalization with overlap
     ethr =  4.78E-11,  avg # of iterations =  1.1

[...]

     total energy              =   -2940.25627863 Ry
     estimated scf accuracy    <       0.00000009 Ry

     iteration # 64     ecut=    29.40 Ry     beta= 0.05
     Davidson diagonalization with overlap
     c_bands:  1 eigenvalues not converged
     ethr =  2.29E-11,  avg # of iterations = 11.7

     negative rho (up, down):  1.612E-02 0.000E+00

     Adding external electric field

     Computed dipole along edir(3) :
        Dipole                0.8140 Ry au,          2.0691 Debye
        Dipole field          0.0015 Ry au,

        Potential amp.       -0.1424 Ry
        Total length         46.3494 bohr

     End of self-consistent calculation

          k = 0.0000 0.0000 0.0000 ( 18029 PWs)   bands (ev):

   -55.6658 -55.6287 -55.6167 -55.5852 -55.5825 -55.5476 -55.5428 -55.5083
   -55.4890 -55.4786 -55.4547 -55.4483 -55.4146 -55.3305 -54.6488 -54.6147
   -32.2309 -32.1232 -32.1096 -32.0310 -31.9786 -31.9773 -31.9745 -31.9545
   -31.9056 -31.8996 -31.8748 -31.8710 -31.8616 -31.8499 -31.8329 -31.8213
   -31.8193 -31.8106 -31.8027 -31.7850 -31.7694 -31.7667 -31.7313 -31.7310
   -31.7208 -31.7195 -31.7073 -31.6914 -31.6740 -31.6736 -31.6685 -31.6484
   -31.6472 -31.6447 -31.6378 -31.6354 -31.6025 -31.5943 -31.5764 -31.5597
   -31.5385 -31.5261 -31.0584 -30.9637 -30.9416 -30.8746 -30.7878 -30.6770
   -18.4999 -16.4962 -16.2349 -16.0897 -15.9778 -15.8666 -15.7539 -15.7109
   -15.5969 -15.5228 -15.3944 -15.3599 -15.3227 -15.3076 -15.2947 -15.2939
   -15.2133 -15.2075 -15.1886 -15.1644 -15.1615 -15.1180 -15.1068 -15.0662
   -15.0421 -15.0107 -14.9132 -14.8278 -14.7542 -14.5874 -14.5059 -13.1515
   -13.0340  -9.5936  -6.7402  -5.8130  -4.1302  -3.9075  -3.8209  -3.6871
    -3.5819  -3.5590  -3.5034  -3.4218  -3.2481  -3.1122  -3.0602  -2.9547
    -2.8757  -2.8641  -2.8333  -2.7089  -2.6644  -2.6214  -2.5490  -2.5309
    -2.4732  -2.4516  -2.4346  -2.4182  -2.3974  -2.3866  -2.2976  -2.2363
    -2.1373  -2.0877  -2.0692  -2.0202  -2.0056  -1.9791  -1.9561  -1.9468
    -1.8940  -1.8895  -1.8614  -1.8125  -1.6943  -1.5603  -1.5282  -1.4280
    -1.3062  -1.2684  -1.2493  -1.1599  -1.1492  -1.1234  -1.0736  -1.0443
    -1.0081  -0.9300  -0.8776  -0.7869  -0.7457  -0.7397  -0.6761  -0.6555
    -0.5663  -0.4805  -0.4478  -0.4332  -0.4084  -0.2958  -0.2738  -0.2090
    -0.1498  -0.1391  -0.1312  -0.0511  -0.0066   0.0673   0.0998   0.1209
     0.2125   0.2340   0.2641   0.2656   0.2974   0.3182   0.3633   0.4055
     0.4319   0.5191   0.6356   0.8589   0.9438   0.9482   1.2704   1.2783
     1.3739   1.5572   1.6389   1.9503   1.9987   3.4311   3.5026   3.5773
     3.5812   3.5950   3.6672   3.9100   3.9307   3.9380   3.9408   3.9664

[...]

          k = 0.0380-0.0419 0.0000 ( 17876 PWs)   bands (ev):

[...]

          k =-0.0760-0.0000 0.0000 ( 17886 PWs)   bands (ev):

[...]

          k =-0.0760-0.0839 0.0000 ( 17948 PWs)   bands (ev):

   -55.6520 -55.6423 -55.5997 -55.5993 -55.5837 -55.5432 -55.5271 -55.5240
   -55.4829 -55.4731 -55.4702 -55.4317 -55.4313 -55.3317 -54.6319 -54.6315
   -32.0431 -32.0390 -32.0312 -31.9434 -31.9248 -31.9246 -31.9211 -31.8909
   -31.8908 -31.8750 -31.8653 -31.8625 -31.8548 -31.8317 -31.8192 -31.8069
   -31.8057 -31.8019 -31.7989 -31.7910 -31.7894 -31.7859 -31.7458 -31.7433
   -31.7417 -31.7387 -31.7324 -31.7212 -31.7195 -31.7192 -31.7156 -31.7057
   -31.7031 -31.6861 -31.6829 -31.6679 -31.6654 -31.6626 -31.6124 -31.6123
   -31.6031 -31.5432 -30.9544 -30.9541 -30.8709 -30.8707 -30.8313 -30.8312
   -18.4953 -16.0409 -15.8859 -15.8582 -15.7083 -15.6749 -15.6313 -15.6171
   -15.5101 -15.4565 -15.4364 -15.4183 -15.4177 -15.3684 -15.3667 -15.3614
   -15.2894 -15.2705 -15.2677 -15.2419 -15.1863 -15.1797 -15.1731 -15.1680
   -15.1164 -15.1127 -15.0709 -15.0218 -15.0184 -14.8426 -14.5265 -13.1356
   -13.1353  -9.5851  -6.7275  -5.8086  -4.1262  -3.7922  -3.1496  -3.1386
    -3.1187  -2.9235  -2.8548  -2.8250  -2.8215  -2.7286  -2.6877  -2.6500
    -2.6477  -2.5854  -2.5747  -2.5469  -2.5134  -2.5014  -2.4855  -2.4645
    -2.4318  -2.4016  -2.3912  -2.3799  -2.3786  -2.3264  -2.3140  -2.3023
    -2.2695  -2.2496  -2.2305  -2.2196  -2.1507  -2.0506  -2.0334  -1.9500
    -1.8758  -1.8715  -1.7996  -1.7745  -1.7360  -1.7089  -1.7002  -1.6351
    -1.4739  -1.4380  -1.4140  -1.4029  -1.2935  -1.2729  -1.2473  -1.1855
    -1.1728  -1.1516  -1.0243  -0.9888  -0.9757  -0.8915  -0.8812  -0.8009
    -0.7582  -0.6912  -0.6694  -0.6229  -0.6211  -0.5789  -0.5697  -0.5013
    -0.4709  -0.4355  -0.4020  -0.3880  -0.3508  -0.1557  -0.1430  -0.1337
     0.0043   0.0216   0.1854   0.2121   0.2655   0.3619   0.3869   0.4440
     0.4775   0.6196   0.6385   0.6454   0.7073   0.7194   0.7836   0.7949
     1.5342   1.7302   1.7306   1.8185   1.8189   3.5748   3.6868   3.7015
     3.7353   3.8450   3.8707   3.9491   3.9783   4.0160   4.0193   4.0810

     the Fermi energy is     3.4949 ev

!    total energy              =   -2940.25630821 Ry
     estimated scf accuracy    <       0.00000007 Ry
     smearing contrib. (-TS)   =      -0.03710165 Ry
     internal energy E=F+TS    =   -2940.21920656 Ry

     The total energy is F=E-TS. E is the sum of the following terms:
     one-electron contribution =  -23762.82687782 Ry
     hartree contribution      =   11970.31393089 Ry
     xc contribution           =    -485.99306543 Ry
     ewald contribution        =    9338.28555528 Ry
     electric field correction =       0.00125052 Ry

     convergence has been achieved in  64 iterations

     Forces acting on atoms (cartesian axes, Ry/au):

     atom    1 type  1   force =     0.00023102   -0.00025913    0.09311303
     atom    2 type  1   force =    -0.00000058   -0.00050444   -0.17829365
     atom    3 type  2   force =     0.00007737   -0.00041162   -0.02008375
     atom    4 type  2   force =     0.00004041   -0.00193018    0.05910519
     atom    5 type  2   force =    -0.01030155   -0.00073239    0.00827624
     atom    6 type  2   force =     0.01152342   -0.00008190    0.00662288
     atom    7 type  1   force =    -0.00058228    0.00210798   -0.01394066
     atom    8 type  1   force =     0.00069234   -0.00092964   -0.00577984
     atom    9 type  2   force =     0.00007219   -0.00012069    0.00004348
     atom   10 type  2   force =    -0.00259966    0.00235996    0.00052878
     atom   11 type  2   force =    -0.00006621   -0.00005854    0.00006808
     atom   12 type  2   force =     0.00003781    0.00018635   -0.00006385
     atom   13 type  1   force =    -0.00008741    0.00007805    0.00004403
     atom   14 type  1   force =    -0.00010060   -0.00034941   -0.00003621
     atom   15 type  2   force =    -0.00014675    0.00011938    0.00008381
     atom   16 type  2   force =     0.00017395   -0.00003023    0.00018458
     atom   17 type  2   force =     0.00001567   -0.00000714    0.00001134
     atom   18 type  2   force =     0.00010115   -0.00012222    0.00030258
     atom   19 type  1   force =     0.00015717   -0.00010054    0.00001909
     atom   20 type  1   force =    -0.00025200    0.00024559   -0.00024259
     atom   21 type  2   force =     0.00014270   -0.00010513    0.10398703
     atom   22 type  2   force =     0.00007494    0.00027086    0.00015107
     atom   23 type  2   force =    -0.07024612   -0.00020584   -0.02688286
     atom   24 type  2   force =     0.07028569    0.00025754   -0.02691829
     atom   25 type  1   force =     0.00022741   -0.00018799    0.09278120
     atom   26 type  1   force =     0.00002887   -0.00044560   -0.17843271
     atom   27 type  2   force =     0.00012988   -0.00024196   -0.01915195
     atom   28 type  2   force =     0.00006931   -0.00174125    0.05854419
     atom   29 type  2   force =    -0.01093007   -0.00101505    0.00903284
     atom   30 type  2   force =     0.01204837   -0.00059556    0.00744783
     atom   31 type  1   force =    -0.00057453    0.00639814   -0.01467826
     atom   32 type  1   force =     0.00074844    0.00032011   -0.00607713
     atom   33 type  2   force =    -0.00008651   -0.00016906    0.00003176
     atom   34 type  2   force =    -0.00184498   -0.00249904   -0.00038769
     atom   35 type  2   force =    -0.00009525    0.00021765   -0.00009024
     atom   36 type  2   force =     0.00012929    0.00009595   -0.00015075
     atom   37 type  1   force =     0.00008229    0.00012306   -0.00001090
     atom   38 type  1   force =     0.00007429   -0.00043753   -0.00001274
     atom   39 type  2   force =     0.00014584    0.00013934   -0.00014438
     atom   40 type  2   force =    -0.00009887   -0.00007861    0.00015407
     atom   41 type  2   force =    -0.00008272    0.00003366    0.00004106
     atom   42 type  2   force =     0.00003375    0.00006453    0.00001394
     atom   43 type  1   force =     0.00036010   -0.00015151    0.00014306
     atom   44 type  1   force =     0.00014766    0.00018265   -0.00005979
     atom   45 type  2   force =     0.00012914   -0.00011078    0.10390853
     atom   46 type  2   force =    -0.07024590   -0.00011133   -0.02687739
     atom   47 type  2   force =     0.07023715    0.00029693   -0.02689098
     atom   48 type  3   force =    -0.00031093   -0.00221735    0.00017232
     atom   49 type  3   force =     0.00209373   -0.00115982   -0.00037252
     atom   50 type  4   force =    -0.00021296    0.00093128    0.00028650
     atom   51 type  5   force =     0.00008914   -0.00088177   -0.00051957
     atom   52 type  5   force =     0.00020821    0.00126088   -0.00018333
     atom   53 type  5   force =    -0.00179647    0.00057819    0.00034673
     atom   54 type  5   force =     0.00005363    0.00172519    0.00083680

     Total force =     0.366304     Total SCF correction =     0.000947
  @ DRIVER MODE: Message from server: STATUS
  @ DRIVER MODE: Message from server: GETFORCE
  @ DRIVER MODE: Returning v,forces,stress,ensemble

     Writing output data file ./calc.save/
  @ DRIVER MODE: Message from server: EXIT
  @ DRIVE MODE: Exiting

     General routines

     Parallel routines

   This run was terminated on:  17:41:31  15Sep2021

   JOB DONE.