     Program PWSCF v.6.7GPU starts on 12Oct2021 at 19:27:11

     R & G space division:  proc/nbgrp/npool/nimage =       8
     Reading input from /storage/home/hcoda1/3/ntian30/research/carbon/CxH_vib/CH_calc/ads_slab/CHNHH_b/out_0018/pw.inp
Warning: card &CELL ignored
Warning: card   CELL_DYNAMICS='IPI', ignored
Warning: card / ignored

     Current dimensions of program PWSCF are:
     Max number of different atomic species (ntypx) = 10
     Max number of k-points (npk) =  40000
     Max angular momentum in pseudopotentials (lmaxx) =  3
     Presently no symmetry can be used with electric field

     Message from routine cell_base_init:
     DEPRECATED: use true lattice parameter, not A to a.u. conversion factor

     IMPORTANT: XC functional enforced from input :
     Exchange-correlation= BEEF-VDW
                           (   1   4  43  14   2   0   0)
     Any further DFT definition will be discarded
     Please, verify this is what you really want

  @ DRIVER MODE: Connecting to
 qe_1139763_3182856.sched-torque.pace.gatech.edu8eorxqhl_scratch
  using UNIX socket
  @ DRIVER MODE: Message from server: STATUS
  @ DRIVER MODE: Message from server: INIT
  @ DRIVER MODE: Receiving replica           0          -1
  @ DRIVER MODE: Receiving encoded integer          25
  @ DRIVER MODE:  SCF:  T  FORCE:  T  STRESS:  F  VC:  F  ENSEMBLE:  F
  @ DRIVER MODE:  SCF:  T  FORCE:  T  STRESS:  F  VC:  F  ENSEMBLE:  F

     Using Slab Decomposition

     bravais-lattice index     =            0
     lattice parameter (alat)  =       1.8897  a.u.
     unit-cell volume          =    6658.9804 (a.u.)^3
     number of atoms/cell      =           52
     number of atomic types    =            5
     number of electrons       =       390.00
     number of Kohn-Sham states=          205
     kinetic-energy cutoff     =      29.3995  Ry
     charge density cutoff     =     293.9946  Ry
     scf convergence threshold =      7.3E-08
     mixing beta               =       0.0500
     number of iterations used =            8  plain     mixing
     Exchange-correlation= BEEF-VDW
                           (   1   4  43  14   2   0   0)

     celldm(1)=   1.889726  celldm(2)=   0.000000  celldm(3)=   0.000000
     celldm(4)=   0.000000  celldm(5)=   0.000000  celldm(6)=   0.000000

     crystal axes: (cart. coord. in units of alat)
               a(1) = (   6.579727   0.000000   0.000000 )
               a(2) = (  -0.000775   5.961596   0.000000 )
               a(3) = (   0.000000   0.000000  25.155947 )

     reciprocal axes: (cart. coord. in units 2 pi/alat)
               b(1) = (  0.151982  0.000020  0.000000 )
               b(2) = (  0.000000  0.167740  0.000000 )
               b(3) = (  0.000000  0.000000  0.039752 )

     PseudoPot. # 1 for Ti read from file:
     /storage/coda1/p-amedford6/0/shared/rich_project_chbe-medford/medford-share/data/pseudos_module/espresso/nninc/pbe/van/Ti.UPF
     MD5 check sum: 8e4df49b7f0d34bbd5052bf3f5ea0213
     Pseudo is Ultrasoft, Zval = 12.0
     Generated by new atomic code, or converted to UPF format
     Using radial grid of  851 points,  6 beta functions with:
                l(1) =   0
                l(2) =   0
                l(3) =   1
                l(4) =   1
                l(5) =   2
                l(6) =   2
     Q(r) pseudized with  8 coefficients,  rinner =    1.000   1.000   1.000
                                                       1.000   1.000

     PseudoPot. # 2 for O  read from file:
     /storage/coda1/p-amedford6/0/shared/rich_project_chbe-medford/medford-share/data/pseudos_module/espresso/nninc/pbe/van/O.UPF
     MD5 check sum: 78c19812648e8988a0fe644b0f25305e
     Pseudo is Ultrasoft, Zval =  6.0
     Generated by new atomic code, or converted to UPF format
     Using radial grid of  737 points,  4 beta functions with:
                l(1) =   0
                l(2) =   0
                l(3) =   1
                l(4) =   1
     Q(r) pseudized with  8 coefficients,  rinner =    0.800   0.800   0.800

     PseudoPot. # 3 for C  read from file:
     /storage/coda1/p-amedford6/0/shared/rich_project_chbe-medford/medford-share/data/pseudos_module/espresso/nninc/pbe/van/C.UPF
     MD5 check sum: 1a69bf6b8db32088f5b2163dbdb77a27
     Pseudo is Ultrasoft, Zval =  4.0
     Generated by new atomic code, or converted to UPF format
     Using radial grid of  721 points,  4 beta functions with:
                l(1) =   0
                l(2) =   0
                l(3) =   1
                l(4) =   1
     Q(r) pseudized with  8 coefficients,  rinner =    0.800   0.800   0.800

     PseudoPot. # 4 for H  read from file:
     /storage/coda1/p-amedford6/0/shared/rich_project_chbe-medford/medford-share/data/pseudos_module/espresso/nninc/pbe/van/H.UPF
     MD5 check sum: b5ee9d7bfd3a09ee7748110bda690ff7
     Pseudo is Ultrasoft, Zval =  1.0
     Generated by new atomic code, or converted to UPF format
     Using radial grid of  615 points,  1 beta functions with:
                l(1) =   0
     Q(r) pseudized with  8 coefficients,  rinner =    0.800

     PseudoPot. # 5 for N  read from file:
     /storage/coda1/p-amedford6/0/shared/rich_project_chbe-medford/medford-share/data/pseudos_module/espresso/nninc/pbe/van/N.UPF
     MD5 check sum: 90d10febe142ad51ac9d5be1deb811c4
     Pseudo is Ultrasoft, Zval =  5.0
     Generated by new atomic code, or converted to UPF format
     Using radial grid of  729 points,  4 beta functions with:
                l(1) =   0
                l(2) =   0
                l(3) =   1
                l(4) =   1
     Q(r) pseudized with  8 coefficients,  rinner =    0.800   0.800   0.800

     atomic species   valence    mass     pseudopotential
        Ti1           12.00    47.86700     Ti( 1.00)
        O1             6.00    15.99900     O ( 1.00)
        C1             4.00    12.01100     C ( 1.00)
        H1             1.00     1.00800     H ( 1.00)
        N1             5.00    14.00700     N ( 1.00)

     No symmetry found

   Cartesian axes

     site n.     atom                  positions (alat units)
         1           Ti1 tau(   1) = (   0.0004258   2.9801865   6.0000000  )
         2           Ti1 tau(   2) = (   3.2906075   1.4906267   6.0002472  )
         3           O1  tau(   3) = (   0.0006271   0.0005054   7.9858123  )
         4           O1  tau(   4) = (   3.2906025   0.0005020   7.3038282  )
         5           O1  tau(   5) = (   4.5942328   1.4918067   9.2879030  )
         6           O1  tau(   6) = (   1.9868534   1.4903216   9.2879459  )
         7           Ti1 tau(   7) = (   3.2907309   2.9776765   9.1658812  )
         8           Ti1 tau(   8) = (   0.0014263   1.4814950   9.2876947  )
         9           O1  tau(   9) = (   3.2944750   0.0002302  11.3604974  )
        10           O1  tau(  10) = (   0.0008895   5.9586890  10.6035392  )
        11           O1  tau(  11) = (   1.2972031   1.4939413  12.6393260  )
        12           O1  tau(  12) = (   5.2935702   1.4970258  12.6342454  )
        13           Ti1 tau(  13) = (   6.5783930   2.9813526  12.8381062  )
        14           Ti1 tau(  14) = (   3.2906537   1.4978773  12.4963327  )
        15           O1  tau(  15) = (   6.5733175   0.0290402  14.6574804  )
        16           O1  tau(  16) = (   3.3054662   0.0216765  13.9740687  )
        17           O1  tau(  17) = (   4.5350609   1.5403548  16.2059549  )
        18           O1  tau(  18) = (   2.0349166   1.5291342  16.1470642  )
        19           Ti1 tau(  19) = (   3.2872240   3.0047607  15.7234092  )
        20           Ti1 tau(  20) = (   0.0410825   1.5194215  16.1276637  )
        21           O1  tau(  21) = (   3.2904802   0.0005063   4.7018136  )
        22           O1  tau(  22) = (   6.5652676   5.8907541  17.2497628  )
        23           O1  tau(  23) = (   1.3043587   1.4918075   6.0039043  )
        24           O1  tau(  24) = (   5.2767064   1.4903225   6.0039473  )
        25           Ti1 tau(  25) = (   0.0000382   5.9609847   6.0000000  )
        26           Ti1 tau(  26) = (   3.2902200   4.4714249   6.0002472  )
        27           O1  tau(  27) = (   0.0002396   2.9813036   7.9858123  )
        28           O1  tau(  28) = (   3.2902150   2.9813002   7.3038282  )
        29           O1  tau(  29) = (   4.5938453   4.4726049   9.2879030  )
        30           O1  tau(  30) = (   1.9864658   4.4711199   9.2879459  )
        31           Ti1 tau(  31) = (   3.2906741   5.9584693   9.1623309  )
        32           Ti1 tau(  32) = (   0.0012165   4.4014169   9.3465426  )
        33           O1  tau(  33) = (   3.2924083   2.9889881  11.3543434  )
        34           O1  tau(  34) = (   0.0022264   2.9772995  10.5544931  )
        35           O1  tau(  35) = (   1.2986444   4.4679898  12.6568800  )
        36           O1  tau(  36) = (   5.2923799   4.4657857  12.6543205  )
        37           Ti1 tau(  37) = (   0.0025552   0.0092372  12.5181211  )
        38           Ti1 tau(  38) = (   3.2887235   4.4740353  12.4983661  )
        39           O1  tau(  39) = (   0.0036310   2.9570434  14.7349056  )
        40           O1  tau(  40) = (   3.2990611   2.9752856  13.9364830  )
        41           O1  tau(  41) = (   4.5418486   4.4722619  16.1017917  )
        42           O1  tau(  42) = (   2.0452692   4.4787779  16.1069431  )
        43           Ti1 tau(  43) = (   3.3182015   0.0155015  15.7624703  )
        44           Ti1 tau(  44) = (   0.0016332   4.6944760  15.9151726  )
        45           O1  tau(  45) = (   3.2900926   2.9813045   4.7018136  )
        46           C1  tau(  46) = (   0.0781255   2.7894620  17.8686468  )
        47           O1  tau(  47) = (   1.3039711   4.4726057   6.0039043  )
        48           O1  tau(  48) = (   5.2763189   4.4711207   6.0039473  )
        49           H1  tau(  49) = (   0.9954384   3.2332450  18.2619424  )
        50           H1  tau(  50) = (   4.7724221   2.4647446  18.5798542  )
        51           N1  tau(  51) = (   5.6845287   2.8438018  18.7814782  )
        52           H1  tau(  52) = (   5.7759989   3.3395087  19.6567880  )

     number of k points=    10  Fermi-Dirac smearing, width (Ry)=  0.0073
                       cart. coord. in units 2pi/alat
        k(    1) = (   0.0000000   0.0000000   0.0000000), wk =   0.1250000
        k(    2) = (   0.0000000   0.0419351   0.0000000), wk =   0.2500000
        k(    3) = (   0.0000000  -0.0838702   0.0000000), wk =   0.1250000
        k(    4) = (   0.0379955   0.0000049   0.0000000), wk =   0.2500000
        k(    5) = (   0.0379955   0.0419400   0.0000000), wk =   0.2500000
        k(    6) = (   0.0379955  -0.0838652   0.0000000), wk =   0.2500000
        k(    7) = (   0.0379955  -0.0419301   0.0000000), wk =   0.2500000
        k(    8) = (  -0.0759910  -0.0000099   0.0000000), wk =   0.1250000
        k(    9) = (  -0.0759910   0.0419252   0.0000000), wk =   0.2500000
        k(   10) = (  -0.0759910  -0.0838800   0.0000000), wk =   0.1250000

     Initial potential from superposition of free atoms

     starting charge  373.99917, renormalised to  390.00000

     negative rho (up, down):  1.780E-02 0.000E+00

     %%%%%%%%%%%%%%%%%%%%%%%%%%%%%%%%%%%%%%%%%%%%%%%%%%%%%%%%%%%%%%%%%%%%%%%%
     %                                                                      %
     % You are using vdW-DF, which was implemented by the Thonhauser group. %
     % Please cite the following two papers that made this development      %
     % possible and the two reviews that describe the various versions:     %
     %                                                                      %
     %   T. Thonhauser et al., PRL 115, 136402 (2015).                      %
     %   T. Thonhauser et al., PRB 76, 125112 (2007).                       %
     %   K. Berland et al., Rep. Prog. Phys. 78, 066501 (2015).             %
     %   D.C. Langreth et al., J. Phys.: Condens. Matter 21, 084203 (2009). %
     %                                                                      %
     %                                                                      %
     % If you are calculating the stress with vdW-DF, please also cite:     %
     %                                                                      %
     %   R. Sabatini et al., J. Phys.: Condens. Matter 24, 424209 (2012).   %
     %                                                                      %
     %%%%%%%%%%%%%%%%%%%%%%%%%%%%%%%%%%%%%%%%%%%%%%%%%%%%%%%%%%%%%%%%%%%%%%%%

     Adding external electric field

     Computed dipole along edir(3) :
        Dipole               -5.3784 Ry au,        -13.6705 Debye
        Dipole field         -0.0101 Ry au,

        Potential amp.        0.9409 Ry
        Total length         46.3494 bohr

     Starting wfcs are  295 atomic wfcs
  @ DRIVER MODE: Message from server: STATUS
  @ DRIVER MODE: Message from server: POSDATA
  @ DRIVER MODE: Reading and sharing cell
  @ DRIVER MODE: Reading and sharing positions
  @ DRIVER MODE: Received positions

     Self-consistent Calculation

     iteration #  1     ecut=    29.40 Ry     beta= 0.05
     Davidson diagonalization with overlap
     c_bands:  5 eigenvalues not converged
     c_bands:  1 eigenvalues not converged
     c_bands:  2 eigenvalues not converged
     c_bands:  5 eigenvalues not converged
     c_bands:  1 eigenvalues not converged
     c_bands:  5 eigenvalues not converged
     c_bands:  1 eigenvalues not converged
     c_bands:  1 eigenvalues not converged
     c_bands:  1 eigenvalues not converged
     ethr =  1.00E-05,  avg # of iterations = 20.9

[...]

     total energy              =   -2826.67515050 Ry
     estimated scf accuracy    <    1028.70213854 Ry

     iteration #  2     ecut=    29.40 Ry     beta= 0.05
     Davidson diagonalization with overlap
     ethr =  1.00E-02,  avg # of iterations = 15.9

[...]

     iteration # 57     ecut=    29.40 Ry     beta= 0.05
     Davidson diagonalization with overlap
     c_bands:  1 eigenvalues not converged
     ethr =  6.06E-10,  avg # of iterations = 13.4

[...]

     total energy              =   -2919.05159641 Ry
     estimated scf accuracy    <       0.00000010 Ry

     iteration # 66     ecut=    29.40 Ry     beta= 0.05
     Davidson diagonalization with overlap
     ethr =  2.56E-11,  avg # of iterations =  5.0

     negative rho (up, down):  1.780E-02 0.000E+00

     Adding external electric field

     Computed dipole along edir(3) :
        Dipole                1.2280 Ry au,          3.1212 Debye
        Dipole field          0.0023 Ry au,

        Potential amp.       -0.2148 Ry
        Total length         46.3494 bohr

     End of self-consistent calculation

          k = 0.0000 0.0000 0.0000 ( 18029 PWs)   bands (ev):

   -55.6381 -55.6192 -55.5977 -55.5829 -55.5437 -55.5001 -55.4508 -55.4427
   -55.3950 -55.3823 -55.3602 -55.2980 -55.0186 -54.9614 -54.6201 -54.5860
   -32.1893 -32.0993 -31.9697 -31.9589 -31.9535 -31.9291 -31.8930 -31.8798
   -31.8664 -31.8514 -31.8320 -31.8231 -31.8018 -31.7996 -31.7675 -31.7659
   -31.7487 -31.7217 -31.7169 -31.7041 -31.6805 -31.6673 -31.6608 -31.6429
   -31.6422 -31.6296 -31.6138 -31.6006 -31.5920 -31.5813 -31.5500 -31.5471
   -31.5325 -31.5076 -31.4907 -31.4871 -31.4564 -31.3710 -31.3155 -31.2509
   -31.0749 -31.0391 -31.0293 -30.9345 -30.9120 -30.8455 -30.7592 -30.6485
   -16.5560 -16.3762 -16.0725 -15.9464 -15.7835 -15.7430 -15.6635 -15.4496
   -15.3311 -15.2579 -15.2386 -15.2228 -15.2028 -15.1954 -15.1521 -15.1396
   -15.1187 -15.0729 -15.0507 -15.0211 -15.0157 -14.9925 -14.9366 -14.8950
   -14.8946 -14.7769 -14.7362 -14.6103 -14.5728 -14.4300 -13.1223 -13.0048
    -9.1773  -6.8632  -4.4026  -3.7308  -3.5384  -3.5102  -3.5042  -3.4333
    -3.2089  -3.1873  -2.8555  -2.7963  -2.7866  -2.7531  -2.7356  -2.5919
    -2.5407  -2.4768  -2.4398  -2.4295  -2.4226  -2.4086  -2.3888  -2.3578
    -2.3433  -2.3158  -2.2252  -2.1528  -2.0503  -2.0391  -1.9739  -1.9233
    -1.8882  -1.8795  -1.8444  -1.8324  -1.8083  -1.7908  -1.7596  -1.7140
    -1.5283  -1.5221  -1.4846  -1.4393  -1.2873  -1.2530  -1.2199  -1.0912
    -1.0453  -1.0183  -0.9420  -0.9383  -0.9263  -0.8692  -0.8303  -0.7755
    -0.6791  -0.6538  -0.5693  -0.5539  -0.4988  -0.4674  -0.3474  -0.3377
    -0.3194  -0.3033  -0.1161  -0.1083  -0.0809  -0.0677   0.0330   0.0714
     0.0931   0.1675   0.1788   0.1938   0.2154   0.3357   0.3733   0.3807
     0.4016   0.4093   0.4183   0.5831   0.6113   0.6816   0.7048   0.7618
     0.9187   0.9428   1.0421   1.1077   1.3100   1.4023   1.4691   1.5794
     1.9893   2.0542   3.4375   3.5697   3.5754   3.6278   3.6537   3.7099
     3.9148   3.9520   3.9782   4.0118   4.0376

[...]

          k = 0.0380-0.0419 0.0000 ( 17876 PWs)   bands (ev):

[...]

          k =-0.0760-0.0000 0.0000 ( 17886 PWs)   bands (ev):

[...]

          k =-0.0760-0.0839 0.0000 ( 17948 PWs)   bands (ev):

   -55.6288 -55.6068 -55.6024 -55.5995 -55.5404 -55.4953 -55.4539 -55.4475
   -55.3794 -55.3792 -55.3751 -55.3016 -55.0137 -54.9661 -54.6032 -54.6027
   -31.9928 -31.9908 -31.9317 -31.9258 -31.9205 -31.9047 -31.8859 -31.8853
   -31.8315 -31.8298 -31.8242 -31.7979 -31.7948 -31.7572 -31.7450 -31.7424
   -31.7419 -31.7401 -31.7363 -31.7192 -31.7061 -31.6956 -31.6938 -31.6872
   -31.6603 -31.6591 -31.6543 -31.6269 -31.6266 -31.6197 -31.5809 -31.5786
   -31.5681 -31.5665 -31.5141 -31.4971 -31.4796 -31.3752 -31.3096 -31.2534
   -31.1508 -31.0419 -30.9250 -30.9244 -30.8423 -30.8419 -30.8027 -30.8022
   -16.5461 -15.8495 -15.7905 -15.5744 -15.5537 -15.5533 -15.4687 -15.3966
   -15.3903 -15.3597 -15.3406 -15.3164 -15.3079 -15.2544 -15.2303 -15.1655
   -15.1421 -15.1257 -15.1234 -15.0662 -15.0582 -15.0257 -15.0061 -14.9926
   -14.9696 -14.9388 -14.9283 -14.8006 -14.7626 -14.5574 -13.1081 -13.1043
    -9.1873  -6.8670  -4.3600  -3.1405  -3.0711  -2.7858  -2.7772  -2.7604
    -2.6556  -2.5745  -2.5614  -2.5288  -2.4716  -2.4473  -2.4426  -2.4291
    -2.4109  -2.4061  -2.4008  -2.3923  -2.3482  -2.3223  -2.2923  -2.2482
    -2.2401  -2.2291  -2.2166  -2.1738  -2.1630  -2.1545  -2.1497  -2.1405
    -2.0903  -1.9146  -1.8890  -1.8706  -1.7623  -1.7422  -1.7071  -1.6790
    -1.6769  -1.6357  -1.6264  -1.5560  -1.4600  -1.3726  -1.3381  -1.3184
    -1.2853  -1.2440  -1.1501  -1.0455  -1.0069  -0.9780  -0.9453  -0.9119
    -0.8802  -0.8762  -0.7687  -0.7192  -0.6996  -0.6474  -0.5915  -0.5685
    -0.5374  -0.4931  -0.4822  -0.4327  -0.3604  -0.3425  -0.2813  -0.2316
    -0.2053  -0.2045  -0.1493  -0.1372  -0.0258   0.0224   0.2148   0.2851
     0.3578   0.3985   0.4153   0.5590   0.5683   0.6735   0.7268   0.7351
     0.7687   0.8483   0.9261   0.9409   0.9725   1.0275   1.7638   1.7662
     1.8493   1.8629   3.5638   3.7347   3.7661   3.7719   3.8717   4.0161
     4.0299   4.0400   4.0499   4.1508   4.2095

     the Fermi energy is     3.5188 ev

!    total energy              =   -2919.05162992 Ry
     estimated scf accuracy    <       0.00000004 Ry
     smearing contrib. (-TS)   =      -0.03130280 Ry
     internal energy E=F+TS    =   -2919.02032712 Ry

     The total energy is F=E-TS. E is the sum of the following terms:
     one-electron contribution =  -24311.08057401 Ry
     hartree contribution      =   12243.04360895 Ry
     xc contribution           =    -479.92933622 Ry
     ewald contribution        =    9628.94312860 Ry
     electric field correction =       0.00284556 Ry

     convergence has been achieved in  66 iterations

     Forces acting on atoms (cartesian axes, Ry/au):

     atom    1 type  1   force =     0.00006723    0.00095844    0.10695507
     atom    2 type  1   force =    -0.00004919    0.00019752   -0.17812983
     atom    3 type  2   force =     0.00007939    0.00468214   -0.03577630
     atom    4 type  2   force =     0.00003163    0.00016579    0.04948248
     atom    5 type  2   force =    -0.02037506   -0.00163571    0.00503647
     atom    6 type  2   force =     0.02053795   -0.00128253    0.00511940
     atom    7 type  1   force =     0.00005789    0.00148701   -0.00758156
     atom    8 type  1   force =     0.00002444   -0.00051056   -0.00008589
     atom    9 type  2   force =    -0.00002882    0.00001483   -0.00042813
     atom   10 type  2   force =     0.00010296   -0.00036107    0.00069525
     atom   11 type  2   force =     0.00036532   -0.00019416    0.00000885
     atom   12 type  2   force =    -0.00028183   -0.00020617   -0.00009333
     atom   13 type  1   force =    -0.00021460   -0.00063760   -0.00019094
     atom   14 type  1   force =    -0.00011440   -0.00007808    0.00005889
     atom   15 type  2   force =     0.00009844    0.00026868    0.00054672
     atom   16 type  2   force =     0.00011149    0.00023983   -0.00064008
     atom   17 type  2   force =    -0.00037441   -0.00010887    0.00016746
     atom   18 type  2   force =     0.00050098   -0.00014684    0.00011954
     atom   19 type  1   force =     0.00016688    0.00017781    0.00045549
     atom   20 type  1   force =    -0.00037691   -0.00006090    0.00048798
     atom   21 type  2   force =     0.00003859    0.00000191    0.10385716
     atom   22 type  2   force =     0.00003184   -0.00027297   -0.00168880
     atom   23 type  2   force =    -0.06935560    0.00128122   -0.03016400
     atom   24 type  2   force =     0.06922852    0.00170704   -0.03020636
     atom   25 type  1   force =     0.00003541   -0.00088100    0.12352281
     atom   26 type  1   force =    -0.00007903   -0.00068451   -0.17773427
     atom   27 type  2   force =     0.00001189   -0.00219946   -0.03269032
     atom   28 type  2   force =     0.00001339   -0.00014137    0.05054533
     atom   29 type  2   force =    -0.02136571    0.00086100    0.00493408
     atom   30 type  2   force =     0.02156294    0.00148777    0.00502711
     atom   31 type  1   force =     0.00025437   -0.00213261   -0.00797557
     atom   32 type  1   force =     0.00000620   -0.00075597    0.00063064
     atom   33 type  2   force =    -0.00002944   -0.00000450   -0.00022136
     atom   34 type  2   force =     0.00002193    0.00023560    0.00078909
     atom   35 type  2   force =     0.00021693    0.00028659   -0.00009251
     atom   36 type  2   force =    -0.00014309    0.00032069   -0.00021694
     atom   37 type  1   force =    -0.00000952    0.00056411    0.00115387
     atom   38 type  1   force =    -0.00009995   -0.00033964    0.00036210
     atom   39 type  2   force =    -0.00001826    0.00053615    0.00011100
     atom   40 type  2   force =     0.00004100    0.00024523   -0.00129105
     atom   41 type  2   force =    -0.00096166    0.00055057    0.00036297
     atom   42 type  2   force =     0.00107396    0.00047446    0.00055978
     atom   43 type  1   force =     0.00021395    0.00035268    0.00013040
     atom   44 type  1   force =     0.00039692    0.00014878    0.00105491
     atom   45 type  2   force =     0.00005029    0.00007147    0.10391808
     atom   46 type  3   force =    -0.00044881   -0.00056182   -0.00023747
     atom   47 type  2   force =    -0.06959047   -0.00177637   -0.03015349
     atom   48 type  2   force =     0.06949694   -0.00133641   -0.03021510
     atom   49 type  4   force =    -0.00094342    0.00011479    0.00020440
     atom   50 type  4   force =    -0.00174426   -0.00223177   -0.00312747
     atom   51 type  5   force =     0.00158235    0.00134294    0.00247907
     atom   52 type  4   force =     0.00018241   -0.00023417    0.00016437

     Total force =     0.379414     Total SCF correction =     0.000417
  @ DRIVER MODE: Message from server: STATUS
  @ DRIVER MODE: Message from server: GETFORCE
  @ DRIVER MODE: Returning v,forces,stress,ensemble

     Writing output data file ./calc.save/
  @ DRIVER MODE: Message from server: EXIT
  @ DRIVE MODE: Exiting

     General routines

     Parallel routines

   This run was terminated on:  19:49:53  12Oct2021

   JOB DONE.