     Program PWSCF v.6.7GPU starts on 14Sep2021 at 14:42: 8

     R & G space division:  proc/nbgrp/npool/nimage =      10
     Reading input from /storage/home/hcoda1/3/ntian30/research/carbon/CxH_vib/CH_calc/ads_slab/CHOHN2_a/out_0003/pw.inp
Warning: card &CELL ignored
Warning: card   CELL_DYNAMICS='IPI', ignored
Warning: card / ignored

     Current dimensions of program PWSCF are:
     Max number of different atomic species (ntypx) = 10
     Max number of k-points (npk) =  40000
     Max angular momentum in pseudopotentials (lmaxx) =  3
     Presently no symmetry can be used with electric field

     Message from routine cell_base_init:
     DEPRECATED: use true lattice parameter, not A to a.u. conversion factor

     IMPORTANT: XC functional enforced from input :
     Exchange-correlation= BEEF-VDW
                           (   1   4  43  14   2   0   0)
     Any further DFT definition will be discarded
     Please, verify this is what you really want

  @ DRIVER MODE: Connecting to
 qe_1139763_2840439.sched-torque.pace.gatech.eduzg5slgqh_scratch
  using UNIX socket
  @ DRIVER MODE: Message from server: STATUS
  @ DRIVER MODE: Message from server: INIT
  @ DRIVER MODE: Receiving replica           0          -1
  @ DRIVER MODE: Receiving encoded integer          25
  @ DRIVER MODE:  SCF:  T  FORCE:  T  STRESS:  F  VC:  F  ENSEMBLE:  F
  @ DRIVER MODE:  SCF:  T  FORCE:  T  STRESS:  F  VC:  F  ENSEMBLE:  F

     Using Slab Decomposition

     bravais-lattice index     =            0
     lattice parameter (alat)  =       1.8897  a.u.
     unit-cell volume          =    6658.9804 (a.u.)^3
     number of atoms/cell      =           53
     number of atomic types    =            5
     number of electrons       =       400.00
     number of Kohn-Sham states=          210
     kinetic-energy cutoff     =      29.3995  Ry
     charge density cutoff     =     293.9946  Ry
     scf convergence threshold =      7.3E-08
     mixing beta               =       0.0500
     number of iterations used =            8  plain     mixing
     Exchange-correlation= BEEF-VDW
                           (   1   4  43  14   2   0   0)

     celldm(1)=   1.889726  celldm(2)=   0.000000  celldm(3)=   0.000000
     celldm(4)=   0.000000  celldm(5)=   0.000000  celldm(6)=   0.000000

     crystal axes: (cart. coord. in units of alat)
               a(1) = (   6.579727   0.000000   0.000000 )
               a(2) = (  -0.000775   5.961596   0.000000 )
               a(3) = (   0.000000   0.000000  25.155947 )

     reciprocal axes: (cart. coord. in units 2 pi/alat)
               b(1) = (  0.151982  0.000020  0.000000 )
               b(2) = (  0.000000  0.167740  0.000000 )
               b(3) = (  0.000000  0.000000  0.039752 )

     PseudoPot. # 1 for C  read from file:
     /storage/coda1/p-amedford6/0/shared/rich_project_chbe-medford/medford-share/data/pseudos_module/espresso/nninc/pbe/van/C.UPF
     MD5 check sum: 1a69bf6b8db32088f5b2163dbdb77a27
     Pseudo is Ultrasoft, Zval =  4.0
     Generated by new atomic code, or converted to UPF format
     Using radial grid of  721 points,  4 beta functions with:
                l(1) =   0
                l(2) =   0
                l(3) =   1
                l(4) =   1
     Q(r) pseudized with  8 coefficients,  rinner =    0.800   0.800   0.800

     PseudoPot. # 2 for H  read from file:
     /storage/coda1/p-amedford6/0/shared/rich_project_chbe-medford/medford-share/data/pseudos_module/espresso/nninc/pbe/van/H.UPF
     MD5 check sum: b5ee9d7bfd3a09ee7748110bda690ff7
     Pseudo is Ultrasoft, Zval =  1.0
     Generated by new atomic code, or converted to UPF format
     Using radial grid of  615 points,  1 beta functions with:
                l(1) =   0
     Q(r) pseudized with  8 coefficients,  rinner =    0.800

     PseudoPot. # 3 for O  read from file:
     /storage/coda1/p-amedford6/0/shared/rich_project_chbe-medford/medford-share/data/pseudos_module/espresso/nninc/pbe/van/O.UPF
     MD5 check sum: 78c19812648e8988a0fe644b0f25305e
     Pseudo is Ultrasoft, Zval =  6.0
     Generated by new atomic code, or converted to UPF format
     Using radial grid of  737 points,  4 beta functions with:
                l(1) =   0
                l(2) =   0
                l(3) =   1
                l(4) =   1
     Q(r) pseudized with  8 coefficients,  rinner =    0.800   0.800   0.800

     PseudoPot. # 4 for Ti read from file:
     /storage/coda1/p-amedford6/0/shared/rich_project_chbe-medford/medford-share/data/pseudos_module/espresso/nninc/pbe/van/Ti.UPF
     MD5 check sum: 8e4df49b7f0d34bbd5052bf3f5ea0213
     Pseudo is Ultrasoft, Zval = 12.0
     Generated by new atomic code, or converted to UPF format
     Using radial grid of  851 points,  6 beta functions with:
                l(1) =   0
                l(2) =   0
                l(3) =   1
                l(4) =   1
                l(5) =   2
                l(6) =   2
     Q(r) pseudized with  8 coefficients,  rinner =    1.000   1.000   1.000
                                                       1.000   1.000

     PseudoPot. # 5 for N  read from file:
     /storage/coda1/p-amedford6/0/shared/rich_project_chbe-medford/medford-share/data/pseudos_module/espresso/nninc/pbe/van/N.UPF
     MD5 check sum: 90d10febe142ad51ac9d5be1deb811c4
     Pseudo is Ultrasoft, Zval =  5.0
     Generated by new atomic code, or converted to UPF format
     Using radial grid of  729 points,  4 beta functions with:
                l(1) =   0
                l(2) =   0
                l(3) =   1
                l(4) =   1
     Q(r) pseudized with  8 coefficients,  rinner =    0.800   0.800   0.800

     atomic species   valence    mass     pseudopotential
        C1             4.00    12.01100     C ( 1.00)
        H1             1.00     1.00800     H ( 1.00)
        O1             6.00    15.99900     O ( 1.00)
        Ti1           12.00    47.86700     Ti( 1.00)
        N1             5.00    14.00700     N ( 1.00)

     No symmetry found

   Cartesian axes

     site n.     atom                  positions (alat units)
         1           C1  tau(   1) = (   5.6818245   3.0934261  18.8613826  )
         2           H1  tau(   2) = (   0.9295697   3.0331078  18.1055300  )
         3           H1  tau(   3) = (   5.3049293   4.0639705  19.1352297  )
         4           O1  tau(   4) = (   3.2904802   0.0005063   4.7018136  )
         5           O1  tau(   5) = (   3.2900926   2.9813045   4.7018136  )
         6           O1  tau(   6) = (   1.3043587   1.4918075   6.0039043  )
         7           O1  tau(   7) = (   1.3039711   4.4726057   6.0039043  )
         8           O1  tau(   8) = (   5.2767064   1.4903225   6.0039473  )
         9           O1  tau(   9) = (   5.2763189   4.4711207   6.0039473  )
        10           O1  tau(  10) = (   3.2906025   0.0005020   7.3038282  )
        11           O1  tau(  11) = (   3.2902150   2.9813002   7.3038282  )
        12           O1  tau(  12) = (   0.0006271   0.0005054   7.9858123  )
        13           O1  tau(  13) = (   0.0002396   2.9813036   7.9858123  )
        14           O1  tau(  14) = (   4.5942328   1.4918067   9.2879030  )
        15           O1  tau(  15) = (   4.5938453   4.4726049   9.2879030  )
        16           O1  tau(  16) = (   1.9868534   1.4903216   9.2879459  )
        17           O1  tau(  17) = (   1.9864658   4.4711199   9.2879459  )
        18           O1  tau(  18) = (   6.5737290   0.0025997  10.6073112  )
        19           O1  tau(  19) = (   6.5745157   2.9846488  10.6292520  )
        20           O1  tau(  20) = (   3.2733922   2.9888808  11.3669225  )
        21           O1  tau(  21) = (   3.2734535   0.0083669  11.3733985  )
        22           O1  tau(  22) = (   1.2686495   4.4776606  12.6533150  )
        23           O1  tau(  23) = (   1.2691242   1.4995788  12.6525255  )
        24           O1  tau(  24) = (   5.2697113   4.4789153  12.6558726  )
        25           O1  tau(  25) = (   5.2698035   1.4991558  12.6558074  )
        26           O1  tau(  26) = (   3.2614338   2.9920807  13.9552461  )
        27           O1  tau(  27) = (   3.2541646   0.0113981  14.0020514  )
        28           O1  tau(  28) = (   6.5688946   0.0096870  14.6775192  )
        29           O1  tau(  29) = (   6.5667413   2.9928499  14.8718366  )
        30           O1  tau(  30) = (   4.5340645   4.4751187  16.1466513  )
        31           O1  tau(  31) = (   4.5349815   1.5188077  16.1513287  )
        32           O1  tau(  32) = (   2.0116004   1.5352794  16.1924295  )
        33           O1  tau(  33) = (   2.0125852   4.4566501  16.1924965  )
        34           O1  tau(  34) = (   6.5583959   0.0051910  17.1951124  )
        35           O1  tau(  35) = (   0.0128280   2.9917589  17.7791131  )
        36           Ti1 tau(  36) = (   0.0004258   2.9801865   6.0000000  )
        37           Ti1 tau(  37) = (   0.0000382   5.9609847   6.0000000  )
        38           Ti1 tau(  38) = (   3.2906075   1.4906267   6.0002472  )
        39           Ti1 tau(  39) = (   3.2902200   4.4714249   6.0002472  )
        40           Ti1 tau(  40) = (   3.3204229   0.0006979   9.1540291  )
        41           Ti1 tau(  41) = (   3.3226256   2.9815539   9.1563990  )
        42           Ti1 tau(  42) = (   0.0414996   4.4578595   9.2720048  )
        43           Ti1 tau(  43) = (   0.0419130   1.4910583   9.2667342  )
        44           Ti1 tau(  44) = (   6.5463313   0.0151476  12.4833176  )
        45           Ti1 tau(  45) = (   3.2510826   4.4792010  12.5152252  )
        46           Ti1 tau(  46) = (   3.2519543   1.5009035  12.5151888  )
        47           Ti1 tau(  47) = (   6.5510796   2.9946678  12.5453677  )
        48           Ti1 tau(  48) = (   3.2768179   2.9883465  15.7429562  )
        49           Ti1 tau(  49) = (   3.2517467   0.0179395  15.7976682  )
        50           Ti1 tau(  50) = (   6.5407926   4.5826425  15.9111250  )
        51           Ti1 tau(  51) = (   6.5448107   1.3670631  15.9596882  )
        52           N1  tau(  52) = (   4.6962475   1.0170953  19.6889386  )
        53           N1  tau(  53) = (   5.1479752   2.0001232  19.2934520  )

     number of k points=    10  Fermi-Dirac smearing, width (Ry)=  0.0073
                       cart. coord. in units 2pi/alat
        k(    1) = (   0.0000000   0.0000000   0.0000000), wk =   0.1250000
        k(    2) = (   0.0000000   0.0419351   0.0000000), wk =   0.2500000
        k(    3) = (   0.0000000  -0.0838702   0.0000000), wk =   0.1250000
        k(    4) = (   0.0379955   0.0000049   0.0000000), wk =   0.2500000
        k(    5) = (   0.0379955   0.0419400   0.0000000), wk =   0.2500000
        k(    6) = (   0.0379955  -0.0838652   0.0000000), wk =   0.2500000
        k(    7) = (   0.0379955  -0.0419301   0.0000000), wk =   0.2500000
        k(    8) = (  -0.0759910  -0.0000099   0.0000000), wk =   0.1250000
        k(    9) = (  -0.0759910   0.0419252   0.0000000), wk =   0.2500000
        k(   10) = (  -0.0759910  -0.0838800   0.0000000), wk =   0.1250000

     Initial potential from superposition of free atoms

     starting charge  383.99917, renormalised to  400.00000

     negative rho (up, down):  1.646E-02 0.000E+00

     %%%%%%%%%%%%%%%%%%%%%%%%%%%%%%%%%%%%%%%%%%%%%%%%%%%%%%%%%%%%%%%%%%%%%%%%
     %                                                                      %
     % You are using vdW-DF, which was implemented by the Thonhauser group. %
     % Please cite the following two papers that made this development      %
     % possible and the two reviews that describe the various versions:     %
     %                                                                      %
     %   T. Thonhauser et al., PRL 115, 136402 (2015).                      %
     %   T. Thonhauser et al., PRB 76, 125112 (2007).                       %
     %   K. Berland et al., Rep. Prog. Phys. 78, 066501 (2015).             %
     %   D.C. Langreth et al., J. Phys.: Condens. Matter 21, 084203 (2009). %
     %                                                                      %
     %                                                                      %
     % If you are calculating the stress with vdW-DF, please also cite:     %
     %                                                                      %
     %   R. Sabatini et al., J. Phys.: Condens. Matter 24, 424209 (2012).   %
     %                                                                      %
     %%%%%%%%%%%%%%%%%%%%%%%%%%%%%%%%%%%%%%%%%%%%%%%%%%%%%%%%%%%%%%%%%%%%%%%%

     Adding external electric field

     Computed dipole along edir(3) :
        Dipole              -12.5100 Ry au,        -31.7972 Debye
        Dipole field         -0.0236 Ry au,

        Potential amp.        2.1884 Ry
        Total length         46.3494 bohr

     Starting wfcs are  302 atomic wfcs
  @ DRIVER MODE: Message from server: STATUS
  @ DRIVER MODE: Message from server: POSDATA
  @ DRIVER MODE: Reading and sharing cell
  @ DRIVER MODE: Reading and sharing positions
  @ DRIVER MODE: Received positions

     Self-consistent Calculation

     iteration #  1     ecut=    29.40 Ry     beta= 0.05
     Davidson diagonalization with overlap
     c_bands:  3 eigenvalues not converged
     c_bands:  1 eigenvalues not converged
     c_bands:  4 eigenvalues not converged
     c_bands:  3 eigenvalues not converged
     c_bands:  5 eigenvalues not converged
     c_bands:  5 eigenvalues not converged
     c_bands:  2 eigenvalues not converged
     c_bands:  1 eigenvalues not converged
     ethr =  1.00E-05,  avg # of iterations = 20.9

[...]

     total energy              =   -2397.10346118 Ry
     estimated scf accuracy    <    6493.71069643 Ry

     iteration #  2     ecut=    29.40 Ry     beta= 0.05
     Davidson diagonalization with overlap
     ethr =  1.00E-02,  avg # of iterations = 23.0

[...]

     iteration # 61     ecut=    29.40 Ry     beta= 0.05
     Davidson diagonalization with overlap
     c_bands:  1 eigenvalues not converged
     c_bands:  1 eigenvalues not converged
     ethr =  2.14E-09,  avg # of iterations = 15.0

[...]

     total energy              =   -2970.16554668 Ry
     estimated scf accuracy    <       0.00000011 Ry

     iteration # 70     ecut=    29.40 Ry     beta= 0.05
     Davidson diagonalization with overlap
     ethr =  2.76E-11,  avg # of iterations =  5.4

     negative rho (up, down):  1.635E-02 0.000E+00

     Adding external electric field

     Computed dipole along edir(3) :
        Dipole                0.8247 Ry au,          2.0963 Debye
        Dipole field          0.0016 Ry au,

        Potential amp.       -0.1443 Ry
        Total length         46.3494 bohr

     End of self-consistent calculation

          k = 0.0000 0.0000 0.0000 ( 18029 PWs)   bands (ev):

   -55.5647 -55.5344 -55.5286 -55.5001 -55.4605 -55.4544 -55.4413 -55.4080
   -55.4027 -55.3882 -55.3685 -55.3599 -55.3477 -55.3138 -54.6274 -54.5933
   -32.1347 -32.0656 -32.0299 -31.9383 -31.8849 -31.8781 -31.8735 -31.8572
   -31.8228 -31.8130 -31.7771 -31.7758 -31.7686 -31.7489 -31.7405 -31.7183
   -31.7148 -31.6997 -31.6911 -31.6884 -31.6864 -31.6798 -31.6594 -31.6507
   -31.6497 -31.6313 -31.6300 -31.5999 -31.5959 -31.5916 -31.5759 -31.5536
   -31.5532 -31.5516 -31.5430 -31.5321 -31.5279 -31.5016 -31.4912 -31.4829
   -31.4708 -31.4584 -31.0396 -30.9366 -30.9151 -30.8559 -30.7696 -30.6585
   -21.0978 -20.3001 -16.3895 -16.1335 -15.9863 -15.8876 -15.7823 -15.6462
   -15.6098 -15.5034 -15.3737 -15.2907 -15.2371 -15.2260 -15.2123 -15.2013
   -15.1829 -15.1796 -15.1217 -15.0921 -15.0672 -15.0530 -15.0449 -15.0096
   -14.9542 -14.9475 -14.9294 -14.7936 -14.7258 -14.6662 -14.3623 -14.2541
   -13.1279 -13.0084  -8.5291  -6.8006  -5.6623  -4.5342  -4.0279  -3.7458
    -3.7173  -3.5722  -3.4976  -3.4793  -3.4281  -3.3091  -3.1569  -2.9958
    -2.9111  -2.8481  -2.8201  -2.7698  -2.7304  -2.7001  -2.5250  -2.5124
    -2.4806  -2.4563  -2.4385  -2.4327  -2.4024  -2.3340  -2.3114  -2.3066
    -2.2825  -2.1479  -2.1303  -2.0334  -1.9904  -1.9617  -1.9031  -1.8885
    -1.8837  -1.8533  -1.8327  -1.8189  -1.8147  -1.7755  -1.5918  -1.5904
    -1.4704  -1.4280  -1.3455  -1.2952  -1.1245  -1.1221  -1.0676  -1.0501
    -1.0099  -0.9699  -0.9649  -0.9229  -0.8078  -0.7217  -0.6741  -0.6036
    -0.5653  -0.5003  -0.4653  -0.3620  -0.3528  -0.3394  -0.3224  -0.2023
    -0.1353  -0.0947  -0.0632  -0.0184  -0.0057   0.0939   0.1120   0.1919
     0.2017   0.2579   0.2599   0.3639   0.3808   0.3825   0.4081   0.4277
     0.5150   0.5867   0.5913   0.6066   0.7759   0.9661   0.9933   1.0363
     1.2860   1.3885   1.3988   1.5349   1.5577   1.9857   2.0411   3.5311
     3.5993   3.6386   3.6558   3.6714   3.7381   3.9942   4.0206   4.0389
     4.0529   4.0627

[...]

          k = 0.0380-0.0419 0.0000 ( 17876 PWs)   bands (ev):

[...]

          k =-0.0760-0.0000 0.0000 ( 17886 PWs)   bands (ev):

[...]

          k =-0.0760-0.0839 0.0000 ( 17948 PWs)   bands (ev):

   -55.5474 -55.5457 -55.5190 -55.5154 -55.4571 -55.4468 -55.4347 -55.4155
   -55.3951 -55.3865 -55.3843 -55.3628 -55.3317 -55.3299 -54.6103 -54.6103
   -31.9865 -31.9387 -31.9368 -31.8573 -31.8465 -31.8431 -31.8239 -31.8118
   -31.8045 -31.7838 -31.7674 -31.7651 -31.7603 -31.7203 -31.7175 -31.7079
   -31.7031 -31.7021 -31.6927 -31.6874 -31.6865 -31.6858 -31.6722 -31.6502
   -31.6479 -31.6469 -31.6445 -31.6418 -31.6378 -31.6357 -31.6333 -31.6074
   -31.6045 -31.5959 -31.5848 -31.5844 -31.5727 -31.5569 -31.5554 -31.5440
   -31.5179 -31.5151 -30.9276 -30.9276 -30.8523 -30.8522 -30.8128 -30.8128
   -21.0957 -20.2997 -15.9425 -15.8052 -15.7453 -15.5686 -15.5607 -15.5534
   -15.5283 -15.3919 -15.3817 -15.3569 -15.3283 -15.3158 -15.3004 -15.2924
   -15.2577 -15.1573 -15.1555 -15.1469 -15.1437 -15.0822 -15.0789 -15.0642
   -15.0477 -15.0079 -15.0073 -14.9942 -14.9902 -14.8245 -14.7256 -14.2616
   -13.1097 -13.1090  -8.5190  -6.8047  -5.6697  -4.5144  -3.9986  -3.6484
    -3.0827  -3.0391  -3.0072  -2.7826  -2.7669  -2.7281  -2.6937  -2.6366
    -2.5615  -2.5508  -2.5470  -2.4794  -2.4712  -2.4603  -2.4575  -2.4447
    -2.3916  -2.3891  -2.3509  -2.3456  -2.3011  -2.2728  -2.2614  -2.2378
    -2.2270  -2.2265  -2.2058  -2.1889  -2.1738  -2.1680  -2.0589  -2.0063
    -1.9229  -1.8944  -1.8059  -1.7908  -1.7760  -1.6986  -1.6630  -1.6404
    -1.5781  -1.5749  -1.5037  -1.3809  -1.3623  -1.3550  -1.2816  -1.2263
    -1.1964  -1.1518  -1.1014  -1.0434  -1.0315  -0.9452  -0.8923  -0.8734
    -0.7676  -0.7555  -0.7042  -0.5941  -0.5609  -0.5590  -0.5543  -0.5411
    -0.4657  -0.4483  -0.3990  -0.3585  -0.3096  -0.2848  -0.2642  -0.0651
    -0.0508   0.0200   0.1211   0.1599   0.3257   0.3588   0.3851   0.4577
     0.5025   0.5136   0.5971   0.7068   0.7127   0.7490   0.8225   0.8614
     0.8698   0.9084   1.4877   1.7505   1.7512   1.8547   1.8578   3.6807
     3.7717   3.7848   3.8153   3.8635   3.9545   4.0397   4.0569   4.0842
     4.0924   4.1708

     the Fermi energy is     3.5869 ev

!    total energy              =   -2970.16556430 Ry
     estimated scf accuracy    <       0.00000005 Ry
     smearing contrib. (-TS)   =      -0.03779701 Ry
     internal energy E=F+TS    =   -2970.12776729 Ry

     The total energy is F=E-TS. E is the sum of the following terms:
     one-electron contribution =  -23546.56668610 Ry
     hartree contribution      =   11865.03789723 Ry
     xc contribution           =    -491.70513403 Ry
     ewald contribution        =    9203.10487195 Ry
     electric field correction =       0.00128364 Ry

     convergence has been achieved in  70 iterations

     Forces acting on atoms (cartesian axes, Ry/au):

     atom    1 type  1   force =     0.00049813    0.00002284    0.00074798
     atom    2 type  2   force =     0.00066998   -0.00005983    0.00023002
     atom    3 type  2   force =     0.00003591   -0.00033761   -0.00028619
     atom    4 type  3   force =     0.00005986    0.00000549    0.10500863
     atom    5 type  3   force =     0.00004303    0.00002976    0.10500735
     atom    6 type  3   force =    -0.06776785   -0.00002008   -0.02684734
     atom    7 type  3   force =    -0.06780550   -0.00058346   -0.02688241
     atom    8 type  3   force =     0.06764331    0.00042763   -0.02690615
     atom    9 type  3   force =     0.06767740   -0.00014909   -0.02694363
     atom   10 type  3   force =     0.00072048    0.00002652    0.05051823
     atom   11 type  3   force =     0.00077166    0.00001483    0.05058672
     atom   12 type  3   force =     0.00060914   -0.00002970   -0.02310431
     atom   13 type  3   force =     0.00057191   -0.00016351   -0.02182689
     atom   14 type  3   force =    -0.01559787   -0.00018001    0.00501652
     atom   15 type  3   force =    -0.01566434    0.00008973    0.00498230
     atom   16 type  3   force =     0.01436738    0.00025886    0.00479316
     atom   17 type  3   force =     0.01444316    0.00059610    0.00480012
     atom   18 type  3   force =    -0.00007369    0.00000999   -0.00006759
     atom   19 type  3   force =    -0.00013766   -0.00001272   -0.00019378
     atom   20 type  3   force =    -0.00012422    0.00007984   -0.00006329
     atom   21 type  3   force =     0.00004377   -0.00019485    0.00012877
     atom   22 type  3   force =     0.00025641    0.00025260    0.00000668
     atom   23 type  3   force =    -0.00000057    0.00004056    0.00008449
     atom   24 type  3   force =    -0.00016850    0.00012290    0.00018455
     atom   25 type  3   force =     0.00007751   -0.00012817    0.00011540
     atom   26 type  3   force =     0.00023234   -0.00094653   -0.00001393
     atom   27 type  3   force =    -0.00009118    0.00043870   -0.00014705
     atom   28 type  3   force =    -0.00009378    0.00043547   -0.00002332
     atom   29 type  3   force =     0.00031572   -0.00041130    0.00022287
     atom   30 type  3   force =    -0.00029149   -0.00061248   -0.00052176
     atom   31 type  3   force =     0.00065733   -0.00054547    0.00032839
     atom   32 type  3   force =    -0.00053289   -0.00067271    0.00035008
     atom   33 type  3   force =     0.00056447   -0.00055006   -0.00040585
     atom   34 type  3   force =     0.00001481    0.00055994    0.00003398
     atom   35 type  3   force =    -0.00086257   -0.00000193   -0.00089882
     atom   36 type  4   force =    -0.00022153    0.00012885    0.09294335
     atom   37 type  4   force =    -0.00016217   -0.00012030    0.09680120
     atom   38 type  4   force =    -0.00009654    0.00038049   -0.18356650
     atom   39 type  4   force =    -0.00005974   -0.00057630   -0.18368507
     atom   40 type  4   force =     0.00000969    0.00006115    0.00017790
     atom   41 type  4   force =     0.00017271   -0.00002734    0.00007390
     atom   42 type  4   force =    -0.00037506    0.00014618   -0.00011948
     atom   43 type  4   force =    -0.00022101    0.00029279    0.00014529
     atom   44 type  4   force =     0.00018687    0.00011556    0.00033345
     atom   45 type  4   force =    -0.00007425    0.00002931    0.00042509
     atom   46 type  4   force =    -0.00010951    0.00011114    0.00008992
     atom   47 type  4   force =    -0.00009101   -0.00009109   -0.00014038
     atom   48 type  4   force =    -0.00006192    0.00670032   -0.00022496
     atom   49 type  4   force =    -0.00011136   -0.00472777    0.00003955
     atom   50 type  4   force =    -0.00018326   -0.00040685   -0.00020036
     atom   51 type  4   force =     0.00028972   -0.00062932   -0.00047126
     atom   52 type  5   force =    -0.00105406   -0.00059403   -0.00083749
     atom   53 type  5   force =     0.00110086    0.00139497    0.00020195

     Total force =     0.368709     Total SCF correction =     0.000799
  @ DRIVER MODE: Message from server: STATUS
  @ DRIVER MODE: Message from server: GETFORCE
  @ DRIVER MODE: Returning v,forces,stress,ensemble

     Writing output data file ./calc.save/
  @ DRIVER MODE: Message from server: EXIT
  @ DRIVE MODE: Exiting

     General routines

     Parallel routines

   This run was terminated on:  15: 0:23  14Sep2021

   JOB DONE.