     Program PWSCF v.6.7GPU starts on  9Sep2021 at  1:48:32

     R & G space division:  proc/nbgrp/npool/nimage =      10
     Reading input from /storage/home/hcoda1/3/ntian30/research/carbon/CxH_vib/CH_calc/ads_slab/CHNH_a/out_0015/pw.inp
Warning: card &CELL ignored
Warning: card   CELL_DYNAMICS='IPI', ignored
Warning: card / ignored

     Current dimensions of program PWSCF are:
     Max number of different atomic species (ntypx) = 10
     Max number of k-points (npk) =  40000
     Max angular momentum in pseudopotentials (lmaxx) =  3
     Presently no symmetry can be used with electric field

     Message from routine cell_base_init:
     DEPRECATED: use true lattice parameter, not A to a.u. conversion factor

     IMPORTANT: XC functional enforced from input :
     Exchange-correlation= BEEF-VDW
                           (   1   4  43  14   2   0   0)
     Any further DFT definition will be discarded
     Please, verify this is what you really want

  @ DRIVER MODE: Connecting to
 qe_1139763_2767380.sched-torque.pace.gatech.eduof1vf8lw_scratch
  using UNIX socket
  @ DRIVER MODE: Message from server: STATUS
  @ DRIVER MODE: Message from server: INIT
  @ DRIVER MODE: Receiving replica           0          -1
  @ DRIVER MODE: Receiving encoded integer          25
  @ DRIVER MODE:  SCF:  T  FORCE:  T  STRESS:  F  VC:  F  ENSEMBLE:  F
  @ DRIVER MODE:  SCF:  T  FORCE:  T  STRESS:  F  VC:  F  ENSEMBLE:  F

     Using Slab Decomposition

     bravais-lattice index     =            0
     lattice parameter (alat)  =       1.8897  a.u.
     unit-cell volume          =    6658.9804 (a.u.)^3
     number of atoms/cell      =           51
     number of atomic types    =            5
     number of electrons       =       389.00
     number of Kohn-Sham states=          204
     kinetic-energy cutoff     =      29.3995  Ry
     charge density cutoff     =     293.9946  Ry
     scf convergence threshold =      7.3E-08
     mixing beta               =       0.0500
     number of iterations used =            8  plain     mixing
     Exchange-correlation= BEEF-VDW
                           (   1   4  43  14   2   0   0)

     celldm(1)=   1.889726  celldm(2)=   0.000000  celldm(3)=   0.000000
     celldm(4)=   0.000000  celldm(5)=   0.000000  celldm(6)=   0.000000

     crystal axes: (cart. coord. in units of alat)
               a(1) = (   6.579727   0.000000   0.000000 )
               a(2) = (  -0.000775   5.961596   0.000000 )
               a(3) = (   0.000000   0.000000  25.155947 )

     reciprocal axes: (cart. coord. in units 2 pi/alat)
               b(1) = (  0.151982  0.000020  0.000000 )
               b(2) = (  0.000000  0.167740  0.000000 )
               b(3) = (  0.000000  0.000000  0.039752 )

     PseudoPot. # 1 for Ti read from file:
     /storage/coda1/p-amedford6/0/shared/rich_project_chbe-medford/medford-share/data/pseudos_module/espresso/nninc/pbe/van/Ti.UPF
     MD5 check sum: 8e4df49b7f0d34bbd5052bf3f5ea0213
     Pseudo is Ultrasoft, Zval = 12.0
     Generated by new atomic code, or converted to UPF format
     Using radial grid of  851 points,  6 beta functions with:
                l(1) =   0
                l(2) =   0
                l(3) =   1
                l(4) =   1
                l(5) =   2
                l(6) =   2
     Q(r) pseudized with  8 coefficients,  rinner =    1.000   1.000   1.000
                                                       1.000   1.000

     PseudoPot. # 2 for O  read from file:
     /storage/coda1/p-amedford6/0/shared/rich_project_chbe-medford/medford-share/data/pseudos_module/espresso/nninc/pbe/van/O.UPF
     MD5 check sum: 78c19812648e8988a0fe644b0f25305e
     Pseudo is Ultrasoft, Zval =  6.0
     Generated by new atomic code, or converted to UPF format
     Using radial grid of  737 points,  4 beta functions with:
                l(1) =   0
                l(2) =   0
                l(3) =   1
                l(4) =   1
     Q(r) pseudized with  8 coefficients,  rinner =    0.800   0.800   0.800

     PseudoPot. # 3 for N  read from file:
     /storage/coda1/p-amedford6/0/shared/rich_project_chbe-medford/medford-share/data/pseudos_module/espresso/nninc/pbe/van/N.UPF
     MD5 check sum: 90d10febe142ad51ac9d5be1deb811c4
     Pseudo is Ultrasoft, Zval =  5.0
     Generated by new atomic code, or converted to UPF format
     Using radial grid of  729 points,  4 beta functions with:
                l(1) =   0
                l(2) =   0
                l(3) =   1
                l(4) =   1
     Q(r) pseudized with  8 coefficients,  rinner =    0.800   0.800   0.800

     PseudoPot. # 4 for C  read from file:
     /storage/coda1/p-amedford6/0/shared/rich_project_chbe-medford/medford-share/data/pseudos_module/espresso/nninc/pbe/van/C.UPF
     MD5 check sum: 1a69bf6b8db32088f5b2163dbdb77a27
     Pseudo is Ultrasoft, Zval =  4.0
     Generated by new atomic code, or converted to UPF format
     Using radial grid of  721 points,  4 beta functions with:
                l(1) =   0
                l(2) =   0
                l(3) =   1
                l(4) =   1
     Q(r) pseudized with  8 coefficients,  rinner =    0.800   0.800   0.800

     PseudoPot. # 5 for H  read from file:
     /storage/coda1/p-amedford6/0/shared/rich_project_chbe-medford/medford-share/data/pseudos_module/espresso/nninc/pbe/van/H.UPF
     MD5 check sum: b5ee9d7bfd3a09ee7748110bda690ff7
     Pseudo is Ultrasoft, Zval =  1.0
     Generated by new atomic code, or converted to UPF format
     Using radial grid of  615 points,  1 beta functions with:
                l(1) =   0
     Q(r) pseudized with  8 coefficients,  rinner =    0.800

     atomic species   valence    mass     pseudopotential
        Ti1           12.00    47.86700     Ti( 1.00)
        O1             6.00    15.99900     O ( 1.00)
        N1             5.00    14.00700     N ( 1.00)
        C1             4.00    12.01100     C ( 1.00)
        H1             1.00     1.00800     H ( 1.00)

     No symmetry found

   Cartesian axes

     site n.     atom                  positions (alat units)
         1           Ti1 tau(   1) = (   0.0004258   2.9801865   6.0000000  )
         2           Ti1 tau(   2) = (   3.2906075   1.4906267   6.0002472  )
         3           O1  tau(   3) = (   0.0006271   0.0005054   7.9858123  )
         4           O1  tau(   4) = (   3.2906025   0.0005020   7.3038282  )
         5           O1  tau(   5) = (   4.5942328   1.4918067   9.2879030  )
         6           O1  tau(   6) = (   1.9868534   1.4903216   9.2879459  )
         7           Ti1 tau(   7) = (   3.2907910   2.8959150   9.1758416  )
         8           Ti1 tau(   8) = (   0.0015273   1.4827037   9.2680791  )
         9           O1  tau(   9) = (   3.3107583   5.9394213  11.3440837  )
        10           O1  tau(  10) = (   0.0116148   5.9584955  10.6183126  )
        11           O1  tau(  11) = (   1.3209705   1.4681434  12.6387851  )
        12           O1  tau(  12) = (   5.3117763   1.4689694  12.6372993  )
        13           Ti1 tau(  13) = (   6.5586693   2.9297660  12.6634068  )
        14           Ti1 tau(  14) = (   3.2703198   1.4638114  12.4955107  )
        15           O1  tau(  15) = (   0.0083729   5.9498784  14.6531507  )
        16           O1  tau(  16) = (   3.3267446   5.9373244  13.9471573  )
        17           O1  tau(  17) = (   4.5400383   1.4607670  16.1300196  )
        18           O1  tau(  18) = (   2.0562451   1.4605895  16.0859588  )
        19           Ti1 tau(  19) = (   3.3219294   2.9366742  15.7081325  )
        20           Ti1 tau(  20) = (   0.0794022   1.3719971  16.1804440  )
        21           O1  tau(  21) = (   3.2904802   0.0005063   4.7018136  )
        22           O1  tau(  22) = (   0.0048811   5.8540159  17.1722642  )
        23           O1  tau(  23) = (   1.3043587   1.4918075   6.0039043  )
        24           O1  tau(  24) = (   5.2767064   1.4903225   6.0039473  )
        25           Ti1 tau(  25) = (   0.0000382   5.9609847   6.0000000  )
        26           Ti1 tau(  26) = (   3.2902200   4.4714249   6.0002472  )
        27           O1  tau(  27) = (   0.0002396   2.9813036   7.9858123  )
        28           O1  tau(  28) = (   3.2902150   2.9813002   7.3038282  )
        29           O1  tau(  29) = (   4.5938453   4.4726049   9.2879030  )
        30           O1  tau(  30) = (   1.9864658   4.4711199   9.2879459  )
        31           Ti1 tau(  31) = (   3.2891106   5.8743827   9.1763621  )
        32           Ti1 tau(  32) = (   0.0006254   4.4649316   9.2693709  )
        33           O1  tau(  33) = (   3.3036409   2.9595551  11.3414423  )
        34           O1  tau(  34) = (   0.0092240   2.9805883  10.6323155  )
        35           O1  tau(  35) = (   1.3251634   4.4629088  12.6456700  )
        36           O1  tau(  36) = (   5.3099897   4.4533368  12.6426351  )
        37           Ti1 tau(  37) = (   0.0071655   5.9203210  12.5194715  )
        38           Ti1 tau(  38) = (   3.2774562   4.4456010  12.4944480  )
        39           O1  tau(  39) = (   0.0172281   2.9510719  14.7337574  )
        40           O1  tau(  40) = (   3.3230371   2.9488945  13.9167408  )
        41           O1  tau(  41) = (   4.5572773   4.4147185  16.0816828  )
        42           O1  tau(  42) = (   2.0601761   4.4202290  16.0727324  )
        43           Ti1 tau(  43) = (   3.3574729   5.9210026  15.7440268  )
        44           Ti1 tau(  44) = (   0.0706454   4.5402764  15.7844247  )
        45           O1  tau(  45) = (   3.2900926   2.9813045   4.7018136  )
        46           O1  tau(  46) = (   1.3039711   4.4726057   6.0039043  )
        47           O1  tau(  47) = (   5.2763189   4.4711207   6.0039473  )
        48           N1  tau(  48) = (   6.3928749   2.8496863  17.7411295  )
        49           C1  tau(  49) = (   0.6235525   2.6789418  18.7295412  )
        50           H1  tau(  50) = (   1.5351458   2.1020716  18.4733693  )
        51           H1  tau(  51) = (   5.5197072   3.3230476  17.9821812  )

     number of k points=    10  Fermi-Dirac smearing, width (Ry)=  0.0073
                       cart. coord. in units 2pi/alat
        k(    1) = (   0.0000000   0.0000000   0.0000000), wk =   0.1250000
        k(    2) = (   0.0000000   0.0419351   0.0000000), wk =   0.2500000
        k(    3) = (   0.0000000  -0.0838702   0.0000000), wk =   0.1250000
        k(    4) = (   0.0379955   0.0000049   0.0000000), wk =   0.2500000
        k(    5) = (   0.0379955   0.0419400   0.0000000), wk =   0.2500000
        k(    6) = (   0.0379955  -0.0838652   0.0000000), wk =   0.2500000
        k(    7) = (   0.0379955  -0.0419301   0.0000000), wk =   0.2500000
        k(    8) = (  -0.0759910  -0.0000099   0.0000000), wk =   0.1250000
        k(    9) = (  -0.0759910   0.0419252   0.0000000), wk =   0.2500000
        k(   10) = (  -0.0759910  -0.0838800   0.0000000), wk =   0.1250000

     Initial potential from superposition of free atoms

     starting charge  372.99918, renormalised to  389.00000

     negative rho (up, down):  1.910E-02 0.000E+00

     %%%%%%%%%%%%%%%%%%%%%%%%%%%%%%%%%%%%%%%%%%%%%%%%%%%%%%%%%%%%%%%%%%%%%%%%
     %                                                                      %
     % You are using vdW-DF, which was implemented by the Thonhauser group. %
     % Please cite the following two papers that made this development      %
     % possible and the two reviews that describe the various versions:     %
     %                                                                      %
     %   T. Thonhauser et al., PRL 115, 136402 (2015).                      %
     %   T. Thonhauser et al., PRB 76, 125112 (2007).                       %
     %   K. Berland et al., Rep. Prog. Phys. 78, 066501 (2015).             %
     %   D.C. Langreth et al., J. Phys.: Condens. Matter 21, 084203 (2009). %
     %                                                                      %
     %                                                                      %
     % If you are calculating the stress with vdW-DF, please also cite:     %
     %                                                                      %
     %   R. Sabatini et al., J. Phys.: Condens. Matter 24, 424209 (2012).   %
     %                                                                      %
     %%%%%%%%%%%%%%%%%%%%%%%%%%%%%%%%%%%%%%%%%%%%%%%%%%%%%%%%%%%%%%%%%%%%%%%%

     Adding external electric field

     Computed dipole along edir(3) :
        Dipole               -4.7381 Ry au,        -12.0430 Debye
        Dipole field         -0.0089 Ry au,

        Potential amp.        0.8289 Ry
        Total length         46.3494 bohr

     Starting wfcs are  294 atomic wfcs
  @ DRIVER MODE: Message from server: STATUS
  @ DRIVER MODE: Message from server: POSDATA
  @ DRIVER MODE: Reading and sharing cell
  @ DRIVER MODE: Reading and sharing positions
  @ DRIVER MODE: Received positions

     Self-consistent Calculation

     iteration #  1     ecut=    29.40 Ry     beta= 0.05
     Davidson diagonalization with overlap
     c_bands:  4 eigenvalues not converged
     c_bands:  2 eigenvalues not converged
     c_bands:  1 eigenvalues not converged
     c_bands:  3 eigenvalues not converged
     c_bands:  2 eigenvalues not converged
     c_bands:  1 eigenvalues not converged
     c_bands:  2 eigenvalues not converged
     c_bands:  2 eigenvalues not converged
     c_bands:  1 eigenvalues not converged
     c_bands:  1 eigenvalues not converged
     ethr =  1.00E-05,  avg # of iterations = 20.0

[...]

     total energy              =   -2847.36928180 Ry
     estimated scf accuracy    <     789.51743548 Ry

     iteration #  2     ecut=    29.40 Ry     beta= 0.05
     Davidson diagonalization with overlap
     ethr =  1.00E-02,  avg # of iterations = 15.2

[...]

     iteration # 47     ecut=    29.40 Ry     beta= 0.05
     Davidson diagonalization with overlap
     c_bands:  1 eigenvalues not converged
     ethr =  1.29E-08,  avg # of iterations =  7.1

[...]

     total energy              =   -2917.76276574 Ry
     estimated scf accuracy    <       0.00000014 Ry

     iteration # 61     ecut=    29.40 Ry     beta= 0.05
     Davidson diagonalization with overlap
     ethr =  3.49E-11,  avg # of iterations =  8.6

     negative rho (up, down):  1.797E-02 0.000E+00

     Adding external electric field

     Computed dipole along edir(3) :
        Dipole                0.1169 Ry au,          0.2972 Debye
        Dipole field          0.0002 Ry au,

        Potential amp.       -0.0205 Ry
        Total length         46.3494 bohr

     End of self-consistent calculation

          k = 0.0000 0.0000 0.0000 ( 18029 PWs)   bands (ev):

   -56.3256 -56.3199 -56.2892 -56.2858 -56.2196 -56.1860 -56.1595 -56.1452
   -56.1275 -56.1078 -56.0931 -56.0743 -55.9228 -55.7622 -55.3050 -55.2710
   -32.8874 -32.8034 -32.6719 -32.6673 -32.6397 -32.6280 -32.6122 -32.5980
   -32.5623 -32.5551 -32.5338 -32.5304 -32.5039 -32.4723 -32.4712 -32.4609
   -32.4560 -32.4252 -32.4242 -32.4179 -32.3924 -32.3814 -32.3771 -32.3450
   -32.3392 -32.3264 -32.3257 -32.3190 -32.3146 -32.3106 -32.2919 -32.2764
   -32.2763 -32.2641 -32.2598 -32.2300 -32.2229 -32.2168 -32.1359 -32.0465
   -31.9964 -31.8942 -31.7126 -31.6232 -31.6008 -31.5292 -31.4426 -31.3317
   -17.0849 -16.8183 -16.6516 -16.4991 -16.4641 -16.3528 -16.1873 -16.0632
   -16.0199 -16.0011 -15.9189 -15.8957 -15.8672 -15.8601 -15.8584 -15.8350
   -15.8315 -15.7765 -15.7541 -15.7375 -15.7112 -15.6921 -15.6687 -15.6335
   -15.5350 -15.4800 -15.4561 -15.3882 -15.3195 -14.9875 -13.8078 -13.6912
    -8.2682  -4.4508  -4.3590  -4.2745  -4.2302  -4.1871  -3.9714  -3.8961
    -3.8885  -3.6943  -3.5651  -3.5169  -3.5016  -3.4602  -3.4588  -3.2455
    -3.2066  -3.1430  -3.1388  -3.1210  -3.1167  -3.0896  -3.0805  -3.0599
    -3.0116  -2.9305  -2.8705  -2.7671  -2.7352  -2.6836  -2.6597  -2.6352
    -2.5984  -2.5880  -2.5799  -2.5612  -2.5463  -2.5321  -2.4436  -2.3981
    -2.2935  -2.1602  -2.1444  -2.1228  -1.9393  -1.8849  -1.8082  -1.7888
    -1.7587  -1.7442  -1.7175  -1.6325  -1.5548  -1.5215  -1.4515  -1.4481
    -1.3600  -1.3173  -1.2285  -1.2003  -1.1658  -1.0884  -1.0790  -1.0723
    -1.0206  -0.8267  -0.8021  -0.7950  -0.7738  -0.7103  -0.6544  -0.6176
    -0.5588  -0.5311  -0.4902  -0.4056  -0.3985  -0.3629  -0.3416  -0.3270
    -0.2982  -0.2932  -0.1037  -0.0989  -0.0549  -0.0424   0.0445   0.1981
     0.2912   0.3280   0.4018   0.6384   0.7168   0.7942   0.9076   1.2892
     1.3353   2.5434   2.8116   2.8840   2.8997   2.9410   3.0367   3.0473
     3.2632   3.2732   3.2998   3.3197

[...]

          k = 0.0380-0.0419 0.0000 ( 17876 PWs)   bands (ev):

[...]

          k =-0.0760-0.0000 0.0000 ( 17886 PWs)   bands (ev):

[...]

          k =-0.0760-0.0839 0.0000 ( 17948 PWs)   bands (ev):

   -56.3100 -56.3045 -56.3037 -56.3017 -56.2141 -56.1770 -56.1649 -56.1541
   -56.1116 -56.1082 -56.0928 -56.0898 -55.9213 -55.7636 -55.2880 -55.2878
   -32.6938 -32.6870 -32.6192 -32.6179 -32.6004 -32.5984 -32.5968 -32.5869
   -32.5283 -32.5235 -32.5226 -32.5113 -32.4851 -32.4558 -32.4506 -32.4406
   -32.4341 -32.4292 -32.4257 -32.4242 -32.4233 -32.4220 -32.4211 -32.3911
   -32.3867 -32.3690 -32.3570 -32.3446 -32.3340 -32.3247 -32.3231 -32.3152
   -32.3134 -32.3060 -32.3046 -32.2872 -32.2831 -32.2117 -32.1384 -32.0684
   -32.0001 -31.9451 -31.6136 -31.6134 -31.5254 -31.5252 -31.4860 -31.4859
   -16.5312 -16.4908 -16.3210 -16.2582 -16.2469 -16.2354 -16.1920 -16.0800
   -16.0480 -16.0298 -16.0087 -15.9960 -15.9728 -15.9627 -15.8702 -15.8581
   -15.8548 -15.8324 -15.7933 -15.7890 -15.7871 -15.7760 -15.7600 -15.7580
   -15.7232 -15.6491 -15.6449 -15.4249 -15.3329 -15.2653 -13.7932 -13.7927
    -8.2714  -4.0581  -3.8205  -3.7699  -3.6445  -3.5537  -3.4934  -3.4730
    -3.3980  -3.2782  -3.2195  -3.2122  -3.2021  -3.1709  -3.1650  -3.1442
    -3.1342  -3.1209  -3.0779  -3.0571  -3.0411  -3.0312  -3.0056  -2.9918
    -2.9701  -2.9602  -2.9476  -2.9228  -2.8875  -2.8857  -2.8569  -2.8490
    -2.6250  -2.6105  -2.5472  -2.4975  -2.4749  -2.4633  -2.4604  -2.4023
    -2.3823  -2.3601  -2.2631  -2.1966  -2.0438  -2.0270  -2.0190  -1.9801
    -1.9472  -1.8153  -1.7564  -1.7372  -1.7057  -1.6549  -1.6457  -1.5839
    -1.5667  -1.5290  -1.4599  -1.4233  -1.3767  -1.3577  -1.2837  -1.2773
    -1.2440  -1.1906  -1.1112  -1.0906  -1.0730  -1.0609  -1.0065  -0.9665
    -0.9221  -0.8686  -0.7977  -0.7025  -0.6224  -0.4721  -0.4094  -0.3097
    -0.2492  -0.2110  -0.1574  -0.1279  -0.0416  -0.0107  -0.0083   0.0538
     0.0894   0.1889   0.1941   0.2118   0.4398   1.0792   1.0803   1.1546
     1.1554   2.5476   3.0779   3.0921   3.1040   3.1512   3.3094   3.3152
     3.3424   3.3447   3.4349   3.4692

     the Fermi energy is     2.8128 ev

!    total energy              =   -2917.76280631 Ry
     estimated scf accuracy    <       0.00000007 Ry
     smearing contrib. (-TS)   =      -0.02758419 Ry
     internal energy E=F+TS    =   -2917.73522212 Ry

     The total energy is F=E-TS. E is the sum of the following terms:
     one-electron contribution =  -24683.88921368 Ry
     hartree contribution      =   12421.74011523 Ry
     xc contribution           =    -479.08052983 Ry
     ewald contribution        =    9823.49438036 Ry
     electric field correction =       0.00002579 Ry

     convergence has been achieved in  61 iterations

     Forces acting on atoms (cartesian axes, Ry/au):

     atom    1 type  1   force =     0.00012929   -0.00025328    0.09635406
     atom    2 type  1   force =    -0.00005709   -0.00047926   -0.17577491
     atom    3 type  2   force =     0.00009009   -0.00008066   -0.02480513
     atom    4 type  2   force =     0.00006506   -0.00165910    0.05385728
     atom    5 type  2   force =    -0.01231907   -0.00180926    0.00350764
     atom    6 type  2   force =     0.01428940   -0.00153047    0.00391281
     atom    7 type  1   force =     0.00061434    0.00062395   -0.01168403
     atom    8 type  1   force =    -0.00019951    0.02054832    0.02642716
     atom    9 type  2   force =    -0.00054962    0.00047462   -0.00020842
     atom   10 type  2   force =    -0.00145573   -0.00067114   -0.01375248
     atom   11 type  2   force =     0.00038939    0.00026190   -0.00018396
     atom   12 type  2   force =    -0.00051869    0.00053659   -0.00041716
     atom   13 type  1   force =     0.00052354   -0.00033538   -0.00079616
     atom   14 type  1   force =    -0.00116776    0.00108713   -0.00110378
     atom   15 type  2   force =    -0.00000516   -0.00019789    0.00073547
     atom   16 type  2   force =     0.00022806    0.00067156   -0.00038184
     atom   17 type  2   force =    -0.00078076    0.00042902   -0.00091913
     atom   18 type  2   force =     0.00136449    0.00072520    0.00023319
     atom   19 type  1   force =    -0.00033972    0.00059622   -0.00099964
     atom   20 type  1   force =    -0.00017971    0.00047409    0.00003985
     atom   21 type  2   force =     0.00004893    0.00002156    0.10339027
     atom   22 type  2   force =     0.00037291   -0.00079059    0.00054461
     atom   23 type  2   force =    -0.07129953   -0.00004597   -0.02763291
     atom   24 type  2   force =     0.07126419    0.00034005   -0.02773750
     atom   25 type  1   force =     0.00019534   -0.00035999    0.09607161
     atom   26 type  1   force =     0.00001141   -0.00026112   -0.17593411
     atom   27 type  2   force =     0.00021718   -0.00036777   -0.02359899
     atom   28 type  2   force =     0.00006379   -0.00138198    0.05391681
     atom   29 type  2   force =    -0.01264046    0.00048611    0.00327245
     atom   30 type  2   force =     0.01458507    0.00113466    0.00365435
     atom   31 type  1   force =     0.00072229    0.00351545   -0.01311718
     atom   32 type  1   force =     0.00000299   -0.02244374    0.02632803
     atom   33 type  2   force =     0.00005881   -0.00002283    0.00098508
     atom   34 type  2   force =    -0.00088613   -0.00054020   -0.01872441
     atom   35 type  2   force =    -0.00026522   -0.00022563    0.00017978
     atom   36 type  2   force =     0.00012705   -0.00033242   -0.00004463
     atom   37 type  1   force =     0.00038378    0.00059839   -0.00045071
     atom   38 type  1   force =    -0.00132041   -0.00095324   -0.00046791
     atom   39 type  2   force =     0.00002127    0.00108840   -0.00052061
     atom   40 type  2   force =    -0.00013635   -0.00011090   -0.00033858
     atom   41 type  2   force =     0.00049456    0.00027002    0.00009833
     atom   42 type  2   force =    -0.00075222    0.00004738   -0.00035387
     atom   43 type  1   force =    -0.00043961   -0.00014444   -0.00063299
     atom   44 type  1   force =    -0.00018261    0.00073121   -0.00074104
     atom   45 type  2   force =     0.00006475   -0.00001014    0.10338238
     atom   46 type  2   force =    -0.07128762   -0.00006160   -0.02764144
     atom   47 type  2   force =     0.07126112    0.00042712   -0.02770493
     atom   48 type  3   force =    -0.00186778   -0.00001470   -0.00064826
     atom   49 type  4   force =     0.00457175   -0.00328682   -0.00057019
     atom   50 type  5   force =    -0.00487448    0.00345381    0.00076994
     atom   51 type  5   force =     0.00136440   -0.00017226    0.00022579

     Total force =     0.369028     Total SCF correction =     0.000708
  @ DRIVER MODE: Message from server: STATUS
  @ DRIVER MODE: Message from server: GETFORCE
  @ DRIVER MODE: Returning v,forces,stress,ensemble

     Writing output data file ./calc.save/
  @ DRIVER MODE: Message from server: EXIT
  @ DRIVE MODE: Exiting

     General routines

     Parallel routines

   This run was terminated on:   2: 4: 4   9Sep2021

   JOB DONE.