     Program PWSCF v.6.7GPU starts on 26Sep2021 at 20:37:45

     R & G space division:  proc/nbgrp/npool/nimage =       8
     Reading input from /storage/home/hcoda1/3/ntian30/research/carbon/CxH_vib/H2O_calc/ads_slab/CH3OHN2HO_a/out_0050/pw.inp
Warning: card &CELL ignored
Warning: card   CELL_DYNAMICS='IPI', ignored
Warning: card / ignored

     Current dimensions of program PWSCF are:
     Max number of different atomic species (ntypx) = 10
     Max number of k-points (npk) =  40000
     Max angular momentum in pseudopotentials (lmaxx) =  3
     Presently no symmetry can be used with electric field

     Message from routine cell_base_init:
     DEPRECATED: use true lattice parameter, not A to a.u. conversion factor

     IMPORTANT: XC functional enforced from input :
     Exchange-correlation= BEEF-VDW
                           (   1   4  43  14   2   0   0)
     Any further DFT definition will be discarded
     Please, verify this is what you really want

  @ DRIVER MODE: Connecting to
 qe_1139763_2971668.sched-torque.pace.gatech.edum7_klwhj_scratch
  using UNIX socket
  @ DRIVER MODE: Message from server: STATUS
  @ DRIVER MODE: Message from server: INIT
  @ DRIVER MODE: Receiving replica           0          -1
  @ DRIVER MODE: Receiving encoded integer          25
  @ DRIVER MODE:  SCF:  T  FORCE:  T  STRESS:  F  VC:  F  ENSEMBLE:  F
  @ DRIVER MODE:  SCF:  T  FORCE:  T  STRESS:  F  VC:  F  ENSEMBLE:  F

     Using Slab Decomposition

     bravais-lattice index     =            0
     lattice parameter (alat)  =       1.8897  a.u.
     unit-cell volume          =    6658.9804 (a.u.)^3
     number of atoms/cell      =           57
     number of atomic types    =            5
     number of electrons       =       409.00
     number of Kohn-Sham states=          214
     kinetic-energy cutoff     =      29.3995  Ry
     charge density cutoff     =     293.9946  Ry
     scf convergence threshold =      7.3E-08
     mixing beta               =       0.0500
     number of iterations used =            8  plain     mixing
     Exchange-correlation= BEEF-VDW
                           (   1   4  43  14   2   0   0)

     celldm(1)=   1.889726  celldm(2)=   0.000000  celldm(3)=   0.000000
     celldm(4)=   0.000000  celldm(5)=   0.000000  celldm(6)=   0.000000

     crystal axes: (cart. coord. in units of alat)
               a(1) = (   6.579727   0.000000   0.000000 )
               a(2) = (  -0.000775   5.961596   0.000000 )
               a(3) = (   0.000000   0.000000  25.155947 )

     reciprocal axes: (cart. coord. in units 2 pi/alat)
               b(1) = (  0.151982  0.000020  0.000000 )
               b(2) = (  0.000000  0.167740  0.000000 )
               b(3) = (  0.000000  0.000000  0.039752 )

     PseudoPot. # 1 for Ti read from file:
     /storage/coda1/p-amedford6/0/shared/rich_project_chbe-medford/medford-share/data/pseudos_module/espresso/nninc/pbe/van/Ti.UPF
     MD5 check sum: 8e4df49b7f0d34bbd5052bf3f5ea0213
     Pseudo is Ultrasoft, Zval = 12.0
     Generated by new atomic code, or converted to UPF format
     Using radial grid of  851 points,  6 beta functions with:
                l(1) =   0
                l(2) =   0
                l(3) =   1
                l(4) =   1
                l(5) =   2
                l(6) =   2
     Q(r) pseudized with  8 coefficients,  rinner =    1.000   1.000   1.000
                                                       1.000   1.000

     PseudoPot. # 2 for O  read from file:
     /storage/coda1/p-amedford6/0/shared/rich_project_chbe-medford/medford-share/data/pseudos_module/espresso/nninc/pbe/van/O.UPF
     MD5 check sum: 78c19812648e8988a0fe644b0f25305e
     Pseudo is Ultrasoft, Zval =  6.0
     Generated by new atomic code, or converted to UPF format
     Using radial grid of  737 points,  4 beta functions with:
                l(1) =   0
                l(2) =   0
                l(3) =   1
                l(4) =   1
     Q(r) pseudized with  8 coefficients,  rinner =    0.800   0.800   0.800

     PseudoPot. # 3 for C  read from file:
     /storage/coda1/p-amedford6/0/shared/rich_project_chbe-medford/medford-share/data/pseudos_module/espresso/nninc/pbe/van/C.UPF
     MD5 check sum: 1a69bf6b8db32088f5b2163dbdb77a27
     Pseudo is Ultrasoft, Zval =  4.0
     Generated by new atomic code, or converted to UPF format
     Using radial grid of  721 points,  4 beta functions with:
                l(1) =   0
                l(2) =   0
                l(3) =   1
                l(4) =   1
     Q(r) pseudized with  8 coefficients,  rinner =    0.800   0.800   0.800

     PseudoPot. # 4 for H  read from file:
     /storage/coda1/p-amedford6/0/shared/rich_project_chbe-medford/medford-share/data/pseudos_module/espresso/nninc/pbe/van/H.UPF
     MD5 check sum: b5ee9d7bfd3a09ee7748110bda690ff7
     Pseudo is Ultrasoft, Zval =  1.0
     Generated by new atomic code, or converted to UPF format
     Using radial grid of  615 points,  1 beta functions with:
                l(1) =   0
     Q(r) pseudized with  8 coefficients,  rinner =    0.800

     PseudoPot. # 5 for N  read from file:
     /storage/coda1/p-amedford6/0/shared/rich_project_chbe-medford/medford-share/data/pseudos_module/espresso/nninc/pbe/van/N.UPF
     MD5 check sum: 90d10febe142ad51ac9d5be1deb811c4
     Pseudo is Ultrasoft, Zval =  5.0
     Generated by new atomic code, or converted to UPF format
     Using radial grid of  729 points,  4 beta functions with:
                l(1) =   0
                l(2) =   0
                l(3) =   1
                l(4) =   1
     Q(r) pseudized with  8 coefficients,  rinner =    0.800   0.800   0.800

     atomic species   valence    mass     pseudopotential
        Ti1           12.00    47.86700     Ti( 1.00)
        O1             6.00    15.99900     O ( 1.00)
        C1             4.00    12.01100     C ( 1.00)
        H1             1.00     1.00800     H ( 1.00)
        N1             5.00    14.00700     N ( 1.00)

     No symmetry found

   Cartesian axes

     site n.     atom                  positions (alat units)
         1           Ti1 tau(   1) = (   0.0004258   2.9801865   6.0000000  )
         2           Ti1 tau(   2) = (   3.2906075   1.4906267   6.0002472  )
         3           O1  tau(   3) = (   0.0006271   0.0005054   7.9858123  )
         4           O1  tau(   4) = (   3.2906025   0.0005020   7.3038282  )
         5           O1  tau(   5) = (   4.5942328   1.4918067   9.2879030  )
         6           O1  tau(   6) = (   1.9868534   1.4903216   9.2879459  )
         7           Ti1 tau(   7) = (   3.3371032   3.0268772   9.1887580  )
         8           Ti1 tau(   8) = (   0.0611061   1.5258697   9.2809523  )
         9           O1  tau(   9) = (   3.3143856   0.0188946  11.3581724  )
        10           O1  tau(  10) = (   0.0164151   0.0031400  10.5895864  )
        11           O1  tau(  11) = (   1.3088961   1.4994640  12.6347600  )
        12           O1  tau(  12) = (   5.3347766   1.4946156  12.6347356  )
        13           Ti1 tau(  13) = (   0.0202478   3.0292801  12.5720800  )
        14           Ti1 tau(  14) = (   3.3188568   1.5851219  12.4260843  )
        15           O1  tau(  15) = (   0.0445434   5.9450813  14.6510506  )
        16           O1  tau(  16) = (   3.3207065   5.8849141  14.0104376  )
        17           O1  tau(  17) = (   4.6249962   1.5116716  16.1313945  )
        18           O1  tau(  18) = (   2.0639035   1.5439872  16.0680944  )
        19           Ti1 tau(  19) = (   3.3360141   2.9454253  15.6763505  )
        20           Ti1 tau(  20) = (   0.0686920   1.3314864  15.9334539  )
        21           O1  tau(  21) = (   3.2904802   0.0005063   4.7018136  )
        22           O1  tau(  22) = (   0.0979609   0.0039778  17.1657837  )
        23           O1  tau(  23) = (   1.3043587   1.4918075   6.0039043  )
        24           O1  tau(  24) = (   5.2767064   1.4903225   6.0039473  )
        25           Ti1 tau(  25) = (   0.0000382   5.9609847   6.0000000  )
        26           Ti1 tau(  26) = (   3.2902200   4.4714249   6.0002472  )
        27           O1  tau(  27) = (   0.0002396   2.9813036   7.9858123  )
        28           O1  tau(  28) = (   3.2902150   2.9813002   7.3038282  )
        29           O1  tau(  29) = (   4.5938453   4.4726049   9.2879030  )
        30           O1  tau(  30) = (   1.9864658   4.4711199   9.2879459  )
        31           Ti1 tau(  31) = (   3.3368545   0.0404040   9.1664313  )
        32           Ti1 tau(  32) = (   0.0604674   4.4799263   9.2696248  )
        33           O1  tau(  33) = (   3.3137611   2.9662427  11.3084074  )
        34           O1  tau(  34) = (   0.0134136   2.9850836  10.6046154  )
        35           O1  tau(  35) = (   1.3054726   4.4719986  12.6384794  )
        36           O1  tau(  36) = (   5.3362180   4.4781181  12.6390536  )
        37           Ti1 tau(  37) = (   0.0365240   0.0487139  12.4702884  )
        38           Ti1 tau(  38) = (   3.3180881   4.6653017  12.7087268  )
        39           O1  tau(  39) = (   0.0228105   2.9918545  14.7761892  )
        40           O1  tau(  40) = (   3.3431522   2.9700269  13.9040455  )
        41           O1  tau(  41) = (   4.6265974   4.4152401  16.1544535  )
        42           O1  tau(  42) = (   2.0571238   4.3592187  16.1146037  )
        43           Ti1 tau(  43) = (   3.3848590   5.9294639  16.2700006  )
        44           Ti1 tau(  44) = (   0.0517009   4.5268197  15.8466567  )
        45           O1  tau(  45) = (   3.2900926   2.9813045   4.7018136  )
        46           O1  tau(  46) = (   1.3039711   4.4726057   6.0039043  )
        47           O1  tau(  47) = (   5.2763189   4.4711207   6.0039473  )
        48           C1  tau(  48) = (   5.9450987   3.0517216  18.8599509  )
        49           O1  tau(  49) = (   0.1802289   3.0084098  17.6484507  )
        50           H1  tau(  50) = (   4.9625852   2.6832861  18.5889656  )
        51           H1  tau(  51) = (   1.1163247   3.1442434  17.8758057  )
        52           H1  tau(  52) = (   6.3899442   2.3914015  19.6026461  )
        53           H1  tau(  53) = (   5.8846647   4.0795385  19.2151274  )
        54           N1  tau(  54) = (   5.7598779   3.1323611  22.9045362  )
        55           N1  tau(  55) = (   4.9845974   3.1850264  22.1203839  )
        56           O1  tau(  56) = (   3.1567188   0.0118795  18.1166202  )
        57           H1  tau(  57) = (   2.2164505   0.0865285  18.3868412  )

     number of k points=    10  Fermi-Dirac smearing, width (Ry)=  0.0073
                       cart. coord. in units 2pi/alat
        k(    1) = (   0.0000000   0.0000000   0.0000000), wk =   0.1250000
        k(    2) = (   0.0000000   0.0419351   0.0000000), wk =   0.2500000
        k(    3) = (   0.0000000  -0.0838702   0.0000000), wk =   0.1250000
        k(    4) = (   0.0379955   0.0000049   0.0000000), wk =   0.2500000
        k(    5) = (   0.0379955   0.0419400   0.0000000), wk =   0.2500000
        k(    6) = (   0.0379955  -0.0838652   0.0000000), wk =   0.2500000
        k(    7) = (   0.0379955  -0.0419301   0.0000000), wk =   0.2500000
        k(    8) = (  -0.0759910  -0.0000099   0.0000000), wk =   0.1250000
        k(    9) = (  -0.0759910   0.0419252   0.0000000), wk =   0.2500000
        k(   10) = (  -0.0759910  -0.0838800   0.0000000), wk =   0.1250000

     Initial potential from superposition of free atoms

     starting charge  392.99914, renormalised to  409.00000

     negative rho (up, down):  9.138E-03 0.000E+00

     %%%%%%%%%%%%%%%%%%%%%%%%%%%%%%%%%%%%%%%%%%%%%%%%%%%%%%%%%%%%%%%%%%%%%%%%
     %                                                                      %
     % You are using vdW-DF, which was implemented by the Thonhauser group. %
     % Please cite the following two papers that made this development      %
     % possible and the two reviews that describe the various versions:     %
     %                                                                      %
     %   T. Thonhauser et al., PRL 115, 136402 (2015).                      %
     %   T. Thonhauser et al., PRB 76, 125112 (2007).                       %
     %   K. Berland et al., Rep. Prog. Phys. 78, 066501 (2015).             %
     %   D.C. Langreth et al., J. Phys.: Condens. Matter 21, 084203 (2009). %
     %                                                                      %
     %                                                                      %
     % If you are calculating the stress with vdW-DF, please also cite:     %
     %                                                                      %
     %   R. Sabatini et al., J. Phys.: Condens. Matter 24, 424209 (2012).   %
     %                                                                      %
     %%%%%%%%%%%%%%%%%%%%%%%%%%%%%%%%%%%%%%%%%%%%%%%%%%%%%%%%%%%%%%%%%%%%%%%%

     Adding external electric field

     Computed dipole along edir(3) :
        Dipole              -18.8687 Ry au,        -47.9594 Debye
        Dipole field         -0.0356 Ry au,

        Potential amp.        3.3008 Ry
        Total length         46.3494 bohr

     Starting wfcs are  309 atomic wfcs
  @ DRIVER MODE: Message from server: STATUS
  @ DRIVER MODE: Message from server: POSDATA
  @ DRIVER MODE: Reading and sharing cell
  @ DRIVER MODE: Reading and sharing positions
  @ DRIVER MODE: Received positions

     Self-consistent Calculation

     iteration #  1     ecut=    29.40 Ry     beta= 0.05
     Davidson diagonalization with overlap
     c_bands:  5 eigenvalues not converged
     c_bands:  5 eigenvalues not converged
     c_bands:  1 eigenvalues not converged
     c_bands:  4 eigenvalues not converged
     c_bands:  1 eigenvalues not converged
     c_bands:  3 eigenvalues not converged
     ethr =  1.00E-05,  avg # of iterations = 27.3

[...]

     total energy              =   -2113.22951971 Ry
     estimated scf accuracy    <   10331.00656938 Ry

     iteration #  2     ecut=    29.40 Ry     beta= 0.05
     Davidson diagonalization with overlap
     ethr =  1.00E-02,  avg # of iterations = 29.7

[...]

     iteration # 79     ecut=    29.40 Ry     beta= 0.05
     Davidson diagonalization with overlap
     c_bands:  1 eigenvalues not converged
     ethr =  6.03E-10,  avg # of iterations = 15.9

[...]

     total energy              =   -3006.45818834 Ry
     estimated scf accuracy    <       0.00000012 Ry

     iteration # 86     ecut=    29.40 Ry     beta= 0.05
     Davidson diagonalization with overlap
     ethr =  3.04E-11,  avg # of iterations =  7.2

     negative rho (up, down):  1.064E-02 0.000E+00

     Adding external electric field

     Computed dipole along edir(3) :
        Dipole                1.0528 Ry au,          2.6760 Debye
        Dipole field          0.0020 Ry au,

        Potential amp.       -0.1842 Ry
        Total length         46.3494 bohr

     End of self-consistent calculation

          k = 0.0000 0.0000 0.0000 ( 18029 PWs)   bands (ev):

   -55.3256 -55.2520 -55.2168 -55.1425 -55.1217 -55.0859 -55.0496 -55.0464
   -55.0439 -55.0242 -55.0141 -54.9842 -54.8972 -54.8206 -54.2114 -54.1774
   -31.7300 -31.7225 -31.6322 -31.6221 -31.5796 -31.5674 -31.5425 -31.5411
   -31.5062 -31.4948 -31.4836 -31.4197 -31.4057 -31.4052 -31.3787 -31.3607
   -31.3521 -31.3352 -31.3347 -31.3234 -31.3155 -31.3108 -31.2647 -31.2632
   -31.2607 -31.2539 -31.2513 -31.2380 -31.2319 -31.2138 -31.2063 -31.1957
   -31.1940 -31.1741 -31.1694 -31.1619 -31.1614 -31.1264 -31.0860 -31.0661
   -31.0350 -31.0246 -30.6175 -30.5313 -30.5087 -30.4346 -30.3483 -30.2366
   -21.5069 -19.7124 -16.0901 -15.9015 -15.7232 -15.5221 -15.4658 -15.3993
   -15.2123 -15.1388 -14.9829 -14.8586 -14.8426 -14.7869 -14.7862 -14.7753
   -14.7462 -14.7212 -14.6758 -14.6645 -14.6591 -14.6556 -14.5940 -14.5516
   -14.5496 -14.5218 -14.5009 -14.3741 -14.3270 -14.2724 -14.1014 -14.0821
   -12.7111 -12.5950 -10.5725  -6.6868  -6.4101  -4.6681  -4.6307  -4.5914
    -4.4087  -3.6262  -3.3710  -3.2531  -3.1528  -3.1340  -3.0699  -3.0186
    -2.8035  -2.6983  -2.6344  -2.5216  -2.3944  -2.3585  -2.3070  -2.2763
    -2.1843  -2.1664  -2.1346  -2.1048  -2.0498  -2.0212  -2.0134  -2.0011
    -1.9254  -1.9186  -1.7882  -1.7837  -1.7287  -1.6356  -1.6178  -1.5949
    -1.5876  -1.5534  -1.5509  -1.5084  -1.4850  -1.4607  -1.4325  -1.3574
    -1.3371  -1.2745  -1.2375  -1.0056  -0.8508  -0.8262  -0.7463  -0.7295
    -0.6990  -0.6701  -0.6496  -0.6398  -0.6015  -0.5859  -0.4837  -0.3797
    -0.3714  -0.3116  -0.2745  -0.2686  -0.1326  -0.0896  -0.0135   0.0090
     0.0410   0.0620   0.1464   0.1958   0.2180   0.2839   0.3142   0.4207
     0.4589   0.4775   0.5190   0.5740   0.6348   0.6672   0.7080   0.7113
     0.7440   0.7934   0.8216   0.8573   0.8789   0.9267   1.0297   1.0665
     1.0772   1.2165   1.2278   1.3104   1.4360   1.4876   1.7610   1.8135
     1.8602   2.0058   2.3823   2.4291   3.8720   3.9748   3.9956   4.0169
     4.0847   4.1665   4.3318   4.3547   4.4187   4.5202

[...]

          k = 0.0380-0.0419 0.0000 ( 17876 PWs)   bands (ev):

[...]

          k =-0.0760-0.0000 0.0000 ( 17886 PWs)   bands (ev):

[...]

          k =-0.0760-0.0839 0.0000 ( 17948 PWs)   bands (ev):

   -55.3248 -55.2389 -55.2297 -55.1366 -55.1173 -55.0916 -55.0505 -55.0448
   -55.0357 -55.0274 -55.0152 -54.9935 -54.8935 -54.8242 -54.1945 -54.1941
   -31.6420 -31.5755 -31.5657 -31.5499 -31.5409 -31.5403 -31.5351 -31.5191
   -31.4569 -31.4522 -31.4133 -31.3930 -31.3802 -31.3753 -31.3589 -31.3571
   -31.3531 -31.3522 -31.3442 -31.3385 -31.3336 -31.3313 -31.3161 -31.3137
   -31.2959 -31.2843 -31.2561 -31.2498 -31.2457 -31.2414 -31.2335 -31.2329
   -31.2258 -31.2209 -31.2170 -31.2126 -31.2101 -31.1713 -31.1529 -31.0901
   -31.0720 -31.0285 -30.5216 -30.5213 -30.4313 -30.4298 -30.3916 -30.3907
   -21.5068 -19.7086 -16.0615 -15.5346 -15.3774 -15.2063 -15.1926 -15.1129
   -15.0218 -15.0041 -14.9729 -14.9598 -14.9430 -14.9184 -14.9106 -14.8766
   -14.8122 -14.7704 -14.7472 -14.7389 -14.6919 -14.6867 -14.6832 -14.6203
   -14.6129 -14.5949 -14.5703 -14.5104 -14.5022 -14.4008 -14.3883 -14.2122
   -12.6972 -12.6965 -10.5746  -6.6871  -6.4119  -4.6637  -4.6375  -4.5790
    -4.4008  -3.5904  -3.3614  -2.6827  -2.5978  -2.5362  -2.4302  -2.3517
    -2.2984  -2.2486  -2.2275  -2.1825  -2.1614  -2.0918  -2.0573  -2.0485
    -2.0290  -2.0269  -1.9964  -1.9811  -1.9685  -1.9470  -1.9185  -1.9013
    -1.8908  -1.8698  -1.8499  -1.8241  -1.8120  -1.8021  -1.7871  -1.7712
    -1.6610  -1.6443  -1.6113  -1.4486  -1.4370  -1.3677  -1.3361  -1.3097
    -1.3063  -1.2758  -1.2607  -1.2192  -1.1144  -1.0857  -1.0368  -0.9960
    -0.9027  -0.8855  -0.8349  -0.7843  -0.7379  -0.7096  -0.6792  -0.6636
    -0.6098  -0.4715  -0.4510  -0.4060  -0.2868  -0.2133  -0.1976  -0.1851
    -0.1635  -0.1403  -0.0941  -0.0855  -0.0237  -0.0119   0.0585   0.0631
     0.0928   0.1145   0.2169   0.3386   0.4176   0.4612   0.5061   0.5557
     0.5885   0.6688   0.7477   0.8342   0.9099   0.9399   0.9537   1.0714
     1.1031   1.1557   1.2017   1.2227   1.2809   1.3168   1.3568   1.3899
     2.1745   2.1882   2.2445   2.2501   4.0528   4.3030   4.3629   4.3799
     4.3897   4.4219   4.4430   4.4944   4.5116   4.5348

     the Fermi energy is     3.8822 ev

!    total energy              =   -3006.45819560 Ry
     estimated scf accuracy    <       0.00000007 Ry
     smearing contrib. (-TS)   =      -0.02082594 Ry
     internal energy E=F+TS    =   -3006.43736966 Ry

     The total energy is F=E-TS. E is the sum of the following terms:
     one-electron contribution =  -22317.75507882 Ry
     hartree contribution      =   11258.41564167 Ry
     xc contribution           =    -501.13815758 Ry
     ewald contribution        =    8554.03813330 Ry
     electric field correction =       0.00209176 Ry

     convergence has been achieved in  86 iterations

     Forces acting on atoms (cartesian axes, Ry/au):

     atom    1 type  1   force =    -0.00037094   -0.00017000    0.09498287
     atom    2 type  1   force =    -0.00035188    0.00512577   -0.17481950
     atom    3 type  2   force =     0.00071064    0.00013098   -0.02672707
     atom    4 type  2   force =     0.00129007    0.00083121    0.05206498
     atom    5 type  2   force =    -0.01095485   -0.00256217    0.00077645
     atom    6 type  2   force =     0.01192963   -0.00381181    0.00178756
     atom    7 type  1   force =    -0.00021449    0.00039431    0.00067561
     atom    8 type  1   force =     0.00014515    0.00022389    0.00016392
     atom    9 type  2   force =     0.00025002    0.00077461   -0.00069838
     atom   10 type  2   force =    -0.00039006    0.00016270    0.00014181
     atom   11 type  2   force =     0.00043884   -0.00014943    0.00012393
     atom   12 type  2   force =    -0.00084105   -0.00014844    0.00037156
     atom   13 type  1   force =     0.00043690    0.00035440   -0.00027154
     atom   14 type  1   force =    -0.00033048   -0.00076782    0.00093548
     atom   15 type  2   force =    -0.00012791   -0.00052983   -0.00092684
     atom   16 type  2   force =    -0.00025911   -0.00003227   -0.00050652
     atom   17 type  2   force =    -0.00084688    0.00049034   -0.00024934
     atom   18 type  2   force =     0.00047721    0.00052833    0.00021019
     atom   19 type  1   force =     0.00050809   -0.00082996    0.00014934
     atom   20 type  1   force =    -0.00043129    0.00018656    0.00029973
     atom   21 type  2   force =    -0.00000433    0.00007351    0.10300704
     atom   22 type  2   force =     0.00018666   -0.00016836    0.00118466
     atom   23 type  2   force =    -0.07194521    0.00013616   -0.02802587
     atom   24 type  2   force =     0.07178192    0.00063408   -0.02813074
     atom   25 type  1   force =    -0.00036405    0.00025736    0.10243209
     atom   26 type  1   force =    -0.00010809   -0.00474570   -0.17506989
     atom   27 type  2   force =     0.00084946    0.00117138   -0.02484875
     atom   28 type  2   force =     0.00119623    0.00025271    0.05170201
     atom   29 type  2   force =    -0.01191284    0.00381456    0.00172059
     atom   30 type  2   force =     0.01375661    0.00146401    0.00245211
     atom   31 type  1   force =    -0.00029114   -0.00015990    0.00082958
     atom   32 type  1   force =     0.00028705    0.00028291    0.00059984
     atom   33 type  2   force =     0.00000702    0.00020550    0.00006372
     atom   34 type  2   force =    -0.00027313   -0.00032309   -0.00056320
     atom   35 type  2   force =    -0.00024303    0.00004510   -0.00046038
     atom   36 type  2   force =    -0.00036154    0.00009019   -0.00008055
     atom   37 type  1   force =    -0.00006007   -0.00035720    0.00000863
     atom   38 type  1   force =    -0.00055824    0.00036783    0.00006883
     atom   39 type  2   force =    -0.00021070   -0.00023918    0.00084268
     atom   40 type  2   force =    -0.00021233    0.00011046    0.00036341
     atom   41 type  2   force =    -0.00127439   -0.00041626   -0.00027862
     atom   42 type  2   force =     0.00107481    0.00004580   -0.00019194
     atom   43 type  1   force =     0.00041579    0.00049781   -0.00073786
     atom   44 type  1   force =    -0.00025327    0.00003184    0.00000915
     atom   45 type  2   force =     0.00000300    0.00013749    0.10256251
     atom   46 type  2   force =    -0.07183747   -0.00062635   -0.02797174
     atom   47 type  2   force =     0.07169705   -0.00013469   -0.02804601
     atom   48 type  3   force =    -0.00033974   -0.00013239    0.00002824
     atom   49 type  2   force =    -0.00117011   -0.00078298    0.00023071
     atom   50 type  4   force =    -0.00005603   -0.00045203   -0.00021196
     atom   51 type  4   force =     0.00034152    0.00038594   -0.00069714
     atom   52 type  4   force =    -0.00020692    0.00007934   -0.00046874
     atom   53 type  4   force =    -0.00002559   -0.00040127   -0.00107484
     atom   54 type  5   force =     0.00009741   -0.00007179    0.00029897
     atom   55 type  5   force =    -0.00049474    0.00005811   -0.00031343
     atom   56 type  2   force =    -0.01685687    0.00078317    0.00613600
     atom   57 type  4   force =     0.01629769   -0.00211543   -0.00585334

     Total force =     0.365647     Total SCF correction =     0.000867
  @ DRIVER MODE: Message from server: STATUS
  @ DRIVER MODE: Message from server: GETFORCE
  @ DRIVER MODE: Returning v,forces,stress,ensemble

     Writing output data file ./calc.save/
  @ DRIVER MODE: Message from server: EXIT
  @ DRIVE MODE: Exiting

     General routines

     Parallel routines

   This run was terminated on:  21:13:53  26Sep2021

   JOB DONE.