     Program PWSCF v.6.7GPU starts on 23Sep2021 at  4: 8:30

     R & G space division:  proc/nbgrp/npool/nimage =      10
     Reading input from /storage/home/hcoda1/3/ntian30/research/carbon/CxH_vib/H2O_calc/ads_slab/CH2NHNHH2O_b/out_0034/pw.inp
Warning: card &CELL ignored
Warning: card   CELL_DYNAMICS='IPI', ignored
Warning: card / ignored

     Current dimensions of program PWSCF are:
     Max number of different atomic species (ntypx) = 10
     Max number of k-points (npk) =  40000
     Max angular momentum in pseudopotentials (lmaxx) =  3
     Presently no symmetry can be used with electric field

     Message from routine cell_base_init:
     DEPRECATED: use true lattice parameter, not A to a.u. conversion factor

     IMPORTANT: XC functional enforced from input :
     Exchange-correlation= BEEF-VDW
                           (   1   4  43  14   2   0   0)
     Any further DFT definition will be discarded
     Please, verify this is what you really want

  @ DRIVER MODE: Connecting to
 qe_1139763_2937310.sched-torque.pace.gatech.edu1hvi44mq_scratch
  using UNIX socket
  @ DRIVER MODE: Message from server: STATUS
  @ DRIVER MODE: Message from server: INIT
  @ DRIVER MODE: Receiving replica           0          -1
  @ DRIVER MODE: Receiving encoded integer          25
  @ DRIVER MODE:  SCF:  T  FORCE:  T  STRESS:  F  VC:  F  ENSEMBLE:  F
  @ DRIVER MODE:  SCF:  T  FORCE:  T  STRESS:  F  VC:  F  ENSEMBLE:  F

     Using Slab Decomposition

     bravais-lattice index     =            0
     lattice parameter (alat)  =       1.8897  a.u.
     unit-cell volume          =    6658.9804 (a.u.)^3
     number of atoms/cell      =           57
     number of atomic types    =            5
     number of electrons       =       404.00
     number of Kohn-Sham states=          212
     kinetic-energy cutoff     =      29.3995  Ry
     charge density cutoff     =     293.9946  Ry
     scf convergence threshold =      7.3E-08
     mixing beta               =       0.0500
     number of iterations used =            8  plain     mixing
     Exchange-correlation= BEEF-VDW
                           (   1   4  43  14   2   0   0)

     celldm(1)=   1.889726  celldm(2)=   0.000000  celldm(3)=   0.000000
     celldm(4)=   0.000000  celldm(5)=   0.000000  celldm(6)=   0.000000

     crystal axes: (cart. coord. in units of alat)
               a(1) = (   6.579727   0.000000   0.000000 )
               a(2) = (  -0.000775   5.961596   0.000000 )
               a(3) = (   0.000000   0.000000  25.155947 )

     reciprocal axes: (cart. coord. in units 2 pi/alat)
               b(1) = (  0.151982  0.000020  0.000000 )
               b(2) = (  0.000000  0.167740  0.000000 )
               b(3) = (  0.000000  0.000000  0.039752 )

     PseudoPot. # 1 for Ti read from file:
     /storage/coda1/p-amedford6/0/shared/rich_project_chbe-medford/medford-share/data/pseudos_module/espresso/nninc/pbe/van/Ti.UPF
     MD5 check sum: 8e4df49b7f0d34bbd5052bf3f5ea0213
     Pseudo is Ultrasoft, Zval = 12.0
     Generated by new atomic code, or converted to UPF format
     Using radial grid of  851 points,  6 beta functions with:
                l(1) =   0
                l(2) =   0
                l(3) =   1
                l(4) =   1
                l(5) =   2
                l(6) =   2
     Q(r) pseudized with  8 coefficients,  rinner =    1.000   1.000   1.000
                                                       1.000   1.000

     PseudoPot. # 2 for O  read from file:
     /storage/coda1/p-amedford6/0/shared/rich_project_chbe-medford/medford-share/data/pseudos_module/espresso/nninc/pbe/van/O.UPF
     MD5 check sum: 78c19812648e8988a0fe644b0f25305e
     Pseudo is Ultrasoft, Zval =  6.0
     Generated by new atomic code, or converted to UPF format
     Using radial grid of  737 points,  4 beta functions with:
                l(1) =   0
                l(2) =   0
                l(3) =   1
                l(4) =   1
     Q(r) pseudized with  8 coefficients,  rinner =    0.800   0.800   0.800

     PseudoPot. # 3 for N  read from file:
     /storage/coda1/p-amedford6/0/shared/rich_project_chbe-medford/medford-share/data/pseudos_module/espresso/nninc/pbe/van/N.UPF
     MD5 check sum: 90d10febe142ad51ac9d5be1deb811c4
     Pseudo is Ultrasoft, Zval =  5.0
     Generated by new atomic code, or converted to UPF format
     Using radial grid of  729 points,  4 beta functions with:
                l(1) =   0
                l(2) =   0
                l(3) =   1
                l(4) =   1
     Q(r) pseudized with  8 coefficients,  rinner =    0.800   0.800   0.800

     PseudoPot. # 4 for C  read from file:
     /storage/coda1/p-amedford6/0/shared/rich_project_chbe-medford/medford-share/data/pseudos_module/espresso/nninc/pbe/van/C.UPF
     MD5 check sum: 1a69bf6b8db32088f5b2163dbdb77a27
     Pseudo is Ultrasoft, Zval =  4.0
     Generated by new atomic code, or converted to UPF format
     Using radial grid of  721 points,  4 beta functions with:
                l(1) =   0
                l(2) =   0
                l(3) =   1
                l(4) =   1
     Q(r) pseudized with  8 coefficients,  rinner =    0.800   0.800   0.800

     PseudoPot. # 5 for H  read from file:
     /storage/coda1/p-amedford6/0/shared/rich_project_chbe-medford/medford-share/data/pseudos_module/espresso/nninc/pbe/van/H.UPF
     MD5 check sum: b5ee9d7bfd3a09ee7748110bda690ff7
     Pseudo is Ultrasoft, Zval =  1.0
     Generated by new atomic code, or converted to UPF format
     Using radial grid of  615 points,  1 beta functions with:
                l(1) =   0
     Q(r) pseudized with  8 coefficients,  rinner =    0.800

     atomic species   valence    mass     pseudopotential
        Ti1           12.00    47.86700     Ti( 1.00)
        O1             6.00    15.99900     O ( 1.00)
        N1             5.00    14.00700     N ( 1.00)
        C1             4.00    12.01100     C ( 1.00)
        H1             1.00     1.00800     H ( 1.00)

     No symmetry found

   Cartesian axes

     site n.     atom                  positions (alat units)
         1           Ti1 tau(   1) = (   0.0004258   2.9801865   6.0000000  )
         2           Ti1 tau(   2) = (   3.2906075   1.4906267   6.0002472  )
         3           O1  tau(   3) = (   0.0006271   0.0005054   7.9858123  )
         4           O1  tau(   4) = (   3.2906025   0.0005020   7.3038282  )
         5           O1  tau(   5) = (   4.5942328   1.4918067   9.2879030  )
         6           O1  tau(   6) = (   1.9868534   1.4903216   9.2879459  )
         7           Ti1 tau(   7) = (   3.2907910   2.8959150   9.1758416  )
         8           Ti1 tau(   8) = (   0.0015273   1.4827037   9.2680791  )
         9           O1  tau(   9) = (   3.2740695   5.9399032  11.3612631  )
        10           O1  tau(  10) = (   0.0116148   5.9584955  10.6183126  )
        11           O1  tau(  11) = (   1.2665466   1.4659349  12.6457467  )
        12           O1  tau(  12) = (   5.2636777   1.4644475  12.6520517  )
        13           Ti1 tau(  13) = (   0.0254019   2.9535957  12.5508080  )
        14           Ti1 tau(  14) = (   3.3235577   1.4585364  12.5144190  )
        15           O1  tau(  15) = (   0.0066209   5.9388471  14.7046414  )
        16           O1  tau(  16) = (   3.2471877   5.9405099  14.0100224  )
        17           O1  tau(  17) = (   4.5302733   1.5208160  16.0462967  )
        18           O1  tau(  18) = (   1.9955500   1.4995475  16.2009832  )
        19           Ti1 tau(  19) = (   3.2567830   2.9699832  15.6929747  )
        20           Ti1 tau(  20) = (   6.4949666   1.4732860  15.8443191  )
        21           O1  tau(  21) = (   3.2904802   0.0005063   4.7018136  )
        22           O1  tau(  22) = (   6.4419287   5.8812218  17.2824568  )
        23           O1  tau(  23) = (   1.3043587   1.4918075   6.0039043  )
        24           O1  tau(  24) = (   5.2767064   1.4903225   6.0039473  )
        25           Ti1 tau(  25) = (   0.0000382   5.9609847   6.0000000  )
        26           Ti1 tau(  26) = (   3.2902200   4.4714249   6.0002472  )
        27           O1  tau(  27) = (   0.0002396   2.9813036   7.9858123  )
        28           O1  tau(  28) = (   3.2902150   2.9813002   7.3038282  )
        29           O1  tau(  29) = (   4.5938453   4.4726049   9.2879030  )
        30           O1  tau(  30) = (   1.9864658   4.4711199   9.2879459  )
        31           Ti1 tau(  31) = (   3.2891106   5.8743827   9.1763621  )
        32           Ti1 tau(  32) = (   0.0006254   4.4649316   9.2693709  )
        33           O1  tau(  33) = (   3.2800166   2.9600013  11.3546200  )
        34           O1  tau(  34) = (   0.0092240   2.9805883  10.6323155  )
        35           O1  tau(  35) = (   1.2663080   4.4508225  12.6496728  )
        36           O1  tau(  36) = (   5.2650692   4.4524444  12.6537221  )
        37           Ti1 tau(  37) = (   0.0180281   5.9297397  12.5120547  )
        38           Ti1 tau(  38) = (   3.3242103   4.4456960  12.5094407  )
        39           O1  tau(  39) = (   0.0028395   2.9305241  14.7702868  )
        40           O1  tau(  40) = (   3.2369197   2.9632653  13.9133312  )
        41           O1  tau(  41) = (   4.5259019   4.3784886  16.1008109  )
        42           O1  tau(  42) = (   2.0017919   4.4285960  16.1845674  )
        43           Ti1 tau(  43) = (   3.2453488   5.9423767  15.8283900  )
        44           Ti1 tau(  44) = (   6.5728488   4.6138345  16.0446011  )
        45           O1  tau(  45) = (   3.2900926   2.9813045   4.7018136  )
        46           O1  tau(  46) = (   1.3039711   4.4726057   6.0039043  )
        47           O1  tau(  47) = (   5.2763189   4.4711207   6.0039473  )
        48           N1  tau(  48) = (   0.9567011   2.5879941  18.4848429  )
        49           N1  tau(  49) = (   6.5185693   2.8362889  17.6364570  )
        50           C1  tau(  50) = (   1.0658718   2.8740630  19.7563100  )
        51           H1  tau(  51) = (   1.9437682   2.5238050  20.2723566  )
        52           H1  tau(  52) = (   0.2809834   3.4210577  20.2544045  )
        53           H1  tau(  53) = (   1.7014144   2.0756717  17.9989220  )
        54           H1  tau(  54) = (   5.6742842   3.0275795  18.1730567  )
        55           O1  tau(  55) = (   3.7618585   0.1297276  18.3074903  )
        56           H1  tau(  56) = (   4.7330396   0.0541995  18.1289380  )
        57           H1  tau(  57) = (   3.4892521   5.2388606  18.6788193  )

     number of k points=    10  Fermi-Dirac smearing, width (Ry)=  0.0073
                       cart. coord. in units 2pi/alat
        k(    1) = (   0.0000000   0.0000000   0.0000000), wk =   0.1250000
        k(    2) = (   0.0000000   0.0419351   0.0000000), wk =   0.2500000
        k(    3) = (   0.0000000  -0.0838702   0.0000000), wk =   0.1250000
        k(    4) = (   0.0379955   0.0000049   0.0000000), wk =   0.2500000
        k(    5) = (   0.0379955   0.0419400   0.0000000), wk =   0.2500000
        k(    6) = (   0.0379955  -0.0838652   0.0000000), wk =   0.2500000
        k(    7) = (   0.0379955  -0.0419301   0.0000000), wk =   0.2500000
        k(    8) = (  -0.0759910  -0.0000099   0.0000000), wk =   0.1250000
        k(    9) = (  -0.0759910   0.0419252   0.0000000), wk =   0.2500000
        k(   10) = (  -0.0759910  -0.0838800   0.0000000), wk =   0.1250000

     Initial potential from superposition of free atoms

     starting charge  387.99913, renormalised to  404.00000

     negative rho (up, down):  1.394E-02 0.000E+00

     %%%%%%%%%%%%%%%%%%%%%%%%%%%%%%%%%%%%%%%%%%%%%%%%%%%%%%%%%%%%%%%%%%%%%%%%
     %                                                                      %
     % You are using vdW-DF, which was implemented by the Thonhauser group. %
     % Please cite the following two papers that made this development      %
     % possible and the two reviews that describe the various versions:     %
     %                                                                      %
     %   T. Thonhauser et al., PRL 115, 136402 (2015).                      %
     %   T. Thonhauser et al., PRB 76, 125112 (2007).                       %
     %   K. Berland et al., Rep. Prog. Phys. 78, 066501 (2015).             %
     %   D.C. Langreth et al., J. Phys.: Condens. Matter 21, 084203 (2009). %
     %                                                                      %
     %                                                                      %
     % If you are calculating the stress with vdW-DF, please also cite:     %
     %                                                                      %
     %   R. Sabatini et al., J. Phys.: Condens. Matter 24, 424209 (2012).   %
     %                                                                      %
     %%%%%%%%%%%%%%%%%%%%%%%%%%%%%%%%%%%%%%%%%%%%%%%%%%%%%%%%%%%%%%%%%%%%%%%%

     Adding external electric field

     Computed dipole along edir(3) :
        Dipole              -14.1772 Ry au,        -36.0349 Debye
        Dipole field         -0.0268 Ry au,

        Potential amp.        2.4801 Ry
        Total length         46.3494 bohr

     Starting wfcs are  306 atomic wfcs
  @ DRIVER MODE: Message from server: STATUS
  @ DRIVER MODE: Message from server: POSDATA
  @ DRIVER MODE: Reading and sharing cell
  @ DRIVER MODE: Reading and sharing positions
  @ DRIVER MODE: Received positions

     Self-consistent Calculation

     iteration #  1     ecut=    29.40 Ry     beta= 0.05
     Davidson diagonalization with overlap
     c_bands:  4 eigenvalues not converged
     c_bands:  5 eigenvalues not converged
     c_bands:  2 eigenvalues not converged
     c_bands:  2 eigenvalues not converged
     c_bands:  1 eigenvalues not converged
     c_bands:  1 eigenvalues not converged
     c_bands:  4 eigenvalues not converged
     c_bands:  1 eigenvalues not converged
     c_bands:  1 eigenvalues not converged
     ethr =  1.00E-05,  avg # of iterations = 28.9

[...]

     total energy              =   -2249.23688325 Ry
     estimated scf accuracy    <    8255.78686788 Ry

     iteration #  2     ecut=    29.40 Ry     beta= 0.05
     Davidson diagonalization with overlap
     ethr =  1.00E-02,  avg # of iterations = 27.1

[...]

     iteration # 72     ecut=    29.40 Ry     beta= 0.05
     Davidson diagonalization with overlap
     ethr =  4.11E-11,  avg # of iterations =  3.9

[...]

     total energy              =   -2975.20159844 Ry
     estimated scf accuracy    <       0.00000009 Ry

     iteration # 73     ecut=    29.40 Ry     beta= 0.05
     Davidson diagonalization with overlap
     c_bands:  1 eigenvalues not converged
     ethr =  2.24E-11,  avg # of iterations = 13.5

     negative rho (up, down):  1.355E-02 0.000E+00

     Adding external electric field

     Computed dipole along edir(3) :
        Dipole                1.4227 Ry au,          3.6162 Debye
        Dipole field          0.0027 Ry au,

        Potential amp.       -0.2489 Ry
        Total length         46.3494 bohr

     End of self-consistent calculation

          k = 0.0000 0.0000 0.0000 ( 18029 PWs)   bands (ev):

   -55.1452 -55.1170 -55.1085 -55.0829 -55.0800 -55.0311 -54.9892 -54.9566
   -54.9415 -54.9253 -54.9213 -54.9176 -54.9084 -54.8359 -54.1295 -54.0955
   -31.7081 -31.6068 -31.5243 -31.4809 -31.4605 -31.4558 -31.4457 -31.4436
   -31.4066 -31.3863 -31.3645 -31.3611 -31.3446 -31.3226 -31.3057 -31.2920
   -31.2863 -31.2698 -31.2669 -31.2577 -31.2284 -31.2151 -31.2112 -31.1863
   -31.1791 -31.1740 -31.1642 -31.1582 -31.1569 -31.1497 -31.1381 -31.1361
   -31.1142 -31.1058 -31.1018 -31.0932 -31.0852 -31.0728 -31.0703 -31.0522
   -31.0496 -31.0158 -30.5381 -30.4460 -30.4238 -30.3546 -30.2679 -30.1570
   -19.2742 -18.5897 -15.9621 -15.6972 -15.5661 -15.4006 -15.3370 -15.1657
   -15.0851 -15.0198 -14.9344 -14.8749 -14.8608 -14.8552 -14.7634 -14.7452
   -14.6924 -14.6800 -14.6733 -14.6424 -14.6342 -14.5766 -14.5720 -14.5667
   -14.5329 -14.5200 -14.4903 -14.3724 -14.2917 -14.2350 -14.0237 -13.6749
   -12.6319 -12.5148 -10.0448  -6.8346  -6.4874  -6.3639  -4.0726  -3.9122
    -3.3137  -3.1728  -3.1522  -3.0697  -3.0460  -2.9234  -2.8672  -2.7064
    -2.5998  -2.5009  -2.4108  -2.3412  -2.3332  -2.3049  -2.1890  -2.1259
    -2.0798  -2.0365  -2.0180  -2.0050  -1.9568  -1.9208  -1.9184  -1.8515
    -1.8499  -1.7124  -1.6191  -1.6140  -1.5796  -1.5636  -1.4749  -1.4518
    -1.4423  -1.4365  -1.4300  -1.4225  -1.3882  -1.3440  -1.3187  -1.2356
    -1.1816  -1.1383  -1.0070  -0.9046  -0.8316  -0.7748  -0.6864  -0.6831
    -0.6155  -0.5497  -0.5356  -0.5339  -0.4734  -0.3521  -0.3058  -0.2554
    -0.2344  -0.2089  -0.1200  -0.1029  -0.0330   0.0398   0.0681   0.0781
     0.0997   0.2732   0.2813   0.3101   0.3287   0.4187   0.4707   0.5128
     0.5190   0.5415   0.6076   0.6462   0.7376   0.7851   0.7959   0.8165
     0.8381   0.8777   0.9544   0.9644   1.0052   1.0285   1.1696   1.2052
     1.2585   1.4749   1.4769   1.8061   1.8462   1.8932   2.0794   2.4675
     2.5149   3.9541   4.0439   4.0830   4.0848   4.1036   4.1893   4.3224
     4.4353   4.4457   4.4580   4.4799

[...]

          k = 0.0380-0.0419 0.0000 ( 17876 PWs)   bands (ev):

[...]

          k =-0.0760-0.0000 0.0000 ( 17886 PWs)   bands (ev):

[...]

          k =-0.0760-0.0839 0.0000 ( 17948 PWs)   bands (ev):

   -55.1304 -55.1231 -55.1001 -55.0996 -55.0781 -55.0221 -54.9982 -54.9416
   -54.9353 -54.9267 -54.9257 -54.9250 -54.9144 -54.8394 -54.1125 -54.1124
   -31.5166 -31.5083 -31.4230 -31.4222 -31.4217 -31.4061 -31.3922 -31.3917
   -31.3676 -31.3652 -31.3603 -31.3537 -31.3426 -31.3122 -31.2824 -31.2756
   -31.2750 -31.2744 -31.2702 -31.2645 -31.2575 -31.2392 -31.2253 -31.2227
   -31.2196 -31.2195 -31.2190 -31.1975 -31.1749 -31.1663 -31.1644 -31.1554
   -31.1495 -31.1470 -31.1450 -31.1436 -31.1419 -31.1125 -31.1063 -31.1048
   -31.0899 -31.0597 -30.4365 -30.4364 -30.3508 -30.3506 -30.3113 -30.3112
   -19.2716 -18.5892 -15.4562 -15.2993 -15.2861 -15.1345 -15.1203 -15.1120
   -15.0873 -15.0122 -14.9923 -14.9282 -14.9166 -14.8726 -14.8465 -14.8334
   -14.8227 -14.7292 -14.7219 -14.7156 -14.6997 -14.6492 -14.6371 -14.6200
   -14.5967 -14.5926 -14.5558 -14.4913 -14.4881 -14.4558 -14.2247 -13.6859
   -12.6165 -12.6162 -10.0477  -6.8284  -6.4904  -6.3561  -4.0467  -3.9013
    -2.9342  -2.7213  -2.5314  -2.5080  -2.4676  -2.3677  -2.3267  -2.2859
    -2.1896  -2.1405  -2.1247  -2.1029  -2.0890  -2.0297  -2.0253  -2.0228
    -1.9866  -1.9783  -1.9640  -1.9391  -1.9165  -1.8828  -1.8689  -1.8582
    -1.8454  -1.8063  -1.7865  -1.7582  -1.7452  -1.7159  -1.6995  -1.6301
    -1.5261  -1.4961  -1.4427  -1.3504  -1.3319  -1.3261  -1.2411  -1.2083
    -1.1953  -1.1800  -1.1661  -1.1042  -0.9691  -0.8804  -0.8703  -0.8182
    -0.7529  -0.7190  -0.6765  -0.6491  -0.6213  -0.5673  -0.5178  -0.4936
    -0.4201  -0.3667  -0.3605  -0.3281  -0.1821  -0.1583  -0.1110  -0.1088
    -0.0943  -0.0854   0.0043   0.0209   0.0654   0.0851   0.1250   0.1435
     0.2164   0.2331   0.3525   0.4221   0.4842   0.5903   0.7318   0.7444
     0.8162   0.8773   0.9163   0.9821   1.0397   1.0733   1.1553   1.1654
     1.1815   1.2830   1.3324   1.3390   1.3559   2.2518   2.2534   2.3348
     2.3350   4.1167   4.1389   4.2284   4.2421   4.2943   4.3770   4.4665
     4.4930   4.5278   4.5320   4.6105

     the Fermi energy is     4.0024 ev

!    total energy              =   -2975.20162622 Ry
     estimated scf accuracy    <       0.00000006 Ry
     smearing contrib. (-TS)   =      -0.03820384 Ry
     internal energy E=F+TS    =   -2975.16342239 Ry

     The total energy is F=E-TS. E is the sum of the following terms:
     one-electron contribution =  -23646.37357411 Ry
     hartree contribution      =   11921.35009886 Ry
     xc contribution           =    -494.97871072 Ry
     ewald contribution        =    9244.83494383 Ry
     electric field correction =       0.00381976 Ry

     convergence has been achieved in  73 iterations

     Forces acting on atoms (cartesian axes, Ry/au):

     atom    1 type  1   force =     0.00013791   -0.00013261    0.09423256
     atom    2 type  1   force =    -0.00023366   -0.00026396   -0.17729470
     atom    3 type  2   force =     0.00001711   -0.00026247   -0.02170337
     atom    4 type  2   force =    -0.00004319   -0.00184562    0.05694806
     atom    5 type  2   force =    -0.01106872   -0.00171778    0.00687098
     atom    6 type  2   force =     0.01215662   -0.00091211    0.00493728
     atom    7 type  1   force =    -0.00121982    0.00155950   -0.01218667
     atom    8 type  1   force =     0.00073167    0.00495261    0.00603816
     atom    9 type  2   force =     0.00026805    0.00050176    0.00031664
     atom   10 type  2   force =    -0.00307119   -0.00067261   -0.00505314
     atom   11 type  2   force =     0.00080191    0.00021328   -0.00023694
     atom   12 type  2   force =    -0.00005967    0.00051010    0.00001404
     atom   13 type  1   force =    -0.00022050    0.00010518   -0.00007953
     atom   14 type  1   force =    -0.00001171    0.00011949   -0.00007554
     atom   15 type  2   force =    -0.00006981    0.00003339    0.00027031
     atom   16 type  2   force =     0.00041231    0.00034153   -0.00014674
     atom   17 type  2   force =     0.00019194   -0.00008866    0.00032504
     atom   18 type  2   force =     0.00021187   -0.00006831   -0.00010894
     atom   19 type  1   force =     0.00026776    0.00019902   -0.00018458
     atom   20 type  1   force =     0.00016315    0.00041812    0.00021864
     atom   21 type  2   force =     0.00004867    0.00002464    0.10364318
     atom   22 type  2   force =     0.00052522   -0.00009076   -0.00021895
     atom   23 type  2   force =    -0.07082068   -0.00008628   -0.02718856
     atom   24 type  2   force =     0.07065639    0.00039684   -0.02722727
     atom   25 type  1   force =    -0.00006954   -0.00028509    0.09393495
     atom   26 type  1   force =    -0.00031567   -0.00035942   -0.17746931
     atom   27 type  2   force =     0.00000789   -0.00023180   -0.02074303
     atom   28 type  2   force =     0.00003499   -0.00148804    0.05597719
     atom   29 type  2   force =    -0.01134250   -0.00053333    0.00690431
     atom   30 type  2   force =     0.01230311   -0.00025529    0.00492390
     atom   31 type  1   force =    -0.00121815    0.00505822   -0.01496972
     atom   32 type  1   force =     0.00092565   -0.00600876    0.00587148
     atom   33 type  2   force =     0.00035459   -0.00013107    0.00010625
     atom   34 type  2   force =    -0.00260961   -0.00151778   -0.00576478
     atom   35 type  2   force =     0.00036349    0.00030148   -0.00030427
     atom   36 type  2   force =     0.00044618    0.00040670   -0.00006698
     atom   37 type  1   force =    -0.00016422   -0.00014459   -0.00016958
     atom   38 type  1   force =     0.00005546    0.00033160    0.00045993
     atom   39 type  2   force =     0.00006848    0.00088179   -0.00076892
     atom   40 type  2   force =     0.00004333   -0.00007580    0.00003161
     atom   41 type  2   force =     0.00091256    0.00041030    0.00054911
     atom   42 type  2   force =    -0.00080566    0.00015750   -0.00004310
     atom   43 type  1   force =     0.00035568   -0.00056111    0.00016663
     atom   44 type  1   force =     0.00011087    0.00007629   -0.00055941
     atom   45 type  2   force =     0.00001779   -0.00002365    0.10364018
     atom   46 type  2   force =    -0.07080857   -0.00000869   -0.02720201
     atom   47 type  2   force =     0.07063757    0.00039706   -0.02719457
     atom   48 type  3   force =    -0.00539261    0.00456102    0.00293241
     atom   49 type  3   force =     0.00001170    0.00013742   -0.00078500
     atom   50 type  4   force =     0.00022854   -0.00017418    0.00045345
     atom   51 type  5   force =    -0.00004229    0.00001371    0.00013523
     atom   52 type  5   force =     0.00024544   -0.00088272   -0.00017786
     atom   53 type  5   force =     0.00428237   -0.00363979   -0.00233314
     atom   54 type  5   force =     0.00096971    0.00034592    0.00017921
     atom   55 type  2   force =     0.00015076    0.00016894    0.00001378
     atom   56 type  5   force =     0.00068545   -0.00020699   -0.00052316
     atom   57 type  5   force =    -0.00021439    0.00004591    0.00068526

     Total force =     0.365775     Total SCF correction =     0.000777
  @ DRIVER MODE: Message from server: STATUS
  @ DRIVER MODE: Message from server: GETFORCE
  @ DRIVER MODE: Returning v,forces,stress,ensemble

     Writing output data file ./calc.save/
  @ DRIVER MODE: Message from server: EXIT
  @ DRIVE MODE: Exiting

     General routines

     Parallel routines

   This run was terminated on:   4:29:20  23Sep2021

   JOB DONE.