     Program PWSCF v.6.7GPU starts on 23Sep2021 at 13: 6:28

     R & G space division:  proc/nbgrp/npool/nimage =       8
     Reading input from /storage/home/hcoda1/3/ntian30/research/carbon/CxH_vib/H2O_calc/ads_slab/CH2NHHO_a/out_0038/pw.inp
Warning: card &CELL ignored
Warning: card   CELL_DYNAMICS='IPI', ignored
Warning: card / ignored

     Current dimensions of program PWSCF are:
     Max number of different atomic species (ntypx) = 10
     Max number of k-points (npk) =  40000
     Max angular momentum in pseudopotentials (lmaxx) =  3
     Presently no symmetry can be used with electric field

     Message from routine cell_base_init:
     DEPRECATED: use true lattice parameter, not A to a.u. conversion factor

     IMPORTANT: XC functional enforced from input :
     Exchange-correlation= BEEF-VDW
                           (   1   4  43  14   2   0   0)
     Any further DFT definition will be discarded
     Please, verify this is what you really want

  @ DRIVER MODE: Connecting to
 qe_1139763_2941012.sched-torque.pace.gatech.edu0nhm4ofv_scratch
  using UNIX socket
  @ DRIVER MODE: Message from server: STATUS
  @ DRIVER MODE: Message from server: INIT
  @ DRIVER MODE: Receiving replica           0          -1
  @ DRIVER MODE: Receiving encoded integer          25
  @ DRIVER MODE:  SCF:  T  FORCE:  T  STRESS:  F  VC:  F  ENSEMBLE:  F
  @ DRIVER MODE:  SCF:  T  FORCE:  T  STRESS:  F  VC:  F  ENSEMBLE:  F

     Using Slab Decomposition

     bravais-lattice index     =            0
     lattice parameter (alat)  =       1.8897  a.u.
     unit-cell volume          =    6658.9804 (a.u.)^3
     number of atoms/cell      =           54
     number of atomic types    =            5
     number of electrons       =       397.00
     number of Kohn-Sham states=          208
     kinetic-energy cutoff     =      29.3995  Ry
     charge density cutoff     =     293.9946  Ry
     scf convergence threshold =      7.3E-08
     mixing beta               =       0.0500
     number of iterations used =            8  plain     mixing
     Exchange-correlation= BEEF-VDW
                           (   1   4  43  14   2   0   0)

     celldm(1)=   1.889726  celldm(2)=   0.000000  celldm(3)=   0.000000
     celldm(4)=   0.000000  celldm(5)=   0.000000  celldm(6)=   0.000000

     crystal axes: (cart. coord. in units of alat)
               a(1) = (   6.579727   0.000000   0.000000 )
               a(2) = (  -0.000775   5.961596   0.000000 )
               a(3) = (   0.000000   0.000000  25.155947 )

     reciprocal axes: (cart. coord. in units 2 pi/alat)
               b(1) = (  0.151982  0.000020  0.000000 )
               b(2) = (  0.000000  0.167740  0.000000 )
               b(3) = (  0.000000  0.000000  0.039752 )

     PseudoPot. # 1 for Ti read from file:
     /storage/coda1/p-amedford6/0/shared/rich_project_chbe-medford/medford-share/data/pseudos_module/espresso/nninc/pbe/van/Ti.UPF
     MD5 check sum: 8e4df49b7f0d34bbd5052bf3f5ea0213
     Pseudo is Ultrasoft, Zval = 12.0
     Generated by new atomic code, or converted to UPF format
     Using radial grid of  851 points,  6 beta functions with:
                l(1) =   0
                l(2) =   0
                l(3) =   1
                l(4) =   1
                l(5) =   2
                l(6) =   2
     Q(r) pseudized with  8 coefficients,  rinner =    1.000   1.000   1.000
                                                       1.000   1.000

     PseudoPot. # 2 for O  read from file:
     /storage/coda1/p-amedford6/0/shared/rich_project_chbe-medford/medford-share/data/pseudos_module/espresso/nninc/pbe/van/O.UPF
     MD5 check sum: 78c19812648e8988a0fe644b0f25305e
     Pseudo is Ultrasoft, Zval =  6.0
     Generated by new atomic code, or converted to UPF format
     Using radial grid of  737 points,  4 beta functions with:
                l(1) =   0
                l(2) =   0
                l(3) =   1
                l(4) =   1
     Q(r) pseudized with  8 coefficients,  rinner =    0.800   0.800   0.800

     PseudoPot. # 3 for N  read from file:
     /storage/coda1/p-amedford6/0/shared/rich_project_chbe-medford/medford-share/data/pseudos_module/espresso/nninc/pbe/van/N.UPF
     MD5 check sum: 90d10febe142ad51ac9d5be1deb811c4
     Pseudo is Ultrasoft, Zval =  5.0
     Generated by new atomic code, or converted to UPF format
     Using radial grid of  729 points,  4 beta functions with:
                l(1) =   0
                l(2) =   0
                l(3) =   1
                l(4) =   1
     Q(r) pseudized with  8 coefficients,  rinner =    0.800   0.800   0.800

     PseudoPot. # 4 for C  read from file:
     /storage/coda1/p-amedford6/0/shared/rich_project_chbe-medford/medford-share/data/pseudos_module/espresso/nninc/pbe/van/C.UPF
     MD5 check sum: 1a69bf6b8db32088f5b2163dbdb77a27
     Pseudo is Ultrasoft, Zval =  4.0
     Generated by new atomic code, or converted to UPF format
     Using radial grid of  721 points,  4 beta functions with:
                l(1) =   0
                l(2) =   0
                l(3) =   1
                l(4) =   1
     Q(r) pseudized with  8 coefficients,  rinner =    0.800   0.800   0.800

     PseudoPot. # 5 for H  read from file:
     /storage/coda1/p-amedford6/0/shared/rich_project_chbe-medford/medford-share/data/pseudos_module/espresso/nninc/pbe/van/H.UPF
     MD5 check sum: b5ee9d7bfd3a09ee7748110bda690ff7
     Pseudo is Ultrasoft, Zval =  1.0
     Generated by new atomic code, or converted to UPF format
     Using radial grid of  615 points,  1 beta functions with:
                l(1) =   0
     Q(r) pseudized with  8 coefficients,  rinner =    0.800

     atomic species   valence    mass     pseudopotential
        Ti1           12.00    47.86700     Ti( 1.00)
        O1             6.00    15.99900     O ( 1.00)
        N1             5.00    14.00700     N ( 1.00)
        C1             4.00    12.01100     C ( 1.00)
        H1             1.00     1.00800     H ( 1.00)

     No symmetry found

   Cartesian axes

     site n.     atom                  positions (alat units)
         1           Ti1 tau(   1) = (   0.0004258   2.9801865   6.0000000  )
         2           Ti1 tau(   2) = (   3.2906075   1.4906267   6.0002472  )
         3           O1  tau(   3) = (   0.0006271   0.0005054   7.9858123  )
         4           O1  tau(   4) = (   3.2906025   0.0005020   7.3038282  )
         5           O1  tau(   5) = (   4.5942328   1.4918067   9.2879030  )
         6           O1  tau(   6) = (   1.9868534   1.4903216   9.2879459  )
         7           Ti1 tau(   7) = (   3.2907910   2.8959150   9.1758416  )
         8           Ti1 tau(   8) = (   0.0015273   1.4827037   9.2680791  )
         9           O1  tau(   9) = (   3.2872377   5.9372537  11.3619719  )
        10           O1  tau(  10) = (   0.0116148   5.9584955  10.6183126  )
        11           O1  tau(  11) = (   1.2678424   1.4880610  12.6451974  )
        12           O1  tau(  12) = (   5.2928823   1.5036634  12.6399001  )
        13           Ti1 tau(  13) = (   6.5521701   2.9315368  12.5404127  )
        14           Ti1 tau(  14) = (   3.2895327   1.2997526  12.7137971  )
        15           O1  tau(  15) = (   6.5477037   0.0845492  14.6505624  )
        16           O1  tau(  16) = (   3.2827468   0.0880329  14.0175491  )
        17           O1  tau(  17) = (   4.5427558   1.5765460  16.1196870  )
        18           O1  tau(  18) = (   1.9971221   1.5491956  16.2097298  )
        19           Ti1 tau(  19) = (   3.2670693   3.0250103  15.6873951  )
        20           Ti1 tau(  20) = (   6.4806419   1.4532933  16.0069425  )
        21           O1  tau(  21) = (   3.2904802   0.0005063   4.7018136  )
        22           O1  tau(  22) = (   6.5100566   5.8635464  17.1664964  )
        23           O1  tau(  23) = (   1.3043587   1.4918075   6.0039043  )
        24           O1  tau(  24) = (   5.2767064   1.4903225   6.0039473  )
        25           Ti1 tau(  25) = (   0.0000382   5.9609847   6.0000000  )
        26           Ti1 tau(  26) = (   3.2902200   4.4714249   6.0002472  )
        27           O1  tau(  27) = (   0.0002396   2.9813036   7.9858123  )
        28           O1  tau(  28) = (   3.2902150   2.9813002   7.3038282  )
        29           O1  tau(  29) = (   4.5938453   4.4726049   9.2879030  )
        30           O1  tau(  30) = (   1.9864658   4.4711199   9.2879459  )
        31           Ti1 tau(  31) = (   3.2891106   5.8743827   9.1763621  )
        32           Ti1 tau(  32) = (   0.0006254   4.4649316   9.2693709  )
        33           O1  tau(  33) = (   3.2826969   3.0075535  11.3127327  )
        34           O1  tau(  34) = (   0.0092240   2.9805883  10.6323155  )
        35           O1  tau(  35) = (   1.2713698   4.4757098  12.6731835  )
        36           O1  tau(  36) = (   5.2977781   4.4601507  12.6712348  )
        37           Ti1 tau(  37) = (   0.0330522   5.9225719  12.5042524  )
        38           Ti1 tau(  38) = (   3.2990360   4.3766664  12.4405836  )
        39           O1  tau(  39) = (   0.0150134   2.9421642  14.8567636  )
        40           O1  tau(  40) = (   3.2596324   2.9836344  13.9148061  )
        41           O1  tau(  41) = (   4.5490916   4.3969069  16.0525170  )
        42           O1  tau(  42) = (   1.9960638   4.4622821  16.0939853  )
        43           Ti1 tau(  43) = (   3.1777156   0.0378257  16.2738330  )
        44           Ti1 tau(  44) = (   6.5243348   4.6462111  15.7996153  )
        45           O1  tau(  45) = (   3.2900926   2.9813045   4.7018136  )
        46           O1  tau(  46) = (   1.3039711   4.4726057   6.0039043  )
        47           O1  tau(  47) = (   5.2763189   4.4711207   6.0039473  )
        48           N1  tau(  48) = (   6.4646383   2.7559932  17.9272311  )
        49           C1  tau(  49) = (   0.7552072   2.7164238  18.8602713  )
        50           H1  tau(  50) = (   0.5916026   3.1878006  19.8266510  )
        51           H1  tau(  51) = (   1.6887153   2.1901376  18.6919226  )
        52           H1  tau(  52) = (   5.6107037   3.2511282  18.1874541  )
        53           O1  tau(  53) = (   3.4589997   5.9358250  18.1144358  )
        54           H1  tau(  54) = (   4.4099295   5.9567086  18.3589960  )

     number of k points=    10  Fermi-Dirac smearing, width (Ry)=  0.0073
                       cart. coord. in units 2pi/alat
        k(    1) = (   0.0000000   0.0000000   0.0000000), wk =   0.1250000
        k(    2) = (   0.0000000   0.0419351   0.0000000), wk =   0.2500000
        k(    3) = (   0.0000000  -0.0838702   0.0000000), wk =   0.1250000
        k(    4) = (   0.0379955   0.0000049   0.0000000), wk =   0.2500000
        k(    5) = (   0.0379955   0.0419400   0.0000000), wk =   0.2500000
        k(    6) = (   0.0379955  -0.0838652   0.0000000), wk =   0.2500000
        k(    7) = (   0.0379955  -0.0419301   0.0000000), wk =   0.2500000
        k(    8) = (  -0.0759910  -0.0000099   0.0000000), wk =   0.1250000
        k(    9) = (  -0.0759910   0.0419252   0.0000000), wk =   0.2500000
        k(   10) = (  -0.0759910  -0.0838800   0.0000000), wk =   0.1250000

     Initial potential from superposition of free atoms

     starting charge  380.99916, renormalised to  397.00000

     negative rho (up, down):  1.654E-02 0.000E+00

     %%%%%%%%%%%%%%%%%%%%%%%%%%%%%%%%%%%%%%%%%%%%%%%%%%%%%%%%%%%%%%%%%%%%%%%%
     %                                                                      %
     % You are using vdW-DF, which was implemented by the Thonhauser group. %
     % Please cite the following two papers that made this development      %
     % possible and the two reviews that describe the various versions:     %
     %                                                                      %
     %   T. Thonhauser et al., PRL 115, 136402 (2015).                      %
     %   T. Thonhauser et al., PRB 76, 125112 (2007).                       %
     %   K. Berland et al., Rep. Prog. Phys. 78, 066501 (2015).             %
     %   D.C. Langreth et al., J. Phys.: Condens. Matter 21, 084203 (2009). %
     %                                                                      %
     %                                                                      %
     % If you are calculating the stress with vdW-DF, please also cite:     %
     %                                                                      %
     %   R. Sabatini et al., J. Phys.: Condens. Matter 24, 424209 (2012).   %
     %                                                                      %
     %%%%%%%%%%%%%%%%%%%%%%%%%%%%%%%%%%%%%%%%%%%%%%%%%%%%%%%%%%%%%%%%%%%%%%%%

     Adding external electric field

     Computed dipole along edir(3) :
        Dipole               -9.2998 Ry au,        -23.6378 Debye
        Dipole field         -0.0175 Ry au,

        Potential amp.        1.6269 Ry
        Total length         46.3494 bohr

     Starting wfcs are  300 atomic wfcs
  @ DRIVER MODE: Message from server: STATUS
  @ DRIVER MODE: Message from server: POSDATA
  @ DRIVER MODE: Reading and sharing cell
  @ DRIVER MODE: Reading and sharing positions
  @ DRIVER MODE: Received positions

     Self-consistent Calculation

     iteration #  1     ecut=    29.40 Ry     beta= 0.05
     Davidson diagonalization with overlap
     c_bands:  1 eigenvalues not converged
     c_bands:  1 eigenvalues not converged
     c_bands:  2 eigenvalues not converged
     c_bands:  1 eigenvalues not converged
     c_bands:  1 eigenvalues not converged
     c_bands:  2 eigenvalues not converged
     c_bands:  1 eigenvalues not converged
     c_bands:  1 eigenvalues not converged
     c_bands:  3 eigenvalues not converged
     ethr =  1.00E-05,  avg # of iterations = 19.6

[...]

     total energy              =   -2534.84936965 Ry
     estimated scf accuracy    <    4639.03781329 Ry

     iteration #  2     ecut=    29.40 Ry     beta= 0.05
     Davidson diagonalization with overlap
     ethr =  1.00E-02,  avg # of iterations = 24.4

[...]

     iteration # 46     ecut=    29.40 Ry     beta= 0.05
     Davidson diagonalization with overlap
     c_bands:  1 eigenvalues not converged
     ethr =  2.28E-09,  avg # of iterations = 13.5

[...]

     total energy              =   -2952.74679335 Ry
     estimated scf accuracy    <       0.00000019 Ry

     iteration # 62     ecut=    29.40 Ry     beta= 0.05
     Davidson diagonalization with overlap
     ethr =  4.52E-11,  avg # of iterations =  9.7

     negative rho (up, down):  1.671E-02 0.000E+00

     Adding external electric field

     Computed dipole along edir(3) :
        Dipole                1.0847 Ry au,          2.7571 Debye
        Dipole field          0.0020 Ry au,

        Potential amp.       -0.1898 Ry
        Total length         46.3494 bohr

     End of self-consistent calculation

          k = 0.0000 0.0000 0.0000 ( 18029 PWs)   bands (ev):

   -55.6604 -55.6400 -55.6059 -55.4688 -55.4616 -55.4350 -55.4335 -55.4282
   -55.4112 -55.3999 -55.3506 -55.2424 -55.2267 -55.1743 -54.6056 -54.5715
   -32.1236 -31.9893 -31.9648 -31.9573 -31.9534 -31.9312 -31.9301 -31.8853
   -31.8835 -31.8655 -31.8348 -31.7924 -31.7545 -31.7457 -31.7364 -31.7339
   -31.7155 -31.6975 -31.6782 -31.6671 -31.6637 -31.6570 -31.6361 -31.6250
   -31.6172 -31.6101 -31.6009 -31.5913 -31.5903 -31.5789 -31.5762 -31.5710
   -31.5662 -31.5467 -31.5213 -31.5062 -31.4397 -31.4305 -31.4169 -31.3871
   -31.3811 -31.3799 -31.0111 -30.9259 -30.9034 -30.8288 -30.7425 -30.6306
   -16.7161 -16.3843 -16.2532 -16.0796 -15.8669 -15.7943 -15.7562 -15.5602
   -15.4738 -15.4095 -15.1775 -15.1722 -15.1613 -15.1389 -15.1120 -15.1020
   -15.0917 -15.0569 -15.0551 -15.0328 -15.0068 -14.9736 -14.9650 -14.9172
   -14.8680 -14.8510 -14.7706 -14.6974 -14.6506 -14.4487 -14.3255 -13.1039
   -12.9877  -9.3282  -6.3438  -4.7345  -3.9256  -3.6250  -3.5393  -3.5047
    -3.4293  -3.3793  -3.1434  -3.0075  -2.9598  -2.8756  -2.7624  -2.7375
    -2.6758  -2.6201  -2.5525  -2.5294  -2.4866  -2.4308  -2.4081  -2.3779
    -2.3687  -2.3368  -2.2856  -2.2226  -2.1618  -2.1359  -2.0783  -2.0015
    -1.9534  -1.9493  -1.9421  -1.9213  -1.8971  -1.8749  -1.8518  -1.8405
    -1.7373  -1.6838  -1.6645  -1.6119  -1.5654  -1.3097  -1.2340  -1.2221
    -1.1531  -1.1028  -1.0708  -1.0526  -1.0240  -0.9784  -0.9257  -0.8932
    -0.8121  -0.7573  -0.6978  -0.6860  -0.6399  -0.5633  -0.4805  -0.4222
    -0.4063  -0.3483  -0.3399  -0.3141  -0.1920  -0.1538  -0.1446  -0.0891
    -0.0615   0.0404   0.0844   0.1240   0.1547   0.2436   0.2652   0.3065
     0.3121   0.3421   0.3489   0.4389   0.4489   0.4743   0.5366   0.5628
     0.6408   0.7121   0.7194   0.8770   0.9220   1.0128   1.0456   1.1350
     1.3717   1.4209   1.4790   1.6148   1.9873   2.0323   3.4534   3.5986
     3.6160   3.7081   3.7130   3.8189   3.9280   3.9827   4.0200   4.1310

[...]

          k = 0.0380-0.0419 0.0000 ( 17876 PWs)   bands (ev):

[...]

          k =-0.0760-0.0000 0.0000 ( 17886 PWs)   bands (ev):

[...]

          k =-0.0760-0.0839 0.0000 ( 17948 PWs)   bands (ev):

   -55.6595 -55.6232 -55.6226 -55.4527 -55.4496 -55.4450 -55.4443 -55.4334
   -55.4119 -55.3932 -55.3573 -55.2383 -55.2281 -55.1784 -54.5890 -54.5880
   -31.9391 -31.9388 -31.9247 -31.9169 -31.9165 -31.9162 -31.8757 -31.8669
   -31.8050 -31.7766 -31.7758 -31.7666 -31.7613 -31.7430 -31.7424 -31.7363
   -31.7185 -31.7154 -31.7021 -31.6816 -31.6692 -31.6578 -31.6541 -31.6469
   -31.6438 -31.6405 -31.6365 -31.6208 -31.6165 -31.6130 -31.6107 -31.6103
   -31.5979 -31.5800 -31.5774 -31.5213 -31.5054 -31.4615 -31.4431 -31.4341
   -31.4255 -31.3841 -30.9165 -30.9158 -30.8247 -30.8234 -30.7860 -30.7853
   -16.6962 -16.3574 -15.8230 -15.7139 -15.5932 -15.5846 -15.4718 -15.3993
   -15.3643 -15.3353 -15.3171 -15.3072 -15.2836 -15.2442 -15.1966 -15.1757
   -15.1438 -15.1257 -15.1134 -15.0724 -15.0571 -15.0475 -15.0285 -14.9842
   -14.9703 -14.9409 -14.9280 -14.7965 -14.7428 -14.6388 -14.5649 -13.0899
   -13.0893  -9.3333  -6.3400  -4.7195  -3.9067  -3.0270  -2.9308  -2.8007
    -2.7062  -2.6697  -2.6315  -2.6055  -2.5821  -2.5414  -2.5242  -2.4754
    -2.4311  -2.4138  -2.4025  -2.3727  -2.3684  -2.3594  -2.3279  -2.3070
    -2.3003  -2.2875  -2.2636  -2.2529  -2.2357  -2.2114  -2.1985  -2.1724
    -2.1515  -2.1053  -1.9950  -1.9422  -1.9135  -1.7847  -1.7715  -1.7505
    -1.7354  -1.7204  -1.7001  -1.6818  -1.6148  -1.5960  -1.5687  -1.3929
    -1.3733  -1.2847  -1.2519  -1.2064  -1.1417  -1.1284  -1.0783  -1.0508
    -0.9965  -0.9692  -0.8795  -0.8246  -0.7942  -0.7574  -0.6338  -0.5824
    -0.5768  -0.5665  -0.5371  -0.5168  -0.4725  -0.4514  -0.4219  -0.3563
    -0.3269  -0.3098  -0.2639  -0.2513  -0.1281  -0.0103   0.0740   0.1179
     0.1792   0.2007   0.2399   0.3440   0.4192   0.4996   0.5425   0.5604
     0.5918   0.6827   0.6983   0.8408   0.8709   0.8761   0.9122   0.9438
     0.9727   1.0180   1.7842   1.7922   1.8524   1.8528   3.7001   3.8308
     3.9608   3.9808   3.9931   4.0255   4.0295   4.0532   4.1030   4.1371

     the Fermi energy is     3.4848 ev

!    total energy              =   -2952.74683313 Ry
     estimated scf accuracy    <       0.00000007 Ry
     smearing contrib. (-TS)   =      -0.02003659 Ry
     internal energy E=F+TS    =   -2952.72679654 Ry

     The total energy is F=E-TS. E is the sum of the following terms:
     one-electron contribution =  -23991.44203084 Ry
     hartree contribution      =   12087.21603083 Ry
     xc contribution           =    -488.02081422 Ry
     ewald contribution        =    9439.51779725 Ry
     electric field correction =       0.00222043 Ry

     convergence has been achieved in  62 iterations

     Forces acting on atoms (cartesian axes, Ry/au):

     atom    1 type  1   force =     0.00016018   -0.00027724    0.09477943
     atom    2 type  1   force =    -0.00000757    0.00040245   -0.17489626
     atom    3 type  2   force =    -0.00001299   -0.00013434   -0.02197110
     atom    4 type  2   force =     0.00006365   -0.00191972    0.05340524
     atom    5 type  2   force =    -0.00734614   -0.00239817    0.00310047
     atom    6 type  2   force =     0.00861082   -0.00197533    0.00181549
     atom    7 type  1   force =    -0.00059061   -0.00348351    0.00958567
     atom    8 type  1   force =     0.00060784    0.00468844    0.00861694
     atom    9 type  2   force =     0.00009201    0.00016565   -0.00016292
     atom   10 type  2   force =    -0.00268846   -0.00030852   -0.01303745
     atom   11 type  2   force =    -0.00040283   -0.00035520   -0.00011672
     atom   12 type  2   force =     0.00018174   -0.00017063    0.00029943
     atom   13 type  1   force =     0.00040370    0.00018857   -0.00069845
     atom   14 type  1   force =    -0.00014627    0.00008548   -0.00001176
     atom   15 type  2   force =     0.00025789   -0.00028294   -0.00035904
     atom   16 type  2   force =     0.00040643    0.00013202   -0.00013327
     atom   17 type  2   force =    -0.00008011    0.00005444    0.00025913
     atom   18 type  2   force =     0.00001149   -0.00087995   -0.00024327
     atom   19 type  1   force =     0.00030597    0.00044997    0.00021098
     atom   20 type  1   force =    -0.00001003    0.00012540   -0.00002732
     atom   21 type  2   force =     0.00009670    0.00007635    0.10313321
     atom   22 type  2   force =    -0.00002251   -0.00043195    0.00029950
     atom   23 type  2   force =    -0.07215630   -0.00014126   -0.02738301
     atom   24 type  2   force =     0.07210798    0.00026747   -0.02740998
     atom   25 type  1   force =     0.00003169   -0.00008939    0.09454368
     atom   26 type  1   force =    -0.00007306   -0.00132524   -0.17508022
     atom   27 type  2   force =     0.00014920   -0.00020144   -0.02073789
     atom   28 type  2   force =     0.00002301   -0.00018837    0.04899726
     atom   29 type  2   force =    -0.00616908    0.00259562    0.00154121
     atom   30 type  2   force =     0.00739121    0.00321699    0.00010125
     atom   31 type  1   force =    -0.00055066    0.00716165   -0.00090606
     atom   32 type  1   force =     0.00055849   -0.00651304    0.00786563
     atom   33 type  2   force =     0.00025562   -0.00024635   -0.00033742
     atom   34 type  2   force =    -0.00212607    0.00146631   -0.01184348
     atom   35 type  2   force =    -0.00009983    0.00000097    0.00017586
     atom   36 type  2   force =    -0.00021823    0.00010680    0.00029836
     atom   37 type  1   force =     0.00054236   -0.00011006   -0.00028058
     atom   38 type  1   force =    -0.00019453   -0.00014911    0.00030921
     atom   39 type  2   force =     0.00011974    0.00039880   -0.00034740
     atom   40 type  2   force =    -0.00015140    0.00027982   -0.00048149
     atom   41 type  2   force =     0.00024620    0.00033313   -0.00027119
     atom   42 type  2   force =    -0.00020409    0.00036201    0.00025561
     atom   43 type  1   force =     0.00013471   -0.00093318   -0.00002038
     atom   44 type  1   force =     0.00013499    0.00054208    0.00013563
     atom   45 type  2   force =     0.00009713   -0.00009068    0.10294338
     atom   46 type  2   force =    -0.07217404   -0.00005688   -0.02740725
     atom   47 type  2   force =     0.07217492    0.00039699   -0.02743901
     atom   48 type  3   force =     0.00010096   -0.00033321   -0.00031325
     atom   49 type  4   force =     0.00053895   -0.00034834   -0.00040196
     atom   50 type  5   force =    -0.00024522   -0.00002765    0.00006391
     atom   51 type  5   force =     0.00034584    0.00004048   -0.00035367
     atom   52 type  5   force =    -0.00001283   -0.00017843   -0.00010050
     atom   53 type  2   force =     0.01679644    0.00043621    0.00603656
     atom   54 type  5   force =    -0.01726498   -0.00042396   -0.00600075

     Total force =     0.363324     Total SCF correction =     0.000615
  @ DRIVER MODE: Message from server: STATUS
  @ DRIVER MODE: Message from server: GETFORCE
  @ DRIVER MODE: Returning v,forces,stress,ensemble

     Writing output data file ./calc.save/
  @ DRIVER MODE: Message from server: EXIT
  @ DRIVE MODE: Exiting

     General routines

     Parallel routines

   This run was terminated on:  13:26:50  23Sep2021

   JOB DONE.