     Program PWSCF v.6.7GPU starts on 22Sep2021 at  1:57:25

     R & G space division:  proc/nbgrp/npool/nimage =      10
     Reading input from /storage/home/hcoda1/3/ntian30/research/carbon/CxH_vib/CH_calc/ads_slab/CHNHNH2H2O_b/out_0011/pw.inp
Warning: card &CELL ignored
Warning: card   CELL_DYNAMICS='IPI', ignored
Warning: card / ignored

     Current dimensions of program PWSCF are:
     Max number of different atomic species (ntypx) = 10
     Max number of k-points (npk) =  40000
     Max angular momentum in pseudopotentials (lmaxx) =  3
     Presently no symmetry can be used with electric field

     Message from routine cell_base_init:
     DEPRECATED: use true lattice parameter, not A to a.u. conversion factor

     IMPORTANT: XC functional enforced from input :
     Exchange-correlation= BEEF-VDW
                           (   1   4  43  14   2   0   0)
     Any further DFT definition will be discarded
     Please, verify this is what you really want

  @ DRIVER MODE: Connecting to
 qe_1139763_2927425.sched-torque.pace.gatech.edu3dj_1vzy_scratch
  using UNIX socket
  @ DRIVER MODE: Message from server: STATUS
  @ DRIVER MODE: Message from server: INIT
  @ DRIVER MODE: Receiving replica           0          -1
  @ DRIVER MODE: Receiving encoded integer          25
  @ DRIVER MODE:  SCF:  T  FORCE:  T  STRESS:  F  VC:  F  ENSEMBLE:  F
  @ DRIVER MODE:  SCF:  T  FORCE:  T  STRESS:  F  VC:  F  ENSEMBLE:  F

     Using Slab Decomposition

     bravais-lattice index     =            0
     lattice parameter (alat)  =       1.8897  a.u.
     unit-cell volume          =    6658.9804 (a.u.)^3
     number of atoms/cell      =           57
     number of atomic types    =            5
     number of electrons       =       404.00
     number of Kohn-Sham states=          212
     kinetic-energy cutoff     =      29.3995  Ry
     charge density cutoff     =     293.9946  Ry
     scf convergence threshold =      7.3E-08
     mixing beta               =       0.0500
     number of iterations used =            8  plain     mixing
     Exchange-correlation= BEEF-VDW
                           (   1   4  43  14   2   0   0)

     celldm(1)=   1.889726  celldm(2)=   0.000000  celldm(3)=   0.000000
     celldm(4)=   0.000000  celldm(5)=   0.000000  celldm(6)=   0.000000

     crystal axes: (cart. coord. in units of alat)
               a(1) = (   6.579727   0.000000   0.000000 )
               a(2) = (  -0.000775   5.961596   0.000000 )
               a(3) = (   0.000000   0.000000  25.155947 )

     reciprocal axes: (cart. coord. in units 2 pi/alat)
               b(1) = (  0.151982  0.000020  0.000000 )
               b(2) = (  0.000000  0.167740  0.000000 )
               b(3) = (  0.000000  0.000000  0.039752 )

     PseudoPot. # 1 for Ti read from file:
     /storage/coda1/p-amedford6/0/shared/rich_project_chbe-medford/medford-share/data/pseudos_module/espresso/nninc/pbe/van/Ti.UPF
     MD5 check sum: 8e4df49b7f0d34bbd5052bf3f5ea0213
     Pseudo is Ultrasoft, Zval = 12.0
     Generated by new atomic code, or converted to UPF format
     Using radial grid of  851 points,  6 beta functions with:
                l(1) =   0
                l(2) =   0
                l(3) =   1
                l(4) =   1
                l(5) =   2
                l(6) =   2
     Q(r) pseudized with  8 coefficients,  rinner =    1.000   1.000   1.000
                                                       1.000   1.000

     PseudoPot. # 2 for O  read from file:
     /storage/coda1/p-amedford6/0/shared/rich_project_chbe-medford/medford-share/data/pseudos_module/espresso/nninc/pbe/van/O.UPF
     MD5 check sum: 78c19812648e8988a0fe644b0f25305e
     Pseudo is Ultrasoft, Zval =  6.0
     Generated by new atomic code, or converted to UPF format
     Using radial grid of  737 points,  4 beta functions with:
                l(1) =   0
                l(2) =   0
                l(3) =   1
                l(4) =   1
     Q(r) pseudized with  8 coefficients,  rinner =    0.800   0.800   0.800

     PseudoPot. # 3 for N  read from file:
     /storage/coda1/p-amedford6/0/shared/rich_project_chbe-medford/medford-share/data/pseudos_module/espresso/nninc/pbe/van/N.UPF
     MD5 check sum: 90d10febe142ad51ac9d5be1deb811c4
     Pseudo is Ultrasoft, Zval =  5.0
     Generated by new atomic code, or converted to UPF format
     Using radial grid of  729 points,  4 beta functions with:
                l(1) =   0
                l(2) =   0
                l(3) =   1
                l(4) =   1
     Q(r) pseudized with  8 coefficients,  rinner =    0.800   0.800   0.800

     PseudoPot. # 4 for C  read from file:
     /storage/coda1/p-amedford6/0/shared/rich_project_chbe-medford/medford-share/data/pseudos_module/espresso/nninc/pbe/van/C.UPF
     MD5 check sum: 1a69bf6b8db32088f5b2163dbdb77a27
     Pseudo is Ultrasoft, Zval =  4.0
     Generated by new atomic code, or converted to UPF format
     Using radial grid of  721 points,  4 beta functions with:
                l(1) =   0
                l(2) =   0
                l(3) =   1
                l(4) =   1
     Q(r) pseudized with  8 coefficients,  rinner =    0.800   0.800   0.800

     PseudoPot. # 5 for H  read from file:
     /storage/coda1/p-amedford6/0/shared/rich_project_chbe-medford/medford-share/data/pseudos_module/espresso/nninc/pbe/van/H.UPF
     MD5 check sum: b5ee9d7bfd3a09ee7748110bda690ff7
     Pseudo is Ultrasoft, Zval =  1.0
     Generated by new atomic code, or converted to UPF format
     Using radial grid of  615 points,  1 beta functions with:
                l(1) =   0
     Q(r) pseudized with  8 coefficients,  rinner =    0.800

     atomic species   valence    mass     pseudopotential
        Ti1           12.00    47.86700     Ti( 1.00)
        O1             6.00    15.99900     O ( 1.00)
        N1             5.00    14.00700     N ( 1.00)
        C1             4.00    12.01100     C ( 1.00)
        H1             1.00     1.00800     H ( 1.00)

     No symmetry found

   Cartesian axes

     site n.     atom                  positions (alat units)
         1           Ti1 tau(   1) = (   0.0004258   2.9801865   6.0000000  )
         2           Ti1 tau(   2) = (   3.2906075   1.4906267   6.0002472  )
         3           O1  tau(   3) = (   0.0006271   0.0005054   7.9858123  )
         4           O1  tau(   4) = (   3.2906025   0.0005020   7.3038282  )
         5           O1  tau(   5) = (   4.5942328   1.4918067   9.2879030  )
         6           O1  tau(   6) = (   1.9868534   1.4903216   9.2879459  )
         7           Ti1 tau(   7) = (   3.2907910   2.8959150   9.1758416  )
         8           Ti1 tau(   8) = (   0.0015273   1.4827037   9.2680791  )
         9           O1  tau(   9) = (   3.3066417   5.9496923  11.3845403  )
        10           O1  tau(  10) = (   0.0116148   5.9584955  10.6183126  )
        11           O1  tau(  11) = (   1.3010148   1.4986442  12.6442229  )
        12           O1  tau(  12) = (   5.3085967   1.5001388  12.6592367  )
        13           Ti1 tau(  13) = (   0.0282779   2.9853959  12.5065338  )
        14           Ti1 tau(  14) = (   3.3279724   1.4707331  12.5413945  )
        15           O1  tau(  15) = (   0.0378505   0.0859181  14.6860672  )
        16           O1  tau(  16) = (   3.3018867   0.0259462  14.0338077  )
        17           O1  tau(  17) = (   4.5998927   1.5484098  16.1661054  )
        18           O1  tau(  18) = (   2.0454451   1.5021798  16.2221046  )
        19           Ti1 tau(  19) = (   3.3206312   2.9825829  15.7321521  )
        20           Ti1 tau(  20) = (   0.0140791   1.4435866  15.9983415  )
        21           O1  tau(  21) = (   3.2904802   0.0005063   4.7018136  )
        22           O1  tau(  22) = (   6.5273045   5.8164216  17.2577718  )
        23           O1  tau(  23) = (   1.3043587   1.4918075   6.0039043  )
        24           O1  tau(  24) = (   5.2767064   1.4903225   6.0039473  )
        25           Ti1 tau(  25) = (   0.0000382   5.9609847   6.0000000  )
        26           Ti1 tau(  26) = (   3.2902200   4.4714249   6.0002472  )
        27           O1  tau(  27) = (   0.0002396   2.9813036   7.9858123  )
        28           O1  tau(  28) = (   3.2902150   2.9813002   7.3038282  )
        29           O1  tau(  29) = (   4.5938453   4.4726049   9.2879030  )
        30           O1  tau(  30) = (   1.9864658   4.4711199   9.2879459  )
        31           Ti1 tau(  31) = (   3.2891106   5.8743827   9.1763621  )
        32           Ti1 tau(  32) = (   0.0006254   4.4649316   9.2693709  )
        33           O1  tau(  33) = (   3.3068470   2.9864458  11.3814114  )
        34           O1  tau(  34) = (   0.0092240   2.9805883  10.6323155  )
        35           O1  tau(  35) = (   1.2982948   4.4740332  12.6840172  )
        36           O1  tau(  36) = (   5.3097620   4.4704985  12.6972095  )
        37           Ti1 tau(  37) = (   0.0348817   0.0130325  12.4954113  )
        38           Ti1 tau(  38) = (   3.3270268   4.4633798  12.5435021  )
        39           O1  tau(  39) = (   0.0563025   2.9439880  14.9425960  )
        40           O1  tau(  40) = (   3.2900316   2.9661073  13.9503945  )
        41           O1  tau(  41) = (   4.5967999   4.4093095  16.0633277  )
        42           O1  tau(  42) = (   2.0412097   4.4536800  16.1303113  )
        43           Ti1 tau(  43) = (   3.2964201   5.9600488  15.8742613  )
        44           Ti1 tau(  44) = (   0.0241369   4.6516137  15.8518307  )
        45           O1  tau(  45) = (   3.2900926   2.9813045   4.7018136  )
        46           O1  tau(  46) = (   1.3039711   4.4726057   6.0039043  )
        47           O1  tau(  47) = (   5.2763189   4.4711207   6.0039473  )
        48           N1  tau(  48) = (   1.4509408   2.7109095  18.7602185  )
        49           N1  tau(  49) = (   0.0917387   2.5303350  18.2107845  )
        50           C1  tau(  50) = (   1.9503960   3.7723240  19.2784661  )
        51           H1  tau(  51) = (   1.1612915   4.5273475  19.4152495  )
        52           H1  tau(  52) = (   2.0208952   1.9183395  18.4664618  )
        53           H1  tau(  53) = (   6.1377449   3.3539424  18.4987646  )
        54           H1  tau(  54) = (   6.2616785   1.7135167  18.6767212  )
        55           O1  tau(  55) = (   3.7012217   5.9496235  18.2853534  )
        56           H1  tau(  56) = (   4.6684668   5.8470116  18.1670174  )
        57           H1  tau(  57) = (   3.3852657   5.1278045  18.7338684  )

     number of k points=    10  Fermi-Dirac smearing, width (Ry)=  0.0073
                       cart. coord. in units 2pi/alat
        k(    1) = (   0.0000000   0.0000000   0.0000000), wk =   0.1250000
        k(    2) = (   0.0000000   0.0419351   0.0000000), wk =   0.2500000
        k(    3) = (   0.0000000  -0.0838702   0.0000000), wk =   0.1250000
        k(    4) = (   0.0379955   0.0000049   0.0000000), wk =   0.2500000
        k(    5) = (   0.0379955   0.0419400   0.0000000), wk =   0.2500000
        k(    6) = (   0.0379955  -0.0838652   0.0000000), wk =   0.2500000
        k(    7) = (   0.0379955  -0.0419301   0.0000000), wk =   0.2500000
        k(    8) = (  -0.0759910  -0.0000099   0.0000000), wk =   0.1250000
        k(    9) = (  -0.0759910   0.0419252   0.0000000), wk =   0.2500000
        k(   10) = (  -0.0759910  -0.0838800   0.0000000), wk =   0.1250000

     Initial potential from superposition of free atoms

     starting charge  387.99913, renormalised to  404.00000

     negative rho (up, down):  1.598E-02 0.000E+00

     %%%%%%%%%%%%%%%%%%%%%%%%%%%%%%%%%%%%%%%%%%%%%%%%%%%%%%%%%%%%%%%%%%%%%%%%
     %                                                                      %
     % You are using vdW-DF, which was implemented by the Thonhauser group. %
     % Please cite the following two papers that made this development      %
     % possible and the two reviews that describe the various versions:     %
     %                                                                      %
     %   T. Thonhauser et al., PRL 115, 136402 (2015).                      %
     %   T. Thonhauser et al., PRB 76, 125112 (2007).                       %
     %   K. Berland et al., Rep. Prog. Phys. 78, 066501 (2015).             %
     %   D.C. Langreth et al., J. Phys.: Condens. Matter 21, 084203 (2009). %
     %                                                                      %
     %                                                                      %
     % If you are calculating the stress with vdW-DF, please also cite:     %
     %                                                                      %
     %   R. Sabatini et al., J. Phys.: Condens. Matter 24, 424209 (2012).   %
     %                                                                      %
     %%%%%%%%%%%%%%%%%%%%%%%%%%%%%%%%%%%%%%%%%%%%%%%%%%%%%%%%%%%%%%%%%%%%%%%%

     Adding external electric field

     Computed dipole along edir(3) :
        Dipole              -14.3546 Ry au,        -36.4858 Debye
        Dipole field         -0.0271 Ry au,

        Potential amp.        2.5111 Ry
        Total length         46.3494 bohr

     Starting wfcs are  306 atomic wfcs
  @ DRIVER MODE: Message from server: STATUS
  @ DRIVER MODE: Message from server: POSDATA
  @ DRIVER MODE: Reading and sharing cell
  @ DRIVER MODE: Reading and sharing positions
  @ DRIVER MODE: Received positions

     Self-consistent Calculation

     iteration #  1     ecut=    29.40 Ry     beta= 0.05
     Davidson diagonalization with overlap
     c_bands:  3 eigenvalues not converged
     c_bands:  4 eigenvalues not converged
     c_bands:  4 eigenvalues not converged
     c_bands:  4 eigenvalues not converged
     c_bands:  5 eigenvalues not converged
     c_bands:  3 eigenvalues not converged
     c_bands:  2 eigenvalues not converged
     c_bands:  4 eigenvalues not converged
     ethr =  1.00E-05,  avg # of iterations = 22.0

[...]

     total energy              =   -2220.99134764 Ry
     estimated scf accuracy    <    8586.81122177 Ry

     iteration #  2     ecut=    29.40 Ry     beta= 0.05
     Davidson diagonalization with overlap
     ethr =  1.00E-02,  avg # of iterations = 27.4

[...]

     iteration # 59     ecut=    29.40 Ry     beta= 0.05
     Davidson diagonalization with overlap
     c_bands:  1 eigenvalues not converged
     ethr =  1.11E-10,  avg # of iterations = 11.5

[...]

     total energy              =   -2975.10519040 Ry
     estimated scf accuracy    <       0.00000008 Ry

     iteration # 63     ecut=    29.40 Ry     beta= 0.05
     Davidson diagonalization with overlap
     ethr =  2.00E-11,  avg # of iterations =  9.7

     negative rho (up, down):  1.579E-02 0.000E+00

     Adding external electric field

     Computed dipole along edir(3) :
        Dipole                1.0268 Ry au,          2.6100 Debye
        Dipole field          0.0019 Ry au,

        Potential amp.       -0.1796 Ry
        Total length         46.3494 bohr

     End of self-consistent calculation

          k = 0.0000 0.0000 0.0000 ( 18029 PWs)   bands (ev):

   -55.3821 -55.3463 -55.3423 -55.3082 -55.3049 -55.2982 -55.2642 -55.2288
   -55.2137 -55.1789 -55.1721 -55.1568 -55.1384 -55.1089 -54.3734 -54.3393
   -31.9411 -31.8761 -31.8350 -31.7538 -31.7050 -31.7023 -31.6780 -31.6752
   -31.6310 -31.5952 -31.5883 -31.5868 -31.5791 -31.5764 -31.5580 -31.5561
   -31.5314 -31.5234 -31.5205 -31.5092 -31.4950 -31.4883 -31.4690 -31.4642
   -31.4564 -31.4433 -31.4427 -31.4138 -31.3996 -31.3958 -31.3927 -31.3705
   -31.3667 -31.3625 -31.3591 -31.3377 -31.3268 -31.3147 -31.2998 -31.2998
   -31.2890 -31.2832 -30.7828 -30.6884 -30.6663 -30.5992 -30.5124 -30.4014
   -18.8575 -18.4602 -16.2170 -15.9697 -15.8335 -15.7291 -15.5919 -15.4935
   -15.3846 -15.2713 -15.2482 -15.1540 -15.0802 -15.0767 -15.0395 -15.0134
   -14.9508 -14.9294 -14.9057 -14.8996 -14.8851 -14.8749 -14.8384 -14.8275
   -14.7945 -14.7835 -14.7662 -14.6455 -14.6236 -14.5490 -14.4783 -14.3406
   -12.8760 -12.7585  -9.8281  -6.9549  -6.3816  -6.0559  -4.4311  -3.7421
    -3.5410  -3.4073  -3.3298  -3.3006  -3.2826  -3.1511  -3.0615  -2.8998
    -2.8603  -2.8042  -2.6706  -2.5948  -2.5885  -2.5007  -2.4277  -2.4047
    -2.3718  -2.2630  -2.2563  -2.2069  -2.1891  -2.1659  -2.1568  -2.1102
    -2.0637  -2.0368  -1.9518  -1.8503  -1.8069  -1.7868  -1.7505  -1.7277
    -1.7230  -1.6794  -1.6731  -1.6498  -1.6108  -1.5865  -1.5410  -1.4291
    -1.3896  -1.2296  -1.1930  -1.0373  -1.0172  -0.9776  -0.9587  -0.9395
    -0.8915  -0.8752  -0.8655  -0.7692  -0.7109  -0.6457  -0.5808  -0.4903
    -0.4799  -0.4060  -0.3799  -0.3146  -0.2289  -0.1823  -0.1729  -0.1481
    -0.1449  -0.0312   0.0139   0.0740   0.0927   0.1501   0.1659   0.1882
     0.2583   0.3117   0.3813   0.4120   0.4911   0.5094   0.5445   0.5536
     0.5859   0.5965   0.6728   0.6874   0.7156   0.8184   0.9157   1.0078
     1.2178   1.2214   1.2440   1.5540   1.5561   1.6496   1.8328   2.2257
     2.2741   3.7076   3.7861   3.8356   3.8531   3.8576   3.9425   4.1971
     4.2114   4.2242   4.2304   4.2713

[...]

          k = 0.0380-0.0419 0.0000 ( 17876 PWs)   bands (ev):

[...]

          k =-0.0760-0.0000 0.0000 ( 17886 PWs)   bands (ev):

[...]

          k =-0.0760-0.0839 0.0000 ( 17948 PWs)   bands (ev):

   -55.3652 -55.3629 -55.3252 -55.3251 -55.3022 -55.2971 -55.2505 -55.2425
   -55.1993 -55.1928 -55.1586 -55.1560 -55.1546 -55.1106 -54.3563 -54.3563
   -31.7906 -31.7535 -31.7394 -31.6502 -31.6501 -31.6356 -31.6237 -31.6163
   -31.6162 -31.5954 -31.5904 -31.5872 -31.5644 -31.5558 -31.5447 -31.5307
   -31.5276 -31.5250 -31.5208 -31.5129 -31.5083 -31.5062 -31.5046 -31.4968
   -31.4655 -31.4643 -31.4451 -31.4449 -31.4445 -31.4393 -31.4368 -31.4322
   -31.4229 -31.4114 -31.4059 -31.3889 -31.3874 -31.3769 -31.3361 -31.3351
   -31.3345 -31.3154 -30.6790 -30.6789 -30.5953 -30.5951 -30.5559 -30.5558
   -18.8514 -18.4629 -15.8355 -15.6501 -15.4987 -15.4268 -15.4065 -15.3234
   -15.2679 -15.2650 -15.1919 -15.1738 -15.1612 -15.1397 -15.1300 -15.0825
   -15.0455 -15.0088 -14.9900 -14.9673 -14.9243 -14.9016 -14.8999 -14.8932
   -14.8854 -14.8445 -14.8399 -14.8365 -14.7448 -14.7429 -14.7046 -14.5562
   -12.8600 -12.8599  -9.8375  -6.9439  -6.3565  -6.0311  -4.4450  -3.6707
    -3.0250  -2.9082  -2.8971  -2.6692  -2.6501  -2.5892  -2.5762  -2.4888
    -2.4728  -2.4124  -2.3888  -2.3389  -2.3156  -2.2782  -2.2642  -2.2425
    -2.2213  -2.2076  -2.1813  -2.1650  -2.1487  -2.1285  -2.1173  -2.1060
    -2.0511  -2.0449  -2.0362  -2.0108  -1.9879  -1.9517  -1.9416  -1.9256
    -1.7699  -1.7546  -1.7331  -1.5974  -1.5932  -1.5625  -1.5190  -1.4916
    -1.4338  -1.4248  -1.3968  -1.3387  -1.1484  -1.1350  -1.1216  -1.1043
    -1.0321  -0.9777  -0.9639  -0.9455  -0.8917  -0.8143  -0.7895  -0.7277
    -0.6472  -0.5862  -0.5776  -0.5511  -0.4298  -0.4071  -0.3644  -0.3461
    -0.3301  -0.2953  -0.2939  -0.2386  -0.1844  -0.1482  -0.1253  -0.1111
    -0.0740   0.0802   0.1329   0.1491   0.2636   0.2928   0.4706   0.5135
     0.5352   0.6402   0.7238   0.7513   0.7662   0.8909   0.9135   0.9162
     0.9845   1.0067   1.0667   1.0724   1.1989   2.0056   2.0069   2.0939
     2.0942   3.8327   3.9556   3.9997   4.0357   4.1117   4.1642   4.2213
     4.2803   4.2922   4.2956   4.3696

     the Fermi energy is     3.7697 ev

!    total energy              =   -2975.10522431 Ry
     estimated scf accuracy    <       0.00000006 Ry
     smearing contrib. (-TS)   =      -0.03671688 Ry
     internal energy E=F+TS    =   -2975.06850744 Ry

     The total energy is F=E-TS. E is the sum of the following terms:
     one-electron contribution =  -23507.88238909 Ry
     hartree contribution      =   11849.99503775 Ry
     xc contribution           =    -494.91133933 Ry
     ewald contribution        =    9177.72819346 Ry
     electric field correction =       0.00198978 Ry

     convergence has been achieved in  63 iterations

     Forces acting on atoms (cartesian axes, Ry/au):

     atom    1 type  1   force =     0.00002730   -0.00024482    0.09310004
     atom    2 type  1   force =    -0.00017591   -0.00032334   -0.17838945
     atom    3 type  2   force =     0.00006002   -0.00016827   -0.02024264
     atom    4 type  2   force =     0.00001645   -0.00203898    0.05925237
     atom    5 type  2   force =    -0.01033842   -0.00110292    0.00808353
     atom    6 type  2   force =     0.01218234   -0.00054558    0.00816077
     atom    7 type  1   force =     0.00014706    0.00329262   -0.01110820
     atom    8 type  1   force =    -0.00030460    0.00054386   -0.00560595
     atom    9 type  2   force =     0.00004172    0.00017929   -0.00016718
     atom   10 type  2   force =    -0.00146617   -0.00003612   -0.00173774
     atom   11 type  2   force =     0.00039634   -0.00004352   -0.00007900
     atom   12 type  2   force =    -0.00011588    0.00009757   -0.00010807
     atom   13 type  1   force =    -0.00008968   -0.00017482   -0.00022143
     atom   14 type  1   force =    -0.00021281   -0.00036292    0.00036160
     atom   15 type  2   force =     0.00006881   -0.00069336   -0.00000449
     atom   16 type  2   force =     0.00021466    0.00008585    0.00027430
     atom   17 type  2   force =     0.00024314   -0.00020301    0.00017963
     atom   18 type  2   force =     0.00009297   -0.00019126   -0.00015485
     atom   19 type  1   force =    -0.00026983   -0.00051768   -0.00009166
     atom   20 type  1   force =     0.00017430    0.00053702    0.00027732
     atom   21 type  2   force =    -0.00000222   -0.00007465    0.10403329
     atom   22 type  2   force =    -0.00011380   -0.00016611   -0.00003167
     atom   23 type  2   force =    -0.07036374   -0.00016218   -0.02685724
     atom   24 type  2   force =     0.07023070    0.00028518   -0.02693152
     atom   25 type  1   force =     0.00002857   -0.00016015    0.09277102
     atom   26 type  1   force =    -0.00016173   -0.00039503   -0.17833435
     atom   27 type  2   force =     0.00011080   -0.00031172   -0.01918617
     atom   28 type  2   force =     0.00004735   -0.00163444    0.05840478
     atom   29 type  2   force =    -0.01029561   -0.00064293    0.00728764
     atom   30 type  2   force =     0.01202981   -0.00030848    0.00741942
     atom   31 type  1   force =     0.00007746    0.00516200   -0.01465072
     atom   32 type  1   force =    -0.00013321   -0.00053428   -0.00593969
     atom   33 type  2   force =     0.00012872   -0.00039672   -0.00024922
     atom   34 type  2   force =    -0.00078923    0.00260650   -0.00105571
     atom   35 type  2   force =    -0.00005698   -0.00011147   -0.00014767
     atom   36 type  2   force =     0.00021765    0.00000601   -0.00017358
     atom   37 type  1   force =    -0.00044612    0.00007127    0.00008046
     atom   38 type  1   force =    -0.00002480   -0.00024785   -0.00022409
     atom   39 type  2   force =    -0.00030584   -0.00020712   -0.00029289
     atom   40 type  2   force =    -0.00013277   -0.00005624   -0.00003615
     atom   41 type  2   force =    -0.00019623   -0.00013645    0.00040997
     atom   42 type  2   force =    -0.00002790   -0.00026305    0.00023455
     atom   43 type  1   force =     0.00001880   -0.00024759   -0.00005551
     atom   44 type  1   force =    -0.00001711   -0.00009860    0.00015548
     atom   45 type  2   force =     0.00000883   -0.00010987    0.10400607
     atom   46 type  2   force =    -0.07038913   -0.00011851   -0.02687553
     atom   47 type  2   force =     0.07023537    0.00031563   -0.02693586
     atom   48 type  3   force =     0.00077583    0.00090514   -0.00158464
     atom   49 type  3   force =    -0.00448357   -0.00203666    0.00899037
     atom   50 type  4   force =    -0.00080461    0.00033198    0.00104414
     atom   51 type  5   force =     0.00013521   -0.00036573   -0.00080351
     atom   52 type  5   force =     0.00008910   -0.00098014   -0.00023728
     atom   53 type  5   force =     0.00151643   -0.00258810   -0.00230691
     atom   54 type  5   force =     0.00236188    0.00512955   -0.00406409
     atom   55 type  2   force =    -0.00001561   -0.00026109    0.00077429
     atom   56 type  5   force =     0.00030755   -0.00038777   -0.00046109
     atom   57 type  5   force =    -0.00025166    0.00010005    0.00004471

     Total force =     0.366467     Total SCF correction =     0.000650
  @ DRIVER MODE: Message from server: STATUS
  @ DRIVER MODE: Message from server: GETFORCE
  @ DRIVER MODE: Returning v,forces,stress,ensemble

     Writing output data file ./calc.save/
  @ DRIVER MODE: Message from server: EXIT
  @ DRIVE MODE: Exiting

     General routines

     Parallel routines

   This run was terminated on:   2:15:28  22Sep2021

   JOB DONE.