     Program PWSCF v.6.7GPU starts on 29Sep2021 at  0:41:53

     R & G space division:  proc/nbgrp/npool/nimage =       8
     Reading input from /storage/home/hcoda1/3/ntian30/research/carbon/CxH_vib/H2O_calc/ads_slab/CHNHNH2HO_b/out_0034/pw.inp
Warning: card &CELL ignored
Warning: card   CELL_DYNAMICS='IPI', ignored
Warning: card / ignored

     Current dimensions of program PWSCF are:
     Max number of different atomic species (ntypx) = 10
     Max number of k-points (npk) =  40000
     Max angular momentum in pseudopotentials (lmaxx) =  3
     Presently no symmetry can be used with electric field

     Message from routine cell_base_init:
     DEPRECATED: use true lattice parameter, not A to a.u. conversion factor

     IMPORTANT: XC functional enforced from input :
     Exchange-correlation= BEEF-VDW
                           (   1   4  43  14   2   0   0)
     Any further DFT definition will be discarded
     Please, verify this is what you really want

  @ DRIVER MODE: Connecting to
 qe_1139763_3009830.sched-torque.pace.gatech.edui3oy75nc_scratch
  using UNIX socket
  @ DRIVER MODE: Message from server: STATUS
  @ DRIVER MODE: Message from server: INIT
  @ DRIVER MODE: Receiving replica           0          -1
  @ DRIVER MODE: Receiving encoded integer          25
  @ DRIVER MODE:  SCF:  T  FORCE:  T  STRESS:  F  VC:  F  ENSEMBLE:  F
  @ DRIVER MODE:  SCF:  T  FORCE:  T  STRESS:  F  VC:  F  ENSEMBLE:  F

     Using Slab Decomposition

     bravais-lattice index     =            0
     lattice parameter (alat)  =       1.8897  a.u.
     unit-cell volume          =    6658.9804 (a.u.)^3
     number of atoms/cell      =           56
     number of atomic types    =            5
     number of electrons       =       403.00
     number of Kohn-Sham states=          211
     kinetic-energy cutoff     =      29.3995  Ry
     charge density cutoff     =     293.9946  Ry
     scf convergence threshold =      7.3E-08
     mixing beta               =       0.0500
     number of iterations used =            8  plain     mixing
     Exchange-correlation= BEEF-VDW
                           (   1   4  43  14   2   0   0)

     celldm(1)=   1.889726  celldm(2)=   0.000000  celldm(3)=   0.000000
     celldm(4)=   0.000000  celldm(5)=   0.000000  celldm(6)=   0.000000

     crystal axes: (cart. coord. in units of alat)
               a(1) = (   6.579727   0.000000   0.000000 )
               a(2) = (  -0.000775   5.961596   0.000000 )
               a(3) = (   0.000000   0.000000  25.155947 )

     reciprocal axes: (cart. coord. in units 2 pi/alat)
               b(1) = (  0.151982  0.000020  0.000000 )
               b(2) = (  0.000000  0.167740  0.000000 )
               b(3) = (  0.000000  0.000000  0.039752 )

     PseudoPot. # 1 for Ti read from file:
     /storage/coda1/p-amedford6/0/shared/rich_project_chbe-medford/medford-share/data/pseudos_module/espresso/nninc/pbe/van/Ti.UPF
     MD5 check sum: 8e4df49b7f0d34bbd5052bf3f5ea0213
     Pseudo is Ultrasoft, Zval = 12.0
     Generated by new atomic code, or converted to UPF format
     Using radial grid of  851 points,  6 beta functions with:
                l(1) =   0
                l(2) =   0
                l(3) =   1
                l(4) =   1
                l(5) =   2
                l(6) =   2
     Q(r) pseudized with  8 coefficients,  rinner =    1.000   1.000   1.000
                                                       1.000   1.000

     PseudoPot. # 2 for O  read from file:
     /storage/coda1/p-amedford6/0/shared/rich_project_chbe-medford/medford-share/data/pseudos_module/espresso/nninc/pbe/van/O.UPF
     MD5 check sum: 78c19812648e8988a0fe644b0f25305e
     Pseudo is Ultrasoft, Zval =  6.0
     Generated by new atomic code, or converted to UPF format
     Using radial grid of  737 points,  4 beta functions with:
                l(1) =   0
                l(2) =   0
                l(3) =   1
                l(4) =   1
     Q(r) pseudized with  8 coefficients,  rinner =    0.800   0.800   0.800

     PseudoPot. # 3 for N  read from file:
     /storage/coda1/p-amedford6/0/shared/rich_project_chbe-medford/medford-share/data/pseudos_module/espresso/nninc/pbe/van/N.UPF
     MD5 check sum: 90d10febe142ad51ac9d5be1deb811c4
     Pseudo is Ultrasoft, Zval =  5.0
     Generated by new atomic code, or converted to UPF format
     Using radial grid of  729 points,  4 beta functions with:
                l(1) =   0
                l(2) =   0
                l(3) =   1
                l(4) =   1
     Q(r) pseudized with  8 coefficients,  rinner =    0.800   0.800   0.800

     PseudoPot. # 4 for C  read from file:
     /storage/coda1/p-amedford6/0/shared/rich_project_chbe-medford/medford-share/data/pseudos_module/espresso/nninc/pbe/van/C.UPF
     MD5 check sum: 1a69bf6b8db32088f5b2163dbdb77a27
     Pseudo is Ultrasoft, Zval =  4.0
     Generated by new atomic code, or converted to UPF format
     Using radial grid of  721 points,  4 beta functions with:
                l(1) =   0
                l(2) =   0
                l(3) =   1
                l(4) =   1
     Q(r) pseudized with  8 coefficients,  rinner =    0.800   0.800   0.800

     PseudoPot. # 5 for H  read from file:
     /storage/coda1/p-amedford6/0/shared/rich_project_chbe-medford/medford-share/data/pseudos_module/espresso/nninc/pbe/van/H.UPF
     MD5 check sum: b5ee9d7bfd3a09ee7748110bda690ff7
     Pseudo is Ultrasoft, Zval =  1.0
     Generated by new atomic code, or converted to UPF format
     Using radial grid of  615 points,  1 beta functions with:
                l(1) =   0
     Q(r) pseudized with  8 coefficients,  rinner =    0.800

     atomic species   valence    mass     pseudopotential
        Ti1           12.00    47.86700     Ti( 1.00)
        O1             6.00    15.99900     O ( 1.00)
        N1             5.00    14.00700     N ( 1.00)
        C1             4.00    12.01100     C ( 1.00)
        H1             1.00     1.00800     H ( 1.00)

     No symmetry found

   Cartesian axes

     site n.     atom                  positions (alat units)
         1           Ti1 tau(   1) = (   0.0004258   2.9801865   6.0000000  )
         2           Ti1 tau(   2) = (   3.2906075   1.4906267   6.0002472  )
         3           O1  tau(   3) = (   0.0006271   0.0005054   7.9858123  )
         4           O1  tau(   4) = (   3.2906025   0.0005020   7.3038282  )
         5           O1  tau(   5) = (   4.5942328   1.4918067   9.2879030  )
         6           O1  tau(   6) = (   1.9868534   1.4903216   9.2879459  )
         7           Ti1 tau(   7) = (   3.2907910   2.8959150   9.1758416  )
         8           Ti1 tau(   8) = (   0.0015273   1.4827037   9.2680791  )
         9           O1  tau(   9) = (   3.2982983   0.0405180  11.3424948  )
        10           O1  tau(  10) = (   0.0116148   5.9584955  10.6183126  )
        11           O1  tau(  11) = (   1.2753745   1.5072422  12.7016807  )
        12           O1  tau(  12) = (   5.3195175   1.5181342  12.6954276  )
        13           Ti1 tau(  13) = (   0.0019584   2.9687762  12.4995492  )
        14           Ti1 tau(  14) = (   3.3051642   1.5697923  12.4614731  )
        15           O1  tau(  15) = (   6.5474216   5.8614089  14.6874354  )
        16           O1  tau(  16) = (   3.3077571   5.9224049  13.9445013  )
        17           O1  tau(  17) = (   4.5645563   1.5748115  16.1270233  )
        18           O1  tau(  18) = (   2.0342606   1.5395256  16.0843959  )
        19           Ti1 tau(  19) = (   3.2752269   2.9899004  15.7194909  )
        20           Ti1 tau(  20) = (   6.5310352   1.3332667  15.7916221  )
        21           O1  tau(  21) = (   3.2904802   0.0005063   4.7018136  )
        22           O1  tau(  22) = (   0.0193913   0.2006272  17.2172921  )
        23           O1  tau(  23) = (   1.3043587   1.4918075   6.0039043  )
        24           O1  tau(  24) = (   5.2767064   1.4903225   6.0039473  )
        25           Ti1 tau(  25) = (   0.0000382   5.9609847   6.0000000  )
        26           Ti1 tau(  26) = (   3.2902200   4.4714249   6.0002472  )
        27           O1  tau(  27) = (   0.0002396   2.9813036   7.9858123  )
        28           O1  tau(  28) = (   3.2902150   2.9813002   7.3038282  )
        29           O1  tau(  29) = (   4.5938453   4.4726049   9.2879030  )
        30           O1  tau(  30) = (   1.9864658   4.4711199   9.2879459  )
        31           Ti1 tau(  31) = (   3.2891106   5.8743827   9.1763621  )
        32           Ti1 tau(  32) = (   0.0006254   4.4649316   9.2693709  )
        33           O1  tau(  33) = (   3.2939295   2.9453814  11.3217152  )
        34           O1  tau(  34) = (   0.0092240   2.9805883  10.6323155  )
        35           O1  tau(  35) = (   1.2781447   4.4822909  12.6561401  )
        36           O1  tau(  36) = (   5.3212068   4.4743896  12.6463055  )
        37           Ti1 tau(  37) = (   0.0302233   5.9315785  12.5023592  )
        38           Ti1 tau(  38) = (   3.3112215   4.6713144  12.7097751  )
        39           O1  tau(  39) = (   0.0192075   3.0624537  14.9697097  )
        40           O1  tau(  40) = (   3.2993887   3.0147307  13.9488589  )
        41           O1  tau(  41) = (   4.5718800   4.4489939  16.2708329  )
        42           O1  tau(  42) = (   2.0246426   4.4466800  16.2581844  )
        43           Ti1 tau(  43) = (   3.2612680   0.0306108  16.4716933  )
        44           Ti1 tau(  44) = (   6.5506247   4.5497786  16.0606151  )
        45           O1  tau(  45) = (   3.2900926   2.9813045   4.7018136  )
        46           O1  tau(  46) = (   1.3039711   4.4726057   6.0039043  )
        47           O1  tau(  47) = (   5.2763189   4.4711207   6.0039473  )
        48           N1  tau(  48) = (   0.9981237   2.4704741  18.7333368  )
        49           N1  tau(  49) = (   6.5532285   3.4232418  18.2716252  )
        50           C1  tau(  50) = (   2.1690532   2.7243113  19.1879583  )
        51           H1  tau(  51) = (   2.3212509   3.8010200  19.3435938  )
        52           H1  tau(  52) = (   0.7222050   1.5235952  18.4365492  )
        53           H1  tau(  53) = (   0.1086806   4.3050834  18.7847415  )
        54           H1  tau(  54) = (   5.6367167   3.0457734  18.5222562  )
        55           O1  tau(  55) = (   3.2473456   0.1866190  18.2687603  )
        56           H1  tau(  56) = (   3.0571027   1.0491837  18.7494863  )

     number of k points=    10  Fermi-Dirac smearing, width (Ry)=  0.0073
                       cart. coord. in units 2pi/alat
        k(    1) = (   0.0000000   0.0000000   0.0000000), wk =   0.1250000
        k(    2) = (   0.0000000   0.0419351   0.0000000), wk =   0.2500000
        k(    3) = (   0.0000000  -0.0838702   0.0000000), wk =   0.1250000
        k(    4) = (   0.0379955   0.0000049   0.0000000), wk =   0.2500000
        k(    5) = (   0.0379955   0.0419400   0.0000000), wk =   0.2500000
        k(    6) = (   0.0379955  -0.0838652   0.0000000), wk =   0.2500000
        k(    7) = (   0.0379955  -0.0419301   0.0000000), wk =   0.2500000
        k(    8) = (  -0.0759910  -0.0000099   0.0000000), wk =   0.1250000
        k(    9) = (  -0.0759910   0.0419252   0.0000000), wk =   0.2500000
        k(   10) = (  -0.0759910  -0.0838800   0.0000000), wk =   0.1250000

     Initial potential from superposition of free atoms

     starting charge  386.99914, renormalised to  403.00000

     negative rho (up, down):  1.628E-02 0.000E+00

     %%%%%%%%%%%%%%%%%%%%%%%%%%%%%%%%%%%%%%%%%%%%%%%%%%%%%%%%%%%%%%%%%%%%%%%%
     %                                                                      %
     % You are using vdW-DF, which was implemented by the Thonhauser group. %
     % Please cite the following two papers that made this development      %
     % possible and the two reviews that describe the various versions:     %
     %                                                                      %
     %   T. Thonhauser et al., PRL 115, 136402 (2015).                      %
     %   T. Thonhauser et al., PRB 76, 125112 (2007).                       %
     %   K. Berland et al., Rep. Prog. Phys. 78, 066501 (2015).             %
     %   D.C. Langreth et al., J. Phys.: Condens. Matter 21, 084203 (2009). %
     %                                                                      %
     %                                                                      %
     % If you are calculating the stress with vdW-DF, please also cite:     %
     %                                                                      %
     %   R. Sabatini et al., J. Phys.: Condens. Matter 24, 424209 (2012).   %
     %                                                                      %
     %%%%%%%%%%%%%%%%%%%%%%%%%%%%%%%%%%%%%%%%%%%%%%%%%%%%%%%%%%%%%%%%%%%%%%%%

     Adding external electric field

     Computed dipole along edir(3) :
        Dipole              -13.0968 Ry au,        -33.2887 Debye
        Dipole field         -0.0247 Ry au,

        Potential amp.        2.2911 Ry
        Total length         46.3494 bohr

     Starting wfcs are  305 atomic wfcs
  @ DRIVER MODE: Message from server: STATUS
  @ DRIVER MODE: Message from server: POSDATA
  @ DRIVER MODE: Reading and sharing cell
  @ DRIVER MODE: Reading and sharing positions
  @ DRIVER MODE: Received positions

     Self-consistent Calculation

     iteration #  1     ecut=    29.40 Ry     beta= 0.05
     Davidson diagonalization with overlap
     c_bands:  5 eigenvalues not converged
     c_bands:  2 eigenvalues not converged
     c_bands:  1 eigenvalues not converged
     c_bands:  1 eigenvalues not converged
     c_bands:  4 eigenvalues not converged
     c_bands:  1 eigenvalues not converged
     ethr =  1.00E-05,  avg # of iterations = 28.5

[...]

     total energy              =   -2288.79978658 Ry
     estimated scf accuracy    <    7754.83230817 Ry

     iteration #  2     ecut=    29.40 Ry     beta= 0.05
     Davidson diagonalization with overlap
     ethr =  1.00E-02,  avg # of iterations = 25.0

[...]

     iteration # 43     ecut=    29.40 Ry     beta= 0.05
     Davidson diagonalization with overlap
     c_bands:  2 eigenvalues not converged
     ethr =  3.63E-07,  avg # of iterations = 13.5

[...]

     total energy              =   -2973.89792399 Ry
     estimated scf accuracy    <       0.00000016 Ry

     iteration # 68     ecut=    29.40 Ry     beta= 0.05
     Davidson diagonalization with overlap
     ethr =  2.92E-11,  avg # of iterations =  9.7

     negative rho (up, down):  1.611E-02 0.000E+00

     Adding external electric field

     Computed dipole along edir(3) :
        Dipole                0.8511 Ry au,          2.1634 Debye
        Dipole field          0.0016 Ry au,

        Potential amp.       -0.1489 Ry
        Total length         46.3494 bohr

     End of self-consistent calculation

          k = 0.0000 0.0000 0.0000 ( 18029 PWs)   bands (ev):

   -55.6412 -55.6387 -55.6047 -55.5691 -55.4890 -55.4665 -55.4464 -55.4430
   -55.4326 -55.3900 -55.3477 -55.2903 -55.2115 -55.0665 -54.6019 -54.5679
   -32.1231 -32.0967 -31.9763 -31.9713 -31.9701 -31.9294 -31.9039 -31.8847
   -31.8778 -31.8625 -31.8431 -31.8326 -31.7914 -31.7616 -31.7478 -31.7451
   -31.7404 -31.7269 -31.7062 -31.7019 -31.6965 -31.6705 -31.6647 -31.6519
   -31.6406 -31.6393 -31.6176 -31.6087 -31.5937 -31.5896 -31.5841 -31.5727
   -31.5615 -31.5448 -31.5014 -31.4941 -31.4909 -31.4753 -31.4115 -31.3260
   -31.2919 -31.2841 -31.0071 -30.9226 -30.9001 -30.8249 -30.7386 -30.6266
   -18.6881 -16.3057 -16.2522 -16.1113 -15.8883 -15.8013 -15.7699 -15.6091
   -15.4827 -15.4409 -15.3176 -15.1708 -15.1407 -15.1329 -15.1264 -15.1176
   -15.1005 -15.0729 -15.0596 -15.0548 -15.0413 -14.9770 -14.9583 -14.9293
   -14.8484 -14.7972 -14.7695 -14.6993 -14.6563 -14.5539 -14.4928 -14.2715
   -13.0996 -12.9835  -9.5733  -6.9081  -5.8346  -4.3052  -4.0892  -3.8316
    -3.6251  -3.5373  -3.5140  -3.4056  -3.3139  -3.0850  -3.0622  -2.9924
    -2.8410  -2.7480  -2.6630  -2.6361  -2.5948  -2.5413  -2.5273  -2.4846
    -2.4186  -2.3872  -2.3456  -2.3336  -2.2839  -2.2763  -2.2300  -2.1525
    -2.1458  -2.0403  -1.9722  -1.9674  -1.9529  -1.9444  -1.8945  -1.8793
    -1.8717  -1.8012  -1.7459  -1.7115  -1.6456  -1.6197  -1.5482  -1.3034
    -1.2252  -1.2121  -1.1502  -1.0694  -1.0386  -1.0245  -1.0138  -0.9881
    -0.9610  -0.8719  -0.8455  -0.7055  -0.6997  -0.6609  -0.6343  -0.6054
    -0.4943  -0.4311  -0.4075  -0.3623  -0.3413  -0.3018  -0.2387  -0.2197
    -0.1400  -0.0962  -0.0168  -0.0145   0.0108   0.0817   0.1412   0.1755
     0.1916   0.2917   0.3067   0.3355   0.3421   0.3648   0.3910   0.4841
     0.5020   0.5441   0.5666   0.7080   0.7186   0.7707   0.9144   0.9443
     1.0468   1.1449   1.3727   1.3861   1.4254   1.4526   1.6215   1.9904
     2.0352   3.4408   3.6001   3.6132   3.7098   3.7228   3.7996   3.9352
     4.0298   4.1015   4.1347

[...]

          k = 0.0380-0.0419 0.0000 ( 17876 PWs)   bands (ev):

[...]

          k =-0.0760-0.0000 0.0000 ( 17886 PWs)   bands (ev):

[...]

          k =-0.0760-0.0839 0.0000 ( 17948 PWs)   bands (ev):

   -55.6403 -55.6217 -55.6216 -55.5679 -55.4808 -55.4521 -55.4501 -55.4476
   -55.4470 -55.3816 -55.3561 -55.2914 -55.2096 -55.0683 -54.5849 -54.5848
   -32.0217 -31.9384 -31.9383 -31.9304 -31.9150 -31.9147 -31.9046 -31.8430
   -31.8177 -31.8100 -31.7994 -31.7836 -31.7782 -31.7622 -31.7601 -31.7417
   -31.7417 -31.7318 -31.7306 -31.7192 -31.7185 -31.7043 -31.6937 -31.6871
   -31.6509 -31.6472 -31.6460 -31.6402 -31.6253 -31.6227 -31.6150 -31.6025
   -31.5861 -31.5802 -31.5697 -31.5662 -31.4956 -31.4667 -31.4149 -31.4071
   -31.3307 -31.2874 -30.9128 -30.9128 -30.8202 -30.8198 -30.7820 -30.7817
   -18.6819 -16.2569 -15.9405 -15.6350 -15.6339 -15.6141 -15.4555 -15.4215
   -15.3896 -15.3599 -15.3094 -15.3036 -15.2785 -15.2433 -15.2296 -15.1770
   -15.1528 -15.1358 -15.1173 -15.0983 -15.0788 -15.0502 -15.0395 -15.0380
   -14.9581 -14.9493 -14.9348 -14.9270 -14.8499 -14.6375 -14.4661 -14.4292
   -13.0854 -13.0854  -9.5600  -6.9022  -5.7976  -4.4878  -3.9435  -3.7606
    -3.0677  -2.8693  -2.8395  -2.7126  -2.6794  -2.6562  -2.5915  -2.5507
    -2.5492  -2.4726  -2.4593  -2.4147  -2.4104  -2.3658  -2.3633  -2.3355
    -2.3267  -2.3131  -2.3037  -2.2967  -2.2479  -2.2219  -2.2188  -2.2062
    -2.1828  -2.1689  -2.1449  -2.1280  -2.0686  -1.9931  -1.8810  -1.8583
    -1.7991  -1.7644  -1.7500  -1.7308  -1.7088  -1.6813  -1.6628  -1.5652
    -1.4824  -1.4209  -1.3186  -1.2326  -1.2123  -1.1595  -1.1516  -1.1090
    -1.0862  -1.0661  -1.0296  -0.9612  -0.8512  -0.8398  -0.7711  -0.6854
    -0.6424  -0.5780  -0.5759  -0.5698  -0.5540  -0.5297  -0.5106  -0.4601
    -0.4554  -0.3647  -0.3405  -0.3337  -0.3155  -0.2849  -0.1515  -0.1121
    -0.0639   0.1366   0.1432   0.1715   0.2793   0.3693   0.4352   0.4453
     0.5028   0.5505   0.5848   0.6245   0.6800   0.7039   0.7696   0.8795
     0.8857   0.9046   0.9464   1.0078   1.2480   1.7905   1.7973   1.8555
     1.8558   3.6550   3.8485   3.9647   3.9701   3.9854   4.0267   4.0354
     4.0502   4.1111   4.1174

     the Fermi energy is     3.4814 ev

!    total energy              =   -2973.89795186 Ry
     estimated scf accuracy    <       0.00000003 Ry
     smearing contrib. (-TS)   =      -0.01933849 Ry
     internal energy E=F+TS    =   -2973.87861337 Ry

     The total energy is F=E-TS. E is the sum of the following terms:
     one-electron contribution =  -23221.54618784 Ry
     hartree contribution      =   11705.18899852 Ry
     xc contribution           =    -493.94895157 Ry
     ewald contribution        =    9036.42616042 Ry
     electric field correction =       0.00136709 Ry

     convergence has been achieved in  68 iterations

     Forces acting on atoms (cartesian axes, Ry/au):

     atom    1 type  1   force =     0.00006642   -0.00019639    0.09418492
     atom    2 type  1   force =    -0.00015911    0.00003722   -0.17482326
     atom    3 type  2   force =     0.00002905   -0.00050031   -0.02069768
     atom    4 type  2   force =     0.00004227   -0.00070938    0.05228184
     atom    5 type  2   force =    -0.00299520   -0.00196589    0.00012441
     atom    6 type  2   force =     0.00463138   -0.00150106   -0.00033258
     atom    7 type  1   force =    -0.00019456    0.00281558    0.01407058
     atom    8 type  1   force =    -0.00011892   -0.00121500   -0.00059888
     atom    9 type  2   force =     0.00005163   -0.00009943   -0.00010247
     atom   10 type  2   force =    -0.00139981    0.00347010   -0.00732287
     atom   11 type  2   force =    -0.00019035    0.00025310    0.00020573
     atom   12 type  2   force =     0.00037763    0.00039416    0.00061286
     atom   13 type  1   force =    -0.00042903    0.00057146   -0.00028737
     atom   14 type  1   force =     0.00000565   -0.00008655    0.00069658
     atom   15 type  2   force =     0.00038732    0.00090707    0.00065000
     atom   16 type  2   force =    -0.00009269   -0.00077610    0.00092221
     atom   17 type  2   force =     0.00057896   -0.00026415   -0.00013126
     atom   18 type  2   force =     0.00024709   -0.00009493   -0.00024872
     atom   19 type  1   force =    -0.00000122    0.00002500   -0.00051836
     atom   20 type  1   force =    -0.00028282   -0.00013571   -0.00051161
     atom   21 type  2   force =     0.00006946   -0.00000262    0.10301720
     atom   22 type  2   force =     0.00038432    0.00034471    0.00006930
     atom   23 type  2   force =    -0.07236684   -0.00018392   -0.02724986
     atom   24 type  2   force =     0.07231028    0.00026248   -0.02729907
     atom   25 type  1   force =     0.00007056   -0.00030354    0.09363132
     atom   26 type  1   force =    -0.00006012   -0.00116273   -0.17493135
     atom   27 type  2   force =     0.00017251   -0.00002295   -0.01956979
     atom   28 type  2   force =     0.00003171   -0.00104443    0.04856326
     atom   29 type  2   force =    -0.00594072    0.00105820    0.00311975
     atom   30 type  2   force =     0.00742294    0.00157328    0.00262209
     atom   31 type  1   force =     0.00004599    0.00142357    0.00267313
     atom   32 type  1   force =     0.00006765    0.00067574   -0.00038813
     atom   33 type  2   force =    -0.00016946   -0.00012994   -0.00051380
     atom   34 type  2   force =    -0.00061528   -0.00196736   -0.01093906
     atom   35 type  2   force =     0.00022378   -0.00040526   -0.00014183
     atom   36 type  2   force =    -0.00002601   -0.00026179   -0.00020725
     atom   37 type  1   force =    -0.00026185   -0.00039005   -0.00052002
     atom   38 type  1   force =     0.00025688    0.00023578    0.00034035
     atom   39 type  2   force =    -0.00036714   -0.00121771   -0.00029832
     atom   40 type  2   force =    -0.00013126    0.00035129    0.00082081
     atom   41 type  2   force =    -0.00079461    0.00010801    0.00031487
     atom   42 type  2   force =     0.00031416   -0.00050463   -0.00004983
     atom   43 type  1   force =    -0.00031887    0.00062286    0.00008587
     atom   44 type  1   force =     0.00011842   -0.00131428   -0.00011398
     atom   45 type  2   force =     0.00006594    0.00005613    0.10286666
     atom   46 type  2   force =    -0.07232344   -0.00006015   -0.02720258
     atom   47 type  2   force =     0.07223123    0.00038982   -0.02723499
     atom   48 type  3   force =    -0.00102209    0.00106230    0.00059964
     atom   49 type  3   force =     0.00140003    0.01079987    0.00583258
     atom   50 type  4   force =     0.00044556    0.00023088    0.00031116
     atom   51 type  5   force =    -0.00031879   -0.00116174    0.00036213
     atom   52 type  5   force =    -0.00021717    0.00151640    0.00049015
     atom   53 type  5   force =    -0.00147134   -0.01199037   -0.00660655
     atom   54 type  5   force =     0.00032945    0.00100912    0.00068248
     atom   55 type  2   force =     0.00035724    0.00028428   -0.00045784
     atom   56 type  5   force =    -0.00046683   -0.00081001   -0.00085255

     Total force =     0.361537     Total SCF correction =     0.000460
  @ DRIVER MODE: Message from server: STATUS
  @ DRIVER MODE: Message from server: GETFORCE
  @ DRIVER MODE: Returning v,forces,stress,ensemble

     Writing output data file ./calc.save/
  @ DRIVER MODE: Message from server: EXIT
  @ DRIVE MODE: Exiting

     General routines

     Parallel routines

   This run was terminated on:   1: 5:42  29Sep2021

   JOB DONE.