     Program PWSCF v.6.7GPU starts on 18Oct2021 at 19:59:58

     R & G space division:  proc/nbgrp/npool/nimage =       8
     Reading input from /storage/home/hcoda1/3/ntian30/research/carbon/CxH_vib/Thiel_calc/ads_slab/NH3NH2H_perslab/out_0017/pw.inp
Warning: card &CELL ignored
Warning: card   CELL_DYNAMICS='IPI', ignored
Warning: card / ignored

     Current dimensions of program PWSCF are:
     Max number of different atomic species (ntypx) = 10
     Max number of k-points (npk) =  40000
     Max angular momentum in pseudopotentials (lmaxx) =  3
     Presently no symmetry can be used with electric field

     Message from routine cell_base_init:
     DEPRECATED: use true lattice parameter, not A to a.u. conversion factor

     IMPORTANT: XC functional enforced from input :
     Exchange-correlation= BEEF-VDW
                           (   1   4  43  14   2   0   0)
     Any further DFT definition will be discarded
     Please, verify this is what you really want

  @ DRIVER MODE: Connecting to
 qe_1139763_3255139.sched-torque.pace.gatech.eduugza31xj_scratch
  using UNIX socket
  @ DRIVER MODE: Message from server: STATUS
  @ DRIVER MODE: Message from server: INIT
  @ DRIVER MODE: Receiving replica           0          -1
  @ DRIVER MODE: Receiving encoded integer          25
  @ DRIVER MODE:  SCF:  T  FORCE:  T  STRESS:  F  VC:  F  ENSEMBLE:  F
  @ DRIVER MODE:  SCF:  T  FORCE:  T  STRESS:  F  VC:  F  ENSEMBLE:  F

     Using Slab Decomposition

     bravais-lattice index     =            0
     lattice parameter (alat)  =       1.8897  a.u.
     unit-cell volume          =    9988.4706 (a.u.)^3
     number of atoms/cell      =           61
     number of atomic types    =            4
     number of electrons       =       442.00
     number of Kohn-Sham states=          231
     kinetic-energy cutoff     =      29.3995  Ry
     charge density cutoff     =     293.9946  Ry
     scf convergence threshold =      7.3E-08
     mixing beta               =       0.0500
     number of iterations used =            8  plain     mixing
     Exchange-correlation= BEEF-VDW
                           (   1   4  43  14   2   0   0)

     celldm(1)=   1.889726  celldm(2)=   0.000000  celldm(3)=   0.000000
     celldm(4)=   0.000000  celldm(5)=   0.000000  celldm(6)=   0.000000

     crystal axes: (cart. coord. in units of alat)
               a(1) = (   6.579727   0.000000   0.000000 )
               a(2) = (  -0.001163   8.942395   0.000000 )
               a(3) = (   0.000000   0.000000  25.155947 )

     reciprocal axes: (cart. coord. in units 2 pi/alat)
               b(1) = (  0.151982  0.000020  0.000000 )
               b(2) = (  0.000000  0.111827  0.000000 )
               b(3) = (  0.000000  0.000000  0.039752 )

     PseudoPot. # 1 for O  read from file:
     /storage/coda1/p-amedford6/0/shared/rich_project_chbe-medford/medford-share/data/pseudos_module/espresso/nninc/pbe/van/O.UPF
     MD5 check sum: 78c19812648e8988a0fe644b0f25305e
     Pseudo is Ultrasoft, Zval =  6.0
     Generated by new atomic code, or converted to UPF format
     Using radial grid of  737 points,  4 beta functions with:
                l(1) =   0
                l(2) =   0
                l(3) =   1
                l(4) =   1
     Q(r) pseudized with  8 coefficients,  rinner =    0.800   0.800   0.800

     PseudoPot. # 2 for Ti read from file:
     /storage/coda1/p-amedford6/0/shared/rich_project_chbe-medford/medford-share/data/pseudos_module/espresso/nninc/pbe/van/Ti.UPF
     MD5 check sum: 8e4df49b7f0d34bbd5052bf3f5ea0213
     Pseudo is Ultrasoft, Zval = 12.0
     Generated by new atomic code, or converted to UPF format
     Using radial grid of  851 points,  6 beta functions with:
                l(1) =   0
                l(2) =   0
                l(3) =   1
                l(4) =   1
                l(5) =   2
                l(6) =   2
     Q(r) pseudized with  8 coefficients,  rinner =    1.000   1.000   1.000
                                                       1.000   1.000

     PseudoPot. # 3 for H  read from file:
     /storage/coda1/p-amedford6/0/shared/rich_project_chbe-medford/medford-share/data/pseudos_module/espresso/nninc/pbe/van/H.UPF
     MD5 check sum: b5ee9d7bfd3a09ee7748110bda690ff7
     Pseudo is Ultrasoft, Zval =  1.0
     Generated by new atomic code, or converted to UPF format
     Using radial grid of  615 points,  1 beta functions with:
                l(1) =   0
     Q(r) pseudized with  8 coefficients,  rinner =    0.800

     PseudoPot. # 4 for N  read from file:
     /storage/coda1/p-amedford6/0/shared/rich_project_chbe-medford/medford-share/data/pseudos_module/espresso/nninc/pbe/van/N.UPF
     MD5 check sum: 90d10febe142ad51ac9d5be1deb811c4
     Pseudo is Ultrasoft, Zval =  5.0
     Generated by new atomic code, or converted to UPF format
     Using radial grid of  729 points,  4 beta functions with:
                l(1) =   0
                l(2) =   0
                l(3) =   1
                l(4) =   1
     Q(r) pseudized with  8 coefficients,  rinner =    0.800   0.800   0.800

     atomic species   valence    mass     pseudopotential
        O1             6.00    15.99900     O ( 1.00)
        Ti1           12.00    47.86700     Ti( 1.00)
        H1             1.00     1.00800     H ( 1.00)
        N1             5.00    14.00700     N ( 1.00)

     No symmetry found

   Cartesian axes

     site n.     atom                  positions (alat units)
         1           O1  tau(   1) = (   0.0007354   0.0005023  10.5931620  )
         2           O1  tau(   2) = (   3.2892937   8.9423630  13.8814308  )
         3           O1  tau(   3) = (   6.5785080   0.0907754  17.2996570  )
         4           O1  tau(   4) = (   0.0006271   0.0005054   7.9858123  )
         5           O1  tau(   5) = (   3.2892617   8.9274694  11.1867540  )
         6           O1  tau(   6) = (   0.0001068   0.0384811  14.5856928  )
         7           O1  tau(   7) = (   1.9868534   1.4903216   9.2879459  )
         8           O1  tau(   8) = (   5.2392332   1.6199063  12.5840971  )
         9           O1  tau(   9) = (   2.0046145   1.5651943  16.0652335  )
        10           Ti1 tau(  10) = (   0.0007404   1.4906270   9.2895810  )
        11           Ti1 tau(  11) = (   3.2903033   1.3475644  12.4784176  )
        12           Ti1 tau(  12) = (   0.0002083   1.2954417  15.7753146  )
        13           O1  tau(  13) = (   4.5942328   1.4918067   9.2879030  )
        14           O1  tau(  14) = (   1.3408909   1.6195689  12.5841697  )
        15           O1  tau(  15) = (   4.5747373   1.5650701  16.0650860  )
        16           Ti1 tau(  16) = (   3.2902859   2.9801868   9.2893338  )
        17           Ti1 tau(  17) = (   0.0003213   2.8429885  12.4272127  )
        18           Ti1 tau(  18) = (   3.2894782   2.8703589  15.6911549  )
        19           O1  tau(  19) = (   0.0003479   2.9813005  10.5931620  )
        20           O1  tau(  20) = (   3.2897922   2.9583395  13.9032781  )
        21           O1  tau(  21) = (   0.0002396   2.9813036   7.9858123  )
        22           O1  tau(  22) = (   3.2900450   2.9730570  11.1907869  )
        23           O1  tau(  23) = (   0.0001206   2.9807552  14.9070210  )
        24           O1  tau(  24) = (   1.9864658   4.4711199   9.2879459  )
        25           O1  tau(  25) = (   5.2482068   4.5640541  12.6028892  )
        26           O1  tau(  26) = (   2.0118887   4.5193519  16.0312246  )
        27           Ti1 tau(  27) = (   0.0003529   4.4714252   9.2895810  )
        28           Ti1 tau(  28) = (   3.2901403   4.3402809  12.5217819  )
        29           Ti1 tau(  29) = (   0.0009811   4.3515161  16.1888847  )
        30           O1  tau(  30) = (   4.5938453   4.4726049   9.2879030  )
        31           O1  tau(  31) = (   1.3314901   4.5639303  12.6028828  )
        32           O1  tau(  32) = (   4.5682806   4.5188618  16.0312494  )
        33           Ti1 tau(  33) = (   3.2898983   5.9609850   9.2893338  )
        34           Ti1 tau(  34) = (   0.0001002   5.8006911  12.4939615  )
        35           Ti1 tau(  35) = (   3.2910898   5.8128663  15.8108673  )
        36           O1  tau(  36) = (  -0.0000397   5.9620987  10.5931620  )
        37           O1  tau(  37) = (   3.2898758   5.9691391  13.9384534  )
        38           O1  tau(  38) = (   0.0001572   5.9906873  17.2924393  )
        39           O1  tau(  39) = (  -0.0001480   5.9621018   7.9858123  )
        40           O1  tau(  40) = (   3.2897271   5.9334558  11.2049738  )
        41           O1  tau(  41) = (   0.0000685   5.9641935  14.6703060  )
        42           O1  tau(  42) = (   1.9860782   7.4519181   9.2879459  )
        43           O1  tau(  43) = (   5.2398882   7.5535610  12.5750285  )
        44           O1  tau(  44) = (   1.9879998   7.5809304  16.0172394  )
        45           Ti1 tau(  45) = (  -0.0000347   7.4522234   9.2895810  )
        46           Ti1 tau(  46) = (   3.2896426   7.2731609  12.5447809  )
        47           Ti1 tau(  47) = (   0.0002275   7.1890881  15.9781391  )
        48           O1  tau(  48) = (   4.5934577   7.4534031   9.2879030  )
        49           O1  tau(  49) = (   1.3388943   7.5534522  12.5751898  )
        50           O1  tau(  50) = (   4.5903976   7.5792304  16.0166626  )
        51           Ti1 tau(  51) = (   3.2895107   8.9417832   9.2893338  )
        52           Ti1 tau(  52) = (  -0.0003648   8.7758640  12.4444508  )
        53           Ti1 tau(  53) = (   3.2897763   8.8353469  15.6829021  )
        54           H1  tau(  54) = (   0.0028024   0.0378429  18.2586218  )
        55           N1  tau(  55) = (   0.0000016   3.3024973  17.8430138  )
        56           H1  tau(  56) = (   6.5772996   2.3364033  18.1330564  )
        57           H1  tau(  57) = (   6.5785254   3.8921159  18.6668881  )
        58           N1  tau(  58) = (   3.2892544   5.9906839  18.1401779  )
        59           H1  tau(  59) = (   3.2890604   5.0659402  18.5578254  )
        60           H1  tau(  60) = (   2.4549486   6.4784715  18.4500629  )
        61           H1  tau(  61) = (   4.1227990   6.4789769  18.4516084  )

     number of k points=    10  Fermi-Dirac smearing, width (Ry)=  0.0073
                       cart. coord. in units 2pi/alat
        k(    1) = (   0.0000000   0.0000000   0.0000000), wk =   0.1250000
        k(    2) = (   0.0000000   0.0279567   0.0000000), wk =   0.2500000
        k(    3) = (   0.0000000  -0.0559134   0.0000000), wk =   0.1250000
        k(    4) = (   0.0379955   0.0000049   0.0000000), wk =   0.2500000
        k(    5) = (   0.0379955   0.0279617   0.0000000), wk =   0.2500000
        k(    6) = (   0.0379955  -0.0559085   0.0000000), wk =   0.2500000
        k(    7) = (   0.0379955  -0.0279518   0.0000000), wk =   0.2500000
        k(    8) = (  -0.0759910  -0.0000099   0.0000000), wk =   0.1250000
        k(    9) = (  -0.0759910   0.0279468   0.0000000), wk =   0.2500000
        k(   10) = (  -0.0759910  -0.0559233   0.0000000), wk =   0.1250000

     Initial potential from superposition of free atoms

     starting charge  423.99908, renormalised to  442.00000

     negative rho (up, down):  3.654E-02 0.000E+00

     %%%%%%%%%%%%%%%%%%%%%%%%%%%%%%%%%%%%%%%%%%%%%%%%%%%%%%%%%%%%%%%%%%%%%%%%
     %                                                                      %
     % You are using vdW-DF, which was implemented by the Thonhauser group. %
     % Please cite the following two papers that made this development      %
     % possible and the two reviews that describe the various versions:     %
     %                                                                      %
     %   T. Thonhauser et al., PRL 115, 136402 (2015).                      %
     %   T. Thonhauser et al., PRB 76, 125112 (2007).                       %
     %   K. Berland et al., Rep. Prog. Phys. 78, 066501 (2015).             %
     %   D.C. Langreth et al., J. Phys.: Condens. Matter 21, 084203 (2009). %
     %                                                                      %
     %                                                                      %
     % If you are calculating the stress with vdW-DF, please also cite:     %
     %                                                                      %
     %   R. Sabatini et al., J. Phys.: Condens. Matter 24, 424209 (2012).   %
     %                                                                      %
     %%%%%%%%%%%%%%%%%%%%%%%%%%%%%%%%%%%%%%%%%%%%%%%%%%%%%%%%%%%%%%%%%%%%%%%%

     Adding external electric field

     Computed dipole along edir(3) :
        Dipole               -6.3666 Ry au,        -16.1823 Debye
        Dipole field         -0.0080 Ry au,

        Potential amp.        0.7425 Ry
        Total length         46.3494 bohr

     Starting wfcs are  334 atomic wfcs
  @ DRIVER MODE: Message from server: STATUS
  @ DRIVER MODE: Message from server: POSDATA
  @ DRIVER MODE: Reading and sharing cell
  @ DRIVER MODE: Reading and sharing positions
  @ DRIVER MODE: Received positions

     Self-consistent Calculation

     iteration #  1     ecut=    29.40 Ry     beta= 0.05
     Davidson diagonalization with overlap
     c_bands:  2 eigenvalues not converged
     c_bands:  3 eigenvalues not converged
     c_bands:  3 eigenvalues not converged
     c_bands:  2 eigenvalues not converged
     c_bands:  1 eigenvalues not converged
     c_bands:  4 eigenvalues not converged
     c_bands:  1 eigenvalues not converged
     c_bands:  1 eigenvalues not converged
     c_bands:  5 eigenvalues not converged
     ethr =  1.00E-05,  avg # of iterations = 20.0

[...]

     total energy              =   -3277.25458201 Ry
     estimated scf accuracy    <     250.58627898 Ry

[...]

     iteration #  3     ecut=    29.40 Ry     beta= 0.05
     Davidson diagonalization with overlap
     ethr =  1.00E-02,  avg # of iterations = 12.6

[...]

     iteration # 36     ecut=    29.40 Ry     beta= 0.05
     Davidson diagonalization with overlap
     c_bands:  1 eigenvalues not converged
     ethr =  1.67E-07,  avg # of iterations = 14.1

[...]

     total energy              =   -3295.81879507 Ry
     estimated scf accuracy    <       0.00000010 Ry

     iteration # 59     ecut=    29.40 Ry     beta= 0.05
     Davidson diagonalization with overlap
     ethr =  2.33E-11,  avg # of iterations = 12.1

     negative rho (up, down):  3.514E-02 0.000E+00

     Adding external electric field

     Computed dipole along edir(3) :
        Dipole                2.0097 Ry au,          5.1082 Debye
        Dipole field          0.0025 Ry au,

        Potential amp.       -0.2344 Ry
        Total length         46.3494 bohr

     End of self-consistent calculation

          k = 0.0000 0.0000 0.0000 ( 26871 PWs)   bands (ev):

   -57.4460 -57.4229 -57.4143 -57.4074 -57.3638 -57.3513 -57.3125 -57.3081
   -57.2927 -57.2633 -57.2429 -57.2345 -57.2256 -57.1908 -57.0112 -56.5112
   -56.4845 -56.4680 -33.8438 -33.8322 -33.8253 -33.8213 -33.8123 -33.7792
   -33.7682 -33.7617 -33.7529 -33.7386 -33.7348 -33.7146 -33.6935 -33.6805
   -33.6530 -33.6498 -33.6377 -33.6351 -33.6144 -33.6126 -33.5920 -33.5806
   -33.5571 -33.5532 -33.5524 -33.5439 -33.5402 -33.5376 -33.5349 -33.5266
   -33.5181 -33.5054 -33.4902 -33.4754 -33.4671 -33.4559 -33.4412 -33.4392
   -33.4348 -33.4322 -33.4037 -33.3803 -33.3407 -33.3053 -33.2327 -32.8307
   -32.8234 -32.8098 -32.8026 -32.7885 -32.7356 -32.6768 -32.6568 -32.5318
   -19.1421 -18.3011 -17.9741 -17.7575 -17.7104 -17.6877 -17.6071 -17.5421
   -17.5351 -17.4638 -17.3852 -17.3054 -17.2772 -17.2725 -17.2376 -17.2097
   -17.1907 -17.1664 -17.1652 -17.1253 -17.1142 -17.0949 -17.0680 -17.0206
   -16.9475 -16.9347 -16.9003 -16.8930 -16.8874 -16.8873 -16.7434 -16.6656
   -16.5849 -15.2743 -14.9715 -14.9152 -14.9079  -7.7064  -7.6432  -7.2354
    -6.7807  -5.6248  -5.4646  -5.3791  -5.2770  -4.9384  -4.8723  -4.8506
    -4.8374  -4.7918  -4.7532  -4.7522  -4.6945  -4.6856  -4.6667  -4.5857
    -4.5722  -4.5496  -4.4985  -4.4756  -4.4256  -4.4252  -4.3752  -4.3193
    -4.2694  -4.2618  -4.2607  -4.2350  -4.2330  -4.2111  -4.2073  -4.0939
    -4.0882  -4.0138  -3.9065  -3.8942  -3.8474  -3.7768  -3.7661  -3.7411
    -3.7137  -3.6512  -3.6050  -3.5514  -3.5438  -3.5304  -3.4663  -3.4422
    -3.3632  -3.2569  -3.2451  -3.2120  -3.1674  -3.1531  -3.1071  -3.0762
    -3.0023  -2.9284  -2.8492  -2.8228  -2.7182  -2.6722  -2.6530  -2.6202
    -2.6127  -2.5393  -2.5353  -2.5103  -2.3576  -2.2550  -2.2445  -2.2249
    -2.2137  -2.1866  -2.1831  -2.1555  -2.0904  -2.0443  -2.0367  -2.0207
    -2.0008  -1.9890  -1.8993  -1.8404  -1.8131  -1.7843  -1.7684  -1.6746
    -1.6358  -1.6003  -1.5884  -1.4843  -1.4296  -1.3231  -1.3184  -1.3044
    -1.2333  -1.1870  -1.1149  -0.7978  -0.6286  -0.5565  -0.2694  -0.2114
    -0.2034   0.0566   0.0689   0.1971   1.5428   1.7740   1.9746   1.9769
     1.9925   2.0633   2.1312   2.1444   2.2094   2.2614   2.2789

[...]

          k = 0.0380-0.0280 0.0000 ( 26873 PWs)   bands (ev):

[...]

          k =-0.0760-0.0000 0.0000 ( 26902 PWs)   bands (ev):

[...]

          k =-0.0760-0.0559 0.0000 ( 26868 PWs)   bands (ev):

   -57.4404 -57.4333 -57.4093 -57.4067 -57.3646 -57.3514 -57.3114 -57.3089
   -57.2918 -57.2618 -57.2456 -57.2364 -57.2239 -57.1902 -57.0112 -56.5086
   -56.4898 -56.4652 -33.9225 -33.9048 -33.8546 -33.8235 -33.8071 -33.7832
   -33.7743 -33.7657 -33.7240 -33.7088 -33.6943 -33.6645 -33.6415 -33.6375
   -33.6333 -33.6130 -33.5996 -33.5987 -33.5975 -33.5895 -33.5875 -33.5815
   -33.5699 -33.5594 -33.5569 -33.5520 -33.5362 -33.5298 -33.5235 -33.5178
   -33.5169 -33.5138 -33.5049 -33.5020 -33.4951 -33.4880 -33.4568 -33.4558
   -33.4475 -33.4356 -33.4340 -33.3951 -33.3617 -33.3048 -33.2361 -32.9121
   -32.8262 -32.8087 -32.7857 -32.7238 -32.7025 -32.6469 -32.6371 -32.6182
   -19.1356 -17.9947 -17.9232 -17.6836 -17.6277 -17.6150 -17.5998 -17.5640
   -17.5084 -17.4776 -17.4386 -17.4117 -17.3734 -17.3279 -17.3142 -17.2396
   -17.2349 -17.2311 -17.1649 -17.1629 -17.1454 -17.1004 -17.0871 -17.0647
   -17.0157 -16.9747 -16.9609 -16.8816 -16.8565 -16.8160 -16.7211 -16.6526
   -16.6182 -15.2717 -14.9729 -14.9625 -14.8497  -7.6885  -7.6414  -7.2262
    -6.7831  -5.2467  -5.2152  -5.1806  -5.1521  -5.0473  -4.8616  -4.7855
    -4.7522  -4.7477  -4.6831  -4.6633  -4.6566  -4.6120  -4.5999  -4.5749
    -4.5519  -4.5214  -4.4879  -4.4799  -4.4437  -4.4118  -4.3967  -4.3752
    -4.3576  -4.3519  -4.3383  -4.2504  -4.1878  -4.1707  -4.1161  -4.0892
    -4.0642  -4.0206  -4.0090  -3.9664  -3.9353  -3.7130  -3.6255  -3.6099
    -3.6090  -3.5826  -3.5469  -3.4908  -3.4325  -3.4025  -3.3707  -3.2448
    -3.2048  -3.1917  -3.1873  -3.1521  -3.0684  -3.0420  -3.0129  -2.9807
    -2.9649  -2.9153  -2.9028  -2.8625  -2.8220  -2.7501  -2.7067  -2.6695
    -2.6370  -2.6039  -2.5927  -2.5662  -2.5370  -2.5329  -2.5059  -2.4866
    -2.4142  -2.4121  -2.3733  -2.3167  -2.2434  -2.2099  -2.1919  -2.1135
    -2.0348  -1.9838  -1.9604  -1.9403  -1.8625  -1.7449  -1.7194  -1.7101
    -1.6773  -1.6288  -1.5773  -1.5439  -1.4937  -1.4030  -1.2711  -1.2507
    -1.1826  -1.0864  -1.0655  -1.0452  -0.8242  -0.7337  -0.4203  -0.1614
    -0.1166  -0.0974   0.0616   0.0692   1.7034   1.7704   1.8330   1.8663
     1.8826   1.9139   1.9166   1.9857   2.0410   2.1104   2.1303

     the Fermi energy is     1.6424 ev

!    total energy              =   -3295.81883815 Ry
     estimated scf accuracy    <       0.00000005 Ry
     smearing contrib. (-TS)   =      -0.03294613 Ry
     internal energy E=F+TS    =   -3295.78589201 Ry

     The total energy is F=E-TS. E is the sum of the following terms:
     one-electron contribution =  -34383.31937265 Ry
     hartree contribution      =   17260.94079656 Ry
     xc contribution           =    -543.89945871 Ry
     ewald contribution        =   14370.48706147 Ry
     electric field correction =       0.00508131 Ry

     convergence has been achieved in  59 iterations

     Forces acting on atoms (cartesian axes, Ry/au):

     atom    1 type  1   force =     0.00000553    0.00790870    0.05045856
     atom    2 type  1   force =    -0.00000940    0.00035785   -0.00968478
     atom    3 type  1   force =    -0.00002735   -0.00457581   -0.00048399
     atom    4 type  1   force =     0.00005826    0.00282156    0.10760876
     atom    5 type  1   force =     0.00000382    0.00071121    0.00925856
     atom    6 type  1   force =    -0.00000617   -0.00156048    0.00018711
     atom    7 type  1   force =     0.06463802    0.00007936   -0.02898228
     atom    8 type  1   force =     0.00390939   -0.02786492    0.00324845
     atom    9 type  1   force =     0.00820916   -0.01832292    0.00244124
     atom   10 type  2   force =    -0.00005059   -0.00797576   -0.19369766
     atom   11 type  2   force =    -0.00002572    0.02062035   -0.00636092
     atom   12 type  2   force =    -0.00005197    0.02186043   -0.00351358
     atom   13 type  1   force =    -0.06473236   -0.00037544   -0.02893094
     atom   14 type  1   force =    -0.00390749   -0.02784549    0.00324337
     atom   15 type  1   force =    -0.00819879   -0.01830706    0.00242894
     atom   16 type  2   force =     0.00009992    0.00059113    0.06675288
     atom   17 type  2   force =     0.00002283    0.03326259    0.00614306
     atom   18 type  2   force =     0.00000721    0.02096502    0.00181033
     atom   19 type  1   force =     0.00000466    0.00225020    0.05630331
     atom   20 type  1   force =    -0.00000521   -0.00134120   -0.00683243
     atom   21 type  1   force =     0.00005980   -0.00139601    0.10884786
     atom   22 type  1   force =     0.00000782   -0.00025236    0.00988331
     atom   23 type  1   force =     0.00000891   -0.00489628    0.00120820
     atom   24 type  1   force =     0.06619863   -0.00051216   -0.02948720
     atom   25 type  1   force =     0.00420879   -0.03008619    0.00220090
     atom   26 type  1   force =     0.00999148   -0.02417534    0.00223113
     atom   27 type  2   force =    -0.00006750    0.01376486   -0.18652193
     atom   28 type  2   force =    -0.00001872    0.02335928   -0.00581501
     atom   29 type  2   force =    -0.00004449    0.01741882   -0.00909820
     atom   30 type  1   force =    -0.06630531   -0.00096397   -0.02944273
     atom   31 type  1   force =    -0.00420359   -0.03005724    0.00220109
     atom   32 type  1   force =    -0.00992848   -0.02415151    0.00222301
     atom   33 type  2   force =     0.00009459   -0.00142004    0.06833745
     atom   34 type  2   force =     0.00002363    0.03782804    0.00404330
     atom   35 type  2   force =    -0.00002426    0.03581804    0.00772244
     atom   36 type  1   force =     0.00001535    0.00056417    0.06525949
     atom   37 type  1   force =    -0.00001023    0.00229054   -0.01099618
     atom   38 type  1   force =    -0.00000257   -0.00087066    0.00177574
     atom   39 type  1   force =     0.00005807   -0.00143616    0.10679606
     atom   40 type  1   force =     0.00000126   -0.00038641    0.00778358
     atom   41 type  1   force =    -0.00000118   -0.00018371    0.00572292
     atom   42 type  1   force =     0.06732593   -0.00097530   -0.02905439
     atom   43 type  1   force =     0.00313579   -0.02828892    0.00238140
     atom   44 type  1   force =     0.00713871   -0.02148277    0.00453903
     atom   45 type  2   force =    -0.00006893   -0.00850961   -0.18085471
     atom   46 type  2   force =    -0.00000409    0.01744216   -0.00234260
     atom   47 type  2   force =    -0.00004555    0.02032231   -0.00645964
     atom   48 type  1   force =    -0.06742192   -0.00142183   -0.02900915
     atom   49 type  1   force =    -0.00310366   -0.02828831    0.00237899
     atom   50 type  1   force =    -0.00711168   -0.02144404    0.00450809
     atom   51 type  2   force =     0.00012362   -0.00304880    0.06675803
     atom   52 type  2   force =     0.00000654    0.03509684    0.00725873
     atom   53 type  2   force =    -0.00002053    0.02411489    0.00296499
     atom   54 type  3   force =     0.00011026   -0.00017497    0.00060340
     atom   55 type  4   force =    -0.00000159    0.00498464   -0.00209182
     atom   56 type  3   force =    -0.00004865   -0.00323589    0.00330964
     atom   57 type  3   force =    -0.00000006   -0.00070958    0.00105122
     atom   58 type  4   force =     0.00012485    0.00076407   -0.00143613
     atom   59 type  3   force =    -0.00000152   -0.00005978    0.00003954
     atom   60 type  3   force =    -0.00054005    0.00073693   -0.00038920
     atom   61 type  3   force =     0.00039683    0.00066291   -0.00042863

     Total force =     0.461620     Total SCF correction =     0.001024
  @ DRIVER MODE: Message from server: STATUS
  @ DRIVER MODE: Message from server: GETFORCE
  @ DRIVER MODE: Returning v,forces,stress,ensemble

     Writing output data file ./calc.save/
  @ DRIVER MODE: Message from server: EXIT
  @ DRIVE MODE: Exiting

     General routines

     Parallel routines

   This run was terminated on:  20:30:21  18Oct2021

   JOB DONE.