     Program PWSCF v.6.7GPU starts on 23Aug2021 at 20: 8:20

     R & G space division:  proc/nbgrp/npool/nimage =       6
     Reading input from /storage/home/hcoda1/3/ntian30/research/carbon/CH_vib/ads_slab/CHN2_b/out_0015/pw.inp
Warning: card &CELL ignored
Warning: card   CELL_DYNAMICS='IPI', ignored
Warning: card / ignored

     Current dimensions of program PWSCF are:
     Max number of different atomic species (ntypx) = 10
     Max number of k-points (npk) =  40000
     Max angular momentum in pseudopotentials (lmaxx) =  3
     Presently no symmetry can be used with electric field

     Message from routine cell_base_init:
     DEPRECATED: use true lattice parameter, not A to a.u. conversion factor

     IMPORTANT: XC functional enforced from input :
     Exchange-correlation= BEEF-VDW
                           (   1   4  43  14   2   0   0)
     Any further DFT definition will be discarded
     Please, verify this is what you really want

  @ DRIVER MODE: Connecting to
 qe_1139763_2632794.sched-torque.pace.gatech.edu9ws8kmzt_scratch
  using UNIX socket
  @ DRIVER MODE: Message from server: STATUS
  @ DRIVER MODE: Message from server: INIT
  @ DRIVER MODE: Receiving replica           0          -1
  @ DRIVER MODE: Receiving encoded integer          25
  @ DRIVER MODE:  SCF:  T  FORCE:  T  STRESS:  F  VC:  F  ENSEMBLE:  F
  @ DRIVER MODE:  SCF:  T  FORCE:  T  STRESS:  F  VC:  F  ENSEMBLE:  F

     Using Slab Decomposition

     bravais-lattice index     =            0
     lattice parameter (alat)  =       1.8897  a.u.
     unit-cell volume          =    6658.9804 (a.u.)^3
     number of atoms/cell      =           51
     number of atomic types    =            5
     number of electrons       =       393.00
     number of Kohn-Sham states=          206
     kinetic-energy cutoff     =      29.3995  Ry
     charge density cutoff     =     293.9946  Ry
     scf convergence threshold =      7.3E-08
     mixing beta               =       0.0500
     number of iterations used =            8  plain     mixing
     Exchange-correlation= BEEF-VDW
                           (   1   4  43  14   2   0   0)

     celldm(1)=   1.889726  celldm(2)=   0.000000  celldm(3)=   0.000000
     celldm(4)=   0.000000  celldm(5)=   0.000000  celldm(6)=   0.000000

     crystal axes: (cart. coord. in units of alat)
               a(1) = (   6.579727   0.000000   0.000000 )
               a(2) = (  -0.000775   5.961596   0.000000 )
               a(3) = (   0.000000   0.000000  25.155947 )

     reciprocal axes: (cart. coord. in units 2 pi/alat)
               b(1) = (  0.151982  0.000020  0.000000 )
               b(2) = (  0.000000  0.167740  0.000000 )
               b(3) = (  0.000000  0.000000  0.039752 )

     PseudoPot. # 1 for Ti read from file:
     /storage/coda1/p-amedford6/0/shared/rich_project_chbe-medford/medford-share/data/pseudos_module/espresso/nninc/pbe/van/Ti.UPF
     MD5 check sum: 8e4df49b7f0d34bbd5052bf3f5ea0213
     Pseudo is Ultrasoft, Zval = 12.0
     Generated by new atomic code, or converted to UPF format
     Using radial grid of  851 points,  6 beta functions with:
                l(1) =   0
                l(2) =   0
                l(3) =   1
                l(4) =   1
                l(5) =   2
                l(6) =   2
     Q(r) pseudized with  8 coefficients,  rinner =    1.000   1.000   1.000
                                                       1.000   1.000

     PseudoPot. # 2 for O  read from file:
     /storage/coda1/p-amedford6/0/shared/rich_project_chbe-medford/medford-share/data/pseudos_module/espresso/nninc/pbe/van/O.UPF
     MD5 check sum: 78c19812648e8988a0fe644b0f25305e
     Pseudo is Ultrasoft, Zval =  6.0
     Generated by new atomic code, or converted to UPF format
     Using radial grid of  737 points,  4 beta functions with:
                l(1) =   0
                l(2) =   0
                l(3) =   1
                l(4) =   1
     Q(r) pseudized with  8 coefficients,  rinner =    0.800   0.800   0.800

     PseudoPot. # 3 for N  read from file:
     /storage/coda1/p-amedford6/0/shared/rich_project_chbe-medford/medford-share/data/pseudos_module/espresso/nninc/pbe/van/N.UPF
     MD5 check sum: 90d10febe142ad51ac9d5be1deb811c4
     Pseudo is Ultrasoft, Zval =  5.0
     Generated by new atomic code, or converted to UPF format
     Using radial grid of  729 points,  4 beta functions with:
                l(1) =   0
                l(2) =   0
                l(3) =   1
                l(4) =   1
     Q(r) pseudized with  8 coefficients,  rinner =    0.800   0.800   0.800

     PseudoPot. # 4 for C  read from file:
     /storage/coda1/p-amedford6/0/shared/rich_project_chbe-medford/medford-share/data/pseudos_module/espresso/nninc/pbe/van/C.UPF
     MD5 check sum: 1a69bf6b8db32088f5b2163dbdb77a27
     Pseudo is Ultrasoft, Zval =  4.0
     Generated by new atomic code, or converted to UPF format
     Using radial grid of  721 points,  4 beta functions with:
                l(1) =   0
                l(2) =   0
                l(3) =   1
                l(4) =   1
     Q(r) pseudized with  8 coefficients,  rinner =    0.800   0.800   0.800

     PseudoPot. # 5 for H  read from file:
     /storage/coda1/p-amedford6/0/shared/rich_project_chbe-medford/medford-share/data/pseudos_module/espresso/nninc/pbe/van/H.UPF
     MD5 check sum: b5ee9d7bfd3a09ee7748110bda690ff7
     Pseudo is Ultrasoft, Zval =  1.0
     Generated by new atomic code, or converted to UPF format
     Using radial grid of  615 points,  1 beta functions with:
                l(1) =   0
     Q(r) pseudized with  8 coefficients,  rinner =    0.800

     atomic species   valence    mass     pseudopotential
        Ti1           12.00    47.86700     Ti( 1.00)
        O1             6.00    15.99900     O ( 1.00)
        N1             5.00    14.00700     N ( 1.00)
        C1             4.00    12.01100     C ( 1.00)
        H1             1.00     1.00800     H ( 1.00)

     No symmetry found

   Cartesian axes

     site n.     atom                  positions (alat units)
         1           Ti1 tau(   1) = (   0.0004258   2.9801865   6.0000000  )
         2           Ti1 tau(   2) = (   3.2906075   1.4906267   6.0002472  )
         3           O1  tau(   3) = (   0.0006271   0.0005054   7.9858123  )
         4           O1  tau(   4) = (   3.2906025   0.0005020   7.3038282  )
         5           O1  tau(   5) = (   4.5942328   1.4918067   9.2879030  )
         6           O1  tau(   6) = (   1.9868534   1.4903216   9.2879459  )
         7           Ti1 tau(   7) = (   3.2907910   2.8959150   9.1758416  )
         8           Ti1 tau(   8) = (   0.0015273   1.4827037   9.2680791  )
         9           O1  tau(   9) = (   3.2950996   0.0139504  11.3317891  )
        10           O1  tau(  10) = (   0.0116148   5.9584955  10.6183126  )
        11           O1  tau(  11) = (   1.2919129   1.4990403  12.6236220  )
        12           O1  tau(  12) = (   5.2764399   1.5074276  12.6212280  )
        13           Ti1 tau(  13) = (   0.0528816   2.9532107  12.6238214  )
        14           Ti1 tau(  14) = (   3.3640876   1.5054642  12.4823551  )
        15           O1  tau(  15) = (   0.0126464   0.0517330  14.6735668  )
        16           O1  tau(  16) = (   3.2893787   0.0313947  13.9162352  )
        17           O1  tau(  17) = (   4.5455072   1.5470193  16.0571763  )
        18           O1  tau(  18) = (   2.0683839   1.5479149  16.0688871  )
        19           Ti1 tau(  19) = (   3.3004933   3.0285056  15.7062229  )
        20           Ti1 tau(  20) = (   6.5748692   1.5544668  15.8636821  )
        21           O1  tau(  21) = (   3.2904802   0.0005063   4.7018136  )
        22           O1  tau(  22) = (   0.0156978   0.0568370  17.2307755  )
        23           O1  tau(  23) = (   1.3043587   1.4918075   6.0039043  )
        24           O1  tau(  24) = (   5.2767064   1.4903225   6.0039473  )
        25           Ti1 tau(  25) = (   0.0000382   5.9609847   6.0000000  )
        26           Ti1 tau(  26) = (   3.2902200   4.4714249   6.0002472  )
        27           O1  tau(  27) = (   0.0002396   2.9813036   7.9858123  )
        28           O1  tau(  28) = (   3.2902150   2.9813002   7.3038282  )
        29           O1  tau(  29) = (   4.5938453   4.4726049   9.2879030  )
        30           O1  tau(  30) = (   1.9864658   4.4711199   9.2879459  )
        31           Ti1 tau(  31) = (   3.2891106   5.8743827   9.1763621  )
        32           Ti1 tau(  32) = (   0.0006254   4.4649316   9.2693709  )
        33           O1  tau(  33) = (   3.2930415   3.0011583  11.3325650  )
        34           O1  tau(  34) = (   0.0092240   2.9805883  10.6323155  )
        35           O1  tau(  35) = (   1.2898468   4.4882246  12.6384491  )
        36           O1  tau(  36) = (   5.2806636   4.4975927  12.6358184  )
        37           Ti1 tau(  37) = (   0.0525728   5.9296047  12.5528222  )
        38           Ti1 tau(  38) = (   3.3636738   4.4864912  12.4891182  )
        39           O1  tau(  39) = (   0.0107234   2.9627607  14.6747216  )
        40           O1  tau(  40) = (   3.2927234   3.0099296  13.9079960  )
        41           O1  tau(  41) = (   4.5395255   4.5218754  16.0742521  )
        42           O1  tau(  42) = (   2.0629885   4.5199598  16.0715304  )
        43           Ti1 tau(  43) = (   3.2878121   0.0461507  15.7166771  )
        44           Ti1 tau(  44) = (   0.0020781   4.6962996  16.1098215  )
        45           O1  tau(  45) = (   3.2900926   2.9813045   4.7018136  )
        46           O1  tau(  46) = (   1.3039711   4.4726057   6.0039043  )
        47           O1  tau(  47) = (   5.2763189   4.4711207   6.0039473  )
        48           N1  tau(  48) = (   0.1203982   2.9607606  18.6152809  )
        49           N1  tau(  49) = (   0.0157770   3.0106383  17.4001577  )
        50           C1  tau(  50) = (   0.0651646   2.8976078  19.8026698  )
        51           H1  tau(  51) = (   0.7310076   2.8879977  20.6380856  )

     number of k points=    10  Fermi-Dirac smearing, width (Ry)=  0.0073
                       cart. coord. in units 2pi/alat
        k(    1) = (   0.0000000   0.0000000   0.0000000), wk =   0.1250000
        k(    2) = (   0.0000000   0.0419351   0.0000000), wk =   0.2500000
        k(    3) = (   0.0000000  -0.0838702   0.0000000), wk =   0.1250000
        k(    4) = (   0.0379955   0.0000049   0.0000000), wk =   0.2500000
        k(    5) = (   0.0379955   0.0419400   0.0000000), wk =   0.2500000
        k(    6) = (   0.0379955  -0.0838652   0.0000000), wk =   0.2500000
        k(    7) = (   0.0379955  -0.0419301   0.0000000), wk =   0.2500000
        k(    8) = (  -0.0759910  -0.0000099   0.0000000), wk =   0.1250000
        k(    9) = (  -0.0759910   0.0419252   0.0000000), wk =   0.2500000
        k(   10) = (  -0.0759910  -0.0838800   0.0000000), wk =   0.1250000

     Initial potential from superposition of free atoms

     starting charge  376.99918, renormalised to  393.00000

     negative rho (up, down):  1.564E-02 0.000E+00

     %%%%%%%%%%%%%%%%%%%%%%%%%%%%%%%%%%%%%%%%%%%%%%%%%%%%%%%%%%%%%%%%%%%%%%%%
     %                                                                      %
     % You are using vdW-DF, which was implemented by the Thonhauser group. %
     % Please cite the following two papers that made this development      %
     % possible and the two reviews that describe the various versions:     %
     %                                                                      %
     %   T. Thonhauser et al., PRL 115, 136402 (2015).                      %
     %   T. Thonhauser et al., PRB 76, 125112 (2007).                       %
     %   K. Berland et al., Rep. Prog. Phys. 78, 066501 (2015).             %
     %   D.C. Langreth et al., J. Phys.: Condens. Matter 21, 084203 (2009). %
     %                                                                      %
     %                                                                      %
     % If you are calculating the stress with vdW-DF, please also cite:     %
     %                                                                      %
     %   R. Sabatini et al., J. Phys.: Condens. Matter 24, 424209 (2012).   %
     %                                                                      %
     %%%%%%%%%%%%%%%%%%%%%%%%%%%%%%%%%%%%%%%%%%%%%%%%%%%%%%%%%%%%%%%%%%%%%%%%

     Adding external electric field

     Computed dipole along edir(3) :
        Dipole               -7.5501 Ry au,        -19.1904 Debye
        Dipole field         -0.0142 Ry au,

        Potential amp.        1.3208 Ry
        Total length         46.3494 bohr

     Starting wfcs are  297 atomic wfcs
  @ DRIVER MODE: Message from server: STATUS
  @ DRIVER MODE: Message from server: POSDATA
  @ DRIVER MODE: Reading and sharing cell
  @ DRIVER MODE: Reading and sharing positions
  @ DRIVER MODE: Received positions

     Self-consistent Calculation

     iteration #  1     ecut=    29.40 Ry     beta= 0.05
     Davidson diagonalization with overlap
     c_bands:  1 eigenvalues not converged
     c_bands:  1 eigenvalues not converged
     c_bands:  1 eigenvalues not converged
     ethr =  1.00E-05,  avg # of iterations = 18.4

[...]

     total energy              =   -2707.50872612 Ry
     estimated scf accuracy    <    2541.59987470 Ry

[...]

     iteration #  3     ecut=    29.40 Ry     beta= 0.05
     Davidson diagonalization with overlap
     ethr =  1.00E-02,  avg # of iterations = 16.3

[...]

     iteration # 50     ecut=    29.40 Ry     beta= 0.05
     Davidson diagonalization with overlap
     c_bands:  1 eigenvalues not converged
     ethr =  2.02E-08,  avg # of iterations = 15.6

[...]

     total energy              =   -2936.63952769 Ry
     estimated scf accuracy    <       0.00000009 Ry

     iteration # 64     ecut=    29.40 Ry     beta= 0.05
     Davidson diagonalization with overlap
     ethr =  2.29E-11,  avg # of iterations =  9.1

     negative rho (up, down):  1.608E-02 0.000E+00

     Adding external electric field

     Computed dipole along edir(3) :
        Dipole                0.7478 Ry au,          1.9006 Debye
        Dipole field          0.0014 Ry au,

        Potential amp.       -0.1308 Ry
        Total length         46.3494 bohr

     End of self-consistent calculation

          k = 0.0000 0.0000 0.0000 ( 18029 PWs)   bands (ev):

   -55.9107 -55.9089 -55.8767 -55.8722 -55.7694 -55.7560 -55.7341 -55.7195
   -55.7183 -55.6855 -55.6853 -55.6517 -55.4689 -55.2244 -54.8892 -54.8552
   -32.4628 -32.3934 -32.2665 -32.2187 -32.2163 -32.2099 -32.2035 -32.1758
   -32.1533 -32.1277 -32.0969 -32.0873 -32.0824 -32.0628 -32.0552 -32.0486
   -32.0153 -32.0020 -31.9945 -31.9733 -31.9710 -31.9678 -31.9487 -31.9232
   -31.9164 -31.9085 -31.9057 -31.8968 -31.8948 -31.8874 -31.8820 -31.8604
   -31.8504 -31.8385 -31.8261 -31.8234 -31.7974 -31.6901 -31.6827 -31.5022
   -31.4543 -31.4534 -31.2966 -31.2079 -31.1855 -31.1131 -31.0266 -30.9157
   -19.2686 -16.6498 -16.3848 -16.1392 -16.0580 -16.0287 -15.9130 -15.7512
   -15.6340 -15.5730 -15.4727 -15.4669 -15.4471 -15.4139 -15.3839 -15.3588
   -15.3540 -15.3442 -15.3278 -15.2954 -15.2715 -15.2499 -15.2260 -15.1370
   -15.0799 -15.0448 -14.9845 -14.9766 -14.9671 -14.5060 -13.9285 -13.3916
   -13.2752  -6.6587  -5.3170  -4.2214  -4.0242  -3.9211  -3.8653  -3.8170
    -3.7615  -3.6578  -3.5206  -3.4513  -3.1379  -3.0857  -3.0737  -3.0490
    -3.0245  -2.8112  -2.7460  -2.7232  -2.6894  -2.6842  -2.6815  -2.6729
    -2.6561  -2.6235  -2.5021  -2.4459  -2.3740  -2.3339  -2.3048  -2.2972
    -2.2228  -2.1834  -2.1723  -2.1475  -2.1459  -2.1220  -2.1128  -2.0957
    -1.9582  -1.8914  -1.7694  -1.7044  -1.6705  -1.5193  -1.4922  -1.3880
    -1.3625  -1.3391  -1.3031  -1.2718  -1.2130  -1.0791  -1.0711  -1.0604
    -1.0284  -0.9297  -0.8770  -0.8040  -0.7482  -0.7292  -0.6793  -0.6674
    -0.6638  -0.6197  -0.4601  -0.3850  -0.3255  -0.3160  -0.2712  -0.2105
    -0.1807  -0.1024  -0.0601  -0.0301  -0.0164   0.0265   0.0635   0.0874
     0.0979   0.1076   0.1212   0.3068   0.3491   0.3673   0.4253   0.4428
     0.6152   0.6606   0.7452   0.8404   1.0584   1.1329   1.2170   1.3250
     1.3339   1.5841   1.7044   1.7501   3.2209   3.3105   3.3472   3.3560
     3.4632   3.5353   3.6773   3.6899   3.7103   3.7532

[...]

          k = 0.0380-0.0419 0.0000 ( 17876 PWs)   bands (ev):

[...]

          k =-0.0760-0.0000 0.0000 ( 17886 PWs)   bands (ev):

[...]

          k =-0.0760-0.0839 0.0000 ( 17948 PWs)   bands (ev):

   -55.8942 -55.8942 -55.8931 -55.8867 -55.7560 -55.7474 -55.7445 -55.7296
   -55.7033 -55.7010 -55.6702 -55.6671 -55.4678 -55.2254 -54.8722 -54.8721
   -32.2690 -32.2619 -32.2091 -32.2083 -32.1893 -32.1884 -32.1602 -32.1557
   -32.1160 -32.1084 -32.0824 -32.0802 -32.0410 -32.0336 -32.0252 -32.0229
   -32.0157 -32.0152 -32.0135 -32.0125 -32.0083 -32.0053 -31.9721 -31.9611
   -31.9524 -31.9464 -31.9323 -31.9288 -31.9036 -31.9029 -31.9012 -31.8987
   -31.8846 -31.8828 -31.8793 -31.8770 -31.8460 -31.6928 -31.6783 -31.5724
   -31.4755 -31.4561 -31.1982 -31.1981 -31.1094 -31.1092 -31.0699 -31.0699
   -19.2660 -16.0778 -16.0644 -15.8605 -15.8269 -15.8143 -15.8069 -15.6909
   -15.6116 -15.6035 -15.6023 -15.5007 -15.4886 -15.4803 -15.4483 -15.4384
   -15.4189 -15.4174 -15.3789 -15.3720 -15.3660 -15.3489 -15.3412 -15.2553
   -15.2291 -15.2249 -15.1936 -15.0799 -14.9454 -14.6862 -13.9343 -13.3771
   -13.3768  -6.6576  -5.2855  -4.1843  -3.9213  -3.3673  -3.3509  -3.0961
    -3.0645  -3.0554  -3.0002  -2.8280  -2.8106  -2.7869  -2.7650  -2.7345
    -2.7280  -2.7205  -2.7135  -2.6947  -2.6504  -2.6261  -2.5957  -2.5812
    -2.5668  -2.5664  -2.5359  -2.5230  -2.4817  -2.4671  -2.4569  -2.4341
    -2.4095  -2.3994  -2.2464  -2.1533  -2.1220  -2.0494  -2.0427  -2.0016
    -1.9754  -1.9604  -1.9368  -1.9015  -1.7594  -1.6448  -1.6090  -1.5943
    -1.5142  -1.4704  -1.3940  -1.3348  -1.2908  -1.2842  -1.2279  -1.1784
    -1.1178  -1.1065  -1.0431  -1.0101  -0.9722  -0.9399  -0.8995  -0.8694
    -0.8640  -0.7780  -0.7274  -0.7197  -0.6684  -0.6644  -0.6345  -0.5776
    -0.5584  -0.5303  -0.4076  -0.3877  -0.2801  -0.1981  -0.1369   0.0574
     0.1387   0.1634   0.2171   0.2874   0.3773   0.3911   0.4062   0.4121
     0.4605   0.5122   0.6187   0.6297   0.6680   0.7985   1.2538   1.4670
     1.4966   1.4973   1.5697   1.5700   3.5345   3.5440   3.5622   3.5785
     3.7341   3.7368   3.7563   3.7576   3.8921   3.9043

     the Fermi energy is     3.2225 ev

!    total energy              =   -2936.63956450 Ry
     estimated scf accuracy    <       0.00000005 Ry
     smearing contrib. (-TS)   =      -0.02146245 Ry
     internal energy E=F+TS    =   -2936.61810205 Ry

     The total energy is F=E-TS. E is the sum of the following terms:
     one-electron contribution =  -24291.81122942 Ry
     hartree contribution      =   12231.47896753 Ry
     xc contribution           =    -483.56557510 Ry
     ewald contribution        =    9607.27867975 Ry
     electric field correction =       0.00105518 Ry

     convergence has been achieved in  64 iterations

     Forces acting on atoms (cartesian axes, Ry/au):

     atom    1 type  1   force =     0.00009673   -0.00013734    0.09655116
     atom    2 type  1   force =    -0.00015382   -0.00056515   -0.17550431
     atom    3 type  2   force =    -0.00000181    0.00006134   -0.02462596
     atom    4 type  2   force =     0.00005303   -0.00130107    0.05296878
     atom    5 type  2   force =    -0.01196706    0.00010053    0.00366247
     atom    6 type  2   force =     0.01361625    0.00069001    0.00267419
     atom    7 type  1   force =    -0.00091070    0.00090034   -0.01119386
     atom    8 type  1   force =     0.00035987    0.00993847    0.02722521
     atom    9 type  2   force =    -0.00018757   -0.00023615    0.00013815
     atom   10 type  2   force =    -0.00142844    0.00227770   -0.01252321
     atom   11 type  2   force =    -0.00012903    0.00024850   -0.00026956
     atom   12 type  2   force =     0.00034010    0.00000175   -0.00058029
     atom   13 type  1   force =     0.00035693   -0.00123895   -0.00058922
     atom   14 type  1   force =     0.00042398    0.00001582    0.00001263
     atom   15 type  2   force =    -0.00002715   -0.00079786   -0.00042361
     atom   16 type  2   force =     0.00009550   -0.00047837    0.00005178
     atom   17 type  2   force =    -0.00042530   -0.00054592    0.00012416
     atom   18 type  2   force =    -0.00026358   -0.00068493   -0.00017285
     atom   19 type  1   force =     0.00001807   -0.00030051    0.00003272
     atom   20 type  1   force =     0.00014515   -0.00014858   -0.00014704
     atom   21 type  2   force =     0.00003569   -0.00004477    0.10324790
     atom   22 type  2   force =    -0.00032958   -0.00077116   -0.00095597
     atom   23 type  2   force =    -0.07151948   -0.00010866   -0.02769282
     atom   24 type  2   force =     0.07143643    0.00031458   -0.02770087
     atom   25 type  1   force =     0.00005957   -0.00012634    0.09605848
     atom   26 type  1   force =    -0.00022955   -0.00023563   -0.17567940
     atom   27 type  2   force =     0.00006281   -0.00012995   -0.02364568
     atom   28 type  2   force =     0.00005711   -0.00109228    0.05314635
     atom   29 type  2   force =    -0.01209361    0.00087199    0.00327358
     atom   30 type  2   force =     0.01365170    0.00134113    0.00233078
     atom   31 type  1   force =    -0.00082589    0.00332796   -0.01190076
     atom   32 type  1   force =     0.00043461   -0.01207640    0.02754580
     atom   33 type  2   force =     0.00021892    0.00016040    0.00008865
     atom   34 type  2   force =    -0.00106967    0.00252576   -0.02034962
     atom   35 type  2   force =     0.00016020   -0.00087049   -0.00030172
     atom   36 type  2   force =     0.00040028   -0.00058958   -0.00059242
     atom   37 type  1   force =     0.00005188    0.00116827   -0.00032178
     atom   38 type  1   force =     0.00032449    0.00031690   -0.00011468
     atom   39 type  2   force =    -0.00002605    0.00040850   -0.00082388
     atom   40 type  2   force =    -0.00001555    0.00005493   -0.00055226
     atom   41 type  2   force =     0.00040565   -0.00005245   -0.00012036
     atom   42 type  2   force =    -0.00054178    0.00010827    0.00086854
     atom   43 type  1   force =    -0.00009841   -0.00037611    0.00024116
     atom   44 type  1   force =    -0.00013563   -0.00023848    0.00004583
     atom   45 type  2   force =     0.00004679   -0.00005666    0.10327080
     atom   46 type  2   force =    -0.07152000   -0.00006424   -0.02769418
     atom   47 type  2   force =     0.07144799    0.00034793   -0.02770404
     atom   48 type  3   force =     0.00013402   -0.00193764   -0.00000574
     atom   49 type  3   force =     0.00004717    0.00001820    0.00037934
     atom   50 type  4   force =    -0.00127107    0.00058574   -0.00184568
     atom   51 type  5   force =     0.00068980   -0.00057936    0.00009330

     Total force =     0.367669     Total SCF correction =     0.000677
  @ DRIVER MODE: Message from server: STATUS
  @ DRIVER MODE: Message from server: GETFORCE
  @ DRIVER MODE: Returning v,forces,stress,ensemble

     Writing output data file ./calc.save/
  @ DRIVER MODE: Message from server: EXIT
  @ DRIVE MODE: Exiting

     General routines

     Parallel routines

   This run was terminated on:  20:36:17  23Aug2021

   JOB DONE.