     Program PWSCF v.6.7GPU starts on  8Sep2021 at 22:42:54

     R & G space division:  proc/nbgrp/npool/nimage =      10
     Reading input from /storage/home/hcoda1/3/ntian30/research/carbon/CxH_vib/CH3_calc/ads_slab/CH3NNH3_a/out_0003/pw.inp
Warning: card &CELL ignored
Warning: card   CELL_DYNAMICS='IPI', ignored
Warning: card / ignored

     Current dimensions of program PWSCF are:
     Max number of different atomic species (ntypx) = 10
     Max number of k-points (npk) =  40000
     Max angular momentum in pseudopotentials (lmaxx) =  3
     Presently no symmetry can be used with electric field

     Message from routine cell_base_init:
     DEPRECATED: use true lattice parameter, not A to a.u. conversion factor

     IMPORTANT: XC functional enforced from input :
     Exchange-correlation= BEEF-VDW
                           (   1   4  43  14   2   0   0)
     Any further DFT definition will be discarded
     Please, verify this is what you really want

  @ DRIVER MODE: Connecting to
 qe_1139763_2767402.sched-torque.pace.gatech.eduypyg8s6n_scratch
  using UNIX socket
  @ DRIVER MODE: Message from server: STATUS
  @ DRIVER MODE: Message from server: INIT
  @ DRIVER MODE: Receiving replica           0          -1
  @ DRIVER MODE: Receiving encoded integer          25
  @ DRIVER MODE:  SCF:  T  FORCE:  T  STRESS:  F  VC:  F  ENSEMBLE:  F
  @ DRIVER MODE:  SCF:  T  FORCE:  T  STRESS:  F  VC:  F  ENSEMBLE:  F

     Using Slab Decomposition

     bravais-lattice index     =            0
     lattice parameter (alat)  =       1.8897  a.u.
     unit-cell volume          =    6658.9804 (a.u.)^3
     number of atoms/cell      =           56
     number of atomic types    =            5
     number of electrons       =       398.00
     number of Kohn-Sham states=          209
     kinetic-energy cutoff     =      29.3995  Ry
     charge density cutoff     =     293.9946  Ry
     scf convergence threshold =      7.3E-08
     mixing beta               =       0.0500
     number of iterations used =            8  plain     mixing
     Exchange-correlation= BEEF-VDW
                           (   1   4  43  14   2   0   0)

     celldm(1)=   1.889726  celldm(2)=   0.000000  celldm(3)=   0.000000
     celldm(4)=   0.000000  celldm(5)=   0.000000  celldm(6)=   0.000000

     crystal axes: (cart. coord. in units of alat)
               a(1) = (   6.579727   0.000000   0.000000 )
               a(2) = (  -0.000775   5.961596   0.000000 )
               a(3) = (   0.000000   0.000000  25.155947 )

     reciprocal axes: (cart. coord. in units 2 pi/alat)
               b(1) = (  0.151982  0.000020  0.000000 )
               b(2) = (  0.000000  0.167740  0.000000 )
               b(3) = (  0.000000  0.000000  0.039752 )

     PseudoPot. # 1 for Ti read from file:
     /storage/coda1/p-amedford6/0/shared/rich_project_chbe-medford/medford-share/data/pseudos_module/espresso/nninc/pbe/van/Ti.UPF
     MD5 check sum: 8e4df49b7f0d34bbd5052bf3f5ea0213
     Pseudo is Ultrasoft, Zval = 12.0
     Generated by new atomic code, or converted to UPF format
     Using radial grid of  851 points,  6 beta functions with:
                l(1) =   0
                l(2) =   0
                l(3) =   1
                l(4) =   1
                l(5) =   2
                l(6) =   2
     Q(r) pseudized with  8 coefficients,  rinner =    1.000   1.000   1.000
                                                       1.000   1.000

     PseudoPot. # 2 for O  read from file:
     /storage/coda1/p-amedford6/0/shared/rich_project_chbe-medford/medford-share/data/pseudos_module/espresso/nninc/pbe/van/O.UPF
     MD5 check sum: 78c19812648e8988a0fe644b0f25305e
     Pseudo is Ultrasoft, Zval =  6.0
     Generated by new atomic code, or converted to UPF format
     Using radial grid of  737 points,  4 beta functions with:
                l(1) =   0
                l(2) =   0
                l(3) =   1
                l(4) =   1
     Q(r) pseudized with  8 coefficients,  rinner =    0.800   0.800   0.800

     PseudoPot. # 3 for N  read from file:
     /storage/coda1/p-amedford6/0/shared/rich_project_chbe-medford/medford-share/data/pseudos_module/espresso/nninc/pbe/van/N.UPF
     MD5 check sum: 90d10febe142ad51ac9d5be1deb811c4
     Pseudo is Ultrasoft, Zval =  5.0
     Generated by new atomic code, or converted to UPF format
     Using radial grid of  729 points,  4 beta functions with:
                l(1) =   0
                l(2) =   0
                l(3) =   1
                l(4) =   1
     Q(r) pseudized with  8 coefficients,  rinner =    0.800   0.800   0.800

     PseudoPot. # 4 for C  read from file:
     /storage/coda1/p-amedford6/0/shared/rich_project_chbe-medford/medford-share/data/pseudos_module/espresso/nninc/pbe/van/C.UPF
     MD5 check sum: 1a69bf6b8db32088f5b2163dbdb77a27
     Pseudo is Ultrasoft, Zval =  4.0
     Generated by new atomic code, or converted to UPF format
     Using radial grid of  721 points,  4 beta functions with:
                l(1) =   0
                l(2) =   0
                l(3) =   1
                l(4) =   1
     Q(r) pseudized with  8 coefficients,  rinner =    0.800   0.800   0.800

     PseudoPot. # 5 for H  read from file:
     /storage/coda1/p-amedford6/0/shared/rich_project_chbe-medford/medford-share/data/pseudos_module/espresso/nninc/pbe/van/H.UPF
     MD5 check sum: b5ee9d7bfd3a09ee7748110bda690ff7
     Pseudo is Ultrasoft, Zval =  1.0
     Generated by new atomic code, or converted to UPF format
     Using radial grid of  615 points,  1 beta functions with:
                l(1) =   0
     Q(r) pseudized with  8 coefficients,  rinner =    0.800

     atomic species   valence    mass     pseudopotential
        Ti1           12.00    47.86700     Ti( 1.00)
        O1             6.00    15.99900     O ( 1.00)
        N1             5.00    14.00700     N ( 1.00)
        C1             4.00    12.01100     C ( 1.00)
        H1             1.00     1.00800     H ( 1.00)

     No symmetry found

   Cartesian axes

     site n.     atom                  positions (alat units)
         1           Ti1 tau(   1) = (   0.0004258   2.9801865   6.0000000  )
         2           Ti1 tau(   2) = (   3.2906075   1.4906267   6.0002472  )
         3           O1  tau(   3) = (   0.0006271   0.0005054   7.9858123  )
         4           O1  tau(   4) = (   3.2906025   0.0005020   7.3038282  )
         5           O1  tau(   5) = (   4.5942328   1.4918067   9.2879030  )
         6           O1  tau(   6) = (   1.9868534   1.4903216   9.2879459  )
         7           Ti1 tau(   7) = (   3.2907910   2.8959150   9.1758416  )
         8           Ti1 tau(   8) = (   0.0015273   1.4827037   9.2680791  )
         9           O1  tau(   9) = (   3.2915376   0.0135470  11.3011085  )
        10           O1  tau(  10) = (   0.0116148   5.9584955  10.6183126  )
        11           O1  tau(  11) = (   1.3264285   1.5112823  12.6233503  )
        12           O1  tau(  12) = (   5.3038506   1.5117067  12.6402039  )
        13           Ti1 tau(  13) = (   6.4820107   2.9926285  12.7699842  )
        14           Ti1 tau(  14) = (   3.1705855   1.5046985  12.4703807  )
        15           O1  tau(  15) = (   0.0265921   0.0018185  14.6022993  )
        16           O1  tau(  16) = (   3.3077976   0.0231332  13.8844522  )
        17           O1  tau(  17) = (   4.5431088   1.5356983  16.0582573  )
        18           O1  tau(  18) = (   2.0919096   1.5355568  16.0602035  )
        19           Ti1 tau(  19) = (   3.3160089   3.0194793  15.6930983  )
        20           Ti1 tau(  20) = (   0.0166562   1.5958061  16.1043543  )
        21           O1  tau(  21) = (   3.2904802   0.0005063   4.7018136  )
        22           O1  tau(  22) = (   0.0292894   0.0555714  17.2141426  )
        23           O1  tau(  23) = (   1.3043587   1.4918075   6.0039043  )
        24           O1  tau(  24) = (   5.2767064   1.4903225   6.0039473  )
        25           Ti1 tau(  25) = (   0.0000382   5.9609847   6.0000000  )
        26           Ti1 tau(  26) = (   3.2902200   4.4714249   6.0002472  )
        27           O1  tau(  27) = (   0.0002396   2.9813036   7.9858123  )
        28           O1  tau(  28) = (   3.2902150   2.9813002   7.3038282  )
        29           O1  tau(  29) = (   4.5938453   4.4726049   9.2879030  )
        30           O1  tau(  30) = (   1.9864658   4.4711199   9.2879459  )
        31           Ti1 tau(  31) = (   3.2891106   5.8743827   9.1763621  )
        32           Ti1 tau(  32) = (   0.0006254   4.4649316   9.2693709  )
        33           O1  tau(  33) = (   3.2938734   2.9940915  11.3014364  )
        34           O1  tau(  34) = (   0.0092240   2.9805883  10.6323155  )
        35           O1  tau(  35) = (   1.3265148   4.4779228  12.6213786  )
        36           O1  tau(  36) = (   5.3043665   4.4729268  12.6387898  )
        37           Ti1 tau(  37) = (   6.5102921   0.0103953  12.7821347  )
        38           Ti1 tau(  38) = (   3.1702703   4.4844908  12.4724723  )
        39           O1  tau(  39) = (   0.0044238   2.9856840  14.6711682  )
        40           O1  tau(  40) = (   3.3052367   3.0047533  13.8869641  )
        41           O1  tau(  41) = (   4.5463945   4.5179403  16.0573015  )
        42           O1  tau(  42) = (   2.0913021   4.5186677  16.0620504  )
        43           Ti1 tau(  43) = (   3.3128124   0.0388915  15.6953448  )
        44           Ti1 tau(  44) = (   0.0191476   4.5695365  16.1495174  )
        45           O1  tau(  45) = (   3.2900926   2.9813045   4.7018136  )
        46           O1  tau(  46) = (   1.3039711   4.4726057   6.0039043  )
        47           O1  tau(  47) = (   5.2763189   4.4711207   6.0039473  )
        48           N1  tau(  48) = (   0.0657769   3.0088755  17.3428317  )
        49           N1  tau(  49) = (   6.3710133   2.5762042  22.6422586  )
        50           C1  tau(  50) = (   0.3130180   3.0007025  18.7658599  )
        51           H1  tau(  51) = (   0.2928038   4.0066326  19.1970245  )
        52           H1  tau(  52) = (   6.1505335   2.3845869  19.2855718  )
        53           H1  tau(  53) = (   1.2957935   2.5555442  18.9776258  )
        54           H1  tau(  54) = (   5.9555952   3.1943721  23.3306195  )
        55           H1  tau(  55) = (   0.0098814   1.7053999  23.1148127  )
        56           H1  tau(  56) = (   0.6724875   2.9916800  22.3598805  )

     number of k points=    10  Fermi-Dirac smearing, width (Ry)=  0.0073
                       cart. coord. in units 2pi/alat
        k(    1) = (   0.0000000   0.0000000   0.0000000), wk =   0.1250000
        k(    2) = (   0.0000000   0.0419351   0.0000000), wk =   0.2500000
        k(    3) = (   0.0000000  -0.0838702   0.0000000), wk =   0.1250000
        k(    4) = (   0.0379955   0.0000049   0.0000000), wk =   0.2500000
        k(    5) = (   0.0379955   0.0419400   0.0000000), wk =   0.2500000
        k(    6) = (   0.0379955  -0.0838652   0.0000000), wk =   0.2500000
        k(    7) = (   0.0379955  -0.0419301   0.0000000), wk =   0.2500000
        k(    8) = (  -0.0759910  -0.0000099   0.0000000), wk =   0.1250000
        k(    9) = (  -0.0759910   0.0419252   0.0000000), wk =   0.2500000
        k(   10) = (  -0.0759910  -0.0838800   0.0000000), wk =   0.1250000

     Initial potential from superposition of free atoms

     starting charge  381.99914, renormalised to  398.00000

     negative rho (up, down):  7.227E-03 0.000E+00

     %%%%%%%%%%%%%%%%%%%%%%%%%%%%%%%%%%%%%%%%%%%%%%%%%%%%%%%%%%%%%%%%%%%%%%%%
     %                                                                      %
     % You are using vdW-DF, which was implemented by the Thonhauser group. %
     % Please cite the following two papers that made this development      %
     % possible and the two reviews that describe the various versions:     %
     %                                                                      %
     %   T. Thonhauser et al., PRL 115, 136402 (2015).                      %
     %   T. Thonhauser et al., PRB 76, 125112 (2007).                       %
     %   K. Berland et al., Rep. Prog. Phys. 78, 066501 (2015).             %
     %   D.C. Langreth et al., J. Phys.: Condens. Matter 21, 084203 (2009). %
     %                                                                      %
     %                                                                      %
     % If you are calculating the stress with vdW-DF, please also cite:     %
     %                                                                      %
     %   R. Sabatini et al., J. Phys.: Condens. Matter 24, 424209 (2012).   %
     %                                                                      %
     %%%%%%%%%%%%%%%%%%%%%%%%%%%%%%%%%%%%%%%%%%%%%%%%%%%%%%%%%%%%%%%%%%%%%%%%

     Adding external electric field

     Computed dipole along edir(3) :
        Dipole              -12.0378 Ry au,        -30.5970 Debye
        Dipole field         -0.0227 Ry au,

        Potential amp.        2.1058 Ry
        Total length         46.3494 bohr

     Starting wfcs are  302 atomic wfcs
  @ DRIVER MODE: Message from server: STATUS
  @ DRIVER MODE: Message from server: POSDATA
  @ DRIVER MODE: Reading and sharing cell
  @ DRIVER MODE: Reading and sharing positions
  @ DRIVER MODE: Received positions

     Self-consistent Calculation

     iteration #  1     ecut=    29.40 Ry     beta= 0.05
     Davidson diagonalization with overlap
     c_bands:  1 eigenvalues not converged
     c_bands:  1 eigenvalues not converged
     c_bands:  1 eigenvalues not converged
     c_bands:  1 eigenvalues not converged
     c_bands:  1 eigenvalues not converged
     c_bands:  1 eigenvalues not converged
     c_bands:  1 eigenvalues not converged
     c_bands:  2 eigenvalues not converged
     c_bands:  1 eigenvalues not converged
     ethr =  1.00E-05,  avg # of iterations = 19.6

[...]

     total energy              =   -2520.03888374 Ry
     estimated scf accuracy    <    4725.45625511 Ry

     iteration #  2     ecut=    29.40 Ry     beta= 0.05
     Davidson diagonalization with overlap
     ethr =  1.00E-02,  avg # of iterations = 21.9

[...]

     iteration # 41     ecut=    29.40 Ry     beta= 0.05
     Davidson diagonalization with overlap
     c_bands:  1 eigenvalues not converged
     c_bands:  1 eigenvalues not converged
     ethr =  3.96E-07,  avg # of iterations = 11.7

[...]

     total energy              =   -2942.90429122 Ry
     estimated scf accuracy    <       0.00000015 Ry

     iteration # 66     ecut=    29.40 Ry     beta= 0.05
     Davidson diagonalization with overlap
     ethr =  2.51E-11,  avg # of iterations =  5.5

     negative rho (up, down):  9.746E-03 0.000E+00

     Adding external electric field

     Computed dipole along edir(3) :
        Dipole                0.6809 Ry au,          1.7308 Debye
        Dipole field          0.0013 Ry au,

        Potential amp.       -0.1191 Ry
        Total length         46.3494 bohr

     End of self-consistent calculation

          k = 0.0000 0.0000 0.0000 ( 18029 PWs)   bands (ev):

   -56.5046 -56.4710 -55.6125 -55.6036 -55.5772 -55.5712 -55.4740 -55.4385
   -55.2592 -55.2240 -55.1680 -55.1603 -55.1341 -55.0490 -54.6219 -54.5479
   -32.9320 -32.7783 -32.7502 -32.6814 -32.5903 -32.5581 -32.0917 -32.0702
   -32.0154 -31.9003 -31.8592 -31.8199 -31.8176 -31.7841 -31.7552 -31.7539
   -31.7527 -31.7350 -31.7238 -31.7201 -31.6991 -31.6825 -31.6563 -31.6425
   -31.6295 -31.6094 -31.6027 -31.5789 -31.5602 -31.5064 -31.4907 -31.4823
   -31.4023 -31.3980 -31.3788 -31.3335 -31.3263 -31.2954 -31.2787 -31.2552
   -31.2354 -31.1846 -31.1355 -30.8646 -30.8449 -30.7975 -30.7681 -30.6628
   -16.6658 -16.2236 -15.9955 -15.8657 -15.7923 -15.7438 -15.6911 -15.5740
   -15.4971 -15.4947 -15.4576 -15.4206 -15.3514 -15.2088 -15.1110 -15.0541
   -15.0119 -14.8972 -14.8316 -14.8045 -14.7945 -14.7623 -14.7452 -14.5469
   -14.5040 -14.4127 -14.4039 -14.2674 -14.0640 -13.9973 -13.6666 -13.5566
   -12.7000  -7.4302  -4.2328  -4.0926  -4.0734  -3.7198  -3.4777  -3.3918
    -3.2885  -3.2766  -3.2025  -3.0835  -3.0303  -2.9845  -2.8698  -2.8670
    -2.7244  -2.7085  -2.6793  -2.6686  -2.6323  -2.5850  -2.5544  -2.5082
    -2.5022  -2.4926  -2.3394  -2.2421  -2.1752  -2.1472  -2.1318  -2.1028
    -2.0268  -2.0021  -1.9914  -1.9834  -1.8943  -1.7458  -1.7394  -1.7113
    -1.6669  -1.6661  -1.6232  -1.6105  -1.4700  -1.3948  -1.2867  -1.2793
    -1.2430  -1.1761  -1.1741  -1.0759  -1.0012  -0.9456  -0.9106  -0.8047
    -0.7610  -0.7342  -0.6488  -0.5779  -0.5445  -0.5284  -0.5051  -0.4079
    -0.3910  -0.3679  -0.2846  -0.2751  -0.2271  -0.1393  -0.1183  -0.1153
    -0.0271  -0.0190   0.0836   0.1196   0.1615   0.1897   0.2795   0.3086
     0.4094   0.4534   0.4690   0.5902   0.6093   0.6682   0.7436   0.8051
     0.8251   0.8534   0.8863   0.8967   0.9796   1.0983   1.1037   1.1364
     1.2061   1.2532   1.4074   1.4463   1.7275   1.7431   2.4149   2.7708
     2.9323   3.2309   3.4321   3.5389   3.7479   3.7614   3.7674   3.9439
     3.9947

[...]

          k = 0.0380-0.0419 0.0000 ( 17876 PWs)   bands (ev):

[...]

          k =-0.0760-0.0000 0.0000 ( 17886 PWs)   bands (ev):

[...]

          k =-0.0760-0.0839 0.0000 ( 17948 PWs)   bands (ev):

   -56.4879 -56.4875 -55.5944 -55.5936 -55.5909 -55.5853 -55.4581 -55.4542
   -55.2440 -55.2391 -55.1575 -55.1511 -55.1509 -55.0517 -54.6174 -54.5523
   -32.7642 -32.7638 -32.7490 -32.7487 -32.6345 -32.6341 -31.9204 -31.9181
   -31.8949 -31.8885 -31.8497 -31.8489 -31.8066 -31.8043 -31.8041 -31.8033
   -31.7812 -31.7793 -31.7777 -31.7741 -31.7093 -31.7059 -31.6605 -31.6550
   -31.5946 -31.5863 -31.5263 -31.5218 -31.4953 -31.4952 -31.4868 -31.4427
   -31.4419 -31.4101 -31.3766 -31.3764 -31.3720 -31.3374 -31.3372 -31.3289
   -31.2946 -31.2569 -31.0047 -30.9142 -30.8434 -30.8130 -30.7727 -30.7351
   -16.0127 -16.0108 -15.9809 -15.9806 -15.7064 -15.7028 -15.6551 -15.6530
   -15.4835 -15.4773 -15.2676 -15.2591 -15.2550 -15.2508 -15.1228 -15.1161
   -15.0574 -15.0403 -14.9569 -14.9525 -14.8910 -14.8805 -14.8450 -14.8264
   -14.5036 -14.4852 -14.3655 -14.3483 -14.2133 -13.9966 -13.6601 -13.6600
   -12.7165  -7.4208  -4.1034  -4.0773  -3.1129  -3.1123  -3.0415  -3.0406
    -2.9178  -2.9127  -2.8448  -2.8441  -2.7333  -2.7309  -2.6807  -2.5987
    -2.5970  -2.5948  -2.5756  -2.5584  -2.4429  -2.4361  -2.4235  -2.4052
    -2.3598  -2.3568  -2.3465  -2.2661  -2.2519  -2.2160  -2.1761  -2.0699
    -2.0578  -2.0427  -2.0132  -1.9530  -1.9423  -1.9271  -1.8777  -1.8608
    -1.7770  -1.7218  -1.6602  -1.5520  -1.5478  -1.5382  -1.5258  -1.3710
    -1.3326  -1.3035  -1.2975  -1.2884  -1.2438  -1.1459  -1.1383  -0.9960
    -0.9956  -0.9236  -0.8426  -0.8276  -0.7973  -0.6669  -0.6237  -0.5831
    -0.5771  -0.5546  -0.5305  -0.5103  -0.4778  -0.3318  -0.3206  -0.2882
    -0.2482  -0.2398  -0.1938  -0.1273  -0.0391   0.0239   0.0256   0.0871
     0.1537   0.2130   0.2941   0.3088   0.3137   0.5951   0.6778   0.7656
     0.8428   0.9094   0.9754   0.9960   1.0646   1.0972   1.1356   1.2339
     1.2377   1.2548   1.2552   1.3266   1.3288   1.7054   2.3068   3.3448
     3.3451   3.4132   3.4136   3.7375   3.7431   3.8533   3.8636   3.9736
     3.9782

     the Fermi energy is     2.6032 ev

!    total energy              =   -2942.90432790 Ry
     estimated scf accuracy    <       0.00000005 Ry
     smearing contrib. (-TS)   =      -0.00454578 Ry
     internal energy E=F+TS    =   -2942.89978211 Ry

     The total energy is F=E-TS. E is the sum of the following terms:
     one-electron contribution =  -23043.02175164 Ry
     hartree contribution      =   11612.14154313 Ry
     xc contribution           =    -487.44283384 Ry
     ewald contribution        =    8975.42238521 Ry
     electric field correction =       0.00087503 Ry

     convergence has been achieved in  66 iterations

     Forces acting on atoms (cartesian axes, Ry/au):

     atom    1 type  1   force =     0.00001691   -0.00049895    0.12499910
     atom    2 type  1   force =    -0.00013501   -0.00062963   -0.16059769
     atom    3 type  2   force =     0.00017296   -0.00022303   -0.06936965
     atom    4 type  2   force =    -0.00004144   -0.00027933    0.02760922
     atom    5 type  2   force =    -0.01719513    0.00222104   -0.00888906
     atom    6 type  2   force =     0.01887650    0.00287190   -0.00920891
     atom    7 type  1   force =     0.00088018   -0.00374995    0.02233700
     atom    8 type  1   force =    -0.00036683   -0.00327001    0.11354140
     atom    9 type  2   force =     0.00050432   -0.00038873    0.00002697
     atom   10 type  2   force =    -0.00234608    0.00259226   -0.07316271
     atom   11 type  2   force =     0.00012096   -0.00099147   -0.00009891
     atom   12 type  2   force =    -0.00000692   -0.00064795   -0.00003231
     atom   13 type  1   force =     0.00023783   -0.00018605   -0.00008338
     atom   14 type  1   force =    -0.00007831   -0.00053254   -0.00004560
     atom   15 type  2   force =    -0.00035740   -0.00222113    0.00125547
     atom   16 type  2   force =    -0.00013358   -0.00021086    0.00045275
     atom   17 type  2   force =     0.00019654   -0.00058192   -0.00057795
     atom   18 type  2   force =     0.00007198   -0.00062711   -0.00053863
     atom   19 type  1   force =    -0.00024866   -0.00079788   -0.00051414
     atom   20 type  1   force =     0.00045306   -0.00153175   -0.00268214
     atom   21 type  2   force =     0.00005255   -0.00006527    0.09967384
     atom   22 type  2   force =     0.00014135   -0.00256426   -0.00093680
     atom   23 type  2   force =    -0.07921493   -0.00006498   -0.03252638
     atom   24 type  2   force =     0.07907246    0.00036580   -0.03255270
     atom   25 type  1   force =     0.00002488   -0.00048907    0.12432195
     atom   26 type  1   force =    -0.00013154   -0.00047926   -0.16060204
     atom   27 type  2   force =     0.00028270   -0.00044748   -0.06837597
     atom   28 type  2   force =     0.00000357   -0.00013297    0.02746749
     atom   29 type  2   force =    -0.01765404    0.00173160   -0.00896074
     atom   30 type  2   force =     0.01922907    0.00199527   -0.00929864
     atom   31 type  1   force =     0.00080418   -0.00116423    0.02195727
     atom   32 type  1   force =    -0.00029762    0.00068904    0.11419211
     atom   33 type  2   force =    -0.00007719    0.00002979   -0.00059541
     atom   34 type  2   force =    -0.00201315    0.00206251   -0.07188934
     atom   35 type  2   force =     0.00002115   -0.00018306    0.00011870
     atom   36 type  2   force =    -0.00052323    0.00026630    0.00021090
     atom   37 type  1   force =     0.00085612    0.00093033   -0.00034112
     atom   38 type  1   force =    -0.00021379    0.00025909   -0.00017108
     atom   39 type  2   force =    -0.00001950    0.00018354   -0.00034789
     atom   40 type  2   force =    -0.00001484   -0.00015351   -0.00026783
     atom   41 type  2   force =     0.00087078   -0.00055710   -0.00003083
     atom   42 type  2   force =    -0.00064879   -0.00053957   -0.00007691
     atom   43 type  1   force =    -0.00036212    0.00086088   -0.00040811
     atom   44 type  1   force =     0.00015159    0.00078441    0.00094064
     atom   45 type  2   force =     0.00003711   -0.00007345    0.09969132
     atom   46 type  2   force =    -0.07921784   -0.00002479   -0.03253061
     atom   47 type  2   force =     0.07907152    0.00041937   -0.03253386
     atom   48 type  3   force =    -0.00029344    0.00672784   -0.00007679
     atom   49 type  3   force =    -0.00073787   -0.00085017    0.00016078
     atom   50 type  4   force =    -0.00007079   -0.00113136    0.00146299
     atom   51 type  5   force =    -0.00069488   -0.00026681   -0.00139872
     atom   52 type  5   force =     0.00016034    0.00033014    0.00036729
     atom   53 type  5   force =    -0.00011514    0.00052961    0.00027599
     atom   54 type  5   force =     0.00050463   -0.00007406   -0.00010390
     atom   55 type  5   force =     0.00031939    0.00095071   -0.00053328
     atom   56 type  5   force =     0.00007546   -0.00017176   -0.00070314

     Total force =     0.426722     Total SCF correction =     0.000429
  @ DRIVER MODE: Message from server: STATUS
  @ DRIVER MODE: Message from server: GETFORCE
  @ DRIVER MODE: Returning v,forces,stress,ensemble

     Writing output data file ./calc.save/
  @ DRIVER MODE: Message from server: EXIT
  @ DRIVE MODE: Exiting

     General routines

     Parallel routines

   This run was terminated on:  23: 0:55   8Sep2021

   JOB DONE.