     Program PWSCF v.6.7GPU starts on 16Jul2021 at  5:40:10

     R & G space division:  proc/nbgrp/npool/nimage =      16
     Reading input from /storage/home/hcoda1/3/ntian30/research/carbon/15Jul_vib/ads_slab/CH3NH_a/out_0027/pw.inp
Warning: card &CELL ignored
Warning: card   CELL_DYNAMICS='IPI', ignored
Warning: card / ignored

     Current dimensions of program PWSCF are:
     Max number of different atomic species (ntypx) = 10
     Max number of k-points (npk) =  40000
     Max angular momentum in pseudopotentials (lmaxx) =  3
     Presently no symmetry can be used with electric field

     Message from routine cell_base_init:
     DEPRECATED: use true lattice parameter, not A to a.u. conversion factor

     IMPORTANT: XC functional enforced from input :
     Exchange-correlation= BEEF-VDW
                           (   1   4  43  14   2   0   0)
     Any further DFT definition will be discarded
     Please, verify this is what you really want

  @ DRIVER MODE: Connecting to
 qe_1139763_2351648.sched-torque.pace.gatech.edubzbpsoh9_scratch
  using UNIX socket
  @ DRIVER MODE: Message from server: STATUS
  @ DRIVER MODE: Message from server: INIT
  @ DRIVER MODE: Receiving replica           0          -1
  @ DRIVER MODE: Receiving encoded integer          25
  @ DRIVER MODE:  SCF:  T  FORCE:  T  STRESS:  F  VC:  F  ENSEMBLE:  F
  @ DRIVER MODE:  SCF:  T  FORCE:  T  STRESS:  F  VC:  F  ENSEMBLE:  F

     Using Slab Decomposition

     bravais-lattice index     =            0
     lattice parameter (alat)  =       1.8897  a.u.
     unit-cell volume          =    6658.9804 (a.u.)^3
     number of atoms/cell      =           53
     number of atomic types    =            5
     number of electrons       =       391.00
     number of Kohn-Sham states=          205
     kinetic-energy cutoff     =      29.3995  Ry
     charge density cutoff     =     293.9946  Ry
     scf convergence threshold =      7.3E-08
     mixing beta               =       0.0500
     number of iterations used =            8  plain     mixing
     Exchange-correlation= BEEF-VDW
                           (   1   4  43  14   2   0   0)

     celldm(1)=   1.889726  celldm(2)=   0.000000  celldm(3)=   0.000000
     celldm(4)=   0.000000  celldm(5)=   0.000000  celldm(6)=   0.000000

     crystal axes: (cart. coord. in units of alat)
               a(1) = (   6.579727   0.000000   0.000000 )
               a(2) = (  -0.000775   5.961596   0.000000 )
               a(3) = (   0.000000   0.000000  25.155947 )

     reciprocal axes: (cart. coord. in units 2 pi/alat)
               b(1) = (  0.151982  0.000020  0.000000 )
               b(2) = (  0.000000  0.167740  0.000000 )
               b(3) = (  0.000000  0.000000  0.039752 )

     PseudoPot. # 1 for Ti read from file:
     /storage/coda1/p-amedford6/0/shared/rich_project_chbe-medford/medford-share/data/pseudos_module/espresso/nninc/pbe/van/Ti.UPF
     MD5 check sum: 8e4df49b7f0d34bbd5052bf3f5ea0213
     Pseudo is Ultrasoft, Zval = 12.0
     Generated by new atomic code, or converted to UPF format
     Using radial grid of  851 points,  6 beta functions with:
                l(1) =   0
                l(2) =   0
                l(3) =   1
                l(4) =   1
                l(5) =   2
                l(6) =   2
     Q(r) pseudized with  8 coefficients,  rinner =    1.000   1.000   1.000
                                                       1.000   1.000

     PseudoPot. # 2 for O  read from file:
     /storage/coda1/p-amedford6/0/shared/rich_project_chbe-medford/medford-share/data/pseudos_module/espresso/nninc/pbe/van/O.UPF
     MD5 check sum: 78c19812648e8988a0fe644b0f25305e
     Pseudo is Ultrasoft, Zval =  6.0
     Generated by new atomic code, or converted to UPF format
     Using radial grid of  737 points,  4 beta functions with:
                l(1) =   0
                l(2) =   0
                l(3) =   1
                l(4) =   1
     Q(r) pseudized with  8 coefficients,  rinner =    0.800   0.800   0.800

     PseudoPot. # 3 for H  read from file:
     /storage/coda1/p-amedford6/0/shared/rich_project_chbe-medford/medford-share/data/pseudos_module/espresso/nninc/pbe/van/H.UPF
     MD5 check sum: b5ee9d7bfd3a09ee7748110bda690ff7
     Pseudo is Ultrasoft, Zval =  1.0
     Generated by new atomic code, or converted to UPF format
     Using radial grid of  615 points,  1 beta functions with:
                l(1) =   0
     Q(r) pseudized with  8 coefficients,  rinner =    0.800

     PseudoPot. # 4 for N  read from file:
     /storage/coda1/p-amedford6/0/shared/rich_project_chbe-medford/medford-share/data/pseudos_module/espresso/nninc/pbe/van/N.UPF
     MD5 check sum: 90d10febe142ad51ac9d5be1deb811c4
     Pseudo is Ultrasoft, Zval =  5.0
     Generated by new atomic code, or converted to UPF format
     Using radial grid of  729 points,  4 beta functions with:
                l(1) =   0
                l(2) =   0
                l(3) =   1
                l(4) =   1
     Q(r) pseudized with  8 coefficients,  rinner =    0.800   0.800   0.800

     PseudoPot. # 5 for C  read from file:
     /storage/coda1/p-amedford6/0/shared/rich_project_chbe-medford/medford-share/data/pseudos_module/espresso/nninc/pbe/van/C.UPF
     MD5 check sum: 1a69bf6b8db32088f5b2163dbdb77a27
     Pseudo is Ultrasoft, Zval =  4.0
     Generated by new atomic code, or converted to UPF format
     Using radial grid of  721 points,  4 beta functions with:
                l(1) =   0
                l(2) =   0
                l(3) =   1
                l(4) =   1
     Q(r) pseudized with  8 coefficients,  rinner =    0.800   0.800   0.800

     atomic species   valence    mass     pseudopotential
        Ti1           12.00    47.86700     Ti( 1.00)
        O1             6.00    15.99900     O ( 1.00)
        H1             1.00     1.00800     H ( 1.00)
        N1             5.00    14.00700     N ( 1.00)
        C1             4.00    12.01100     C ( 1.00)

     Starting magnetic structure
     atomic species   magnetization
        Ti1          0.000
        O1           0.000
        H1           0.000
        N1           0.000
        C1           0.025

     No symmetry found

   Cartesian axes

     site n.     atom                  positions (alat units)
         1           Ti1 tau(   1) = (   0.0004258   2.9801865   6.0000000  )
         2           Ti1 tau(   2) = (   3.2906075   1.4906267   6.0002472  )
         3           O1  tau(   3) = (   0.0006271   0.0005054   7.9858123  )
         4           O1  tau(   4) = (   3.2906025   0.0005020   7.3038282  )
         5           O1  tau(   5) = (   4.5942328   1.4918067   9.2879030  )
         6           O1  tau(   6) = (   1.9868534   1.4903216   9.2879459  )
         7           Ti1 tau(   7) = (   3.2907910   2.8959150   9.1758416  )
         8           Ti1 tau(   8) = (   0.0015273   1.4827037   9.2680791  )
         9           O1  tau(   9) = (   3.2884659   0.0075485  11.3235732  )
        10           O1  tau(  10) = (   0.0116148   5.9584955  10.6183126  )
        11           O1  tau(  11) = (   1.3171120   1.5008813  12.6157184  )
        12           O1  tau(  12) = (   5.2946386   1.4924346  12.6071097  )
        13           Ti1 tau(  13) = (   6.5241923   2.9548932  12.6217359  )
        14           Ti1 tau(  14) = (   3.2094326   1.4975571  12.4685497  )
        15           O1  tau(  15) = (   6.5712017   0.0435206  14.6415704  )
        16           O1  tau(  16) = (   3.3105969   0.0188825  13.9167609  )
        17           O1  tau(  17) = (   4.5276945   1.5520673  16.0775932  )
        18           O1  tau(  18) = (   2.0451199   1.5488911  16.0433559  )
        19           Ti1 tau(  19) = (   3.3056363   3.0248959  15.6834923  )
        20           Ti1 tau(  20) = (   0.0598299   1.5678558  15.8702049  )
        21           O1  tau(  21) = (   3.2904802   0.0005063   4.7018136  )
        22           O1  tau(  22) = (   0.0261329   0.0581799  17.1997403  )
        23           O1  tau(  23) = (   1.3043587   1.4918075   6.0039043  )
        24           O1  tau(  24) = (   5.2767064   1.4903225   6.0039473  )
        25           Ti1 tau(  25) = (   0.0000382   5.9609847   6.0000000  )
        26           Ti1 tau(  26) = (   3.2902200   4.4714249   6.0002472  )
        27           O1  tau(  27) = (   0.0002396   2.9813036   7.9858123  )
        28           O1  tau(  28) = (   3.2902150   2.9813002   7.3038282  )
        29           O1  tau(  29) = (   4.5938453   4.4726049   9.2879030  )
        30           O1  tau(  30) = (   1.9864658   4.4711199   9.2879459  )
        31           Ti1 tau(  31) = (   3.2891106   5.8743827   9.1763621  )
        32           Ti1 tau(  32) = (   0.0006254   4.4649316   9.2693709  )
        33           O1  tau(  33) = (   3.2900467   2.9919642  11.3219399  )
        34           O1  tau(  34) = (   0.0092240   2.9805883  10.6323155  )
        35           O1  tau(  35) = (   1.3109590   4.4888342  12.6262493  )
        36           O1  tau(  36) = (   5.2962169   4.4808628  12.6191006  )
        37           Ti1 tau(  37) = (   6.5213093   5.9327278  12.5667326  )
        38           Ti1 tau(  38) = (   3.2063601   4.4772876  12.4706241  )
        39           O1  tau(  39) = (   6.5765807   2.9606619  14.6437028  )
        40           O1  tau(  40) = (   3.3047873   3.0036736  13.8926904  )
        41           O1  tau(  41) = (   4.5386289   4.5058657  16.0833063  )
        42           O1  tau(  42) = (   2.0584685   4.5123608  16.0729366  )
        43           Ti1 tau(  43) = (   3.3398093   0.0384087  15.7085799  )
        44           Ti1 tau(  44) = (   0.0478225   4.6849499  16.0879628  )
        45           O1  tau(  45) = (   3.2900926   2.9813045   4.7018136  )
        46           O1  tau(  46) = (   1.3039711   4.4726057   6.0039043  )
        47           O1  tau(  47) = (   5.2763189   4.4711207   6.0039473  )
        48           H1  tau(  48) = (   5.6109407   2.9912845  17.7881963  )
        49           N1  tau(  49) = (   6.5652763   3.0051276  17.4431066  )
        50           C1  tau(  50) = (   0.8863280   2.9891452  18.6126320  )
        51           H1  tau(  51) = (   1.3596840   3.9617220  18.7724638  )
        52           H1  tau(  52) = (   0.3315535   2.7244040  19.5171108  )
        53           H1  tau(  53) = (   1.6705027   2.2407838  18.4910999  )

     number of k points=    10  Fermi-Dirac smearing, width (Ry)=  0.0073
                       cart. coord. in units 2pi/alat
        k(    1) = (   0.0000000   0.0000000   0.0000000), wk =   0.0625000
        k(    2) = (   0.0000000   0.0419351   0.0000000), wk =   0.1250000
        k(    3) = (   0.0000000  -0.0838702   0.0000000), wk =   0.0625000
        k(    4) = (   0.0379955   0.0000049   0.0000000), wk =   0.1250000
        k(    5) = (   0.0379955   0.0419400   0.0000000), wk =   0.1250000
        k(    6) = (   0.0379955  -0.0838652   0.0000000), wk =   0.1250000
        k(    7) = (   0.0379955  -0.0419301   0.0000000), wk =   0.1250000
        k(    8) = (  -0.0759910  -0.0000099   0.0000000), wk =   0.0625000
[...]
     starting charge  374.99916, renormalised to  391.00000

     negative rho (up, down):  8.889E-03 8.896E-03

     %%%%%%%%%%%%%%%%%%%%%%%%%%%%%%%%%%%%%%%%%%%%%%%%%%%%%%%%%%%%%%%%%%%%%%%%
     %                                                                      %
     % You are using vdW-DF, which was implemented by the Thonhauser group. %
     % Please cite the following two papers that made this development      %
     % possible and the two reviews that describe the various versions:     %
     %                                                                      %
     %   T. Thonhauser et al., PRL 115, 136402 (2015).                      %
     %   T. Thonhauser et al., PRB 76, 125112 (2007).                       %
     %   K. Berland et al., Rep. Prog. Phys. 78, 066501 (2015).             %
     %   D.C. Langreth et al., J. Phys.: Condens. Matter 21, 084203 (2009). %
     %                                                                      %
     %                                                                      %
     % If you are calculating the stress with vdW-DF, please also cite:     %
     %                                                                      %
     %   R. Sabatini et al., J. Phys.: Condens. Matter 24, 424209 (2012).   %
     %                                                                      %
     %%%%%%%%%%%%%%%%%%%%%%%%%%%%%%%%%%%%%%%%%%%%%%%%%%%%%%%%%%%%%%%%%%%%%%%%

     Adding external electric field

     Computed dipole along edir(3) :
        Dipole               -5.8084 Ry au,        -14.7635 Debye
        Dipole field         -0.0110 Ry au,

        Potential amp.        1.0161 Ry
        Total length         46.3494 bohr

[...]

     Starting wfcs are  296 atomic wfcs
  @ DRIVER MODE: Message from server: STATUS
  @ DRIVER MODE: Message from server: POSDATA
  @ DRIVER MODE: Reading and sharing cell
  @ DRIVER MODE: Reading and sharing positions
  @ DRIVER MODE: Received positions

     Self-consistent Calculation

     iteration #  1     ecut=    29.40 Ry     beta= 0.05
     Davidson diagonalization with overlap
     c_bands:  1 eigenvalues not converged
     c_bands:  1 eigenvalues not converged
     c_bands:  1 eigenvalues not converged
     c_bands:  2 eigenvalues not converged
     c_bands:  4 eigenvalues not converged
     c_bands:  2 eigenvalues not converged
     c_bands:  1 eigenvalues not converged
     c_bands:  1 eigenvalues not converged
     c_bands:  2 eigenvalues not converged
     c_bands:  3 eigenvalues not converged
     c_bands:  1 eigenvalues not converged
     c_bands:  1 eigenvalues not converged
     c_bands:  2 eigenvalues not converged
     c_bands:  4 eigenvalues not converged
     c_bands:  2 eigenvalues not converged
     c_bands:  1 eigenvalues not converged
     c_bands:  1 eigenvalues not converged
     c_bands:  2 eigenvalues not converged
     ethr =  1.00E-05,  avg # of iterations = 19.5

[...]

     total energy              =   -2770.89156541 Ry
     estimated scf accuracy    <    1638.91253367 Ry

     total magnetization       =     0.01 Bohr mag/cell
     absolute magnetization    =     0.02 Bohr mag/cell

[...]

     iteration #  4     ecut=    29.40 Ry     beta= 0.05
     Davidson diagonalization with overlap
     ethr =  1.00E-02,  avg # of iterations =  7.0

[...]

     iteration # 92     ecut=    29.40 Ry     beta= 0.05
     Davidson diagonalization with overlap
     ethr =  2.14E-11,  avg # of iterations = 10.4

[...]

     total energy              =   -2920.42047366 Ry
     estimated scf accuracy    <       0.00000008 Ry

[...]

     iteration # 93     ecut=    29.40 Ry     beta= 0.05
     Davidson diagonalization with overlap
     c_bands:  1 eigenvalues not converged
     c_bands:  2 eigenvalues not converged
     c_bands:  1 eigenvalues not converged
     c_bands:  1 eigenvalues not converged
     ethr =  2.03E-11,  avg # of iterations = 17.9

     negative rho (up, down):  9.151E-03 9.147E-03

[...]

     Adding external electric field

     Computed dipole along edir(3) :
        Dipole                0.6953 Ry au,          1.7674 Debye
        Dipole field          0.0013 Ry au,

        Potential amp.       -0.1216 Ry
        Total length         46.3494 bohr

     Magnetic moment per site  (integrated on atomic sphere of radius R)
     atom   1 (R=0.717)  charge=  7.8576  magn= -0.0290
     atom   2 (R=0.717)  charge=  7.8410  magn= -0.0014
     atom   3 (R=0.717)  charge=  4.8648  magn=  0.0024
     atom   4 (R=0.717)  charge=  4.9003  magn=  0.0003
     atom   5 (R=0.717)  charge=  4.8705  magn=  0.0003
     atom   6 (R=0.717)  charge=  4.8712  magn=  0.0003
     atom   7 (R=0.717)  charge=  7.8399  magn= -0.0011
     atom   8 (R=0.717)  charge=  7.8315  magn= -0.0084
     atom   9 (R=0.717)  charge=  4.8873  magn=  0.0001
     atom  10 (R=0.717)  charge=  4.8598  magn=  0.0007
     atom  11 (R=0.717)  charge=  4.8722  magn=  0.0002
     atom  12 (R=0.717)  charge=  4.8711  magn=  0.0002
     atom  13 (R=0.717)  charge=  7.8297  magn= -0.0015
     atom  14 (R=0.717)  charge=  7.8426  magn= -0.0004
     atom  15 (R=0.717)  charge=  4.8599  magn=  0.0001
     atom  16 (R=0.717)  charge=  4.8822  magn=  0.0000
     atom  17 (R=0.717)  charge=  4.8580  magn=  0.0000
     atom  18 (R=0.717)  charge=  4.8644  magn=  0.0000
     atom  19 (R=0.717)  charge=  7.8684  magn= -0.0001
     atom  20 (R=0.717)  charge=  7.8398  magn= -0.0002
     atom  21 (R=0.717)  charge=  4.7571  magn=  0.0012
     atom  22 (R=0.717)  charge=  4.8381  magn= -0.0000
     atom  23 (R=0.717)  charge=  4.8628  magn=  0.0035
     atom  24 (R=0.717)  charge=  4.8628  magn=  0.0035
     atom  25 (R=0.717)  charge=  7.8576  magn= -0.0290
     atom  26 (R=0.717)  charge=  7.8411  magn= -0.0014
     atom  27 (R=0.717)  charge=  4.8641  magn=  0.0024
     atom  28 (R=0.717)  charge=  4.9005  magn=  0.0003
     atom  29 (R=0.717)  charge=  4.8713  magn=  0.0003
     atom  30 (R=0.717)  charge=  4.8719  magn=  0.0003
     atom  31 (R=0.717)  charge=  7.8400  magn= -0.0011
     atom  32 (R=0.717)  charge=  7.8316  magn= -0.0083
     atom  33 (R=0.717)  charge=  4.8864  magn=  0.0001
     atom  34 (R=0.717)  charge=  4.8464  magn=  0.0008
     atom  35 (R=0.717)  charge=  4.8727  magn=  0.0002
     atom  36 (R=0.717)  charge=  4.8718  magn=  0.0002
     atom  37 (R=0.717)  charge=  7.8315  magn= -0.0017
     atom  38 (R=0.717)  charge=  7.8429  magn= -0.0005
     atom  39 (R=0.717)  charge=  4.8524  magn=  0.0001
     atom  40 (R=0.717)  charge=  4.8881  magn=  0.0000
     atom  41 (R=0.717)  charge=  4.8602  magn=  0.0000
     atom  42 (R=0.717)  charge=  4.8622  magn=  0.0000
     atom  43 (R=0.717)  charge=  7.8658  magn= -0.0001
     atom  44 (R=0.717)  charge=  7.8696  magn= -0.0000
     atom  45 (R=0.717)  charge=  4.7572  magn=  0.0012
     atom  46 (R=0.717)  charge=  4.8628  magn=  0.0035
     atom  47 (R=0.717)  charge=  4.8628  magn=  0.0035
     atom  48 (R=0.419)  charge=  0.4540  magn= -0.0000
     atom  49 (R=0.419)  charge=  1.3227  magn=  0.0000
     atom  50 (R=0.450)  charge=  0.8485  magn= -0.0000
     atom  51 (R=0.419)  charge=  0.4419  magn=  0.0000
     atom  52 (R=0.419)  charge=  0.4421  magn=  0.0000
     atom  53 (R=0.419)  charge=  0.4433  magn=  0.0000

     End of self-consistent calculation

 ------ SPIN UP ------------

          k = 0.0000 0.0000 0.0000 ( 18029 PWs)   bands (ev):

   -55.9736 -55.9518 -55.9375 -55.9177 -55.8861 -55.8253 -55.8192 -55.7846
   -55.7794 -55.7455 -55.7452 -55.7116 -55.5562 -55.2764 -54.9521 -54.9181
   -32.5337 -32.4498 -32.3350 -32.3212 -32.3010 -32.2724 -32.2409 -32.2367
   -32.2212 -32.1965 -32.1943 -32.1896 -32.1568 -32.1252 -32.1188 -32.1167
   -32.0985 -32.0714 -32.0612 -32.0303 -32.0226 -32.0117 -32.0028 -31.9897
   -31.9790 -31.9766 -31.9672 -31.9592 -31.9484 -31.9434 -31.9402 -31.9352
   -31.9197 -31.9103 -31.8984 -31.8861 -31.8578 -31.8208 -31.7251 -31.5506
   -31.5440 -31.4730 -31.3594 -31.2706 -31.2484 -31.1755 -31.0890 -30.9786
   -16.7434 -16.4599 -16.2809 -16.1377 -16.1046 -16.0195 -15.8190 -15.6942
   -15.6808 -15.5776 -15.5401 -15.5175 -15.5095 -15.4825 -15.4785 -15.4205
   -15.4168 -15.4052 -15.3929 -15.3354 -15.3120 -15.2728 -15.1786 -15.1547
   -15.1390 -15.1126 -15.0310 -15.0244 -14.5845 -14.1020 -13.4570 -13.3407
    -8.9299  -4.3629  -4.1138  -3.9369  -3.8980  -3.8820  -3.8356  -3.5826
    -3.5685  -3.3176  -3.1933  -3.1780  -3.1675  -3.1517  -3.1378  -3.1187
    -2.8808  -2.8109  -2.7947  -2.7743  -2.7672  -2.7642  -2.7521  -2.7473
    -2.7053  -2.6455  -2.5277  -2.5138  -2.4087  -2.3622  -2.3387  -2.2875
    -2.2479  -2.2410  -2.2286  -2.2110  -2.1972  -2.1774  -2.1597  -2.0249
    -1.9616  -1.8347  -1.7866  -1.7808  -1.5818  -1.5381  -1.4484  -1.4246
    -1.4088  -1.4003  -1.3673  -1.2884  -1.1978  -1.1401  -1.1265  -1.0733
    -0.9967  -0.9857  -0.8753  -0.8705  -0.8048  -0.7511  -0.7421  -0.7322
    -0.6876  -0.6125  -0.5420  -0.4676  -0.4174  -0.3957  -0.3686  -0.2898
    -0.2592  -0.1636  -0.1448  -0.0986  -0.0944  -0.0452  -0.0042   0.0057
     0.0128   0.0273   0.0449   0.1934   0.3006   0.3573   0.3904   0.4016
     0.5567   0.5926   0.6818   0.7683   0.9951   1.0681   1.1606   1.2608
     1.3221   1.6380   1.6846   3.1785   3.2734   3.3019   3.3038   3.4038
     3.4111   3.6253   3.6308   3.6387   3.7023

[...]

          k =-0.0760-0.0000 0.0000 ( 17886 PWs)   bands (ev):

[...]

 ------ SPIN DOWN ----------

[...]

          k = 0.0380-0.0419 0.0000 ( 17876 PWs)   bands (ev):

[...]

          k =-0.0760-0.0839 0.0000 ( 17948 PWs)   bands (ev):

   -55.9902 -55.9893 -55.9573 -55.9553 -55.8808 -55.8307 -55.8071 -55.8029
   -55.7792 -55.7773 -55.7312 -55.7300 -55.5557 -55.2774 -54.9379 -54.9377
   -32.3385 -32.3357 -32.2895 -32.2892 -32.2873 -32.2871 -32.2669 -32.2465
   -32.1843 -32.1832 -32.1771 -32.1732 -32.1496 -32.1213 -32.1149 -32.1140
   -32.1037 -32.0996 -32.0959 -32.0907 -32.0846 -32.0718 -32.0694 -32.0367
   -32.0276 -32.0219 -31.9994 -31.9901 -31.9730 -31.9724 -31.9643 -31.9631
   -31.9485 -31.9472 -31.9459 -31.9448 -31.8897 -31.8239 -31.7205 -31.6139
   -31.5463 -31.4985 -31.2643 -31.2642 -31.1738 -31.1737 -31.1351 -31.1351
   -16.1952 -16.1617 -15.9260 -15.9146 -15.9074 -15.8889 -15.7464 -15.6943
   -15.6854 -15.6774 -15.6539 -15.6314 -15.5803 -15.5499 -15.5159 -15.5075
   -15.5004 -15.4974 -15.4399 -15.4334 -15.4099 -15.4027 -15.2901 -15.2860
   -15.2858 -15.2099 -15.1453 -15.0123 -14.7547 -14.1230 -13.4400 -13.4399
    -8.9337  -4.3737  -3.4898  -3.4516  -3.2826  -3.1952  -3.1663  -3.1530
    -3.1320  -3.0522  -2.8925  -2.8779  -2.8598  -2.8468  -2.8065  -2.8013
    -2.7892  -2.7756  -2.7682  -2.7508  -2.7172  -2.6763  -2.6480  -2.6408
    -2.6317  -2.6067  -2.5943  -2.5680  -2.5625  -2.5300  -2.5218  -2.5030
    -2.4792  -2.2180  -2.1990  -2.1819  -2.1124  -2.1056  -2.0706  -2.0631
    -2.0422  -2.0288  -1.9773  -1.8771  -1.7136  -1.6806  -1.6666  -1.6503
    -1.5857  -1.5653  -1.4170  -1.3890  -1.3716  -1.3310  -1.2824  -1.2532
    -1.2165  -1.1770  -1.1397  -1.0785  -1.0711  -0.9921  -0.9399  -0.9388
    -0.9131  -0.8442  -0.7655  -0.7484  -0.7366  -0.6935  -0.6799  -0.5999
    -0.5771  -0.4787  -0.4658  -0.3953  -0.3637  -0.2985  -0.0946   0.0035
     0.0621   0.0865   0.1388   0.2364   0.2900   0.3043   0.3400   0.3454
     0.4030   0.4430   0.5584   0.5659   0.6338   0.7374   1.2700   1.4336
     1.4342   1.5054   1.5055   3.4218   3.4275   3.4766   3.5073   3.6433
     3.6474   3.6776   3.6789   3.8034   3.8183

     the Fermi energy is     3.1538 ev

!    total energy              =   -2920.42047558 Ry
     estimated scf accuracy    <       0.00000007 Ry
     smearing contrib. (-TS)   =      -0.02194025 Ry
     internal energy E=F+TS    =   -2920.39853533 Ry

     The total energy is F=E-TS. E is the sum of the following terms:
     one-electron contribution =  -24727.68700593 Ry
     hartree contribution      =   12448.50694074 Ry
     xc contribution           =    -480.87490739 Ry
     ewald contribution        =    9839.65552481 Ry
     electric field correction =       0.00091244 Ry

     total magnetization       =    -0.11 Bohr mag/cell
     absolute magnetization    =     0.17 Bohr mag/cell

     convergence has been achieved in  93 iterations

     Forces acting on atoms (cartesian axes, Ry/au):

     atom    1 type  1   force =     0.00009379   -0.00018406    0.09675869
     atom    2 type  1   force =     0.00004739   -0.00050084   -0.17510869
     atom    3 type  2   force =     0.00012877    0.00001432   -0.02516402
     atom    4 type  2   force =    -0.00003174   -0.00128793    0.05242925
     atom    5 type  2   force =    -0.01222760   -0.00001052    0.00301027
     atom    6 type  2   force =     0.01365700    0.00058511    0.00234701
     atom    7 type  1   force =     0.00058924    0.00032934   -0.01311441
     atom    8 type  1   force =     0.00047595    0.00729202    0.03057295
     atom    9 type  2   force =     0.00055885    0.00003935   -0.00018748
     atom   10 type  2   force =    -0.00267714    0.00210957   -0.01736592
     atom   11 type  2   force =    -0.00014141    0.00007495   -0.00001786
     atom   12 type  2   force =     0.00046026    0.00034214    0.00018815
     atom   13 type  1   force =    -0.00011091   -0.00056189   -0.00019304
     atom   14 type  1   force =    -0.00042197    0.00005463    0.00079041
     atom   15 type  2   force =    -0.00000433   -0.00079598    0.00079455
     atom   16 type  2   force =     0.00026362    0.00063161   -0.00046662
     atom   17 type  2   force =     0.00065252    0.00008412    0.00063778
     atom   18 type  2   force =    -0.00010808   -0.00009525    0.00001532
     atom   19 type  1   force =     0.00000077    0.00045917   -0.00025284
     atom   20 type  1   force =    -0.00023898   -0.00050272    0.00007348
     atom   21 type  2   force =     0.00005679   -0.00002703    0.10312691
     atom   22 type  2   force =     0.00015261   -0.00088123    0.00105378
     atom   23 type  2   force =    -0.07162847   -0.00015162   -0.02780073
     atom   24 type  2   force =     0.07153190    0.00034372   -0.02785718
     atom   25 type  1   force =     0.00009223   -0.00014606    0.09647101
     atom   26 type  1   force =     0.00009502   -0.00024219   -0.17524103
     atom   27 type  2   force =     0.00011736   -0.00011122   -0.02422713
     atom   28 type  2   force =     0.00004434   -0.00104311    0.05234628
     atom   29 type  2   force =    -0.01242573    0.00063785    0.00280306
     atom   30 type  2   force =     0.01372828    0.00098202    0.00215102
     atom   31 type  1   force =     0.00045634    0.00313236   -0.01366144
     atom   32 type  1   force =     0.00033335   -0.00951790    0.03096871
     atom   33 type  2   force =    -0.00006986    0.00031452   -0.00057898
     atom   34 type  2   force =    -0.00206454    0.00181786   -0.02536360
     atom   35 type  2   force =    -0.00017989   -0.00028943    0.00038353
     atom   36 type  2   force =     0.00025202   -0.00077895    0.00040882
     atom   37 type  1   force =     0.00002654    0.00022511    0.00098213
     atom   38 type  1   force =    -0.00021252    0.00041379    0.00076152
     atom   39 type  2   force =    -0.00005860   -0.00016055   -0.00061355
     atom   40 type  2   force =     0.00043003    0.00008180    0.00058872
     atom   41 type  2   force =     0.00029499   -0.00024769   -0.00003612
     atom   42 type  2   force =    -0.00052637   -0.00041209   -0.00030954
     atom   43 type  1   force =    -0.00076204   -0.00015664    0.00043284
     atom   44 type  1   force =    -0.00039281   -0.00067754    0.00048141
     atom   45 type  2   force =     0.00003938   -0.00004887    0.10314288
     atom   46 type  2   force =    -0.07162319   -0.00006809   -0.02780101
     atom   47 type  2   force =     0.07154301    0.00034635   -0.02786059
     atom   48 type  3   force =    -0.00002233   -0.00038103   -0.00004456
     atom   49 type  4   force =    -0.00014444   -0.00008548   -0.00043883
     atom   50 type  5   force =    -0.00076924   -0.00286034    0.00235262
     atom   51 type  3   force =    -0.00148255    0.00004881    0.00115809
     atom   52 type  3   force =     0.00155043    0.00164428   -0.00245926
     atom   53 type  3   force =     0.00065195    0.00022145   -0.00106677

     Total force =     0.368436     Total SCF correction =     0.000281
  @ DRIVER MODE: Message from server: STATUS
  @ DRIVER MODE: Message from server: GETFORCE
  @ DRIVER MODE: Returning v,forces,stress,ensemble

     Writing output data file ./calc.save/
  @ DRIVER MODE: Message from server: EXIT
  @ DRIVE MODE: Exiting

     General routines

     Parallel routines

   This run was terminated on:   6:21:41  16Jul2021

   JOB DONE.