     Program PWSCF v.6.7GPU starts on  9Sep2021 at  4:37:40

     R & G space division:  proc/nbgrp/npool/nimage =      10
     Reading input from /storage/home/hcoda1/3/ntian30/research/carbon/CxH_vib/CH2_calc/ads_slab/CH2OH_a/out_0024/pw.inp
Warning: card &CELL ignored
Warning: card   CELL_DYNAMICS='IPI', ignored
Warning: card / ignored

     Current dimensions of program PWSCF are:
     Max number of different atomic species (ntypx) = 10
     Max number of k-points (npk) =  40000
     Max angular momentum in pseudopotentials (lmaxx) =  3
     Presently no symmetry can be used with electric field

     Message from routine cell_base_init:
     DEPRECATED: use true lattice parameter, not A to a.u. conversion factor

     IMPORTANT: XC functional enforced from input :
     Exchange-correlation= BEEF-VDW
                           (   1   4  43  14   2   0   0)
     Any further DFT definition will be discarded
     Please, verify this is what you really want

  @ DRIVER MODE: Connecting to
 qe_1139763_2767393.sched-torque.pace.gatech.edu8t0luw9i_scratch
  using UNIX socket
  @ DRIVER MODE: Message from server: STATUS
  @ DRIVER MODE: Message from server: INIT
  @ DRIVER MODE: Receiving replica           0          -1
  @ DRIVER MODE: Receiving encoded integer          25
  @ DRIVER MODE:  SCF:  T  FORCE:  T  STRESS:  F  VC:  F  ENSEMBLE:  F
  @ DRIVER MODE:  SCF:  T  FORCE:  T  STRESS:  F  VC:  F  ENSEMBLE:  F

     Using Slab Decomposition

     bravais-lattice index     =            0
     lattice parameter (alat)  =       1.8897  a.u.
     unit-cell volume          =    6658.9804 (a.u.)^3
     number of atoms/cell      =           52
     number of atomic types    =            4
     number of electrons       =       391.00
     number of Kohn-Sham states=          205
     kinetic-energy cutoff     =      29.3995  Ry
     charge density cutoff     =     293.9946  Ry
     scf convergence threshold =      7.3E-08
     mixing beta               =       0.0500
     number of iterations used =            8  plain     mixing
     Exchange-correlation= BEEF-VDW
                           (   1   4  43  14   2   0   0)

     celldm(1)=   1.889726  celldm(2)=   0.000000  celldm(3)=   0.000000
     celldm(4)=   0.000000  celldm(5)=   0.000000  celldm(6)=   0.000000

     crystal axes: (cart. coord. in units of alat)
               a(1) = (   6.579727   0.000000   0.000000 )
               a(2) = (  -0.000775   5.961596   0.000000 )
               a(3) = (   0.000000   0.000000  25.155947 )

     reciprocal axes: (cart. coord. in units 2 pi/alat)
               b(1) = (  0.151982  0.000020  0.000000 )
               b(2) = (  0.000000  0.167740  0.000000 )
               b(3) = (  0.000000  0.000000  0.039752 )

     PseudoPot. # 1 for Ti read from file:
     /storage/coda1/p-amedford6/0/shared/rich_project_chbe-medford/medford-share/data/pseudos_module/espresso/nninc/pbe/van/Ti.UPF
     MD5 check sum: 8e4df49b7f0d34bbd5052bf3f5ea0213
     Pseudo is Ultrasoft, Zval = 12.0
     Generated by new atomic code, or converted to UPF format
     Using radial grid of  851 points,  6 beta functions with:
                l(1) =   0
                l(2) =   0
                l(3) =   1
                l(4) =   1
                l(5) =   2
                l(6) =   2
     Q(r) pseudized with  8 coefficients,  rinner =    1.000   1.000   1.000
                                                       1.000   1.000

     PseudoPot. # 2 for O  read from file:
     /storage/coda1/p-amedford6/0/shared/rich_project_chbe-medford/medford-share/data/pseudos_module/espresso/nninc/pbe/van/O.UPF
     MD5 check sum: 78c19812648e8988a0fe644b0f25305e
     Pseudo is Ultrasoft, Zval =  6.0
     Generated by new atomic code, or converted to UPF format
     Using radial grid of  737 points,  4 beta functions with:
                l(1) =   0
                l(2) =   0
                l(3) =   1
                l(4) =   1
     Q(r) pseudized with  8 coefficients,  rinner =    0.800   0.800   0.800

     PseudoPot. # 3 for C  read from file:
     /storage/coda1/p-amedford6/0/shared/rich_project_chbe-medford/medford-share/data/pseudos_module/espresso/nninc/pbe/van/C.UPF
     MD5 check sum: 1a69bf6b8db32088f5b2163dbdb77a27
     Pseudo is Ultrasoft, Zval =  4.0
     Generated by new atomic code, or converted to UPF format
     Using radial grid of  721 points,  4 beta functions with:
                l(1) =   0
                l(2) =   0
                l(3) =   1
                l(4) =   1
     Q(r) pseudized with  8 coefficients,  rinner =    0.800   0.800   0.800

     PseudoPot. # 4 for H  read from file:
     /storage/coda1/p-amedford6/0/shared/rich_project_chbe-medford/medford-share/data/pseudos_module/espresso/nninc/pbe/van/H.UPF
     MD5 check sum: b5ee9d7bfd3a09ee7748110bda690ff7
     Pseudo is Ultrasoft, Zval =  1.0
     Generated by new atomic code, or converted to UPF format
     Using radial grid of  615 points,  1 beta functions with:
                l(1) =   0
     Q(r) pseudized with  8 coefficients,  rinner =    0.800

     atomic species   valence    mass     pseudopotential
        Ti1           12.00    47.86700     Ti( 1.00)
        O1             6.00    15.99900     O ( 1.00)
        C1             4.00    12.01100     C ( 1.00)
        H1             1.00     1.00800     H ( 1.00)

     No symmetry found

   Cartesian axes

     site n.     atom                  positions (alat units)
         1           Ti1 tau(   1) = (   0.0004258   2.9801865   6.0000000  )
         2           Ti1 tau(   2) = (   3.2906075   1.4906267   6.0002472  )
         3           O1  tau(   3) = (   0.0006271   0.0005054   7.9858123  )
         4           O1  tau(   4) = (   3.2906025   0.0005020   7.3038282  )
         5           O1  tau(   5) = (   4.5942328   1.4918067   9.2879030  )
         6           O1  tau(   6) = (   1.9868534   1.4903216   9.2879459  )
         7           Ti1 tau(   7) = (   3.2719207   3.0347534   9.1624208  )
         8           Ti1 tau(   8) = (   6.5479847   1.5485315   9.3114282  )
         9           O1  tau(   9) = (   3.3130468   5.9588651  11.3322545  )
        10           O1  tau(  10) = (   6.5779921   5.9597862  10.5854321  )
        11           O1  tau(  11) = (   1.2828316   1.4981946  12.5939292  )
        12           O1  tau(  12) = (   5.3076696   1.4616608  12.6584921  )
        13           Ti1 tau(  13) = (   0.0652608   2.9737989  12.6898254  )
        14           Ti1 tau(  14) = (   3.3390979   1.6191063  12.6104043  )
        15           O1  tau(  15) = (   0.1579450   5.9294946  14.6423442  )
        16           O1  tau(  16) = (   3.1680681   5.9402194  13.8972025  )
        17           O1  tau(  17) = (   4.6139792   1.3367142  15.8434034  )
        18           O1  tau(  18) = (   2.0781381   1.4994250  16.2203239  )
        19           Ti1 tau(  19) = (   3.3500823   2.9415657  15.9644494  )
        20           Ti1 tau(  20) = (   0.0003135   1.3236462  15.9137460  )
        21           O1  tau(  21) = (   3.2904802   0.0005063   4.7018136  )
        22           O1  tau(  22) = (   6.5745372   5.9170875  17.1494514  )
        23           O1  tau(  23) = (   1.3043587   1.4918075   6.0039043  )
        24           O1  tau(  24) = (   5.2767064   1.4903225   6.0039473  )
        25           Ti1 tau(  25) = (   0.0000382   5.9609847   6.0000000  )
        26           Ti1 tau(  26) = (   3.2902200   4.4714249   6.0002472  )
        27           O1  tau(  27) = (   0.0002396   2.9813036   7.9858123  )
        28           O1  tau(  28) = (   3.2902150   2.9813002   7.3038282  )
        29           O1  tau(  29) = (   4.5938453   4.4726049   9.2879030  )
        30           O1  tau(  30) = (   1.9864658   4.4711199   9.2879459  )
        31           Ti1 tau(  31) = (   3.2621523   0.0587977   9.1770015  )
        32           Ti1 tau(  32) = (   6.5480547   4.4734411   9.2675299  )
        33           O1  tau(  33) = (   3.3121001   2.9882390  11.3403144  )
        34           O1  tau(  34) = (   6.5676672   2.9758547  10.5865552  )
        35           O1  tau(  35) = (   1.2831373   4.4454538  12.5925867  )
        36           O1  tau(  36) = (   5.3039272   4.4828346  12.6569239  )
        37           Ti1 tau(  37) = (   0.0139245   5.9553196  12.4525254  )
        38           Ti1 tau(  38) = (   3.3396594   4.5312311  12.4471015  )
        39           O1  tau(  39) = (   0.0911754   2.9492527  14.7447760  )
        40           O1  tau(  40) = (   3.3148107   2.9226094  13.9462488  )
        41           O1  tau(  41) = (   4.6112453   4.5441982  15.8230962  )
        42           O1  tau(  42) = (   2.0803191   4.3866676  16.2083192  )
        43           Ti1 tau(  43) = (   3.2736722   5.9210238  15.6733724  )
        44           Ti1 tau(  44) = (   6.5729336   4.5444060  15.8763539  )
        45           O1  tau(  45) = (   3.2900926   2.9813045   4.7018136  )
        46           O1  tau(  46) = (   1.3039711   4.4726057   6.0039043  )
        47           O1  tau(  47) = (   5.2763189   4.4711207   6.0039473  )
        48           C1  tau(  48) = (   4.5191185   2.9521590  17.9045005  )
        49           O1  tau(  49) = (   5.9932199   2.9473452  17.4910416  )
        50           H1  tau(  50) = (   6.5492410   2.9805908  18.2871345  )
        51           H1  tau(  51) = (   4.3954453   2.0589761  18.5317578  )
        52           H1  tau(  52) = (   4.3955607   3.8562994  18.5052511  )

     number of k points=    10  Fermi-Dirac smearing, width (Ry)=  0.0073
                       cart. coord. in units 2pi/alat
        k(    1) = (   0.0000000   0.0000000   0.0000000), wk =   0.1250000
        k(    2) = (   0.0000000   0.0419351   0.0000000), wk =   0.2500000
        k(    3) = (   0.0000000  -0.0838702   0.0000000), wk =   0.1250000
        k(    4) = (   0.0379955   0.0000049   0.0000000), wk =   0.2500000
        k(    5) = (   0.0379955   0.0419400   0.0000000), wk =   0.2500000
        k(    6) = (   0.0379955  -0.0838652   0.0000000), wk =   0.2500000
        k(    7) = (   0.0379955  -0.0419301   0.0000000), wk =   0.2500000
        k(    8) = (  -0.0759910  -0.0000099   0.0000000), wk =   0.1250000
        k(    9) = (  -0.0759910   0.0419252   0.0000000), wk =   0.2500000
        k(   10) = (  -0.0759910  -0.0838800   0.0000000), wk =   0.1250000

     Initial potential from superposition of free atoms

     starting charge  374.99918, renormalised to  391.00000

     negative rho (up, down):  1.947E-02 0.000E+00

     %%%%%%%%%%%%%%%%%%%%%%%%%%%%%%%%%%%%%%%%%%%%%%%%%%%%%%%%%%%%%%%%%%%%%%%%
     %                                                                      %
     % You are using vdW-DF, which was implemented by the Thonhauser group. %
     % Please cite the following two papers that made this development      %
     % possible and the two reviews that describe the various versions:     %
     %                                                                      %
     %   T. Thonhauser et al., PRL 115, 136402 (2015).                      %
     %   T. Thonhauser et al., PRB 76, 125112 (2007).                       %
     %   K. Berland et al., Rep. Prog. Phys. 78, 066501 (2015).             %
     %   D.C. Langreth et al., J. Phys.: Condens. Matter 21, 084203 (2009). %
     %                                                                      %
     %                                                                      %
     % If you are calculating the stress with vdW-DF, please also cite:     %
     %                                                                      %
     %   R. Sabatini et al., J. Phys.: Condens. Matter 24, 424209 (2012).   %
     %                                                                      %
     %%%%%%%%%%%%%%%%%%%%%%%%%%%%%%%%%%%%%%%%%%%%%%%%%%%%%%%%%%%%%%%%%%%%%%%%

     Adding external electric field

     Computed dipole along edir(3) :
        Dipole               -5.2237 Ry au,        -13.2773 Debye
        Dipole field         -0.0099 Ry au,

        Potential amp.        0.9138 Ry
        Total length         46.3494 bohr

     Starting wfcs are  295 atomic wfcs
  @ DRIVER MODE: Message from server: STATUS
  @ DRIVER MODE: Message from server: POSDATA
  @ DRIVER MODE: Reading and sharing cell
  @ DRIVER MODE: Reading and sharing positions
  @ DRIVER MODE: Received positions

     Self-consistent Calculation

     iteration #  1     ecut=    29.40 Ry     beta= 0.05
     Davidson diagonalization with overlap
     c_bands:  1 eigenvalues not converged
     c_bands:  3 eigenvalues not converged
     c_bands:  2 eigenvalues not converged
     c_bands:  3 eigenvalues not converged
     c_bands:  4 eigenvalues not converged
     c_bands:  3 eigenvalues not converged
     c_bands:  1 eigenvalues not converged
     c_bands:  3 eigenvalues not converged
     ethr =  1.00E-05,  avg # of iterations = 19.6

[...]

     total energy              =   -2802.65603639 Ry
     estimated scf accuracy    <    1414.80290737 Ry

     iteration #  2     ecut=    29.40 Ry     beta= 0.05
     Davidson diagonalization with overlap
     ethr =  1.00E-02,  avg # of iterations = 16.7

[...]

     iteration # 64     ecut=    29.40 Ry     beta= 0.05
     Davidson diagonalization with overlap
     c_bands:  2 eigenvalues not converged
     ethr =  2.90E-11,  avg # of iterations = 14.7

[...]

     total energy              =   -2931.32997583 Ry
     estimated scf accuracy    <       0.00000017 Ry

     iteration # 65     ecut=    29.40 Ry     beta= 0.05
     Davidson diagonalization with overlap
     ethr =  2.90E-11,  avg # of iterations = 11.3

     negative rho (up, down):  1.892E-02 0.000E+00

     Adding external electric field

     Computed dipole along edir(3) :
        Dipole                0.9578 Ry au,          2.4345 Debye
        Dipole field          0.0018 Ry au,

        Potential amp.       -0.1676 Ry
        Total length         46.3494 bohr

     End of self-consistent calculation

          k = 0.0000 0.0000 0.0000 ( 18029 PWs)   bands (ev):

   -55.8491 -55.8100 -55.7667 -55.7517 -55.6971 -55.6880 -55.6790 -55.6683
   -55.6301 -55.6189 -55.5973 -55.5867 -55.5599 -55.5534 -54.8196 -54.7856
   -32.3696 -32.3210 -32.2359 -32.2141 -32.1581 -32.1308 -32.1185 -32.0857
   -32.0781 -32.0635 -32.0425 -32.0170 -32.0041 -31.9954 -31.9667 -31.9604
   -31.9430 -31.9412 -31.9226 -31.9095 -31.9085 -31.9023 -31.8774 -31.8577
   -31.8546 -31.8520 -31.8467 -31.8420 -31.8288 -31.8149 -31.8032 -31.8025
   -31.8009 -31.7938 -31.7849 -31.7843 -31.7613 -31.7439 -31.7423 -31.7287
   -31.7000 -31.6362 -31.2268 -31.1374 -31.1148 -31.0438 -30.9576 -30.8460
   -19.5691 -16.5537 -16.3320 -16.1536 -16.0565 -15.9942 -15.8304 -15.7489
   -15.5607 -15.4848 -15.4775 -15.4528 -15.3901 -15.3763 -15.3650 -15.3442
   -15.3439 -15.3130 -15.2497 -15.2370 -15.2303 -15.2010 -15.1309 -15.1203
   -14.9765 -14.9595 -14.9592 -14.9469 -14.8482 -14.7787 -13.3194 -13.2024
    -9.6055  -6.4673  -4.1986  -4.0132  -3.8654  -3.7625  -3.7555  -3.7202
    -3.5665  -3.4900  -3.2755  -3.1346  -3.0887  -3.0208  -2.9772  -2.9157
    -2.8344  -2.7664  -2.7208  -2.6747  -2.6610  -2.6363  -2.6250  -2.5762
    -2.5402  -2.5127  -2.4037  -2.3991  -2.3493  -2.2919  -2.2549  -2.2017
    -2.1631  -2.1451  -2.1223  -2.0925  -2.0628  -2.0439  -2.0234  -1.9693
    -1.9181  -1.8371  -1.8242  -1.5539  -1.4649  -1.3925  -1.3662  -1.2887
    -1.2628  -1.2416  -1.2109  -1.1991  -1.1835  -1.1048  -1.0991  -1.0067
    -0.9719  -0.8879  -0.8345  -0.7461  -0.7057  -0.6345  -0.6150  -0.5793
    -0.5612  -0.5450  -0.3990  -0.3808  -0.3555  -0.2362  -0.2172  -0.1615
    -0.1339  -0.0752  -0.0496   0.0147   0.0455   0.0926   0.1207   0.1402
     0.1615   0.1768   0.2222   0.3081   0.3846   0.4003   0.4250   0.4914
     0.6767   0.7067   0.8349   0.9003   1.1328   1.2055   1.2489   1.2925
     1.3913   1.7798   1.8351   3.3036   3.3585   3.4186   3.4235   3.4607
     3.5531   3.7344   3.7535   3.8083   3.8660

[...]

          k = 0.0380-0.0419 0.0000 ( 17876 PWs)   bands (ev):

[...]

          k =-0.0760-0.0000 0.0000 ( 17886 PWs)   bands (ev):

[...]

          k =-0.0760-0.0839 0.0000 ( 17948 PWs)   bands (ev):

   -55.8391 -55.8198 -55.7627 -55.7453 -55.7034 -55.6915 -55.6736 -55.6662
   -55.6242 -55.6213 -55.5951 -55.5869 -55.5705 -55.5556 -54.8026 -54.8025
   -32.2931 -32.1458 -32.1367 -32.1275 -32.1036 -32.0900 -32.0837 -32.0602
   -32.0221 -32.0098 -31.9966 -31.9915 -31.9782 -31.9716 -31.9680 -31.9646
   -31.9608 -31.9579 -31.9472 -31.9423 -31.9148 -31.9119 -31.9004 -31.8974
   -31.8920 -31.8862 -31.8834 -31.8734 -31.8661 -31.8636 -31.8554 -31.8358
   -31.8248 -31.8203 -31.8115 -31.8102 -31.7962 -31.7936 -31.7909 -31.7874
   -31.7797 -31.6377 -31.1278 -31.1273 -31.0404 -31.0393 -31.0008 -31.0002
   -19.5631 -16.1435 -15.9639 -15.8088 -15.7806 -15.7797 -15.6453 -15.6274
   -15.6057 -15.5720 -15.5337 -15.5055 -15.4800 -15.4735 -15.4303 -15.3750
   -15.3684 -15.3558 -15.3297 -15.2716 -15.2597 -15.2573 -15.2156 -15.1611
   -15.1385 -15.1288 -15.1209 -15.1071 -15.0771 -15.0542 -13.3065 -13.3019
    -9.6058  -6.4505  -4.2040  -3.8810  -3.2853  -3.2144  -3.0125  -3.0090
    -2.9262  -2.8867  -2.8756  -2.8336  -2.7675  -2.7613  -2.7431  -2.6750
    -2.6501  -2.6472  -2.6077  -2.5994  -2.5782  -2.5698  -2.5486  -2.5230
    -2.4886  -2.4491  -2.4322  -2.4226  -2.4039  -2.3951  -2.3890  -2.3456
    -2.3252  -2.2142  -2.1353  -2.0231  -2.0194  -1.9727  -1.9574  -1.9358
    -1.9002  -1.8857  -1.8798  -1.8441  -1.7630  -1.6191  -1.5199  -1.5012
    -1.4597  -1.4343  -1.4021  -1.3804  -1.2838  -1.2642  -1.2151  -1.1903
    -1.1851  -1.0692  -1.0601  -0.9632  -0.9264  -0.8180  -0.8091  -0.7829
    -0.7607  -0.7253  -0.7008  -0.6319  -0.6121  -0.5708  -0.5531  -0.4876
    -0.4495  -0.4328  -0.3554  -0.3168  -0.2547  -0.2060  -0.1712  -0.0216
     0.1588   0.1768   0.2081   0.3189   0.3572   0.4301   0.4860   0.5015
     0.5710   0.6047   0.6732   0.7042   0.7662   0.8058   1.2568   1.5664
     1.5769   1.6397   1.6533   3.5962   3.6442   3.7690   3.7853   3.8174
     3.8224   3.8331   3.8554   3.9177   3.9527

     the Fermi energy is     3.2938 ev

!    total energy              =   -2931.33000154 Ry
     estimated scf accuracy    <       0.00000007 Ry
     smearing contrib. (-TS)   =      -0.02177229 Ry
     internal energy E=F+TS    =   -2931.30822924 Ry

     The total energy is F=E-TS. E is the sum of the following terms:
     one-electron contribution =  -24939.91099465 Ry
     hartree contribution      =   12556.38827443 Ry
     xc contribution           =    -482.04115358 Ry
     ewald contribution        =    9934.25391328 Ry
     electric field correction =       0.00173127 Ry

     convergence has been achieved in  65 iterations

     Forces acting on atoms (cartesian axes, Ry/au):

     atom    1 type  1   force =     0.00041740   -0.00075153    0.09646963
     atom    2 type  1   force =     0.00022972   -0.00292886   -0.17613576
     atom    3 type  2   force =    -0.00037606   -0.00272619   -0.03079410
     atom    4 type  2   force =    -0.00049120    0.00065480    0.04966341
     atom    5 type  2   force =    -0.01528226   -0.00088530    0.00150945
     atom    6 type  2   force =     0.01482190    0.00155439    0.00315406
     atom    7 type  1   force =    -0.00060427   -0.00030841   -0.00011325
     atom    8 type  1   force =    -0.00056473    0.00060047    0.00064913
     atom    9 type  2   force =    -0.00018716    0.00027090    0.00046699
     atom   10 type  2   force =     0.00000088    0.00008507   -0.00068022
     atom   11 type  2   force =     0.00023516    0.00030184    0.00017596
     atom   12 type  2   force =    -0.00017696    0.00013053   -0.00020740
     atom   13 type  1   force =     0.00016343   -0.00018427    0.00052908
     atom   14 type  1   force =     0.00032777   -0.00060194    0.00040674
     atom   15 type  2   force =     0.00003273    0.00058994   -0.00029563
     atom   16 type  2   force =    -0.00015745   -0.00012184    0.00019767
     atom   17 type  2   force =     0.00006501    0.00007401    0.00007284
     atom   18 type  2   force =    -0.00007458    0.00018478    0.00008312
     atom   19 type  1   force =     0.00034754   -0.00059526    0.00126374
     atom   20 type  1   force =     0.00009142    0.00016874    0.00032703
     atom   21 type  2   force =     0.00016243    0.00023037    0.10301998
     atom   22 type  2   force =     0.00025061    0.00040172   -0.00019060
     atom   23 type  2   force =    -0.07096051    0.00144448   -0.02886074
     atom   24 type  2   force =     0.07108481    0.00185621   -0.02887713
     atom   25 type  1   force =     0.00034059    0.00078891    0.11231562
     atom   26 type  1   force =    -0.00012349    0.00363007   -0.17642887
     atom   27 type  2   force =    -0.00014663    0.00019980   -0.02745785
     atom   28 type  2   force =    -0.00030951    0.00087374    0.04912114
     atom   29 type  2   force =    -0.01333915   -0.00249716    0.00128477
     atom   30 type  2   force =     0.01436911   -0.00067716    0.00298826
     atom   31 type  1   force =     0.00019645   -0.00031823    0.00021858
     atom   32 type  1   force =    -0.00074404    0.00067652   -0.00045393
     atom   33 type  2   force =    -0.00025649   -0.00029407   -0.00025563
     atom   34 type  2   force =     0.00012134    0.00016754    0.00000978
     atom   35 type  2   force =    -0.00015282   -0.00006757    0.00030530
     atom   36 type  2   force =     0.00021911   -0.00009255    0.00031121
     atom   37 type  1   force =    -0.00025753   -0.00020208    0.00034977
     atom   38 type  1   force =     0.00028344    0.00035766    0.00031439
     atom   39 type  2   force =     0.00018443    0.00020061   -0.00025174
     atom   40 type  2   force =    -0.00012234   -0.00054772   -0.00079080
     atom   41 type  2   force =    -0.00026174   -0.00017538    0.00033515
     atom   42 type  2   force =     0.00006139   -0.00008272    0.00029366
     atom   43 type  1   force =     0.00033391    0.00042494    0.00021883
     atom   44 type  1   force =     0.00056323    0.00047465   -0.00021767
     atom   45 type  2   force =     0.00015584    0.00016567    0.10344524
     atom   46 type  2   force =    -0.07077404   -0.00174737   -0.02884839
     atom   47 type  2   force =     0.07088875   -0.00133758   -0.02887376
     atom   48 type  3   force =    -0.00124741   -0.00491140    0.00502182
     atom   49 type  2   force =    -0.00022503    0.00026746    0.00019673
     atom   50 type  4   force =     0.00041765   -0.00030927   -0.00006440
     atom   51 type  4   force =     0.00045205    0.00469174   -0.00470848
     atom   52 type  4   force =     0.00001732    0.00089629   -0.00021274

     Total force =     0.369384     Total SCF correction =     0.000479
  @ DRIVER MODE: Message from server: STATUS
  @ DRIVER MODE: Message from server: GETFORCE
  @ DRIVER MODE: Returning v,forces,stress,ensemble

     Writing output data file ./calc.save/
  @ DRIVER MODE: Message from server: EXIT
  @ DRIVE MODE: Exiting

     General routines

     Parallel routines

   This run was terminated on:   4:55:34   9Sep2021

   JOB DONE.