     Program PWSCF v.6.7GPU starts on 15Sep2021 at 19:32: 1

     R & G space division:  proc/nbgrp/npool/nimage =      10
     Reading input from /storage/home/hcoda1/3/ntian30/research/carbon/CxH_vib/H2O_calc/ads_slab/CH3NNH3H2O_a/out_0011/pw.inp
Warning: card &CELL ignored
Warning: card   CELL_DYNAMICS='IPI', ignored
Warning: card / ignored

     Current dimensions of program PWSCF are:
     Max number of different atomic species (ntypx) = 10
     Max number of k-points (npk) =  40000
     Max angular momentum in pseudopotentials (lmaxx) =  3
     Presently no symmetry can be used with electric field

     Message from routine cell_base_init:
     DEPRECATED: use true lattice parameter, not A to a.u. conversion factor

     IMPORTANT: XC functional enforced from input :
     Exchange-correlation= BEEF-VDW
                           (   1   4  43  14   2   0   0)
     Any further DFT definition will be discarded
     Please, verify this is what you really want

  @ DRIVER MODE: Connecting to
 qe_1139763_2852621.sched-torque.pace.gatech.edum9p946vm_scratch
  using UNIX socket
  @ DRIVER MODE: Message from server: STATUS
  @ DRIVER MODE: Message from server: INIT
  @ DRIVER MODE: Receiving replica           0          -1
  @ DRIVER MODE: Receiving encoded integer          25
  @ DRIVER MODE:  SCF:  T  FORCE:  T  STRESS:  F  VC:  F  ENSEMBLE:  F
  @ DRIVER MODE:  SCF:  T  FORCE:  T  STRESS:  F  VC:  F  ENSEMBLE:  F

     Using Slab Decomposition

     bravais-lattice index     =            0
     lattice parameter (alat)  =       1.8897  a.u.
     unit-cell volume          =    6658.9804 (a.u.)^3
     number of atoms/cell      =           59
     number of atomic types    =            5
     number of electrons       =       406.00
     number of Kohn-Sham states=          213
     kinetic-energy cutoff     =      29.3995  Ry
     charge density cutoff     =     293.9946  Ry
     scf convergence threshold =      7.3E-08
     mixing beta               =       0.0500
     number of iterations used =            8  plain     mixing
     Exchange-correlation= BEEF-VDW
                           (   1   4  43  14   2   0   0)

     celldm(1)=   1.889726  celldm(2)=   0.000000  celldm(3)=   0.000000
     celldm(4)=   0.000000  celldm(5)=   0.000000  celldm(6)=   0.000000

     crystal axes: (cart. coord. in units of alat)
               a(1) = (   6.579727   0.000000   0.000000 )
               a(2) = (  -0.000775   5.961596   0.000000 )
               a(3) = (   0.000000   0.000000  25.155947 )

     reciprocal axes: (cart. coord. in units 2 pi/alat)
               b(1) = (  0.151982  0.000020  0.000000 )
               b(2) = (  0.000000  0.167740  0.000000 )
               b(3) = (  0.000000  0.000000  0.039752 )

     PseudoPot. # 1 for Ti read from file:
     /storage/coda1/p-amedford6/0/shared/rich_project_chbe-medford/medford-share/data/pseudos_module/espresso/nninc/pbe/van/Ti.UPF
     MD5 check sum: 8e4df49b7f0d34bbd5052bf3f5ea0213
     Pseudo is Ultrasoft, Zval = 12.0
     Generated by new atomic code, or converted to UPF format
     Using radial grid of  851 points,  6 beta functions with:
                l(1) =   0
                l(2) =   0
                l(3) =   1
                l(4) =   1
                l(5) =   2
                l(6) =   2
     Q(r) pseudized with  8 coefficients,  rinner =    1.000   1.000   1.000
                                                       1.000   1.000

     PseudoPot. # 2 for O  read from file:
     /storage/coda1/p-amedford6/0/shared/rich_project_chbe-medford/medford-share/data/pseudos_module/espresso/nninc/pbe/van/O.UPF
     MD5 check sum: 78c19812648e8988a0fe644b0f25305e
     Pseudo is Ultrasoft, Zval =  6.0
     Generated by new atomic code, or converted to UPF format
     Using radial grid of  737 points,  4 beta functions with:
                l(1) =   0
                l(2) =   0
                l(3) =   1
                l(4) =   1
     Q(r) pseudized with  8 coefficients,  rinner =    0.800   0.800   0.800

     PseudoPot. # 3 for N  read from file:
     /storage/coda1/p-amedford6/0/shared/rich_project_chbe-medford/medford-share/data/pseudos_module/espresso/nninc/pbe/van/N.UPF
     MD5 check sum: 90d10febe142ad51ac9d5be1deb811c4
     Pseudo is Ultrasoft, Zval =  5.0
     Generated by new atomic code, or converted to UPF format
     Using radial grid of  729 points,  4 beta functions with:
                l(1) =   0
                l(2) =   0
                l(3) =   1
                l(4) =   1
     Q(r) pseudized with  8 coefficients,  rinner =    0.800   0.800   0.800

     PseudoPot. # 4 for C  read from file:
     /storage/coda1/p-amedford6/0/shared/rich_project_chbe-medford/medford-share/data/pseudos_module/espresso/nninc/pbe/van/C.UPF
     MD5 check sum: 1a69bf6b8db32088f5b2163dbdb77a27
     Pseudo is Ultrasoft, Zval =  4.0
     Generated by new atomic code, or converted to UPF format
     Using radial grid of  721 points,  4 beta functions with:
                l(1) =   0
                l(2) =   0
                l(3) =   1
                l(4) =   1
     Q(r) pseudized with  8 coefficients,  rinner =    0.800   0.800   0.800

     PseudoPot. # 5 for H  read from file:
     /storage/coda1/p-amedford6/0/shared/rich_project_chbe-medford/medford-share/data/pseudos_module/espresso/nninc/pbe/van/H.UPF
     MD5 check sum: b5ee9d7bfd3a09ee7748110bda690ff7
     Pseudo is Ultrasoft, Zval =  1.0
     Generated by new atomic code, or converted to UPF format
     Using radial grid of  615 points,  1 beta functions with:
                l(1) =   0
     Q(r) pseudized with  8 coefficients,  rinner =    0.800

     atomic species   valence    mass     pseudopotential
        Ti1           12.00    47.86700     Ti( 1.00)
        O1             6.00    15.99900     O ( 1.00)
        N1             5.00    14.00700     N ( 1.00)
        C1             4.00    12.01100     C ( 1.00)
        H1             1.00     1.00800     H ( 1.00)

     No symmetry found

   Cartesian axes

     site n.     atom                  positions (alat units)
         1           Ti1 tau(   1) = (   0.0004258   2.9801865   6.0000000  )
         2           Ti1 tau(   2) = (   3.2906075   1.4906267   6.0002472  )
         3           O1  tau(   3) = (   0.0006271   0.0005054   7.9858123  )
         4           O1  tau(   4) = (   3.2906025   0.0005020   7.3038282  )
         5           O1  tau(   5) = (   4.5942328   1.4918067   9.2879030  )
         6           O1  tau(   6) = (   1.9868534   1.4903216   9.2879459  )
         7           Ti1 tau(   7) = (   3.2907910   2.8959150   9.1758416  )
         8           Ti1 tau(   8) = (   0.0015273   1.4827037   9.2680791  )
         9           O1  tau(   9) = (   3.2954490   0.0159868  11.2922163  )
        10           O1  tau(  10) = (   0.0116148   5.9584955  10.6183126  )
        11           O1  tau(  11) = (   1.3242731   1.5050266  12.6143764  )
        12           O1  tau(  12) = (   5.3073597   1.5103589  12.6267567  )
        13           Ti1 tau(  13) = (   6.4831477   3.0011104  12.7364612  )
        14           Ti1 tau(  14) = (   3.1751638   1.4975352  12.4748964  )
        15           O1  tau(  15) = (   0.0212859   5.9607631  14.5987152  )
        16           O1  tau(  16) = (   3.3058086   0.0238703  13.8910224  )
        17           O1  tau(  17) = (   4.5539421   1.5574750  15.9960573  )
        18           O1  tau(  18) = (   2.0731809   1.5597727  15.9888445  )
        19           Ti1 tau(  19) = (   3.3176354   3.0289328  15.6523405  )
        20           Ti1 tau(  20) = (   0.0198791   1.6227889  16.0606591  )
        21           O1  tau(  21) = (   3.2904802   0.0005063   4.7018136  )
        22           O1  tau(  22) = (   0.0290054   0.0533443  17.2129705  )
        23           O1  tau(  23) = (   1.3043587   1.4918075   6.0039043  )
        24           O1  tau(  24) = (   5.2767064   1.4903225   6.0039473  )
        25           Ti1 tau(  25) = (   0.0000382   5.9609847   6.0000000  )
        26           Ti1 tau(  26) = (   3.2902200   4.4714249   6.0002472  )
        27           O1  tau(  27) = (   0.0002396   2.9813036   7.9858123  )
        28           O1  tau(  28) = (   3.2902150   2.9813002   7.3038282  )
        29           O1  tau(  29) = (   4.5938453   4.4726049   9.2879030  )
        30           O1  tau(  30) = (   1.9864658   4.4711199   9.2879459  )
        31           Ti1 tau(  31) = (   3.2891106   5.8743827   9.1763621  )
        32           Ti1 tau(  32) = (   0.0006254   4.4649316   9.2693709  )
        33           O1  tau(  33) = (   3.2918316   2.9938763  11.2915017  )
        34           O1  tau(  34) = (   0.0092240   2.9805883  10.6323155  )
        35           O1  tau(  35) = (   1.3226278   4.4784642  12.6110361  )
        36           O1  tau(  36) = (   5.3078083   4.4770455  12.6250823  )
        37           Ti1 tau(  37) = (   6.5141033   0.0190828  12.7620745  )
        38           Ti1 tau(  38) = (   3.1722404   4.4939287  12.4712879  )
        39           O1  tau(  39) = (   0.0035410   2.9850241  14.6487316  )
        40           O1  tau(  40) = (   3.3118331   3.0109266  13.8519036  )
        41           O1  tau(  41) = (   4.5522870   4.5059159  16.0259181  )
        42           O1  tau(  42) = (   2.0778134   4.5048723  16.0185459  )
        43           Ti1 tau(  43) = (   3.3116469   0.0596163  15.7453941  )
        44           Ti1 tau(  44) = (   0.0183239   4.5967015  16.1059876  )
        45           O1  tau(  45) = (   3.2900926   2.9813045   4.7018136  )
        46           O1  tau(  46) = (   1.3039711   4.4726057   6.0039043  )
        47           O1  tau(  47) = (   5.2763189   4.4711207   6.0039473  )
        48           N1  tau(  48) = (   0.0600715   3.0265251  17.3188267  )
        49           N1  tau(  49) = (   6.2826239   2.5295367  22.6124490  )
        50           C1  tau(  50) = (   0.2859397   3.0149959  18.7399364  )
        51           H1  tau(  51) = (   0.1411154   4.0060466  19.1894648  )
        52           H1  tau(  52) = (   6.1913215   2.3105648  19.2421896  )
        53           H1  tau(  53) = (   1.3125146   2.6868920  18.9691123  )
        54           H1  tau(  54) = (   6.1000088   3.2491606  23.3142794  )
        55           H1  tau(  55) = (   0.1456284   1.7586669  23.1118534  )
        56           H1  tau(  56) = (   0.3974265   2.9048463  21.9856970  )
        57           O1  tau(  57) = (   3.2908421   0.1144680  18.1630233  )
        58           H1  tau(  58) = (   4.0679411   5.5688996  18.4486002  )
        59           H1  tau(  59) = (   2.5060966   5.5711546  18.4327789  )

     number of k points=    10  Fermi-Dirac smearing, width (Ry)=  0.0073
                       cart. coord. in units 2pi/alat
        k(    1) = (   0.0000000   0.0000000   0.0000000), wk =   0.1250000
        k(    2) = (   0.0000000   0.0419351   0.0000000), wk =   0.2500000
        k(    3) = (   0.0000000  -0.0838702   0.0000000), wk =   0.1250000
        k(    4) = (   0.0379955   0.0000049   0.0000000), wk =   0.2500000
        k(    5) = (   0.0379955   0.0419400   0.0000000), wk =   0.2500000
        k(    6) = (   0.0379955  -0.0838652   0.0000000), wk =   0.2500000
        k(    7) = (   0.0379955  -0.0419301   0.0000000), wk =   0.2500000
        k(    8) = (  -0.0759910  -0.0000099   0.0000000), wk =   0.1250000
        k(    9) = (  -0.0759910   0.0419252   0.0000000), wk =   0.2500000
        k(   10) = (  -0.0759910  -0.0838800   0.0000000), wk =   0.1250000

     Initial potential from superposition of free atoms

     starting charge  389.99912, renormalised to  406.00000

     negative rho (up, down):  6.923E-03 0.000E+00

     %%%%%%%%%%%%%%%%%%%%%%%%%%%%%%%%%%%%%%%%%%%%%%%%%%%%%%%%%%%%%%%%%%%%%%%%
     %                                                                      %
     % You are using vdW-DF, which was implemented by the Thonhauser group. %
     % Please cite the following two papers that made this development      %
     % possible and the two reviews that describe the various versions:     %
     %                                                                      %
     %   T. Thonhauser et al., PRL 115, 136402 (2015).                      %
     %   T. Thonhauser et al., PRB 76, 125112 (2007).                       %
     %   K. Berland et al., Rep. Prog. Phys. 78, 066501 (2015).             %
     %   D.C. Langreth et al., J. Phys.: Condens. Matter 21, 084203 (2009). %
     %                                                                      %
     %                                                                      %
     % If you are calculating the stress with vdW-DF, please also cite:     %
     %                                                                      %
     %   R. Sabatini et al., J. Phys.: Condens. Matter 24, 424209 (2012).   %
     %                                                                      %
     %%%%%%%%%%%%%%%%%%%%%%%%%%%%%%%%%%%%%%%%%%%%%%%%%%%%%%%%%%%%%%%%%%%%%%%%

     Adding external electric field

     Computed dipole along edir(3) :
        Dipole              -16.2297 Ry au,        -41.2518 Debye
        Dipole field         -0.0306 Ry au,

        Potential amp.        2.8391 Ry
        Total length         46.3494 bohr

     Starting wfcs are  308 atomic wfcs
  @ DRIVER MODE: Message from server: STATUS
  @ DRIVER MODE: Message from server: POSDATA
  @ DRIVER MODE: Reading and sharing cell
  @ DRIVER MODE: Reading and sharing positions
  @ DRIVER MODE: Received positions

     Self-consistent Calculation

     iteration #  1     ecut=    29.40 Ry     beta= 0.05
     Davidson diagonalization with overlap
     c_bands:  2 eigenvalues not converged
     c_bands:  3 eigenvalues not converged
     c_bands:  5 eigenvalues not converged
     c_bands:  3 eigenvalues not converged
     c_bands:  3 eigenvalues not converged
     c_bands:  3 eigenvalues not converged
     c_bands:  1 eigenvalues not converged
     c_bands:  5 eigenvalues not converged
     c_bands:  3 eigenvalues not converged
     ethr =  1.00E-05,  avg # of iterations = 20.6

[...]

     total energy              =   -2253.48897646 Ry
     estimated scf accuracy    <    8262.86802739 Ry

     iteration #  2     ecut=    29.40 Ry     beta= 0.05
     Davidson diagonalization with overlap
     ethr =  1.00E-02,  avg # of iterations = 27.9

[...]

     iteration # 62     ecut=    29.40 Ry     beta= 0.05
     Davidson diagonalization with overlap
     c_bands:  1 eigenvalues not converged
     ethr =  1.88E-06,  avg # of iterations =  8.0

[...]

     total energy              =   -2977.74419356 Ry
     estimated scf accuracy    <       0.00000012 Ry

     iteration # 85     ecut=    29.40 Ry     beta= 0.05
     Davidson diagonalization with overlap
     ethr =  2.95E-11,  avg # of iterations =  2.6

     negative rho (up, down):  8.776E-03 0.000E+00

     Adding external electric field

     Computed dipole along edir(3) :
        Dipole                0.7705 Ry au,          1.9583 Debye
        Dipole field          0.0015 Ry au,

        Potential amp.       -0.1348 Ry
        Total length         46.3494 bohr

     End of self-consistent calculation

          k = 0.0000 0.0000 0.0000 ( 18029 PWs)   bands (ev):

   -56.2589 -56.2253 -55.3761 -55.3421 -55.3339 -55.2990 -55.1509 -55.1156
   -55.0290 -54.9087 -54.8903 -54.8887 -54.8748 -54.8038 -54.3878 -54.3382
   -32.6856 -32.5332 -32.5051 -32.4352 -32.3442 -32.3118 -31.8439 -31.8162
   -31.6863 -31.6419 -31.5931 -31.5752 -31.5450 -31.5359 -31.5068 -31.5019
   -31.4833 -31.4769 -31.4545 -31.4404 -31.4269 -31.3777 -31.3673 -31.3286
   -31.3161 -31.2997 -31.2907 -31.2772 -31.2532 -31.2523 -31.2481 -31.2239
   -31.1291 -31.1186 -31.0785 -31.0682 -31.0406 -31.0355 -31.0266 -31.0080
   -30.9773 -30.9247 -30.9025 -30.6315 -30.6092 -30.5781 -30.5573 -30.4484
   -18.4437 -16.4146 -15.9485 -15.7051 -15.6155 -15.5323 -15.4935 -15.4495
   -15.2974 -15.2300 -15.2073 -15.2069 -15.1362 -14.9880 -14.9409 -14.8430
   -14.7492 -14.6143 -14.5973 -14.5641 -14.5463 -14.5133 -14.5062 -14.4545
   -14.2912 -14.2555 -14.2075 -14.1444 -14.0591 -14.0392 -13.8341 -13.4071
   -13.2974 -12.6406  -7.4469  -6.2340  -4.1288  -4.0303  -3.9820  -3.4482
    -3.1788  -3.1512  -3.0227  -3.0180  -2.9726  -2.8327  -2.8249  -2.7513
    -2.7275  -2.6904  -2.6140  -2.5811  -2.5320  -2.4425  -2.4298  -2.4099
    -2.3965  -2.3808  -2.2591  -2.2177  -2.1655  -2.0618  -1.9537  -1.9106
    -1.8836  -1.8397  -1.8016  -1.7545  -1.7424  -1.7275  -1.7209  -1.6097
    -1.4954  -1.4627  -1.4477  -1.4016  -1.3833  -1.3745  -1.3525  -1.2674
    -1.1579  -1.0643  -0.9971  -0.9849  -0.9173  -0.9094  -0.8502  -0.7344
    -0.6736  -0.6692  -0.6531  -0.5495  -0.5228  -0.4515  -0.3886  -0.3306
    -0.2760  -0.2133  -0.1631  -0.1404  -0.1276  -0.0286   0.0430   0.0664
     0.1175   0.1269   0.1358   0.1566   0.2531   0.2890   0.3627   0.4073
     0.4435   0.4877   0.5708   0.6210   0.6887   0.7385   0.7615   0.8230
     0.8765   0.9319   1.0272   1.0512   1.0812   1.0894   1.1129   1.1732
     1.1871   1.2633   1.3463   1.3615   1.4340   1.5024   1.6630   1.7022
     1.9522   2.0237   2.6501   3.0182   3.1795   3.4747   3.6646   3.8020
     3.9975   4.0079   4.0150   4.2412   4.2647

[...]

          k = 0.0380-0.0419 0.0000 ( 17876 PWs)   bands (ev):

[...]

          k =-0.0760-0.0000 0.0000 ( 17886 PWs)   bands (ev):

[...]

          k =-0.0760-0.0839 0.0000 ( 17948 PWs)   bands (ev):

   -56.2423 -56.2417 -55.3611 -55.3567 -55.3214 -55.3117 -55.1343 -55.1320
   -55.0267 -54.8917 -54.8916 -54.8908 -54.8866 -54.8073 -54.3807 -54.3452
   -32.5192 -32.5187 -32.5027 -32.5023 -32.3884 -32.3879 -31.6675 -31.6617
   -31.6520 -31.6445 -31.5681 -31.5531 -31.5511 -31.5468 -31.5405 -31.5390
   -31.5333 -31.5246 -31.4924 -31.4759 -31.3799 -31.3778 -31.3441 -31.3384
   -31.3192 -31.2830 -31.2447 -31.2370 -31.2369 -31.2362 -31.2118 -31.1896
   -31.1468 -31.1166 -31.1164 -31.1128 -31.0898 -31.0773 -31.0772 -31.0625
   -31.0455 -31.0101 -30.7632 -30.7005 -30.6071 -30.5828 -30.5652 -30.5189
   -18.4428 -15.7652 -15.7633 -15.7281 -15.7274 -15.4604 -15.4571 -15.3637
   -15.3584 -15.2239 -15.1069 -15.0054 -14.9926 -14.9571 -14.9299 -14.8180
   -14.7972 -14.7880 -14.7778 -14.6663 -14.6462 -14.6009 -14.5896 -14.5734
   -14.5632 -14.2693 -14.2562 -14.1532 -14.1295 -14.0384 -13.9873 -13.4011
   -13.4009 -12.6592  -7.4406  -6.2265  -4.1284  -4.0428  -2.8618  -2.8546
    -2.8187  -2.8002  -2.7993  -2.7407  -2.6349  -2.5953  -2.5934  -2.5921
    -2.5111  -2.4436  -2.4357  -2.3643  -2.3314  -2.3121  -2.2539  -2.2433
    -2.1779  -2.1516  -2.1434  -2.1268  -2.1033  -2.1020  -2.0059  -1.9432
    -1.8914  -1.8879  -1.8206  -1.8025  -1.7385  -1.7177  -1.7062  -1.6745
    -1.6329  -1.6100  -1.5783  -1.5444  -1.5035  -1.4438  -1.2772  -1.2681
    -1.2587  -1.2372  -1.1121  -1.1054  -1.0740  -1.0439  -1.0381  -0.9643
    -0.9146  -0.8794  -0.8221  -0.7385  -0.7160  -0.6141  -0.5631  -0.5169
    -0.4608  -0.3546  -0.3371  -0.3265  -0.3171  -0.2869  -0.2205  -0.1914
    -0.1757  -0.0551  -0.0356   0.0175   0.0386   0.0948   0.1211   0.1855
     0.2126   0.2842   0.2959   0.3350   0.4091   0.4903   0.5246   0.5727
     0.5774   0.8536   0.9274   1.0392   1.0595   1.1253   1.1839   1.2554
     1.3150   1.3473   1.3742   1.4973   1.5016   1.5108   1.5113   1.5829
     1.5879   1.9299   2.5273   3.5941   3.5944   3.6609   3.6617   3.9823
     3.9886   4.0955   4.1059   4.2668   4.2821

     the Fermi energy is     2.8462 ev

!    total energy              =   -2977.74420418 Ry
     estimated scf accuracy    <       0.00000007 Ry
     smearing contrib. (-TS)   =      -0.00445550 Ry
     internal energy E=F+TS    =   -2977.73974869 Ry

     The total energy is F=E-TS. E is the sum of the following terms:
     one-electron contribution =  -22876.56646439 Ry
     hartree contribution      =   11536.00423182 Ry
     xc contribution           =    -496.32219378 Ry
     ewald contribution        =    8859.14355743 Ry
     electric field correction =       0.00112024 Ry

     convergence has been achieved in  85 iterations

     Forces acting on atoms (cartesian axes, Ry/au):

     atom    1 type  1   force =    -0.00003088   -0.00045626    0.12450918
     atom    2 type  1   force =    -0.00008727   -0.00048332   -0.15979747
     atom    3 type  2   force =     0.00019083   -0.00024400   -0.06790833
     atom    4 type  2   force =    -0.00000666   -0.00011632    0.02622614
     atom    5 type  2   force =    -0.01448224    0.00181766   -0.00990063
     atom    6 type  2   force =     0.01626053    0.00224180   -0.01024328
     atom    7 type  1   force =     0.00071369   -0.00387309    0.02888720
     atom    8 type  1   force =    -0.00035087   -0.00439467    0.10955564
     atom    9 type  2   force =     0.00023654   -0.00029151   -0.00050594
     atom   10 type  2   force =    -0.00231493    0.00256650   -0.07334652
     atom   11 type  2   force =    -0.00002683   -0.00033675   -0.00000861
     atom   12 type  2   force =    -0.00014876   -0.00082771    0.00001514
     atom   13 type  1   force =     0.00105418   -0.00040499    0.00012984
     atom   14 type  1   force =    -0.00064137    0.00064571   -0.00010100
     atom   15 type  2   force =    -0.00028692   -0.00039224   -0.00075198
     atom   16 type  2   force =    -0.00001519   -0.00010998    0.00067662
     atom   17 type  2   force =     0.00016318   -0.00091227   -0.00020612
     atom   18 type  2   force =     0.00049138   -0.00052251    0.00012263
     atom   19 type  1   force =    -0.00114740   -0.00010504   -0.00097911
     atom   20 type  1   force =     0.00081715   -0.00013154   -0.00046895
     atom   21 type  2   force =     0.00004785   -0.00003740    0.09943373
     atom   22 type  2   force =     0.00002521   -0.00023403   -0.00040138
     atom   23 type  2   force =    -0.07967553   -0.00006153   -0.03248855
     atom   24 type  2   force =     0.07952061    0.00037686   -0.03253422
     atom   25 type  1   force =    -0.00000394   -0.00057581    0.12415750
     atom   26 type  1   force =    -0.00009037   -0.00062027   -0.15992764
     atom   27 type  2   force =     0.00030088   -0.00036193   -0.06695851
     atom   28 type  2   force =    -0.00002059    0.00015223    0.02514103
     atom   29 type  2   force =    -0.01510310    0.00192827   -0.00983587
     atom   30 type  2   force =     0.01677971    0.00242774   -0.01015090
     atom   31 type  1   force =     0.00075060   -0.00076515    0.02406705
     atom   32 type  1   force =    -0.00028352    0.00205461    0.11016704
     atom   33 type  2   force =     0.00007406    0.00029412    0.00059434
     atom   34 type  2   force =    -0.00193724    0.00199994   -0.07165973
     atom   35 type  2   force =    -0.00001974    0.00034530   -0.00002219
     atom   36 type  2   force =    -0.00052974    0.00061338   -0.00006371
     atom   37 type  1   force =     0.00120614    0.00042761    0.00030510
     atom   38 type  1   force =    -0.00053650   -0.00087544   -0.00022340
     atom   39 type  2   force =    -0.00027457   -0.00014697    0.00088452
     atom   40 type  2   force =     0.00018062   -0.00012743    0.00023766
     atom   41 type  2   force =     0.00103905    0.00015347    0.00016643
     atom   42 type  2   force =    -0.00050101   -0.00023435    0.00053849
     atom   43 type  1   force =    -0.00158954    0.00000761   -0.00032076
     atom   44 type  1   force =     0.00091844   -0.00014551   -0.00040344
     atom   45 type  2   force =     0.00002064   -0.00004811    0.09940388
     atom   46 type  2   force =    -0.07969037    0.00000821   -0.03250169
     atom   47 type  2   force =     0.07954064    0.00044233   -0.03252562
     atom   48 type  3   force =    -0.00086387   -0.00075769   -0.00044158
     atom   49 type  3   force =    -0.00680046   -0.00287256    0.02122291
     atom   50 type  4   force =    -0.00026447   -0.00011613    0.00005226
     atom   51 type  5   force =    -0.00021249    0.00038756    0.00028310
     atom   52 type  5   force =    -0.00005296   -0.00052437    0.00073058
     atom   53 type  5   force =     0.00052004   -0.00014861    0.00020552
     atom   54 type  5   force =     0.00133202   -0.00634346   -0.00882558
     atom   55 type  5   force =    -0.00257256    0.00492348   -0.00544945
     atom   56 type  5   force =     0.00806914    0.00420650   -0.00835744
     atom   57 type  2   force =     0.00158153   -0.00045758   -0.00038919
     atom   58 type  5   force =    -0.00047279    0.00090406    0.00002484
     atom   59 type  5   force =    -0.00079999    0.00013158   -0.00003960

     Total force =     0.424488     Total SCF correction =     0.000661
  @ DRIVER MODE: Message from server: STATUS
  @ DRIVER MODE: Message from server: GETFORCE
  @ DRIVER MODE: Returning v,forces,stress,ensemble

     Writing output data file ./calc.save/
  @ DRIVER MODE: Message from server: EXIT
  @ DRIVE MODE: Exiting

     General routines

     Parallel routines

   This run was terminated on:  19:54:43  15Sep2021

   JOB DONE.