     Program PWSCF v.6.7GPU starts on 24Aug2021 at  3:11:26

     R & G space division:  proc/nbgrp/npool/nimage =       6
     Reading input from /storage/home/hcoda1/3/ntian30/research/carbon/CH2_vib/ads_slab/CH2N2H_a/out_0028/pw.inp
Warning: card &CELL ignored
Warning: card   CELL_DYNAMICS='IPI', ignored
Warning: card / ignored

     Current dimensions of program PWSCF are:
     Max number of different atomic species (ntypx) = 10
     Max number of k-points (npk) =  40000
     Max angular momentum in pseudopotentials (lmaxx) =  3
     Presently no symmetry can be used with electric field

     Message from routine cell_base_init:
     DEPRECATED: use true lattice parameter, not A to a.u. conversion factor

     IMPORTANT: XC functional enforced from input :
     Exchange-correlation= BEEF-VDW
                           (   1   4  43  14   2   0   0)
     Any further DFT definition will be discarded
     Please, verify this is what you really want

  @ DRIVER MODE: Connecting to
 qe_1139763_2632802.sched-torque.pace.gatech.edu23tozilk_scratch
  using UNIX socket
  @ DRIVER MODE: Message from server: STATUS
  @ DRIVER MODE: Message from server: INIT
  @ DRIVER MODE: Receiving replica           0          -1
  @ DRIVER MODE: Receiving encoded integer          25
  @ DRIVER MODE:  SCF:  T  FORCE:  T  STRESS:  F  VC:  F  ENSEMBLE:  F
  @ DRIVER MODE:  SCF:  T  FORCE:  T  STRESS:  F  VC:  F  ENSEMBLE:  F

     Using Slab Decomposition

     bravais-lattice index     =            0
     lattice parameter (alat)  =       1.8897  a.u.
     unit-cell volume          =    6658.9804 (a.u.)^3
     number of atoms/cell      =           53
     number of atomic types    =            5
     number of electrons       =       395.00
     number of Kohn-Sham states=          207
     kinetic-energy cutoff     =      29.3995  Ry
     charge density cutoff     =     293.9946  Ry
     scf convergence threshold =      7.3E-08
     mixing beta               =       0.0500
     number of iterations used =            8  plain     mixing
     Exchange-correlation= BEEF-VDW
                           (   1   4  43  14   2   0   0)

     celldm(1)=   1.889726  celldm(2)=   0.000000  celldm(3)=   0.000000
     celldm(4)=   0.000000  celldm(5)=   0.000000  celldm(6)=   0.000000

     crystal axes: (cart. coord. in units of alat)
               a(1) = (   6.579727   0.000000   0.000000 )
               a(2) = (  -0.000775   5.961596   0.000000 )
               a(3) = (   0.000000   0.000000  25.155947 )

     reciprocal axes: (cart. coord. in units 2 pi/alat)
               b(1) = (  0.151982  0.000020  0.000000 )
               b(2) = (  0.000000  0.167740  0.000000 )
               b(3) = (  0.000000  0.000000  0.039752 )

     PseudoPot. # 1 for Ti read from file:
     /storage/coda1/p-amedford6/0/shared/rich_project_chbe-medford/medford-share/data/pseudos_module/espresso/nninc/pbe/van/Ti.UPF
     MD5 check sum: 8e4df49b7f0d34bbd5052bf3f5ea0213
     Pseudo is Ultrasoft, Zval = 12.0
     Generated by new atomic code, or converted to UPF format
     Using radial grid of  851 points,  6 beta functions with:
                l(1) =   0
                l(2) =   0
                l(3) =   1
                l(4) =   1
                l(5) =   2
                l(6) =   2
     Q(r) pseudized with  8 coefficients,  rinner =    1.000   1.000   1.000
                                                       1.000   1.000

     PseudoPot. # 2 for O  read from file:
     /storage/coda1/p-amedford6/0/shared/rich_project_chbe-medford/medford-share/data/pseudos_module/espresso/nninc/pbe/van/O.UPF
     MD5 check sum: 78c19812648e8988a0fe644b0f25305e
     Pseudo is Ultrasoft, Zval =  6.0
     Generated by new atomic code, or converted to UPF format
     Using radial grid of  737 points,  4 beta functions with:
                l(1) =   0
                l(2) =   0
                l(3) =   1
                l(4) =   1
     Q(r) pseudized with  8 coefficients,  rinner =    0.800   0.800   0.800

     PseudoPot. # 3 for N  read from file:
     /storage/coda1/p-amedford6/0/shared/rich_project_chbe-medford/medford-share/data/pseudos_module/espresso/nninc/pbe/van/N.UPF
     MD5 check sum: 90d10febe142ad51ac9d5be1deb811c4
     Pseudo is Ultrasoft, Zval =  5.0
     Generated by new atomic code, or converted to UPF format
     Using radial grid of  729 points,  4 beta functions with:
                l(1) =   0
                l(2) =   0
                l(3) =   1
                l(4) =   1
     Q(r) pseudized with  8 coefficients,  rinner =    0.800   0.800   0.800

     PseudoPot. # 4 for C  read from file:
     /storage/coda1/p-amedford6/0/shared/rich_project_chbe-medford/medford-share/data/pseudos_module/espresso/nninc/pbe/van/C.UPF
     MD5 check sum: 1a69bf6b8db32088f5b2163dbdb77a27
     Pseudo is Ultrasoft, Zval =  4.0
     Generated by new atomic code, or converted to UPF format
     Using radial grid of  721 points,  4 beta functions with:
                l(1) =   0
                l(2) =   0
                l(3) =   1
                l(4) =   1
     Q(r) pseudized with  8 coefficients,  rinner =    0.800   0.800   0.800

     PseudoPot. # 5 for H  read from file:
     /storage/coda1/p-amedford6/0/shared/rich_project_chbe-medford/medford-share/data/pseudos_module/espresso/nninc/pbe/van/H.UPF
     MD5 check sum: b5ee9d7bfd3a09ee7748110bda690ff7
     Pseudo is Ultrasoft, Zval =  1.0
     Generated by new atomic code, or converted to UPF format
     Using radial grid of  615 points,  1 beta functions with:
                l(1) =   0
     Q(r) pseudized with  8 coefficients,  rinner =    0.800

     atomic species   valence    mass     pseudopotential
        Ti1           12.00    47.86700     Ti( 1.00)
        O1             6.00    15.99900     O ( 1.00)
        N1             5.00    14.00700     N ( 1.00)
        C1             4.00    12.01100     C ( 1.00)
        H1             1.00     1.00800     H ( 1.00)

     No symmetry found

   Cartesian axes

     site n.     atom                  positions (alat units)
         1           Ti1 tau(   1) = (   0.0004258   2.9801865   6.0000000  )
         2           Ti1 tau(   2) = (   3.2906075   1.4906267   6.0002472  )
         3           O1  tau(   3) = (   0.0006271   0.0005054   7.9858123  )
         4           O1  tau(   4) = (   3.2906025   0.0005020   7.3038282  )
         5           O1  tau(   5) = (   4.5942328   1.4918067   9.2879030  )
         6           O1  tau(   6) = (   1.9868534   1.4903216   9.2879459  )
         7           Ti1 tau(   7) = (   3.2907910   2.8959150   9.1758416  )
         8           Ti1 tau(   8) = (   0.0015273   1.4827037   9.2680791  )
         9           O1  tau(   9) = (   3.3007851   0.0027079  11.3193151  )
        10           O1  tau(  10) = (   0.0116148   5.9584955  10.6183126  )
        11           O1  tau(  11) = (   1.3147357   1.5019762  12.6210215  )
        12           O1  tau(  12) = (   5.3120411   1.4917641  12.6342566  )
        13           Ti1 tau(  13) = (   6.5359925   2.9538565  12.6086018  )
        14           Ti1 tau(  14) = (   3.2189980   1.4905645  12.4770757  )
        15           O1  tau(  15) = (   0.0426301   5.9606301  14.6312846  )
        16           O1  tau(  16) = (   3.3149351   0.0098317  13.8848037  )
        17           O1  tau(  17) = (   4.5523768   1.5206755  16.0744300  )
        18           O1  tau(  18) = (   2.0715852   1.4807026  15.9918588  )
        19           Ti1 tau(  19) = (   3.2935730   2.9941335  15.6827836  )
        20           Ti1 tau(  20) = (   0.0200723   1.3023755  15.9747514  )
        21           O1  tau(  21) = (   3.2904802   0.0005063   4.7018136  )
        22           O1  tau(  22) = (   6.5179923   0.0002674  17.1556216  )
        23           O1  tau(  23) = (   1.3043587   1.4918075   6.0039043  )
        24           O1  tau(  24) = (   5.2767064   1.4903225   6.0039473  )
        25           Ti1 tau(  25) = (   0.0000382   5.9609847   6.0000000  )
        26           Ti1 tau(  26) = (   3.2902200   4.4714249   6.0002472  )
        27           O1  tau(  27) = (   0.0002396   2.9813036   7.9858123  )
        28           O1  tau(  28) = (   3.2902150   2.9813002   7.3038282  )
        29           O1  tau(  29) = (   4.5938453   4.4726049   9.2879030  )
        30           O1  tau(  30) = (   1.9864658   4.4711199   9.2879459  )
        31           Ti1 tau(  31) = (   3.2891106   5.8743827   9.1763621  )
        32           Ti1 tau(  32) = (   0.0006254   4.4649316   9.2693709  )
        33           O1  tau(  33) = (   3.3053585   2.9833221  11.3185053  )
        34           O1  tau(  34) = (   0.0092240   2.9805883  10.6323155  )
        35           O1  tau(  35) = (   1.3157767   4.4721532  12.6203727  )
        36           O1  tau(  36) = (   5.3104355   4.4689601  12.6331991  )
        37           Ti1 tau(  37) = (   6.5385524   5.9338372  12.5465384  )
        38           Ti1 tau(  38) = (   3.2200853   4.4710709  12.4725482  )
        39           O1  tau(  39) = (   0.0068575   2.9964749  14.7765288  )
        40           O1  tau(  40) = (   3.3021705   2.9848394  13.8818356  )
        41           O1  tau(  41) = (   4.5334443   4.4765196  15.9883447  )
        42           O1  tau(  42) = (   2.0816803   4.4801587  16.0471567  )
        43           Ti1 tau(  43) = (   3.3155128   0.0116264  15.6901768  )
        44           Ti1 tau(  44) = (   6.5575601   4.4671909  15.9479714  )
        45           O1  tau(  45) = (   3.2900926   2.9813045   4.7018136  )
        46           O1  tau(  46) = (   1.3039711   4.4726057   6.0039043  )
        47           O1  tau(  47) = (   5.2763189   4.4711207   6.0039473  )
        48           N1  tau(  48) = (   0.4270260   2.3853988  17.9668900  )
        49           C1  tau(  49) = (   0.9469377   1.9340014  19.0583692  )
        50           H1  tau(  50) = (   1.0789317   2.5769861  19.9249762  )
        51           H1  tau(  51) = (   1.2326487   0.8959138  19.0941702  )
        52           N1  tau(  52) = (   0.0025679   3.6332397  17.7996529  )
        53           H1  tau(  53) = (   0.1020252   4.2324666  18.6151602  )

     number of k points=    10  Fermi-Dirac smearing, width (Ry)=  0.0073
                       cart. coord. in units 2pi/alat
        k(    1) = (   0.0000000   0.0000000   0.0000000), wk =   0.1250000
        k(    2) = (   0.0000000   0.0419351   0.0000000), wk =   0.2500000
        k(    3) = (   0.0000000  -0.0838702   0.0000000), wk =   0.1250000
        k(    4) = (   0.0379955   0.0000049   0.0000000), wk =   0.2500000
        k(    5) = (   0.0379955   0.0419400   0.0000000), wk =   0.2500000
        k(    6) = (   0.0379955  -0.0838652   0.0000000), wk =   0.2500000
        k(    7) = (   0.0379955  -0.0419301   0.0000000), wk =   0.2500000
        k(    8) = (  -0.0759910  -0.0000099   0.0000000), wk =   0.1250000
        k(    9) = (  -0.0759910   0.0419252   0.0000000), wk =   0.2500000
        k(   10) = (  -0.0759910  -0.0838800   0.0000000), wk =   0.1250000

     Initial potential from superposition of free atoms

     starting charge  378.99916, renormalised to  395.00000

     negative rho (up, down):  1.649E-02 0.000E+00

     %%%%%%%%%%%%%%%%%%%%%%%%%%%%%%%%%%%%%%%%%%%%%%%%%%%%%%%%%%%%%%%%%%%%%%%%
     %                                                                      %
     % You are using vdW-DF, which was implemented by the Thonhauser group. %
     % Please cite the following two papers that made this development      %
     % possible and the two reviews that describe the various versions:     %
     %                                                                      %
     %   T. Thonhauser et al., PRL 115, 136402 (2015).                      %
     %   T. Thonhauser et al., PRB 76, 125112 (2007).                       %
     %   K. Berland et al., Rep. Prog. Phys. 78, 066501 (2015).             %
     %   D.C. Langreth et al., J. Phys.: Condens. Matter 21, 084203 (2009). %
     %                                                                      %
     %                                                                      %
     % If you are calculating the stress with vdW-DF, please also cite:     %
     %                                                                      %
     %   R. Sabatini et al., J. Phys.: Condens. Matter 24, 424209 (2012).   %
     %                                                                      %
     %%%%%%%%%%%%%%%%%%%%%%%%%%%%%%%%%%%%%%%%%%%%%%%%%%%%%%%%%%%%%%%%%%%%%%%%

     Adding external electric field

     Computed dipole along edir(3) :
        Dipole               -8.3970 Ry au,        -21.3430 Debye
        Dipole field         -0.0158 Ry au,

        Potential amp.        1.4689 Ry
        Total length         46.3494 bohr

     Starting wfcs are  299 atomic wfcs
  @ DRIVER MODE: Message from server: STATUS
  @ DRIVER MODE: Message from server: POSDATA
  @ DRIVER MODE: Reading and sharing cell
  @ DRIVER MODE: Reading and sharing positions
  @ DRIVER MODE: Received positions

     Self-consistent Calculation

     iteration #  1     ecut=    29.40 Ry     beta= 0.05
     Davidson diagonalization with overlap
     c_bands:  2 eigenvalues not converged
     c_bands:  1 eigenvalues not converged
     c_bands:  2 eigenvalues not converged
     c_bands:  3 eigenvalues not converged
     c_bands:  3 eigenvalues not converged
     c_bands:  2 eigenvalues not converged
     c_bands:  1 eigenvalues not converged
     ethr =  1.00E-05,  avg # of iterations = 19.3

[...]

     total energy              =   -2613.95474680 Ry
     estimated scf accuracy    <    3601.25195622 Ry

[...]

     iteration #  3     ecut=    29.40 Ry     beta= 0.05
     Davidson diagonalization with overlap
     ethr =  1.00E-02,  avg # of iterations = 14.1

[...]

     iteration # 49     ecut=    29.40 Ry     beta= 0.05
     Davidson diagonalization with overlap
     c_bands:  1 eigenvalues not converged
     ethr =  6.07E-09,  avg # of iterations = 15.4

[...]

     total energy              =   -2939.13521170 Ry
     estimated scf accuracy    <       0.00000008 Ry

     iteration # 60     ecut=    29.40 Ry     beta= 0.05
     Davidson diagonalization with overlap
     ethr =  2.02E-11,  avg # of iterations =  8.8

     negative rho (up, down):  1.682E-02 0.000E+00

     Adding external electric field

     Computed dipole along edir(3) :
        Dipole                0.7972 Ry au,          2.0262 Debye
        Dipole field          0.0015 Ry au,

        Potential amp.       -0.1395 Ry
        Total length         46.3494 bohr

     End of self-consistent calculation

          k = 0.0000 0.0000 0.0000 ( 18029 PWs)   bands (ev):

   -55.8462 -55.8451 -55.8121 -55.8090 -55.7393 -55.6964 -55.6583 -55.6567
   -55.6233 -55.6227 -55.6183 -55.5846 -55.1827 -55.1369 -54.8218 -54.7878
   -32.3991 -32.3291 -32.2351 -32.1567 -32.1428 -32.1384 -32.1242 -32.1101
   -32.0892 -32.0761 -32.0232 -32.0052 -31.9986 -31.9968 -31.9866 -31.9832
   -31.9510 -31.9392 -31.9331 -31.9305 -31.9036 -31.9008 -31.8853 -31.8832
   -31.8524 -31.8480 -31.8460 -31.8449 -31.8199 -31.8044 -31.7971 -31.7867
   -31.7743 -31.7728 -31.7649 -31.7317 -31.7247 -31.4476 -31.4097 -31.3830
   -31.3306 -31.2948 -31.2286 -31.1410 -31.1185 -31.0457 -30.9592 -30.8478
   -17.8203 -16.6054 -16.3253 -16.0696 -15.9946 -15.9908 -15.8572 -15.6944
   -15.5817 -15.5147 -15.4345 -15.4046 -15.3827 -15.3471 -15.3408 -15.3031
   -15.2942 -15.2686 -15.2653 -15.2030 -15.1996 -15.1921 -15.1824 -15.0982
   -15.0405 -14.9890 -14.9813 -14.9080 -14.8738 -14.3461 -13.3237 -13.2073
   -12.1763  -7.8814  -5.3650  -4.5355  -3.9822  -3.8229  -3.7532  -3.7187
    -3.6416  -3.4824  -3.4035  -3.1189  -3.0691  -3.0171  -3.0078  -2.9713
    -2.9130  -2.7730  -2.6963  -2.6701  -2.6546  -2.6325  -2.6175  -2.6052
    -2.5869  -2.5701  -2.4865  -2.4078  -2.3637  -2.2868  -2.2734  -2.2371
    -2.1585  -2.1581  -2.1195  -2.0978  -2.0790  -2.0633  -2.0549  -2.0392
    -1.9021  -1.8438  -1.8274  -1.6469  -1.6310  -1.5822  -1.4542  -1.4483
    -1.3326  -1.3170  -1.2768  -1.2390  -1.1668  -1.1446  -1.0331  -0.9918
    -0.9297  -0.8845  -0.8675  -0.7921  -0.7277  -0.6905  -0.6772  -0.6108
    -0.6041  -0.5910  -0.4548  -0.3807  -0.3264  -0.2706  -0.2481  -0.1919
    -0.1529  -0.1095  -0.0241   0.0051   0.0166   0.0746   0.0964   0.1220
     0.1340   0.1536   0.1814   0.2380   0.3561   0.3870   0.4616   0.4775
     0.5407   0.6729   0.8110   0.8767   0.9307   1.0058   1.1315   1.2010
     1.2742   1.3933   1.7711   1.8166   2.1240   3.2736   3.3755   3.4083
     3.4193   3.5224   3.6718   3.7327   3.7478   3.7892   3.8230

[...]

          k = 0.0380-0.0419 0.0000 ( 17876 PWs)   bands (ev):

[...]

          k =-0.0760-0.0000 0.0000 ( 17886 PWs)   bands (ev):

[...]

          k =-0.0760-0.0839 0.0000 ( 17948 PWs)   bands (ev):

   -55.8293 -55.8289 -55.8275 -55.8264 -55.7307 -55.7051 -55.6415 -55.6400
   -55.6400 -55.6390 -55.6022 -55.6009 -55.1748 -55.1447 -54.8048 -54.8046
   -32.2013 -32.1997 -32.1446 -32.1442 -32.1239 -32.1236 -32.0899 -32.0869
   -32.0777 -32.0613 -31.9954 -31.9928 -31.9872 -31.9856 -31.9635 -31.9558
   -31.9491 -31.9486 -31.9435 -31.9421 -31.9403 -31.9282 -31.9226 -31.9163
   -31.9041 -31.8989 -31.8538 -31.8437 -31.8420 -31.8412 -31.8331 -31.8323
   -31.8189 -31.8183 -31.8179 -31.8165 -31.6771 -31.4427 -31.4090 -31.4041
   -31.3868 -31.3310 -31.1313 -31.1312 -31.0415 -31.0413 -31.0025 -31.0024
   -17.8058 -16.0205 -16.0177 -15.8102 -15.7712 -15.7519 -15.7462 -15.6565
   -15.5707 -15.5371 -15.5342 -15.4467 -15.4212 -15.4051 -15.3888 -15.3833
   -15.3747 -15.3449 -15.3098 -15.3023 -15.2882 -15.2826 -15.2705 -15.2137
   -15.1625 -15.1583 -15.1356 -15.0636 -14.8246 -14.6879 -13.3092 -13.3090
   -12.1357  -7.8218  -5.4103  -4.5963  -3.3150  -3.3055  -3.0591  -3.0161
    -3.0091  -2.9657  -2.9429  -2.7833  -2.7707  -2.7514  -2.7434  -2.6988
    -2.6752  -2.6550  -2.6354  -2.6302  -2.6009  -2.5751  -2.5599  -2.5230
    -2.5159  -2.5071  -2.4757  -2.4649  -2.4183  -2.4130  -2.3923  -2.3646
    -2.3553  -2.3213  -2.1676  -2.1005  -2.0721  -1.9879  -1.9810  -1.9422
    -1.9194  -1.8973  -1.8931  -1.8620  -1.8241  -1.6882  -1.6057  -1.5439
    -1.5352  -1.4507  -1.4234  -1.3622  -1.2716  -1.2465  -1.2255  -1.1536
    -1.0779  -1.0397  -0.9899  -0.9754  -0.9080  -0.8993  -0.8420  -0.8047
    -0.8027  -0.7300  -0.6971  -0.6470  -0.6117  -0.5948  -0.5721  -0.5450
    -0.5295  -0.5057  -0.4302  -0.3465  -0.2948  -0.2337  -0.1408  -0.0110
     0.1086   0.2214   0.2434   0.2885   0.3376   0.3716   0.4677   0.4715
     0.5368   0.5583   0.5991   0.6758   0.6886   0.7128   0.8238   0.8363
     1.5655   1.5659   1.6365   1.6367   2.0635   3.5963   3.6253   3.6444
     3.6764   3.8056   3.8117   3.8220   3.8228   3.9580   3.9612

     the Fermi energy is     3.2834 ev

!    total energy              =   -2939.13525220 Ry
     estimated scf accuracy    <       0.00000006 Ry
     smearing contrib. (-TS)   =      -0.02098908 Ry
     internal energy E=F+TS    =   -2939.11426311 Ry

     The total energy is F=E-TS. E is the sum of the following terms:
     one-electron contribution =  -24492.37035401 Ry
     hartree contribution      =   12334.21327141 Ry
     xc contribution           =    -485.36723456 Ry
     ewald contribution        =    9704.40885482 Ry
     electric field correction =       0.00119923 Ry

     convergence has been achieved in  60 iterations

     Forces acting on atoms (cartesian axes, Ry/au):

     atom    1 type  1   force =     0.00007962   -0.00023522    0.09634524
     atom    2 type  1   force =     0.00005687   -0.00055999   -0.17514760
     atom    3 type  2   force =     0.00015146   -0.00013290   -0.02408408
     atom    4 type  2   force =    -0.00000359   -0.00124826    0.05220527
     atom    5 type  2   force =    -0.01055066   -0.00047568    0.00251056
     atom    6 type  2   force =     0.01236921    0.00022363    0.00288328
     atom    7 type  1   force =     0.00098207    0.00027981   -0.01173358
     atom    8 type  1   force =    -0.00014094    0.00775446    0.02263914
     atom    9 type  2   force =    -0.00019772   -0.00015473   -0.00026856
     atom   10 type  2   force =    -0.00262383    0.00114817   -0.01266706
     atom   11 type  2   force =     0.00005283   -0.00012178    0.00004801
     atom   12 type  2   force =     0.00010904    0.00018500   -0.00039368
     atom   13 type  1   force =     0.00043838   -0.00035409    0.00024578
     atom   14 type  1   force =     0.00014310    0.00032691   -0.00012448
     atom   15 type  2   force =    -0.00026045    0.00032329    0.00000986
     atom   16 type  2   force =     0.00011042   -0.00019690    0.00032174
     atom   17 type  2   force =     0.00050260    0.00001573    0.00041502
     atom   18 type  2   force =     0.00068135   -0.00018065    0.00033805
     atom   19 type  1   force =    -0.00118165    0.00014947    0.00014011
     atom   20 type  1   force =     0.00029320   -0.00077502   -0.00061311
     atom   21 type  2   force =     0.00004780    0.00000504    0.10312738
     atom   22 type  2   force =     0.00010801    0.00122841   -0.00010191
     atom   23 type  2   force =    -0.07163112   -0.00015169   -0.02765583
     atom   24 type  2   force =     0.07157453    0.00034838   -0.02772427
     atom   25 type  1   force =     0.00016049   -0.00023352    0.09588526
     atom   26 type  1   force =     0.00010217   -0.00041368   -0.17541906
     atom   27 type  2   force =     0.00017795   -0.00021307   -0.02291518
     atom   28 type  2   force =     0.00006563   -0.00101326    0.05216468
     atom   29 type  2   force =    -0.01084911    0.00048478    0.00243213
     atom   30 type  2   force =     0.01254518    0.00064652    0.00277896
     atom   31 type  1   force =     0.00087254    0.00347485   -0.01291709
     atom   32 type  1   force =     0.00002657   -0.00925118    0.02306080
     atom   33 type  2   force =    -0.00048366    0.00013566    0.00023600
     atom   34 type  2   force =    -0.00302534    0.00022988   -0.01289461
     atom   35 type  2   force =     0.00008188    0.00008437   -0.00009133
     atom   36 type  2   force =     0.00010832    0.00033163   -0.00040801
     atom   37 type  1   force =     0.00034882    0.00036239    0.00006171
     atom   38 type  1   force =     0.00001911   -0.00043532    0.00017398
     atom   39 type  2   force =     0.00014853    0.00041218    0.00059541
     atom   40 type  2   force =     0.00035431    0.00011502   -0.00039848
     atom   41 type  2   force =     0.00019855    0.00006272    0.00013268
     atom   42 type  2   force =     0.00122881    0.00010265    0.00029489
     atom   43 type  1   force =    -0.00155810   -0.00057370   -0.00043437
     atom   44 type  1   force =     0.00083033    0.00005521   -0.00108456
     atom   45 type  2   force =     0.00005866   -0.00003899    0.10310368
     atom   46 type  2   force =    -0.07165834   -0.00007208   -0.02767729
     atom   47 type  2   force =     0.07159849    0.00032579   -0.02773965
     atom   48 type  3   force =    -0.00401284    0.00979944   -0.00197719
     atom   49 type  4   force =    -0.00211245    0.00196843   -0.00160371
     atom   50 type  5   force =    -0.00076729    0.00054539    0.00078709
     atom   51 type  5   force =     0.00041304   -0.00078469    0.00011407
     atom   52 type  3   force =     0.00328097   -0.01909114   -0.00404448
     atom   53 type  5   force =     0.00073629    0.00558231    0.00706840

     Total force =     0.366563     Total SCF correction =     0.000660
  @ DRIVER MODE: Message from server: STATUS
  @ DRIVER MODE: Message from server: GETFORCE
  @ DRIVER MODE: Returning v,forces,stress,ensemble

     Writing output data file ./calc.save/
  @ DRIVER MODE: Message from server: EXIT
  @ DRIVE MODE: Exiting

     General routines

     Parallel routines

   This run was terminated on:   3:38: 1  24Aug2021

   JOB DONE.