     Program PWSCF v.6.7GPU starts on 16Sep2021 at  2:35:17

     R & G space division:  proc/nbgrp/npool/nimage =      10
     Reading input from /storage/home/hcoda1/3/ntian30/research/carbon/CxH_vib/H2O_calc/ads_slab/CHNH2O_a/out_0034/pw.inp
Warning: card &CELL ignored
Warning: card   CELL_DYNAMICS='IPI', ignored
Warning: card / ignored

     Current dimensions of program PWSCF are:
     Max number of different atomic species (ntypx) = 10
     Max number of k-points (npk) =  40000
     Max angular momentum in pseudopotentials (lmaxx) =  3
     Presently no symmetry can be used with electric field

     Message from routine cell_base_init:
     DEPRECATED: use true lattice parameter, not A to a.u. conversion factor

     IMPORTANT: XC functional enforced from input :
     Exchange-correlation= BEEF-VDW
                           (   1   4  43  14   2   0   0)
     Any further DFT definition will be discarded
     Please, verify this is what you really want

  @ DRIVER MODE: Connecting to
 qe_1139763_2852627.sched-torque.pace.gatech.edu87psjvrc_scratch
  using UNIX socket
  @ DRIVER MODE: Message from server: STATUS
  @ DRIVER MODE: Message from server: INIT
  @ DRIVER MODE: Receiving replica           0          -1
  @ DRIVER MODE: Receiving encoded integer          25
  @ DRIVER MODE:  SCF:  T  FORCE:  T  STRESS:  F  VC:  F  ENSEMBLE:  F
  @ DRIVER MODE:  SCF:  T  FORCE:  T  STRESS:  F  VC:  F  ENSEMBLE:  F

     Using Slab Decomposition

     bravais-lattice index     =            0
     lattice parameter (alat)  =       1.8897  a.u.
     unit-cell volume          =    6658.9804 (a.u.)^3
     number of atoms/cell      =           53
     number of atomic types    =            5
     number of electrons       =       396.00
     number of Kohn-Sham states=          208
     kinetic-energy cutoff     =      29.3995  Ry
     charge density cutoff     =     293.9946  Ry
     scf convergence threshold =      7.3E-08
     mixing beta               =       0.0500
     number of iterations used =            8  plain     mixing
     Exchange-correlation= BEEF-VDW
                           (   1   4  43  14   2   0   0)

     celldm(1)=   1.889726  celldm(2)=   0.000000  celldm(3)=   0.000000
     celldm(4)=   0.000000  celldm(5)=   0.000000  celldm(6)=   0.000000

     crystal axes: (cart. coord. in units of alat)
               a(1) = (   6.579727   0.000000   0.000000 )
               a(2) = (  -0.000775   5.961596   0.000000 )
               a(3) = (   0.000000   0.000000  25.155947 )

     reciprocal axes: (cart. coord. in units 2 pi/alat)
               b(1) = (  0.151982  0.000020  0.000000 )
               b(2) = (  0.000000  0.167740  0.000000 )
               b(3) = (  0.000000  0.000000  0.039752 )

     PseudoPot. # 1 for Ti read from file:
     /storage/coda1/p-amedford6/0/shared/rich_project_chbe-medford/medford-share/data/pseudos_module/espresso/nninc/pbe/van/Ti.UPF
     MD5 check sum: 8e4df49b7f0d34bbd5052bf3f5ea0213
     Pseudo is Ultrasoft, Zval = 12.0
     Generated by new atomic code, or converted to UPF format
     Using radial grid of  851 points,  6 beta functions with:
                l(1) =   0
                l(2) =   0
                l(3) =   1
                l(4) =   1
                l(5) =   2
                l(6) =   2
     Q(r) pseudized with  8 coefficients,  rinner =    1.000   1.000   1.000
                                                       1.000   1.000

     PseudoPot. # 2 for O  read from file:
     /storage/coda1/p-amedford6/0/shared/rich_project_chbe-medford/medford-share/data/pseudos_module/espresso/nninc/pbe/van/O.UPF
     MD5 check sum: 78c19812648e8988a0fe644b0f25305e
     Pseudo is Ultrasoft, Zval =  6.0
     Generated by new atomic code, or converted to UPF format
     Using radial grid of  737 points,  4 beta functions with:
                l(1) =   0
                l(2) =   0
                l(3) =   1
                l(4) =   1
     Q(r) pseudized with  8 coefficients,  rinner =    0.800   0.800   0.800

     PseudoPot. # 3 for N  read from file:
     /storage/coda1/p-amedford6/0/shared/rich_project_chbe-medford/medford-share/data/pseudos_module/espresso/nninc/pbe/van/N.UPF
     MD5 check sum: 90d10febe142ad51ac9d5be1deb811c4
     Pseudo is Ultrasoft, Zval =  5.0
     Generated by new atomic code, or converted to UPF format
     Using radial grid of  729 points,  4 beta functions with:
                l(1) =   0
                l(2) =   0
                l(3) =   1
                l(4) =   1
     Q(r) pseudized with  8 coefficients,  rinner =    0.800   0.800   0.800

     PseudoPot. # 4 for C  read from file:
     /storage/coda1/p-amedford6/0/shared/rich_project_chbe-medford/medford-share/data/pseudos_module/espresso/nninc/pbe/van/C.UPF
     MD5 check sum: 1a69bf6b8db32088f5b2163dbdb77a27
     Pseudo is Ultrasoft, Zval =  4.0
     Generated by new atomic code, or converted to UPF format
     Using radial grid of  721 points,  4 beta functions with:
                l(1) =   0
                l(2) =   0
                l(3) =   1
                l(4) =   1
     Q(r) pseudized with  8 coefficients,  rinner =    0.800   0.800   0.800

     PseudoPot. # 5 for H  read from file:
     /storage/coda1/p-amedford6/0/shared/rich_project_chbe-medford/medford-share/data/pseudos_module/espresso/nninc/pbe/van/H.UPF
     MD5 check sum: b5ee9d7bfd3a09ee7748110bda690ff7
     Pseudo is Ultrasoft, Zval =  1.0
     Generated by new atomic code, or converted to UPF format
     Using radial grid of  615 points,  1 beta functions with:
                l(1) =   0
     Q(r) pseudized with  8 coefficients,  rinner =    0.800

     atomic species   valence    mass     pseudopotential
        Ti1           12.00    47.86700     Ti( 1.00)
        O1             6.00    15.99900     O ( 1.00)
        N1             5.00    14.00700     N ( 1.00)
        C1             4.00    12.01100     C ( 1.00)
        H1             1.00     1.00800     H ( 1.00)

     No symmetry found

   Cartesian axes

     site n.     atom                  positions (alat units)
         1           Ti1 tau(   1) = (   0.0004258   2.9801865   6.0000000  )
         2           Ti1 tau(   2) = (   3.2906075   1.4906267   6.0002472  )
         3           O1  tau(   3) = (   0.0006271   0.0005054   7.9858123  )
         4           O1  tau(   4) = (   3.2906025   0.0005020   7.3038282  )
         5           O1  tau(   5) = (   4.5942328   1.4918067   9.2879030  )
         6           O1  tau(   6) = (   1.9868534   1.4903216   9.2879459  )
         7           Ti1 tau(   7) = (   3.2907910   2.8959150   9.1758416  )
         8           Ti1 tau(   8) = (   0.0015273   1.4827037   9.2680791  )
         9           O1  tau(   9) = (   3.3001320   0.0223556  11.3750156  )
        10           O1  tau(  10) = (   0.0116148   5.9584955  10.6183126  )
        11           O1  tau(  11) = (   1.2984793   1.5070296  12.6822906  )
        12           O1  tau(  12) = (   5.3053048   1.5066133  12.6782214  )
        13           Ti1 tau(  13) = (   0.0240538   2.9928608  12.5236668  )
        14           Ti1 tau(  14) = (   3.3205759   1.5163330  12.5292614  )
        15           O1  tau(  15) = (   0.0116174   5.9170763  14.6754219  )
        16           O1  tau(  16) = (   3.3074613   5.9602333  14.0123823  )
        17           O1  tau(  17) = (   4.5729729   1.5428591  16.1031931  )
        18           O1  tau(  18) = (   2.0357456   1.5455963  16.0959954  )
        19           Ti1 tau(  19) = (   3.3038618   3.0179751  15.7376193  )
        20           Ti1 tau(  20) = (   0.0182819   1.3639466  15.8252938  )
        21           O1  tau(  21) = (   3.2904802   0.0005063   4.7018136  )
        22           O1  tau(  22) = (   0.0233993   0.1148627  17.2261141  )
        23           O1  tau(  23) = (   1.3043587   1.4918075   6.0039043  )
        24           O1  tau(  24) = (   5.2767064   1.4903225   6.0039473  )
        25           Ti1 tau(  25) = (   0.0000382   5.9609847   6.0000000  )
        26           Ti1 tau(  26) = (   3.2902200   4.4714249   6.0002472  )
        27           O1  tau(  27) = (   0.0002396   2.9813036   7.9858123  )
        28           O1  tau(  28) = (   3.2902150   2.9813002   7.3038282  )
        29           O1  tau(  29) = (   4.5938453   4.4726049   9.2879030  )
        30           O1  tau(  30) = (   1.9864658   4.4711199   9.2879459  )
        31           Ti1 tau(  31) = (   3.2891106   5.8743827   9.1763621  )
        32           Ti1 tau(  32) = (   0.0006254   4.4649316   9.2693709  )
        33           O1  tau(  33) = (   3.3008157   2.9919736  11.3713264  )
        34           O1  tau(  34) = (   0.0092240   2.9805883  10.6323155  )
        35           O1  tau(  35) = (   1.3007438   4.4795902  12.6508594  )
        36           O1  tau(  36) = (   5.3032704   4.4808111  12.6474791  )
        37           Ti1 tau(  37) = (   0.0257871   0.0021926  12.5000826  )
        38           Ti1 tau(  38) = (   3.3207303   4.5031034  12.5344522  )
        39           O1  tau(  39) = (   0.0087802   3.0322157  14.9253570  )
        40           O1  tau(  40) = (   3.3068524   3.0154938  13.9499554  )
        41           O1  tau(  41) = (   4.5633958   4.4699756  16.2119971  )
        42           O1  tau(  42) = (   2.0378630   4.4655417  16.1963084  )
        43           Ti1 tau(  43) = (   3.3121544   0.0541299  15.8353365  )
        44           Ti1 tau(  44) = (   0.0163097   4.5868159  16.0488687  )
        45           O1  tau(  45) = (   3.2900926   2.9813045   4.7018136  )
        46           O1  tau(  46) = (   1.3039711   4.4726057   6.0039043  )
        47           O1  tau(  47) = (   5.2763189   4.4711207   6.0039473  )
        48           N1  tau(  48) = (   0.0062226   3.2377968  17.9635855  )
        49           C1  tau(  49) = (   6.5597590   2.5083335  18.8557918  )
        50           H1  tau(  50) = (   6.5336154   1.7992569  19.6484373  )
        51           O1  tau(  51) = (   3.2480284   5.9531242  18.4006015  )
        52           H1  tau(  52) = (   3.9795166   5.3132839  18.3896481  )
        53           H1  tau(  53) = (   2.4340588   5.4337150  18.3412978  )

     number of k points=    10  Fermi-Dirac smearing, width (Ry)=  0.0073
                       cart. coord. in units 2pi/alat
        k(    1) = (   0.0000000   0.0000000   0.0000000), wk =   0.1250000
        k(    2) = (   0.0000000   0.0419351   0.0000000), wk =   0.2500000
        k(    3) = (   0.0000000  -0.0838702   0.0000000), wk =   0.1250000
        k(    4) = (   0.0379955   0.0000049   0.0000000), wk =   0.2500000
        k(    5) = (   0.0379955   0.0419400   0.0000000), wk =   0.2500000
        k(    6) = (   0.0379955  -0.0838652   0.0000000), wk =   0.2500000
        k(    7) = (   0.0379955  -0.0419301   0.0000000), wk =   0.2500000
        k(    8) = (  -0.0759910  -0.0000099   0.0000000), wk =   0.1250000
        k(    9) = (  -0.0759910   0.0419252   0.0000000), wk =   0.2500000
        k(   10) = (  -0.0759910  -0.0838800   0.0000000), wk =   0.1250000

     Initial potential from superposition of free atoms

     starting charge  379.99917, renormalised to  396.00000

     negative rho (up, down):  1.670E-02 0.000E+00

     %%%%%%%%%%%%%%%%%%%%%%%%%%%%%%%%%%%%%%%%%%%%%%%%%%%%%%%%%%%%%%%%%%%%%%%%
     %                                                                      %
     % You are using vdW-DF, which was implemented by the Thonhauser group. %
     % Please cite the following two papers that made this development      %
     % possible and the two reviews that describe the various versions:     %
     %                                                                      %
     %   T. Thonhauser et al., PRL 115, 136402 (2015).                      %
     %   T. Thonhauser et al., PRB 76, 125112 (2007).                       %
     %   K. Berland et al., Rep. Prog. Phys. 78, 066501 (2015).             %
     %   D.C. Langreth et al., J. Phys.: Condens. Matter 21, 084203 (2009). %
     %                                                                      %
     %                                                                      %
     % If you are calculating the stress with vdW-DF, please also cite:     %
     %                                                                      %
     %   R. Sabatini et al., J. Phys.: Condens. Matter 24, 424209 (2012).   %
     %                                                                      %
     %%%%%%%%%%%%%%%%%%%%%%%%%%%%%%%%%%%%%%%%%%%%%%%%%%%%%%%%%%%%%%%%%%%%%%%%

     Adding external electric field

     Computed dipole along edir(3) :
        Dipole               -9.4938 Ry au,        -24.1308 Debye
        Dipole field         -0.0179 Ry au,

        Potential amp.        1.6608 Ry
        Total length         46.3494 bohr

     Starting wfcs are  299 atomic wfcs
  @ DRIVER MODE: Message from server: STATUS
  @ DRIVER MODE: Message from server: POSDATA
  @ DRIVER MODE: Reading and sharing cell
  @ DRIVER MODE: Reading and sharing positions
  @ DRIVER MODE: Received positions

     Self-consistent Calculation

     iteration #  1     ecut=    29.40 Ry     beta= 0.05
     Davidson diagonalization with overlap
     c_bands:  1 eigenvalues not converged
     c_bands:  1 eigenvalues not converged
     c_bands:  2 eigenvalues not converged
     c_bands:  3 eigenvalues not converged
     c_bands:  3 eigenvalues not converged
     c_bands:  2 eigenvalues not converged
     c_bands:  3 eigenvalues not converged
     c_bands:  1 eigenvalues not converged
     c_bands:  2 eigenvalues not converged
     c_bands:  2 eigenvalues not converged
     ethr =  1.00E-05,  avg # of iterations = 20.0

[...]

     total energy              =   -2563.39894668 Ry
     estimated scf accuracy    <    4341.73700155 Ry

     iteration #  2     ecut=    29.40 Ry     beta= 0.05
     Davidson diagonalization with overlap
     ethr =  1.00E-02,  avg # of iterations = 24.1

[...]

     iteration # 62     ecut=    29.40 Ry     beta= 0.05
     Davidson diagonalization with overlap
     c_bands:  1 eigenvalues not converged
     ethr =  4.24E-11,  avg # of iterations = 15.2

[...]

     total energy              =   -2951.44736311 Ry
     estimated scf accuracy    <       0.00000025 Ry

     iteration # 63     ecut=    29.40 Ry     beta= 0.05
     Davidson diagonalization with overlap
     ethr =  4.24E-11,  avg # of iterations = 10.7

     negative rho (up, down):  1.630E-02 0.000E+00

     Adding external electric field

     Computed dipole along edir(3) :
        Dipole                1.4828 Ry au,          3.7690 Debye
        Dipole field          0.0028 Ry au,

        Potential amp.       -0.2594 Ry
        Total length         46.3494 bohr

     End of self-consistent calculation

          k = 0.0000 0.0000 0.0000 ( 18029 PWs)   bands (ev):

   -55.3156 -55.2797 -55.2787 -55.2446 -55.2263 -55.1936 -55.1564 -55.1378
   -55.1184 -55.1072 -55.1031 -55.0928 -55.0736 -55.0071 -54.3033 -54.2693
   -31.8753 -31.7703 -31.7108 -31.6825 -31.6345 -31.6266 -31.6120 -31.6113
   -31.5678 -31.5331 -31.5264 -31.5232 -31.5006 -31.4873 -31.4635 -31.4605
   -31.4562 -31.4539 -31.4367 -31.4307 -31.4022 -31.3918 -31.3860 -31.3735
   -31.3672 -31.3385 -31.3377 -31.3359 -31.3245 -31.3230 -31.3219 -31.3044
   -31.2963 -31.2902 -31.2861 -31.2628 -31.2514 -31.2404 -31.2353 -31.2173
   -31.2163 -31.1246 -30.7125 -30.6188 -30.5967 -30.5289 -30.4421 -30.3312
   -18.9414 -17.3398 -16.1213 -15.8666 -15.7136 -15.6129 -15.5142 -15.3726
   -15.3184 -15.2087 -15.1431 -15.0024 -14.9654 -14.9474 -14.9294 -14.9273
   -14.8824 -14.8553 -14.8491 -14.8157 -14.8133 -14.7871 -14.7511 -14.7421
   -14.7117 -14.6960 -14.6491 -14.5410 -14.4719 -14.4088 -14.1129 -12.8059
   -12.6885  -8.9832  -6.6976  -4.6238  -3.4662  -3.4311  -3.3267  -3.2211
    -3.2137  -3.1874  -3.1696  -3.0603  -3.0158  -2.7700  -2.7185  -2.6603
    -2.5709  -2.4985  -2.4863  -2.4476  -2.3195  -2.2769  -2.2366  -2.1678
    -2.1506  -2.1240  -2.1002  -2.0909  -2.0312  -2.0248  -2.0008  -1.8842
    -1.8437  -1.7761  -1.7260  -1.7091  -1.6562  -1.6350  -1.6042  -1.6034
    -1.5985  -1.5535  -1.5519  -1.4979  -1.4858  -1.3804  -1.3392  -1.1507
    -1.0564  -0.9988  -0.9541  -0.8871  -0.8727  -0.7992  -0.7593  -0.7043
    -0.7020  -0.6449  -0.5247  -0.4341  -0.4133  -0.3837  -0.2980  -0.2617
    -0.2001  -0.1836  -0.0958  -0.0827  -0.0763  -0.0688   0.0603   0.1093
     0.1902   0.1960   0.2453   0.2656   0.3435   0.3584   0.4289   0.4670
     0.5228   0.5669   0.6231   0.6313   0.6565   0.6767   0.6933   0.7833
     0.7966   0.8240   0.8983   1.0349   1.2250   1.2959   1.3180   1.6269
     1.6479   1.7194   1.9042   2.2951   2.3432   3.7783   3.8572   3.9196
     3.9290   3.9412   4.0143   4.2608   4.2780   4.2789   4.2942   4.3213

[...]

          k = 0.0380-0.0419 0.0000 ( 17876 PWs)   bands (ev):

[...]

          k =-0.0760-0.0000 0.0000 ( 17886 PWs)   bands (ev):

[...]

          k =-0.0760-0.0839 0.0000 ( 17948 PWs)   bands (ev):

   -55.2991 -55.2959 -55.2616 -55.2615 -55.2240 -55.1822 -55.1677 -55.1226
   -55.1178 -55.1154 -55.0950 -55.0909 -55.0902 -55.0100 -54.2864 -54.2861
   -31.6841 -31.6761 -31.6332 -31.5855 -31.5854 -31.5711 -31.5628 -31.5532
   -31.5531 -31.5264 -31.5158 -31.5133 -31.5037 -31.4716 -31.4551 -31.4507
   -31.4466 -31.4440 -31.4422 -31.4360 -31.4311 -31.3981 -31.3955 -31.3951
   -31.3812 -31.3812 -31.3785 -31.3746 -31.3620 -31.3551 -31.3486 -31.3431
   -31.3359 -31.3313 -31.3199 -31.3182 -31.3120 -31.2787 -31.2707 -31.2702
   -31.2240 -31.2158 -30.6094 -30.6092 -30.5251 -30.5249 -30.4856 -30.4854
   -18.9405 -17.3349 -15.6575 -15.5526 -15.4428 -15.3230 -15.3149 -15.2582
   -15.2106 -15.1302 -15.0887 -15.0765 -15.0558 -15.0417 -15.0108 -15.0066
   -14.9864 -14.9121 -14.9013 -14.8910 -14.8678 -14.8265 -14.8158 -14.8131
   -14.7958 -14.7704 -14.7663 -14.6715 -14.6685 -14.5735 -14.4491 -12.7900
   -12.7900  -8.9811  -6.6908  -4.6107  -3.3328  -3.2520  -2.9165  -2.8193
    -2.7752  -2.6843  -2.5342  -2.5046  -2.4338  -2.4276  -2.3607  -2.3085
    -2.2942  -2.2750  -2.1919  -2.1752  -2.1646  -2.1524  -2.1394  -2.1111
    -2.0880  -2.0407  -2.0375  -2.0355  -2.0269  -2.0059  -1.9703  -1.9507
    -1.9113  -1.9023  -1.8811  -1.8336  -1.7918  -1.7755  -1.7572  -1.6517
    -1.6253  -1.5189  -1.5142  -1.4142  -1.4096  -1.3834  -1.3573  -1.3476
    -1.2794  -1.2125  -1.0605  -1.0510  -1.0184  -0.9413  -0.9286  -0.8714
    -0.8646  -0.7797  -0.7631  -0.7343  -0.6391  -0.6091  -0.5057  -0.4919
    -0.4837  -0.3472  -0.3428  -0.2865  -0.2748  -0.2719  -0.2036  -0.1977
    -0.1916  -0.1106  -0.0761  -0.0491  -0.0380   0.0156   0.2039   0.2309
     0.2610   0.3838   0.4313   0.5719   0.6652   0.6702   0.7409   0.8034
     0.8220   0.8824   0.9795   0.9929   1.0489   1.0796   1.1280   1.1429
     1.1531   2.0765   2.0776   2.1631   2.1632   3.8943   3.9936   4.0610
     4.1116   4.1249   4.2144   4.2994   4.3281   4.3605   4.3625   4.4390

     the Fermi energy is     3.8360 ev

!    total energy              =   -2951.44739323 Ry
     estimated scf accuracy    <       0.00000006 Ry
     smearing contrib. (-TS)   =      -0.03730646 Ry
     internal energy E=F+TS    =   -2951.41008677 Ry

     The total energy is F=E-TS. E is the sum of the following terms:
     one-electron contribution =  -24061.07084442 Ry
     hartree contribution      =   12123.59768389 Ry
     xc contribution           =    -487.23325604 Ry
     ewald contribution        =    9473.29218031 Ry
     electric field correction =       0.00414950 Ry

     convergence has been achieved in  63 iterations

     Forces acting on atoms (cartesian axes, Ry/au):

     atom    1 type  1   force =    -0.00004040   -0.00025775    0.09359550
     atom    2 type  1   force =    -0.00016275   -0.00044695   -0.17784628
     atom    3 type  2   force =     0.00002520   -0.00025988   -0.02077244
     atom    4 type  2   force =    -0.00003110   -0.00179969    0.05843439
     atom    5 type  2   force =    -0.01031166   -0.00058570    0.00698294
     atom    6 type  2   force =     0.01197615    0.00004959    0.00669532
     atom    7 type  1   force =    -0.00013642    0.00223157   -0.01161712
     atom    8 type  1   force =    -0.00007063    0.00225423   -0.00162774
     atom    9 type  2   force =     0.00007354    0.00060664    0.00060080
     atom   10 type  2   force =    -0.00107432    0.00321480   -0.00394373
     atom   11 type  2   force =     0.00036049   -0.00031417   -0.00030644
     atom   12 type  2   force =    -0.00039640   -0.00031857   -0.00018061
     atom   13 type  1   force =     0.00000457    0.00014751    0.00024571
     atom   14 type  1   force =     0.00000581   -0.00047087    0.00041465
     atom   15 type  2   force =    -0.00025174   -0.00067205    0.00064968
     atom   16 type  2   force =    -0.00001957    0.00044809    0.00023975
     atom   17 type  2   force =     0.00004908   -0.00025860   -0.00027856
     atom   18 type  2   force =     0.00017658   -0.00032930   -0.00044531
     atom   19 type  1   force =    -0.00043822   -0.00115024   -0.00012991
     atom   20 type  1   force =     0.00009454    0.00005826   -0.00085672
     atom   21 type  2   force =    -0.00001672   -0.00011742    0.10391196
     atom   22 type  2   force =     0.00003546    0.00054018   -0.00039714
     atom   23 type  2   force =    -0.07054740   -0.00022146   -0.02694672
     atom   24 type  2   force =     0.07034201    0.00021320   -0.02699974
     atom   25 type  1   force =    -0.00001401   -0.00027476    0.09313739
     atom   26 type  1   force =    -0.00018822   -0.00052317   -0.17811297
     atom   27 type  2   force =     0.00007074   -0.00020868   -0.01970858
     atom   28 type  2   force =     0.00001835   -0.00155656    0.05764166
     atom   29 type  2   force =    -0.01084800   -0.00007736    0.00742053
     atom   30 type  2   force =     0.01237433    0.00026128    0.00710074
     atom   31 type  1   force =    -0.00009291    0.00574200   -0.01415589
     atom   32 type  1   force =    -0.00008645   -0.00266001   -0.00141327
     atom   33 type  2   force =     0.00010877   -0.00051605    0.00032449
     atom   34 type  2   force =    -0.00048397   -0.00029197   -0.00099403
     atom   35 type  2   force =    -0.00034004   -0.00017397   -0.00032516
     atom   36 type  2   force =     0.00034039   -0.00029696   -0.00011732
     atom   37 type  1   force =     0.00011061   -0.00043701    0.00057252
     atom   38 type  1   force =    -0.00002368   -0.00060338   -0.00028380
     atom   39 type  2   force =     0.00001360    0.00014727    0.00018812
     atom   40 type  2   force =    -0.00007700   -0.00014636   -0.00004280
     atom   41 type  2   force =     0.00004866    0.00017228    0.00039667
     atom   42 type  2   force =     0.00021351    0.00028140    0.00032564
     atom   43 type  1   force =    -0.00038795    0.00056903   -0.00052948
     atom   44 type  1   force =     0.00037939    0.00033396   -0.00041051
     atom   45 type  2   force =    -0.00002262   -0.00015015    0.10387114
     atom   46 type  2   force =    -0.07053285   -0.00015309   -0.02693701
     atom   47 type  2   force =     0.07033580    0.00027932   -0.02699597
     atom   48 type  3   force =    -0.00004255   -0.00105831    0.00085859
     atom   49 type  4   force =    -0.00010040    0.00036797   -0.00034814
     atom   50 type  5   force =    -0.00008176   -0.00121595   -0.00017587
     atom   51 type  2   force =     0.00922369    0.00729311    0.00001435
     atom   52 type  5   force =    -0.00118698   -0.00103215   -0.00029521
     atom   53 type  5   force =    -0.00837457   -0.00663316   -0.00042806

     Total force =     0.366200     Total SCF correction =     0.000583
  @ DRIVER MODE: Message from server: STATUS
  @ DRIVER MODE: Message from server: GETFORCE
  @ DRIVER MODE: Returning v,forces,stress,ensemble

     Writing output data file ./calc.save/
  @ DRIVER MODE: Message from server: EXIT
  @ DRIVE MODE: Exiting

     General routines

     Parallel routines

   This run was terminated on:   2:52:19  16Sep2021

   JOB DONE.