     Program PWSCF v.6.7GPU starts on  9Sep2021 at  2:46:48

     R & G space division:  proc/nbgrp/npool/nimage =      10
     Reading input from /storage/home/hcoda1/3/ntian30/research/carbon/CxH_vib/CH_calc/ads_slab/CHN_a/out_0017/pw.inp
Warning: card &CELL ignored
Warning: card   CELL_DYNAMICS='IPI', ignored
Warning: card / ignored

     Current dimensions of program PWSCF are:
     Max number of different atomic species (ntypx) = 10
     Max number of k-points (npk) =  40000
     Max angular momentum in pseudopotentials (lmaxx) =  3
     Presently no symmetry can be used with electric field

     Message from routine cell_base_init:
     DEPRECATED: use true lattice parameter, not A to a.u. conversion factor

     IMPORTANT: XC functional enforced from input :
     Exchange-correlation= BEEF-VDW
                           (   1   4  43  14   2   0   0)
     Any further DFT definition will be discarded
     Please, verify this is what you really want

  @ DRIVER MODE: Connecting to
 qe_1139763_2767383.sched-torque.pace.gatech.edudt8hwr2y_scratch
  using UNIX socket
  @ DRIVER MODE: Message from server: STATUS
  @ DRIVER MODE: Message from server: INIT
  @ DRIVER MODE: Receiving replica           0          -1
  @ DRIVER MODE: Receiving encoded integer          25
  @ DRIVER MODE:  SCF:  T  FORCE:  T  STRESS:  F  VC:  F  ENSEMBLE:  F
  @ DRIVER MODE:  SCF:  T  FORCE:  T  STRESS:  F  VC:  F  ENSEMBLE:  F

     Using Slab Decomposition

     bravais-lattice index     =            0
     lattice parameter (alat)  =       1.8897  a.u.
     unit-cell volume          =    6658.9804 (a.u.)^3
     number of atoms/cell      =           50
     number of atomic types    =            5
     number of electrons       =       388.00
     number of Kohn-Sham states=          204
     kinetic-energy cutoff     =      29.3995  Ry
     charge density cutoff     =     293.9946  Ry
     scf convergence threshold =      7.3E-08
     mixing beta               =       0.0500
     number of iterations used =            8  plain     mixing
     Exchange-correlation= BEEF-VDW
                           (   1   4  43  14   2   0   0)

     celldm(1)=   1.889726  celldm(2)=   0.000000  celldm(3)=   0.000000
     celldm(4)=   0.000000  celldm(5)=   0.000000  celldm(6)=   0.000000

     crystal axes: (cart. coord. in units of alat)
               a(1) = (   6.579727   0.000000   0.000000 )
               a(2) = (  -0.000775   5.961596   0.000000 )
               a(3) = (   0.000000   0.000000  25.155947 )

     reciprocal axes: (cart. coord. in units 2 pi/alat)
               b(1) = (  0.151982  0.000020  0.000000 )
               b(2) = (  0.000000  0.167740  0.000000 )
               b(3) = (  0.000000  0.000000  0.039752 )

     PseudoPot. # 1 for Ti read from file:
     /storage/coda1/p-amedford6/0/shared/rich_project_chbe-medford/medford-share/data/pseudos_module/espresso/nninc/pbe/van/Ti.UPF
     MD5 check sum: 8e4df49b7f0d34bbd5052bf3f5ea0213
     Pseudo is Ultrasoft, Zval = 12.0
     Generated by new atomic code, or converted to UPF format
     Using radial grid of  851 points,  6 beta functions with:
                l(1) =   0
                l(2) =   0
                l(3) =   1
                l(4) =   1
                l(5) =   2
                l(6) =   2
     Q(r) pseudized with  8 coefficients,  rinner =    1.000   1.000   1.000
                                                       1.000   1.000

     PseudoPot. # 2 for O  read from file:
     /storage/coda1/p-amedford6/0/shared/rich_project_chbe-medford/medford-share/data/pseudos_module/espresso/nninc/pbe/van/O.UPF
     MD5 check sum: 78c19812648e8988a0fe644b0f25305e
     Pseudo is Ultrasoft, Zval =  6.0
     Generated by new atomic code, or converted to UPF format
     Using radial grid of  737 points,  4 beta functions with:
                l(1) =   0
                l(2) =   0
                l(3) =   1
                l(4) =   1
     Q(r) pseudized with  8 coefficients,  rinner =    0.800   0.800   0.800

     PseudoPot. # 3 for N  read from file:
     /storage/coda1/p-amedford6/0/shared/rich_project_chbe-medford/medford-share/data/pseudos_module/espresso/nninc/pbe/van/N.UPF
     MD5 check sum: 90d10febe142ad51ac9d5be1deb811c4
     Pseudo is Ultrasoft, Zval =  5.0
     Generated by new atomic code, or converted to UPF format
     Using radial grid of  729 points,  4 beta functions with:
                l(1) =   0
                l(2) =   0
                l(3) =   1
                l(4) =   1
     Q(r) pseudized with  8 coefficients,  rinner =    0.800   0.800   0.800

     PseudoPot. # 4 for C  read from file:
     /storage/coda1/p-amedford6/0/shared/rich_project_chbe-medford/medford-share/data/pseudos_module/espresso/nninc/pbe/van/C.UPF
     MD5 check sum: 1a69bf6b8db32088f5b2163dbdb77a27
     Pseudo is Ultrasoft, Zval =  4.0
     Generated by new atomic code, or converted to UPF format
     Using radial grid of  721 points,  4 beta functions with:
                l(1) =   0
                l(2) =   0
                l(3) =   1
                l(4) =   1
     Q(r) pseudized with  8 coefficients,  rinner =    0.800   0.800   0.800

     PseudoPot. # 5 for H  read from file:
     /storage/coda1/p-amedford6/0/shared/rich_project_chbe-medford/medford-share/data/pseudos_module/espresso/nninc/pbe/van/H.UPF
     MD5 check sum: b5ee9d7bfd3a09ee7748110bda690ff7
     Pseudo is Ultrasoft, Zval =  1.0
     Generated by new atomic code, or converted to UPF format
     Using radial grid of  615 points,  1 beta functions with:
                l(1) =   0
     Q(r) pseudized with  8 coefficients,  rinner =    0.800

     atomic species   valence    mass     pseudopotential
        Ti1           12.00    47.86700     Ti( 1.00)
        O1             6.00    15.99900     O ( 1.00)
        N1             5.00    14.00700     N ( 1.00)
        C1             4.00    12.01100     C ( 1.00)
        H1             1.00     1.00800     H ( 1.00)

     No symmetry found

   Cartesian axes

     site n.     atom                  positions (alat units)
         1           Ti1 tau(   1) = (   0.0004258   2.9801865   6.0000000  )
         2           Ti1 tau(   2) = (   3.2906075   1.4906267   6.0002472  )
         3           O1  tau(   3) = (   0.0006271   0.0005054   7.9858123  )
         4           O1  tau(   4) = (   3.2906025   0.0005020   7.3038282  )
         5           O1  tau(   5) = (   4.5942328   1.4918067   9.2879030  )
         6           O1  tau(   6) = (   1.9868534   1.4903216   9.2879459  )
         7           Ti1 tau(   7) = (   3.2907910   2.8959150   9.1758416  )
         8           Ti1 tau(   8) = (   0.0015273   1.4827037   9.2680791  )
         9           O1  tau(   9) = (   3.3014052   0.0114069  11.3737528  )
        10           O1  tau(  10) = (   0.0116148   5.9584955  10.6183126  )
        11           O1  tau(  11) = (   1.3012034   1.4994444  12.6801950  )
        12           O1  tau(  12) = (   5.3042999   1.4981222  12.6788946  )
        13           Ti1 tau(  13) = (   0.0222102   2.9879630  12.5217794  )
        14           Ti1 tau(  14) = (   3.3166014   1.4969944  12.5290657  )
        15           O1  tau(  15) = (   0.0131148   5.9114811  14.6787674  )
        16           O1  tau(  16) = (   3.3052116   5.9585997  13.9918696  )
        17           O1  tau(  17) = (   4.5573354   1.5165695  16.1403462  )
        18           O1  tau(  18) = (   2.0429717   1.5180214  16.1331141  )
        19           Ti1 tau(  19) = (   3.3061463   3.0045039  15.7576854  )
        20           Ti1 tau(  20) = (   0.0190008   1.3629876  15.8180984  )
        21           O1  tau(  21) = (   3.2904802   0.0005063   4.7018136  )
        22           O1  tau(  22) = (   0.0120025   0.1123878  17.2186474  )
        23           O1  tau(  23) = (   1.3043587   1.4918075   6.0039043  )
        24           O1  tau(  24) = (   5.2767064   1.4903225   6.0039473  )
        25           Ti1 tau(  25) = (   0.0000382   5.9609847   6.0000000  )
        26           Ti1 tau(  26) = (   3.2902200   4.4714249   6.0002472  )
        27           O1  tau(  27) = (   0.0002396   2.9813036   7.9858123  )
        28           O1  tau(  28) = (   3.2902150   2.9813002   7.3038282  )
        29           O1  tau(  29) = (   4.5938453   4.4726049   9.2879030  )
        30           O1  tau(  30) = (   1.9864658   4.4711199   9.2879459  )
        31           Ti1 tau(  31) = (   3.2891106   5.8743827   9.1763621  )
        32           Ti1 tau(  32) = (   0.0006254   4.4649316   9.2693709  )
        33           O1  tau(  33) = (   3.3015003   2.9799855  11.3692792  )
        34           O1  tau(  34) = (   0.0092240   2.9805883  10.6323155  )
        35           O1  tau(  35) = (   1.3024855   4.4701597  12.6493271  )
        36           O1  tau(  36) = (   5.3029933   4.4710749  12.6473438  )
        37           Ti1 tau(  37) = (   0.0213219   5.9581237  12.5009821  )
        38           Ti1 tau(  38) = (   3.3165689   4.4756321  12.5216884  )
        39           O1  tau(  39) = (   0.0062450   3.0260372  14.9395602  )
        40           O1  tau(  40) = (   3.3068494   3.0035608  13.9656762  )
        41           O1  tau(  41) = (   4.5532872   4.4785133  16.2063021  )
        42           O1  tau(  42) = (   2.0453360   4.4758230  16.1992630  )
        43           Ti1 tau(  43) = (   3.3068391   0.0190840  15.7907057  )
        44           Ti1 tau(  44) = (   0.0173475   4.5946531  16.0781683  )
        45           O1  tau(  45) = (   3.2900926   2.9813045   4.7018136  )
        46           O1  tau(  46) = (   1.3039711   4.4726057   6.0039043  )
        47           O1  tau(  47) = (   5.2763189   4.4711207   6.0039473  )
        48           N1  tau(  48) = (   0.0050225   3.2246995  17.9653954  )
        49           C1  tau(  49) = (   6.5749124   2.4458835  18.8135322  )
        50           H1  tau(  50) = (   6.5624368   1.6931146  19.5545906  )

     number of k points=    10  Fermi-Dirac smearing, width (Ry)=  0.0073
                       cart. coord. in units 2pi/alat
        k(    1) = (   0.0000000   0.0000000   0.0000000), wk =   0.1250000
        k(    2) = (   0.0000000   0.0419351   0.0000000), wk =   0.2500000
        k(    3) = (   0.0000000  -0.0838702   0.0000000), wk =   0.1250000
        k(    4) = (   0.0379955   0.0000049   0.0000000), wk =   0.2500000
        k(    5) = (   0.0379955   0.0419400   0.0000000), wk =   0.2500000
        k(    6) = (   0.0379955  -0.0838652   0.0000000), wk =   0.2500000
        k(    7) = (   0.0379955  -0.0419301   0.0000000), wk =   0.2500000
        k(    8) = (  -0.0759910  -0.0000099   0.0000000), wk =   0.1250000
        k(    9) = (  -0.0759910   0.0419252   0.0000000), wk =   0.2500000
        k(   10) = (  -0.0759910  -0.0838800   0.0000000), wk =   0.1250000

     Initial potential from superposition of free atoms

     starting charge  371.99919, renormalised to  388.00000

     negative rho (up, down):  1.811E-02 0.000E+00

     %%%%%%%%%%%%%%%%%%%%%%%%%%%%%%%%%%%%%%%%%%%%%%%%%%%%%%%%%%%%%%%%%%%%%%%%
     %                                                                      %
     % You are using vdW-DF, which was implemented by the Thonhauser group. %
     % Please cite the following two papers that made this development      %
     % possible and the two reviews that describe the various versions:     %
     %                                                                      %
     %   T. Thonhauser et al., PRL 115, 136402 (2015).                      %
     %   T. Thonhauser et al., PRB 76, 125112 (2007).                       %
     %   K. Berland et al., Rep. Prog. Phys. 78, 066501 (2015).             %
     %   D.C. Langreth et al., J. Phys.: Condens. Matter 21, 084203 (2009). %
     %                                                                      %
     %                                                                      %
     % If you are calculating the stress with vdW-DF, please also cite:     %
     %                                                                      %
     %   R. Sabatini et al., J. Phys.: Condens. Matter 24, 424209 (2012).   %
     %                                                                      %
     %%%%%%%%%%%%%%%%%%%%%%%%%%%%%%%%%%%%%%%%%%%%%%%%%%%%%%%%%%%%%%%%%%%%%%%%

     Adding external electric field

     Computed dipole along edir(3) :
        Dipole               -4.8577 Ry au,        -12.3470 Debye
        Dipole field         -0.0092 Ry au,

        Potential amp.        0.8498 Ry
        Total length         46.3494 bohr

     Starting wfcs are  293 atomic wfcs
  @ DRIVER MODE: Message from server: STATUS
  @ DRIVER MODE: Message from server: POSDATA
  @ DRIVER MODE: Reading and sharing cell
  @ DRIVER MODE: Reading and sharing positions
  @ DRIVER MODE: Received positions

     Self-consistent Calculation

     iteration #  1     ecut=    29.40 Ry     beta= 0.05
     Davidson diagonalization with overlap
     c_bands:  5 eigenvalues not converged
     c_bands:  5 eigenvalues not converged
     c_bands:  5 eigenvalues not converged
     c_bands:  5 eigenvalues not converged
     c_bands:  3 eigenvalues not converged
     c_bands:  5 eigenvalues not converged
     c_bands:  4 eigenvalues not converged
     c_bands:  3 eigenvalues not converged
     c_bands:  1 eigenvalues not converged
     ethr =  1.00E-05,  avg # of iterations = 20.0

[...]

     total energy              =   -2846.20526099 Ry
     estimated scf accuracy    <     789.29060785 Ry

     iteration #  2     ecut=    29.40 Ry     beta= 0.05
     Davidson diagonalization with overlap
     ethr =  1.00E-02,  avg # of iterations = 15.3

[...]

     iteration # 70     ecut=    29.40 Ry     beta= 0.05
     Davidson diagonalization with overlap
     c_bands:  1 eigenvalues not converged
     ethr =  2.06E-11,  avg # of iterations =  8.4

[...]

     total energy              =   -2916.61474623 Ry
     estimated scf accuracy    <       0.00000010 Ry

     iteration # 71     ecut=    29.40 Ry     beta= 0.05
     Davidson diagonalization with overlap
     ethr =  2.06E-11,  avg # of iterations =  5.2

     negative rho (up, down):  1.833E-02 0.000E+00

     Adding external electric field

     Computed dipole along edir(3) :
        Dipole                1.5115 Ry au,          3.8418 Debye
        Dipole field          0.0029 Ry au,

        Potential amp.       -0.2644 Ry
        Total length         46.3494 bohr

     End of self-consistent calculation

          k = 0.0000 0.0000 0.0000 ( 18029 PWs)   bands (ev):

   -55.4491 -55.4131 -55.4055 -55.3714 -55.3279 -55.3239 -55.2880 -55.2677
   -55.2583 -55.2458 -55.2351 -55.2333 -55.2015 -55.1410 -54.4315 -54.3975
   -32.0156 -31.8975 -31.8501 -31.8126 -31.7584 -31.7570 -31.7519 -31.7397
   -31.6948 -31.6807 -31.6579 -31.6503 -31.6444 -31.6194 -31.6028 -31.5901
   -31.5859 -31.5715 -31.5659 -31.5578 -31.5377 -31.5286 -31.5189 -31.5034
   -31.4980 -31.4773 -31.4699 -31.4627 -31.4549 -31.4515 -31.4475 -31.4330
   -31.4271 -31.4189 -31.4161 -31.4154 -31.3815 -31.3665 -31.3634 -31.3479
   -31.3457 -31.2620 -30.8408 -30.7470 -30.7249 -30.6572 -30.5705 -30.4595
   -17.4155 -16.2659 -15.9973 -15.8447 -15.7398 -15.6440 -15.5094 -15.4909
   -15.3658 -15.2752 -15.1535 -15.0999 -15.0810 -15.0625 -15.0542 -15.0379
   -14.9905 -14.9859 -14.9551 -14.9434 -14.9207 -14.8832 -14.8778 -14.8443
   -14.8253 -14.7547 -14.6803 -14.6040 -14.5378 -14.2338 -12.9344 -12.8170
    -9.1039  -4.6890  -3.6084  -3.5052  -3.4613  -3.3613  -3.3437  -3.2696
    -3.2506  -3.1926  -3.0291  -2.8503  -2.7879  -2.7141  -2.6498  -2.6377
    -2.6086  -2.4495  -2.4115  -2.3622  -2.3078  -2.2832  -2.2557  -2.2327
    -2.1981  -2.1801  -2.1758  -2.1685  -2.0123  -1.9417  -1.9082  -1.8576
    -1.8406  -1.7891  -1.7669  -1.7344  -1.7308  -1.7247  -1.6733  -1.6578
    -1.6221  -1.5246  -1.4685  -1.3336  -1.2917  -1.1500  -1.0861  -1.0232
    -1.0110  -0.9321  -0.8942  -0.8864  -0.8300  -0.8003  -0.7853  -0.6620
    -0.5607  -0.5140  -0.4576  -0.4274  -0.3806  -0.3443  -0.2547  -0.2288
    -0.2124  -0.2020  -0.0588  -0.0320   0.0502   0.0756   0.1081   0.1091
     0.2161   0.2301   0.3046   0.3520   0.3828   0.4433   0.4937   0.4967
     0.5185   0.5425   0.5512   0.6444   0.6641   0.6758   0.7477   0.8926
     1.1244   1.1653   1.1773   1.4976   1.5099   1.5909   1.7752   2.1667
     2.2148   3.6490   3.7210   3.7908   3.7996   3.8378   3.8859   4.1186
     4.1301   4.1500   4.1564   4.1909

[...]

          k = 0.0380-0.0419 0.0000 ( 17876 PWs)   bands (ev):

[...]

          k =-0.0760-0.0000 0.0000 ( 17886 PWs)   bands (ev):

[...]

          k =-0.0760-0.0839 0.0000 ( 17948 PWs)   bands (ev):

   -55.4326 -55.4293 -55.3886 -55.3882 -55.3240 -55.3112 -55.3007 -55.2555
   -55.2515 -55.2495 -55.2489 -55.2188 -55.2180 -55.1436 -54.4146 -54.4143
   -31.8206 -31.8180 -31.7740 -31.7242 -31.7128 -31.7124 -31.7005 -31.6802
   -31.6799 -31.6568 -31.6475 -31.6446 -31.6350 -31.5925 -31.5847 -31.5813
   -31.5792 -31.5752 -31.5739 -31.5675 -31.5369 -31.5339 -31.5259 -31.5248
   -31.5161 -31.5082 -31.5079 -31.5067 -31.4936 -31.4843 -31.4827 -31.4817
   -31.4650 -31.4621 -31.4483 -31.4473 -31.4466 -31.4383 -31.3991 -31.3984
   -31.3527 -31.3513 -30.7377 -30.7374 -30.6534 -30.6532 -30.6139 -30.6138
   -17.4100 -15.7804 -15.6702 -15.6376 -15.4560 -15.4455 -15.4092 -15.3974
   -15.2541 -15.2102 -15.2042 -15.1930 -15.1463 -15.1421 -15.1417 -15.1161
   -15.0455 -15.0393 -15.0346 -15.0184 -14.9621 -14.9508 -14.9478 -14.9309
   -14.8995 -14.8955 -14.8014 -14.7982 -14.6901 -14.5898 -12.9185 -12.9185
    -9.1015  -4.6767  -3.4152  -3.2647  -2.9401  -2.9049  -2.8994  -2.6664
    -2.6389  -2.6070  -2.5628  -2.4913  -2.4434  -2.4200  -2.4188  -2.3503
    -2.3021  -2.2949  -2.2864  -2.2689  -2.2617  -2.2409  -2.2069  -2.1738
    -2.1641  -2.1356  -2.1200  -2.1008  -2.0821  -2.0467  -2.0332  -2.0084
    -2.0048  -1.9023  -1.8768  -1.7947  -1.7543  -1.7223  -1.6513  -1.6457
    -1.5431  -1.5393  -1.4864  -1.4749  -1.4342  -1.3287  -1.2434  -1.1928
    -1.1878  -1.1785  -1.0744  -1.0100  -0.9820  -0.9473  -0.9223  -0.8406
    -0.7838  -0.7634  -0.7218  -0.6385  -0.6336  -0.5703  -0.4682  -0.4265
    -0.4104  -0.4048  -0.3836  -0.3314  -0.3201  -0.2582  -0.2148  -0.1798
    -0.1690  -0.1239   0.0871   0.0897   0.1372   0.2493   0.2903   0.4382
     0.5157   0.5339   0.6094   0.6451   0.6692   0.7361   0.8441   0.8618
     0.8754   0.9460   0.9854   1.0094   1.0189   1.9480   1.9485   2.0348
     2.0349   3.7707   3.8842   3.9173   3.9662   4.0099   4.0649   4.1690
     4.1899   4.2324   4.2343   4.3041

     the Fermi energy is     3.7085 ev

!    total energy              =   -2916.61475797 Ry
     estimated scf accuracy    <       0.00000006 Ry
     smearing contrib. (-TS)   =      -0.03748407 Ry
     internal energy E=F+TS    =   -2916.57727390 Ry

     The total energy is F=E-TS. E is the sum of the following terms:
     one-electron contribution =  -24445.08779075 Ry
     hartree contribution      =   12309.98164582 Ry
     xc contribution           =    -478.37705655 Ry
     ewald contribution        =    9696.90161625 Ry
     electric field correction =       0.00431133 Ry

     convergence has been achieved in  71 iterations

     Forces acting on atoms (cartesian axes, Ry/au):

     atom    1 type  1   force =     0.00000683   -0.00028688    0.09341058
     atom    2 type  1   force =    -0.00017948   -0.00046948   -0.17791853
     atom    3 type  2   force =     0.00002216   -0.00033563   -0.02063905
     atom    4 type  2   force =    -0.00003603   -0.00186651    0.05838545
     atom    5 type  2   force =    -0.01034683   -0.00073815    0.00710660
     atom    6 type  2   force =     0.01200910   -0.00013917    0.00687893
     atom    7 type  1   force =    -0.00010870    0.00193818   -0.01366841
     atom    8 type  1   force =    -0.00009493    0.00173939   -0.00207963
     atom    9 type  2   force =    -0.00004768   -0.00044382   -0.00035390
     atom   10 type  2   force =    -0.00120244    0.00259997   -0.00297865
     atom   11 type  2   force =    -0.00067247   -0.00012798    0.00012845
     atom   12 type  2   force =     0.00051342   -0.00008728   -0.00006489
     atom   13 type  1   force =    -0.00006934   -0.00001895    0.00010578
     atom   14 type  1   force =    -0.00001938   -0.00004636    0.00027024
     atom   15 type  2   force =    -0.00010824    0.00017528    0.00002083
     atom   16 type  2   force =    -0.00002912   -0.00010768   -0.00019099
     atom   17 type  2   force =     0.00062163    0.00003921   -0.00013795
     atom   18 type  2   force =    -0.00017079    0.00002165    0.00023838
     atom   19 type  1   force =    -0.00027060    0.00035545    0.00027425
     atom   20 type  1   force =    -0.00014026    0.00033531    0.00031451
     atom   21 type  2   force =    -0.00002343   -0.00012299    0.10388373
     atom   22 type  2   force =    -0.00007371    0.00029097    0.00026450
     atom   23 type  2   force =    -0.07052389   -0.00021733   -0.02694344
     atom   24 type  2   force =     0.07030793    0.00022171   -0.02699280
     atom   25 type  1   force =     0.00001162   -0.00034133    0.09298937
     atom   26 type  1   force =    -0.00019336   -0.00052673   -0.17813542
     atom   27 type  2   force =     0.00006019   -0.00024207   -0.01963097
     atom   28 type  2   force =     0.00001273   -0.00163821    0.05786105
     atom   29 type  2   force =    -0.01085763   -0.00057582    0.00760189
     atom   30 type  2   force =     0.01238407   -0.00022847    0.00734539
     atom   31 type  1   force =    -0.00004027    0.00592535   -0.01475111
     atom   32 type  1   force =    -0.00011880   -0.00211051   -0.00202100
     atom   33 type  2   force =     0.00002006   -0.00006209   -0.00031823
     atom   34 type  2   force =    -0.00064788   -0.00101203   -0.00063049
     atom   35 type  2   force =    -0.00012677   -0.00007080    0.00012519
     atom   36 type  2   force =    -0.00006515   -0.00001061    0.00020026
     atom   37 type  1   force =     0.00022412   -0.00079248    0.00011085
     atom   38 type  1   force =    -0.00005656   -0.00009016    0.00022999
     atom   39 type  2   force =     0.00011562   -0.00047149    0.00007550
     atom   40 type  2   force =    -0.00021835   -0.00011694   -0.00045260
     atom   41 type  2   force =     0.00034883   -0.00012224   -0.00047425
     atom   42 type  2   force =     0.00007272    0.00010230   -0.00006211
     atom   43 type  1   force =    -0.00015829   -0.00008965    0.00019670
     atom   44 type  1   force =     0.00009015    0.00016365    0.00042196
     atom   45 type  2   force =    -0.00002434   -0.00014807    0.10383625
     atom   46 type  2   force =    -0.07050140   -0.00017124   -0.02692730
     atom   47 type  2   force =     0.07029537    0.00025599   -0.02698184
     atom   48 type  3   force =     0.00026667    0.00046497    0.00071270
     atom   49 type  4   force =    -0.00018472    0.00765561   -0.00838595
     atom   50 type  5   force =    -0.00007241   -0.00845581    0.00775018

     Total force =     0.366227     Total SCF correction =     0.000642
  @ DRIVER MODE: Message from server: STATUS
  @ DRIVER MODE: Message from server: GETFORCE
  @ DRIVER MODE: Returning v,forces,stress,ensemble

     Writing output data file ./calc.save/
  @ DRIVER MODE: Message from server: EXIT
  @ DRIVE MODE: Exiting

     General routines

     Parallel routines

   This run was terminated on:   3: 4:33   9Sep2021

   JOB DONE.