     Program PWSCF v.6.7GPU starts on 10Sep2021 at 13: 3:54

     R & G space division:  proc/nbgrp/npool/nimage =      10
     Reading input from /storage/home/hcoda1/3/ntian30/research/carbon/CxH_vib/CH3_calc/ads_slab/CH3N2H2O_g/out_0048/pw.inp
Warning: card &CELL ignored
Warning: card   CELL_DYNAMICS='IPI', ignored
Warning: card / ignored

     Current dimensions of program PWSCF are:
     Max number of different atomic species (ntypx) = 10
     Max number of k-points (npk) =  40000
     Max angular momentum in pseudopotentials (lmaxx) =  3
     Presently no symmetry can be used with electric field

     Message from routine cell_base_init:
     DEPRECATED: use true lattice parameter, not A to a.u. conversion factor

     IMPORTANT: XC functional enforced from input :
     Exchange-correlation= BEEF-VDW
                           (   1   4  43  14   2   0   0)
     Any further DFT definition will be discarded
     Please, verify this is what you really want

  @ DRIVER MODE: Connecting to
 qe_1139763_2779714.sched-torque.pace.gatech.edum0e2lxkc_scratch
  using UNIX socket
  @ DRIVER MODE: Message from server: STATUS
  @ DRIVER MODE: Message from server: INIT
  @ DRIVER MODE: Receiving replica           0          -1
  @ DRIVER MODE: Receiving encoded integer          25
  @ DRIVER MODE:  SCF:  T  FORCE:  T  STRESS:  F  VC:  F  ENSEMBLE:  F
  @ DRIVER MODE:  SCF:  T  FORCE:  T  STRESS:  F  VC:  F  ENSEMBLE:  F

     Using Slab Decomposition

     bravais-lattice index     =            0
     lattice parameter (alat)  =       1.8897  a.u.
     unit-cell volume          =    6658.9804 (a.u.)^3
     number of atoms/cell      =           56
     number of atomic types    =            5
     number of electrons       =       403.00
     number of Kohn-Sham states=          211
     kinetic-energy cutoff     =      29.3995  Ry
     charge density cutoff     =     293.9946  Ry
     scf convergence threshold =      7.3E-08
     mixing beta               =       0.0500
     number of iterations used =            8  plain     mixing
     Exchange-correlation= BEEF-VDW
                           (   1   4  43  14   2   0   0)

     celldm(1)=   1.889726  celldm(2)=   0.000000  celldm(3)=   0.000000
     celldm(4)=   0.000000  celldm(5)=   0.000000  celldm(6)=   0.000000

     crystal axes: (cart. coord. in units of alat)
               a(1) = (   6.579727   0.000000   0.000000 )
               a(2) = (  -0.000775   5.961596   0.000000 )
               a(3) = (   0.000000   0.000000  25.155947 )

     reciprocal axes: (cart. coord. in units 2 pi/alat)
               b(1) = (  0.151982  0.000020  0.000000 )
               b(2) = (  0.000000  0.167740  0.000000 )
               b(3) = (  0.000000  0.000000  0.039752 )

     PseudoPot. # 1 for Ti read from file:
     /storage/coda1/p-amedford6/0/shared/rich_project_chbe-medford/medford-share/data/pseudos_module/espresso/nninc/pbe/van/Ti.UPF
     MD5 check sum: 8e4df49b7f0d34bbd5052bf3f5ea0213
     Pseudo is Ultrasoft, Zval = 12.0
     Generated by new atomic code, or converted to UPF format
     Using radial grid of  851 points,  6 beta functions with:
                l(1) =   0
                l(2) =   0
                l(3) =   1
                l(4) =   1
                l(5) =   2
                l(6) =   2
     Q(r) pseudized with  8 coefficients,  rinner =    1.000   1.000   1.000
                                                       1.000   1.000

     PseudoPot. # 2 for O  read from file:
     /storage/coda1/p-amedford6/0/shared/rich_project_chbe-medford/medford-share/data/pseudos_module/espresso/nninc/pbe/van/O.UPF
     MD5 check sum: 78c19812648e8988a0fe644b0f25305e
     Pseudo is Ultrasoft, Zval =  6.0
     Generated by new atomic code, or converted to UPF format
     Using radial grid of  737 points,  4 beta functions with:
                l(1) =   0
                l(2) =   0
                l(3) =   1
                l(4) =   1
     Q(r) pseudized with  8 coefficients,  rinner =    0.800   0.800   0.800

     PseudoPot. # 3 for N  read from file:
     /storage/coda1/p-amedford6/0/shared/rich_project_chbe-medford/medford-share/data/pseudos_module/espresso/nninc/pbe/van/N.UPF
     MD5 check sum: 90d10febe142ad51ac9d5be1deb811c4
     Pseudo is Ultrasoft, Zval =  5.0
     Generated by new atomic code, or converted to UPF format
     Using radial grid of  729 points,  4 beta functions with:
                l(1) =   0
                l(2) =   0
                l(3) =   1
                l(4) =   1
     Q(r) pseudized with  8 coefficients,  rinner =    0.800   0.800   0.800

     PseudoPot. # 4 for C  read from file:
     /storage/coda1/p-amedford6/0/shared/rich_project_chbe-medford/medford-share/data/pseudos_module/espresso/nninc/pbe/van/C.UPF
     MD5 check sum: 1a69bf6b8db32088f5b2163dbdb77a27
     Pseudo is Ultrasoft, Zval =  4.0
     Generated by new atomic code, or converted to UPF format
     Using radial grid of  721 points,  4 beta functions with:
                l(1) =   0
                l(2) =   0
                l(3) =   1
                l(4) =   1
     Q(r) pseudized with  8 coefficients,  rinner =    0.800   0.800   0.800

     PseudoPot. # 5 for H  read from file:
     /storage/coda1/p-amedford6/0/shared/rich_project_chbe-medford/medford-share/data/pseudos_module/espresso/nninc/pbe/van/H.UPF
     MD5 check sum: b5ee9d7bfd3a09ee7748110bda690ff7
     Pseudo is Ultrasoft, Zval =  1.0
     Generated by new atomic code, or converted to UPF format
     Using radial grid of  615 points,  1 beta functions with:
                l(1) =   0
     Q(r) pseudized with  8 coefficients,  rinner =    0.800

     atomic species   valence    mass     pseudopotential
        Ti1           12.00    47.86700     Ti( 1.00)
        O1             6.00    15.99900     O ( 1.00)
        N1             5.00    14.00700     N ( 1.00)
        C1             4.00    12.01100     C ( 1.00)
        H1             1.00     1.00800     H ( 1.00)

     No symmetry found

   Cartesian axes

     site n.     atom                  positions (alat units)
         1           Ti1 tau(   1) = (   0.0004258   2.9801865   6.0000000  )
         2           Ti1 tau(   2) = (   3.2906075   1.4906267   6.0002472  )
         3           O1  tau(   3) = (   0.0006271   0.0005054   7.9858123  )
         4           O1  tau(   4) = (   3.2906025   0.0005020   7.3038282  )
         5           O1  tau(   5) = (   4.5942328   1.4918067   9.2879030  )
         6           O1  tau(   6) = (   1.9868534   1.4903216   9.2879459  )
         7           Ti1 tau(   7) = (   3.2907910   2.8959150   9.1758416  )
         8           Ti1 tau(   8) = (   0.0015273   1.4827037   9.2680791  )
         9           O1  tau(   9) = (   3.3002115   5.9463602  11.3460011  )
        10           O1  tau(  10) = (   0.0116148   5.9584955  10.6183126  )
        11           O1  tau(  11) = (   1.3192008   1.4768417  12.6238339  )
        12           O1  tau(  12) = (   5.3062067   1.4698383  12.6193417  )
        13           Ti1 tau(  13) = (   6.5330844   2.9444840  12.6148558  )
        14           Ti1 tau(  14) = (   3.2222230   1.4676475  12.5013840  )
        15           O1  tau(  15) = (   0.0064324   5.9471174  14.6352917  )
        16           O1  tau(  16) = (   3.3028336   5.9445487  13.9678148  )
        17           O1  tau(  17) = (   4.5628415   1.5226527  16.0793330  )
        18           O1  tau(  18) = (   2.0474444   1.5206590  16.0184434  )
        19           Ti1 tau(  19) = (   3.3141275   2.9607752  15.6908890  )
        20           Ti1 tau(  20) = (   6.5660065   1.5097775  15.7997320  )
        21           O1  tau(  21) = (   3.2904802   0.0005063   4.7018136  )
        22           O1  tau(  22) = (   0.0269361   0.0086655  17.1987262  )
        23           O1  tau(  23) = (   1.3043587   1.4918075   6.0039043  )
        24           O1  tau(  24) = (   5.2767064   1.4903225   6.0039473  )
        25           Ti1 tau(  25) = (   0.0000382   5.9609847   6.0000000  )
        26           Ti1 tau(  26) = (   3.2902200   4.4714249   6.0002472  )
        27           O1  tau(  27) = (   0.0002396   2.9813036   7.9858123  )
        28           O1  tau(  28) = (   3.2902150   2.9813002   7.3038282  )
        29           O1  tau(  29) = (   4.5938453   4.4726049   9.2879030  )
        30           O1  tau(  30) = (   1.9864658   4.4711199   9.2879459  )
        31           Ti1 tau(  31) = (   3.2891106   5.8743827   9.1763621  )
        32           Ti1 tau(  32) = (   0.0006254   4.4649316   9.2693709  )
        33           O1  tau(  33) = (   3.2944391   2.9688829  11.3444728  )
        34           O1  tau(  34) = (   0.0092240   2.9805883  10.6323155  )
        35           O1  tau(  35) = (   1.3142520   4.4635248  12.6275686  )
        36           O1  tau(  36) = (   5.3078217   4.4601700  12.6226734  )
        37           Ti1 tau(  37) = (   6.5374036   5.9186568  12.5467527  )
        38           Ti1 tau(  38) = (   3.2213306   4.4595164  12.5065882  )
        39           O1  tau(  39) = (   6.5756885   2.9534048  14.6511233  )
        40           O1  tau(  40) = (   3.3206316   2.9687378  13.8980937  )
        41           O1  tau(  41) = (   4.5543359   4.4428353  16.0905846  )
        42           O1  tau(  42) = (   2.0427057   4.4323087  16.0570365  )
        43           Ti1 tau(  43) = (   3.2570595   5.9269474  15.8069103  )
        44           Ti1 tau(  44) = (   6.5609319   4.6488967  16.0725391  )
        45           O1  tau(  45) = (   3.2900926   2.9813045   4.7018136  )
        46           O1  tau(  46) = (   1.3039711   4.4726057   6.0039043  )
        47           O1  tau(  47) = (   5.2763189   4.4711207   6.0039473  )
        48           N1  tau(  48) = (   0.2492319   2.6641403  18.6309932  )
        49           N1  tau(  49) = (   0.0782707   2.8835230  17.4382120  )
        50           C1  tau(  50) = (   0.2622466   3.8234900  19.5663878  )
        51           H1  tau(  51) = (   6.1755609   4.6233469  19.2444151  )
        52           H1  tau(  52) = (   6.5754044   3.4477461  20.5519103  )
        53           H1  tau(  53) = (   1.2857956   4.2073973  19.6006198  )
        54           O1  tau(  54) = (   3.1761146   0.0362278  18.2233714  )
        55           H1  tau(  55) = (   3.9097821   0.6076051  18.5138283  )
        56           H1  tau(  56) = (   2.3516031   0.5117379  18.4309238  )

     number of k points=    10  Fermi-Dirac smearing, width (Ry)=  0.0073
                       cart. coord. in units 2pi/alat
        k(    1) = (   0.0000000   0.0000000   0.0000000), wk =   0.1250000
        k(    2) = (   0.0000000   0.0419351   0.0000000), wk =   0.2500000
        k(    3) = (   0.0000000  -0.0838702   0.0000000), wk =   0.1250000
        k(    4) = (   0.0379955   0.0000049   0.0000000), wk =   0.2500000
        k(    5) = (   0.0379955   0.0419400   0.0000000), wk =   0.2500000
        k(    6) = (   0.0379955  -0.0838652   0.0000000), wk =   0.2500000
        k(    7) = (   0.0379955  -0.0419301   0.0000000), wk =   0.2500000
        k(    8) = (  -0.0759910  -0.0000099   0.0000000), wk =   0.1250000
        k(    9) = (  -0.0759910   0.0419252   0.0000000), wk =   0.2500000
        k(   10) = (  -0.0759910  -0.0838800   0.0000000), wk =   0.1250000

     Initial potential from superposition of free atoms

     starting charge  386.99914, renormalised to  403.00000

     negative rho (up, down):  1.449E-02 0.000E+00

     %%%%%%%%%%%%%%%%%%%%%%%%%%%%%%%%%%%%%%%%%%%%%%%%%%%%%%%%%%%%%%%%%%%%%%%%
     %                                                                      %
     % You are using vdW-DF, which was implemented by the Thonhauser group. %
     % Please cite the following two papers that made this development      %
     % possible and the two reviews that describe the various versions:     %
     %                                                                      %
     %   T. Thonhauser et al., PRL 115, 136402 (2015).                      %
     %   T. Thonhauser et al., PRB 76, 125112 (2007).                       %
     %   K. Berland et al., Rep. Prog. Phys. 78, 066501 (2015).             %
     %   D.C. Langreth et al., J. Phys.: Condens. Matter 21, 084203 (2009). %
     %                                                                      %
     %                                                                      %
     % If you are calculating the stress with vdW-DF, please also cite:     %
     %                                                                      %
     %   R. Sabatini et al., J. Phys.: Condens. Matter 24, 424209 (2012).   %
     %                                                                      %
     %%%%%%%%%%%%%%%%%%%%%%%%%%%%%%%%%%%%%%%%%%%%%%%%%%%%%%%%%%%%%%%%%%%%%%%%

     Adding external electric field

     Computed dipole along edir(3) :
        Dipole              -13.2097 Ry au,        -33.5756 Debye
        Dipole field         -0.0249 Ry au,

        Potential amp.        2.3108 Ry
        Total length         46.3494 bohr

     Starting wfcs are  305 atomic wfcs
  @ DRIVER MODE: Message from server: STATUS
  @ DRIVER MODE: Message from server: POSDATA
  @ DRIVER MODE: Reading and sharing cell
  @ DRIVER MODE: Reading and sharing positions
  @ DRIVER MODE: Received positions

     Self-consistent Calculation

     iteration #  1     ecut=    29.40 Ry     beta= 0.05
     Davidson diagonalization with overlap
     c_bands:  4 eigenvalues not converged
     c_bands:  2 eigenvalues not converged
     c_bands:  2 eigenvalues not converged
     c_bands:  5 eigenvalues not converged
     c_bands:  1 eigenvalues not converged
     c_bands:  1 eigenvalues not converged
     c_bands:  4 eigenvalues not converged
     c_bands:  1 eigenvalues not converged
     c_bands:  1 eigenvalues not converged
     ethr =  1.00E-05,  avg # of iterations = 28.0

[...]

     total energy              =   -2367.56944803 Ry
     estimated scf accuracy    <    6916.19744019 Ry

     iteration #  2     ecut=    29.40 Ry     beta= 0.05
     Davidson diagonalization with overlap
     ethr =  1.00E-02,  avg # of iterations = 23.2

[...]

     iteration # 63     ecut=    29.40 Ry     beta= 0.05
     Davidson diagonalization with overlap
     c_bands:  1 eigenvalues not converged
     ethr =  4.84E-10,  avg # of iterations = 13.8

[...]

     total energy              =   -2974.00271625 Ry
     estimated scf accuracy    <       0.00000009 Ry

     iteration # 68     ecut=    29.40 Ry     beta= 0.05
     Davidson diagonalization with overlap
     ethr =  2.20E-11,  avg # of iterations = 10.5

     negative rho (up, down):  1.476E-02 0.000E+00

     Adding external electric field

     Computed dipole along edir(3) :
        Dipole                0.8930 Ry au,          2.2698 Debye
        Dipole field          0.0017 Ry au,

        Potential amp.       -0.1562 Ry
        Total length         46.3494 bohr

     End of self-consistent calculation

          k = 0.0000 0.0000 0.0000 ( 18029 PWs)   bands (ev):

   -55.6174 -55.5833 -55.5756 -55.5587 -55.5389 -55.4455 -55.4274 -55.4064
   -55.3934 -55.3928 -55.3637 -55.3591 -55.0015 -54.8613 -54.5968 -54.5628
   -32.1178 -32.0998 -31.9601 -31.9430 -31.9262 -31.9104 -31.8823 -31.8763
   -31.8604 -31.8067 -31.8005 -31.7822 -31.7697 -31.7539 -31.7375 -31.7289
   -31.7217 -31.7090 -31.7031 -31.6747 -31.6658 -31.6484 -31.6201 -31.6157
   -31.5998 -31.5971 -31.5966 -31.5918 -31.5675 -31.5624 -31.5597 -31.5547
   -31.5454 -31.5402 -31.5340 -31.5074 -31.5044 -31.2715 -31.1973 -31.1216
   -31.1046 -31.0704 -31.0040 -30.9154 -30.8930 -30.8206 -30.7342 -30.6232
   -18.8499 -18.3053 -16.3094 -16.0810 -15.8510 -15.7636 -15.7149 -15.5153
   -15.4135 -15.3411 -15.2184 -15.1558 -15.1436 -15.1297 -15.1107 -15.1082
   -15.0563 -15.0494 -15.0448 -15.0374 -15.0041 -14.9640 -14.9489 -14.9383
   -14.8444 -14.7708 -14.7538 -14.7298 -14.6845 -14.6681 -14.1950 -13.0992
   -12.9827 -11.2555  -6.8721  -6.6155  -4.1997  -3.8418  -3.7981  -3.6823
    -3.5547  -3.5216  -3.4404  -3.3657  -3.2304  -3.2016  -3.0386  -2.8450
    -2.7844  -2.7587  -2.7054  -2.6389  -2.5249  -2.4658  -2.4214  -2.4138
    -2.3968  -2.3893  -2.3657  -2.3532  -2.2512  -2.2299  -2.1515  -2.1475
    -2.0959  -1.9788  -1.9640  -1.9297  -1.9166  -1.8934  -1.8715  -1.8506
    -1.8407  -1.8165  -1.7658  -1.6970  -1.6304  -1.5930  -1.5057  -1.4382
    -1.3959  -1.3480  -1.2278  -1.1341  -1.0990  -1.0588  -1.0513  -1.0382
    -1.0095  -0.9916  -0.8789  -0.7647  -0.7478  -0.6824  -0.6227  -0.5414
    -0.5156  -0.4353  -0.3812  -0.3628  -0.3593  -0.3134  -0.2838  -0.2240
    -0.0908  -0.0392  -0.0050   0.0038   0.0633   0.1065   0.1349   0.2225
     0.2287   0.2739   0.3119   0.3444   0.3576   0.3728   0.3915   0.4208
     0.4355   0.6272   0.6632   0.7022   0.7400   0.7828   0.9212   0.9456
     1.0433   1.1530   1.3517   1.4253   1.5308   1.6175   1.9969   2.0427
     2.7455   3.5177   3.6050   3.6498   3.6789   3.7625   3.7769   3.9726
     3.9885   4.0268   4.0963

[...]

          k = 0.0380-0.0419 0.0000 ( 17876 PWs)   bands (ev):

[...]

          k =-0.0760-0.0000 0.0000 ( 17886 PWs)   bands (ev):

[...]

          k =-0.0760-0.0839 0.0000 ( 17948 PWs)   bands (ev):

   -55.6008 -55.5998 -55.5614 -55.5571 -55.5529 -55.4352 -55.4168 -55.4110
   -55.4091 -55.3776 -55.3744 -55.3651 -54.9996 -54.8631 -54.5798 -54.5796
   -31.9314 -31.9154 -31.9152 -31.9148 -31.8962 -31.8953 -31.8456 -31.8396
   -31.8185 -31.7932 -31.7810 -31.7720 -31.7677 -31.7298 -31.7248 -31.7235
   -31.7204 -31.7194 -31.7169 -31.7145 -31.7120 -31.7059 -31.6694 -31.6524
   -31.6338 -31.6296 -31.6222 -31.6105 -31.6100 -31.6073 -31.6018 -31.5923
   -31.5888 -31.5777 -31.5768 -31.5681 -31.4185 -31.2733 -31.2132 -31.1606
   -31.1227 -31.0968 -30.9058 -30.9056 -30.8169 -30.8167 -30.7775 -30.7774
   -18.8488 -18.3017 -15.7677 -15.6575 -15.5669 -15.5328 -15.4752 -15.4061
   -15.3983 -15.3115 -15.2956 -15.2925 -15.2264 -15.2060 -15.1685 -15.1617
   -15.1392 -15.1231 -15.1168 -15.0674 -15.0554 -15.0526 -15.0457 -15.0409
   -14.9646 -14.9344 -14.9306 -14.9213 -14.7937 -14.6691 -14.3667 -13.0846
   -13.0844 -11.2531  -6.8984  -6.5934  -4.1257  -3.8734  -3.7607  -3.2231
    -3.0502  -2.8376  -2.8179  -2.7221  -2.7102  -2.6757  -2.5448  -2.5040
    -2.4631  -2.4468  -2.4280  -2.4266  -2.4091  -2.4035  -2.3826  -2.3567
    -2.3326  -2.3122  -2.2835  -2.2799  -2.2671  -2.2540  -2.2308  -2.2187
    -2.2019  -2.1716  -2.1456  -2.1295  -2.0631  -1.9906  -1.8303  -1.7917
    -1.7530  -1.7464  -1.7295  -1.6985  -1.6835  -1.6655  -1.6189  -1.5834
    -1.4990  -1.3550  -1.3358  -1.3123  -1.2900  -1.2810  -1.2084  -1.1002
    -1.0811  -1.0101  -1.0016  -0.8952  -0.8869  -0.8017  -0.7939  -0.7835
    -0.7087  -0.6816  -0.6664  -0.5780  -0.5759  -0.5519  -0.5029  -0.4751
    -0.4104  -0.3683  -0.3379  -0.3344  -0.2883  -0.2662  -0.2221  -0.1551
    -0.1022  -0.0659   0.0304   0.1347   0.2350   0.3506   0.4654   0.4796
     0.5622   0.5949   0.6801   0.6955   0.7039   0.7763   0.7811   0.8802
     0.9245   0.9391   0.9797   1.1023   1.7886   1.7900   1.8622   1.8625
     2.7700   3.7352   3.8552   3.8974   3.9152   3.9893   4.0320   4.0514
     4.0538   4.0879   4.1950

     the Fermi energy is     3.5165 ev

!    total energy              =   -2974.00274308 Ry
     estimated scf accuracy    <       0.00000006 Ry
     smearing contrib. (-TS)   =      -0.02182591 Ry
     internal energy E=F+TS    =   -2973.98091717 Ry

     The total energy is F=E-TS. E is the sum of the following terms:
     one-electron contribution =  -23847.48615874 Ry
     hartree contribution      =   12018.17258643 Ry
     xc contribution           =    -494.02600425 Ry
     ewald contribution        =    9349.35715453 Ry
     electric field correction =       0.00150487 Ry

     convergence has been achieved in  68 iterations

     Forces acting on atoms (cartesian axes, Ry/au):

     atom    1 type  1   force =     0.00003902   -0.00023656    0.09649756
     atom    2 type  1   force =     0.00005569   -0.00043763   -0.17542635
     atom    3 type  2   force =     0.00011533   -0.00009371   -0.02475989
     atom    4 type  2   force =     0.00004190   -0.00157616    0.05348921
     atom    5 type  2   force =    -0.01195983   -0.00100212    0.00309147
     atom    6 type  2   force =     0.01370167   -0.00064397    0.00292947
     atom    7 type  1   force =     0.00074490    0.00068349   -0.00679496
     atom    8 type  1   force =     0.00021950    0.00948366    0.02715519
     atom    9 type  2   force =    -0.00014661   -0.00006496   -0.00005471
     atom   10 type  2   force =    -0.00204982    0.00048570   -0.01820204
     atom   11 type  2   force =    -0.00058732    0.00032992    0.00011706
     atom   12 type  2   force =     0.00069754    0.00013211    0.00030801
     atom   13 type  1   force =    -0.00015411   -0.00009531   -0.00013997
     atom   14 type  1   force =    -0.00040421   -0.00013781    0.00027057
     atom   15 type  2   force =     0.00003486   -0.00060769    0.00069296
     atom   16 type  2   force =    -0.00026437   -0.00008047   -0.00035310
     atom   17 type  2   force =    -0.00020784    0.00025254   -0.00045896
     atom   18 type  2   force =    -0.00001825    0.00017401   -0.00031169
     atom   19 type  1   force =    -0.00022656    0.00006598   -0.00001755
     atom   20 type  1   force =    -0.00053968   -0.00003404    0.00032978
     atom   21 type  2   force =     0.00008373    0.00001640    0.10322802
     atom   22 type  2   force =     0.00017530    0.00038734    0.00003428
     atom   23 type  2   force =    -0.07147267   -0.00008714   -0.02773180
     atom   24 type  2   force =     0.07142894    0.00036541   -0.02780339
     atom   25 type  1   force =     0.00017785   -0.00033961    0.09616911
     atom   26 type  1   force =     0.00000476   -0.00037831   -0.17574941
     atom   27 type  2   force =     0.00020946   -0.00020734   -0.02375501
     atom   28 type  2   force =     0.00002431   -0.00128288    0.05295505
     atom   29 type  2   force =    -0.01220017    0.00024125    0.00292103
     atom   30 type  2   force =     0.01386195    0.00082047    0.00273941
     atom   31 type  1   force =     0.00041886    0.00343366   -0.00982287
     atom   32 type  1   force =     0.00036506   -0.01131675    0.02756422
     atom   33 type  2   force =     0.00010059    0.00014709    0.00000597
     atom   34 type  2   force =    -0.00188359   -0.00045165   -0.02415092
     atom   35 type  2   force =     0.00040035    0.00003223   -0.00027224
     atom   36 type  2   force =    -0.00028582   -0.00006491    0.00007554
     atom   37 type  1   force =    -0.00030290   -0.00012949    0.00010054
     atom   38 type  1   force =    -0.00079360    0.00012613   -0.00048137
     atom   39 type  2   force =     0.00010563   -0.00030766   -0.00022953
     atom   40 type  2   force =     0.00019090    0.00035073    0.00043221
     atom   41 type  2   force =     0.00022489    0.00008887   -0.00034615
     atom   42 type  2   force =    -0.00043220   -0.00003286   -0.00028720
     atom   43 type  1   force =     0.00053362    0.00097967    0.00042132
     atom   44 type  1   force =    -0.00014251    0.00111796   -0.00071936
     atom   45 type  2   force =     0.00008474   -0.00002655    0.10321920
     atom   46 type  2   force =    -0.07147390   -0.00002822   -0.02774614
     atom   47 type  2   force =     0.07143059    0.00040242   -0.02780367
     atom   48 type  3   force =    -0.00041093    0.00001295   -0.00148267
     atom   49 type  3   force =    -0.00009032   -0.00037027    0.00130710
     atom   50 type  4   force =     0.00014173    0.00055981    0.00036405
     atom   51 type  5   force =     0.00112455   -0.00072267   -0.00030040
     atom   52 type  5   force =    -0.00011622    0.00012560   -0.00015290
     atom   53 type  5   force =    -0.00005233   -0.00066410    0.00014899
     atom   54 type  2   force =     0.00421389    0.00406852    0.00138228
     atom   55 type  5   force =    -0.00396211   -0.00356225   -0.00221779
     atom   56 type  5   force =    -0.00077421    0.00009917   -0.00037752

     Total force =     0.368069     Total SCF correction =     0.000721
  @ DRIVER MODE: Message from server: STATUS
  @ DRIVER MODE: Message from server: GETFORCE
  @ DRIVER MODE: Returning v,forces,stress,ensemble

     Writing output data file ./calc.save/
  @ DRIVER MODE: Message from server: EXIT
  @ DRIVE MODE: Exiting

     General routines

     Parallel routines

   This run was terminated on:  13:23:50  10Sep2021

   JOB DONE.