     Program PWSCF v.6.7GPU starts on 23Sep2021 at 10:41:32

     R & G space division:  proc/nbgrp/npool/nimage =       8
     Reading input from /storage/home/hcoda1/3/ntian30/research/carbon/CxH_vib/H2O_calc/ads_slab/CH3NHHO_a/out_0000/pw.inp
Warning: card &CELL ignored
Warning: card   CELL_DYNAMICS='IPI', ignored
Warning: card / ignored

     Current dimensions of program PWSCF are:
     Max number of different atomic species (ntypx) = 10
     Max number of k-points (npk) =  40000
     Max angular momentum in pseudopotentials (lmaxx) =  3
     Presently no symmetry can be used with electric field

     Message from routine cell_base_init:
     DEPRECATED: use true lattice parameter, not A to a.u. conversion factor

     IMPORTANT: XC functional enforced from input :
     Exchange-correlation= BEEF-VDW
                           (   1   4  43  14   2   0   0)
     Any further DFT definition will be discarded
     Please, verify this is what you really want

  @ DRIVER MODE: Connecting to
 qe_1139763_2947309.sched-torque.pace.gatech.edutc49ogwq_scratch
  using UNIX socket
  @ DRIVER MODE: Message from server: STATUS
  @ DRIVER MODE: Message from server: INIT
  @ DRIVER MODE: Receiving replica           0          -1
  @ DRIVER MODE: Receiving encoded integer          25
  @ DRIVER MODE:  SCF:  T  FORCE:  T  STRESS:  F  VC:  F  ENSEMBLE:  F
  @ DRIVER MODE:  SCF:  T  FORCE:  T  STRESS:  F  VC:  F  ENSEMBLE:  F

     Using Slab Decomposition

     bravais-lattice index     =            0
     lattice parameter (alat)  =       1.8897  a.u.
     unit-cell volume          =    6658.9804 (a.u.)^3
     number of atoms/cell      =           55
     number of atomic types    =            5
     number of electrons       =       398.00
     number of Kohn-Sham states=          209
     kinetic-energy cutoff     =      29.3995  Ry
     charge density cutoff     =     293.9946  Ry
     scf convergence threshold =      7.3E-08
     mixing beta               =       0.0500
     number of iterations used =            8  plain     mixing
     Exchange-correlation= BEEF-VDW
                           (   1   4  43  14   2   0   0)

     celldm(1)=   1.889726  celldm(2)=   0.000000  celldm(3)=   0.000000
     celldm(4)=   0.000000  celldm(5)=   0.000000  celldm(6)=   0.000000

     crystal axes: (cart. coord. in units of alat)
               a(1) = (   6.579727   0.000000   0.000000 )
               a(2) = (  -0.000775   5.961596   0.000000 )
               a(3) = (   0.000000   0.000000  25.155947 )

     reciprocal axes: (cart. coord. in units 2 pi/alat)
               b(1) = (  0.151982  0.000020  0.000000 )
               b(2) = (  0.000000  0.167740  0.000000 )
               b(3) = (  0.000000  0.000000  0.039752 )

     PseudoPot. # 1 for Ti read from file:
     /storage/coda1/p-amedford6/0/shared/rich_project_chbe-medford/medford-share/data/pseudos_module/espresso/nninc/pbe/van/Ti.UPF
     MD5 check sum: 8e4df49b7f0d34bbd5052bf3f5ea0213
     Pseudo is Ultrasoft, Zval = 12.0
     Generated by new atomic code, or converted to UPF format
     Using radial grid of  851 points,  6 beta functions with:
                l(1) =   0
                l(2) =   0
                l(3) =   1
                l(4) =   1
                l(5) =   2
                l(6) =   2
     Q(r) pseudized with  8 coefficients,  rinner =    1.000   1.000   1.000
                                                       1.000   1.000

     PseudoPot. # 2 for O  read from file:
     /storage/coda1/p-amedford6/0/shared/rich_project_chbe-medford/medford-share/data/pseudos_module/espresso/nninc/pbe/van/O.UPF
     MD5 check sum: 78c19812648e8988a0fe644b0f25305e
     Pseudo is Ultrasoft, Zval =  6.0
     Generated by new atomic code, or converted to UPF format
     Using radial grid of  737 points,  4 beta functions with:
                l(1) =   0
                l(2) =   0
                l(3) =   1
                l(4) =   1
     Q(r) pseudized with  8 coefficients,  rinner =    0.800   0.800   0.800

     PseudoPot. # 3 for H  read from file:
     /storage/coda1/p-amedford6/0/shared/rich_project_chbe-medford/medford-share/data/pseudos_module/espresso/nninc/pbe/van/H.UPF
     MD5 check sum: b5ee9d7bfd3a09ee7748110bda690ff7
     Pseudo is Ultrasoft, Zval =  1.0
     Generated by new atomic code, or converted to UPF format
     Using radial grid of  615 points,  1 beta functions with:
                l(1) =   0
     Q(r) pseudized with  8 coefficients,  rinner =    0.800

     PseudoPot. # 4 for N  read from file:
     /storage/coda1/p-amedford6/0/shared/rich_project_chbe-medford/medford-share/data/pseudos_module/espresso/nninc/pbe/van/N.UPF
     MD5 check sum: 90d10febe142ad51ac9d5be1deb811c4
     Pseudo is Ultrasoft, Zval =  5.0
     Generated by new atomic code, or converted to UPF format
     Using radial grid of  729 points,  4 beta functions with:
                l(1) =   0
                l(2) =   0
                l(3) =   1
                l(4) =   1
     Q(r) pseudized with  8 coefficients,  rinner =    0.800   0.800   0.800

     PseudoPot. # 5 for C  read from file:
     /storage/coda1/p-amedford6/0/shared/rich_project_chbe-medford/medford-share/data/pseudos_module/espresso/nninc/pbe/van/C.UPF
     MD5 check sum: 1a69bf6b8db32088f5b2163dbdb77a27
     Pseudo is Ultrasoft, Zval =  4.0
     Generated by new atomic code, or converted to UPF format
     Using radial grid of  721 points,  4 beta functions with:
                l(1) =   0
                l(2) =   0
                l(3) =   1
                l(4) =   1
     Q(r) pseudized with  8 coefficients,  rinner =    0.800   0.800   0.800

     atomic species   valence    mass     pseudopotential
        Ti1           12.00    47.86700     Ti( 1.00)
        O1             6.00    15.99900     O ( 1.00)
        H1             1.00     1.00800     H ( 1.00)
        N1             5.00    14.00700     N ( 1.00)
        C1             4.00    12.01100     C ( 1.00)

     No symmetry found

   Cartesian axes

     site n.     atom                  positions (alat units)
         1           Ti1 tau(   1) = (   0.0004258   2.9801865   6.0000000  )
         2           Ti1 tau(   2) = (   3.2906075   1.4906267   6.0002472  )
         3           O1  tau(   3) = (   0.0006271   0.0005054   7.9858123  )
         4           O1  tau(   4) = (   3.2906025   0.0005020   7.3038282  )
         5           O1  tau(   5) = (   4.5942328   1.4918067   9.2879030  )
         6           O1  tau(   6) = (   1.9868534   1.4903216   9.2879459  )
         7           Ti1 tau(   7) = (   3.2907910   2.8959150   9.1758416  )
         8           Ti1 tau(   8) = (   0.0015273   1.4827037   9.2680791  )
         9           O1  tau(   9) = (   3.2831040   5.9360571  11.2641146  )
        10           O1  tau(  10) = (   0.0116148   5.9584955  10.6183126  )
        11           O1  tau(  11) = (   1.2851963   1.4867209  12.6255510  )
        12           O1  tau(  12) = (   5.2924406   1.4772461  12.6192171  )
        13           Ti1 tau(  13) = (   0.0036382   2.8404764  12.7021481  )
        14           Ti1 tau(  14) = (   3.2814461   1.2926050  12.6442039  )
        15           O1  tau(  15) = (   6.5789252   5.9354829  14.6389027  )
        16           O1  tau(  16) = (   3.2852549   0.0163589  13.8648689  )
        17           O1  tau(  17) = (   4.5445832   1.5164849  16.0197972  )
        18           O1  tau(  18) = (   2.0258823   1.4930055  16.0750729  )
        19           Ti1 tau(  19) = (   3.3156224   2.9699746  15.6194889  )
        20           Ti1 tau(  20) = (   0.0515760   1.3234122  16.0730098  )
        21           O1  tau(  21) = (   3.2904802   0.0005063   4.7018136  )
        22           O1  tau(  22) = (   6.5454194   5.9222349  17.1870725  )
        23           O1  tau(  23) = (   1.3043587   1.4918075   6.0039043  )
        24           O1  tau(  24) = (   5.2767064   1.4903225   6.0039473  )
        25           Ti1 tau(  25) = (   0.0000382   5.9609847   6.0000000  )
        26           Ti1 tau(  26) = (   3.2902200   4.4714249   6.0002472  )
        27           O1  tau(  27) = (   0.0002396   2.9813036   7.9858123  )
        28           O1  tau(  28) = (   3.2902150   2.9813002   7.3038282  )
        29           O1  tau(  29) = (   4.5938453   4.4726049   9.2879030  )
        30           O1  tau(  30) = (   1.9864658   4.4711199   9.2879459  )
        31           Ti1 tau(  31) = (   3.2891106   5.8743827   9.1763621  )
        32           Ti1 tau(  32) = (   0.0006254   4.4649316   9.2693709  )
        33           O1  tau(  33) = (   3.2861177   3.0127509  11.2320142  )
        34           O1  tau(  34) = (   0.0092240   2.9805883  10.6323155  )
        35           O1  tau(  35) = (   1.2872320   4.4646868  12.6147789  )
        36           O1  tau(  36) = (   5.2799320   4.4658550  12.6114028  )
        37           Ti1 tau(  37) = (   6.5510365   5.8261734  12.6423015  )
        38           Ti1 tau(  38) = (   3.2652589   4.3917841  12.4002916  )
        39           O1  tau(  39) = (   0.0003569   2.9920414  14.6539809  )
        40           O1  tau(  40) = (   3.2835110   2.9651371  13.8409569  )
        41           O1  tau(  41) = (   4.5245492   4.4030193  16.0142317  )
        42           O1  tau(  42) = (   2.0132503   4.4096711  16.0494848  )
        43           Ti1 tau(  43) = (   3.3389516   5.9588577  16.2858146  )
        44           Ti1 tau(  44) = (   0.0865397   4.4271626  15.8895714  )
        45           O1  tau(  45) = (   3.2900926   2.9813045   4.7018136  )
        46           O1  tau(  46) = (   1.3039711   4.4726057   6.0039043  )
        47           O1  tau(  47) = (   5.2763189   4.4711207   6.0039473  )
        48           H1  tau(  48) = (   5.5649379   3.0085428  17.7754687  )
        49           N1  tau(  49) = (   6.5266086   2.9804045  17.4451690  )
        50           C1  tau(  50) = (   0.8252436   3.0135910  18.6253707  )
        51           H1  tau(  51) = (   0.7415300   3.9712607  19.1474969  )
        52           H1  tau(  52) = (   0.5789590   2.2014881  19.3161603  )
        53           H1  tau(  53) = (   1.8636945   2.8847911  18.3311598  )
        54           O1  tau(  54) = (   3.4430348   5.9447220  18.1074838  )
        55           H1  tau(  55) = (   4.3135669   5.8364121  18.5244127  )

     number of k points=    10  Fermi-Dirac smearing, width (Ry)=  0.0073
                       cart. coord. in units 2pi/alat
        k(    1) = (   0.0000000   0.0000000   0.0000000), wk =   0.1250000
        k(    2) = (   0.0000000   0.0419351   0.0000000), wk =   0.2500000
        k(    3) = (   0.0000000  -0.0838702   0.0000000), wk =   0.1250000
        k(    4) = (   0.0379955   0.0000049   0.0000000), wk =   0.2500000
        k(    5) = (   0.0379955   0.0419400   0.0000000), wk =   0.2500000
        k(    6) = (   0.0379955  -0.0838652   0.0000000), wk =   0.2500000
        k(    7) = (   0.0379955  -0.0419301   0.0000000), wk =   0.2500000
        k(    8) = (  -0.0759910  -0.0000099   0.0000000), wk =   0.1250000
        k(    9) = (  -0.0759910   0.0419252   0.0000000), wk =   0.2500000
        k(   10) = (  -0.0759910  -0.0838800   0.0000000), wk =   0.1250000

     Initial potential from superposition of free atoms

     starting charge  381.99915, renormalised to  398.00000

     negative rho (up, down):  1.687E-02 0.000E+00

     %%%%%%%%%%%%%%%%%%%%%%%%%%%%%%%%%%%%%%%%%%%%%%%%%%%%%%%%%%%%%%%%%%%%%%%%
     %                                                                      %
     % You are using vdW-DF, which was implemented by the Thonhauser group. %
     % Please cite the following two papers that made this development      %
     % possible and the two reviews that describe the various versions:     %
     %                                                                      %
     %   T. Thonhauser et al., PRL 115, 136402 (2015).                      %
     %   T. Thonhauser et al., PRB 76, 125112 (2007).                       %
     %   K. Berland et al., Rep. Prog. Phys. 78, 066501 (2015).             %
     %   D.C. Langreth et al., J. Phys.: Condens. Matter 21, 084203 (2009). %
     %                                                                      %
     %                                                                      %
     % If you are calculating the stress with vdW-DF, please also cite:     %
     %                                                                      %
     %   R. Sabatini et al., J. Phys.: Condens. Matter 24, 424209 (2012).   %
     %                                                                      %
     %%%%%%%%%%%%%%%%%%%%%%%%%%%%%%%%%%%%%%%%%%%%%%%%%%%%%%%%%%%%%%%%%%%%%%%%

     Adding external electric field

     Computed dipole along edir(3) :
        Dipole               -8.7629 Ry au,        -22.2732 Debye
        Dipole field         -0.0165 Ry au,

        Potential amp.        1.5329 Ry
        Total length         46.3494 bohr

     Starting wfcs are  301 atomic wfcs
  @ DRIVER MODE: Message from server: STATUS
  @ DRIVER MODE: Message from server: POSDATA
  @ DRIVER MODE: Reading and sharing cell
  @ DRIVER MODE: Reading and sharing positions
  @ DRIVER MODE: Received positions

     Self-consistent Calculation

     iteration #  1     ecut=    29.40 Ry     beta= 0.05
     Davidson diagonalization with overlap
     ethr =  1.00E-02,  avg # of iterations =  2.7

[...]

     total energy              =   -2574.26693196 Ry
     estimated scf accuracy    <    4196.74884331 Ry

[...]

     iteration #  4     ecut=    29.40 Ry     beta= 0.05
     Davidson diagonalization with overlap
     c_bands:  2 eigenvalues not converged
     c_bands:  1 eigenvalues not converged
     ethr =  1.00E-02,  avg # of iterations = 18.6

[...]

     iteration # 40     ecut=    29.40 Ry     beta= 0.05
     Davidson diagonalization with overlap
     c_bands:  1 eigenvalues not converged
     c_bands:  1 eigenvalues not converged
     c_bands:  1 eigenvalues not converged
     c_bands:  1 eigenvalues not converged
     ethr =  1.59E-06,  avg # of iterations = 15.9

[...]

     total energy              =   -2954.01287349 Ry
     estimated scf accuracy    <       0.00000017 Ry

     iteration # 63     ecut=    29.40 Ry     beta= 0.05
     Davidson diagonalization with overlap
     ethr =  4.31E-11,  avg # of iterations =  5.1

     negative rho (up, down):  1.731E-02 0.000E+00

     Adding external electric field

     Computed dipole along edir(3) :
        Dipole                0.2152 Ry au,          0.5469 Debye
        Dipole field          0.0004 Ry au,

        Potential amp.       -0.0376 Ry
        Total length         46.3494 bohr

     End of self-consistent calculation

          k = 0.0000 0.0000 0.0000 ( 18029 PWs)   bands (ev):

   -56.9294 -56.8958 -56.0283 -55.9934 -55.7930 -55.7250 -55.6380 -55.4805
   -55.4466 -55.4069 -55.3949 -55.3288 -55.3232 -55.2786 -55.1324 -55.0555
   -33.3486 -33.2012 -33.1731 -33.1079 -33.0176 -32.9756 -32.5111 -32.2687
   -32.2490 -32.2230 -32.1706 -32.1657 -32.1400 -32.0287 -32.0088 -31.9617
   -31.9449 -31.9296 -31.9130 -31.8902 -31.8880 -31.8667 -31.8597 -31.8283
   -31.8277 -31.8032 -31.7586 -31.7179 -31.6848 -31.6770 -31.6185 -31.6076
   -31.6043 -31.5882 -31.5759 -31.5469 -31.5267 -31.5208 -31.5072 -31.5005
   -31.4927 -31.4420 -31.3980 -31.3746 -31.3360 -31.3109 -31.3047 -31.2381
   -17.0357 -16.4902 -16.4460 -16.2473 -16.1443 -16.1247 -16.0873 -16.0376
   -15.8383 -15.7882 -15.7505 -15.6844 -15.5871 -15.4308 -15.3338 -15.1605
   -15.1109 -15.0797 -15.0618 -15.0559 -15.0498 -15.0371 -14.9821 -14.9261
   -14.8857 -14.8029 -14.7485 -14.6378 -14.4118 -14.3822 -13.9781 -13.8711
   -13.8088  -8.4912  -4.6095  -4.1059  -3.9700  -3.9391  -3.7799  -3.6268
    -3.5018  -3.4491  -3.4236  -3.3146  -3.2980  -3.2883  -3.1988  -3.0698
    -2.9991  -2.9878  -2.9199  -2.9027  -2.8744  -2.8600  -2.6962  -2.6639
    -2.5697  -2.5177  -2.4961  -2.4154  -2.4061  -2.3462  -2.2959  -2.2844
    -2.2619  -2.2029  -2.1992  -2.1281  -2.1014  -2.0254  -2.0003  -1.9685
    -1.9448  -1.8742  -1.7981  -1.7635  -1.6087  -1.5722  -1.5397  -1.5042
    -1.4876  -1.4069  -1.3364  -1.2543  -1.2202  -1.1532  -1.1044  -1.0644
    -1.0519  -0.9370  -0.9118  -0.8549  -0.7909  -0.7747  -0.7679  -0.7220
    -0.6078  -0.5286  -0.5185  -0.4967  -0.4350  -0.4149  -0.3774  -0.3531
    -0.2766  -0.2601  -0.1518  -0.0788  -0.0476  -0.0225   0.0781   0.1571
     0.1787   0.2210   0.2631   0.3066   0.3353   0.3793   0.4472   0.4950
     0.5182   0.5408   0.5699   0.6659   0.7166   0.7532   0.8092   0.8246
     0.8892   0.9600   0.9870   1.0757   1.1200   1.4861   1.6370   2.3638
     2.5346   2.8105   2.9840   3.2999   3.3495   3.3656   3.3670   3.6535
     3.7722

[...]

          k = 0.0380-0.0419 0.0000 ( 17876 PWs)   bands (ev):

[...]

          k =-0.0760-0.0000 0.0000 ( 17886 PWs)   bands (ev):

[...]

          k =-0.0760-0.0839 0.0000 ( 17948 PWs)   bands (ev):

   -56.9132 -56.9118 -56.0155 -56.0060 -55.7884 -55.7295 -55.6372 -55.4641
   -55.4630 -55.4029 -55.3955 -55.3325 -55.3219 -55.2774 -55.1337 -55.0566
   -33.1876 -33.1862 -33.1665 -33.1651 -33.0619 -33.0608 -32.3351 -32.3270
   -32.2105 -32.2008 -32.1998 -32.1940 -32.0919 -32.0462 -32.0219 -32.0076
   -31.9565 -31.9556 -31.9097 -31.8776 -31.8661 -31.8167 -31.8159 -31.7736
   -31.7347 -31.7023 -31.6841 -31.6826 -31.6787 -31.6744 -31.6453 -31.6443
   -31.6338 -31.6292 -31.6083 -31.5974 -31.5744 -31.5657 -31.5350 -31.5243
   -31.5154 -31.4833 -31.4376 -31.3995 -31.3742 -31.3404 -31.3129 -31.2657
   -16.4328 -16.3965 -16.3945 -16.3473 -16.3457 -16.0910 -16.0863 -15.8401
   -15.8082 -15.6870 -15.5340 -15.5047 -15.4672 -15.4177 -15.3715 -15.3014
   -15.2830 -15.2423 -15.2089 -15.1533 -15.1277 -15.0495 -15.0154 -14.9565
   -14.9205 -14.8316 -14.7848 -14.7785 -14.5585 -14.5419 -13.9757 -13.9751
   -13.8257  -8.4961  -4.0721  -3.9926  -3.4694  -3.4643  -3.4434  -3.4341
    -3.2197  -3.2141  -3.0461  -3.0030  -2.9840  -2.9428  -2.9265  -2.8392
    -2.8205  -2.7911  -2.7503  -2.7453  -2.7368  -2.7186  -2.6715  -2.6630
    -2.6224  -2.4857  -2.4711  -2.4513  -2.3923  -2.3286  -2.2977  -2.2464
    -2.2188  -2.2053  -2.1785  -2.1708  -2.1656  -2.1363  -2.1088  -1.9524
    -1.9108  -1.8090  -1.7766  -1.7513  -1.7302  -1.6756  -1.6720  -1.6421
    -1.6192  -1.5872  -1.5269  -1.4934  -1.4518  -1.3272  -1.3058  -1.2661
    -1.2486  -1.1898  -1.0930  -1.0041  -0.9911  -0.9481  -0.9289  -0.8828
    -0.8688  -0.8395  -0.7605  -0.7029  -0.5959  -0.5657  -0.5536  -0.5310
    -0.5008  -0.4585  -0.4110  -0.3427  -0.3273  -0.2082  -0.1393  -0.0932
    -0.0276   0.0386   0.0784   0.1190   0.1709   0.2666   0.2862   0.3604
     0.3745   0.4947   0.6035   0.6213   0.7744   0.8067   0.8756   0.9159
     0.9206   0.9313   0.9489   0.9604   1.0131   1.0893   1.5862   2.9554
     2.9584   3.0157   3.0215   3.3313   3.3323   3.4422   3.4441   3.7598
     3.7696

     the Fermi energy is     2.0642 ev

!    total energy              =   -2954.01292462 Ry
     estimated scf accuracy    <       0.00000006 Ry
     smearing contrib. (-TS)   =      -0.00173466 Ry
     internal energy E=F+TS    =   -2954.01118996 Ry

     The total energy is F=E-TS. E is the sum of the following terms:
     one-electron contribution =  -24214.00830828 Ry
     hartree contribution      =   12197.08269452 Ry
     xc contribution           =    -488.74910191 Ry
     ewald contribution        =    9551.66343833 Ry
     electric field correction =       0.00008738 Ry

     convergence has been achieved in  63 iterations

     Forces acting on atoms (cartesian axes, Ry/au):

     atom    1 type  1   force =     0.00017713   -0.00053090    0.12569905
     atom    2 type  1   force =     0.00001210    0.00026665   -0.15439773
     atom    3 type  2   force =     0.00002298   -0.00022365   -0.06670760
     atom    4 type  2   force =    -0.00002022    0.00008603    0.01671076
     atom    5 type  2   force =    -0.00392137   -0.00229192   -0.01290982
     atom    6 type  2   force =     0.00531831   -0.00149538   -0.01431913
     atom    7 type  1   force =    -0.00049125   -0.00698156    0.05722687
     atom    8 type  1   force =     0.00071750    0.00723176    0.09830882
     atom    9 type  2   force =     0.00002786    0.00007911   -0.00007246
     atom   10 type  2   force =    -0.00290183    0.00059210   -0.06193574
     atom   11 type  2   force =    -0.00003196   -0.00005601   -0.00002000
     atom   12 type  2   force =    -0.00005268    0.00016063    0.00015147
     atom   13 type  1   force =     0.00010470    0.00015840   -0.00010987
     atom   14 type  1   force =     0.00001599   -0.00006846    0.00010616
     atom   15 type  2   force =    -0.00002782    0.00004825   -0.00002342
     atom   16 type  2   force =     0.00005670    0.00014977   -0.00019718
     atom   17 type  2   force =     0.00000427    0.00010951    0.00016934
     atom   18 type  2   force =    -0.00001643    0.00026547   -0.00006110
     atom   19 type  1   force =    -0.00012197   -0.00000321    0.00011234
     atom   20 type  1   force =     0.00023508    0.00020659    0.00016086
     atom   21 type  2   force =     0.00006970    0.00021665    0.09784195
     atom   22 type  2   force =     0.00037747   -0.00002771    0.00003914
     atom   23 type  2   force =    -0.08272294    0.00009089   -0.03301671
     atom   24 type  2   force =     0.08268413    0.00050686   -0.03306636
     atom   25 type  1   force =     0.00010131   -0.00059943    0.12554167
     atom   26 type  1   force =     0.00000384   -0.00169641   -0.15481158
     atom   27 type  2   force =     0.00008966   -0.00077007   -0.06514453
     atom   28 type  2   force =     0.00004980    0.00188223    0.01156200
     atom   29 type  2   force =    -0.00252238    0.00468311   -0.01585140
     atom   30 type  2   force =     0.00369401    0.00502069   -0.01728104
     atom   31 type  1   force =    -0.00029306    0.00180940    0.04011548
     atom   32 type  1   force =     0.00091201   -0.01042045    0.09797937
     atom   33 type  2   force =    -0.00004433   -0.00001592    0.00012694
     atom   34 type  2   force =    -0.00230121    0.00077862   -0.07402783
     atom   35 type  2   force =     0.00010504    0.00002525    0.00001159
     atom   36 type  2   force =    -0.00008551   -0.00007864   -0.00004249
     atom   37 type  1   force =     0.00035405    0.00005408    0.00009396
     atom   38 type  1   force =     0.00011670   -0.00006579   -0.00029070
     atom   39 type  2   force =     0.00016321   -0.00010411   -0.00008429
     atom   40 type  2   force =     0.00001649    0.00003976   -0.00014991
     atom   41 type  2   force =    -0.00000020    0.00016401    0.00009383
     atom   42 type  2   force =    -0.00001461    0.00003165    0.00008707
     atom   43 type  1   force =     0.00019802   -0.00016474   -0.00008464
     atom   44 type  1   force =     0.00031245    0.00012805    0.00020738
     atom   45 type  2   force =     0.00004484    0.00004543    0.09762001
     atom   46 type  2   force =    -0.08278619    0.00004914   -0.03303677
     atom   47 type  2   force =     0.08271486    0.00048278   -0.03305341
     atom   48 type  3   force =    -0.00018224    0.00004129    0.00008460
     atom   49 type  4   force =     0.00009151    0.00013970    0.00002681
     atom   50 type  5   force =    -0.00016149   -0.00063958    0.00024974
     atom   51 type  3   force =    -0.00009854    0.00008218    0.00020988
     atom   52 type  3   force =    -0.00017797    0.00050905    0.00004067
     atom   53 type  3   force =     0.00022753    0.00028580    0.00011771
     atom   54 type  2   force =     0.00033393   -0.00061707    0.00089321
     atom   55 type  3   force =    -0.00037693    0.00043014   -0.00089295

     Total force =     0.417211     Total SCF correction =     0.000770
  @ DRIVER MODE: Message from server: STATUS
  @ DRIVER MODE: Message from server: GETFORCE
  @ DRIVER MODE: Returning v,forces,stress,ensemble

     Writing output data file ./calc.save/
  @ DRIVER MODE: Message from server: EXIT
  @ DRIVE MODE: Exiting

     General routines

     Parallel routines

   This run was terminated on:  11: 2:25  23Sep2021

   JOB DONE.