     Program PWSCF v.6.7GPU starts on 26Sep2021 at  2:48:12

     R & G space division:  proc/nbgrp/npool/nimage =       8
     Reading input from /storage/home/hcoda1/3/ntian30/research/carbon/CxH_vib/H2O_calc/ads_slab/CH3OHN2HO_a/out_0022/pw.inp
Warning: card &CELL ignored
Warning: card   CELL_DYNAMICS='IPI', ignored
Warning: card / ignored

     Current dimensions of program PWSCF are:
     Max number of different atomic species (ntypx) = 10
     Max number of k-points (npk) =  40000
     Max angular momentum in pseudopotentials (lmaxx) =  3
     Presently no symmetry can be used with electric field

     Message from routine cell_base_init:
     DEPRECATED: use true lattice parameter, not A to a.u. conversion factor

     IMPORTANT: XC functional enforced from input :
     Exchange-correlation= BEEF-VDW
                           (   1   4  43  14   2   0   0)
     Any further DFT definition will be discarded
     Please, verify this is what you really want

  @ DRIVER MODE: Connecting to
 qe_1139763_2971668.sched-torque.pace.gatech.eduq9t02kdr_scratch
  using UNIX socket
  @ DRIVER MODE: Message from server: STATUS
  @ DRIVER MODE: Message from server: INIT
  @ DRIVER MODE: Receiving replica           0          -1
  @ DRIVER MODE: Receiving encoded integer          25
  @ DRIVER MODE:  SCF:  T  FORCE:  T  STRESS:  F  VC:  F  ENSEMBLE:  F
  @ DRIVER MODE:  SCF:  T  FORCE:  T  STRESS:  F  VC:  F  ENSEMBLE:  F

     Using Slab Decomposition

     bravais-lattice index     =            0
     lattice parameter (alat)  =       1.8897  a.u.
     unit-cell volume          =    6658.9804 (a.u.)^3
     number of atoms/cell      =           57
     number of atomic types    =            5
     number of electrons       =       409.00
     number of Kohn-Sham states=          214
     kinetic-energy cutoff     =      29.3995  Ry
     charge density cutoff     =     293.9946  Ry
     scf convergence threshold =      7.3E-08
     mixing beta               =       0.0500
     number of iterations used =            8  plain     mixing
     Exchange-correlation= BEEF-VDW
                           (   1   4  43  14   2   0   0)

     celldm(1)=   1.889726  celldm(2)=   0.000000  celldm(3)=   0.000000
     celldm(4)=   0.000000  celldm(5)=   0.000000  celldm(6)=   0.000000

     crystal axes: (cart. coord. in units of alat)
               a(1) = (   6.579727   0.000000   0.000000 )
               a(2) = (  -0.000775   5.961596   0.000000 )
               a(3) = (   0.000000   0.000000  25.155947 )

     reciprocal axes: (cart. coord. in units 2 pi/alat)
               b(1) = (  0.151982  0.000020  0.000000 )
               b(2) = (  0.000000  0.167740  0.000000 )
               b(3) = (  0.000000  0.000000  0.039752 )

     PseudoPot. # 1 for Ti read from file:
     /storage/coda1/p-amedford6/0/shared/rich_project_chbe-medford/medford-share/data/pseudos_module/espresso/nninc/pbe/van/Ti.UPF
     MD5 check sum: 8e4df49b7f0d34bbd5052bf3f5ea0213
     Pseudo is Ultrasoft, Zval = 12.0
     Generated by new atomic code, or converted to UPF format
     Using radial grid of  851 points,  6 beta functions with:
                l(1) =   0
                l(2) =   0
                l(3) =   1
                l(4) =   1
                l(5) =   2
                l(6) =   2
     Q(r) pseudized with  8 coefficients,  rinner =    1.000   1.000   1.000
                                                       1.000   1.000

     PseudoPot. # 2 for O  read from file:
     /storage/coda1/p-amedford6/0/shared/rich_project_chbe-medford/medford-share/data/pseudos_module/espresso/nninc/pbe/van/O.UPF
     MD5 check sum: 78c19812648e8988a0fe644b0f25305e
     Pseudo is Ultrasoft, Zval =  6.0
     Generated by new atomic code, or converted to UPF format
     Using radial grid of  737 points,  4 beta functions with:
                l(1) =   0
                l(2) =   0
                l(3) =   1
                l(4) =   1
     Q(r) pseudized with  8 coefficients,  rinner =    0.800   0.800   0.800

     PseudoPot. # 3 for C  read from file:
     /storage/coda1/p-amedford6/0/shared/rich_project_chbe-medford/medford-share/data/pseudos_module/espresso/nninc/pbe/van/C.UPF
     MD5 check sum: 1a69bf6b8db32088f5b2163dbdb77a27
     Pseudo is Ultrasoft, Zval =  4.0
     Generated by new atomic code, or converted to UPF format
     Using radial grid of  721 points,  4 beta functions with:
                l(1) =   0
                l(2) =   0
                l(3) =   1
                l(4) =   1
     Q(r) pseudized with  8 coefficients,  rinner =    0.800   0.800   0.800

     PseudoPot. # 4 for H  read from file:
     /storage/coda1/p-amedford6/0/shared/rich_project_chbe-medford/medford-share/data/pseudos_module/espresso/nninc/pbe/van/H.UPF
     MD5 check sum: b5ee9d7bfd3a09ee7748110bda690ff7
     Pseudo is Ultrasoft, Zval =  1.0
     Generated by new atomic code, or converted to UPF format
     Using radial grid of  615 points,  1 beta functions with:
                l(1) =   0
     Q(r) pseudized with  8 coefficients,  rinner =    0.800

     PseudoPot. # 5 for N  read from file:
     /storage/coda1/p-amedford6/0/shared/rich_project_chbe-medford/medford-share/data/pseudos_module/espresso/nninc/pbe/van/N.UPF
     MD5 check sum: 90d10febe142ad51ac9d5be1deb811c4
     Pseudo is Ultrasoft, Zval =  5.0
     Generated by new atomic code, or converted to UPF format
     Using radial grid of  729 points,  4 beta functions with:
                l(1) =   0
                l(2) =   0
                l(3) =   1
                l(4) =   1
     Q(r) pseudized with  8 coefficients,  rinner =    0.800   0.800   0.800

     atomic species   valence    mass     pseudopotential
        Ti1           12.00    47.86700     Ti( 1.00)
        O1             6.00    15.99900     O ( 1.00)
        C1             4.00    12.01100     C ( 1.00)
        H1             1.00     1.00800     H ( 1.00)
        N1             5.00    14.00700     N ( 1.00)

     No symmetry found

   Cartesian axes

     site n.     atom                  positions (alat units)
         1           Ti1 tau(   1) = (   0.0004258   2.9801865   6.0000000  )
         2           Ti1 tau(   2) = (   3.2906075   1.4906267   6.0002472  )
         3           O1  tau(   3) = (   0.0006271   0.0005054   7.9858123  )
         4           O1  tau(   4) = (   3.2906025   0.0005020   7.3038282  )
         5           O1  tau(   5) = (   4.5942328   1.4918067   9.2879030  )
         6           O1  tau(   6) = (   1.9868534   1.4903216   9.2879459  )
         7           Ti1 tau(   7) = (   3.3371032   3.0268772   9.1887580  )
         8           Ti1 tau(   8) = (   0.0611061   1.5258697   9.2809523  )
         9           O1  tau(   9) = (   3.3143856   0.0188946  11.3581724  )
        10           O1  tau(  10) = (   0.0164151   0.0031400  10.5895864  )
        11           O1  tau(  11) = (   1.3088961   1.4994640  12.6347600  )
        12           O1  tau(  12) = (   5.3347766   1.4946156  12.6347356  )
        13           Ti1 tau(  13) = (   0.0202478   3.0292801  12.5720800  )
        14           Ti1 tau(  14) = (   3.3188568   1.5851219  12.4260843  )
        15           O1  tau(  15) = (   0.0445434   5.9450813  14.6510506  )
        16           O1  tau(  16) = (   3.3207065   5.8849141  14.0104376  )
        17           O1  tau(  17) = (   4.6249962   1.5116716  16.1313945  )
        18           O1  tau(  18) = (   2.0639035   1.5439872  16.0680944  )
        19           Ti1 tau(  19) = (   3.3360141   2.9454253  15.6763505  )
        20           Ti1 tau(  20) = (   0.0686920   1.3314864  15.9334539  )
        21           O1  tau(  21) = (   3.2904802   0.0005063   4.7018136  )
        22           O1  tau(  22) = (   0.0979609   0.0039778  17.1657837  )
        23           O1  tau(  23) = (   1.3043587   1.4918075   6.0039043  )
        24           O1  tau(  24) = (   5.2767064   1.4903225   6.0039473  )
        25           Ti1 tau(  25) = (   0.0000382   5.9609847   6.0000000  )
        26           Ti1 tau(  26) = (   3.2902200   4.4714249   6.0002472  )
        27           O1  tau(  27) = (   0.0002396   2.9813036   7.9858123  )
        28           O1  tau(  28) = (   3.2902150   2.9813002   7.3038282  )
        29           O1  tau(  29) = (   4.5938453   4.4726049   9.2879030  )
        30           O1  tau(  30) = (   1.9864658   4.4711199   9.2879459  )
        31           Ti1 tau(  31) = (   3.3368545   0.0404040   9.1664313  )
        32           Ti1 tau(  32) = (   0.0604674   4.4799263   9.2696248  )
        33           O1  tau(  33) = (   3.3137611   2.9662427  11.3084074  )
        34           O1  tau(  34) = (   0.0134136   2.9850836  10.6046154  )
        35           O1  tau(  35) = (   1.3054726   4.4719986  12.6384794  )
        36           O1  tau(  36) = (   5.3362180   4.4781181  12.6390536  )
        37           Ti1 tau(  37) = (   0.0365240   0.0487139  12.4702884  )
        38           Ti1 tau(  38) = (   3.3180881   4.6653017  12.7087268  )
        39           O1  tau(  39) = (   0.0228105   2.9918545  14.7761892  )
        40           O1  tau(  40) = (   3.3431522   2.9700269  13.9040455  )
        41           O1  tau(  41) = (   4.6265974   4.4152401  16.1544535  )
        42           O1  tau(  42) = (   2.0571238   4.3592187  16.1146037  )
        43           Ti1 tau(  43) = (   3.3848590   5.9294639  16.2700006  )
        44           Ti1 tau(  44) = (   0.0517009   4.5268197  15.8466567  )
        45           O1  tau(  45) = (   3.2900926   2.9813045   4.7018136  )
        46           O1  tau(  46) = (   1.3039711   4.4726057   6.0039043  )
        47           O1  tau(  47) = (   5.2763189   4.4711207   6.0039473  )
        48           C1  tau(  48) = (   5.9450987   3.0517216  18.8599509  )
        49           O1  tau(  49) = (   0.1802289   3.0084098  17.6484507  )
        50           H1  tau(  50) = (   4.9625852   2.6832861  18.5889656  )
        51           H1  tau(  51) = (   1.1163247   3.1542434  17.8758057  )
        52           H1  tau(  52) = (   6.3899442   2.3914015  19.6026461  )
        53           H1  tau(  53) = (   5.8846647   4.0795385  19.2151274  )
        54           N1  tau(  54) = (   5.7598779   3.1323611  22.9045362  )
        55           N1  tau(  55) = (   4.9845974   3.1850264  22.1203839  )
        56           O1  tau(  56) = (   3.1467188   0.0118795  18.1166202  )
        57           H1  tau(  57) = (   2.2164505   0.0865285  18.3868412  )

     number of k points=    10  Fermi-Dirac smearing, width (Ry)=  0.0073
                       cart. coord. in units 2pi/alat
        k(    1) = (   0.0000000   0.0000000   0.0000000), wk =   0.1250000
        k(    2) = (   0.0000000   0.0419351   0.0000000), wk =   0.2500000
        k(    3) = (   0.0000000  -0.0838702   0.0000000), wk =   0.1250000
        k(    4) = (   0.0379955   0.0000049   0.0000000), wk =   0.2500000
        k(    5) = (   0.0379955   0.0419400   0.0000000), wk =   0.2500000
        k(    6) = (   0.0379955  -0.0838652   0.0000000), wk =   0.2500000
        k(    7) = (   0.0379955  -0.0419301   0.0000000), wk =   0.2500000
        k(    8) = (  -0.0759910  -0.0000099   0.0000000), wk =   0.1250000
        k(    9) = (  -0.0759910   0.0419252   0.0000000), wk =   0.2500000
        k(   10) = (  -0.0759910  -0.0838800   0.0000000), wk =   0.1250000

     Initial potential from superposition of free atoms

     starting charge  392.99914, renormalised to  409.00000

     negative rho (up, down):  9.139E-03 0.000E+00

     %%%%%%%%%%%%%%%%%%%%%%%%%%%%%%%%%%%%%%%%%%%%%%%%%%%%%%%%%%%%%%%%%%%%%%%%
     %                                                                      %
     % You are using vdW-DF, which was implemented by the Thonhauser group. %
     % Please cite the following two papers that made this development      %
     % possible and the two reviews that describe the various versions:     %
     %                                                                      %
     %   T. Thonhauser et al., PRL 115, 136402 (2015).                      %
     %   T. Thonhauser et al., PRB 76, 125112 (2007).                       %
     %   K. Berland et al., Rep. Prog. Phys. 78, 066501 (2015).             %
     %   D.C. Langreth et al., J. Phys.: Condens. Matter 21, 084203 (2009). %
     %                                                                      %
     %                                                                      %
     % If you are calculating the stress with vdW-DF, please also cite:     %
     %                                                                      %
     %   R. Sabatini et al., J. Phys.: Condens. Matter 24, 424209 (2012).   %
     %                                                                      %
     %%%%%%%%%%%%%%%%%%%%%%%%%%%%%%%%%%%%%%%%%%%%%%%%%%%%%%%%%%%%%%%%%%%%%%%%

     Adding external electric field

     Computed dipole along edir(3) :
        Dipole              -18.8687 Ry au,        -47.9594 Debye
        Dipole field         -0.0356 Ry au,

        Potential amp.        3.3008 Ry
        Total length         46.3494 bohr

     Starting wfcs are  309 atomic wfcs
  @ DRIVER MODE: Message from server: STATUS
  @ DRIVER MODE: Message from server: POSDATA
  @ DRIVER MODE: Reading and sharing cell
  @ DRIVER MODE: Reading and sharing positions
  @ DRIVER MODE: Received positions

     Self-consistent Calculation

     iteration #  1     ecut=    29.40 Ry     beta= 0.05
     Davidson diagonalization with overlap
     c_bands:  5 eigenvalues not converged
     c_bands:  5 eigenvalues not converged
     c_bands:  1 eigenvalues not converged
     c_bands:  4 eigenvalues not converged
     c_bands:  1 eigenvalues not converged
     c_bands:  3 eigenvalues not converged
     ethr =  1.00E-05,  avg # of iterations = 27.3

[...]

     total energy              =   -2113.20194899 Ry
     estimated scf accuracy    <   10331.03579359 Ry

     iteration #  2     ecut=    29.40 Ry     beta= 0.05
     Davidson diagonalization with overlap
     ethr =  1.00E-02,  avg # of iterations = 30.4

[...]

     iteration # 74     ecut=    29.40 Ry     beta= 0.05
     Davidson diagonalization with overlap
     c_bands:  1 eigenvalues not converged
     ethr =  8.11E-11,  avg # of iterations = 14.7

[...]

     total energy              =   -3006.45833287 Ry
     estimated scf accuracy    <       0.00000010 Ry

     iteration # 77     ecut=    29.40 Ry     beta= 0.05
     Davidson diagonalization with overlap
     ethr =  2.47E-11,  avg # of iterations =  6.6

     negative rho (up, down):  1.064E-02 0.000E+00

     Adding external electric field

     Computed dipole along edir(3) :
        Dipole                1.0498 Ry au,          2.6683 Debye
        Dipole field          0.0020 Ry au,

        Potential amp.       -0.1836 Ry
        Total length         46.3494 bohr

     End of self-consistent calculation

          k = 0.0000 0.0000 0.0000 ( 18029 PWs)   bands (ev):

   -55.3298 -55.2541 -55.2189 -55.1447 -55.1229 -55.0881 -55.0519 -55.0476
   -55.0457 -55.0264 -55.0163 -54.9864 -54.8998 -54.8237 -54.2138 -54.1798
   -31.7321 -31.7235 -31.6359 -31.6243 -31.5833 -31.5696 -31.5452 -31.5432
   -31.5083 -31.4969 -31.4857 -31.4210 -31.4078 -31.4077 -31.3810 -31.3627
   -31.3542 -31.3370 -31.3362 -31.3249 -31.3176 -31.3128 -31.2670 -31.2648
   -31.2629 -31.2562 -31.2534 -31.2402 -31.2341 -31.2154 -31.2086 -31.1979
   -31.1963 -31.1763 -31.1719 -31.1638 -31.1628 -31.1285 -31.0885 -31.0691
   -31.0379 -31.0275 -30.6199 -30.5337 -30.5111 -30.4368 -30.3506 -30.2390
   -21.5051 -19.7037 -16.1363 -15.9062 -15.7269 -15.5250 -15.4682 -15.4017
   -15.2145 -15.1411 -14.9852 -14.8599 -14.8454 -14.7885 -14.7875 -14.7774
   -14.7485 -14.7235 -14.6782 -14.6668 -14.6615 -14.6579 -14.5964 -14.5538
   -14.5515 -14.5241 -14.5035 -14.3763 -14.3293 -14.2747 -14.1048 -14.0829
   -12.7133 -12.5972 -10.5674  -6.6847  -6.4044  -4.6664  -4.6288  -4.5897
    -4.4073  -3.6525  -3.3693  -3.2554  -3.1550  -3.1362  -3.0714  -3.0207
    -2.8059  -2.6985  -2.6366  -2.5238  -2.3967  -2.3606  -2.3075  -2.2784
    -2.1865  -2.1687  -2.1365  -2.1064  -2.0515  -2.0235  -2.0159  -2.0029
    -1.9273  -1.9208  -1.7912  -1.7860  -1.7299  -1.6376  -1.6200  -1.5971
    -1.5897  -1.5555  -1.5530  -1.5108  -1.4870  -1.4629  -1.4341  -1.3593
    -1.3401  -1.2766  -1.2397  -1.0071  -0.8526  -0.8280  -0.7482  -0.7319
    -0.7003  -0.6718  -0.6517  -0.6406  -0.6041  -0.5885  -0.4846  -0.3812
    -0.3725  -0.3130  -0.2752  -0.2704  -0.1348  -0.0899  -0.0157   0.0070
     0.0395   0.0604   0.1446   0.1935   0.2152   0.2814   0.3133   0.4186
     0.4560   0.4753   0.5164   0.5719   0.6324   0.6662   0.7056   0.7090
     0.7418   0.7909   0.8204   0.8550   0.8773   0.9244   1.0272   1.0646
     1.0751   1.2157   1.2268   1.3089   1.4338   1.4856   1.7587   1.8112
     1.8579   2.0036   2.3801   2.4270   3.8698   3.9725   3.9934   4.0147
     4.0824   4.1642   4.3296   4.3528   4.4176   4.5451

[...]

          k = 0.0380-0.0419 0.0000 ( 17876 PWs)   bands (ev):

[...]

          k =-0.0760-0.0000 0.0000 ( 17886 PWs)   bands (ev):

[...]

          k =-0.0760-0.0839 0.0000 ( 17948 PWs)   bands (ev):

   -55.3290 -55.2410 -55.2318 -55.1388 -55.1185 -55.0939 -55.0515 -55.0467
   -55.0380 -55.0297 -55.0174 -54.9957 -54.8961 -54.8273 -54.1969 -54.1965
   -31.6431 -31.5793 -31.5697 -31.5520 -31.5431 -31.5429 -31.5371 -31.5212
   -31.4590 -31.4544 -31.4155 -31.3943 -31.3824 -31.3773 -31.3609 -31.3589
   -31.3551 -31.3534 -31.3464 -31.3407 -31.3356 -31.3335 -31.3182 -31.3163
   -31.2975 -31.2866 -31.2574 -31.2510 -31.2480 -31.2436 -31.2357 -31.2346
   -31.2280 -31.2230 -31.2193 -31.2149 -31.2123 -31.1741 -31.1555 -31.0926
   -31.0751 -31.0314 -30.5240 -30.5237 -30.4337 -30.4322 -30.3939 -30.3929
   -21.5050 -19.6999 -16.1127 -15.5362 -15.3797 -15.2086 -15.1948 -15.1154
   -15.0239 -15.0061 -14.9756 -14.9621 -14.9451 -14.9207 -14.9123 -14.8782
   -14.8144 -14.7726 -14.7495 -14.7412 -14.6942 -14.6890 -14.6855 -14.6226
   -14.6154 -14.5972 -14.5725 -14.5126 -14.5039 -14.4032 -14.3884 -14.2161
   -12.6995 -12.6986 -10.5695  -6.6850  -6.4062  -4.6620  -4.6357  -4.5772
    -4.3997  -3.6179  -3.3597  -2.6845  -2.5999  -2.5349  -2.4324  -2.3541
    -2.3002  -2.2508  -2.2297  -2.1847  -2.1636  -2.0941  -2.0594  -2.0506
    -2.0312  -2.0291  -1.9985  -1.9832  -1.9703  -1.9492  -1.9208  -1.9035
    -1.8930  -1.8719  -1.8521  -1.8264  -1.8142  -1.8041  -1.7895  -1.7735
    -1.6625  -1.6458  -1.6135  -1.4506  -1.4391  -1.3699  -1.3383  -1.3118
    -1.3082  -1.2778  -1.2628  -1.2207  -1.1150  -1.0878  -1.0381  -0.9956
    -0.9033  -0.8878  -0.8369  -0.7862  -0.7402  -0.7116  -0.6812  -0.6659
    -0.6120  -0.4739  -0.4531  -0.4079  -0.2888  -0.2155  -0.1998  -0.1873
    -0.1655  -0.1425  -0.0958  -0.0878  -0.0258  -0.0133   0.0576   0.0616
     0.0906   0.1121   0.2146   0.3368   0.4154   0.4590   0.5041   0.5535
     0.5874   0.6692   0.7459   0.8321   0.9082   0.9378   0.9514   1.0693
     1.1016   1.1542   1.2002   1.2202   1.2787   1.3144   1.3546   1.3877
     2.1723   2.1859   2.2423   2.2479   4.0506   4.3006   4.3605   4.3777
     4.3873   4.4198   4.4411   4.4921   4.5090   4.5341

     the Fermi energy is     3.8800 ev

!    total energy              =   -3006.45834935 Ry
     estimated scf accuracy    <       0.00000005 Ry
     smearing contrib. (-TS)   =      -0.02082566 Ry
     internal energy E=F+TS    =   -3006.43752369 Ry

     The total energy is F=E-TS. E is the sum of the following terms:
     one-electron contribution =  -22317.78284065 Ry
     hartree contribution      =   11258.41214365 Ry
     xc contribution           =    -501.14499083 Ry
     ewald contribution        =    8554.07608436 Ry
     electric field correction =       0.00207978 Ry

     convergence has been achieved in  77 iterations

     Forces acting on atoms (cartesian axes, Ry/au):

     atom    1 type  1   force =    -0.00037698   -0.00017441    0.09499148
     atom    2 type  1   force =    -0.00035535    0.00512781   -0.17481332
     atom    3 type  2   force =     0.00070899    0.00012910   -0.02673821
     atom    4 type  2   force =     0.00128905    0.00083201    0.05204788
     atom    5 type  2   force =    -0.01096499   -0.00256489    0.00077678
     atom    6 type  2   force =     0.01193450   -0.00381458    0.00178504
     atom    7 type  1   force =    -0.00022034    0.00038683    0.00065246
     atom    8 type  1   force =     0.00013605    0.00022494    0.00015724
     atom    9 type  2   force =     0.00024897    0.00076083   -0.00066442
     atom   10 type  2   force =    -0.00039155    0.00015793    0.00012797
     atom   11 type  2   force =     0.00044153   -0.00015063    0.00010191
     atom   12 type  2   force =    -0.00084961   -0.00015001    0.00035949
     atom   13 type  1   force =     0.00043102    0.00035112   -0.00022765
     atom   14 type  1   force =    -0.00033842   -0.00070202    0.00093691
     atom   15 type  2   force =    -0.00014385   -0.00053178   -0.00098733
     atom   16 type  2   force =    -0.00027696   -0.00001585   -0.00021798
     atom   17 type  2   force =    -0.00096892    0.00031450    0.00000623
     atom   18 type  2   force =     0.00057802    0.00063349   -0.00019600
     atom   19 type  1   force =     0.00023542   -0.00097617    0.00025040
     atom   20 type  1   force =    -0.00004572    0.00018247    0.00055842
     atom   21 type  2   force =    -0.00000459    0.00007575    0.10302732
     atom   22 type  2   force =    -0.00001429   -0.00024479    0.00099426
     atom   23 type  2   force =    -0.07194687    0.00013877   -0.02803725
     atom   24 type  2   force =     0.07178472    0.00063518   -0.02813942
     atom   25 type  1   force =    -0.00035832    0.00025707    0.10242996
     atom   26 type  1   force =    -0.00010888   -0.00475417   -0.17505084
     atom   27 type  2   force =     0.00084966    0.00117206   -0.02485571
     atom   28 type  2   force =     0.00119707    0.00025568    0.05167745
     atom   29 type  2   force =    -0.01192257    0.00381786    0.00172184
     atom   30 type  2   force =     0.01376014    0.00146714    0.00244863
     atom   31 type  1   force =    -0.00028944   -0.00016849    0.00079678
     atom   32 type  1   force =     0.00028783    0.00029075    0.00059346
     atom   33 type  2   force =     0.00000674    0.00020528    0.00008652
     atom   34 type  2   force =    -0.00027169   -0.00032276   -0.00057491
     atom   35 type  2   force =    -0.00023029    0.00004883   -0.00047484
     atom   36 type  2   force =    -0.00037857    0.00009270   -0.00009491
     atom   37 type  1   force =    -0.00005873   -0.00035545    0.00003006
     atom   38 type  1   force =    -0.00056529    0.00028058   -0.00000067
     atom   39 type  2   force =    -0.00025191   -0.00023498    0.00078490
     atom   40 type  2   force =    -0.00019788    0.00012551    0.00030996
     atom   41 type  2   force =    -0.00144264   -0.00024132   -0.00007017
     atom   42 type  2   force =     0.00098048   -0.00016134   -0.00032965
     atom   43 type  1   force =    -0.00017927    0.00068603    0.00020717
     atom   44 type  1   force =    -0.00029085    0.00014520   -0.00008552
     atom   45 type  2   force =     0.00000092    0.00014196    0.10260948
     atom   46 type  2   force =    -0.07184020   -0.00062630   -0.02798374
     atom   47 type  2   force =     0.07169864   -0.00013524   -0.02805855
     atom   48 type  3   force =    -0.00036436   -0.00012109   -0.00000730
     atom   49 type  2   force =     0.00128240   -0.00004093    0.00097327
     atom   50 type  4   force =    -0.00005533   -0.00044372   -0.00022156
     atom   51 type  4   force =    -0.00202071   -0.00032146   -0.00140414
     atom   52 type  4   force =    -0.00018070    0.00008287   -0.00045469
     atom   53 type  4   force =    -0.00006660   -0.00040649   -0.00105352
     atom   54 type  5   force =     0.00010571   -0.00007924    0.00032217
     atom   55 type  5   force =    -0.00047388    0.00006366   -0.00030973
     atom   56 type  2   force =     0.00078048   -0.00063393    0.00047582
     atom   57 type  4   force =    -0.00029179   -0.00071183   -0.00118920

     Total force =     0.364811     Total SCF correction =     0.000601
  @ DRIVER MODE: Message from server: STATUS
  @ DRIVER MODE: Message from server: GETFORCE
  @ DRIVER MODE: Returning v,forces,stress,ensemble

     Writing output data file ./calc.save/
  @ DRIVER MODE: Message from server: EXIT
  @ DRIVE MODE: Exiting

     General routines

     Parallel routines

   This run was terminated on:   3:18:46  26Sep2021

   JOB DONE.