     Program PWSCF v.6.7GPU starts on  9Sep2021 at  4:58:43

     R & G space division:  proc/nbgrp/npool/nimage =      10
     Reading input from /storage/home/hcoda1/3/ntian30/research/carbon/CxH_vib/CH3_calc/ads_slab/CH3NH2NH_c/out_0021/pw.inp
Warning: card &CELL ignored
Warning: card   CELL_DYNAMICS='IPI', ignored
Warning: card / ignored

     Current dimensions of program PWSCF are:
     Max number of different atomic species (ntypx) = 10
     Max number of k-points (npk) =  40000
     Max angular momentum in pseudopotentials (lmaxx) =  3
     Presently no symmetry can be used with electric field

     Message from routine cell_base_init:
     DEPRECATED: use true lattice parameter, not A to a.u. conversion factor

     IMPORTANT: XC functional enforced from input :
     Exchange-correlation= BEEF-VDW
                           (   1   4  43  14   2   0   0)
     Any further DFT definition will be discarded
     Please, verify this is what you really want

  @ DRIVER MODE: Connecting to
 qe_1139763_2767400.sched-torque.pace.gatech.edux1h186i__scratch
  using UNIX socket
  @ DRIVER MODE: Message from server: STATUS
  @ DRIVER MODE: Message from server: INIT
  @ DRIVER MODE: Receiving replica           0          -1
  @ DRIVER MODE: Receiving encoded integer          25
  @ DRIVER MODE:  SCF:  T  FORCE:  T  STRESS:  F  VC:  F  ENSEMBLE:  F
  @ DRIVER MODE:  SCF:  T  FORCE:  T  STRESS:  F  VC:  F  ENSEMBLE:  F

     Using Slab Decomposition

     bravais-lattice index     =            0
     lattice parameter (alat)  =       1.8897  a.u.
     unit-cell volume          =    6658.9804 (a.u.)^3
     number of atoms/cell      =           56
     number of atomic types    =            5
     number of electrons       =       398.00
     number of Kohn-Sham states=          209
     kinetic-energy cutoff     =      29.3995  Ry
     charge density cutoff     =     293.9946  Ry
     scf convergence threshold =      7.3E-08
     mixing beta               =       0.0500
     number of iterations used =            8  plain     mixing
     Exchange-correlation= BEEF-VDW
                           (   1   4  43  14   2   0   0)

     celldm(1)=   1.889726  celldm(2)=   0.000000  celldm(3)=   0.000000
     celldm(4)=   0.000000  celldm(5)=   0.000000  celldm(6)=   0.000000

     crystal axes: (cart. coord. in units of alat)
               a(1) = (   6.579727   0.000000   0.000000 )
               a(2) = (  -0.000775   5.961596   0.000000 )
               a(3) = (   0.000000   0.000000  25.155947 )

     reciprocal axes: (cart. coord. in units 2 pi/alat)
               b(1) = (  0.151982  0.000020  0.000000 )
               b(2) = (  0.000000  0.167740  0.000000 )
               b(3) = (  0.000000  0.000000  0.039752 )

     PseudoPot. # 1 for Ti read from file:
     /storage/coda1/p-amedford6/0/shared/rich_project_chbe-medford/medford-share/data/pseudos_module/espresso/nninc/pbe/van/Ti.UPF
     MD5 check sum: 8e4df49b7f0d34bbd5052bf3f5ea0213
     Pseudo is Ultrasoft, Zval = 12.0
     Generated by new atomic code, or converted to UPF format
     Using radial grid of  851 points,  6 beta functions with:
                l(1) =   0
                l(2) =   0
                l(3) =   1
                l(4) =   1
                l(5) =   2
                l(6) =   2
     Q(r) pseudized with  8 coefficients,  rinner =    1.000   1.000   1.000
                                                       1.000   1.000

     PseudoPot. # 2 for O  read from file:
     /storage/coda1/p-amedford6/0/shared/rich_project_chbe-medford/medford-share/data/pseudos_module/espresso/nninc/pbe/van/O.UPF
     MD5 check sum: 78c19812648e8988a0fe644b0f25305e
     Pseudo is Ultrasoft, Zval =  6.0
     Generated by new atomic code, or converted to UPF format
     Using radial grid of  737 points,  4 beta functions with:
                l(1) =   0
                l(2) =   0
                l(3) =   1
                l(4) =   1
     Q(r) pseudized with  8 coefficients,  rinner =    0.800   0.800   0.800

     PseudoPot. # 3 for N  read from file:
     /storage/coda1/p-amedford6/0/shared/rich_project_chbe-medford/medford-share/data/pseudos_module/espresso/nninc/pbe/van/N.UPF
     MD5 check sum: 90d10febe142ad51ac9d5be1deb811c4
     Pseudo is Ultrasoft, Zval =  5.0
     Generated by new atomic code, or converted to UPF format
     Using radial grid of  729 points,  4 beta functions with:
                l(1) =   0
                l(2) =   0
                l(3) =   1
                l(4) =   1
     Q(r) pseudized with  8 coefficients,  rinner =    0.800   0.800   0.800

     PseudoPot. # 4 for C  read from file:
     /storage/coda1/p-amedford6/0/shared/rich_project_chbe-medford/medford-share/data/pseudos_module/espresso/nninc/pbe/van/C.UPF
     MD5 check sum: 1a69bf6b8db32088f5b2163dbdb77a27
     Pseudo is Ultrasoft, Zval =  4.0
     Generated by new atomic code, or converted to UPF format
     Using radial grid of  721 points,  4 beta functions with:
                l(1) =   0
                l(2) =   0
                l(3) =   1
                l(4) =   1
     Q(r) pseudized with  8 coefficients,  rinner =    0.800   0.800   0.800

     PseudoPot. # 5 for H  read from file:
     /storage/coda1/p-amedford6/0/shared/rich_project_chbe-medford/medford-share/data/pseudos_module/espresso/nninc/pbe/van/H.UPF
     MD5 check sum: b5ee9d7bfd3a09ee7748110bda690ff7
     Pseudo is Ultrasoft, Zval =  1.0
     Generated by new atomic code, or converted to UPF format
     Using radial grid of  615 points,  1 beta functions with:
                l(1) =   0
     Q(r) pseudized with  8 coefficients,  rinner =    0.800

     atomic species   valence    mass     pseudopotential
        Ti1           12.00    47.86700     Ti( 1.00)
        O1             6.00    15.99900     O ( 1.00)
        N1             5.00    14.00700     N ( 1.00)
        C1             4.00    12.01100     C ( 1.00)
        H1             1.00     1.00800     H ( 1.00)

     No symmetry found

   Cartesian axes

     site n.     atom                  positions (alat units)
         1           Ti1 tau(   1) = (   0.0004258   2.9801865   6.0000000  )
         2           Ti1 tau(   2) = (   3.2906075   1.4906267   6.0002472  )
         3           O1  tau(   3) = (   0.0006271   0.0005054   7.9858123  )
         4           O1  tau(   4) = (   3.2906025   0.0005020   7.3038282  )
         5           O1  tau(   5) = (   4.5942328   1.4918067   9.2879030  )
         6           O1  tau(   6) = (   1.9868534   1.4903216   9.2879459  )
         7           Ti1 tau(   7) = (   3.2907910   2.8959150   9.1758416  )
         8           Ti1 tau(   8) = (   0.0015273   1.4827037   9.2680791  )
         9           O1  tau(   9) = (   3.3032705   0.0110091  11.3485381  )
        10           O1  tau(  10) = (   0.0116148   5.9584955  10.6183126  )
        11           O1  tau(  11) = (   1.3020657   1.4959176  12.6398190  )
        12           O1  tau(  12) = (   5.2896457   1.4919019  12.6612249  )
        13           Ti1 tau(  13) = (   0.0353884   3.0012823  12.5523301  )
        14           Ti1 tau(  14) = (   3.3275346   1.5008247  12.4978572  )
        15           O1  tau(  15) = (   0.0424128   0.0047235  14.7277795  )
        16           O1  tau(  16) = (   3.2762846   0.0047332  13.9819514  )
        17           O1  tau(  17) = (   4.5591522   1.5298593  16.0930730  )
        18           O1  tau(  18) = (   2.0612242   1.5646392  16.2256692  )
        19           Ti1 tau(  19) = (   3.3170857   3.0293758  15.7013767  )
        20           Ti1 tau(  20) = (   6.5267591   1.5471840  15.7818195  )
        21           O1  tau(  21) = (   3.2904802   0.0005063   4.7018136  )
        22           O1  tau(  22) = (   0.0258072   0.0396315  17.3287798  )
        23           O1  tau(  23) = (   1.3043587   1.4918075   6.0039043  )
        24           O1  tau(  24) = (   5.2767064   1.4903225   6.0039473  )
        25           Ti1 tau(  25) = (   0.0000382   5.9609847   6.0000000  )
        26           Ti1 tau(  26) = (   3.2902200   4.4714249   6.0002472  )
        27           O1  tau(  27) = (   0.0002396   2.9813036   7.9858123  )
        28           O1  tau(  28) = (   3.2902150   2.9813002   7.3038282  )
        29           O1  tau(  29) = (   4.5938453   4.4726049   9.2879030  )
        30           O1  tau(  30) = (   1.9864658   4.4711199   9.2879459  )
        31           Ti1 tau(  31) = (   3.2891106   5.8743827   9.1763621  )
        32           Ti1 tau(  32) = (   0.0006254   4.4649316   9.2693709  )
        33           O1  tau(  33) = (   3.3047253   2.9863606  11.3412877  )
        34           O1  tau(  34) = (   0.0092240   2.9805883  10.6323155  )
        35           O1  tau(  35) = (   1.3023160   4.4818153  12.6295520  )
        36           O1  tau(  36) = (   5.2910779   4.4839738  12.6480862  )
        37           Ti1 tau(  37) = (   0.0306270   0.0097343  12.5156175  )
        38           Ti1 tau(  38) = (   3.3295341   4.4791655  12.4867326  )
        39           O1  tau(  39) = (   0.0319336   2.9935560  14.7343221  )
        40           O1  tau(  40) = (   3.2835893   3.0037955  13.9224844  )
        41           O1  tau(  41) = (   4.5669158   4.4809188  16.1713821  )
        42           O1  tau(  42) = (   2.0542530   4.4668402  16.2247519  )
        43           Ti1 tau(  43) = (   3.3000170   0.0150779  15.7669526  )
        44           Ti1 tau(  44) = (   0.0416703   4.6955124  16.1636639  )
        45           O1  tau(  45) = (   3.2900926   2.9813045   4.7018136  )
        46           O1  tau(  46) = (   1.3039711   4.4726057   6.0039043  )
        47           O1  tau(  47) = (   5.2763189   4.4711207   6.0039473  )
        48           N1  tau(  48) = (   0.9019483   2.4226080  18.4567899  )
        49           N1  tau(  49) = (   6.4923839   2.9153054  17.5348467  )
        50           C1  tau(  50) = (   1.2734633   3.3482217  19.5544901  )
        51           H1  tau(  51) = (   0.3921683   3.5364126  20.1615046  )
        52           H1  tau(  52) = (   2.0553077   2.8833093  20.1573268  )
        53           H1  tau(  53) = (   1.6239766   4.2728770  19.1044814  )
        54           H1  tau(  54) = (   0.5870980   1.4942747  18.7832689  )
        55           H1  tau(  55) = (   5.5983569   2.8486818  18.0159164  )
        56           H1  tau(  56) = (   1.7025450   2.1792920  17.8234971  )

     number of k points=    10  Fermi-Dirac smearing, width (Ry)=  0.0073
                       cart. coord. in units 2pi/alat
        k(    1) = (   0.0000000   0.0000000   0.0000000), wk =   0.1250000
        k(    2) = (   0.0000000   0.0419351   0.0000000), wk =   0.2500000
        k(    3) = (   0.0000000  -0.0838702   0.0000000), wk =   0.1250000
        k(    4) = (   0.0379955   0.0000049   0.0000000), wk =   0.2500000
        k(    5) = (   0.0379955   0.0419400   0.0000000), wk =   0.2500000
        k(    6) = (   0.0379955  -0.0838652   0.0000000), wk =   0.2500000
        k(    7) = (   0.0379955  -0.0419301   0.0000000), wk =   0.2500000
        k(    8) = (  -0.0759910  -0.0000099   0.0000000), wk =   0.1250000
        k(    9) = (  -0.0759910   0.0419252   0.0000000), wk =   0.2500000
        k(   10) = (  -0.0759910  -0.0838800   0.0000000), wk =   0.1250000

     Initial potential from superposition of free atoms

     starting charge  381.99914, renormalised to  398.00000

     negative rho (up, down):  1.484E-02 0.000E+00

     %%%%%%%%%%%%%%%%%%%%%%%%%%%%%%%%%%%%%%%%%%%%%%%%%%%%%%%%%%%%%%%%%%%%%%%%
     %                                                                      %
     % You are using vdW-DF, which was implemented by the Thonhauser group. %
     % Please cite the following two papers that made this development      %
     % possible and the two reviews that describe the various versions:     %
     %                                                                      %
     %   T. Thonhauser et al., PRL 115, 136402 (2015).                      %
     %   T. Thonhauser et al., PRB 76, 125112 (2007).                       %
     %   K. Berland et al., Rep. Prog. Phys. 78, 066501 (2015).             %
     %   D.C. Langreth et al., J. Phys.: Condens. Matter 21, 084203 (2009). %
     %                                                                      %
     %                                                                      %
     % If you are calculating the stress with vdW-DF, please also cite:     %
     %                                                                      %
     %   R. Sabatini et al., J. Phys.: Condens. Matter 24, 424209 (2012).   %
     %                                                                      %
     %%%%%%%%%%%%%%%%%%%%%%%%%%%%%%%%%%%%%%%%%%%%%%%%%%%%%%%%%%%%%%%%%%%%%%%%

     Adding external electric field

     Computed dipole along edir(3) :
        Dipole              -10.9106 Ry au,        -27.7320 Debye
        Dipole field         -0.0206 Ry au,

        Potential amp.        1.9086 Ry
        Total length         46.3494 bohr

     Starting wfcs are  302 atomic wfcs
  @ DRIVER MODE: Message from server: STATUS
  @ DRIVER MODE: Message from server: POSDATA
  @ DRIVER MODE: Reading and sharing cell
  @ DRIVER MODE: Reading and sharing positions
  @ DRIVER MODE: Received positions

     Self-consistent Calculation

     iteration #  1     ecut=    29.40 Ry     beta= 0.05
     Davidson diagonalization with overlap
     c_bands:  5 eigenvalues not converged
     c_bands:  3 eigenvalues not converged
     c_bands:  1 eigenvalues not converged
     c_bands:  2 eigenvalues not converged
     c_bands:  3 eigenvalues not converged
     c_bands:  4 eigenvalues not converged
     c_bands:  4 eigenvalues not converged
     ethr =  1.00E-05,  avg # of iterations = 24.4

[...]

     total energy              =   -2445.35424148 Ry
     estimated scf accuracy    <    5568.59199025 Ry

     iteration #  2     ecut=    29.40 Ry     beta= 0.05
     Davidson diagonalization with overlap
     ethr =  1.00E-02,  avg # of iterations = 22.4

[...]

     iteration # 72     ecut=    29.40 Ry     beta= 0.05
     Davidson diagonalization with overlap
     ethr =  9.79E-11,  avg # of iterations = 12.0

[...]

     total energy              =   -2942.84153123 Ry
     estimated scf accuracy    <       0.00000012 Ry

     iteration # 76     ecut=    29.40 Ry     beta= 0.05
     Davidson diagonalization with overlap
     c_bands:  1 eigenvalues not converged
     ethr =  2.92E-11,  avg # of iterations = 12.5

     negative rho (up, down):  1.047E-02 0.000E+00

     Adding external electric field

     Computed dipole along edir(3) :
        Dipole                1.5788 Ry au,          4.0129 Debye
        Dipole field          0.0030 Ry au,

        Potential amp.       -0.2762 Ry
        Total length         46.3494 bohr

     End of self-consistent calculation

          k = 0.0000 0.0000 0.0000 ( 18029 PWs)   bands (ev):

   -55.0914 -55.0560 -55.0523 -55.0219 -54.9686 -54.9661 -54.9286 -54.8918
   -54.8835 -54.8693 -54.8561 -54.8512 -54.8042 -54.7596 -54.0661 -54.0321
   -31.6654 -31.5455 -31.4555 -31.4257 -31.3867 -31.3821 -31.3804 -31.3507
   -31.3477 -31.3463 -31.3031 -31.3012 -31.3005 -31.2660 -31.2478 -31.2282
   -31.2085 -31.2047 -31.1954 -31.1935 -31.1670 -31.1496 -31.1481 -31.1221
   -31.1127 -31.0988 -31.0959 -31.0938 -31.0903 -31.0771 -31.0722 -31.0650
   -31.0525 -31.0417 -31.0231 -31.0152 -31.0075 -31.0017 -30.9973 -30.9915
   -30.9871 -30.9523 -30.4746 -30.3828 -30.3606 -30.2912 -30.2045 -30.0934
   -19.1625 -15.9341 -15.6596 -15.5370 -15.3263 -15.2769 -15.2038 -15.0086
   -14.9438 -14.8879 -14.8775 -14.8660 -14.8492 -14.7780 -14.6989 -14.6185
   -14.6159 -14.6090 -14.5980 -14.5804 -14.5732 -14.5107 -14.5034 -14.4715
   -14.4595 -14.4193 -14.3122 -14.2305 -14.1736 -14.0225 -13.3297 -12.5687
   -12.4516 -11.1104  -7.8833  -6.5497  -5.8613  -4.1155  -3.9531  -3.2793
    -3.0941  -3.0707  -3.0095  -2.9845  -2.8097  -2.7600  -2.5562  -2.4485
    -2.3611  -2.3221  -2.3098  -2.2932  -2.1429  -2.0752  -2.0409  -1.9936
    -1.9699  -1.9472  -1.9059  -1.8982  -1.8676  -1.8496  -1.8411  -1.6637
    -1.5879  -1.5392  -1.5092  -1.4712  -1.4215  -1.3932  -1.3751  -1.3704
    -1.3652  -1.3461  -1.3145  -1.2535  -1.2248  -1.1686  -1.1009  -1.0741
    -0.9844  -0.9023  -0.7149  -0.6690  -0.6515  -0.6153  -0.5553  -0.5064
    -0.4723  -0.4373  -0.4230  -0.3565  -0.2876  -0.2550  -0.1924  -0.1281
    -0.1175  -0.0547  -0.0475   0.1139   0.1256   0.1470   0.2383   0.3245
     0.3724   0.3805   0.4389   0.5128   0.5351   0.5448   0.5812   0.6016
     0.6782   0.7874   0.8121   0.8538   0.8653   0.8989   0.9220   0.9767
     1.0004   1.0632   1.0694   1.1739   1.2231   1.2558   1.5056   1.5386
     1.8691   1.9025   1.9564   2.1431   2.5303   2.5774   4.0168   4.0795
     4.0930   4.1425   4.1658   4.1847   4.2569   4.4776   4.5028   4.5091
     4.5165

[...]

          k = 0.0380-0.0419 0.0000 ( 17876 PWs)   bands (ev):

[...]

          k =-0.0760-0.0000 0.0000 ( 17886 PWs)   bands (ev):

[...]

          k =-0.0760-0.0839 0.0000 ( 17948 PWs)   bands (ev):

   -55.0793 -55.0642 -55.0391 -55.0387 -54.9655 -54.9549 -54.9397 -54.8747
   -54.8721 -54.8713 -54.8693 -54.8671 -54.7982 -54.7656 -54.0491 -54.0490
   -31.4730 -31.4634 -31.4006 -31.3608 -31.3605 -31.3591 -31.3319 -31.3314
   -31.3004 -31.2964 -31.2915 -31.2854 -31.2599 -31.2256 -31.2185 -31.2125
   -31.2104 -31.2066 -31.2059 -31.1970 -31.1649 -31.1638 -31.1601 -31.1582
   -31.1578 -31.1550 -31.1506 -31.1343 -31.1087 -31.1051 -31.0989 -31.0898
   -31.0879 -31.0859 -31.0849 -31.0688 -31.0505 -31.0491 -31.0381 -31.0324
   -31.0078 -30.9914 -30.3734 -30.3732 -30.2873 -30.2871 -30.2479 -30.2478
   -19.1585 -15.4173 -15.3270 -15.1786 -15.1590 -15.1101 -15.0620 -15.0456
   -15.0280 -14.9719 -14.9324 -14.8865 -14.8379 -14.7949 -14.7927 -14.7540
   -14.6820 -14.6605 -14.6585 -14.6439 -14.5931 -14.5823 -14.5548 -14.5360
   -14.5310 -14.4878 -14.4283 -14.4247 -14.3852 -14.2062 -13.3400 -12.5533
   -12.5531 -11.1129  -7.8935  -6.5335  -5.8504  -4.0852  -3.9485  -2.6863
    -2.5870  -2.5277  -2.4205  -2.3337  -2.2934  -2.2588  -2.1241  -2.1046
    -2.0860  -2.0600  -2.0470  -2.0129  -2.0051  -1.9570  -1.9278  -1.9175
    -1.9112  -1.8984  -1.8762  -1.8283  -1.8058  -1.7962  -1.7868  -1.7481
    -1.7342  -1.7023  -1.6963  -1.6574  -1.6359  -1.5507  -1.4616  -1.4218
    -1.3715  -1.3063  -1.2722  -1.2655  -1.1722  -1.1640  -1.1409  -1.1075
    -1.0621  -0.9416  -0.8843  -0.8214  -0.8175  -0.8044  -0.6975  -0.6598
    -0.6294  -0.5941  -0.5569  -0.5267  -0.4883  -0.4414  -0.3646  -0.3338
    -0.2943  -0.2580  -0.1857  -0.0976  -0.0786  -0.0475  -0.0433   0.0429
     0.0678   0.1062   0.1153   0.1345   0.1912   0.2043   0.2915   0.3815
     0.4460   0.5342   0.6477   0.6524   0.7297   0.8216   0.9091   0.9471
     0.9990   1.0643   1.0667   1.1003   1.2214   1.2286   1.3502   1.3890
     1.3977   1.4201   2.3155   2.3165   2.3976   2.3976   4.1459   4.2436
     4.2826   4.3237   4.3758   4.5211   4.5443   4.5898   4.5903   4.6619
     4.7013

     the Fermi energy is     4.0633 ev

!    total energy              =   -2942.84154316 Ry
     estimated scf accuracy    <       0.00000003 Ry
     smearing contrib. (-TS)   =      -0.03724918 Ry
     internal energy E=F+TS    =   -2942.80429398 Ry

     The total energy is F=E-TS. E is the sum of the following terms:
     one-electron contribution =  -23856.54178351 Ry
     hartree contribution      =   12023.60402870 Ry
     xc contribution           =    -487.75699459 Ry
     ewald contribution        =    9377.88575146 Ry
     electric field correction =       0.00470396 Ry

     convergence has been achieved in  76 iterations

     Forces acting on atoms (cartesian axes, Ry/au):

     atom    1 type  1   force =     0.00001860   -0.00023483    0.09431021
     atom    2 type  1   force =    -0.00015696   -0.00055614   -0.17709775
     atom    3 type  2   force =     0.00001677   -0.00024674   -0.02147203
     atom    4 type  2   force =    -0.00001455   -0.00167580    0.05642456
     atom    5 type  2   force =    -0.01049222   -0.00075163    0.00562973
     atom    6 type  2   force =     0.01225816   -0.00009621    0.00552269
     atom    7 type  1   force =    -0.00024310    0.00107277   -0.01569690
     atom    8 type  1   force =    -0.00006942    0.00526733    0.00657036
     atom    9 type  2   force =    -0.00030523    0.00055655    0.00022493
     atom   10 type  2   force =    -0.00199814    0.00266124   -0.00433704
     atom   11 type  2   force =     0.00039688   -0.00023042    0.00028056
     atom   12 type  2   force =    -0.00007762   -0.00029522   -0.00019179
     atom   13 type  1   force =    -0.00073215    0.00044524   -0.00004894
     atom   14 type  1   force =     0.00037680   -0.00016482    0.00002587
     atom   15 type  2   force =    -0.00018816   -0.00059712   -0.00039588
     atom   16 type  2   force =     0.00005302    0.00037764   -0.00031457
     atom   17 type  2   force =     0.00078798    0.00016545    0.00039076
     atom   18 type  2   force =    -0.00011111    0.00006926   -0.00020433
     atom   19 type  1   force =     0.00030317    0.00074875    0.00035529
     atom   20 type  1   force =    -0.00045346    0.00019411    0.00058729
     atom   21 type  2   force =    -0.00001972   -0.00011480    0.10365460
     atom   22 type  2   force =     0.00017723    0.00031364    0.00036552
     atom   23 type  2   force =    -0.07091405   -0.00021735   -0.02719801
     atom   24 type  2   force =     0.07071472    0.00023380   -0.02724666
     atom   25 type  1   force =     0.00001667   -0.00027290    0.09398253
     atom   26 type  1   force =    -0.00025206   -0.00054495   -0.17736978
     atom   27 type  2   force =     0.00005907   -0.00008145   -0.02061205
     atom   28 type  2   force =     0.00002497   -0.00136356    0.05572118
     atom   29 type  2   force =    -0.01079404   -0.00000762    0.00592538
     atom   30 type  2   force =     0.01248326    0.00027972    0.00577572
     atom   31 type  1   force =    -0.00017232    0.00517942   -0.01627808
     atom   32 type  1   force =    -0.00008980   -0.00626750    0.00670111
     atom   33 type  2   force =    -0.00009682   -0.00047636    0.00024997
     atom   34 type  2   force =    -0.00163513    0.00066845   -0.00772603
     atom   35 type  2   force =    -0.00033028    0.00006342    0.00042571
     atom   36 type  2   force =     0.00057946    0.00006450   -0.00006364
     atom   37 type  1   force =    -0.00082431   -0.00078373   -0.00008973
     atom   38 type  1   force =     0.00048255    0.00001205    0.00043322
     atom   39 type  2   force =    -0.00028796   -0.00019369    0.00058899
     atom   40 type  2   force =    -0.00005524   -0.00018822   -0.00023574
     atom   41 type  2   force =     0.00010678   -0.00047403    0.00027891
     atom   42 type  2   force =    -0.00018029   -0.00029357    0.00053091
     atom   43 type  1   force =     0.00001396   -0.00066579   -0.00017735
     atom   44 type  1   force =     0.00026178    0.00043443    0.00036681
     atom   45 type  2   force =    -0.00002374   -0.00011651    0.10365502
     atom   46 type  2   force =    -0.07092323   -0.00013541   -0.02717139
     atom   47 type  2   force =     0.07072629    0.00028573   -0.02724170
     atom   48 type  3   force =     0.00061392    0.00070854   -0.00026149
     atom   49 type  3   force =     0.00036352   -0.00089463    0.00084653
     atom   50 type  4   force =     0.00187079   -0.00208793   -0.00093127
     atom   51 type  5   force =    -0.00120804    0.00163243    0.00187239
     atom   52 type  5   force =    -0.00003826    0.00031467   -0.00021271
     atom   53 type  5   force =    -0.00040063   -0.00017704    0.00078767
     atom   54 type  5   force =     0.00020704   -0.00022362   -0.00001149
     atom   55 type  5   force =    -0.00017906   -0.00053530    0.00016918
     atom   56 type  5   force =     0.00035372   -0.00078430   -0.00006728

     Total force =     0.365686     Total SCF correction =     0.000309
  @ DRIVER MODE: Message from server: STATUS
  @ DRIVER MODE: Message from server: GETFORCE
  @ DRIVER MODE: Returning v,forces,stress,ensemble

     Writing output data file ./calc.save/
  @ DRIVER MODE: Message from server: EXIT
  @ DRIVE MODE: Exiting

     General routines

     Parallel routines

   This run was terminated on:   5:20: 0   9Sep2021

   JOB DONE.