     Program PWSCF v.6.7GPU starts on  9Sep2021 at 11:19:44

     R & G space division:  proc/nbgrp/npool/nimage =      10
     Reading input from /storage/home/hcoda1/3/ntian30/research/carbon/CxH_vib/CH3_calc/ads_slab/CH3NH2NH_c/out_0040/pw.inp
Warning: card &CELL ignored
Warning: card   CELL_DYNAMICS='IPI', ignored
Warning: card / ignored

     Current dimensions of program PWSCF are:
     Max number of different atomic species (ntypx) = 10
     Max number of k-points (npk) =  40000
     Max angular momentum in pseudopotentials (lmaxx) =  3
     Presently no symmetry can be used with electric field

     Message from routine cell_base_init:
     DEPRECATED: use true lattice parameter, not A to a.u. conversion factor

     IMPORTANT: XC functional enforced from input :
     Exchange-correlation= BEEF-VDW
                           (   1   4  43  14   2   0   0)
     Any further DFT definition will be discarded
     Please, verify this is what you really want

  @ DRIVER MODE: Connecting to
 qe_1139763_2767400.sched-torque.pace.gatech.eduk8sq_v2n_scratch
  using UNIX socket
  @ DRIVER MODE: Message from server: STATUS
  @ DRIVER MODE: Message from server: INIT
  @ DRIVER MODE: Receiving replica           0          -1
  @ DRIVER MODE: Receiving encoded integer          25
  @ DRIVER MODE:  SCF:  T  FORCE:  T  STRESS:  F  VC:  F  ENSEMBLE:  F
  @ DRIVER MODE:  SCF:  T  FORCE:  T  STRESS:  F  VC:  F  ENSEMBLE:  F

     Using Slab Decomposition

     bravais-lattice index     =            0
     lattice parameter (alat)  =       1.8897  a.u.
     unit-cell volume          =    6658.9804 (a.u.)^3
     number of atoms/cell      =           56
     number of atomic types    =            5
     number of electrons       =       398.00
     number of Kohn-Sham states=          209
     kinetic-energy cutoff     =      29.3995  Ry
     charge density cutoff     =     293.9946  Ry
     scf convergence threshold =      7.3E-08
     mixing beta               =       0.0500
     number of iterations used =            8  plain     mixing
     Exchange-correlation= BEEF-VDW
                           (   1   4  43  14   2   0   0)

     celldm(1)=   1.889726  celldm(2)=   0.000000  celldm(3)=   0.000000
     celldm(4)=   0.000000  celldm(5)=   0.000000  celldm(6)=   0.000000

     crystal axes: (cart. coord. in units of alat)
               a(1) = (   6.579727   0.000000   0.000000 )
               a(2) = (  -0.000775   5.961596   0.000000 )
               a(3) = (   0.000000   0.000000  25.155947 )

     reciprocal axes: (cart. coord. in units 2 pi/alat)
               b(1) = (  0.151982  0.000020  0.000000 )
               b(2) = (  0.000000  0.167740  0.000000 )
               b(3) = (  0.000000  0.000000  0.039752 )

     PseudoPot. # 1 for Ti read from file:
     /storage/coda1/p-amedford6/0/shared/rich_project_chbe-medford/medford-share/data/pseudos_module/espresso/nninc/pbe/van/Ti.UPF
     MD5 check sum: 8e4df49b7f0d34bbd5052bf3f5ea0213
     Pseudo is Ultrasoft, Zval = 12.0
     Generated by new atomic code, or converted to UPF format
     Using radial grid of  851 points,  6 beta functions with:
                l(1) =   0
                l(2) =   0
                l(3) =   1
                l(4) =   1
                l(5) =   2
                l(6) =   2
     Q(r) pseudized with  8 coefficients,  rinner =    1.000   1.000   1.000
                                                       1.000   1.000

     PseudoPot. # 2 for O  read from file:
     /storage/coda1/p-amedford6/0/shared/rich_project_chbe-medford/medford-share/data/pseudos_module/espresso/nninc/pbe/van/O.UPF
     MD5 check sum: 78c19812648e8988a0fe644b0f25305e
     Pseudo is Ultrasoft, Zval =  6.0
     Generated by new atomic code, or converted to UPF format
     Using radial grid of  737 points,  4 beta functions with:
                l(1) =   0
                l(2) =   0
                l(3) =   1
                l(4) =   1
     Q(r) pseudized with  8 coefficients,  rinner =    0.800   0.800   0.800

     PseudoPot. # 3 for N  read from file:
     /storage/coda1/p-amedford6/0/shared/rich_project_chbe-medford/medford-share/data/pseudos_module/espresso/nninc/pbe/van/N.UPF
     MD5 check sum: 90d10febe142ad51ac9d5be1deb811c4
     Pseudo is Ultrasoft, Zval =  5.0
     Generated by new atomic code, or converted to UPF format
     Using radial grid of  729 points,  4 beta functions with:
                l(1) =   0
                l(2) =   0
                l(3) =   1
                l(4) =   1
     Q(r) pseudized with  8 coefficients,  rinner =    0.800   0.800   0.800

     PseudoPot. # 4 for C  read from file:
     /storage/coda1/p-amedford6/0/shared/rich_project_chbe-medford/medford-share/data/pseudos_module/espresso/nninc/pbe/van/C.UPF
     MD5 check sum: 1a69bf6b8db32088f5b2163dbdb77a27
     Pseudo is Ultrasoft, Zval =  4.0
     Generated by new atomic code, or converted to UPF format
     Using radial grid of  721 points,  4 beta functions with:
                l(1) =   0
                l(2) =   0
                l(3) =   1
                l(4) =   1
     Q(r) pseudized with  8 coefficients,  rinner =    0.800   0.800   0.800

     PseudoPot. # 5 for H  read from file:
     /storage/coda1/p-amedford6/0/shared/rich_project_chbe-medford/medford-share/data/pseudos_module/espresso/nninc/pbe/van/H.UPF
     MD5 check sum: b5ee9d7bfd3a09ee7748110bda690ff7
     Pseudo is Ultrasoft, Zval =  1.0
     Generated by new atomic code, or converted to UPF format
     Using radial grid of  615 points,  1 beta functions with:
                l(1) =   0
     Q(r) pseudized with  8 coefficients,  rinner =    0.800

     atomic species   valence    mass     pseudopotential
        Ti1           12.00    47.86700     Ti( 1.00)
        O1             6.00    15.99900     O ( 1.00)
        N1             5.00    14.00700     N ( 1.00)
        C1             4.00    12.01100     C ( 1.00)
        H1             1.00     1.00800     H ( 1.00)

     No symmetry found

   Cartesian axes

     site n.     atom                  positions (alat units)
         1           Ti1 tau(   1) = (   0.0004258   2.9801865   6.0000000  )
         2           Ti1 tau(   2) = (   3.2906075   1.4906267   6.0002472  )
         3           O1  tau(   3) = (   0.0006271   0.0005054   7.9858123  )
         4           O1  tau(   4) = (   3.2906025   0.0005020   7.3038282  )
         5           O1  tau(   5) = (   4.5942328   1.4918067   9.2879030  )
         6           O1  tau(   6) = (   1.9868534   1.4903216   9.2879459  )
         7           Ti1 tau(   7) = (   3.2907910   2.8959150   9.1758416  )
         8           Ti1 tau(   8) = (   0.0015273   1.4827037   9.2680791  )
         9           O1  tau(   9) = (   3.3032705   0.0110091  11.3485381  )
        10           O1  tau(  10) = (   0.0116148   5.9584955  10.6183126  )
        11           O1  tau(  11) = (   1.3020657   1.4959176  12.6398190  )
        12           O1  tau(  12) = (   5.2896457   1.4919019  12.6612249  )
        13           Ti1 tau(  13) = (   0.0353884   3.0012823  12.5523301  )
        14           Ti1 tau(  14) = (   3.3275346   1.5008247  12.4978572  )
        15           O1  tau(  15) = (   0.0424128   0.0047235  14.7277795  )
        16           O1  tau(  16) = (   3.2762846   0.0047332  13.9819514  )
        17           O1  tau(  17) = (   4.5591522   1.5298593  16.0930730  )
        18           O1  tau(  18) = (   2.0612242   1.5646392  16.2256692  )
        19           Ti1 tau(  19) = (   3.3170857   3.0293758  15.7013767  )
        20           Ti1 tau(  20) = (   6.5267591   1.5471840  15.7818195  )
        21           O1  tau(  21) = (   3.2904802   0.0005063   4.7018136  )
        22           O1  tau(  22) = (   0.0258072   0.0396315  17.3287798  )
        23           O1  tau(  23) = (   1.3043587   1.4918075   6.0039043  )
        24           O1  tau(  24) = (   5.2767064   1.4903225   6.0039473  )
        25           Ti1 tau(  25) = (   0.0000382   5.9609847   6.0000000  )
        26           Ti1 tau(  26) = (   3.2902200   4.4714249   6.0002472  )
        27           O1  tau(  27) = (   0.0002396   2.9813036   7.9858123  )
        28           O1  tau(  28) = (   3.2902150   2.9813002   7.3038282  )
        29           O1  tau(  29) = (   4.5938453   4.4726049   9.2879030  )
        30           O1  tau(  30) = (   1.9864658   4.4711199   9.2879459  )
        31           Ti1 tau(  31) = (   3.2891106   5.8743827   9.1763621  )
        32           Ti1 tau(  32) = (   0.0006254   4.4649316   9.2693709  )
        33           O1  tau(  33) = (   3.3047253   2.9863606  11.3412877  )
        34           O1  tau(  34) = (   0.0092240   2.9805883  10.6323155  )
        35           O1  tau(  35) = (   1.3023160   4.4818153  12.6295520  )
        36           O1  tau(  36) = (   5.2910779   4.4839738  12.6480862  )
        37           Ti1 tau(  37) = (   0.0306270   0.0097343  12.5156175  )
        38           Ti1 tau(  38) = (   3.3295341   4.4791655  12.4867326  )
        39           O1  tau(  39) = (   0.0319336   2.9935560  14.7343221  )
        40           O1  tau(  40) = (   3.2835893   3.0037955  13.9224844  )
        41           O1  tau(  41) = (   4.5669158   4.4809188  16.1713821  )
        42           O1  tau(  42) = (   2.0542530   4.4668402  16.2247519  )
        43           Ti1 tau(  43) = (   3.3000170   0.0150779  15.7669526  )
        44           Ti1 tau(  44) = (   0.0416703   4.6955124  16.1636639  )
        45           O1  tau(  45) = (   3.2900926   2.9813045   4.7018136  )
        46           O1  tau(  46) = (   1.3039711   4.4726057   6.0039043  )
        47           O1  tau(  47) = (   5.2763189   4.4711207   6.0039473  )
        48           N1  tau(  48) = (   0.9019483   2.4226080  18.4567899  )
        49           N1  tau(  49) = (   6.4923839   2.9153054  17.5348467  )
        50           C1  tau(  50) = (   1.2734633   3.3482217  19.5544901  )
        51           H1  tau(  51) = (   0.3921683   3.5464126  20.1615046  )
        52           H1  tau(  52) = (   2.0553077   2.8833093  20.1573268  )
        53           H1  tau(  53) = (   1.6239766   4.2728770  19.1044814  )
        54           H1  tau(  54) = (   0.5870980   1.5042747  18.7832689  )
        55           H1  tau(  55) = (   5.5983569   2.8486818  18.0159164  )
        56           H1  tau(  56) = (   1.7025450   2.1792920  17.8234971  )

     number of k points=    10  Fermi-Dirac smearing, width (Ry)=  0.0073
                       cart. coord. in units 2pi/alat
        k(    1) = (   0.0000000   0.0000000   0.0000000), wk =   0.1250000
        k(    2) = (   0.0000000   0.0419351   0.0000000), wk =   0.2500000
        k(    3) = (   0.0000000  -0.0838702   0.0000000), wk =   0.1250000
        k(    4) = (   0.0379955   0.0000049   0.0000000), wk =   0.2500000
        k(    5) = (   0.0379955   0.0419400   0.0000000), wk =   0.2500000
        k(    6) = (   0.0379955  -0.0838652   0.0000000), wk =   0.2500000
        k(    7) = (   0.0379955  -0.0419301   0.0000000), wk =   0.2500000
        k(    8) = (  -0.0759910  -0.0000099   0.0000000), wk =   0.1250000
        k(    9) = (  -0.0759910   0.0419252   0.0000000), wk =   0.2500000
        k(   10) = (  -0.0759910  -0.0838800   0.0000000), wk =   0.1250000

     Initial potential from superposition of free atoms

     starting charge  381.99914, renormalised to  398.00000

     negative rho (up, down):  1.484E-02 0.000E+00

     %%%%%%%%%%%%%%%%%%%%%%%%%%%%%%%%%%%%%%%%%%%%%%%%%%%%%%%%%%%%%%%%%%%%%%%%
     %                                                                      %
     % You are using vdW-DF, which was implemented by the Thonhauser group. %
     % Please cite the following two papers that made this development      %
     % possible and the two reviews that describe the various versions:     %
     %                                                                      %
     %   T. Thonhauser et al., PRL 115, 136402 (2015).                      %
     %   T. Thonhauser et al., PRB 76, 125112 (2007).                       %
     %   K. Berland et al., Rep. Prog. Phys. 78, 066501 (2015).             %
     %   D.C. Langreth et al., J. Phys.: Condens. Matter 21, 084203 (2009). %
     %                                                                      %
     %                                                                      %
     % If you are calculating the stress with vdW-DF, please also cite:     %
     %                                                                      %
     %   R. Sabatini et al., J. Phys.: Condens. Matter 24, 424209 (2012).   %
     %                                                                      %
     %%%%%%%%%%%%%%%%%%%%%%%%%%%%%%%%%%%%%%%%%%%%%%%%%%%%%%%%%%%%%%%%%%%%%%%%

     Adding external electric field

     Computed dipole along edir(3) :
        Dipole              -10.9106 Ry au,        -27.7320 Debye
        Dipole field         -0.0206 Ry au,

        Potential amp.        1.9086 Ry
        Total length         46.3494 bohr

     Starting wfcs are  302 atomic wfcs
  @ DRIVER MODE: Message from server: STATUS
  @ DRIVER MODE: Message from server: POSDATA
  @ DRIVER MODE: Reading and sharing cell
  @ DRIVER MODE: Reading and sharing positions
  @ DRIVER MODE: Received positions

     Self-consistent Calculation

     iteration #  1     ecut=    29.40 Ry     beta= 0.05
     Davidson diagonalization with overlap
     c_bands:  5 eigenvalues not converged
     c_bands:  4 eigenvalues not converged
     c_bands:  1 eigenvalues not converged
     c_bands:  2 eigenvalues not converged
     c_bands:  3 eigenvalues not converged
     c_bands:  4 eigenvalues not converged
     c_bands:  4 eigenvalues not converged
     ethr =  1.00E-05,  avg # of iterations = 24.5

[...]

     total energy              =   -2445.34022245 Ry
     estimated scf accuracy    <    5568.55126200 Ry

     iteration #  2     ecut=    29.40 Ry     beta= 0.05
     Davidson diagonalization with overlap
     ethr =  1.00E-02,  avg # of iterations = 22.7

[...]

     iteration # 72     ecut=    29.40 Ry     beta= 0.05
     Davidson diagonalization with overlap
     ethr =  2.98E-11,  avg # of iterations = 10.6

[...]

     total energy              =   -2942.84143058 Ry
     estimated scf accuracy    <       0.00000017 Ry

     iteration # 73     ecut=    29.40 Ry     beta= 0.05
     Davidson diagonalization with overlap
     c_bands:  1 eigenvalues not converged
     c_bands:  1 eigenvalues not converged
     ethr =  2.98E-11,  avg # of iterations = 13.7

     negative rho (up, down):  1.046E-02 0.000E+00

     Adding external electric field

     Computed dipole along edir(3) :
        Dipole                1.5778 Ry au,          4.0103 Debye
        Dipole field          0.0030 Ry au,

        Potential amp.       -0.2760 Ry
        Total length         46.3494 bohr

     End of self-consistent calculation

          k = 0.0000 0.0000 0.0000 ( 18029 PWs)   bands (ev):

   -55.0915 -55.0560 -55.0524 -55.0219 -54.9688 -54.9661 -54.9286 -54.8919
   -54.8835 -54.8694 -54.8561 -54.8513 -54.8039 -54.7585 -54.0661 -54.0321
   -31.6654 -31.5455 -31.4555 -31.4258 -31.3867 -31.3822 -31.3804 -31.3506
   -31.3470 -31.3463 -31.3032 -31.3012 -31.3005 -31.2660 -31.2478 -31.2283
   -31.2085 -31.2046 -31.1954 -31.1936 -31.1670 -31.1496 -31.1482 -31.1221
   -31.1128 -31.0987 -31.0955 -31.0938 -31.0902 -31.0769 -31.0722 -31.0651
   -31.0525 -31.0417 -31.0231 -31.0152 -31.0075 -31.0008 -30.9974 -30.9915
   -30.9859 -30.9514 -30.4746 -30.3828 -30.3606 -30.2911 -30.2044 -30.0934
   -19.1901 -15.9342 -15.6597 -15.5370 -15.3263 -15.2769 -15.2039 -15.0086
   -14.9435 -14.8879 -14.8777 -14.8660 -14.8493 -14.7780 -14.6989 -14.6184
   -14.6158 -14.6081 -14.5979 -14.5803 -14.5732 -14.5106 -14.5032 -14.4715
   -14.4594 -14.4191 -14.3122 -14.2305 -14.1736 -14.0196 -13.3355 -12.5686
   -12.4515 -11.1272  -7.9272  -6.5546  -5.8740  -4.1170  -3.9484  -3.2794
    -3.0944  -3.0715  -3.0095  -2.9845  -2.8100  -2.7601  -2.5590  -2.4485
    -2.3611  -2.3221  -2.3099  -2.2932  -2.1430  -2.0752  -2.0408  -1.9935
    -1.9697  -1.9472  -1.9058  -1.8982  -1.8676  -1.8495  -1.8409  -1.6637
    -1.5879  -1.5391  -1.5095  -1.4712  -1.4215  -1.3932  -1.3750  -1.3704
    -1.3651  -1.3460  -1.3146  -1.2535  -1.2231  -1.1686  -1.1007  -1.0742
    -0.9844  -0.9025  -0.7149  -0.6695  -0.6515  -0.6153  -0.5552  -0.5060
    -0.4723  -0.4373  -0.4226  -0.3565  -0.2876  -0.2550  -0.1923  -0.1281
    -0.1175  -0.0544  -0.0468   0.1137   0.1257   0.1470   0.2384   0.3244
     0.3724   0.3806   0.4388   0.5129   0.5353   0.5451   0.5811   0.6017
     0.6782   0.7874   0.8121   0.8539   0.8653   0.8990   0.9223   0.9770
     1.0006   1.0632   1.0695   1.1746   1.2236   1.2563   1.5057   1.5386
     1.8691   1.9025   1.9565   2.1431   2.5304   2.5775   4.0168   4.0795
     4.0924   4.1425   4.1658   4.1844   4.2569   4.4776   4.5028   4.5092
     4.5165

[...]

          k = 0.0380-0.0419 0.0000 ( 17876 PWs)   bands (ev):

[...]

          k =-0.0760-0.0000 0.0000 ( 17886 PWs)   bands (ev):

[...]

          k =-0.0760-0.0839 0.0000 ( 17948 PWs)   bands (ev):

   -55.0794 -55.0643 -55.0390 -55.0388 -54.9657 -54.9550 -54.9396 -54.8748
   -54.8722 -54.8713 -54.8693 -54.8671 -54.7980 -54.7643 -54.0491 -54.0489
   -31.4731 -31.4634 -31.4007 -31.3607 -31.3605 -31.3592 -31.3319 -31.3315
   -31.3004 -31.2964 -31.2915 -31.2855 -31.2592 -31.2258 -31.2186 -31.2125
   -31.2104 -31.2066 -31.2058 -31.1970 -31.1649 -31.1638 -31.1601 -31.1582
   -31.1579 -31.1551 -31.1507 -31.1342 -31.1088 -31.1051 -31.0981 -31.0898
   -31.0879 -31.0859 -31.0849 -31.0688 -31.0504 -31.0491 -31.0379 -31.0321
   -31.0068 -30.9902 -30.3733 -30.3732 -30.2872 -30.2870 -30.2478 -30.2478
   -19.1863 -15.4174 -15.3271 -15.1784 -15.1592 -15.1101 -15.0620 -15.0455
   -15.0281 -14.9719 -14.9325 -14.8864 -14.8379 -14.7949 -14.7927 -14.7538
   -14.6820 -14.6605 -14.6584 -14.6439 -14.5930 -14.5823 -14.5548 -14.5360
   -14.5310 -14.4877 -14.4282 -14.4246 -14.3849 -14.2024 -13.3458 -12.5532
   -12.5531 -11.1295  -7.9370  -6.5384  -5.8634  -4.0891  -3.9429  -2.6863
    -2.5871  -2.5317  -2.4203  -2.3338  -2.2935  -2.2590  -2.1239  -2.1044
    -2.0861  -2.0600  -2.0471  -2.0130  -2.0051  -1.9572  -1.9278  -1.9175
    -1.9112  -1.8984  -1.8762  -1.8281  -1.8057  -1.7962  -1.7868  -1.7481
    -1.7342  -1.7022  -1.6963  -1.6573  -1.6358  -1.5509  -1.4614  -1.4217
    -1.3716  -1.3056  -1.2722  -1.2654  -1.1721  -1.1640  -1.1408  -1.1074
    -1.0620  -0.9414  -0.8841  -0.8216  -0.8175  -0.8046  -0.6976  -0.6598
    -0.6292  -0.5941  -0.5563  -0.5265  -0.4884  -0.4414  -0.3646  -0.3338
    -0.2941  -0.2578  -0.1857  -0.0978  -0.0783  -0.0475  -0.0433   0.0426
     0.0678   0.1062   0.1154   0.1346   0.1913   0.2043   0.2916   0.3816
     0.4462   0.5343   0.6482   0.6528   0.7298   0.8218   0.9092   0.9474
     1.0003   1.0648   1.0679   1.1007   1.2214   1.2286   1.3502   1.3890
     1.3977   1.4202   2.3155   2.3165   2.3976   2.3977   4.1460   4.2435
     4.2825   4.3237   4.3757   4.5211   4.5442   4.5899   4.5902   4.6608
     4.6738

     the Fermi energy is     4.0633 ev

!    total energy              =   -2942.84144460 Ry
     estimated scf accuracy    <       0.00000004 Ry
     smearing contrib. (-TS)   =      -0.03724965 Ry
     internal energy E=F+TS    =   -2942.80419495 Ry

     The total energy is F=E-TS. E is the sum of the following terms:
     one-electron contribution =  -23856.60109749 Ry
     hartree contribution      =   12023.62774276 Ry
     xc contribution           =    -487.76259266 Ry
     ewald contribution        =    9377.92705458 Ry
     electric field correction =       0.00469785 Ry

     convergence has been achieved in  73 iterations

     Forces acting on atoms (cartesian axes, Ry/au):

     atom    1 type  1   force =     0.00001810   -0.00023639    0.09432635
     atom    2 type  1   force =    -0.00015802   -0.00055149   -0.17709557
     atom    3 type  2   force =     0.00001738   -0.00024531   -0.02147205
     atom    4 type  2   force =    -0.00001436   -0.00167639    0.05642502
     atom    5 type  2   force =    -0.01049303   -0.00075106    0.00562394
     atom    6 type  2   force =     0.01225894   -0.00009563    0.00551663
     atom    7 type  1   force =    -0.00024297    0.00107145   -0.01571692
     atom    8 type  1   force =    -0.00006874    0.00525226    0.00655750
     atom    9 type  2   force =    -0.00030491    0.00055947    0.00022264
     atom   10 type  2   force =    -0.00199824    0.00265906   -0.00434443
     atom   11 type  2   force =     0.00040334   -0.00022530    0.00027705
     atom   12 type  2   force =    -0.00008696   -0.00029398   -0.00019861
     atom   13 type  1   force =    -0.00072866    0.00044517   -0.00003804
     atom   14 type  1   force =     0.00037951   -0.00016703    0.00002742
     atom   15 type  2   force =    -0.00018551   -0.00055628   -0.00043844
     atom   16 type  2   force =     0.00005035    0.00038101   -0.00030424
     atom   17 type  2   force =     0.00077365    0.00018727    0.00040426
     atom   18 type  2   force =    -0.00014779    0.00015089   -0.00005398
     atom   19 type  1   force =     0.00033754    0.00079530    0.00033144
     atom   20 type  1   force =    -0.00048341    0.00005341    0.00058371
     atom   21 type  2   force =    -0.00002008   -0.00011534    0.10365068
     atom   22 type  2   force =     0.00015292    0.00014234    0.00007311
     atom   23 type  2   force =    -0.07091191   -0.00021240   -0.02719672
     atom   24 type  2   force =     0.07071181    0.00023996   -0.02724531
     atom   25 type  1   force =     0.00001819   -0.00027256    0.09399848
     atom   26 type  1   force =    -0.00025367   -0.00054742   -0.17736884
     atom   27 type  2   force =     0.00005974   -0.00007966   -0.02060718
     atom   28 type  2   force =     0.00002492   -0.00136389    0.05571797
     atom   29 type  2   force =    -0.01079665   -0.00000328    0.00591743
     atom   30 type  2   force =     0.01248547    0.00028345    0.00576830
     atom   31 type  1   force =    -0.00017326    0.00517646   -0.01629450
     atom   32 type  1   force =    -0.00008974   -0.00625713    0.00669435
     atom   33 type  2   force =    -0.00009669   -0.00047848    0.00024993
     atom   34 type  2   force =    -0.00163584    0.00066799   -0.00774116
     atom   35 type  2   force =    -0.00032987    0.00005889    0.00042089
     atom   36 type  2   force =     0.00057576    0.00005875   -0.00006879
     atom   37 type  1   force =    -0.00082373   -0.00078291   -0.00008088
     atom   38 type  1   force =     0.00048569    0.00001526    0.00043246
     atom   39 type  2   force =    -0.00028823   -0.00023121    0.00057376
     atom   40 type  2   force =    -0.00005564   -0.00019427   -0.00021846
     atom   41 type  2   force =     0.00007582   -0.00049154    0.00027736
     atom   42 type  2   force =    -0.00015305   -0.00031997    0.00052089
     atom   43 type  1   force =     0.00003809   -0.00072176   -0.00016484
     atom   44 type  1   force =     0.00024869    0.00066640    0.00055659
     atom   45 type  2   force =    -0.00002305   -0.00011683    0.10366466
     atom   46 type  2   force =    -0.07091957   -0.00014217   -0.02716746
     atom   47 type  2   force =     0.07072248    0.00027949   -0.02723865
     atom   48 type  3   force =     0.00328167    0.01193226   -0.00282377
     atom   49 type  3   force =     0.00007946   -0.00049096    0.00025524
     atom   50 type  4   force =     0.00098581    0.00044993   -0.00018786
     atom   51 type  5   force =     0.00018581   -0.00056394    0.00062343
     atom   52 type  5   force =    -0.00041304    0.00038814    0.00007188
     atom   53 type  5   force =     0.00042404   -0.00045576    0.00030750
     atom   54 type  5   force =    -0.00326776   -0.01165536    0.00393784
     atom   55 type  5   force =    -0.00014857   -0.00059042    0.00019183
     atom   56 type  5   force =     0.00051774   -0.00102846   -0.00013386

     Total force =     0.366111     Total SCF correction =     0.000458
  @ DRIVER MODE: Message from server: STATUS
  @ DRIVER MODE: Message from server: GETFORCE
  @ DRIVER MODE: Returning v,forces,stress,ensemble

     Writing output data file ./calc.save/
  @ DRIVER MODE: Message from server: EXIT
  @ DRIVE MODE: Exiting

     General routines

     Parallel routines

   This run was terminated on:  11:40:22   9Sep2021

   JOB DONE.