     Program PWSCF v.6.7GPU starts on 18Oct2021 at 20: 5:17

     R & G space division:  proc/nbgrp/npool/nimage =       8
     Reading input from /storage/home/hcoda1/3/ntian30/research/carbon/CxH_vib/Thiel_calc/ads_slab/N2HH_perslab/out_0017/pw.inp
Warning: card &CELL ignored
Warning: card   CELL_DYNAMICS='IPI', ignored
Warning: card / ignored

     Current dimensions of program PWSCF are:
     Max number of different atomic species (ntypx) = 10
     Max number of k-points (npk) =  40000
     Max angular momentum in pseudopotentials (lmaxx) =  3
     Presently no symmetry can be used with electric field

     Message from routine cell_base_init:
     DEPRECATED: use true lattice parameter, not A to a.u. conversion factor

     IMPORTANT: XC functional enforced from input :
     Exchange-correlation= BEEF-VDW
                           (   1   4  43  14   2   0   0)
     Any further DFT definition will be discarded
     Please, verify this is what you really want

  @ DRIVER MODE: Connecting to
 qe_1139763_3255130.sched-torque.pace.gatech.eduk90nfc80_scratch
  using UNIX socket
  @ DRIVER MODE: Message from server: STATUS
  @ DRIVER MODE: Message from server: INIT
  @ DRIVER MODE: Receiving replica           0          -1
  @ DRIVER MODE: Receiving encoded integer          25
  @ DRIVER MODE:  SCF:  T  FORCE:  T  STRESS:  F  VC:  F  ENSEMBLE:  F
  @ DRIVER MODE:  SCF:  T  FORCE:  T  STRESS:  F  VC:  F  ENSEMBLE:  F

     Using Slab Decomposition

     bravais-lattice index     =            0
     lattice parameter (alat)  =       1.8897  a.u.
     unit-cell volume          =    9988.4706 (a.u.)^3
     number of atoms/cell      =           57
     number of atomic types    =            4
     number of electrons       =       438.00
     number of Kohn-Sham states=          229
     kinetic-energy cutoff     =      29.3995  Ry
     charge density cutoff     =     293.9946  Ry
     scf convergence threshold =      7.3E-08
     mixing beta               =       0.0500
     number of iterations used =            8  plain     mixing
     Exchange-correlation= BEEF-VDW
                           (   1   4  43  14   2   0   0)

     celldm(1)=   1.889726  celldm(2)=   0.000000  celldm(3)=   0.000000
     celldm(4)=   0.000000  celldm(5)=   0.000000  celldm(6)=   0.000000

     crystal axes: (cart. coord. in units of alat)
               a(1) = (   6.579727   0.000000   0.000000 )
               a(2) = (  -0.001163   8.942395   0.000000 )
               a(3) = (   0.000000   0.000000  25.155947 )

     reciprocal axes: (cart. coord. in units 2 pi/alat)
               b(1) = (  0.151982  0.000020  0.000000 )
               b(2) = (  0.000000  0.111827  0.000000 )
               b(3) = (  0.000000  0.000000  0.039752 )

     PseudoPot. # 1 for O  read from file:
     /storage/coda1/p-amedford6/0/shared/rich_project_chbe-medford/medford-share/data/pseudos_module/espresso/nninc/pbe/van/O.UPF
     MD5 check sum: 78c19812648e8988a0fe644b0f25305e
     Pseudo is Ultrasoft, Zval =  6.0
     Generated by new atomic code, or converted to UPF format
     Using radial grid of  737 points,  4 beta functions with:
                l(1) =   0
                l(2) =   0
                l(3) =   1
                l(4) =   1
     Q(r) pseudized with  8 coefficients,  rinner =    0.800   0.800   0.800

     PseudoPot. # 2 for Ti read from file:
     /storage/coda1/p-amedford6/0/shared/rich_project_chbe-medford/medford-share/data/pseudos_module/espresso/nninc/pbe/van/Ti.UPF
     MD5 check sum: 8e4df49b7f0d34bbd5052bf3f5ea0213
     Pseudo is Ultrasoft, Zval = 12.0
     Generated by new atomic code, or converted to UPF format
     Using radial grid of  851 points,  6 beta functions with:
                l(1) =   0
                l(2) =   0
                l(3) =   1
                l(4) =   1
                l(5) =   2
                l(6) =   2
     Q(r) pseudized with  8 coefficients,  rinner =    1.000   1.000   1.000
                                                       1.000   1.000

     PseudoPot. # 3 for H  read from file:
     /storage/coda1/p-amedford6/0/shared/rich_project_chbe-medford/medford-share/data/pseudos_module/espresso/nninc/pbe/van/H.UPF
     MD5 check sum: b5ee9d7bfd3a09ee7748110bda690ff7
     Pseudo is Ultrasoft, Zval =  1.0
     Generated by new atomic code, or converted to UPF format
     Using radial grid of  615 points,  1 beta functions with:
                l(1) =   0
     Q(r) pseudized with  8 coefficients,  rinner =    0.800

     PseudoPot. # 4 for N  read from file:
     /storage/coda1/p-amedford6/0/shared/rich_project_chbe-medford/medford-share/data/pseudos_module/espresso/nninc/pbe/van/N.UPF
     MD5 check sum: 90d10febe142ad51ac9d5be1deb811c4
     Pseudo is Ultrasoft, Zval =  5.0
     Generated by new atomic code, or converted to UPF format
     Using radial grid of  729 points,  4 beta functions with:
                l(1) =   0
                l(2) =   0
                l(3) =   1
                l(4) =   1
     Q(r) pseudized with  8 coefficients,  rinner =    0.800   0.800   0.800

     atomic species   valence    mass     pseudopotential
        O1             6.00    15.99900     O ( 1.00)
        Ti1           12.00    47.86700     Ti( 1.00)
        H1             1.00     1.00800     H ( 1.00)
        N1             5.00    14.00700     N ( 1.00)

     No symmetry found

   Cartesian axes

     site n.     atom                  positions (alat units)
         1           O1  tau(   1) = (   0.0007354   0.0005023  10.5931620  )
         2           O1  tau(   2) = (   3.3150156   8.9360210  13.9574341  )
         3           O1  tau(   3) = (   6.5771809   0.1322222  17.3752006  )
         4           O1  tau(   4) = (   0.0006271   0.0005054   7.9858123  )
         5           O1  tau(   5) = (   3.2854428   8.9395983  11.2048121  )
         6           O1  tau(   6) = (   6.5534721   0.0059909  14.6304568  )
         7           O1  tau(   7) = (   1.9868534   1.4903216   9.2879459  )
         8           O1  tau(   8) = (   5.2434221   1.6171961  12.5999149  )
         9           O1  tau(   9) = (   1.9662201   1.5518754  16.1237639  )
        10           Ti1 tau(  10) = (   0.0007404   1.4906270   9.2895810  )
        11           Ti1 tau(  11) = (   3.2893977   1.3594553  12.5356033  )
        12           Ti1 tau(  12) = (   0.0178951   1.3769434  15.7441411  )
        13           O1  tau(  13) = (   4.5942328   1.4918067   9.2879030  )
        14           O1  tau(  14) = (   1.3385959   1.6247007  12.6234478  )
        15           O1  tau(  15) = (   4.5909775   1.5586907  16.1788856  )
        16           Ti1 tau(  16) = (   3.2902859   2.9801868   9.2893338  )
        17           Ti1 tau(  17) = (   6.5767353   2.8476438  12.4354253  )
        18           Ti1 tau(  18) = (   3.2855622   3.0003959  15.7804328  )
        19           O1  tau(  19) = (   0.0003479   2.9813005  10.5931620  )
        20           O1  tau(  20) = (   3.3036998   2.9877085  13.9702655  )
        21           O1  tau(  21) = (   0.0002396   2.9813036   7.9858123  )
        22           O1  tau(  22) = (   3.2849372   2.9737507  11.2063419  )
        23           O1  tau(  23) = (   6.5394694   3.0167582  14.8135819  )
        24           O1  tau(  24) = (   1.9864658   4.4711199   9.2879459  )
        25           O1  tau(  25) = (   5.2427600   4.5794291  12.6037842  )
        26           O1  tau(  26) = (   1.9458942   4.4597853  16.1214517  )
        27           Ti1 tau(  27) = (   0.0003529   4.4714252   9.2895810  )
        28           Ti1 tau(  28) = (   3.2810590   4.3307370  12.5385870  )
        29           Ti1 tau(  29) = (   6.5544800   4.6619433  15.7291082  )
        30           O1  tau(  30) = (   4.5938453   4.4726049   9.2879030  )
        31           O1  tau(  31) = (   1.3254974   4.5864429  12.6215760  )
        32           O1  tau(  32) = (   4.5799584   4.4820416  16.1880388  )
        33           Ti1 tau(  33) = (   3.2898983   5.9609850   9.2893338  )
        34           Ti1 tau(  34) = (   6.5675573   5.8255355  12.4420054  )
        35           Ti1 tau(  35) = (   3.2444431   5.9917870  15.7690220  )
        36           O1  tau(  36) = (  -0.0000397   5.9620987  10.5931620  )
        37           O1  tau(  37) = (   3.2928066   5.9693490  13.9649938  )
        38           O1  tau(  38) = (   6.5603845   5.9023223  17.3786232  )
        39           O1  tau(  39) = (  -0.0001480   5.9621018   7.9858123  )
        40           O1  tau(  40) = (   3.2839194   5.9454927  11.2056182  )
        41           O1  tau(  41) = (   6.5420590   6.0665053  14.6296390  )
        42           O1  tau(  42) = (   1.9860782   7.4519181   9.2879459  )
        43           O1  tau(  43) = (   5.2396418   7.5574700  12.5673505  )
        44           O1  tau(  44) = (   1.9576089   7.5211923  16.0792554  )
        45           Ti1 tau(  45) = (  -0.0000347   7.4522234   9.2895810  )
        46           Ti1 tau(  46) = (   3.2826699   7.3152331  12.5262848  )
        47           Ti1 tau(  47) = (   0.0069763   7.4761561  16.0760502  )
        48           O1  tau(  48) = (   4.5934577   7.4534031   9.2879030  )
        49           O1  tau(  49) = (   1.3370172   7.5712087  12.5877691  )
        50           O1  tau(  50) = (   4.5576284   7.4668559  16.1934357  )
        51           Ti1 tau(  51) = (   3.2895107   8.9417832   9.2893338  )
        52           Ti1 tau(  52) = (   6.5702701   8.7900240  12.4479541  )
        53           Ti1 tau(  53) = (   3.3076380   0.0053799  15.7629688  )
        54           H1  tau(  54) = (   5.7681615   5.8474147  17.9327380  )
        55           H1  tau(  55) = (   5.8019348   0.2260023  17.9463436  )
        56           N1  tau(  56) = (   6.2964029   3.7918275  19.8757669  )
        57           N1  tau(  57) = (   6.3580303   2.9648886  19.1553858  )

     number of k points=    10  Fermi-Dirac smearing, width (Ry)=  0.0073
                       cart. coord. in units 2pi/alat
        k(    1) = (   0.0000000   0.0000000   0.0000000), wk =   0.1250000
        k(    2) = (   0.0000000   0.0279567   0.0000000), wk =   0.2500000
        k(    3) = (   0.0000000  -0.0559134   0.0000000), wk =   0.1250000
        k(    4) = (   0.0379955   0.0000049   0.0000000), wk =   0.2500000
        k(    5) = (   0.0379955   0.0279617   0.0000000), wk =   0.2500000
        k(    6) = (   0.0379955  -0.0559085   0.0000000), wk =   0.2500000
        k(    7) = (   0.0379955  -0.0279518   0.0000000), wk =   0.2500000
        k(    8) = (  -0.0759910  -0.0000099   0.0000000), wk =   0.1250000
        k(    9) = (  -0.0759910   0.0279468   0.0000000), wk =   0.2500000
        k(   10) = (  -0.0759910  -0.0559233   0.0000000), wk =   0.1250000

     Initial potential from superposition of free atoms

     starting charge  419.99912, renormalised to  438.00000

     negative rho (up, down):  3.693E-02 0.000E+00

     %%%%%%%%%%%%%%%%%%%%%%%%%%%%%%%%%%%%%%%%%%%%%%%%%%%%%%%%%%%%%%%%%%%%%%%%
     %                                                                      %
     % You are using vdW-DF, which was implemented by the Thonhauser group. %
     % Please cite the following two papers that made this development      %
     % possible and the two reviews that describe the various versions:     %
     %                                                                      %
     %   T. Thonhauser et al., PRL 115, 136402 (2015).                      %
     %   T. Thonhauser et al., PRB 76, 125112 (2007).                       %
     %   K. Berland et al., Rep. Prog. Phys. 78, 066501 (2015).             %
     %   D.C. Langreth et al., J. Phys.: Condens. Matter 21, 084203 (2009). %
     %                                                                      %
     %                                                                      %
     % If you are calculating the stress with vdW-DF, please also cite:     %
     %                                                                      %
     %   R. Sabatini et al., J. Phys.: Condens. Matter 24, 424209 (2012).   %
     %                                                                      %
     %%%%%%%%%%%%%%%%%%%%%%%%%%%%%%%%%%%%%%%%%%%%%%%%%%%%%%%%%%%%%%%%%%%%%%%%

     Adding external electric field

     Computed dipole along edir(3) :
        Dipole               -6.4230 Ry au,        -16.3256 Debye
        Dipole field         -0.0081 Ry au,

        Potential amp.        0.7491 Ry
        Total length         46.3494 bohr

     Starting wfcs are  330 atomic wfcs
  @ DRIVER MODE: Message from server: STATUS
  @ DRIVER MODE: Message from server: POSDATA
  @ DRIVER MODE: Reading and sharing cell
  @ DRIVER MODE: Reading and sharing positions
  @ DRIVER MODE: Received positions

     Self-consistent Calculation

     iteration #  1     ecut=    29.40 Ry     beta= 0.05
     Davidson diagonalization with overlap
     c_bands:  2 eigenvalues not converged
     c_bands:  2 eigenvalues not converged
     c_bands:  5 eigenvalues not converged
     c_bands:  2 eigenvalues not converged
     c_bands:  4 eigenvalues not converged
     c_bands:  5 eigenvalues not converged
     c_bands:  4 eigenvalues not converged
     c_bands:  3 eigenvalues not converged
     c_bands:  4 eigenvalues not converged
     c_bands:  4 eigenvalues not converged
     ethr =  1.00E-05,  avg # of iterations = 20.0

[...]

     total energy              =   -3266.99915847 Ry
     estimated scf accuracy    <     308.57280593 Ry

[...]

     iteration #  3     ecut=    29.40 Ry     beta= 0.05
     Davidson diagonalization with overlap
     ethr =  1.00E-02,  avg # of iterations = 12.6

[...]

     iteration # 23     ecut=    29.40 Ry     beta= 0.05
     Davidson diagonalization with overlap
     ethr =  2.24E-06,  avg # of iterations = 10.6

[...]

     total energy              =   -3290.82323747 Ry
     estimated scf accuracy    <       0.00000009 Ry

     iteration # 48     ecut=    29.40 Ry     beta= 0.05
     Davidson diagonalization with overlap
     c_bands:  1 eigenvalues not converged
     ethr =  2.06E-11,  avg # of iterations = 12.3

     negative rho (up, down):  3.514E-02 0.000E+00

     Adding external electric field

     Computed dipole along edir(3) :
        Dipole                1.4980 Ry au,          3.8074 Debye
        Dipole field          0.0019 Ry au,

        Potential amp.       -0.1747 Ry
        Total length         46.3494 bohr

     End of self-consistent calculation

          k = 0.0000 0.0000 0.0000 ( 26871 PWs)   bands (ev):

   -57.5934 -57.5683 -57.5670 -57.5033 -57.4810 -57.4637 -57.4386 -57.4364
   -57.4174 -57.4119 -57.3948 -57.3841 -57.3765 -57.3535 -57.3496 -56.7200
   -56.6962 -56.6902 -33.9854 -33.9837 -33.9670 -33.9624 -33.9426 -33.9296
   -33.9123 -33.9004 -33.8966 -33.8894 -33.8870 -33.8745 -33.8421 -33.8347
   -33.8172 -33.7916 -33.7629 -33.7390 -33.7341 -33.7324 -33.7189 -33.7153
   -33.7124 -33.7059 -33.6955 -33.6950 -33.6911 -33.6904 -33.6709 -33.6645
   -33.6378 -33.6344 -33.6300 -33.6261 -33.6199 -33.6127 -33.5982 -33.5954
   -33.5808 -33.5586 -33.5325 -33.5295 -33.5244 -33.4930 -33.4798 -33.0404
   -33.0323 -33.0261 -33.0109 -33.0057 -32.9502 -32.8889 -32.8820 -32.7493
   -23.8270 -19.5288 -19.3967 -18.4791 -18.1079 -17.9364 -17.9244 -17.9019
   -17.8680 -17.7238 -17.6979 -17.6542 -17.6246 -17.6081 -17.4589 -17.4393
   -17.4226 -17.4194 -17.3730 -17.3681 -17.3618 -17.3326 -17.3258 -17.3142
   -17.2907 -17.2633 -17.1627 -17.1438 -17.1387 -17.1062 -17.0671 -17.0653
   -16.7609 -15.1843 -15.1244 -15.1197  -8.9091  -7.2131  -7.0801  -6.9128
    -6.8906  -5.8003  -5.6843  -5.6142  -5.5573  -5.4254  -5.1284  -5.0900
    -5.0558  -5.0356  -5.0190  -4.9662  -4.9150  -4.9063  -4.8880  -4.8580
    -4.8517  -4.7879  -4.7702  -4.7557  -4.6659  -4.6300  -4.6231  -4.5879
    -4.5657  -4.5014  -4.4898  -4.4695  -4.4322  -4.4237  -4.3973  -4.3804
    -4.2659  -4.1557  -4.1348  -4.0913  -4.0731  -3.9632  -3.9476  -3.9119
    -3.8912  -3.8312  -3.7943  -3.7734  -3.7567  -3.6880  -3.6339  -3.6106
    -3.5729  -3.5190  -3.4684  -3.4458  -3.4245  -3.4079  -3.3485  -3.2927
    -3.2571  -3.1899  -3.1400  -3.0512  -3.0464  -2.9601  -2.9092  -2.7780
    -2.7412  -2.6818  -2.6638  -2.6155  -2.5936  -2.4481  -2.4353  -2.4198
    -2.4164  -2.3825  -2.3280  -2.3075  -2.3050  -2.2834  -2.2545  -2.2062
    -2.1887  -2.1220  -2.0806  -2.0573  -2.0420  -2.0082  -1.9454  -1.9189
    -1.8390  -1.7784  -1.7569  -1.6618  -1.5476  -1.5300  -1.5296  -1.4172
    -1.3933  -1.0199  -0.7931  -0.4957  -0.4302  -0.4281  -0.1434  -0.1382
     0.0002   1.3443   1.4175   1.5889   1.6119   1.6778   1.8178   1.8412
     1.9209   1.9599   1.9780   1.9908   1.9987

[...]

          k = 0.0380-0.0280 0.0000 ( 26873 PWs)   bands (ev):

[...]

          k =-0.0760-0.0000 0.0000 ( 26902 PWs)   bands (ev):

[...]

          k =-0.0760-0.0559 0.0000 ( 26868 PWs)   bands (ev):

   -57.5855 -57.5840 -57.5591 -57.4997 -57.4869 -57.4611 -57.4349 -57.4344
   -57.4232 -57.4153 -57.3925 -57.3824 -57.3702 -57.3665 -57.3433 -56.7142
   -56.7078 -56.6844 -34.0787 -34.0254 -33.9818 -33.9682 -33.9479 -33.9248
   -33.9088 -33.9048 -33.9023 -33.8835 -33.8601 -33.8164 -33.8084 -33.7936
   -33.7914 -33.7461 -33.7363 -33.7346 -33.7338 -33.7219 -33.7162 -33.7034
   -33.7022 -33.6818 -33.6731 -33.6703 -33.6672 -33.6668 -33.6634 -33.6603
   -33.6581 -33.6547 -33.6503 -33.6396 -33.6338 -33.6280 -33.6196 -33.5993
   -33.5777 -33.5732 -33.5702 -33.5591 -33.5570 -33.5091 -33.4926 -33.1279
   -33.0277 -33.0221 -32.9996 -32.9324 -32.9252 -32.8641 -32.8498 -32.8426
   -23.8270 -19.5109 -19.4040 -18.1307 -18.0974 -17.9777 -17.9154 -17.7952
   -17.7781 -17.6981 -17.6847 -17.6761 -17.6407 -17.6025 -17.5634 -17.5480
   -17.4706 -17.4406 -17.4144 -17.4031 -17.3932 -17.3865 -17.3799 -17.3652
   -17.2595 -17.2572 -17.2525 -17.2225 -17.1549 -17.1011 -17.0486 -17.0330
   -16.7932 -15.1817 -15.1763 -15.0608  -8.9090  -7.2527  -7.0546  -6.9135
    -6.8948  -5.6666  -5.3992  -5.3374  -5.3159  -5.2685  -5.1686  -5.1005
    -5.0571  -4.9995  -4.9396  -4.8881  -4.8554  -4.7919  -4.7781  -4.7655
    -4.7545  -4.7058  -4.6649  -4.6481  -4.6336  -4.6180  -4.6015  -4.5733
    -4.5628  -4.5310  -4.4638  -4.4245  -4.3365  -4.3283  -4.2977  -4.2613
    -4.2362  -4.2155  -4.1574  -4.1418  -4.1117  -4.0885  -3.9693  -3.8529
    -3.8385  -3.8033  -3.7972  -3.7671  -3.7283  -3.7220  -3.6201  -3.5451
    -3.4087  -3.3821  -3.3788  -3.3660  -3.3458  -3.2780  -3.2684  -3.2329
    -3.2001  -3.1855  -3.1646  -3.1100  -3.0819  -3.0037  -2.9720  -2.9136
    -2.8603  -2.8281  -2.7694  -2.7586  -2.7359  -2.7248  -2.7200  -2.7085
    -2.6887  -2.6422  -2.6325  -2.4834  -2.4491  -2.4444  -2.4302  -2.3205
    -2.3022  -2.2041  -2.1945  -2.1607  -2.1495  -2.0614  -2.0423  -1.9356
    -1.9158  -1.8570  -1.8099  -1.7613  -1.4484  -1.4370  -1.4087  -1.3757
    -1.2898  -1.2832  -1.0329  -0.6310  -0.3721  -0.3526  -0.3070  -0.1352
    -0.1333   1.4697   1.5369   1.5615   1.5791   1.6770   1.6898   1.7148
     1.7306   1.7675   1.7800   1.8855   1.9499

     the Fermi energy is     1.4889 ev

!    total energy              =   -3290.82335790 Ry
     estimated scf accuracy    <       0.00000004 Ry
     smearing contrib. (-TS)   =      -0.05467476 Ry
     internal energy E=F+TS    =   -3290.76868313 Ry

     The total energy is F=E-TS. E is the sum of the following terms:
     one-electron contribution =  -33577.96525680 Ry
     hartree contribution      =   16852.69661696 Ry
     xc contribution           =    -540.40978167 Ry
     ewald contribution        =   13974.90691535 Ry
     electric field correction =       0.00282301 Ry

     convergence has been achieved in  48 iterations

     Forces acting on atoms (cartesian axes, Ry/au):

     atom    1 type  1   force =     0.00049286    0.00768349    0.05386926
     atom    2 type  1   force =     0.00022639    0.00347604    0.00202474
     atom    3 type  1   force =    -0.00216175   -0.00161573   -0.00176002
     atom    4 type  1   force =     0.00004538    0.00063543    0.10809930
     atom    5 type  1   force =     0.00012170   -0.00052052    0.01008498
     atom    6 type  1   force =    -0.00049534   -0.00865771   -0.00249828
     atom    7 type  1   force =     0.06412938    0.00022643   -0.02869197
     atom    8 type  1   force =     0.00332279   -0.02901691    0.00415158
     atom    9 type  1   force =     0.01264195   -0.00962992   -0.00135130
     atom   10 type  2   force =     0.00005663   -0.00638198   -0.19200459
     atom   11 type  2   force =    -0.00025504    0.01996282   -0.01155346
     atom   12 type  2   force =    -0.00130521    0.01553718    0.01032656
     atom   13 type  1   force =    -0.06426291   -0.00020673   -0.02810943
     atom   14 type  1   force =    -0.00398058   -0.02855933    0.00378085
     atom   15 type  1   force =    -0.01068577   -0.01192228    0.00085354
     atom   16 type  2   force =    -0.00028021   -0.00085573    0.07232803
     atom   17 type  2   force =     0.00033916    0.03631576    0.00478129
     atom   18 type  2   force =    -0.00024205    0.00084156   -0.00737260
     atom   19 type  1   force =     0.00076850    0.00326633    0.05939477
     atom   20 type  1   force =    -0.00031341    0.00182416   -0.00317451
     atom   21 type  1   force =     0.00006732    0.00073135    0.10923560
     atom   22 type  1   force =     0.00005759   -0.00032378    0.01011452
     atom   23 type  1   force =    -0.00002749    0.00083408    0.00148246
     atom   24 type  1   force =     0.06379049   -0.00058359   -0.02865394
     atom   25 type  1   force =     0.00305153   -0.02881935    0.00380252
     atom   26 type  1   force =     0.01001059    0.01237610    0.00073106
     atom   27 type  2   force =     0.00003479    0.00225625   -0.19417566
     atom   28 type  2   force =     0.00012945    0.01852922   -0.01072038
     atom   29 type  2   force =     0.00010373   -0.01685949    0.00894301
     atom   30 type  1   force =    -0.06395034   -0.00101172   -0.02802630
     atom   31 type  1   force =    -0.00267355   -0.02914155    0.00377914
     atom   32 type  1   force =    -0.01238337    0.00752450   -0.00159183
     atom   33 type  2   force =    -0.00027021   -0.00103167    0.07253003
     atom   34 type  2   force =    -0.00010487    0.03450594    0.00419638
     atom   35 type  2   force =     0.00288263   -0.01382022   -0.00300597
     atom   36 type  1   force =     0.00026372    0.00300314    0.05372320
     atom   37 type  1   force =    -0.00023038    0.00130465    0.00205632
     atom   38 type  1   force =    -0.00060532    0.00092303   -0.00073789
     atom   39 type  1   force =     0.00007961   -0.00112177    0.10848073
     atom   40 type  1   force =     0.00000370   -0.00027725    0.00994305
     atom   41 type  1   force =     0.00093495    0.00809647   -0.00134933
     atom   42 type  1   force =     0.06454001   -0.00058344   -0.02831751
     atom   43 type  1   force =     0.00209689   -0.02819582    0.00291481
     atom   44 type  1   force =     0.01356029   -0.00750156    0.00865642
     atom   45 type  2   force =     0.00016498    0.00153593   -0.18904434
     atom   46 type  2   force =    -0.00007242    0.01914750   -0.01214165
     atom   47 type  2   force =     0.00035910    0.00393167   -0.00957221
     atom   48 type  1   force =    -0.06470239   -0.00106996   -0.02775225
     atom   49 type  1   force =    -0.00262031   -0.02848023    0.00285943
     atom   50 type  1   force =    -0.01368430    0.00198824    0.00423405
     atom   51 type  2   force =    -0.00026764   -0.00041695    0.07293336
     atom   52 type  2   force =     0.00057303    0.03495134    0.00446320
     atom   53 type  2   force =    -0.00218949    0.01508932   -0.00251541
     atom   54 type  3   force =     0.00184618    0.00030379   -0.00122285
     atom   55 type  3   force =     0.00096223   -0.00009308   -0.00042325
     atom   56 type  4   force =    -0.00201911    0.02660835    0.02523779
     atom   57 type  4   force =     0.00212593   -0.02671181   -0.02424502

     Total force =     0.465685     Total SCF correction =     0.000569
  @ DRIVER MODE: Message from server: STATUS
  @ DRIVER MODE: Message from server: GETFORCE
  @ DRIVER MODE: Returning v,forces,stress,ensemble

     Writing output data file ./calc.save/
  @ DRIVER MODE: Message from server: EXIT
  @ DRIVE MODE: Exiting

     General routines

     Parallel routines

   This run was terminated on:  20:31:53  18Oct2021

   JOB DONE.