     Program PWSCF v.6.7GPU starts on 15Sep2021 at 19:59:14

     R & G space division:  proc/nbgrp/npool/nimage =      10
     Reading input from /storage/home/hcoda1/3/ntian30/research/carbon/CxH_vib/H2O_calc/ads_slab/CH3OHH2O_e/out_0014/pw.inp
Warning: card &CELL ignored
Warning: card   CELL_DYNAMICS='IPI', ignored
Warning: card / ignored

     Current dimensions of program PWSCF are:
     Max number of different atomic species (ntypx) = 10
     Max number of k-points (npk) =  40000
     Max angular momentum in pseudopotentials (lmaxx) =  3
     Presently no symmetry can be used with electric field

     Message from routine cell_base_init:
     DEPRECATED: use true lattice parameter, not A to a.u. conversion factor

     IMPORTANT: XC functional enforced from input :
     Exchange-correlation= BEEF-VDW
                           (   1   4  43  14   2   0   0)
     Any further DFT definition will be discarded
     Please, verify this is what you really want

  @ DRIVER MODE: Connecting to
 qe_1139763_2852623.sched-torque.pace.gatech.edua5yg3ul8_scratch
  using UNIX socket
  @ DRIVER MODE: Message from server: STATUS
  @ DRIVER MODE: Message from server: INIT
  @ DRIVER MODE: Receiving replica           0          -1
  @ DRIVER MODE: Receiving encoded integer          25
  @ DRIVER MODE:  SCF:  T  FORCE:  T  STRESS:  F  VC:  F  ENSEMBLE:  F
  @ DRIVER MODE:  SCF:  T  FORCE:  T  STRESS:  F  VC:  F  ENSEMBLE:  F

     Using Slab Decomposition

     bravais-lattice index     =            0
     lattice parameter (alat)  =       1.8897  a.u.
     unit-cell volume          =    6658.9804 (a.u.)^3
     number of atoms/cell      =           56
     number of atomic types    =            4
     number of electrons       =       400.00
     number of Kohn-Sham states=          210
     kinetic-energy cutoff     =      29.3995  Ry
     charge density cutoff     =     293.9946  Ry
     scf convergence threshold =      7.3E-08
     mixing beta               =       0.0500
     number of iterations used =            8  plain     mixing
     Exchange-correlation= BEEF-VDW
                           (   1   4  43  14   2   0   0)

     celldm(1)=   1.889726  celldm(2)=   0.000000  celldm(3)=   0.000000
     celldm(4)=   0.000000  celldm(5)=   0.000000  celldm(6)=   0.000000

     crystal axes: (cart. coord. in units of alat)
               a(1) = (   6.579727   0.000000   0.000000 )
               a(2) = (  -0.000775   5.961596   0.000000 )
               a(3) = (   0.000000   0.000000  25.155947 )

     reciprocal axes: (cart. coord. in units 2 pi/alat)
               b(1) = (  0.151982  0.000020  0.000000 )
               b(2) = (  0.000000  0.167740  0.000000 )
               b(3) = (  0.000000  0.000000  0.039752 )

     PseudoPot. # 1 for Ti read from file:
     /storage/coda1/p-amedford6/0/shared/rich_project_chbe-medford/medford-share/data/pseudos_module/espresso/nninc/pbe/van/Ti.UPF
     MD5 check sum: 8e4df49b7f0d34bbd5052bf3f5ea0213
     Pseudo is Ultrasoft, Zval = 12.0
     Generated by new atomic code, or converted to UPF format
     Using radial grid of  851 points,  6 beta functions with:
                l(1) =   0
                l(2) =   0
                l(3) =   1
                l(4) =   1
                l(5) =   2
                l(6) =   2
     Q(r) pseudized with  8 coefficients,  rinner =    1.000   1.000   1.000
                                                       1.000   1.000

     PseudoPot. # 2 for O  read from file:
     /storage/coda1/p-amedford6/0/shared/rich_project_chbe-medford/medford-share/data/pseudos_module/espresso/nninc/pbe/van/O.UPF
     MD5 check sum: 78c19812648e8988a0fe644b0f25305e
     Pseudo is Ultrasoft, Zval =  6.0
     Generated by new atomic code, or converted to UPF format
     Using radial grid of  737 points,  4 beta functions with:
                l(1) =   0
                l(2) =   0
                l(3) =   1
                l(4) =   1
     Q(r) pseudized with  8 coefficients,  rinner =    0.800   0.800   0.800

     PseudoPot. # 3 for C  read from file:
     /storage/coda1/p-amedford6/0/shared/rich_project_chbe-medford/medford-share/data/pseudos_module/espresso/nninc/pbe/van/C.UPF
     MD5 check sum: 1a69bf6b8db32088f5b2163dbdb77a27
     Pseudo is Ultrasoft, Zval =  4.0
     Generated by new atomic code, or converted to UPF format
     Using radial grid of  721 points,  4 beta functions with:
                l(1) =   0
                l(2) =   0
                l(3) =   1
                l(4) =   1
     Q(r) pseudized with  8 coefficients,  rinner =    0.800   0.800   0.800

     PseudoPot. # 4 for H  read from file:
     /storage/coda1/p-amedford6/0/shared/rich_project_chbe-medford/medford-share/data/pseudos_module/espresso/nninc/pbe/van/H.UPF
     MD5 check sum: b5ee9d7bfd3a09ee7748110bda690ff7
     Pseudo is Ultrasoft, Zval =  1.0
     Generated by new atomic code, or converted to UPF format
     Using radial grid of  615 points,  1 beta functions with:
                l(1) =   0
     Q(r) pseudized with  8 coefficients,  rinner =    0.800

     atomic species   valence    mass     pseudopotential
        Ti1           12.00    47.86700     Ti( 1.00)
        O1             6.00    15.99900     O ( 1.00)
        C1             4.00    12.01100     C ( 1.00)
        H1             1.00     1.00800     H ( 1.00)

     No symmetry found

   Cartesian axes

     site n.     atom                  positions (alat units)
         1           Ti1 tau(   1) = (   0.0004258   2.9801865   6.0000000  )
         2           Ti1 tau(   2) = (   3.2906075   1.4906267   6.0002472  )
         3           O1  tau(   3) = (   0.0006271   0.0005054   7.9858123  )
         4           O1  tau(   4) = (   3.2906025   0.0005020   7.3038282  )
         5           O1  tau(   5) = (   4.5942328   1.4918067   9.2879030  )
         6           O1  tau(   6) = (   1.9868534   1.4903216   9.2879459  )
         7           Ti1 tau(   7) = (   3.3179988   2.9667087   9.1587561  )
         8           Ti1 tau(   8) = (   0.0368451   1.4888401   9.2646154  )
         9           O1  tau(   9) = (   3.2981896   5.9413050  11.3756853  )
        10           O1  tau(  10) = (   0.0022081   5.9550161  10.6068466  )
        11           O1  tau(  11) = (   1.2930414   1.4711740  12.6526869  )
        12           O1  tau(  12) = (   5.2963464   1.4745835  12.6500758  )
        13           Ti1 tau(  13) = (   0.0229324   2.9590759  12.5385950  )
        14           Ti1 tau(  14) = (   3.3157970   1.4644123  12.5194148  )
        15           O1  tau(  15) = (   6.5691168   5.9481840  14.6869282  )
        16           O1  tau(  16) = (   3.2964787   5.9455965  14.0277316  )
        17           O1  tau(  17) = (   4.5665908   1.5027878  16.2081754  )
        18           O1  tau(  18) = (   2.0283028   1.5092035  16.1774433  )
        19           Ti1 tau(  19) = (   3.2999954   2.9453206  15.7178785  )
        20           Ti1 tau(  20) = (   6.5724188   1.3235339  15.9896992  )
        21           O1  tau(  21) = (   3.2904802   0.0005063   4.7018136  )
        22           O1  tau(  22) = (   0.0286320   5.9425150  17.2304330  )
        23           O1  tau(  23) = (   1.3043587   1.4918075   6.0039043  )
        24           O1  tau(  24) = (   5.2767064   1.4903225   6.0039473  )
        25           Ti1 tau(  25) = (   0.0000382   5.9609847   6.0000000  )
        26           Ti1 tau(  26) = (   3.2902200   4.4714249   6.0002472  )
        27           O1  tau(  27) = (   0.0002396   2.9813036   7.9858123  )
        28           O1  tau(  28) = (   3.2902150   2.9813002   7.3038282  )
        29           O1  tau(  29) = (   4.5938453   4.4726049   9.2879030  )
        30           O1  tau(  30) = (   1.9864658   4.4711199   9.2879459  )
        31           Ti1 tau(  31) = (   3.3176359   5.9492212   9.1540102  )
        32           Ti1 tau(  32) = (   0.0367062   4.4560090   9.2708352  )
        33           O1  tau(  33) = (   3.2951800   2.9650663  11.3684769  )
        34           O1  tau(  34) = (   0.0080098   2.9764013  10.6279654  )
        35           O1  tau(  35) = (   1.2931912   4.4560454  12.6592269  )
        36           O1  tau(  36) = (   5.2946864   4.4524020  12.6579832  )
        37           Ti1 tau(  37) = (   0.0159028   5.9413441  12.4831893  )
        38           Ti1 tau(  38) = (   3.3151975   4.4500431  12.5204281  )
        39           O1  tau(  39) = (   0.0034497   2.9621527  14.8596962  )
        40           O1  tau(  40) = (   3.2989893   2.9535984  13.9376031  )
        41           O1  tau(  41) = (   4.5724332   4.4114593  16.1445292  )
        42           O1  tau(  42) = (   2.0255208   4.3883007  16.1585022  )
        43           Ti1 tau(  43) = (   3.2821299   5.9114753  15.8432964  )
        44           Ti1 tau(  44) = (   6.5414858   4.5242847  15.8739915  )
        45           O1  tau(  45) = (   3.2900926   2.9813045   4.7018136  )
        46           O1  tau(  46) = (   1.3039711   4.4726057   6.0039043  )
        47           O1  tau(  47) = (   5.2763189   4.4711207   6.0039473  )
        48           C1  tau(  48) = (   5.9754720   3.1749164  18.9278073  )
        49           O1  tau(  49) = (   0.1533887   3.0270296  17.7012840  )
        50           H1  tau(  50) = (   4.9393134   3.0706859  18.6584277  )
        51           H1  tau(  51) = (   1.0910173   3.2466920  17.8500278  )
        52           H1  tau(  52) = (   6.2690755   2.3937635  19.6305738  )
        53           H1  tau(  53) = (   6.1431946   4.1694627  19.3379575  )
        54           O1  tau(  54) = (   3.1723115   5.9428592  18.3689464  )
        55           H1  tau(  55) = (   3.8852673   0.6353712  18.4582360  )
        56           H1  tau(  56) = (   2.3406934   0.4831942  18.3201771  )

     number of k points=    10  Fermi-Dirac smearing, width (Ry)=  0.0073
                       cart. coord. in units 2pi/alat
        k(    1) = (   0.0000000   0.0000000   0.0000000), wk =   0.1250000
        k(    2) = (   0.0000000   0.0419351   0.0000000), wk =   0.2500000
        k(    3) = (   0.0000000  -0.0838702   0.0000000), wk =   0.1250000
        k(    4) = (   0.0379955   0.0000049   0.0000000), wk =   0.2500000
        k(    5) = (   0.0379955   0.0419400   0.0000000), wk =   0.2500000
        k(    6) = (   0.0379955  -0.0838652   0.0000000), wk =   0.2500000
        k(    7) = (   0.0379955  -0.0419301   0.0000000), wk =   0.2500000
        k(    8) = (  -0.0759910  -0.0000099   0.0000000), wk =   0.1250000
        k(    9) = (  -0.0759910   0.0419252   0.0000000), wk =   0.2500000
        k(   10) = (  -0.0759910  -0.0838800   0.0000000), wk =   0.1250000

     Initial potential from superposition of free atoms

     starting charge  383.99915, renormalised to  400.00000

     negative rho (up, down):  1.599E-02 0.000E+00

     %%%%%%%%%%%%%%%%%%%%%%%%%%%%%%%%%%%%%%%%%%%%%%%%%%%%%%%%%%%%%%%%%%%%%%%%
     %                                                                      %
     % You are using vdW-DF, which was implemented by the Thonhauser group. %
     % Please cite the following two papers that made this development      %
     % possible and the two reviews that describe the various versions:     %
     %                                                                      %
     %   T. Thonhauser et al., PRL 115, 136402 (2015).                      %
     %   T. Thonhauser et al., PRB 76, 125112 (2007).                       %
     %   K. Berland et al., Rep. Prog. Phys. 78, 066501 (2015).             %
     %   D.C. Langreth et al., J. Phys.: Condens. Matter 21, 084203 (2009). %
     %                                                                      %
     %                                                                      %
     % If you are calculating the stress with vdW-DF, please also cite:     %
     %                                                                      %
     %   R. Sabatini et al., J. Phys.: Condens. Matter 24, 424209 (2012).   %
     %                                                                      %
     %%%%%%%%%%%%%%%%%%%%%%%%%%%%%%%%%%%%%%%%%%%%%%%%%%%%%%%%%%%%%%%%%%%%%%%%

     Adding external electric field

     Computed dipole along edir(3) :
        Dipole              -11.7400 Ry au,        -29.8402 Debye
        Dipole field         -0.0222 Ry au,

        Potential amp.        2.0537 Ry
        Total length         46.3494 bohr

     Starting wfcs are  302 atomic wfcs
  @ DRIVER MODE: Message from server: STATUS
  @ DRIVER MODE: Message from server: POSDATA
  @ DRIVER MODE: Reading and sharing cell
  @ DRIVER MODE: Reading and sharing positions
  @ DRIVER MODE: Received positions

     Self-consistent Calculation

     iteration #  1     ecut=    29.40 Ry     beta= 0.05
     Davidson diagonalization with overlap
     c_bands:  2 eigenvalues not converged
     c_bands:  2 eigenvalues not converged
     c_bands:  4 eigenvalues not converged
     c_bands:  3 eigenvalues not converged
     c_bands:  4 eigenvalues not converged
     c_bands:  4 eigenvalues not converged
     c_bands:  3 eigenvalues not converged
     c_bands:  2 eigenvalues not converged
     ethr =  1.00E-05,  avg # of iterations = 21.3

[...]

     total energy              =   -2420.20445814 Ry
     estimated scf accuracy    <    6189.14540126 Ry

     iteration #  2     ecut=    29.40 Ry     beta= 0.05
     Davidson diagonalization with overlap
     ethr =  1.00E-02,  avg # of iterations = 29.1

[...]

     iteration # 62     ecut=    29.40 Ry     beta= 0.05
     Davidson diagonalization with overlap
     c_bands:  1 eigenvalues not converged
     ethr =  2.88E-09,  avg # of iterations =  8.9

[...]

     total energy              =   -2967.47589149 Ry
     estimated scf accuracy    <       0.00000015 Ry

     iteration # 73     ecut=    29.40 Ry     beta= 0.05
     Davidson diagonalization with overlap
     ethr =  2.83E-11,  avg # of iterations =  9.4

     negative rho (up, down):  1.588E-02 0.000E+00

     Adding external electric field

     Computed dipole along edir(3) :
        Dipole                1.3768 Ry au,          3.4995 Debye
        Dipole field          0.0026 Ry au,

        Potential amp.       -0.2409 Ry
        Total length         46.3494 bohr

     End of self-consistent calculation

          k = 0.0000 0.0000 0.0000 ( 18029 PWs)   bands (ev):

   -55.2502 -55.2227 -55.2142 -55.1883 -55.1566 -55.1486 -55.1432 -55.0964
   -55.0958 -55.0897 -55.0554 -55.0377 -55.0080 -55.0037 -54.3120 -54.2779
   -31.8169 -31.7663 -31.7178 -31.6277 -31.5651 -31.5551 -31.5504 -31.5478
   -31.5113 -31.4822 -31.4657 -31.4636 -31.4523 -31.4426 -31.4283 -31.4139
   -31.3967 -31.3904 -31.3873 -31.3829 -31.3766 -31.3678 -31.3451 -31.3405
   -31.3387 -31.3188 -31.3159 -31.3141 -31.2934 -31.2798 -31.2643 -31.2435
   -31.2422 -31.2414 -31.2300 -31.2209 -31.2026 -31.1890 -31.1772 -31.1725
   -31.1595 -31.1488 -30.7241 -30.6215 -30.5999 -30.5403 -30.4539 -30.3429
   -20.1677 -19.0863 -16.0798 -15.8327 -15.6929 -15.5945 -15.4734 -15.3400
   -15.2798 -15.1650 -15.0739 -14.9842 -14.9691 -14.9505 -14.9213 -14.8984
   -14.8738 -14.8355 -14.8092 -14.7655 -14.7568 -14.7402 -14.7334 -14.6967
   -14.6939 -14.6486 -14.6401 -14.4834 -14.4130 -14.3528 -14.1311 -12.8127
   -12.6933 -11.2086  -6.9257  -6.8528  -5.1539  -5.0157  -3.4202  -3.2631
    -3.2328  -3.2026  -3.1833  -3.1436  -3.0650  -2.9656  -2.7893  -2.6792
    -2.5438  -2.5347  -2.4884  -2.4614  -2.4044  -2.3222  -2.2340  -2.2074
    -2.1725  -2.1392  -2.1358  -2.1199  -2.1097  -2.0537  -2.0182  -1.9603
    -1.8638  -1.8139  -1.7735  -1.7554  -1.6952  -1.6516  -1.6173  -1.5890
    -1.5823  -1.5758  -1.5174  -1.5152  -1.5073  -1.4959  -1.4784  -1.2895
    -1.2496  -1.1175  -1.0263  -0.9857  -0.9721  -0.8178  -0.8111  -0.7668
    -0.7335  -0.6992  -0.6586  -0.6011  -0.5037  -0.4734  -0.4216  -0.3834
    -0.2753  -0.2432  -0.2123  -0.1577  -0.0501  -0.0418  -0.0160   0.0032
     0.0773   0.1731   0.2022   0.2235   0.3005   0.3057   0.3669   0.4075
     0.4412   0.5161   0.5614   0.5727   0.6643   0.6812   0.6949   0.7213
     0.7248   0.8234   0.8594   0.9042   0.9224   1.0741   1.1684   1.3080
     1.3366   1.6033   1.6986   1.7140   1.8743   2.2999   2.3547   3.8410
     3.9093   3.9477   3.9555   3.9687   4.0483   4.3320   4.3473   4.3592
     4.3688   4.3871

[...]

          k = 0.0380-0.0419 0.0000 ( 17876 PWs)   bands (ev):

[...]

          k =-0.0760-0.0000 0.0000 ( 17886 PWs)   bands (ev):

[...]

          k =-0.0760-0.0839 0.0000 ( 17948 PWs)   bands (ev):

   -55.2331 -55.2310 -55.2075 -55.2033 -55.1536 -55.1427 -55.1359 -55.1038
   -55.1025 -55.0739 -55.0708 -55.0225 -55.0189 -55.0099 -54.2950 -54.2948
   -31.6833 -31.6240 -31.6170 -31.5348 -31.5307 -31.5172 -31.5056 -31.5005
   -31.4928 -31.4724 -31.4542 -31.4487 -31.4445 -31.4308 -31.4053 -31.4028
   -31.3911 -31.3886 -31.3816 -31.3807 -31.3772 -31.3740 -31.3612 -31.3474
   -31.3393 -31.3344 -31.3336 -31.3271 -31.3238 -31.3238 -31.3233 -31.3052
   -31.2979 -31.2954 -31.2768 -31.2721 -31.2715 -31.2476 -31.2438 -31.2087
   -31.2045 -31.1916 -30.6125 -30.6124 -30.5368 -30.5365 -30.4972 -30.4970
   -20.1643 -19.0856 -15.6382 -15.5395 -15.3891 -15.2658 -15.2535 -15.2409
   -15.1890 -15.1246 -15.1107 -15.0606 -15.0478 -15.0170 -15.0010 -14.9951
   -14.9591 -14.8506 -14.8466 -14.8363 -14.8156 -14.7704 -14.7594 -14.7523
   -14.7401 -14.7039 -14.6955 -14.6812 -14.6708 -14.5792 -14.4404 -12.7946
   -12.7939 -11.2104  -6.9217  -6.8534  -5.1547  -4.9946  -3.1845  -3.0045
    -2.8075  -2.7287  -2.6312  -2.4837  -2.4691  -2.3880  -2.3762  -2.3256
    -2.2549  -2.2518  -2.2481  -2.1669  -2.1546  -2.1546  -2.1334  -2.1139
    -2.0736  -2.0649  -2.0413  -2.0309  -1.9896  -1.9587  -1.9457  -1.9286
    -1.9182  -1.9143  -1.8833  -1.8687  -1.8533  -1.8115  -1.7885  -1.7284
    -1.6408  -1.6034  -1.4805  -1.4779  -1.4409  -1.4133  -1.3874  -1.3469
    -1.3270  -1.2794  -1.2594  -1.2334  -1.0499  -1.0340  -0.9797  -0.9397
    -0.9200  -0.9065  -0.8444  -0.7727  -0.7458  -0.7143  -0.6486  -0.5755
    -0.4795  -0.4552  -0.4468  -0.3411  -0.2885  -0.2490  -0.2446  -0.2353
    -0.2115  -0.1628  -0.1431  -0.0812  -0.0422   0.0015   0.0270   0.0438
     0.2248   0.2634   0.3217   0.4130   0.4419   0.5868   0.6354   0.6873
     0.7478   0.8243   0.8352   0.9013   1.0156   1.0277   1.0575   1.1347
     1.1781   1.1838   1.2089   2.0653   2.0673   2.1690   2.1719   3.9708
     4.0782   4.0968   4.1757   4.2420   4.3501   4.3631   4.3924   4.4029
     4.4480   4.4795

     the Fermi energy is     3.8974 ev

!    total energy              =   -2967.47590892 Ry
     estimated scf accuracy    <       0.00000005 Ry
     smearing contrib. (-TS)   =      -0.03653906 Ry
     internal energy E=F+TS    =   -2967.43936986 Ry

     The total energy is F=E-TS. E is the sum of the following terms:
     one-electron contribution =  -23962.89161451 Ry
     hartree contribution      =   12077.04778804 Ry
     xc contribution           =    -491.86657999 Ry
     ewald contribution        =    9410.26745930 Ry
     electric field correction =       0.00357730 Ry

     convergence has been achieved in  73 iterations

     Forces acting on atoms (cartesian axes, Ry/au):

     atom    1 type  1   force =    -0.00026124    0.00019862    0.09244925
     atom    2 type  1   force =    -0.00035822    0.00104954   -0.18340613
     atom    3 type  2   force =     0.00050489   -0.00072100   -0.02348771
     atom    4 type  2   force =     0.00072424   -0.00018444    0.05070420
     atom    5 type  2   force =    -0.01405113   -0.00132295    0.00494834
     atom    6 type  2   force =     0.01521686   -0.00064950    0.00509008
     atom    7 type  1   force =    -0.00048721    0.00106260   -0.00013230
     atom    8 type  1   force =     0.00016259   -0.00052855    0.00040131
     atom    9 type  2   force =    -0.00044071    0.00017596    0.00038975
     atom   10 type  2   force =     0.00040812    0.00016561    0.00047313
     atom   11 type  2   force =     0.00036167    0.00044317    0.00033527
     atom   12 type  2   force =     0.00005630    0.00014443    0.00026490
     atom   13 type  1   force =    -0.00088237   -0.00118667   -0.00010836
     atom   14 type  1   force =     0.00059209   -0.00005241    0.00020283
     atom   15 type  2   force =     0.00051127    0.00076420    0.00004227
     atom   16 type  2   force =    -0.00061166   -0.00036581    0.00005901
     atom   17 type  2   force =     0.00006315    0.00023367   -0.00033653
     atom   18 type  2   force =    -0.00014004    0.00027875   -0.00016426
     atom   19 type  1   force =     0.00061748   -0.00003905   -0.00029169
     atom   20 type  1   force =    -0.00001314    0.00020139   -0.00013927
     atom   21 type  2   force =    -0.00004345    0.00015835    0.10500025
     atom   22 type  2   force =    -0.00035259    0.00057294   -0.00083998
     atom   23 type  2   force =    -0.06799238    0.00012628   -0.02680222
     atom   24 type  2   force =     0.06771163    0.00054759   -0.02686840
     atom   25 type  1   force =    -0.00038802   -0.00008108    0.09623599
     atom   26 type  1   force =    -0.00035441   -0.00099358   -0.18319876
     atom   27 type  2   force =     0.00042042   -0.00125583   -0.02225971
     atom   28 type  2   force =     0.00070133   -0.00033291    0.05102618
     atom   29 type  2   force =    -0.01423908   -0.00105635    0.00465951
     atom   30 type  2   force =     0.01518767    0.00021970    0.00484174
     atom   31 type  1   force =    -0.00049859   -0.00146158    0.00017704
     atom   32 type  1   force =     0.00013338    0.00071094   -0.00027478
     atom   33 type  2   force =     0.00002074   -0.00020503    0.00005866
     atom   34 type  2   force =     0.00002504   -0.00006664   -0.00008307
     atom   35 type  2   force =     0.00021678    0.00008417    0.00030439
     atom   36 type  2   force =     0.00039604    0.00045167    0.00004959
     atom   37 type  1   force =    -0.00105933    0.00124884   -0.00006132
     atom   38 type  1   force =     0.00037571    0.00010577   -0.00044212
     atom   39 type  2   force =     0.00039074    0.00022464   -0.00033822
     atom   40 type  2   force =    -0.00007994    0.00019801    0.00006269
     atom   41 type  2   force =    -0.00020540    0.00017506   -0.00046498
     atom   42 type  2   force =     0.00013389   -0.00000281    0.00018158
     atom   43 type  1   force =    -0.00061697    0.00012730    0.00020474
     atom   44 type  1   force =    -0.00001745    0.00001591   -0.00083753
     atom   45 type  2   force =    -0.00005540    0.00015338    0.10493585
     atom   46 type  2   force =    -0.06804104   -0.00039051   -0.02680570
     atom   47 type  2   force =     0.06776286    0.00004812   -0.02689049
     atom   48 type  3   force =     0.01123771    0.00153923    0.00241139
     atom   49 type  2   force =    -0.00031506    0.00040398    0.00074980
     atom   50 type  4   force =    -0.01191207   -0.00053372   -0.00262718
     atom   51 type  4   force =     0.00069573    0.00080554   -0.00011526
     atom   52 type  4   force =    -0.00023791    0.00066021   -0.00011699
     atom   53 type  4   force =    -0.00008082   -0.00024935    0.00020268
     atom   54 type  2   force =     0.00088430   -0.00026511    0.00106218
     atom   55 type  4   force =    -0.00084759   -0.00037781   -0.00059286
     atom   56 type  4   force =    -0.00092937   -0.00097287    0.00016123

     Total force =     0.368584     Total SCF correction =     0.000730
  @ DRIVER MODE: Message from server: STATUS
  @ DRIVER MODE: Message from server: GETFORCE
  @ DRIVER MODE: Returning v,forces,stress,ensemble

     Writing output data file ./calc.save/
  @ DRIVER MODE: Message from server: EXIT
  @ DRIVE MODE: Exiting

     General routines

     Parallel routines

   This run was terminated on:  20:18: 8  15Sep2021

   JOB DONE.