     Program PWSCF v.6.7GPU starts on  2Aug2021 at 21:47:35

     R & G space division:  proc/nbgrp/npool/nimage =      16
     Reading input from /storage/home/hcoda1/3/ntian30/research/carbon/02Aug_vib_paired/ads_slab/CH3N2H_a/out_0036/pw.inp
Warning: card &CELL ignored
Warning: card   CELL_DYNAMICS='IPI', ignored
Warning: card / ignored

     Current dimensions of program PWSCF are:
     Max number of different atomic species (ntypx) = 10
     Max number of k-points (npk) =  40000
     Max angular momentum in pseudopotentials (lmaxx) =  3
     Presently no symmetry can be used with electric field

     Message from routine cell_base_init:
     DEPRECATED: use true lattice parameter, not A to a.u. conversion factor

     IMPORTANT: XC functional enforced from input :
     Exchange-correlation= BEEF-VDW
                           (   1   4  43  14   2   0   0)
     Any further DFT definition will be discarded
     Please, verify this is what you really want

  @ DRIVER MODE: Connecting to
 qe_1139763_2482535.sched-torque.pace.gatech.eduxbwb4tw6_scratch
  using UNIX socket
  @ DRIVER MODE: Message from server: STATUS
  @ DRIVER MODE: Message from server: INIT
  @ DRIVER MODE: Receiving replica           0          -1
  @ DRIVER MODE: Receiving encoded integer          25
  @ DRIVER MODE:  SCF:  T  FORCE:  T  STRESS:  F  VC:  F  ENSEMBLE:  F
  @ DRIVER MODE:  SCF:  T  FORCE:  T  STRESS:  F  VC:  F  ENSEMBLE:  F

     Using Slab Decomposition

     bravais-lattice index     =            0
     lattice parameter (alat)  =       1.8897  a.u.
     unit-cell volume          =    6658.9804 (a.u.)^3
     number of atoms/cell      =           54
     number of atomic types    =            5
     number of electrons       =       396.00
     number of Kohn-Sham states=          208
     kinetic-energy cutoff     =      29.3995  Ry
     charge density cutoff     =     293.9946  Ry
     scf convergence threshold =      7.3E-08
     mixing beta               =       0.0500
     number of iterations used =            8  plain     mixing
     Exchange-correlation= BEEF-VDW
                           (   1   4  43  14   2   0   0)

     celldm(1)=   1.889726  celldm(2)=   0.000000  celldm(3)=   0.000000
     celldm(4)=   0.000000  celldm(5)=   0.000000  celldm(6)=   0.000000

     crystal axes: (cart. coord. in units of alat)
               a(1) = (   6.579727   0.000000   0.000000 )
               a(2) = (  -0.000775   5.961596   0.000000 )
               a(3) = (   0.000000   0.000000  25.155947 )

     reciprocal axes: (cart. coord. in units 2 pi/alat)
               b(1) = (  0.151982  0.000020  0.000000 )
               b(2) = (  0.000000  0.167740  0.000000 )
               b(3) = (  0.000000  0.000000  0.039752 )

     PseudoPot. # 1 for Ti read from file:
     /storage/coda1/p-amedford6/0/shared/rich_project_chbe-medford/medford-share/data/pseudos_module/espresso/nninc/pbe/van/Ti.UPF
     MD5 check sum: 8e4df49b7f0d34bbd5052bf3f5ea0213
     Pseudo is Ultrasoft, Zval = 12.0
     Generated by new atomic code, or converted to UPF format
     Using radial grid of  851 points,  6 beta functions with:
                l(1) =   0
                l(2) =   0
                l(3) =   1
                l(4) =   1
                l(5) =   2
                l(6) =   2
     Q(r) pseudized with  8 coefficients,  rinner =    1.000   1.000   1.000
                                                       1.000   1.000

     PseudoPot. # 2 for O  read from file:
     /storage/coda1/p-amedford6/0/shared/rich_project_chbe-medford/medford-share/data/pseudos_module/espresso/nninc/pbe/van/O.UPF
     MD5 check sum: 78c19812648e8988a0fe644b0f25305e
     Pseudo is Ultrasoft, Zval =  6.0
     Generated by new atomic code, or converted to UPF format
     Using radial grid of  737 points,  4 beta functions with:
                l(1) =   0
                l(2) =   0
                l(3) =   1
                l(4) =   1
     Q(r) pseudized with  8 coefficients,  rinner =    0.800   0.800   0.800

     PseudoPot. # 3 for N  read from file:
     /storage/coda1/p-amedford6/0/shared/rich_project_chbe-medford/medford-share/data/pseudos_module/espresso/nninc/pbe/van/N.UPF
     MD5 check sum: 90d10febe142ad51ac9d5be1deb811c4
     Pseudo is Ultrasoft, Zval =  5.0
     Generated by new atomic code, or converted to UPF format
     Using radial grid of  729 points,  4 beta functions with:
                l(1) =   0
                l(2) =   0
                l(3) =   1
                l(4) =   1
     Q(r) pseudized with  8 coefficients,  rinner =    0.800   0.800   0.800

     PseudoPot. # 4 for C  read from file:
     /storage/coda1/p-amedford6/0/shared/rich_project_chbe-medford/medford-share/data/pseudos_module/espresso/nninc/pbe/van/C.UPF
     MD5 check sum: 1a69bf6b8db32088f5b2163dbdb77a27
     Pseudo is Ultrasoft, Zval =  4.0
     Generated by new atomic code, or converted to UPF format
     Using radial grid of  721 points,  4 beta functions with:
                l(1) =   0
                l(2) =   0
                l(3) =   1
                l(4) =   1
     Q(r) pseudized with  8 coefficients,  rinner =    0.800   0.800   0.800

     PseudoPot. # 5 for H  read from file:
     /storage/coda1/p-amedford6/0/shared/rich_project_chbe-medford/medford-share/data/pseudos_module/espresso/nninc/pbe/van/H.UPF
     MD5 check sum: b5ee9d7bfd3a09ee7748110bda690ff7
     Pseudo is Ultrasoft, Zval =  1.0
     Generated by new atomic code, or converted to UPF format
     Using radial grid of  615 points,  1 beta functions with:
                l(1) =   0
     Q(r) pseudized with  8 coefficients,  rinner =    0.800

     atomic species   valence    mass     pseudopotential
        Ti1           12.00    47.86700     Ti( 1.00)
        O1             6.00    15.99900     O ( 1.00)
        N1             5.00    14.00700     N ( 1.00)
        C1             4.00    12.01100     C ( 1.00)
        H1             1.00     1.00800     H ( 1.00)

     No symmetry found

   Cartesian axes

     site n.     atom                  positions (alat units)
         1           Ti1 tau(   1) = (   0.0004258   2.9801865   6.0000000  )
         2           Ti1 tau(   2) = (   3.2906075   1.4906267   6.0002472  )
         3           O1  tau(   3) = (   0.0006271   0.0005054   7.9858123  )
         4           O1  tau(   4) = (   3.2906025   0.0005020   7.3038282  )
         5           O1  tau(   5) = (   4.5942328   1.4918067   9.2879030  )
         6           O1  tau(   6) = (   1.9868534   1.4903216   9.2879459  )
         7           Ti1 tau(   7) = (   3.2907910   2.8959150   9.1758416  )
         8           Ti1 tau(   8) = (   0.0015273   1.4827037   9.2680791  )
         9           O1  tau(   9) = (   3.3106937   0.0084137  11.2927479  )
        10           O1  tau(  10) = (   0.0116148   5.9584955  10.6183126  )
        11           O1  tau(  11) = (   1.3255326   1.5151957  12.5859258  )
        12           O1  tau(  12) = (   5.3246634   1.4871208  12.6441624  )
        13           Ti1 tau(  13) = (   6.5358624   2.9940264  12.7507449  )
        14           Ti1 tau(  14) = (   3.1828407   1.5032771  12.4528579  )
        15           O1  tau(  15) = (   0.1336207   0.0073438  14.6266748  )
        16           O1  tau(  16) = (   3.2550344   0.0288700  13.8306396  )
        17           O1  tau(  17) = (   4.6334483   1.5013943  15.9792279  )
        18           O1  tau(  18) = (   2.1409664   1.5470880  15.9954950  )
        19           Ti1 tau(  19) = (   3.4798582   3.0305884  15.6593850  )
        20           Ti1 tau(  20) = (   0.1386493   1.3724552  15.8613965  )
        21           O1  tau(  21) = (   3.2904802   0.0005063   4.7018136  )
        22           O1  tau(  22) = (   0.1429122   0.0333940  17.1908172  )
        23           O1  tau(  23) = (   1.3043587   1.4918075   6.0039043  )
        24           O1  tau(  24) = (   5.2767064   1.4903225   6.0039473  )
        25           Ti1 tau(  25) = (   0.0000382   5.9609847   6.0000000  )
        26           Ti1 tau(  26) = (   3.2902200   4.4714249   6.0002472  )
        27           O1  tau(  27) = (   0.0002396   2.9813036   7.9858123  )
        28           O1  tau(  28) = (   3.2902150   2.9813002   7.3038282  )
        29           O1  tau(  29) = (   4.5938453   4.4726049   9.2879030  )
        30           O1  tau(  30) = (   1.9864658   4.4711199   9.2879459  )
        31           Ti1 tau(  31) = (   3.2891106   5.8743827   9.1763621  )
        32           Ti1 tau(  32) = (   0.0006254   4.4649316   9.2693709  )
        33           O1  tau(  33) = (   3.3137399   2.9960163  11.2943833  )
        34           O1  tau(  34) = (   0.0092240   2.9805883  10.6323155  )
        35           O1  tau(  35) = (   1.3234708   4.4688006  12.5930975  )
        36           O1  tau(  36) = (   5.3222282   4.4932535  12.6449723  )
        37           Ti1 tau(  37) = (   6.5041614   0.0053836  12.5833808  )
        38           Ti1 tau(  38) = (   3.1843229   4.4812189  12.4522442  )
        39           O1  tau(  39) = (   0.0584892   2.9792810  14.6723703  )
        40           O1  tau(  40) = (   3.3232524   2.9928384  13.8523860  )
        41           O1  tau(  41) = (   4.6237859   4.5837569  15.7472905  )
        42           O1  tau(  42) = (   2.1882403   4.4693611  16.1038286  )
        43           Ti1 tau(  43) = (   3.3015484   0.0242660  15.6383815  )
        44           Ti1 tau(  44) = (   0.0181797   4.4930750  16.1931172  )
        45           O1  tau(  45) = (   3.2900926   2.9813045   4.7018136  )
        46           O1  tau(  46) = (   1.3039711   4.4726057   6.0039043  )
        47           O1  tau(  47) = (   5.2763189   4.4711207   6.0039473  )
        48           N1  tau(  48) = (   0.2677213   2.8760844  17.5655548  )
        49           C1  tau(  49) = (   1.2271684   2.7639891  18.6598760  )
        50           H1  tau(  50) = (   1.2930054   3.7106696  19.2072709  )
        51           H1  tau(  51) = (   0.8976878   1.9730418  19.3402421  )
        52           H1  tau(  52) = (   2.2102292   2.4972526  18.2850250  )
        53           N1  tau(  53) = (   5.6732178   3.4927010  17.8552151  )
        54           H1  tau(  54) = (   5.7345573   4.0058295  18.7343860  )

     number of k points=    10  Fermi-Dirac smearing, width (Ry)=  0.0073
                       cart. coord. in units 2pi/alat
        k(    1) = (   0.0000000   0.0000000   0.0000000), wk =   0.1250000
        k(    2) = (   0.0000000   0.0419351   0.0000000), wk =   0.2500000
        k(    3) = (   0.0000000  -0.0838702   0.0000000), wk =   0.1250000
        k(    4) = (   0.0379955   0.0000049   0.0000000), wk =   0.2500000
        k(    5) = (   0.0379955   0.0419400   0.0000000), wk =   0.2500000
        k(    6) = (   0.0379955  -0.0838652   0.0000000), wk =   0.2500000
        k(    7) = (   0.0379955  -0.0419301   0.0000000), wk =   0.2500000
        k(    8) = (  -0.0759910  -0.0000099   0.0000000), wk =   0.1250000
        k(    9) = (  -0.0759910   0.0419252   0.0000000), wk =   0.2500000
        k(   10) = (  -0.0759910  -0.0838800   0.0000000), wk =   0.1250000

     Initial potential from superposition of free atoms

     starting charge  379.99915, renormalised to  396.00000

     negative rho (up, down):  1.686E-02 0.000E+00

     %%%%%%%%%%%%%%%%%%%%%%%%%%%%%%%%%%%%%%%%%%%%%%%%%%%%%%%%%%%%%%%%%%%%%%%%
     %                                                                      %
     % You are using vdW-DF, which was implemented by the Thonhauser group. %
     % Please cite the following two papers that made this development      %
     % possible and the two reviews that describe the various versions:     %
     %                                                                      %
     %   T. Thonhauser et al., PRL 115, 136402 (2015).                      %
     %   T. Thonhauser et al., PRB 76, 125112 (2007).                       %
     %   K. Berland et al., Rep. Prog. Phys. 78, 066501 (2015).             %
     %   D.C. Langreth et al., J. Phys.: Condens. Matter 21, 084203 (2009). %
     %                                                                      %
     %                                                                      %
     % If you are calculating the stress with vdW-DF, please also cite:     %
     %                                                                      %
     %   R. Sabatini et al., J. Phys.: Condens. Matter 24, 424209 (2012).   %
     %                                                                      %
     %%%%%%%%%%%%%%%%%%%%%%%%%%%%%%%%%%%%%%%%%%%%%%%%%%%%%%%%%%%%%%%%%%%%%%%%

     Adding external electric field

     Computed dipole along edir(3) :
        Dipole               -8.2262 Ry au,        -20.9089 Debye
        Dipole field         -0.0155 Ry au,

        Potential amp.        1.4390 Ry
        Total length         46.3494 bohr

     Starting wfcs are  300 atomic wfcs
  @ DRIVER MODE: Message from server: STATUS
  @ DRIVER MODE: Message from server: POSDATA
  @ DRIVER MODE: Reading and sharing cell
  @ DRIVER MODE: Reading and sharing positions
  @ DRIVER MODE: Received positions

     Self-consistent Calculation

     iteration #  1     ecut=    29.40 Ry     beta= 0.05
     Davidson diagonalization with overlap
     c_bands:  1 eigenvalues not converged
     c_bands:  1 eigenvalues not converged
     c_bands:  1 eigenvalues not converged
     c_bands:  1 eigenvalues not converged
     c_bands:  4 eigenvalues not converged
     c_bands:  1 eigenvalues not converged
     c_bands:  4 eigenvalues not converged
     c_bands:  2 eigenvalues not converged
     c_bands:  1 eigenvalues not converged
     ethr =  1.00E-05,  avg # of iterations = 20.0

[...]

     total energy              =   -2607.35446749 Ry
     estimated scf accuracy    <    3677.76292137 Ry

[...]

     iteration #  3     ecut=    29.40 Ry     beta= 0.05
     Davidson diagonalization with overlap
     ethr =  1.00E-02,  avg # of iterations = 13.8

[...]

     iteration # 49     ecut=    29.40 Ry     beta= 0.05
     Davidson diagonalization with overlap
     c_bands:  1 eigenvalues not converged
     ethr =  2.56E-06,  avg # of iterations =  5.4

[...]

     total energy              =   -2940.35208714 Ry
     estimated scf accuracy    <       0.00000009 Ry

     iteration # 89     ecut=    29.40 Ry     beta= 0.05
     Davidson diagonalization with overlap
     ethr =  2.25E-11,  avg # of iterations =  6.0

     negative rho (up, down):  1.747E-02 0.000E+00

     Adding external electric field

     Computed dipole along edir(3) :
        Dipole                0.7353 Ry au,          1.8689 Debye
        Dipole field          0.0014 Ry au,

        Potential amp.       -0.1286 Ry
        Total length         46.3494 bohr

     End of self-consistent calculation

          k = 0.0000 0.0000 0.0000 ( 18029 PWs)   bands (ev):

   -56.0254 -55.9914 -55.8078 -55.7689 -55.7275 -55.6931 -55.6671 -55.6419
   -55.6329 -55.6072 -55.5809 -55.5010 -55.2457 -54.9217 -54.8877 -54.7980
   -32.4921 -32.3499 -32.3195 -32.2961 -32.1945 -32.1803 -32.1699 -32.1315
   -32.1149 -32.1028 -32.0863 -32.0488 -32.0266 -31.9857 -31.9783 -31.9767
   -31.9444 -31.9345 -31.9250 -31.8988 -31.8906 -31.8728 -31.8664 -31.8634
   -31.8423 -31.8411 -31.8320 -31.8284 -31.8220 -31.8068 -31.7980 -31.7961
   -31.7799 -31.7547 -31.6975 -31.6701 -31.6218 -31.4724 -31.4693 -31.3252
   -31.2459 -31.2229 -31.2139 -31.1425 -31.0565 -31.0005 -30.9452 -30.9228
   -17.2891 -16.5627 -16.3714 -16.0814 -15.9310 -15.9125 -15.7925 -15.6946
   -15.6166 -15.5168 -15.4648 -15.4092 -15.3971 -15.3727 -15.3140 -15.2911
   -15.2507 -15.2323 -15.1907 -15.1801 -15.1350 -15.1107 -15.0893 -15.0564
   -14.9903 -14.9205 -14.9066 -14.7518 -14.6111 -14.4596 -13.4229 -13.3080
   -11.5505  -8.3693  -5.0081  -4.0106  -3.9491  -3.8787  -3.8348  -3.7776
    -3.6961  -3.4447  -3.4225  -3.3616  -3.0736  -3.0265  -3.0027  -2.9982
    -2.9006  -2.7604  -2.7296  -2.6699  -2.6643  -2.6432  -2.6238  -2.6069
    -2.5501  -2.4965  -2.4769  -2.4350  -2.3006  -2.2754  -2.2713  -2.2493
    -2.1787  -2.1697  -2.1045  -2.0872  -2.0648  -2.0459  -2.0094  -1.8764
    -1.8429  -1.7784  -1.6960  -1.6071  -1.5273  -1.4909  -1.4025  -1.3892
    -1.3324  -1.2636  -1.2536  -1.1816  -1.1490  -1.0676  -1.0483  -1.0097
    -0.9014  -0.8762  -0.8172  -0.7612  -0.7138  -0.7012  -0.6588  -0.6352
    -0.6293  -0.6144  -0.6027  -0.4074  -0.3775  -0.2349  -0.1888  -0.1646
    -0.1237  -0.1002  -0.0429  -0.0188  -0.0134   0.0268   0.0446   0.0870
     0.1428   0.1591   0.1839   0.2767   0.3089   0.3636   0.4898   0.5042
     0.5923   0.6589   0.7664   0.7782   0.8327   0.9606   1.0572   1.0823
     1.1005   1.3058   1.4101   1.6646   1.7071   3.0224   3.1679   3.2633
     3.3718   3.4921   3.5665   3.6058   3.7798   3.8164   3.8590   3.9222

[...]

          k = 0.0380-0.0419 0.0000 ( 17876 PWs)   bands (ev):

[...]

          k =-0.0760-0.0000 0.0000 ( 17886 PWs)   bands (ev):

[...]

          k =-0.0760-0.0839 0.0000 ( 17948 PWs)   bands (ev):

   -56.0093 -56.0073 -55.7956 -55.7809 -55.7139 -55.7065 -55.6516 -55.6484
   -55.6286 -55.6206 -55.5770 -55.5048 -55.2451 -54.9047 -54.9045 -54.7985
   -32.3085 -32.3075 -32.3053 -32.3036 -32.1574 -32.1453 -32.1323 -32.1301
   -32.0539 -32.0412 -32.0309 -32.0262 -32.0196 -32.0171 -31.9734 -31.9679
   -31.9593 -31.9472 -31.9180 -31.9052 -31.8930 -31.8886 -31.8848 -31.8831
   -31.8805 -31.8752 -31.8584 -31.8535 -31.8483 -31.8433 -31.8382 -31.8204
   -31.8025 -31.7981 -31.7699 -31.7113 -31.6117 -31.4748 -31.4688 -31.2641
   -31.2357 -31.2356 -31.1386 -31.1383 -31.0996 -31.0995 -31.0127 -30.9268
   -17.2698 -15.9801 -15.9517 -15.8433 -15.8239 -15.7360 -15.7226 -15.6077
   -15.6000 -15.5875 -15.5211 -15.4749 -15.4644 -15.3835 -15.3558 -15.3447
   -15.3194 -15.3096 -15.3033 -15.2926 -15.2810 -15.1998 -15.1949 -15.1935
   -15.1185 -15.0949 -14.9102 -14.8666 -14.6690 -14.6217 -13.4105 -13.4101
   -11.5540  -8.3496  -5.0144  -3.9078  -3.8296  -3.2822  -3.2461  -3.0296
    -3.0041  -2.9837  -2.9538  -2.7693  -2.7556  -2.7490  -2.7319  -2.7192
    -2.6821  -2.6630  -2.6501  -2.5838  -2.5746  -2.5537  -2.5487  -2.5391
    -2.5203  -2.5047  -2.4968  -2.4775  -2.4638  -2.4182  -2.3644  -2.3419
    -2.2919  -2.1980  -2.0918  -2.0467  -2.0324  -2.0245  -2.0016  -1.9924
    -1.9524  -1.9399  -1.8538  -1.6696  -1.6207  -1.5602  -1.5544  -1.5491
    -1.4866  -1.4308  -1.3848  -1.3087  -1.2424  -1.1936  -1.1657  -1.1417
    -1.1059  -1.0396  -0.9752  -0.9565  -0.9418  -0.9125  -0.9094  -0.8918
    -0.8133  -0.7311  -0.6881  -0.6592  -0.6364  -0.6226  -0.6065  -0.5836
    -0.4763  -0.4087  -0.3609  -0.3162  -0.2748  -0.2315  -0.1127  -0.0977
     0.0971   0.1634   0.1886   0.2671   0.3638   0.3893   0.4000   0.4639
     0.5393   0.6016   0.6359   0.6907   0.7065   0.7279   0.7946   1.0170
     1.0661   1.4745   1.4761   1.5252   1.5262   2.9876   3.6678   3.6756
     3.6790   3.6893   3.7095   3.7326   3.7849   3.8196   3.9218   3.9427

     the Fermi energy is     3.1326 ev

!    total energy              =   -2940.35208988 Ry
     estimated scf accuracy    <       0.00000005 Ry
     smearing contrib. (-TS)   =      -0.01871323 Ry
     internal energy E=F+TS    =   -2940.33337666 Ry

     The total energy is F=E-TS. E is the sum of the following terms:
     one-electron contribution =  -24658.94766678 Ry
     hartree contribution      =   12418.57290510 Ry
     xc contribution           =    -486.05236734 Ry
     ewald contribution        =    9786.09273209 Ry
     electric field correction =       0.00102026 Ry

     convergence has been achieved in  89 iterations

     Forces acting on atoms (cartesian axes, Ry/au):

     atom    1 type  1   force =     0.00025786   -0.00036374    0.10148128
     atom    2 type  1   force =     0.00002087   -0.00087408   -0.17139994
     atom    3 type  2   force =     0.00029185    0.00021638   -0.03323458
     atom    4 type  2   force =     0.00003351   -0.00078782    0.04482987
     atom    5 type  2   force =    -0.01195159   -0.00021409   -0.00231428
     atom    6 type  2   force =     0.01438732    0.00037940   -0.00111476
     atom    7 type  1   force =     0.00140222   -0.00129793   -0.00431029
     atom    8 type  1   force =    -0.00078635    0.02219043    0.05617977
     atom    9 type  2   force =     0.00003091   -0.00032597    0.00048734
     atom   10 type  2   force =    -0.00266533    0.00207137   -0.02586220
     atom   11 type  2   force =     0.00002612    0.00024688   -0.00004070
     atom   12 type  2   force =     0.00007959    0.00073918    0.00004611
     atom   13 type  1   force =    -0.00003781    0.00014506    0.00013925
     atom   14 type  1   force =     0.00028808    0.00027995   -0.00008577
     atom   15 type  2   force =     0.00024367   -0.00034610    0.00009928
     atom   16 type  2   force =    -0.00001079   -0.00014375    0.00081741
     atom   17 type  2   force =    -0.00005039   -0.00062580    0.00004741
     atom   18 type  2   force =     0.00042676   -0.00070480    0.00025713
     atom   19 type  1   force =    -0.00010544   -0.00051831    0.00029926
     atom   20 type  1   force =    -0.00011477    0.00023861   -0.00009605
     atom   21 type  2   force =     0.00006774   -0.00001011    0.10208470
     atom   22 type  2   force =    -0.00001085   -0.00047799    0.00020058
     atom   23 type  2   force =    -0.07326208   -0.00015942   -0.02885913
     atom   24 type  2   force =     0.07321557    0.00033019   -0.02890787
     atom   25 type  1   force =    -0.00028451   -0.00031973    0.10189990
     atom   26 type  1   force =     0.00002720   -0.00017509   -0.17138733
     atom   27 type  2   force =     0.00036432   -0.00023042   -0.03195894
     atom   28 type  2   force =     0.00009124   -0.00057199    0.04544668
     atom   29 type  2   force =    -0.01210118    0.00212825   -0.00286903
     atom   30 type  2   force =     0.01441328    0.00228920   -0.00161366
     atom   31 type  1   force =     0.00159998    0.00093887   -0.00564769
     atom   32 type  1   force =    -0.00059602   -0.02474497    0.05724214
     atom   33 type  2   force =     0.00015448    0.00035928    0.00065625
     atom   34 type  2   force =    -0.00420884    0.00212065   -0.04825691
     atom   35 type  2   force =     0.00060936   -0.00058797    0.00003157
     atom   36 type  2   force =    -0.00041467   -0.00075768    0.00015410
     atom   37 type  1   force =     0.00006172    0.00060797   -0.00016469
     atom   38 type  1   force =     0.00004046   -0.00013627   -0.00018578
     atom   39 type  2   force =     0.00020847    0.00000509   -0.00060166
     atom   40 type  2   force =    -0.00008323   -0.00003816   -0.00025672
     atom   41 type  2   force =     0.00054133    0.00006593    0.00034684
     atom   42 type  2   force =    -0.00008545    0.00036635    0.00064944
     atom   43 type  1   force =    -0.00029490   -0.00004980    0.00021043
     atom   44 type  1   force =    -0.00095444   -0.00030845    0.00158143
     atom   45 type  2   force =     0.00004668   -0.00005036    0.10213793
     atom   46 type  2   force =    -0.07327521   -0.00009362   -0.02883551
     atom   47 type  2   force =     0.07322781    0.00028454   -0.02887301
     atom   48 type  3   force =    -0.00335128    0.00305185    0.00408982
     atom   49 type  4   force =     0.00089915   -0.00082755   -0.00030924
     atom   50 type  5   force =     0.00003126   -0.00031310   -0.00016159
     atom   51 type  5   force =    -0.00052697   -0.00042842    0.00046952
     atom   52 type  5   force =    -0.00005085   -0.00046507    0.00031630
     atom   53 type  3   force =    -0.00036617   -0.00712600   -0.01568576
     atom   54 type  5   force =     0.00250032    0.00501912    0.01083136

     Total force =     0.378338     Total SCF correction =     0.000541
  @ DRIVER MODE: Message from server: STATUS
  @ DRIVER MODE: Message from server: GETFORCE
  @ DRIVER MODE: Returning v,forces,stress,ensemble

     Writing output data file ./calc.save/
  @ DRIVER MODE: Message from server: EXIT
  @ DRIVE MODE: Exiting

     General routines

     Parallel routines

   This run was terminated on:  22: 6:57   2Aug2021

   JOB DONE.