     Program PWSCF v.6.7GPU starts on  5Oct2021 at 12:56:16

     R & G space division:  proc/nbgrp/npool/nimage =       8
     Reading input from /storage/home/hcoda1/3/ntian30/research/carbon/CxH_vib/pristine/ads_slab/CH2N2_a/out_0006/pw.inp
Warning: card &CELL ignored
Warning: card   CELL_DYNAMICS='IPI', ignored
Warning: card / ignored

     Current dimensions of program PWSCF are:
     Max number of different atomic species (ntypx) = 10
     Max number of k-points (npk) =  40000
     Max angular momentum in pseudopotentials (lmaxx) =  3
     Presently no symmetry can be used with electric field

     Message from routine cell_base_init:
     DEPRECATED: use true lattice parameter, not A to a.u. conversion factor

     IMPORTANT: XC functional enforced from input :
     Exchange-correlation= BEEF-VDW
                           (   1   4  43  14   2   0   0)
     Any further DFT definition will be discarded
     Please, verify this is what you really want

  @ DRIVER MODE: Connecting to
 qe_1139763_3091261.sched-torque.pace.gatech.edu4f1clh00_scratch
  using UNIX socket
  @ DRIVER MODE: Message from server: STATUS
  @ DRIVER MODE: Message from server: INIT
  @ DRIVER MODE: Receiving replica           0          -1
  @ DRIVER MODE: Receiving encoded integer          25
  @ DRIVER MODE:  SCF:  T  FORCE:  T  STRESS:  F  VC:  F  ENSEMBLE:  F
  @ DRIVER MODE:  SCF:  T  FORCE:  T  STRESS:  F  VC:  F  ENSEMBLE:  F

     Using Slab Decomposition

     bravais-lattice index     =            0
     lattice parameter (alat)  =       1.8897  a.u.
     unit-cell volume          =    6658.9804 (a.u.)^3
     number of atoms/cell      =           53
     number of atomic types    =            5
     number of electrons       =       400.00
     number of Kohn-Sham states=          210
     kinetic-energy cutoff     =      29.3995  Ry
     charge density cutoff     =     293.9946  Ry
     scf convergence threshold =      7.3E-08
     mixing beta               =       0.0500
     number of iterations used =            8  plain     mixing
     Exchange-correlation= BEEF-VDW
                           (   1   4  43  14   2   0   0)

     celldm(1)=   1.889726  celldm(2)=   0.000000  celldm(3)=   0.000000
     celldm(4)=   0.000000  celldm(5)=   0.000000  celldm(6)=   0.000000

     crystal axes: (cart. coord. in units of alat)
               a(1) = (   6.579727   0.000000   0.000000 )
               a(2) = (  -0.000775   5.961596   0.000000 )
               a(3) = (   0.000000   0.000000  25.155947 )

     reciprocal axes: (cart. coord. in units 2 pi/alat)
               b(1) = (  0.151982  0.000020  0.000000 )
               b(2) = (  0.000000  0.167740  0.000000 )
               b(3) = (  0.000000  0.000000  0.039752 )

     PseudoPot. # 1 for Ti read from file:
     /storage/coda1/p-amedford6/0/shared/rich_project_chbe-medford/medford-share/data/pseudos_module/espresso/nninc/pbe/van/Ti.UPF
     MD5 check sum: 8e4df49b7f0d34bbd5052bf3f5ea0213
     Pseudo is Ultrasoft, Zval = 12.0
     Generated by new atomic code, or converted to UPF format
     Using radial grid of  851 points,  6 beta functions with:
                l(1) =   0
                l(2) =   0
                l(3) =   1
                l(4) =   1
                l(5) =   2
                l(6) =   2
     Q(r) pseudized with  8 coefficients,  rinner =    1.000   1.000   1.000
                                                       1.000   1.000

     PseudoPot. # 2 for O  read from file:
     /storage/coda1/p-amedford6/0/shared/rich_project_chbe-medford/medford-share/data/pseudos_module/espresso/nninc/pbe/van/O.UPF
     MD5 check sum: 78c19812648e8988a0fe644b0f25305e
     Pseudo is Ultrasoft, Zval =  6.0
     Generated by new atomic code, or converted to UPF format
     Using radial grid of  737 points,  4 beta functions with:
                l(1) =   0
                l(2) =   0
                l(3) =   1
                l(4) =   1
     Q(r) pseudized with  8 coefficients,  rinner =    0.800   0.800   0.800

     PseudoPot. # 3 for N  read from file:
     /storage/coda1/p-amedford6/0/shared/rich_project_chbe-medford/medford-share/data/pseudos_module/espresso/nninc/pbe/van/N.UPF
     MD5 check sum: 90d10febe142ad51ac9d5be1deb811c4
     Pseudo is Ultrasoft, Zval =  5.0
     Generated by new atomic code, or converted to UPF format
     Using radial grid of  729 points,  4 beta functions with:
                l(1) =   0
                l(2) =   0
                l(3) =   1
                l(4) =   1
     Q(r) pseudized with  8 coefficients,  rinner =    0.800   0.800   0.800

     PseudoPot. # 4 for C  read from file:
     /storage/coda1/p-amedford6/0/shared/rich_project_chbe-medford/medford-share/data/pseudos_module/espresso/nninc/pbe/van/C.UPF
     MD5 check sum: 1a69bf6b8db32088f5b2163dbdb77a27
     Pseudo is Ultrasoft, Zval =  4.0
     Generated by new atomic code, or converted to UPF format
     Using radial grid of  721 points,  4 beta functions with:
                l(1) =   0
                l(2) =   0
                l(3) =   1
                l(4) =   1
     Q(r) pseudized with  8 coefficients,  rinner =    0.800   0.800   0.800

     PseudoPot. # 5 for H  read from file:
     /storage/coda1/p-amedford6/0/shared/rich_project_chbe-medford/medford-share/data/pseudos_module/espresso/nninc/pbe/van/H.UPF
     MD5 check sum: b5ee9d7bfd3a09ee7748110bda690ff7
     Pseudo is Ultrasoft, Zval =  1.0
     Generated by new atomic code, or converted to UPF format
     Using radial grid of  615 points,  1 beta functions with:
                l(1) =   0
     Q(r) pseudized with  8 coefficients,  rinner =    0.800

     atomic species   valence    mass     pseudopotential
        Ti1           12.00    47.86700     Ti( 1.00)
        O1             6.00    15.99900     O ( 1.00)
        N1             5.00    14.00700     N ( 1.00)
        C1             4.00    12.01100     C ( 1.00)
        H1             1.00     1.00800     H ( 1.00)

     No symmetry found

   Cartesian axes

     site n.     atom                  positions (alat units)
         1           Ti1 tau(   1) = (   0.0004258   2.9801865   6.0000000  )
         2           Ti1 tau(   2) = (   3.2906075   1.4906267   6.0002472  )
         3           O1  tau(   3) = (   0.0006271   0.0005054   7.9858123  )
         4           O1  tau(   4) = (   3.2906025   0.0005020   7.3038282  )
         5           O1  tau(   5) = (   4.5942328   1.4918067   9.2879030  )
         6           O1  tau(   6) = (   1.9868534   1.4903216   9.2879459  )
         7           Ti1 tau(   7) = (   3.2967797   2.8647345   9.1688538  )
         8           Ti1 tau(   8) = (   0.0139078   1.4260134   9.3797207  )
         9           O1  tau(   9) = (   3.2818202   5.9426219  11.3413624  )
        10           O1  tau(  10) = (  -0.0006713   5.9438105  10.5613913  )
        11           O1  tau(  11) = (   1.2629550   1.4689526  12.6431422  )
        12           O1  tau(  12) = (   5.2627372   1.4724369  12.6244454  )
        13           Ti1 tau(  13) = (   0.0649248   2.9521173  12.8162972  )
        14           Ti1 tau(  14) = (   3.3900010   1.4623865  12.4921655  )
        15           O1  tau(  15) = (   6.5612248   5.9427239  14.6529025  )
        16           O1  tau(  16) = (   3.2707349   5.9499158  13.9186396  )
        17           O1  tau(  17) = (   4.5120437   1.4930778  16.0516072  )
        18           O1  tau(  18) = (   2.0188724   1.4901805  16.0528637  )
        19           Ti1 tau(  19) = (   3.2526435   2.9656207  15.7242400  )
        20           Ti1 tau(  20) = (   6.5390660   1.5270114  16.1581541  )
        21           O1  tau(  21) = (   3.2904802   0.0005063   4.7018136  )
        22           O1  tau(  22) = (   6.5517350   0.0054997  17.2382445  )
        23           O1  tau(  23) = (   1.3043587   1.4918075   6.0039043  )
        24           O1  tau(  24) = (   5.2767064   1.4903225   6.0039473  )
        25           Ti1 tau(  25) = (   0.0000382   5.9609847   6.0000000  )
        26           Ti1 tau(  26) = (   3.2902200   4.4714249   6.0002472  )
        27           O1  tau(  27) = (   0.0002396   2.9813036   7.9858123  )
        28           O1  tau(  28) = (   3.2902150   2.9813002   7.3038282  )
        29           O1  tau(  29) = (   4.5938453   4.4726049   9.2879030  )
        30           O1  tau(  30) = (   1.9864658   4.4711199   9.2879459  )
        31           Ti1 tau(  31) = (   3.2991641   5.8454459   9.1677744  )
        32           Ti1 tau(  32) = (   0.0142928   4.4069258   9.3804372  )
        33           O1  tau(  33) = (   3.2794024   2.9620648  11.3429404  )
        34           O1  tau(  34) = (   0.0008107   2.9631099  10.5617750  )
        35           O1  tau(  35) = (   1.2628400   4.4505553  12.6449227  )
        36           O1  tau(  36) = (   5.2621040   4.4508628  12.6271667  )
        37           Ti1 tau(  37) = (   0.0634051   5.9337149  12.8176510  )
        38           Ti1 tau(  38) = (   3.3888395   4.4462795  12.4902329  )
        39           O1  tau(  39) = (   6.5643088   2.9532696  14.6533357  )
        40           O1  tau(  40) = (   3.2687884   2.9653797  13.9163527  )
        41           O1  tau(  41) = (   4.5138939   4.4677068  16.0260545  )
        42           O1  tau(  42) = (   2.0159196   4.4685127  16.0260682  )
        43           Ti1 tau(  43) = (   3.2551286   5.9518885  15.7372992  )
        44           Ti1 tau(  44) = (   6.5382561   4.5045293  16.1449140  )
        45           O1  tau(  45) = (   3.2900926   2.9813045   4.7018136  )
        46           O1  tau(  46) = (   6.5520679   2.9954315  17.2342401  )
        47           O1  tau(  47) = (   1.3039711   4.4726057   6.0039043  )
        48           O1  tau(  48) = (   5.2763189   4.4711207   6.0039473  )
        49           N1  tau(  49) = (   3.2718132   4.4933032  18.6989481  )
        50           N1  tau(  50) = (   3.2619367   3.3563452  18.5802627  )
        51           C1  tau(  51) = (   3.2831389   5.7900214  18.6539038  )
        52           H1  tau(  52) = (   2.3406966   0.3270794  18.8225995  )
        53           H1  tau(  53) = (   4.2401870   0.3074325  18.8013464  )

     number of k points=    10  Fermi-Dirac smearing, width (Ry)=  0.0073
                       cart. coord. in units 2pi/alat
        k(    1) = (   0.0000000   0.0000000   0.0000000), wk =   0.1250000
        k(    2) = (   0.0000000   0.0419351   0.0000000), wk =   0.2500000
        k(    3) = (   0.0000000  -0.0838702   0.0000000), wk =   0.1250000
        k(    4) = (   0.0379955   0.0000049   0.0000000), wk =   0.2500000
        k(    5) = (   0.0379955   0.0419400   0.0000000), wk =   0.2500000
        k(    6) = (   0.0379955  -0.0838652   0.0000000), wk =   0.2500000
        k(    7) = (   0.0379955  -0.0419301   0.0000000), wk =   0.2500000
        k(    8) = (  -0.0759910  -0.0000099   0.0000000), wk =   0.1250000
        k(    9) = (  -0.0759910   0.0419252   0.0000000), wk =   0.2500000
        k(   10) = (  -0.0759910  -0.0838800   0.0000000), wk =   0.1250000

     Initial potential from superposition of free atoms

     starting charge  383.99917, renormalised to  400.00000

     negative rho (up, down):  1.828E-02 0.000E+00

     %%%%%%%%%%%%%%%%%%%%%%%%%%%%%%%%%%%%%%%%%%%%%%%%%%%%%%%%%%%%%%%%%%%%%%%%
     %                                                                      %
     % You are using vdW-DF, which was implemented by the Thonhauser group. %
     % Please cite the following two papers that made this development      %
     % possible and the two reviews that describe the various versions:     %
     %                                                                      %
     %   T. Thonhauser et al., PRL 115, 136402 (2015).                      %
     %   T. Thonhauser et al., PRB 76, 125112 (2007).                       %
     %   K. Berland et al., Rep. Prog. Phys. 78, 066501 (2015).             %
     %   D.C. Langreth et al., J. Phys.: Condens. Matter 21, 084203 (2009). %
     %                                                                      %
     %                                                                      %
     % If you are calculating the stress with vdW-DF, please also cite:     %
     %                                                                      %
     %   R. Sabatini et al., J. Phys.: Condens. Matter 24, 424209 (2012).   %
     %                                                                      %
     %%%%%%%%%%%%%%%%%%%%%%%%%%%%%%%%%%%%%%%%%%%%%%%%%%%%%%%%%%%%%%%%%%%%%%%%

     Adding external electric field

     Computed dipole along edir(3) :
        Dipole               -9.8437 Ry au,        -25.0202 Debye
        Dipole field         -0.0186 Ry au,

        Potential amp.        1.7220 Ry
        Total length         46.3494 bohr

     Starting wfcs are  302 atomic wfcs
  @ DRIVER MODE: Message from server: STATUS
  @ DRIVER MODE: Message from server: POSDATA
  @ DRIVER MODE: Reading and sharing cell
  @ DRIVER MODE: Reading and sharing positions
  @ DRIVER MODE: Received positions

     Self-consistent Calculation

     iteration #  1     ecut=    29.40 Ry     beta= 0.05
     Davidson diagonalization with overlap
     c_bands:  1 eigenvalues not converged
     c_bands:  2 eigenvalues not converged
     c_bands:  1 eigenvalues not converged
     c_bands:  2 eigenvalues not converged
     c_bands:  2 eigenvalues not converged
     c_bands:  2 eigenvalues not converged
     c_bands:  1 eigenvalues not converged
     c_bands:  3 eigenvalues not converged
     ethr =  1.00E-05,  avg # of iterations = 20.0

[...]

     total energy              =   -2519.76219761 Ry
     estimated scf accuracy    <    5013.46425362 Ry

     iteration #  2     ecut=    29.40 Ry     beta= 0.05
     Davidson diagonalization with overlap
     ethr =  1.00E-02,  avg # of iterations = 26.0

[...]

     iteration # 31     ecut=    29.40 Ry     beta= 0.05
     Davidson diagonalization with overlap
     c_bands:  2 eigenvalues not converged
     c_bands:  2 eigenvalues not converged
     c_bands:  1 eigenvalues not converged
     c_bands:  1 eigenvalues not converged
     c_bands:  1 eigenvalues not converged
     ethr =  1.09E-06,  avg # of iterations = 13.4

[...]

     total energy              =   -2970.35077111 Ry
     estimated scf accuracy    <       0.00000013 Ry

     iteration # 55     ecut=    29.40 Ry     beta= 0.05
     Davidson diagonalization with overlap
     ethr =  2.57E-11,  avg # of iterations =  4.7

     negative rho (up, down):  1.789E-02 0.000E+00

     Adding external electric field

     Computed dipole along edir(3) :
        Dipole                0.5372 Ry au,          1.3654 Debye
        Dipole field          0.0010 Ry au,

        Potential amp.       -0.0940 Ry
        Total length         46.3494 bohr

     End of self-consistent calculation

          k = 0.0000 0.0000 0.0000 ( 18029 PWs)   bands (ev):

   -56.2395 -56.2060 -55.8902 -55.8545 -55.7656 -55.7307 -55.6319 -55.6087
   -55.5972 -55.5747 -55.5276 -55.4926 -55.4813 -55.4445 -55.0125 -54.9785
   -32.6665 -32.4872 -32.4593 -32.4309 -32.4252 -32.3398 -32.2934 -32.2397
   -32.1864 -32.1349 -32.1041 -32.1007 -32.0693 -32.0679 -32.0518 -32.0461
   -32.0328 -32.0132 -32.0076 -31.9913 -31.9064 -31.8836 -31.8724 -31.8611
   -31.8524 -31.8471 -31.8239 -31.8145 -31.8012 -31.7730 -31.7666 -31.7443
   -31.7376 -31.7250 -31.7067 -31.7049 -31.7043 -31.6876 -31.6854 -31.6571
   -31.6316 -31.5520 -31.4118 -31.3396 -31.3158 -31.2302 -31.1452 -31.0333
   -21.0332 -16.5574 -16.3937 -16.1724 -16.0192 -15.9302 -15.7990 -15.6036
   -15.5783 -15.4854 -15.4828 -15.4590 -15.3886 -15.3879 -15.3545 -15.3495
   -15.3208 -15.2995 -15.2599 -15.2434 -15.2409 -15.1982 -15.1385 -15.1128
   -15.0201 -14.9730 -14.8679 -14.8626 -14.8321 -14.7474 -14.7161 -14.2706
   -13.5066 -13.3932  -6.8062  -5.8644  -5.0910  -3.9846  -3.9244  -3.8923
    -3.7789  -3.7599  -3.6338  -3.3556  -3.3004  -3.0494  -2.9943  -2.9776
    -2.9321  -2.9102  -2.8427  -2.8261  -2.7382  -2.7334  -2.6875  -2.6802
    -2.6473  -2.6449  -2.6283  -2.5678  -2.5470  -2.4622  -2.4536  -2.4219
    -2.3918  -2.2804  -2.2358  -2.1911  -2.1892  -2.1604  -2.0613  -2.0536
    -2.0395  -2.0104  -1.9280  -1.8773  -1.7502  -1.6497  -1.6337  -1.5885
    -1.5276  -1.4948  -1.2959  -1.2486  -1.2449  -1.2235  -1.2014  -1.1889
    -1.1199  -1.0537  -0.9311  -0.8577  -0.8302  -0.7755  -0.7550  -0.7489
    -0.7297  -0.6515  -0.6218  -0.6155  -0.5925  -0.4513  -0.3058  -0.2670
    -0.2445  -0.2299  -0.2082  -0.1291  -0.1127  -0.0764  -0.0355  -0.0172
     0.0022   0.0506   0.0791   0.0879   0.1924   0.2126   0.2738   0.2952
     0.3050   0.3406   0.3845   0.5301   0.6169   0.7305   0.7396   0.8194
     0.9672   0.9740   1.0149   1.2220   1.2292   1.2764   1.6003   1.6735
     3.0325   3.2158   3.4474   3.5180   3.5384   3.6308   3.7367   3.7664
     3.8333   3.9126

[...]

          k = 0.0380-0.0419 0.0000 ( 17876 PWs)   bands (ev):

[...]

          k =-0.0760-0.0000 0.0000 ( 17886 PWs)   bands (ev):

[...]

          k =-0.0760-0.0839 0.0000 ( 17948 PWs)   bands (ev):

   -56.2228 -56.2226 -55.8726 -55.8720 -55.7502 -55.7459 -55.6152 -55.6138
   -55.5920 -55.5912 -55.5108 -55.5094 -55.4632 -55.4624 -54.9955 -54.9954
   -32.4840 -32.4840 -32.4729 -32.4727 -32.3837 -32.3836 -32.2314 -32.2271
   -32.1363 -32.1315 -32.0785 -32.0776 -32.0682 -32.0575 -32.0376 -32.0293
   -31.9554 -31.9481 -31.9365 -31.9348 -31.9220 -31.9212 -31.8551 -31.8546
   -31.8435 -31.8422 -31.8372 -31.8367 -31.8302 -31.8298 -31.8021 -31.8014
   -31.7902 -31.7840 -31.7267 -31.7257 -31.7172 -31.7161 -31.6996 -31.6983
   -31.6829 -31.6820 -31.3287 -31.3286 -31.2261 -31.2260 -31.1879 -31.1878
   -21.0322 -15.9783 -15.9666 -15.7730 -15.7681 -15.7049 -15.7048 -15.6646
   -15.6622 -15.6122 -15.6108 -15.4724 -15.4693 -15.4686 -15.4646 -15.3886
   -15.3872 -15.3733 -15.3721 -15.3213 -15.3196 -15.1853 -15.1842 -15.0980
   -15.0970 -15.0532 -15.0524 -14.9963 -14.9955 -14.8957 -14.8820 -14.2829
   -13.4957 -13.4956  -6.6483  -5.8349  -5.0806  -4.1463  -3.2639  -3.2508
    -2.9846  -2.9787  -2.8815  -2.8636  -2.8471  -2.8265  -2.8248  -2.7397
    -2.7310  -2.7082  -2.7025  -2.6752  -2.6711  -2.6137  -2.6124  -2.5899
    -2.5838  -2.5743  -2.5733  -2.5679  -2.5657  -2.4764  -2.4729  -2.4596
    -2.4576  -2.3850  -2.3785  -2.3447  -2.3326  -2.1241  -2.1236  -2.0541
    -2.0531  -1.9351  -1.9339  -1.9174  -1.9136  -1.8771  -1.8380  -1.5990
    -1.5968  -1.5395  -1.5367  -1.4871  -1.4728  -1.3673  -1.3386  -1.2109
    -1.1921  -1.1757  -1.1682  -1.0180  -1.0144  -1.0126  -1.0090  -0.9852
    -0.9818  -0.8659  -0.8523  -0.7662  -0.7592  -0.7423  -0.7388  -0.7005
    -0.6832  -0.5328  -0.5324  -0.5094  -0.5037  -0.3621  -0.3610  -0.3018
    -0.2951  -0.0531  -0.0448   0.0671   0.0674   0.2975   0.3309   0.3520
     0.3631   0.5056   0.5140   0.5277   0.5368   0.6619   0.6665   0.6833
     0.6892   0.7764   0.7764   1.2168   1.4025   1.4030   1.4549   1.4549
     3.5733   3.5778   3.5823   3.5868   3.6270   3.6286   3.6741   3.6759
     3.9311   3.9540

     the Fermi energy is     2.4052 ev

!    total energy              =   -2970.35084197 Ry
     estimated scf accuracy    <       0.00000005 Ry
     smearing contrib. (-TS)   =      -0.00009814 Ry
     internal energy E=F+TS    =   -2970.35074383 Ry

     The total energy is F=E-TS. E is the sum of the following terms:
     one-electron contribution =  -24064.43346157 Ry
     hartree contribution      =   12122.53258350 Ry
     xc contribution           =    -491.48187356 Ry
     ewald contribution        =    9463.03146325 Ry
     electric field correction =       0.00054454 Ry

     convergence has been achieved in  55 iterations

     Forces acting on atoms (cartesian axes, Ry/au):

     atom    1 type  1   force =     0.00011390   -0.00011044    0.14847090
     atom    2 type  1   force =    -0.00010233   -0.00050042   -0.16834106
     atom    3 type  2   force =     0.00014004    0.00223446   -0.05994766
     atom    4 type  2   force =     0.00015671   -0.00146505    0.03990427
     atom    5 type  2   force =    -0.02119765   -0.00097484    0.00398064
     atom    6 type  2   force =     0.02099108    0.00032732    0.00311642
     atom    7 type  1   force =    -0.00011479   -0.00019860   -0.00001144
     atom    8 type  1   force =    -0.00022230    0.00001377    0.00002721
     atom    9 type  2   force =    -0.00023602   -0.00005518    0.00013450
     atom   10 type  2   force =     0.00001460   -0.00000030    0.00004923
     atom   11 type  2   force =    -0.00000998   -0.00006421   -0.00013028
     atom   12 type  2   force =    -0.00008796   -0.00013327   -0.00007133
     atom   13 type  1   force =    -0.00009579   -0.00000621   -0.00008306
     atom   14 type  1   force =     0.00007138   -0.00002340    0.00003572
     atom   15 type  2   force =     0.00010626    0.00001344   -0.00003030
     atom   16 type  2   force =     0.00007629   -0.00005137    0.00012462
     atom   17 type  2   force =     0.00002728   -0.00015062    0.00025453
     atom   18 type  2   force =     0.00022343   -0.00009474   -0.00001346
     atom   19 type  1   force =     0.00020509    0.00021188    0.00010519
     atom   20 type  1   force =    -0.00014798   -0.00003165   -0.00009592
     atom   21 type  2   force =     0.00004141   -0.00004434    0.10203046
     atom   22 type  2   force =     0.00007558   -0.00003597   -0.00005664
     atom   23 type  2   force =    -0.07526429    0.00015612   -0.03468821
     atom   24 type  2   force =     0.07519928    0.00058046   -0.03476345
     atom   25 type  1   force =     0.00009922   -0.00014622    0.14838943
     atom   26 type  1   force =    -0.00013131   -0.00087454   -0.16859095
     atom   27 type  2   force =     0.00012404    0.00218341   -0.05990167
     atom   28 type  2   force =     0.00009021   -0.00146180    0.04018498
     atom   29 type  2   force =    -0.02099144   -0.00107965    0.00396266
     atom   30 type  2   force =     0.02118579    0.00040770    0.00311609
     atom   31 type  1   force =    -0.00019713   -0.00010587   -0.00002759
     atom   32 type  1   force =    -0.00010438   -0.00006514   -0.00008840
     atom   33 type  2   force =     0.00013247    0.00008341    0.00005091
     atom   34 type  2   force =    -0.00008964    0.00002748   -0.00002853
     atom   35 type  2   force =    -0.00004324    0.00002879    0.00003413
     atom   36 type  2   force =    -0.00013458    0.00022615   -0.00014805
     atom   37 type  1   force =    -0.00007711   -0.00014048   -0.00005493
     atom   38 type  1   force =     0.00005254    0.00005805    0.00020486
     atom   39 type  2   force =    -0.00007910   -0.00000537   -0.00017547
     atom   40 type  2   force =     0.00011469    0.00002481    0.00005713
     atom   41 type  2   force =     0.00017425   -0.00009923    0.00018906
     atom   42 type  2   force =     0.00027717   -0.00003625    0.00034391
     atom   43 type  1   force =    -0.00009954    0.00019991    0.00027515
     atom   44 type  1   force =    -0.00006129    0.00005310    0.00010490
     atom   45 type  2   force =     0.00003746   -0.00005036    0.10202555
     atom   46 type  2   force =     0.00004196    0.00000895   -0.00014110
     atom   47 type  2   force =    -0.07526743    0.00019710   -0.03468394
     atom   48 type  2   force =     0.07520685    0.00062920   -0.03475391
     atom   49 type  3   force =    -0.00018149   -0.00485845   -0.00585655
     atom   50 type  3   force =     0.00015850    0.00421176    0.00358292
     atom   51 type  4   force =    -0.00076785    0.00020638    0.00067157
     atom   52 type  5   force =     0.00008316    0.00011681    0.00051581
     atom   53 type  5   force =     0.00048399    0.00066350    0.00074116

     Total force =     0.401793     Total SCF correction =     0.000534
  @ DRIVER MODE: Message from server: STATUS
  @ DRIVER MODE: Message from server: GETFORCE
  @ DRIVER MODE: Returning v,forces,stress,ensemble

     Writing output data file ./calc.save/
  @ DRIVER MODE: Message from server: EXIT
  @ DRIVE MODE: Exiting

     General routines

     Parallel routines

   This run was terminated on:  13:14:52   5Oct2021

   JOB DONE.