     Program PWSCF v.6.7GPU starts on 14Sep2021 at 18:46:26

     R & G space division:  proc/nbgrp/npool/nimage =      10
     Reading input from /storage/home/hcoda1/3/ntian30/research/carbon/CxH_vib/CH2_calc/ads_slab/CH2ON2_b/out_0015/pw.inp
Warning: card &CELL ignored
Warning: card   CELL_DYNAMICS='IPI', ignored
Warning: card / ignored

     Current dimensions of program PWSCF are:
     Max number of different atomic species (ntypx) = 10
     Max number of k-points (npk) =  40000
     Max angular momentum in pseudopotentials (lmaxx) =  3
     Presently no symmetry can be used with electric field

     Message from routine cell_base_init:
     DEPRECATED: use true lattice parameter, not A to a.u. conversion factor

     IMPORTANT: XC functional enforced from input :
     Exchange-correlation= BEEF-VDW
                           (   1   4  43  14   2   0   0)
     Any further DFT definition will be discarded
     Please, verify this is what you really want

  @ DRIVER MODE: Connecting to
 qe_1139763_2840441.sched-torque.pace.gatech.edueh9tgpwu_scratch
  using UNIX socket
  @ DRIVER MODE: Message from server: STATUS
  @ DRIVER MODE: Message from server: INIT
  @ DRIVER MODE: Receiving replica           0          -1
  @ DRIVER MODE: Receiving encoded integer          25
  @ DRIVER MODE:  SCF:  T  FORCE:  T  STRESS:  F  VC:  F  ENSEMBLE:  F
  @ DRIVER MODE:  SCF:  T  FORCE:  T  STRESS:  F  VC:  F  ENSEMBLE:  F

     Using Slab Decomposition

     bravais-lattice index     =            0
     lattice parameter (alat)  =       1.8897  a.u.
     unit-cell volume          =    6658.9804 (a.u.)^3
     number of atoms/cell      =           53
     number of atomic types    =            5
     number of electrons       =       400.00
     number of Kohn-Sham states=          210
     kinetic-energy cutoff     =      29.3995  Ry
     charge density cutoff     =     293.9946  Ry
     scf convergence threshold =      7.3E-08
     mixing beta               =       0.0500
     number of iterations used =            8  plain     mixing
     Exchange-correlation= BEEF-VDW
                           (   1   4  43  14   2   0   0)

     celldm(1)=   1.889726  celldm(2)=   0.000000  celldm(3)=   0.000000
     celldm(4)=   0.000000  celldm(5)=   0.000000  celldm(6)=   0.000000

     crystal axes: (cart. coord. in units of alat)
               a(1) = (   6.579727   0.000000   0.000000 )
               a(2) = (  -0.000775   5.961596   0.000000 )
               a(3) = (   0.000000   0.000000  25.155947 )

     reciprocal axes: (cart. coord. in units 2 pi/alat)
               b(1) = (  0.151982  0.000020  0.000000 )
               b(2) = (  0.000000  0.167740  0.000000 )
               b(3) = (  0.000000  0.000000  0.039752 )

     PseudoPot. # 1 for C  read from file:
     /storage/coda1/p-amedford6/0/shared/rich_project_chbe-medford/medford-share/data/pseudos_module/espresso/nninc/pbe/van/C.UPF
     MD5 check sum: 1a69bf6b8db32088f5b2163dbdb77a27
     Pseudo is Ultrasoft, Zval =  4.0
     Generated by new atomic code, or converted to UPF format
     Using radial grid of  721 points,  4 beta functions with:
                l(1) =   0
                l(2) =   0
                l(3) =   1
                l(4) =   1
     Q(r) pseudized with  8 coefficients,  rinner =    0.800   0.800   0.800

     PseudoPot. # 2 for H  read from file:
     /storage/coda1/p-amedford6/0/shared/rich_project_chbe-medford/medford-share/data/pseudos_module/espresso/nninc/pbe/van/H.UPF
     MD5 check sum: b5ee9d7bfd3a09ee7748110bda690ff7
     Pseudo is Ultrasoft, Zval =  1.0
     Generated by new atomic code, or converted to UPF format
     Using radial grid of  615 points,  1 beta functions with:
                l(1) =   0
     Q(r) pseudized with  8 coefficients,  rinner =    0.800

     PseudoPot. # 3 for O  read from file:
     /storage/coda1/p-amedford6/0/shared/rich_project_chbe-medford/medford-share/data/pseudos_module/espresso/nninc/pbe/van/O.UPF
     MD5 check sum: 78c19812648e8988a0fe644b0f25305e
     Pseudo is Ultrasoft, Zval =  6.0
     Generated by new atomic code, or converted to UPF format
     Using radial grid of  737 points,  4 beta functions with:
                l(1) =   0
                l(2) =   0
                l(3) =   1
                l(4) =   1
     Q(r) pseudized with  8 coefficients,  rinner =    0.800   0.800   0.800

     PseudoPot. # 4 for Ti read from file:
     /storage/coda1/p-amedford6/0/shared/rich_project_chbe-medford/medford-share/data/pseudos_module/espresso/nninc/pbe/van/Ti.UPF
     MD5 check sum: 8e4df49b7f0d34bbd5052bf3f5ea0213
     Pseudo is Ultrasoft, Zval = 12.0
     Generated by new atomic code, or converted to UPF format
     Using radial grid of  851 points,  6 beta functions with:
                l(1) =   0
                l(2) =   0
                l(3) =   1
                l(4) =   1
                l(5) =   2
                l(6) =   2
     Q(r) pseudized with  8 coefficients,  rinner =    1.000   1.000   1.000
                                                       1.000   1.000

     PseudoPot. # 5 for N  read from file:
     /storage/coda1/p-amedford6/0/shared/rich_project_chbe-medford/medford-share/data/pseudos_module/espresso/nninc/pbe/van/N.UPF
     MD5 check sum: 90d10febe142ad51ac9d5be1deb811c4
     Pseudo is Ultrasoft, Zval =  5.0
     Generated by new atomic code, or converted to UPF format
     Using radial grid of  729 points,  4 beta functions with:
                l(1) =   0
                l(2) =   0
                l(3) =   1
                l(4) =   1
     Q(r) pseudized with  8 coefficients,  rinner =    0.800   0.800   0.800

     atomic species   valence    mass     pseudopotential
        C1             4.00    12.01100     C ( 1.00)
        H1             1.00     1.00800     H ( 1.00)
        O1             6.00    15.99900     O ( 1.00)
        Ti1           12.00    47.86700     Ti( 1.00)
        N1             5.00    14.00700     N ( 1.00)

     No symmetry found

   Cartesian axes

     site n.     atom                  positions (alat units)
         1           C1  tau(   1) = (   6.4247902   2.9910588  18.6917704  )
         2           H1  tau(   2) = (   6.3980358   3.9338040  19.2291268  )
         3           H1  tau(   3) = (   6.3671137   2.0386567  19.2103458  )
         4           O1  tau(   4) = (   3.2904802   0.0005063   4.7018136  )
         5           O1  tau(   5) = (   3.2900926   2.9813045   4.7018136  )
         6           O1  tau(   6) = (   1.3043587   1.4918075   6.0039043  )
         7           O1  tau(   7) = (   1.3039711   4.4726057   6.0039043  )
         8           O1  tau(   8) = (   5.2767064   1.4903225   6.0039473  )
         9           O1  tau(   9) = (   5.2763189   4.4711207   6.0039473  )
        10           O1  tau(  10) = (   3.2906025   0.0005020   7.3038282  )
        11           O1  tau(  11) = (   3.2902150   2.9813002   7.3038282  )
        12           O1  tau(  12) = (   0.0006271   0.0005054   7.9858123  )
        13           O1  tau(  13) = (   0.0002396   2.9813036   7.9858123  )
        14           O1  tau(  14) = (   4.5942328   1.4918067   9.2879030  )
        15           O1  tau(  15) = (   4.5938453   4.4726049   9.2879030  )
        16           O1  tau(  16) = (   1.9868534   1.4903216   9.2879459  )
        17           O1  tau(  17) = (   1.9864658   4.4711199   9.2879459  )
        18           O1  tau(  18) = (   0.0058113   2.9878523  10.5832334  )
        19           O1  tau(  19) = (   0.0062988   0.0093020  10.6005518  )
        20           O1  tau(  20) = (   3.2955317   2.9954032  11.3404818  )
        21           O1  tau(  21) = (   3.2944299   0.0136787  11.3445968  )
        22           O1  tau(  22) = (   5.2904553   1.5027675  12.6317203  )
        23           O1  tau(  23) = (   5.2914467   4.4836083  12.6349631  )
        24           O1  tau(  24) = (   1.2933861   1.5040032  12.6362007  )
        25           O1  tau(  25) = (   1.2922507   4.4849626  12.6395598  )
        26           O1  tau(  26) = (   3.2955364   2.9961609  13.9180299  )
        27           O1  tau(  27) = (   3.2969677   0.0155663  13.9438287  )
        28           O1  tau(  28) = (   0.0016464   0.0229801  14.6780835  )
        29           O1  tau(  29) = (   0.0078505   2.9966620  14.7218711  )
        30           O1  tau(  30) = (   4.5417949   4.4807699  16.1031406  )
        31           O1  tau(  31) = (   4.5422182   1.5234006  16.1020929  )
        32           O1  tau(  32) = (   2.0382733   4.4802786  16.1011463  )
        33           O1  tau(  33) = (   2.0385641   1.5240134  16.0993588  )
        34           O1  tau(  34) = (   6.5794991   0.0244991  17.1995468  )
        35           O1  tau(  35) = (   6.5588415   3.0026814  17.4289308  )
        36           Ti1 tau(  36) = (   0.0004258   2.9801865   6.0000000  )
        37           Ti1 tau(  37) = (   0.0000382   5.9609847   6.0000000  )
        38           Ti1 tau(  38) = (   3.2906075   1.4906267   6.0002472  )
        39           Ti1 tau(  39) = (   3.2902200   4.4714249   6.0002472  )
        40           Ti1 tau(  40) = (   3.2947477   0.0499856   9.1537742  )
        41           Ti1 tau(  41) = (   3.3215383   3.0289251   9.1580241  )
        42           Ti1 tau(  42) = (   0.0276872   4.5181110   9.2597866  )
        43           Ti1 tau(  43) = (   0.0223396   1.5961087   9.3523429  )
        44           Ti1 tau(  44) = (   3.3278215   4.4891914  12.4850086  )
        45           Ti1 tau(  45) = (   3.3277968   1.5111787  12.4828596  )
        46           Ti1 tau(  46) = (   0.0250534   0.0277200  12.4935153  )
        47           Ti1 tau(  47) = (   0.0290128   3.0118426  12.7617797  )
        48           Ti1 tau(  48) = (   3.2948489   3.0033751  15.7103116  )
        49           Ti1 tau(  49) = (   3.2995243   0.0226186  15.7353524  )
        50           Ti1 tau(  50) = (   0.0095488   1.4090105  15.9501391  )
        51           Ti1 tau(  51) = (   0.0117608   4.6113996  15.9785021  )
        52           N1  tau(  52) = (   3.7826193   3.0501191  20.3090129  )
        53           N1  tau(  53) = (   2.7364546   2.9530354  19.9655958  )

     number of k points=    10  Fermi-Dirac smearing, width (Ry)=  0.0073
                       cart. coord. in units 2pi/alat
        k(    1) = (   0.0000000   0.0000000   0.0000000), wk =   0.1250000
        k(    2) = (   0.0000000   0.0419351   0.0000000), wk =   0.2500000
        k(    3) = (   0.0000000  -0.0838702   0.0000000), wk =   0.1250000
        k(    4) = (   0.0379955   0.0000049   0.0000000), wk =   0.2500000
        k(    5) = (   0.0379955   0.0419400   0.0000000), wk =   0.2500000
        k(    6) = (   0.0379955  -0.0838652   0.0000000), wk =   0.2500000
        k(    7) = (   0.0379955  -0.0419301   0.0000000), wk =   0.2500000
        k(    8) = (  -0.0759910  -0.0000099   0.0000000), wk =   0.1250000
        k(    9) = (  -0.0759910   0.0419252   0.0000000), wk =   0.2500000
        k(   10) = (  -0.0759910  -0.0838800   0.0000000), wk =   0.1250000

     Initial potential from superposition of free atoms

     starting charge  383.99917, renormalised to  400.00000

     negative rho (up, down):  1.497E-02 0.000E+00

     %%%%%%%%%%%%%%%%%%%%%%%%%%%%%%%%%%%%%%%%%%%%%%%%%%%%%%%%%%%%%%%%%%%%%%%%
     %                                                                      %
     % You are using vdW-DF, which was implemented by the Thonhauser group. %
     % Please cite the following two papers that made this development      %
     % possible and the two reviews that describe the various versions:     %
     %                                                                      %
     %   T. Thonhauser et al., PRL 115, 136402 (2015).                      %
     %   T. Thonhauser et al., PRB 76, 125112 (2007).                       %
     %   K. Berland et al., Rep. Prog. Phys. 78, 066501 (2015).             %
     %   D.C. Langreth et al., J. Phys.: Condens. Matter 21, 084203 (2009). %
     %                                                                      %
     %                                                                      %
     % If you are calculating the stress with vdW-DF, please also cite:     %
     %                                                                      %
     %   R. Sabatini et al., J. Phys.: Condens. Matter 24, 424209 (2012).   %
     %                                                                      %
     %%%%%%%%%%%%%%%%%%%%%%%%%%%%%%%%%%%%%%%%%%%%%%%%%%%%%%%%%%%%%%%%%%%%%%%%

     Adding external electric field

     Computed dipole along edir(3) :
        Dipole              -12.3567 Ry au,        -31.4077 Debye
        Dipole field         -0.0233 Ry au,

        Potential amp.        2.1616 Ry
        Total length         46.3494 bohr

     Starting wfcs are  302 atomic wfcs
  @ DRIVER MODE: Message from server: STATUS
  @ DRIVER MODE: Message from server: POSDATA
  @ DRIVER MODE: Reading and sharing cell
  @ DRIVER MODE: Reading and sharing positions
  @ DRIVER MODE: Received positions

     Self-consistent Calculation

     iteration #  1     ecut=    29.40 Ry     beta= 0.05
     Davidson diagonalization with overlap
     c_bands:  1 eigenvalues not converged
     c_bands:  2 eigenvalues not converged
     c_bands:  2 eigenvalues not converged
     c_bands:  2 eigenvalues not converged
     c_bands:  4 eigenvalues not converged
     c_bands:  3 eigenvalues not converged
     c_bands:  4 eigenvalues not converged
     c_bands:  1 eigenvalues not converged
     c_bands:  5 eigenvalues not converged
     c_bands:  5 eigenvalues not converged
     ethr =  1.00E-05,  avg # of iterations = 22.0

[...]

     total energy              =   -2430.18589781 Ry
     estimated scf accuracy    <    6093.24725423 Ry

     iteration #  2     ecut=    29.40 Ry     beta= 0.05
     Davidson diagonalization with overlap
     ethr =  1.00E-02,  avg # of iterations = 22.0

[...]

     iteration # 73     ecut=    29.40 Ry     beta= 0.05
     Davidson diagonalization with overlap
     ethr =  6.44E-11,  avg # of iterations =  7.9

[...]

     total energy              =   -2970.35116889 Ry
     estimated scf accuracy    <       0.00000019 Ry

     iteration # 74     ecut=    29.40 Ry     beta= 0.05
     Davidson diagonalization with overlap
     c_bands:  1 eigenvalues not converged
     ethr =  4.78E-11,  avg # of iterations = 15.5

     negative rho (up, down):  1.507E-02 0.000E+00

     Adding external electric field

     Computed dipole along edir(3) :
        Dipole                0.9983 Ry au,          2.5375 Debye
        Dipole field          0.0019 Ry au,

        Potential amp.       -0.1746 Ry
        Total length         46.3494 bohr

     End of self-consistent calculation

          k = 0.0000 0.0000 0.0000 ( 18029 PWs)   bands (ev):

   -55.5182 -55.5091 -55.4810 -55.4727 -55.4128 -55.3966 -55.3726 -55.3091
   -55.3019 -55.2976 -55.2895 -55.2562 -55.2439 -55.2125 -54.5432 -54.5092
   -32.0800 -31.9911 -31.8957 -31.8918 -31.8280 -31.8239 -31.8164 -31.7964
   -31.7688 -31.7525 -31.7506 -31.7252 -31.7027 -31.6911 -31.6762 -31.6581
   -31.6455 -31.6428 -31.6342 -31.6128 -31.5961 -31.5883 -31.5807 -31.5752
   -31.5727 -31.5439 -31.5436 -31.5216 -31.5159 -31.5148 -31.4942 -31.4772
   -31.4657 -31.4458 -31.4348 -31.4339 -31.4288 -31.4259 -31.3996 -31.3953
   -31.3944 -31.3822 -30.9532 -30.8557 -30.8334 -30.7699 -30.6838 -30.5725
   -21.4091 -19.7333 -16.3030 -16.0022 -15.8629 -15.7327 -15.6735 -15.5618
   -15.4074 -15.3651 -15.2467 -15.2009 -15.1496 -15.1153 -15.1071 -15.0865
   -15.0794 -15.0511 -15.0485 -14.9810 -14.9697 -14.9332 -14.9206 -14.9200
   -14.8224 -14.7769 -14.7081 -14.6482 -14.6006 -14.5410 -14.5269 -13.0437
   -12.9253  -9.1199  -6.6716  -5.3876  -5.3786  -4.5631  -4.5527  -3.6513
    -3.4729  -3.4315  -3.4232  -3.3686  -3.3583  -3.2655  -3.1421  -3.1060
    -2.8219  -2.7313  -2.7004  -2.6848  -2.6775  -2.5612  -2.4902  -2.3684
    -2.3624  -2.3478  -2.3466  -2.3393  -2.2973  -2.2912  -2.2479  -2.2152
    -2.1411  -2.0705  -1.9627  -1.9532  -1.9240  -1.8630  -1.8281  -1.8144
    -1.8039  -1.7577  -1.7554  -1.7542  -1.7084  -1.6211  -1.5191  -1.4777
    -1.3799  -1.3453  -1.2330  -1.1047  -1.0267  -0.9839  -0.9306  -0.8814
    -0.8770  -0.8594  -0.8427  -0.8215  -0.8059  -0.6877  -0.5725  -0.5674
    -0.4706  -0.4196  -0.4083  -0.3891  -0.2804  -0.2605  -0.2537  -0.1832
    -0.0222  -0.0178  -0.0036   0.1162   0.1414   0.1601   0.2073   0.2317
     0.2724   0.2962   0.3475   0.4087   0.4190   0.4673   0.4750   0.4971
     0.5992   0.6607   0.6635   0.7219   0.7697   0.9398   0.9720   1.1104
     1.1682   1.3849   1.4817   1.5324   1.6507   2.0688   2.1279   3.6417
     3.6774   3.6981   3.7444   3.7789   3.8133   3.8765   4.0847   4.1019
     4.1040   4.1308

[...]

          k = 0.0380-0.0419 0.0000 ( 17876 PWs)   bands (ev):

[...]

          k =-0.0760-0.0000 0.0000 ( 17886 PWs)   bands (ev):

[...]

          k =-0.0760-0.0839 0.0000 ( 17948 PWs)   bands (ev):

   -55.5071 -55.4922 -55.4919 -55.4894 -55.4044 -55.3930 -55.3810 -55.3123
   -55.2978 -55.2913 -55.2733 -55.2728 -55.2502 -55.2158 -54.5266 -54.5256
   -31.8827 -31.8798 -31.8152 -31.8040 -31.8015 -31.7990 -31.7970 -31.7763
   -31.7654 -31.7389 -31.7243 -31.7109 -31.6987 -31.6589 -31.6479 -31.6408
   -31.6358 -31.6309 -31.6266 -31.6211 -31.6079 -31.6043 -31.5983 -31.5974
   -31.5942 -31.5919 -31.5759 -31.5751 -31.5400 -31.5302 -31.5258 -31.5134
   -31.5003 -31.4948 -31.4859 -31.4790 -31.4782 -31.4720 -31.4592 -31.4341
   -31.4303 -31.4100 -30.8467 -30.8455 -30.7665 -30.7657 -30.7274 -30.7265
   -21.4088 -19.7260 -15.7332 -15.7035 -15.6239 -15.4698 -15.4596 -15.4165
   -15.3840 -15.3122 -15.2612 -15.2577 -15.2165 -15.2016 -15.1890 -15.1503
   -15.1257 -15.0715 -15.0596 -15.0572 -15.0416 -14.9864 -14.9798 -14.9403
   -14.9167 -14.9050 -14.8705 -14.8630 -14.7883 -14.7837 -14.7249 -13.0278
   -13.0252  -9.1324  -6.6546  -5.3651  -5.3088  -4.5679  -4.5622  -3.5699
    -3.1676  -3.0227  -2.9871  -2.8416  -2.6925  -2.6809  -2.6257  -2.5400
    -2.5063  -2.4589  -2.4165  -2.3954  -2.3695  -2.3651  -2.3565  -2.3475
    -2.3443  -2.2914  -2.2741  -2.2407  -2.1920  -2.1752  -2.1625  -2.1555
    -2.1130  -2.0974  -2.0900  -2.0833  -2.0768  -2.0122  -1.9381  -1.8718
    -1.7768  -1.7469  -1.7232  -1.6796  -1.6439  -1.6090  -1.5870  -1.5694
    -1.4552  -1.4320  -1.2928  -1.2705  -1.2519  -1.2365  -1.2166  -1.1955
    -1.0675  -0.9800  -0.9720  -0.9428  -0.8963  -0.8584  -0.8135  -0.7902
    -0.7001  -0.6625  -0.6228  -0.5762  -0.4925  -0.4830  -0.4324  -0.4157
    -0.3358  -0.3188  -0.2900  -0.2878  -0.2202  -0.1749  -0.1074  -0.0936
    -0.0668   0.0314   0.0772   0.1079   0.2825   0.4640   0.4807   0.4869
     0.5938   0.6080   0.6576   0.7106   0.7482   0.8286   0.8794   0.9790
     0.9984   1.0079   1.0880   1.8408   1.8417   1.9314   1.9428   3.6390
     3.8586   3.8881   3.9103   3.9622   4.1191   4.1239   4.1370   4.1498
     4.2602   4.2796

     the Fermi energy is     3.6307 ev

!    total energy              =   -2970.35118267 Ry
     estimated scf accuracy    <       0.00000007 Ry
     smearing contrib. (-TS)   =      -0.03423296 Ry
     internal energy E=F+TS    =   -2970.31694970 Ry

     The total energy is F=E-TS. E is the sum of the following terms:
     one-electron contribution =  -23485.75625018 Ry
     hartree contribution      =   11835.53669858 Ry
     xc contribution           =    -491.51168669 Ry
     ewald contribution        =    9171.41240773 Ry
     electric field correction =       0.00188086 Ry

     convergence has been achieved in  74 iterations

     Forces acting on atoms (cartesian axes, Ry/au):

     atom    1 type  1   force =    -0.00017062    0.00010208   -0.00115243
     atom    2 type  2   force =    -0.00049354    0.00080799    0.00044110
     atom    3 type  2   force =     0.00015128   -0.00059173   -0.00017563
     atom    4 type  3   force =    -0.00007311    0.00002022    0.10424957
     atom    5 type  3   force =    -0.00005883   -0.00001478    0.10430772
     atom    6 type  3   force =    -0.06903599    0.00074648   -0.02905635
     atom    7 type  3   force =    -0.06858644   -0.00134805   -0.02906099
     atom    8 type  3   force =     0.06870085    0.00127353   -0.02912834
     atom    9 type  3   force =     0.06835667   -0.00097021   -0.02913669
     atom   10 type  3   force =     0.00016867    0.00039107    0.04598735
     atom   11 type  3   force =     0.00058678    0.00071863    0.04716781
     atom   12 type  3   force =     0.00031277   -0.00529023   -0.03193549
     atom   13 type  3   force =     0.00036350    0.00311809   -0.02592222
     atom   14 type  3   force =    -0.01816988   -0.00007726    0.00386548
     atom   15 type  3   force =    -0.01658557    0.00120469    0.00340624
     atom   16 type  3   force =     0.01843008   -0.00126049    0.00383438
     atom   17 type  3   force =     0.01758539    0.00142188    0.00327084
     atom   18 type  3   force =     0.00002124    0.00029227    0.00028139
     atom   19 type  3   force =     0.00004029   -0.00012113    0.00031782
     atom   20 type  3   force =    -0.00005366    0.00029141    0.00036365
     atom   21 type  3   force =    -0.00008095   -0.00030737   -0.00037785
     atom   22 type  3   force =     0.00034470    0.00007386    0.00031204
     atom   23 type  3   force =     0.00026307   -0.00001333    0.00029046
     atom   24 type  3   force =    -0.00032873    0.00012851    0.00017852
     atom   25 type  3   force =    -0.00021526   -0.00003062    0.00014618
     atom   26 type  3   force =    -0.00017721    0.00013477    0.00042867
     atom   27 type  3   force =    -0.00013730   -0.00009746    0.00019754
     atom   28 type  3   force =     0.00004989   -0.00105334   -0.00108869
     atom   29 type  3   force =     0.00001430    0.00043529   -0.00042410
     atom   30 type  3   force =     0.00012249   -0.00014776    0.00016828
     atom   31 type  3   force =    -0.00010720   -0.00001609    0.00008849
     atom   32 type  3   force =     0.00009087   -0.00025129    0.00044508
     atom   33 type  3   force =     0.00030052    0.00006827    0.00035503
     atom   34 type  3   force =    -0.00017450   -0.00039114    0.00280174
     atom   35 type  3   force =    -0.00041517   -0.00036609    0.00041556
     atom   36 type  4   force =    -0.00025830   -0.00176055    0.10177539
     atom   37 type  4   force =    -0.00008980    0.00134961    0.11449094
     atom   38 type  4   force =    -0.00032243    0.00052915   -0.18031758
     atom   39 type  4   force =    -0.00020990   -0.00038616   -0.18063689
     atom   40 type  4   force =     0.00026334    0.00082079   -0.00111572
     atom   41 type  4   force =     0.00021603   -0.00079001   -0.00090764
     atom   42 type  4   force =    -0.00022232    0.00084116   -0.00019917
     atom   43 type  4   force =    -0.00017231   -0.00015128    0.00002178
     atom   44 type  4   force =     0.00002846   -0.00012999    0.00021973
     atom   45 type  4   force =     0.00004779    0.00010267    0.00033027
     atom   46 type  4   force =    -0.00016396    0.00049036   -0.00129653
     atom   47 type  4   force =    -0.00031907   -0.00048072    0.00182542
     atom   48 type  4   force =    -0.00059494   -0.00010771    0.00060031
     atom   49 type  4   force =    -0.00052283    0.00020411    0.00012992
     atom   50 type  4   force =     0.00019982    0.00927724   -0.00049067
     atom   51 type  4   force =     0.00024662   -0.00813257   -0.00152795
     atom   52 type  5   force =     0.00126788    0.00044243    0.00137862
     atom   53 type  5   force =    -0.00043349   -0.00099924   -0.00014239

     Total force =     0.374415     Total SCF correction =     0.000742
  @ DRIVER MODE: Message from server: STATUS
  @ DRIVER MODE: Message from server: GETFORCE
  @ DRIVER MODE: Returning v,forces,stress,ensemble

     Writing output data file ./calc.save/
  @ DRIVER MODE: Message from server: EXIT
  @ DRIVE MODE: Exiting

     General routines

     Parallel routines

   This run was terminated on:  19: 5:33  14Sep2021

   JOB DONE.