     Program PWSCF v.6.7GPU starts on 26Sep2021 at 23:47:58

     R & G space division:  proc/nbgrp/npool/nimage =       8
     Reading input from /storage/home/hcoda1/3/ntian30/research/carbon/CxH_vib/H2O_calc/ads_slab/CH3OHN2HO_a/out_0056/pw.inp
Warning: card &CELL ignored
Warning: card   CELL_DYNAMICS='IPI', ignored
Warning: card / ignored

     Current dimensions of program PWSCF are:
     Max number of different atomic species (ntypx) = 10
     Max number of k-points (npk) =  40000
     Max angular momentum in pseudopotentials (lmaxx) =  3
     Presently no symmetry can be used with electric field

     Message from routine cell_base_init:
     DEPRECATED: use true lattice parameter, not A to a.u. conversion factor

     IMPORTANT: XC functional enforced from input :
     Exchange-correlation= BEEF-VDW
                           (   1   4  43  14   2   0   0)
     Any further DFT definition will be discarded
     Please, verify this is what you really want

  @ DRIVER MODE: Connecting to
 qe_1139763_2971668.sched-torque.pace.gatech.edupajo50os_scratch
  using UNIX socket
  @ DRIVER MODE: Message from server: STATUS
  @ DRIVER MODE: Message from server: INIT
  @ DRIVER MODE: Receiving replica           0          -1
  @ DRIVER MODE: Receiving encoded integer          25
  @ DRIVER MODE:  SCF:  T  FORCE:  T  STRESS:  F  VC:  F  ENSEMBLE:  F
  @ DRIVER MODE:  SCF:  T  FORCE:  T  STRESS:  F  VC:  F  ENSEMBLE:  F

     Using Slab Decomposition

     bravais-lattice index     =            0
     lattice parameter (alat)  =       1.8897  a.u.
     unit-cell volume          =    6658.9804 (a.u.)^3
     number of atoms/cell      =           57
     number of atomic types    =            5
     number of electrons       =       409.00
     number of Kohn-Sham states=          214
     kinetic-energy cutoff     =      29.3995  Ry
     charge density cutoff     =     293.9946  Ry
     scf convergence threshold =      7.3E-08
     mixing beta               =       0.0500
     number of iterations used =            8  plain     mixing
     Exchange-correlation= BEEF-VDW
                           (   1   4  43  14   2   0   0)

     celldm(1)=   1.889726  celldm(2)=   0.000000  celldm(3)=   0.000000
     celldm(4)=   0.000000  celldm(5)=   0.000000  celldm(6)=   0.000000

     crystal axes: (cart. coord. in units of alat)
               a(1) = (   6.579727   0.000000   0.000000 )
               a(2) = (  -0.000775   5.961596   0.000000 )
               a(3) = (   0.000000   0.000000  25.155947 )

     reciprocal axes: (cart. coord. in units 2 pi/alat)
               b(1) = (  0.151982  0.000020  0.000000 )
               b(2) = (  0.000000  0.167740  0.000000 )
               b(3) = (  0.000000  0.000000  0.039752 )

     PseudoPot. # 1 for Ti read from file:
     /storage/coda1/p-amedford6/0/shared/rich_project_chbe-medford/medford-share/data/pseudos_module/espresso/nninc/pbe/van/Ti.UPF
     MD5 check sum: 8e4df49b7f0d34bbd5052bf3f5ea0213
     Pseudo is Ultrasoft, Zval = 12.0
     Generated by new atomic code, or converted to UPF format
     Using radial grid of  851 points,  6 beta functions with:
                l(1) =   0
                l(2) =   0
                l(3) =   1
                l(4) =   1
                l(5) =   2
                l(6) =   2
     Q(r) pseudized with  8 coefficients,  rinner =    1.000   1.000   1.000
                                                       1.000   1.000

     PseudoPot. # 2 for O  read from file:
     /storage/coda1/p-amedford6/0/shared/rich_project_chbe-medford/medford-share/data/pseudos_module/espresso/nninc/pbe/van/O.UPF
     MD5 check sum: 78c19812648e8988a0fe644b0f25305e
     Pseudo is Ultrasoft, Zval =  6.0
     Generated by new atomic code, or converted to UPF format
     Using radial grid of  737 points,  4 beta functions with:
                l(1) =   0
                l(2) =   0
                l(3) =   1
                l(4) =   1
     Q(r) pseudized with  8 coefficients,  rinner =    0.800   0.800   0.800

     PseudoPot. # 3 for C  read from file:
     /storage/coda1/p-amedford6/0/shared/rich_project_chbe-medford/medford-share/data/pseudos_module/espresso/nninc/pbe/van/C.UPF
     MD5 check sum: 1a69bf6b8db32088f5b2163dbdb77a27
     Pseudo is Ultrasoft, Zval =  4.0
     Generated by new atomic code, or converted to UPF format
     Using radial grid of  721 points,  4 beta functions with:
                l(1) =   0
                l(2) =   0
                l(3) =   1
                l(4) =   1
     Q(r) pseudized with  8 coefficients,  rinner =    0.800   0.800   0.800

     PseudoPot. # 4 for H  read from file:
     /storage/coda1/p-amedford6/0/shared/rich_project_chbe-medford/medford-share/data/pseudos_module/espresso/nninc/pbe/van/H.UPF
     MD5 check sum: b5ee9d7bfd3a09ee7748110bda690ff7
     Pseudo is Ultrasoft, Zval =  1.0
     Generated by new atomic code, or converted to UPF format
     Using radial grid of  615 points,  1 beta functions with:
                l(1) =   0
     Q(r) pseudized with  8 coefficients,  rinner =    0.800

     PseudoPot. # 5 for N  read from file:
     /storage/coda1/p-amedford6/0/shared/rich_project_chbe-medford/medford-share/data/pseudos_module/espresso/nninc/pbe/van/N.UPF
     MD5 check sum: 90d10febe142ad51ac9d5be1deb811c4
     Pseudo is Ultrasoft, Zval =  5.0
     Generated by new atomic code, or converted to UPF format
     Using radial grid of  729 points,  4 beta functions with:
                l(1) =   0
                l(2) =   0
                l(3) =   1
                l(4) =   1
     Q(r) pseudized with  8 coefficients,  rinner =    0.800   0.800   0.800

     atomic species   valence    mass     pseudopotential
        Ti1           12.00    47.86700     Ti( 1.00)
        O1             6.00    15.99900     O ( 1.00)
        C1             4.00    12.01100     C ( 1.00)
        H1             1.00     1.00800     H ( 1.00)
        N1             5.00    14.00700     N ( 1.00)

     No symmetry found

   Cartesian axes

     site n.     atom                  positions (alat units)
         1           Ti1 tau(   1) = (   0.0004258   2.9801865   6.0000000  )
         2           Ti1 tau(   2) = (   3.2906075   1.4906267   6.0002472  )
         3           O1  tau(   3) = (   0.0006271   0.0005054   7.9858123  )
         4           O1  tau(   4) = (   3.2906025   0.0005020   7.3038282  )
         5           O1  tau(   5) = (   4.5942328   1.4918067   9.2879030  )
         6           O1  tau(   6) = (   1.9868534   1.4903216   9.2879459  )
         7           Ti1 tau(   7) = (   3.3371032   3.0268772   9.1887580  )
         8           Ti1 tau(   8) = (   0.0611061   1.5258697   9.2809523  )
         9           O1  tau(   9) = (   3.3143856   0.0188946  11.3581724  )
        10           O1  tau(  10) = (   0.0164151   0.0031400  10.5895864  )
        11           O1  tau(  11) = (   1.3088961   1.4994640  12.6347600  )
        12           O1  tau(  12) = (   5.3347766   1.4946156  12.6347356  )
        13           Ti1 tau(  13) = (   0.0202478   3.0292801  12.5720800  )
        14           Ti1 tau(  14) = (   3.3188568   1.5851219  12.4260843  )
        15           O1  tau(  15) = (   0.0445434   5.9450813  14.6510506  )
        16           O1  tau(  16) = (   3.3207065   5.8849141  14.0104376  )
        17           O1  tau(  17) = (   4.6249962   1.5116716  16.1313945  )
        18           O1  tau(  18) = (   2.0639035   1.5439872  16.0680944  )
        19           Ti1 tau(  19) = (   3.3360141   2.9454253  15.6763505  )
        20           Ti1 tau(  20) = (   0.0686920   1.3314864  15.9334539  )
        21           O1  tau(  21) = (   3.2904802   0.0005063   4.7018136  )
        22           O1  tau(  22) = (   0.0979609   0.0039778  17.1657837  )
        23           O1  tau(  23) = (   1.3043587   1.4918075   6.0039043  )
        24           O1  tau(  24) = (   5.2767064   1.4903225   6.0039473  )
        25           Ti1 tau(  25) = (   0.0000382   5.9609847   6.0000000  )
        26           Ti1 tau(  26) = (   3.2902200   4.4714249   6.0002472  )
        27           O1  tau(  27) = (   0.0002396   2.9813036   7.9858123  )
        28           O1  tau(  28) = (   3.2902150   2.9813002   7.3038282  )
        29           O1  tau(  29) = (   4.5938453   4.4726049   9.2879030  )
        30           O1  tau(  30) = (   1.9864658   4.4711199   9.2879459  )
        31           Ti1 tau(  31) = (   3.3368545   0.0404040   9.1664313  )
        32           Ti1 tau(  32) = (   0.0604674   4.4799263   9.2696248  )
        33           O1  tau(  33) = (   3.3137611   2.9662427  11.3084074  )
        34           O1  tau(  34) = (   0.0134136   2.9850836  10.6046154  )
        35           O1  tau(  35) = (   1.3054726   4.4719986  12.6384794  )
        36           O1  tau(  36) = (   5.3362180   4.4781181  12.6390536  )
        37           Ti1 tau(  37) = (   0.0365240   0.0487139  12.4702884  )
        38           Ti1 tau(  38) = (   3.3180881   4.6653017  12.7087268  )
        39           O1  tau(  39) = (   0.0228105   2.9918545  14.7761892  )
        40           O1  tau(  40) = (   3.3431522   2.9700269  13.9040455  )
        41           O1  tau(  41) = (   4.6265974   4.4152401  16.1544535  )
        42           O1  tau(  42) = (   2.0571238   4.3592187  16.1146037  )
        43           Ti1 tau(  43) = (   3.3848590   5.9294639  16.2700006  )
        44           Ti1 tau(  44) = (   0.0517009   4.5268197  15.8466567  )
        45           O1  tau(  45) = (   3.2900926   2.9813045   4.7018136  )
        46           O1  tau(  46) = (   1.3039711   4.4726057   6.0039043  )
        47           O1  tau(  47) = (   5.2763189   4.4711207   6.0039473  )
        48           C1  tau(  48) = (   5.9450987   3.0517216  18.8599509  )
        49           O1  tau(  49) = (   0.1802289   3.0084098  17.6484507  )
        50           H1  tau(  50) = (   4.9625852   2.6832861  18.5889656  )
        51           H1  tau(  51) = (   1.1163247   3.1442434  17.8758057  )
        52           H1  tau(  52) = (   6.3899442   2.3914015  19.6026461  )
        53           H1  tau(  53) = (   5.8846647   4.0795385  19.2151274  )
        54           N1  tau(  54) = (   5.7598779   3.1323611  22.9045362  )
        55           N1  tau(  55) = (   4.9845974   3.1850264  22.1203839  )
        56           O1  tau(  56) = (   3.1467188   0.0118795  18.1166202  )
        57           H1  tau(  57) = (   2.2264505   0.0865285  18.3868412  )

     number of k points=    10  Fermi-Dirac smearing, width (Ry)=  0.0073
                       cart. coord. in units 2pi/alat
        k(    1) = (   0.0000000   0.0000000   0.0000000), wk =   0.1250000
        k(    2) = (   0.0000000   0.0419351   0.0000000), wk =   0.2500000
        k(    3) = (   0.0000000  -0.0838702   0.0000000), wk =   0.1250000
        k(    4) = (   0.0379955   0.0000049   0.0000000), wk =   0.2500000
        k(    5) = (   0.0379955   0.0419400   0.0000000), wk =   0.2500000
        k(    6) = (   0.0379955  -0.0838652   0.0000000), wk =   0.2500000
        k(    7) = (   0.0379955  -0.0419301   0.0000000), wk =   0.2500000
        k(    8) = (  -0.0759910  -0.0000099   0.0000000), wk =   0.1250000
        k(    9) = (  -0.0759910   0.0419252   0.0000000), wk =   0.2500000
        k(   10) = (  -0.0759910  -0.0838800   0.0000000), wk =   0.1250000

     Initial potential from superposition of free atoms

     starting charge  392.99914, renormalised to  409.00000

     negative rho (up, down):  9.139E-03 0.000E+00

     %%%%%%%%%%%%%%%%%%%%%%%%%%%%%%%%%%%%%%%%%%%%%%%%%%%%%%%%%%%%%%%%%%%%%%%%
     %                                                                      %
     % You are using vdW-DF, which was implemented by the Thonhauser group. %
     % Please cite the following two papers that made this development      %
     % possible and the two reviews that describe the various versions:     %
     %                                                                      %
     %   T. Thonhauser et al., PRL 115, 136402 (2015).                      %
     %   T. Thonhauser et al., PRB 76, 125112 (2007).                       %
     %   K. Berland et al., Rep. Prog. Phys. 78, 066501 (2015).             %
     %   D.C. Langreth et al., J. Phys.: Condens. Matter 21, 084203 (2009). %
     %                                                                      %
     %                                                                      %
     % If you are calculating the stress with vdW-DF, please also cite:     %
     %                                                                      %
     %   R. Sabatini et al., J. Phys.: Condens. Matter 24, 424209 (2012).   %
     %                                                                      %
     %%%%%%%%%%%%%%%%%%%%%%%%%%%%%%%%%%%%%%%%%%%%%%%%%%%%%%%%%%%%%%%%%%%%%%%%

     Adding external electric field

     Computed dipole along edir(3) :
        Dipole              -18.8687 Ry au,        -47.9594 Debye
        Dipole field         -0.0356 Ry au,

        Potential amp.        3.3008 Ry
        Total length         46.3494 bohr

     Starting wfcs are  309 atomic wfcs
  @ DRIVER MODE: Message from server: STATUS
  @ DRIVER MODE: Message from server: POSDATA
  @ DRIVER MODE: Reading and sharing cell
  @ DRIVER MODE: Reading and sharing positions
  @ DRIVER MODE: Received positions

     Self-consistent Calculation

     iteration #  1     ecut=    29.40 Ry     beta= 0.05
     Davidson diagonalization with overlap
     c_bands:  5 eigenvalues not converged
     c_bands:  5 eigenvalues not converged
     c_bands:  1 eigenvalues not converged
     c_bands:  4 eigenvalues not converged
     c_bands:  1 eigenvalues not converged
     c_bands:  3 eigenvalues not converged
     ethr =  1.00E-05,  avg # of iterations = 27.3

[...]

     total energy              =   -2113.16001996 Ry
     estimated scf accuracy    <   10331.06095586 Ry

     iteration #  2     ecut=    29.40 Ry     beta= 0.05
     Davidson diagonalization with overlap
     ethr =  1.00E-02,  avg # of iterations = 29.7

[...]

     iteration # 84     ecut=    29.40 Ry     beta= 0.05
     Davidson diagonalization with overlap
     c_bands:  1 eigenvalues not converged
     ethr =  1.51E-10,  avg # of iterations = 13.5

[...]

     total energy              =   -3006.45817252 Ry
     estimated scf accuracy    <       0.00000008 Ry

     iteration # 89     ecut=    29.40 Ry     beta= 0.05
     Davidson diagonalization with overlap
     ethr =  1.87E-11,  avg # of iterations =  6.8

     negative rho (up, down):  1.064E-02 0.000E+00

     Adding external electric field

     Computed dipole along edir(3) :
        Dipole                1.0475 Ry au,          2.6626 Debye
        Dipole field          0.0020 Ry au,

        Potential amp.       -0.1832 Ry
        Total length         46.3494 bohr

     End of self-consistent calculation

          k = 0.0000 0.0000 0.0000 ( 18029 PWs)   bands (ev):

   -55.3308 -55.2536 -55.2183 -55.1442 -55.1217 -55.0875 -55.0515 -55.0464
   -55.0449 -55.0260 -55.0160 -54.9860 -54.8993 -54.8233 -54.2132 -54.1792
   -31.7316 -31.7222 -31.6366 -31.6238 -31.5839 -31.5692 -31.5464 -31.5427
   -31.5079 -31.4964 -31.4853 -31.4197 -31.4073 -31.4072 -31.3805 -31.3620
   -31.3537 -31.3366 -31.3349 -31.3239 -31.3170 -31.3123 -31.2664 -31.2641
   -31.2623 -31.2557 -31.2528 -31.2398 -31.2336 -31.2147 -31.2081 -31.1975
   -31.1959 -31.1759 -31.1714 -31.1634 -31.1612 -31.1281 -31.0880 -31.0687
   -31.0375 -31.0272 -30.6194 -30.5331 -30.5105 -30.4363 -30.3501 -30.2385
   -21.5068 -19.7109 -16.1923 -15.9077 -15.7279 -15.5254 -15.4678 -15.4016
   -15.2138 -15.1405 -14.9845 -14.8586 -14.8447 -14.7880 -14.7872 -14.7769
   -14.7480 -14.7229 -14.6777 -14.6663 -14.6609 -14.6573 -14.5958 -14.5533
   -14.5509 -14.5235 -14.5029 -14.3757 -14.3288 -14.2742 -14.1042 -14.0807
   -12.7127 -12.5965 -10.5716  -6.6861  -6.4087  -4.6676  -4.6303  -4.5909
    -4.4075  -3.6808  -3.3705  -3.2549  -3.1545  -3.1357  -3.0713  -3.0202
    -2.8054  -2.6984  -2.6360  -2.5234  -2.3963  -2.3599  -2.3074  -2.2779
    -2.1860  -2.1678  -2.1362  -2.1061  -2.0510  -2.0230  -2.0156  -2.0026
    -1.9270  -1.9203  -1.7909  -1.7855  -1.7284  -1.6372  -1.6194  -1.5966
    -1.5893  -1.5550  -1.5525  -1.5103  -1.4866  -1.4625  -1.4341  -1.3588
    -1.3399  -1.2768  -1.2391  -1.0069  -0.8523  -0.8278  -0.7477  -0.7313
    -0.7003  -0.6708  -0.6512  -0.6406  -0.6035  -0.5881  -0.4843  -0.3814
    -0.3730  -0.3124  -0.2745  -0.2698  -0.1343  -0.0892  -0.0152   0.0077
     0.0398   0.0609   0.1454   0.1939   0.2153   0.2817   0.3129   0.4191
     0.4562   0.4757   0.5170   0.5728   0.6328   0.6662   0.7062   0.7096
     0.7423   0.7913   0.8201   0.8556   0.8777   0.9250   1.0278   1.0656
     1.0756   1.2145   1.2285   1.3093   1.4343   1.4862   1.7593   1.8119
     1.8584   2.0042   2.3807   2.4275   3.8704   3.9725   3.9939   4.0152
     4.0829   4.1648   4.3302   4.3536   4.4177   4.5186

[...]

          k = 0.0380-0.0419 0.0000 ( 17876 PWs)   bands (ev):

[...]

          k =-0.0760-0.0000 0.0000 ( 17886 PWs)   bands (ev):

[...]

          k =-0.0760-0.0839 0.0000 ( 17948 PWs)   bands (ev):

   -55.3301 -55.2404 -55.2313 -55.1382 -55.1174 -55.0933 -55.0499 -55.0462
   -55.0376 -55.0293 -55.0170 -54.9953 -54.8956 -54.8269 -54.1964 -54.1959
   -31.6419 -31.5802 -31.5704 -31.5515 -31.5440 -31.5426 -31.5366 -31.5207
   -31.4585 -31.4541 -31.4149 -31.3931 -31.3820 -31.3767 -31.3604 -31.3582
   -31.3547 -31.3522 -31.3460 -31.3401 -31.3350 -31.3331 -31.3177 -31.3158
   -31.2966 -31.2861 -31.2561 -31.2496 -31.2475 -31.2432 -31.2354 -31.2339
   -31.2274 -31.2227 -31.2189 -31.2144 -31.2119 -31.1737 -31.1551 -31.0921
   -31.0747 -31.0311 -30.5234 -30.5231 -30.4332 -30.4316 -30.3933 -30.3924
   -21.5066 -19.7071 -16.1732 -15.5352 -15.3791 -15.2080 -15.1942 -15.1150
   -15.0234 -15.0057 -14.9752 -14.9619 -14.9448 -14.9202 -14.9120 -14.8774
   -14.8139 -14.7720 -14.7489 -14.7407 -14.6937 -14.6884 -14.6849 -14.6221
   -14.6149 -14.5967 -14.5720 -14.5121 -14.5030 -14.4027 -14.3854 -14.2157
   -12.6989 -12.6980 -10.5736  -6.6864  -6.4106  -4.6632  -4.6371  -4.5783
    -4.4000  -3.6470  -3.3609  -2.6837  -2.5995  -2.5359  -2.4318  -2.3536
    -2.2997  -2.2500  -2.2291  -2.1841  -2.1630  -2.0935  -2.0590  -2.0500
    -2.0307  -2.0286  -1.9982  -1.9827  -1.9700  -1.9489  -1.9203  -1.9030
    -1.8925  -1.8716  -1.8516  -1.8258  -1.8137  -1.8038  -1.7889  -1.7730
    -1.6624  -1.6450  -1.6128  -1.4498  -1.4385  -1.3694  -1.3378  -1.3113
    -1.3077  -1.2773  -1.2622  -1.2204  -1.1148  -1.0866  -1.0376  -0.9961
    -0.9023  -0.8873  -0.8365  -0.7849  -0.7397  -0.7110  -0.6804  -0.6654
    -0.6133  -0.4734  -0.4524  -0.4080  -0.2886  -0.2150  -0.1993  -0.1868
    -0.1649  -0.1420  -0.0956  -0.0875  -0.0253  -0.0126   0.0578   0.0621
     0.0911   0.1122   0.2153   0.3375   0.4152   0.4597   0.5049   0.5539
     0.5863   0.6691   0.7464   0.8329   0.9082   0.9384   0.9520   1.0697
     1.1029   1.1554   1.1997   1.2206   1.2790   1.3149   1.3550   1.3881
     2.1729   2.1866   2.2428   2.2485   4.0510   4.3008   4.3610   4.3781
     4.3878   4.4202   4.4414   4.4936   4.5096   4.5333

     the Fermi energy is     3.8804 ev

!    total energy              =   -3006.45817586 Ry
     estimated scf accuracy    <       0.00000006 Ry
     smearing contrib. (-TS)   =      -0.02082749 Ry
     internal energy E=F+TS    =   -3006.43734837 Ry

     The total energy is F=E-TS. E is the sum of the following terms:
     one-electron contribution =  -22317.88757934 Ry
     hartree contribution      =   11258.46010610 Ry
     xc contribution           =    -501.15454644 Ry
     ewald contribution        =    8554.14260053 Ry
     electric field correction =       0.00207079 Ry

     convergence has been achieved in  89 iterations

     Forces acting on atoms (cartesian axes, Ry/au):

     atom    1 type  1   force =    -0.00037339   -0.00017320    0.09498408
     atom    2 type  1   force =    -0.00035736    0.00512880   -0.17482496
     atom    3 type  2   force =     0.00070901    0.00012838   -0.02673656
     atom    4 type  2   force =     0.00128966    0.00083281    0.05206689
     atom    5 type  2   force =    -0.01095736   -0.00255953    0.00076315
     atom    6 type  2   force =     0.01192253   -0.00380954    0.00177285
     atom    7 type  1   force =    -0.00021700    0.00039707    0.00067086
     atom    8 type  1   force =     0.00013366    0.00022544    0.00016379
     atom    9 type  2   force =     0.00024888    0.00075808   -0.00066467
     atom   10 type  2   force =    -0.00039152    0.00015975    0.00012282
     atom   11 type  2   force =     0.00044073   -0.00015173    0.00008881
     atom   12 type  2   force =    -0.00085052   -0.00015044    0.00034204
     atom   13 type  1   force =     0.00043752    0.00035041   -0.00020344
     atom   14 type  1   force =    -0.00034164   -0.00069616    0.00094510
     atom   15 type  2   force =    -0.00014005   -0.00054582   -0.00105921
     atom   16 type  2   force =    -0.00027474    0.00001632   -0.00017102
     atom   17 type  2   force =    -0.00103360    0.00030372   -0.00002479
     atom   18 type  2   force =     0.00055462    0.00063241   -0.00002231
     atom   19 type  1   force =     0.00026942   -0.00082404    0.00016651
     atom   20 type  1   force =    -0.00026077   -0.00006248    0.00057882
     atom   21 type  2   force =    -0.00000484    0.00007476    0.10307314
     atom   22 type  2   force =    -0.00011117   -0.00012020    0.00073403
     atom   23 type  2   force =    -0.07197392    0.00013877   -0.02802532
     atom   24 type  2   force =     0.07180861    0.00063592   -0.02812833
     atom   25 type  1   force =    -0.00036166    0.00025888    0.10243554
     atom   26 type  1   force =    -0.00011066   -0.00475183   -0.17507040
     atom   27 type  2   force =     0.00084992    0.00117103   -0.02485481
     atom   28 type  2   force =     0.00119688    0.00025517    0.05169806
     atom   29 type  2   force =    -0.01191595    0.00381391    0.00170680
     atom   30 type  2   force =     0.01375026    0.00146391    0.00243679
     atom   31 type  1   force =    -0.00029166   -0.00016674    0.00080779
     atom   32 type  1   force =     0.00027819    0.00028940    0.00059270
     atom   33 type  2   force =     0.00000526    0.00019338    0.00008944
     atom   34 type  2   force =    -0.00027335   -0.00032212   -0.00058764
     atom   35 type  2   force =    -0.00022947    0.00005057   -0.00049351
     atom   36 type  2   force =    -0.00038215    0.00009541   -0.00011045
     atom   37 type  1   force =    -0.00005573   -0.00034324    0.00006125
     atom   38 type  1   force =    -0.00056732    0.00027029   -0.00000182
     atom   39 type  2   force =    -0.00025171   -0.00024519    0.00072790
     atom   40 type  2   force =    -0.00020034    0.00011493    0.00028124
     atom   41 type  2   force =    -0.00145570   -0.00025066   -0.00006403
     atom   42 type  2   force =     0.00112359   -0.00009143   -0.00046561
     atom   43 type  1   force =    -0.00002236    0.00053068   -0.00004408
     atom   44 type  1   force =    -0.00007945    0.00024790    0.00020845
     atom   45 type  2   force =     0.00000109    0.00013977    0.10266401
     atom   46 type  2   force =    -0.07186652   -0.00062683   -0.02797238
     atom   47 type  2   force =     0.07172182   -0.00013634   -0.02804664
     atom   48 type  3   force =    -0.00032585   -0.00013624    0.00004593
     atom   49 type  2   force =    -0.00123377   -0.00079207    0.00016037
     atom   50 type  4   force =    -0.00006949   -0.00045100   -0.00019977
     atom   51 type  4   force =     0.00034585    0.00039922   -0.00066327
     atom   52 type  4   force =    -0.00020726    0.00008440   -0.00046152
     atom   53 type  4   force =    -0.00001611   -0.00039695   -0.00106068
     atom   54 type  5   force =     0.00018523   -0.00008560    0.00040696
     atom   55 type  5   force =    -0.00051744    0.00006605   -0.00034002
     atom   56 type  2   force =     0.01870330   -0.00201006   -0.00492623
     atom   57 type  4   force =    -0.01825420    0.00067189    0.00442735

     Total force =     0.365862     Total SCF correction =     0.001066
  @ DRIVER MODE: Message from server: STATUS
  @ DRIVER MODE: Message from server: GETFORCE
  @ DRIVER MODE: Returning v,forces,stress,ensemble

     Writing output data file ./calc.save/
  @ DRIVER MODE: Message from server: EXIT
  @ DRIVE MODE: Exiting

     General routines

     Parallel routines

   This run was terminated on:   0:23:23  27Sep2021

   JOB DONE.