     Program PWSCF v.6.7GPU starts on  9Sep2021 at  1: 5:42

     R & G space division:  proc/nbgrp/npool/nimage =      10
     Reading input from /storage/home/hcoda1/3/ntian30/research/carbon/CxH_vib/CH3_calc/ads_slab/CH3N2H_a/out_0010/pw.inp
Warning: card &CELL ignored
Warning: card   CELL_DYNAMICS='IPI', ignored
Warning: card / ignored

     Current dimensions of program PWSCF are:
     Max number of different atomic species (ntypx) = 10
     Max number of k-points (npk) =  40000
     Max angular momentum in pseudopotentials (lmaxx) =  3
     Presently no symmetry can be used with electric field

     Message from routine cell_base_init:
     DEPRECATED: use true lattice parameter, not A to a.u. conversion factor

     IMPORTANT: XC functional enforced from input :
     Exchange-correlation= BEEF-VDW
                           (   1   4  43  14   2   0   0)
     Any further DFT definition will be discarded
     Please, verify this is what you really want

  @ DRIVER MODE: Connecting to
 qe_1139763_2767396.sched-torque.pace.gatech.eduw8lrm088_scratch
  using UNIX socket
  @ DRIVER MODE: Message from server: STATUS
  @ DRIVER MODE: Message from server: INIT
  @ DRIVER MODE: Receiving replica           0          -1
  @ DRIVER MODE: Receiving encoded integer          25
  @ DRIVER MODE:  SCF:  T  FORCE:  T  STRESS:  F  VC:  F  ENSEMBLE:  F
  @ DRIVER MODE:  SCF:  T  FORCE:  T  STRESS:  F  VC:  F  ENSEMBLE:  F

     Using Slab Decomposition

     bravais-lattice index     =            0
     lattice parameter (alat)  =       1.8897  a.u.
     unit-cell volume          =    6658.9804 (a.u.)^3
     number of atoms/cell      =           54
     number of atomic types    =            5
     number of electrons       =       396.00
     number of Kohn-Sham states=          208
     kinetic-energy cutoff     =      29.3995  Ry
     charge density cutoff     =     293.9946  Ry
     scf convergence threshold =      7.3E-08
     mixing beta               =       0.0500
     number of iterations used =            8  plain     mixing
     Exchange-correlation= BEEF-VDW
                           (   1   4  43  14   2   0   0)

     celldm(1)=   1.889726  celldm(2)=   0.000000  celldm(3)=   0.000000
     celldm(4)=   0.000000  celldm(5)=   0.000000  celldm(6)=   0.000000

     crystal axes: (cart. coord. in units of alat)
               a(1) = (   6.579727   0.000000   0.000000 )
               a(2) = (  -0.000775   5.961596   0.000000 )
               a(3) = (   0.000000   0.000000  25.155947 )

     reciprocal axes: (cart. coord. in units 2 pi/alat)
               b(1) = (  0.151982  0.000020  0.000000 )
               b(2) = (  0.000000  0.167740  0.000000 )
               b(3) = (  0.000000  0.000000  0.039752 )

     PseudoPot. # 1 for Ti read from file:
     /storage/coda1/p-amedford6/0/shared/rich_project_chbe-medford/medford-share/data/pseudos_module/espresso/nninc/pbe/van/Ti.UPF
     MD5 check sum: 8e4df49b7f0d34bbd5052bf3f5ea0213
     Pseudo is Ultrasoft, Zval = 12.0
     Generated by new atomic code, or converted to UPF format
     Using radial grid of  851 points,  6 beta functions with:
                l(1) =   0
                l(2) =   0
                l(3) =   1
                l(4) =   1
                l(5) =   2
                l(6) =   2
     Q(r) pseudized with  8 coefficients,  rinner =    1.000   1.000   1.000
                                                       1.000   1.000

     PseudoPot. # 2 for O  read from file:
     /storage/coda1/p-amedford6/0/shared/rich_project_chbe-medford/medford-share/data/pseudos_module/espresso/nninc/pbe/van/O.UPF
     MD5 check sum: 78c19812648e8988a0fe644b0f25305e
     Pseudo is Ultrasoft, Zval =  6.0
     Generated by new atomic code, or converted to UPF format
     Using radial grid of  737 points,  4 beta functions with:
                l(1) =   0
                l(2) =   0
                l(3) =   1
                l(4) =   1
     Q(r) pseudized with  8 coefficients,  rinner =    0.800   0.800   0.800

     PseudoPot. # 3 for N  read from file:
     /storage/coda1/p-amedford6/0/shared/rich_project_chbe-medford/medford-share/data/pseudos_module/espresso/nninc/pbe/van/N.UPF
     MD5 check sum: 90d10febe142ad51ac9d5be1deb811c4
     Pseudo is Ultrasoft, Zval =  5.0
     Generated by new atomic code, or converted to UPF format
     Using radial grid of  729 points,  4 beta functions with:
                l(1) =   0
                l(2) =   0
                l(3) =   1
                l(4) =   1
     Q(r) pseudized with  8 coefficients,  rinner =    0.800   0.800   0.800

     PseudoPot. # 4 for C  read from file:
     /storage/coda1/p-amedford6/0/shared/rich_project_chbe-medford/medford-share/data/pseudos_module/espresso/nninc/pbe/van/C.UPF
     MD5 check sum: 1a69bf6b8db32088f5b2163dbdb77a27
     Pseudo is Ultrasoft, Zval =  4.0
     Generated by new atomic code, or converted to UPF format
     Using radial grid of  721 points,  4 beta functions with:
                l(1) =   0
                l(2) =   0
                l(3) =   1
                l(4) =   1
     Q(r) pseudized with  8 coefficients,  rinner =    0.800   0.800   0.800

     PseudoPot. # 5 for H  read from file:
     /storage/coda1/p-amedford6/0/shared/rich_project_chbe-medford/medford-share/data/pseudos_module/espresso/nninc/pbe/van/H.UPF
     MD5 check sum: b5ee9d7bfd3a09ee7748110bda690ff7
     Pseudo is Ultrasoft, Zval =  1.0
     Generated by new atomic code, or converted to UPF format
     Using radial grid of  615 points,  1 beta functions with:
                l(1) =   0
     Q(r) pseudized with  8 coefficients,  rinner =    0.800

     atomic species   valence    mass     pseudopotential
        Ti1           12.00    47.86700     Ti( 1.00)
        O1             6.00    15.99900     O ( 1.00)
        N1             5.00    14.00700     N ( 1.00)
        C1             4.00    12.01100     C ( 1.00)
        H1             1.00     1.00800     H ( 1.00)

     No symmetry found

   Cartesian axes

     site n.     atom                  positions (alat units)
         1           Ti1 tau(   1) = (   0.0004258   2.9801865   6.0000000  )
         2           Ti1 tau(   2) = (   3.2906075   1.4906267   6.0002472  )
         3           O1  tau(   3) = (   0.0006271   0.0005054   7.9858123  )
         4           O1  tau(   4) = (   3.2906025   0.0005020   7.3038282  )
         5           O1  tau(   5) = (   4.5942328   1.4918067   9.2879030  )
         6           O1  tau(   6) = (   1.9868534   1.4903216   9.2879459  )
         7           Ti1 tau(   7) = (   3.2907910   2.8959150   9.1758416  )
         8           Ti1 tau(   8) = (   0.0015273   1.4827037   9.2680791  )
         9           O1  tau(   9) = (   3.2896288   0.0042867  11.3205077  )
        10           O1  tau(  10) = (   0.0116148   5.9584955  10.6183126  )
        11           O1  tau(  11) = (   1.2848067   1.4985890  12.6232755  )
        12           O1  tau(  12) = (   5.2688617   1.4893877  12.6055203  )
        13           Ti1 tau(  13) = (   0.0799559   3.0171279  12.6206390  )
        14           Ti1 tau(  14) = (   3.4009582   1.4891986  12.4726338  )
        15           O1  tau(  15) = (   6.5707323   0.0080309  14.6263129  )
        16           O1  tau(  16) = (   3.2902489   0.0120312  13.8979102  )
        17           O1  tau(  17) = (   4.5126121   1.5346005  16.0500440  )
        18           O1  tau(  18) = (   2.0453867   1.5362785  16.0447169  )
        19           Ti1 tau(  19) = (   3.2767562   3.0203775  15.6892921  )
        20           Ti1 tau(  20) = (   6.5596632   1.5778499  15.8310978  )
        21           O1  tau(  21) = (   3.2904802   0.0005063   4.7018136  )
        22           O1  tau(  22) = (   6.5709656   0.0671247  17.2345223  )
        23           O1  tau(  23) = (   1.3043587   1.4918075   6.0039043  )
        24           O1  tau(  24) = (   5.2767064   1.4903225   6.0039473  )
        25           Ti1 tau(  25) = (   0.0000382   5.9609847   6.0000000  )
        26           Ti1 tau(  26) = (   3.2902200   4.4714249   6.0002472  )
        27           O1  tau(  27) = (   0.0002396   2.9813036   7.9858123  )
        28           O1  tau(  28) = (   3.2902150   2.9813002   7.3038282  )
        29           O1  tau(  29) = (   4.5938453   4.4726049   9.2879030  )
        30           O1  tau(  30) = (   1.9864658   4.4711199   9.2879459  )
        31           Ti1 tau(  31) = (   3.2891106   5.8743827   9.1763621  )
        32           Ti1 tau(  32) = (   0.0006254   4.4649316   9.2693709  )
        33           O1  tau(  33) = (   3.2919429   2.9835650  11.3172650  )
        34           O1  tau(  34) = (   0.0092240   2.9805883  10.6323155  )
        35           O1  tau(  35) = (   1.2842535   4.4799506  12.6241420  )
        36           O1  tau(  36) = (   5.2755836   4.4732255  12.6042992  )
        37           Ti1 tau(  37) = (   0.0783641   0.0295629  12.6394962  )
        38           Ti1 tau(  38) = (   3.4022659   4.4693352  12.4708195  )
        39           O1  tau(  39) = (   6.5693815   2.9799975  14.6326336  )
        40           O1  tau(  40) = (   3.2899495   3.0014797  13.8849495  )
        41           O1  tau(  41) = (   4.5062741   4.5069571  16.0893315  )
        42           O1  tau(  42) = (   2.0480812   4.5060041  16.0753496  )
        43           Ti1 tau(  43) = (   3.2742444   0.0367023  15.7020416  )
        44           Ti1 tau(  44) = (   6.5658628   4.6518251  16.1481936  )
        45           O1  tau(  45) = (   3.2900926   2.9813045   4.7018136  )
        46           O1  tau(  46) = (   1.3039711   4.4726057   6.0039043  )
        47           O1  tau(  47) = (   5.2763189   4.4711207   6.0039473  )
        48           N1  tau(  48) = (   6.5201982   2.6597193  18.5868863  )
        49           N1  tau(  49) = (   6.5663212   2.9759568  17.3251533  )
        50           C1  tau(  50) = (   0.1092964   3.6297355  19.6533281  )
        51           H1  tau(  51) = (   6.1365678   4.5355971  19.4091500  )
        52           H1  tau(  52) = (   6.3142024   3.1981282  20.5813133  )
        53           H1  tau(  53) = (   1.1661384   3.8973747  19.7839464  )
        54           H1  tau(  54) = (   6.5756389   1.6632157  18.8047554  )

     number of k points=    10  Fermi-Dirac smearing, width (Ry)=  0.0073
                       cart. coord. in units 2pi/alat
        k(    1) = (   0.0000000   0.0000000   0.0000000), wk =   0.1250000
        k(    2) = (   0.0000000   0.0419351   0.0000000), wk =   0.2500000
        k(    3) = (   0.0000000  -0.0838702   0.0000000), wk =   0.1250000
        k(    4) = (   0.0379955   0.0000049   0.0000000), wk =   0.2500000
        k(    5) = (   0.0379955   0.0419400   0.0000000), wk =   0.2500000
        k(    6) = (   0.0379955  -0.0838652   0.0000000), wk =   0.2500000
        k(    7) = (   0.0379955  -0.0419301   0.0000000), wk =   0.2500000
        k(    8) = (  -0.0759910  -0.0000099   0.0000000), wk =   0.1250000
        k(    9) = (  -0.0759910   0.0419252   0.0000000), wk =   0.2500000
        k(   10) = (  -0.0759910  -0.0838800   0.0000000), wk =   0.1250000

     Initial potential from superposition of free atoms

     starting charge  379.99915, renormalised to  396.00000

     negative rho (up, down):  1.474E-02 0.000E+00

     %%%%%%%%%%%%%%%%%%%%%%%%%%%%%%%%%%%%%%%%%%%%%%%%%%%%%%%%%%%%%%%%%%%%%%%%
     %                                                                      %
     % You are using vdW-DF, which was implemented by the Thonhauser group. %
     % Please cite the following two papers that made this development      %
     % possible and the two reviews that describe the various versions:     %
     %                                                                      %
     %   T. Thonhauser et al., PRL 115, 136402 (2015).                      %
     %   T. Thonhauser et al., PRB 76, 125112 (2007).                       %
     %   K. Berland et al., Rep. Prog. Phys. 78, 066501 (2015).             %
     %   D.C. Langreth et al., J. Phys.: Condens. Matter 21, 084203 (2009). %
     %                                                                      %
     %                                                                      %
     % If you are calculating the stress with vdW-DF, please also cite:     %
     %                                                                      %
     %   R. Sabatini et al., J. Phys.: Condens. Matter 24, 424209 (2012).   %
     %                                                                      %
     %%%%%%%%%%%%%%%%%%%%%%%%%%%%%%%%%%%%%%%%%%%%%%%%%%%%%%%%%%%%%%%%%%%%%%%%

     Adding external electric field

     Computed dipole along edir(3) :
        Dipole               -9.2704 Ry au,        -23.5631 Debye
        Dipole field         -0.0175 Ry au,

        Potential amp.        1.6217 Ry
        Total length         46.3494 bohr

     Starting wfcs are  300 atomic wfcs
  @ DRIVER MODE: Message from server: STATUS
  @ DRIVER MODE: Message from server: POSDATA
  @ DRIVER MODE: Reading and sharing cell
  @ DRIVER MODE: Reading and sharing positions
  @ DRIVER MODE: Received positions

     Self-consistent Calculation

     iteration #  1     ecut=    29.40 Ry     beta= 0.05
     Davidson diagonalization with overlap
     c_bands:  1 eigenvalues not converged
     c_bands:  1 eigenvalues not converged
     c_bands:  1 eigenvalues not converged
     ethr =  1.00E-05,  avg # of iterations = 17.9

[...]

     total energy              =   -2585.25383442 Ry
     estimated scf accuracy    <    3947.48422899 Ry

     iteration #  2     ecut=    29.40 Ry     beta= 0.05
     Davidson diagonalization with overlap
     ethr =  1.00E-02,  avg # of iterations = 23.1

[...]

     iteration # 66     ecut=    29.40 Ry     beta= 0.05
     Davidson diagonalization with overlap
     c_bands:  1 eigenvalues not converged
     c_bands:  1 eigenvalues not converged
     ethr =  2.58E-06,  avg # of iterations = 12.4

[...]

     total energy              =   -2940.39764429 Ry
     estimated scf accuracy    <       0.00000010 Ry

     iteration # 98     ecut=    29.40 Ry     beta= 0.05
     Davidson diagonalization with overlap
     ethr =  2.43E-11,  avg # of iterations =  8.0

     negative rho (up, down):  1.569E-02 0.000E+00

     Adding external electric field

     Computed dipole along edir(3) :
        Dipole                1.1243 Ry au,          2.8577 Debye
        Dipole field          0.0021 Ry au,

        Potential amp.       -0.1967 Ry
        Total length         46.3494 bohr

     End of self-consistent calculation

          k = 0.0000 0.0000 0.0000 ( 18029 PWs)   bands (ev):

   -55.6485 -55.6145 -55.5559 -55.5182 -55.4123 -55.3894 -55.3785 -55.3547
   -55.3469 -55.3380 -55.3208 -55.2685 -54.7409 -54.5904 -54.5563 -54.5466
   -32.1230 -32.0993 -31.9427 -31.9296 -31.8987 -31.8689 -31.8502 -31.8442
   -31.8017 -31.7838 -31.7822 -31.7453 -31.7355 -31.7178 -31.7072 -31.6948
   -31.6863 -31.6779 -31.6422 -31.6331 -31.6102 -31.5906 -31.5831 -31.5665
   -31.5560 -31.5491 -31.5427 -31.5412 -31.5356 -31.5184 -31.5084 -31.5077
   -31.5031 -31.4669 -31.4502 -31.3825 -31.2296 -30.9961 -30.9615 -30.9493
   -30.9114 -30.8895 -30.8887 -30.8129 -30.7548 -30.7320 -30.7266 -30.6156
   -17.9667 -16.2818 -16.0545 -15.7767 -15.6741 -15.6521 -15.5311 -15.3994
   -15.2994 -15.2033 -15.1641 -15.1094 -15.1044 -15.0751 -15.0456 -15.0095
   -14.9811 -14.9425 -14.9210 -14.9047 -14.8775 -14.8667 -14.7602 -14.7449
   -14.7213 -14.6303 -14.6199 -14.5433 -14.5202 -14.0845 -13.0925 -12.9768
   -11.9970  -8.9338  -5.7097  -4.4454  -4.1372  -3.6648  -3.5396  -3.5090
    -3.4074  -3.2272  -3.1430  -3.0821  -2.9421  -2.7693  -2.7338  -2.7243
    -2.7041  -2.6459  -2.4486  -2.4233  -2.3908  -2.3519  -2.3420  -2.3388
    -2.3254  -2.2634  -2.1946  -2.1324  -2.0309  -2.0232  -1.9720  -1.9594
    -1.9431  -1.9073  -1.8627  -1.8248  -1.8036  -1.7601  -1.7431  -1.7354
    -1.6917  -1.6094  -1.5088  -1.3512  -1.3211  -1.3042  -1.2551  -1.2024
    -1.0379  -1.0222  -0.9845  -0.9787  -0.9461  -0.8711  -0.8015  -0.7189
    -0.6798  -0.6051  -0.5899  -0.5594  -0.4862  -0.4008  -0.3778  -0.3631
    -0.3555  -0.3401  -0.2806  -0.1626  -0.0717  -0.0385   0.0803   0.0857
     0.1195   0.1628   0.1810   0.2622   0.2972   0.3124   0.3621   0.3627
     0.3746   0.4188   0.4417   0.5056   0.5620   0.6444   0.7185   0.7833
     0.8203   0.9361   1.0069   1.0719   1.1075   1.2358   1.3689   1.3717
     1.4314   1.6276   1.6294   1.9999   2.0442   3.5229   3.5439   3.6365
     3.6803   3.7784   3.8176   3.9616   4.0190   4.0547   4.1683   4.1997

[...]

          k = 0.0380-0.0419 0.0000 ( 17876 PWs)   bands (ev):

[...]

          k =-0.0760-0.0000 0.0000 ( 17886 PWs)   bands (ev):

[...]

          k =-0.0760-0.0839 0.0000 ( 17948 PWs)   bands (ev):

   -55.6316 -55.6313 -55.5429 -55.5310 -55.3954 -55.3951 -55.3805 -55.3557
   -55.3391 -55.3364 -55.3333 -55.2731 -54.7395 -54.5733 -54.5732 -54.5479
   -31.9385 -31.9384 -31.9280 -31.9280 -31.9072 -31.8977 -31.8003 -31.7904
   -31.7668 -31.7539 -31.7525 -31.7520 -31.7073 -31.7044 -31.6908 -31.6871
   -31.6798 -31.6759 -31.6751 -31.6479 -31.6056 -31.6015 -31.5910 -31.5880
   -31.5837 -31.5820 -31.5799 -31.5700 -31.5675 -31.5595 -31.5541 -31.5511
   -31.5415 -31.5335 -31.5069 -31.4709 -31.1431 -30.9636 -30.9504 -30.9353
   -30.9015 -30.9014 -30.8091 -30.8090 -30.7755 -30.7698 -30.7698 -30.7559
   -17.9608 -15.7045 -15.6932 -15.5151 -15.5099 -15.4486 -15.4423 -15.2903
   -15.2893 -15.2701 -15.2622 -15.1396 -15.1358 -15.1029 -15.0992 -15.0570
   -15.0455 -15.0312 -15.0229 -15.0214 -15.0147 -14.9863 -14.9329 -14.9036
   -14.8980 -14.7196 -14.7187 -14.5982 -14.5664 -14.2182 -13.0788 -13.0787
   -11.9980  -8.9435  -5.7018  -4.3828  -4.1400  -2.9942  -2.9821  -2.9565
    -2.7094  -2.7043  -2.6802  -2.6696  -2.4642  -2.4516  -2.4305  -2.4249
    -2.3973  -2.3917  -2.3767  -2.3695  -2.2860  -2.2750  -2.2647  -2.2408
    -2.2345  -2.2304  -2.2161  -2.2090  -2.1989  -2.1656  -2.1275  -2.0993
    -2.0652  -2.0412  -1.9221  -1.8117  -1.7358  -1.7292  -1.6988  -1.6932
    -1.6874  -1.6809  -1.6470  -1.5425  -1.4783  -1.4280  -1.2919  -1.2698
    -1.2495  -1.2053  -1.1172  -1.0359  -0.9738  -0.9562  -0.9087  -0.8663
    -0.8406  -0.7556  -0.7319  -0.7245  -0.6556  -0.6245  -0.5802  -0.5753
    -0.5558  -0.4922  -0.4443  -0.3948  -0.3735  -0.3426  -0.2971  -0.2761
    -0.2138  -0.1563  -0.1141  -0.1090  -0.0610  -0.0520   0.0138   0.1636
     0.2112   0.4660   0.4792   0.5127   0.6352   0.7058   0.7110   0.7410
     0.7728   0.8237   0.8365   0.9688   0.9803   0.9863   1.1477   1.1723
     1.2651   1.7998   1.8000   1.8633   1.8636   3.4250   3.9170   3.9336
     3.9589   3.9739   4.0444   4.0454   4.0540   4.0615   4.2388   4.2604

     the Fermi energy is     3.5001 ev

!    total energy              =   -2940.39764621 Ry
     estimated scf accuracy    <       0.00000002 Ry
     smearing contrib. (-TS)   =      -0.02299338 Ry
     internal energy E=F+TS    =   -2940.37465283 Ry

     The total energy is F=E-TS. E is the sum of the following terms:
     one-electron contribution =  -24109.21714428 Ry
     hartree contribution      =   12145.80062706 Ry
     xc contribution           =    -486.04268145 Ry
     ewald contribution        =    9509.08216033 Ry
     electric field correction =       0.00238551 Ry

     convergence has been achieved in  98 iterations

     Forces acting on atoms (cartesian axes, Ry/au):

     atom    1 type  1   force =     0.00015625   -0.00013032    0.09933735
     atom    2 type  1   force =    -0.00011834   -0.00047792   -0.17360367
     atom    3 type  2   force =    -0.00005022    0.00000097   -0.02880176
     atom    4 type  2   force =     0.00007398   -0.00125067    0.04998604
     atom    5 type  2   force =    -0.01306180    0.00057918    0.00120907
     atom    6 type  2   force =     0.01460876    0.00138656   -0.00011571
     atom    7 type  1   force =    -0.00144412   -0.00060409   -0.00832427
     atom    8 type  1   force =     0.00088226   -0.00413335    0.04515619
     atom    9 type  2   force =    -0.00003471   -0.00067118   -0.00028406
     atom   10 type  2   force =    -0.00129435    0.00227806   -0.02845923
     atom   11 type  2   force =     0.00017838    0.00064632   -0.00005571
     atom   12 type  2   force =     0.00025584    0.00043285    0.00008521
     atom   13 type  1   force =     0.00039225    0.00019898   -0.00061889
     atom   14 type  1   force =     0.00003891    0.00047544    0.00038609
     atom   15 type  2   force =     0.00034319    0.00101815   -0.00055349
     atom   16 type  2   force =    -0.00040752   -0.00020688   -0.00030443
     atom   17 type  2   force =    -0.00056868    0.00022434   -0.00045371
     atom   18 type  2   force =     0.00046874    0.00027659    0.00031016
     atom   19 type  1   force =     0.00021662    0.00054770    0.00025107
     atom   20 type  1   force =    -0.00047786   -0.00060996    0.00082059
     atom   21 type  2   force =     0.00009219   -0.00006941    0.10273915
     atom   22 type  2   force =     0.00010187    0.00143139   -0.00013984
     atom   23 type  2   force =    -0.07214566   -0.00015356   -0.02831996
     atom   24 type  2   force =     0.07214371    0.00030274   -0.02831538
     atom   25 type  1   force =     0.00012354   -0.00019968    0.09865955
     atom   26 type  1   force =    -0.00011121   -0.00046017   -0.17382072
     atom   27 type  2   force =     0.00001162   -0.00002323   -0.02808290
     atom   28 type  2   force =     0.00011433   -0.00099971    0.04943933
     atom   29 type  2   force =    -0.01338202    0.00005560    0.00127084
     atom   30 type  2   force =     0.01483775    0.00042019   -0.00007387
     atom   31 type  1   force =    -0.00139358    0.00250334   -0.00861804
     atom   32 type  1   force =     0.00106587    0.00239378    0.04548237
     atom   33 type  2   force =    -0.00013247    0.00105786    0.00053694
     atom   34 type  2   force =    -0.00071710    0.00120265   -0.03116295
     atom   35 type  2   force =     0.00067575   -0.00052975   -0.00018794
     atom   36 type  2   force =    -0.00162004   -0.00012277    0.00006146
     atom   37 type  1   force =    -0.00017925   -0.00150854    0.00036587
     atom   38 type  1   force =     0.00078271   -0.00005051    0.00057899
     atom   39 type  2   force =     0.00032047   -0.00018348   -0.00052604
     atom   40 type  2   force =    -0.00040175    0.00029866   -0.00015915
     atom   41 type  2   force =    -0.00009180   -0.00049100   -0.00028216
     atom   42 type  2   force =     0.00009207   -0.00062107    0.00021403
     atom   43 type  1   force =     0.00035185   -0.00082594   -0.00040448
     atom   44 type  1   force =    -0.00036207   -0.00039093    0.00002404
     atom   45 type  2   force =     0.00010984   -0.00007170    0.10276509
     atom   46 type  2   force =    -0.07216791   -0.00009861   -0.02831357
     atom   47 type  2   force =     0.07215117    0.00034178   -0.02829134
     atom   48 type  3   force =     0.00008433    0.00372092   -0.00369173
     atom   49 type  3   force =    -0.00018050   -0.00733725    0.00323400
     atom   50 type  4   force =     0.00107294   -0.00032511    0.00148730
     atom   51 type  5   force =    -0.00022153   -0.00058377    0.00010726
     atom   52 type  5   force =     0.00035078    0.00022273   -0.00021460
     atom   53 type  5   force =    -0.00108234    0.00049750   -0.00088833
     atom   54 type  5   force =    -0.00045116    0.00061629   -0.00144006

     Total force =     0.372356     Total SCF correction =     0.000407
  @ DRIVER MODE: Message from server: STATUS
  @ DRIVER MODE: Message from server: GETFORCE
  @ DRIVER MODE: Returning v,forces,stress,ensemble

     Writing output data file ./calc.save/
  @ DRIVER MODE: Message from server: EXIT
  @ DRIVE MODE: Exiting

     General routines

     Parallel routines

   This run was terminated on:   1:29:48   9Sep2021

   JOB DONE.