     Program PWSCF v.6.7GPU starts on  9Sep2021 at  3:13:20

     R & G space division:  proc/nbgrp/npool/nimage =      10
     Reading input from /storage/home/hcoda1/3/ntian30/research/carbon/CxH_vib/CH_calc/ads_slab/CHN2_c/out_0017/pw.inp
Warning: card &CELL ignored
Warning: card   CELL_DYNAMICS='IPI', ignored
Warning: card / ignored

     Current dimensions of program PWSCF are:
     Max number of different atomic species (ntypx) = 10
     Max number of k-points (npk) =  40000
     Max angular momentum in pseudopotentials (lmaxx) =  3
     Presently no symmetry can be used with electric field

     Message from routine cell_base_init:
     DEPRECATED: use true lattice parameter, not A to a.u. conversion factor

     IMPORTANT: XC functional enforced from input :
     Exchange-correlation= BEEF-VDW
                           (   1   4  43  14   2   0   0)
     Any further DFT definition will be discarded
     Please, verify this is what you really want

  @ DRIVER MODE: Connecting to
 qe_1139763_2767377.sched-torque.pace.gatech.edu3qfl5smg_scratch
  using UNIX socket
  @ DRIVER MODE: Message from server: STATUS
  @ DRIVER MODE: Message from server: INIT
  @ DRIVER MODE: Receiving replica           0          -1
  @ DRIVER MODE: Receiving encoded integer          25
  @ DRIVER MODE:  SCF:  T  FORCE:  T  STRESS:  F  VC:  F  ENSEMBLE:  F
  @ DRIVER MODE:  SCF:  T  FORCE:  T  STRESS:  F  VC:  F  ENSEMBLE:  F

     Using Slab Decomposition

     bravais-lattice index     =            0
     lattice parameter (alat)  =       1.8897  a.u.
     unit-cell volume          =    6658.9804 (a.u.)^3
     number of atoms/cell      =           51
     number of atomic types    =            5
     number of electrons       =       393.00
     number of Kohn-Sham states=          206
     kinetic-energy cutoff     =      29.3995  Ry
     charge density cutoff     =     293.9946  Ry
     scf convergence threshold =      7.3E-08
     mixing beta               =       0.0500
     number of iterations used =            8  plain     mixing
     Exchange-correlation= BEEF-VDW
                           (   1   4  43  14   2   0   0)

     celldm(1)=   1.889726  celldm(2)=   0.000000  celldm(3)=   0.000000
     celldm(4)=   0.000000  celldm(5)=   0.000000  celldm(6)=   0.000000

     crystal axes: (cart. coord. in units of alat)
               a(1) = (   6.579727   0.000000   0.000000 )
               a(2) = (  -0.000775   5.961596   0.000000 )
               a(3) = (   0.000000   0.000000  25.155947 )

     reciprocal axes: (cart. coord. in units 2 pi/alat)
               b(1) = (  0.151982  0.000020  0.000000 )
               b(2) = (  0.000000  0.167740  0.000000 )
               b(3) = (  0.000000  0.000000  0.039752 )

     PseudoPot. # 1 for Ti read from file:
     /storage/coda1/p-amedford6/0/shared/rich_project_chbe-medford/medford-share/data/pseudos_module/espresso/nninc/pbe/van/Ti.UPF
     MD5 check sum: 8e4df49b7f0d34bbd5052bf3f5ea0213
     Pseudo is Ultrasoft, Zval = 12.0
     Generated by new atomic code, or converted to UPF format
     Using radial grid of  851 points,  6 beta functions with:
                l(1) =   0
                l(2) =   0
                l(3) =   1
                l(4) =   1
                l(5) =   2
                l(6) =   2
     Q(r) pseudized with  8 coefficients,  rinner =    1.000   1.000   1.000
                                                       1.000   1.000

     PseudoPot. # 2 for O  read from file:
     /storage/coda1/p-amedford6/0/shared/rich_project_chbe-medford/medford-share/data/pseudos_module/espresso/nninc/pbe/van/O.UPF
     MD5 check sum: 78c19812648e8988a0fe644b0f25305e
     Pseudo is Ultrasoft, Zval =  6.0
     Generated by new atomic code, or converted to UPF format
     Using radial grid of  737 points,  4 beta functions with:
                l(1) =   0
                l(2) =   0
                l(3) =   1
                l(4) =   1
     Q(r) pseudized with  8 coefficients,  rinner =    0.800   0.800   0.800

     PseudoPot. # 3 for C  read from file:
     /storage/coda1/p-amedford6/0/shared/rich_project_chbe-medford/medford-share/data/pseudos_module/espresso/nninc/pbe/van/C.UPF
     MD5 check sum: 1a69bf6b8db32088f5b2163dbdb77a27
     Pseudo is Ultrasoft, Zval =  4.0
     Generated by new atomic code, or converted to UPF format
     Using radial grid of  721 points,  4 beta functions with:
                l(1) =   0
                l(2) =   0
                l(3) =   1
                l(4) =   1
     Q(r) pseudized with  8 coefficients,  rinner =    0.800   0.800   0.800

     PseudoPot. # 4 for H  read from file:
     /storage/coda1/p-amedford6/0/shared/rich_project_chbe-medford/medford-share/data/pseudos_module/espresso/nninc/pbe/van/H.UPF
     MD5 check sum: b5ee9d7bfd3a09ee7748110bda690ff7
     Pseudo is Ultrasoft, Zval =  1.0
     Generated by new atomic code, or converted to UPF format
     Using radial grid of  615 points,  1 beta functions with:
                l(1) =   0
     Q(r) pseudized with  8 coefficients,  rinner =    0.800

     PseudoPot. # 5 for N  read from file:
     /storage/coda1/p-amedford6/0/shared/rich_project_chbe-medford/medford-share/data/pseudos_module/espresso/nninc/pbe/van/N.UPF
     MD5 check sum: 90d10febe142ad51ac9d5be1deb811c4
     Pseudo is Ultrasoft, Zval =  5.0
     Generated by new atomic code, or converted to UPF format
     Using radial grid of  729 points,  4 beta functions with:
                l(1) =   0
                l(2) =   0
                l(3) =   1
                l(4) =   1
     Q(r) pseudized with  8 coefficients,  rinner =    0.800   0.800   0.800

     atomic species   valence    mass     pseudopotential
        Ti1           12.00    47.86700     Ti( 1.00)
        O1             6.00    15.99900     O ( 1.00)
        C1             4.00    12.01100     C ( 1.00)
        H1             1.00     1.00800     H ( 1.00)
        N1             5.00    14.00700     N ( 1.00)

     No symmetry found

   Cartesian axes

     site n.     atom                  positions (alat units)
         1           Ti1 tau(   1) = (   0.0004258   2.9801865   6.0000000  )
         2           Ti1 tau(   2) = (   3.2906075   1.4906267   6.0002472  )
         3           O1  tau(   3) = (   0.0006271   0.0005054   7.9858123  )
         4           O1  tau(   4) = (   3.2906025   0.0005020   7.3038282  )
         5           O1  tau(   5) = (   4.5942328   1.4918067   9.2879030  )
         6           O1  tau(   6) = (   1.9868534   1.4903216   9.2879459  )
         7           Ti1 tau(   7) = (   3.2907910   2.8959150   9.1758416  )
         8           Ti1 tau(   8) = (   0.0015273   1.4827037   9.2680791  )
         9           O1  tau(   9) = (   3.2947523   5.9577806  11.3289702  )
        10           O1  tau(  10) = (   0.0116148   5.9584955  10.6183126  )
        11           O1  tau(  11) = (   1.2923655   1.4808044  12.6140338  )
        12           O1  tau(  12) = (   5.2760440   1.4916827  12.6110895  )
        13           Ti1 tau(  13) = (   0.0641422   2.9468446  12.6204329  )
        14           Ti1 tau(  14) = (   3.3828727   1.4858934  12.4752560  )
        15           O1  tau(  15) = (   0.0059231   0.0169234  14.6319368  )
        16           O1  tau(  16) = (   3.2943198   0.0056150  13.9184638  )
        17           O1  tau(  17) = (   4.5468153   1.5236546  16.0329375  )
        18           O1  tau(  18) = (   2.0515374   1.5217879  16.0554076  )
        19           Ti1 tau(  19) = (   3.2830080   3.0033146  15.6914404  )
        20           Ti1 tau(  20) = (   0.0154850   1.5188701  15.8391361  )
        21           O1  tau(  21) = (   3.2904802   0.0005063   4.7018136  )
        22           O1  tau(  22) = (   6.5736218   0.0255948  17.1842280  )
        23           O1  tau(  23) = (   1.3043587   1.4918075   6.0039043  )
        24           O1  tau(  24) = (   5.2767064   1.4903225   6.0039473  )
        25           Ti1 tau(  25) = (   0.0000382   5.9609847   6.0000000  )
        26           Ti1 tau(  26) = (   3.2902200   4.4714249   6.0002472  )
        27           O1  tau(  27) = (   0.0002396   2.9813036   7.9858123  )
        28           O1  tau(  28) = (   3.2902150   2.9813002   7.3038282  )
        29           O1  tau(  29) = (   4.5938453   4.4726049   9.2879030  )
        30           O1  tau(  30) = (   1.9864658   4.4711199   9.2879459  )
        31           Ti1 tau(  31) = (   3.2891106   5.8743827   9.1763621  )
        32           Ti1 tau(  32) = (   0.0006254   4.4649316   9.2693709  )
        33           O1  tau(  33) = (   3.2953046   2.9833475  11.3259646  )
        34           O1  tau(  34) = (   0.0092240   2.9805883  10.6323155  )
        35           O1  tau(  35) = (   1.2912205   4.4696366  12.6263023  )
        36           O1  tau(  36) = (   5.2799819   4.4751186  12.6219323  )
        37           Ti1 tau(  37) = (   0.0684868   5.9252938  12.5505524  )
        38           Ti1 tau(  38) = (   3.3848087   4.4651122  12.4793038  )
        39           O1  tau(  39) = (   0.0176302   2.9443755  14.6544446  )
        40           O1  tau(  40) = (   3.2854840   2.9900965  13.8959901  )
        41           O1  tau(  41) = (   4.5427396   4.4796010  16.0582459  )
        42           O1  tau(  42) = (   2.0519076   4.4830995  16.0738147  )
        43           Ti1 tau(  43) = (   3.3192208   0.0178015  15.7165103  )
        44           Ti1 tau(  44) = (   0.0190484   4.6579992  16.0750729  )
        45           O1  tau(  45) = (   3.2900926   2.9813045   4.7018136  )
        46           O1  tau(  46) = (   1.3039711   4.4726057   6.0039043  )
        47           O1  tau(  47) = (   5.2763189   4.4711207   6.0039473  )
        48           C1  tau(  48) = (   0.0285071   2.9528277  17.6086602  )
        49           H1  tau(  49) = (   0.9556717   2.9086103  18.1759260  )
        50           N1  tau(  50) = (   5.5646879   2.9115633  18.3769838  )
        51           N1  tau(  51) = (   4.5815072   2.8727048  18.9619008  )

     number of k points=    10  Fermi-Dirac smearing, width (Ry)=  0.0073
                       cart. coord. in units 2pi/alat
        k(    1) = (   0.0000000   0.0000000   0.0000000), wk =   0.1250000
        k(    2) = (   0.0000000   0.0419351   0.0000000), wk =   0.2500000
        k(    3) = (   0.0000000  -0.0838702   0.0000000), wk =   0.1250000
        k(    4) = (   0.0379955   0.0000049   0.0000000), wk =   0.2500000
        k(    5) = (   0.0379955   0.0419400   0.0000000), wk =   0.2500000
        k(    6) = (   0.0379955  -0.0838652   0.0000000), wk =   0.2500000
        k(    7) = (   0.0379955  -0.0419301   0.0000000), wk =   0.2500000
        k(    8) = (  -0.0759910  -0.0000099   0.0000000), wk =   0.1250000
        k(    9) = (  -0.0759910   0.0419252   0.0000000), wk =   0.2500000
        k(   10) = (  -0.0759910  -0.0838800   0.0000000), wk =   0.1250000

     Initial potential from superposition of free atoms

     starting charge  376.99918, renormalised to  393.00000

     negative rho (up, down):  1.908E-02 0.000E+00

     %%%%%%%%%%%%%%%%%%%%%%%%%%%%%%%%%%%%%%%%%%%%%%%%%%%%%%%%%%%%%%%%%%%%%%%%
     %                                                                      %
     % You are using vdW-DF, which was implemented by the Thonhauser group. %
     % Please cite the following two papers that made this development      %
     % possible and the two reviews that describe the various versions:     %
     %                                                                      %
     %   T. Thonhauser et al., PRL 115, 136402 (2015).                      %
     %   T. Thonhauser et al., PRB 76, 125112 (2007).                       %
     %   K. Berland et al., Rep. Prog. Phys. 78, 066501 (2015).             %
     %   D.C. Langreth et al., J. Phys.: Condens. Matter 21, 084203 (2009). %
     %                                                                      %
     %                                                                      %
     % If you are calculating the stress with vdW-DF, please also cite:     %
     %                                                                      %
     %   R. Sabatini et al., J. Phys.: Condens. Matter 24, 424209 (2012).   %
     %                                                                      %
     %%%%%%%%%%%%%%%%%%%%%%%%%%%%%%%%%%%%%%%%%%%%%%%%%%%%%%%%%%%%%%%%%%%%%%%%

     Adding external electric field

     Computed dipole along edir(3) :
        Dipole               -7.1689 Ry au,        -18.2214 Debye
        Dipole field         -0.0135 Ry au,

        Potential amp.        1.2541 Ry
        Total length         46.3494 bohr

     Starting wfcs are  297 atomic wfcs
  @ DRIVER MODE: Message from server: STATUS
  @ DRIVER MODE: Message from server: POSDATA
  @ DRIVER MODE: Reading and sharing cell
  @ DRIVER MODE: Reading and sharing positions
  @ DRIVER MODE: Received positions

     Self-consistent Calculation

     iteration #  1     ecut=    29.40 Ry     beta= 0.05
     Davidson diagonalization with overlap
     c_bands:  1 eigenvalues not converged
     c_bands:  1 eigenvalues not converged
     c_bands:  1 eigenvalues not converged
     c_bands:  1 eigenvalues not converged
     c_bands:  2 eigenvalues not converged
     c_bands:  1 eigenvalues not converged
     c_bands:  2 eigenvalues not converged
     ethr =  1.00E-05,  avg # of iterations = 19.1

[...]

     total energy              =   -2708.71959871 Ry
     estimated scf accuracy    <    2525.80734149 Ry

[...]

     iteration #  3     ecut=    29.40 Ry     beta= 0.05
     Davidson diagonalization with overlap
     ethr =  1.00E-02,  avg # of iterations = 15.6

[...]

     iteration # 51     ecut=    29.40 Ry     beta= 0.05
     Davidson diagonalization with overlap
     c_bands:  1 eigenvalues not converged
     ethr =  8.62E-08,  avg # of iterations = 11.9

[...]

     total energy              =   -2936.64828311 Ry
     estimated scf accuracy    <       0.00000008 Ry

     iteration # 69     ecut=    29.40 Ry     beta= 0.05
     Davidson diagonalization with overlap
     ethr =  2.15E-11,  avg # of iterations =  1.5

     negative rho (up, down):  1.865E-02 0.000E+00

     Adding external electric field

     Computed dipole along edir(3) :
        Dipole                0.2896 Ry au,          0.7362 Debye
        Dipole field          0.0005 Ry au,

        Potential amp.       -0.0507 Ry
        Total length         46.3494 bohr

     End of self-consistent calculation

          k = 0.0000 0.0000 0.0000 ( 18029 PWs)   bands (ev):

   -56.1964 -56.1880 -56.1623 -56.1514 -56.0988 -56.0408 -56.0291 -56.0053
   -56.0037 -55.9711 -55.9684 -55.9348 -55.7192 -55.4473 -55.1730 -55.1390
   -32.7433 -32.6787 -32.5418 -32.5409 -32.5074 -32.5041 -32.4892 -32.4594
   -32.4389 -32.4274 -32.4110 -32.3904 -32.3688 -32.3487 -32.3412 -32.3276
   -32.3246 -32.3006 -32.2861 -32.2537 -32.2513 -32.2489 -32.2124 -32.1991
   -32.1982 -32.1958 -32.1934 -32.1836 -32.1707 -32.1551 -32.1502 -32.1444
   -32.1406 -32.1361 -32.1218 -32.1116 -32.0810 -31.9775 -31.9060 -31.7171
   -31.7083 -31.6619 -31.5801 -31.4919 -31.4695 -31.3969 -31.3104 -31.1993
   -20.5567 -16.9480 -16.6732 -16.4528 -16.3510 -16.3255 -16.2116 -16.0380
   -15.9186 -15.8747 -15.7718 -15.7556 -15.7322 -15.7004 -15.6908 -15.6858
   -15.6497 -15.6390 -15.6221 -15.6092 -15.5551 -15.5338 -15.5158 -15.4207
   -15.3753 -15.3329 -15.3231 -15.2574 -15.2512 -14.7475 -13.6823 -13.6753
   -13.5589  -5.8853  -4.7766  -4.5438  -4.3196  -4.1565  -4.1023  -4.0552
    -3.9978  -3.8153  -3.7532  -3.4383  -3.3939  -3.3785  -3.3673  -3.3549
    -3.3184  -3.1108  -3.0639  -3.0276  -3.0062  -2.9818  -2.9747  -2.9674
    -2.9590  -2.9162  -2.8586  -2.7796  -2.7436  -2.6507  -2.6106  -2.5887
    -2.5081  -2.4932  -2.4702  -2.4392  -2.4336  -2.4291  -2.3961  -2.3803
    -2.2482  -2.1902  -2.0610  -2.0010  -1.9729  -1.8024  -1.7699  -1.6650
    -1.6554  -1.6236  -1.6000  -1.5872  -1.4991  -1.3775  -1.3551  -1.3329
    -1.2927  -1.2169  -1.1784  -1.0853  -1.0515  -0.9786  -0.9600  -0.9578
    -0.9472  -0.8992  -0.7484  -0.6833  -0.6484  -0.6034  -0.5822  -0.5319
    -0.4948  -0.4718  -0.3588  -0.3268  -0.3225  -0.2661  -0.2584  -0.2217
    -0.2160  -0.2024  -0.1871  -0.1661  -0.0050   0.0802   0.1434   0.1580
     0.2956   0.3453   0.4060   0.4624   0.5621   0.7759   0.8492   0.9376
     1.0415   1.4203   1.4658   1.6283   2.9390   3.0242   3.0715   3.0881
     3.1818   3.1898   3.3932   3.4146   3.4216   3.4891

[...]

          k = 0.0380-0.0419 0.0000 ( 17876 PWs)   bands (ev):

[...]

          k =-0.0760-0.0000 0.0000 ( 17886 PWs)   bands (ev):

[...]

          k =-0.0760-0.0839 0.0000 ( 17948 PWs)   bands (ev):

   -56.1798 -56.1788 -56.1729 -56.1663 -56.0942 -56.0336 -56.0291 -56.0155
   -55.9890 -55.9867 -55.9523 -55.9510 -55.7182 -55.4482 -55.1560 -55.1559
   -32.5481 -32.5446 -32.4943 -32.4936 -32.4750 -32.4741 -32.4726 -32.4495
   -32.3964 -32.3928 -32.3903 -32.3879 -32.3569 -32.3231 -32.3206 -32.3155
   -32.3073 -32.3007 -32.2994 -32.2984 -32.2940 -32.2918 -32.2894 -32.2484
   -32.2350 -32.2340 -32.2197 -32.2079 -32.1881 -32.1874 -32.1839 -32.1829
   -32.1673 -32.1666 -32.1615 -32.1592 -32.0742 -31.9800 -31.9012 -31.7774
   -31.7135 -31.6828 -31.4823 -31.4822 -31.3929 -31.3928 -31.3537 -31.3536
   -20.5562 -16.3865 -16.3582 -16.1473 -16.1180 -16.1116 -16.1020 -15.9934
   -15.9070 -15.8920 -15.8900 -15.8243 -15.8008 -15.7850 -15.7409 -15.7274
   -15.7228 -15.7161 -15.7088 -15.6575 -15.6526 -15.6332 -15.6259 -15.5507
   -15.5119 -15.5084 -15.4933 -15.3699 -15.2361 -14.9235 -13.6900 -13.6608
   -13.6606  -5.8840  -4.7109  -4.5329  -3.6796  -3.6451  -3.4429  -3.3901
    -3.3644  -3.3515  -3.2863  -3.1217  -3.1008  -3.0789  -3.0675  -3.0292
    -3.0274  -3.0126  -3.0032  -2.9856  -2.9470  -2.9163  -2.8923  -2.8653
    -2.8621  -2.8528  -2.8244  -2.8103  -2.7841  -2.7679  -2.7483  -2.7342
    -2.7146  -2.7015  -2.5792  -2.4304  -2.3988  -2.3337  -2.3249  -2.3000
    -2.2667  -2.2598  -2.2451  -2.1960  -2.0664  -1.9359  -1.8986  -1.8809
    -1.8259  -1.8020  -1.7719  -1.6570  -1.6205  -1.5815  -1.5474  -1.4857
    -1.4543  -1.4163  -1.3669  -1.3411  -1.2745  -1.2520  -1.1925  -1.1578
    -1.1531  -1.1215  -1.0395  -0.9651  -0.9637  -0.9415  -0.9182  -0.8889
    -0.8351  -0.8098  -0.7052  -0.6798  -0.5787  -0.5069  -0.4727  -0.2297
    -0.1565  -0.1321  -0.1179  -0.0638   0.0100   0.0900   0.1140   0.1245
     0.1798   0.2558   0.2578   0.3451   0.3545   0.3877   0.5124   1.2131
     1.2139   1.2855   1.2858   1.5977   3.2235   3.2284   3.2762   3.2986
     3.4406   3.4485   3.4717   3.4725   3.5833   3.6092

     the Fermi energy is     2.9373 ev

!    total energy              =   -2936.64829965 Ry
     estimated scf accuracy    <       0.00000007 Ry
     smearing contrib. (-TS)   =      -0.02175985 Ry
     internal energy E=F+TS    =   -2936.62653979 Ry

     The total energy is F=E-TS. E is the sum of the following terms:
     one-electron contribution =  -24547.54006860 Ry
     hartree contribution      =   12356.75009227 Ry
     xc contribution           =    -483.52827799 Ry
     ewald contribution        =    9737.69155622 Ry
     electric field correction =       0.00015830 Ry

     convergence has been achieved in  69 iterations

     Forces acting on atoms (cartesian axes, Ry/au):

     atom    1 type  1   force =     0.00022910   -0.00016708    0.09653638
     atom    2 type  1   force =    -0.00008816   -0.00054409   -0.17537882
     atom    3 type  2   force =    -0.00001948   -0.00007214   -0.02486178
     atom    4 type  2   force =     0.00006893   -0.00140942    0.05272973
     atom    5 type  2   force =    -0.01183501   -0.00063687    0.00343853
     atom    6 type  2   force =     0.01355706    0.00002371    0.00246129
     atom    7 type  1   force =    -0.00105257    0.00054886   -0.01190761
     atom    8 type  1   force =     0.00048695    0.00953247    0.02771181
     atom    9 type  2   force =     0.00003753    0.00091557   -0.00043082
     atom   10 type  2   force =    -0.00161456    0.00101724   -0.01731766
     atom   11 type  2   force =     0.00042787    0.00013850    0.00025006
     atom   12 type  2   force =    -0.00046980   -0.00017493    0.00011687
     atom   13 type  1   force =     0.00089236    0.00137369   -0.00034772
     atom   14 type  1   force =    -0.00069922   -0.00000037   -0.00004998
     atom   15 type  2   force =     0.00008549   -0.00025503    0.00023615
     atom   16 type  2   force =     0.00027242    0.00025922    0.00099347
     atom   17 type  2   force =     0.00020249   -0.00038456    0.00006454
     atom   18 type  2   force =    -0.00019748   -0.00021807    0.00043373
     atom   19 type  1   force =    -0.00008875   -0.00088578    0.00101540
     atom   20 type  1   force =     0.00021923   -0.00033696    0.00043575
     atom   21 type  2   force =     0.00008433   -0.00005027    0.10317079
     atom   22 type  2   force =     0.00012416   -0.00025934   -0.00069334
     atom   23 type  2   force =    -0.07152646   -0.00011824   -0.02772778
     atom   24 type  2   force =     0.07148312    0.00028362   -0.02773844
     atom   25 type  1   force =     0.00000441   -0.00018982    0.09609357
     atom   26 type  1   force =    -0.00017976   -0.00028336   -0.17550545
     atom   27 type  2   force =     0.00005794   -0.00023678   -0.02382482
     atom   28 type  2   force =     0.00011077   -0.00116021    0.05261727
     atom   29 type  2   force =    -0.01196279    0.00045157    0.00310630
     atom   30 type  2   force =     0.01359899    0.00085124    0.00215618
     atom   31 type  1   force =    -0.00087463    0.00309235   -0.01274770
     atom   32 type  1   force =     0.00046285   -0.01168362    0.02819214
     atom   33 type  2   force =     0.00030585   -0.00090515   -0.00020601
     atom   34 type  2   force =    -0.00077295    0.00070546   -0.02378066
     atom   35 type  2   force =    -0.00067872   -0.00003226    0.00006104
     atom   36 type  2   force =     0.00037837   -0.00021046    0.00000838
     atom   37 type  1   force =     0.00090888   -0.00125892   -0.00044722
     atom   38 type  1   force =    -0.00091349    0.00019625    0.00032699
     atom   39 type  2   force =    -0.00014173    0.00045896    0.00010709
     atom   40 type  2   force =     0.00011685   -0.00030501    0.00023155
     atom   41 type  2   force =     0.00017243    0.00052054    0.00011661
     atom   42 type  2   force =    -0.00008863    0.00046455    0.00028404
     atom   43 type  1   force =    -0.00023987    0.00108557    0.00013936
     atom   44 type  1   force =     0.00004076   -0.00011402    0.00006174
     atom   45 type  2   force =     0.00007067   -0.00008175    0.10316021
     atom   46 type  2   force =    -0.07153945   -0.00010087   -0.02774332
     atom   47 type  2   force =     0.07151709    0.00033173   -0.02776495
     atom   48 type  3   force =     0.00502844    0.00097049   -0.00612440
     atom   49 type  4   force =     0.00028821   -0.00039371    0.00128300
     atom   50 type  5   force =    -0.02254241   -0.00167454    0.01967529
     atom   51 type  5   force =     0.01629241    0.00092203   -0.01261679

     Total force =     0.369789     Total SCF correction =     0.000421
  @ DRIVER MODE: Message from server: STATUS
  @ DRIVER MODE: Message from server: GETFORCE
  @ DRIVER MODE: Returning v,forces,stress,ensemble

     Writing output data file ./calc.save/
  @ DRIVER MODE: Message from server: EXIT
  @ DRIVE MODE: Exiting

     General routines

     Parallel routines

   This run was terminated on:   3:31:46   9Sep2021

   JOB DONE.