     Program PWSCF v.6.7GPU starts on 25Aug2021 at  0:22: 6

     R & G space division:  proc/nbgrp/npool/nimage =       6
     Reading input from /storage/home/hcoda1/3/ntian30/research/carbon/CH3_vib_end_on/ads_slab/CH3NHNH2_a/out_0014/pw.inp
Warning: card &CELL ignored
Warning: card   CELL_DYNAMICS='IPI', ignored
Warning: card / ignored

     Current dimensions of program PWSCF are:
     Max number of different atomic species (ntypx) = 10
     Max number of k-points (npk) =  40000
     Max angular momentum in pseudopotentials (lmaxx) =  3
     Presently no symmetry can be used with electric field

     Message from routine cell_base_init:
     DEPRECATED: use true lattice parameter, not A to a.u. conversion factor

     IMPORTANT: XC functional enforced from input :
     Exchange-correlation= BEEF-VDW
                           (   1   4  43  14   2   0   0)
     Any further DFT definition will be discarded
     Please, verify this is what you really want

  @ DRIVER MODE: Connecting to
 qe_1139763_2643871.sched-torque.pace.gatech.edu4xz170m6_scratch
  using UNIX socket
  @ DRIVER MODE: Message from server: STATUS
  @ DRIVER MODE: Message from server: INIT
  @ DRIVER MODE: Receiving replica           0          -1
  @ DRIVER MODE: Receiving encoded integer          25
  @ DRIVER MODE:  SCF:  T  FORCE:  T  STRESS:  F  VC:  F  ENSEMBLE:  F
  @ DRIVER MODE:  SCF:  T  FORCE:  T  STRESS:  F  VC:  F  ENSEMBLE:  F

     Using Slab Decomposition

     bravais-lattice index     =            0
     lattice parameter (alat)  =       1.8897  a.u.
     unit-cell volume          =    6658.9804 (a.u.)^3
     number of atoms/cell      =           56
     number of atomic types    =            5
     number of electrons       =       398.00
     number of Kohn-Sham states=          209
     kinetic-energy cutoff     =      29.3995  Ry
     charge density cutoff     =     293.9946  Ry
     scf convergence threshold =      7.3E-08
     mixing beta               =       0.0500
     number of iterations used =            8  plain     mixing
     Exchange-correlation= BEEF-VDW
                           (   1   4  43  14   2   0   0)

     celldm(1)=   1.889726  celldm(2)=   0.000000  celldm(3)=   0.000000
     celldm(4)=   0.000000  celldm(5)=   0.000000  celldm(6)=   0.000000

     crystal axes: (cart. coord. in units of alat)
               a(1) = (   6.579727   0.000000   0.000000 )
               a(2) = (  -0.000775   5.961596   0.000000 )
               a(3) = (   0.000000   0.000000  25.155947 )

     reciprocal axes: (cart. coord. in units 2 pi/alat)
               b(1) = (  0.151982  0.000020  0.000000 )
               b(2) = (  0.000000  0.167740  0.000000 )
               b(3) = (  0.000000  0.000000  0.039752 )

     PseudoPot. # 1 for Ti read from file:
     /storage/coda1/p-amedford6/0/shared/rich_project_chbe-medford/medford-share/data/pseudos_module/espresso/nninc/pbe/van/Ti.UPF
     MD5 check sum: 8e4df49b7f0d34bbd5052bf3f5ea0213
     Pseudo is Ultrasoft, Zval = 12.0
     Generated by new atomic code, or converted to UPF format
     Using radial grid of  851 points,  6 beta functions with:
                l(1) =   0
                l(2) =   0
                l(3) =   1
                l(4) =   1
                l(5) =   2
                l(6) =   2
     Q(r) pseudized with  8 coefficients,  rinner =    1.000   1.000   1.000
                                                       1.000   1.000

     PseudoPot. # 2 for O  read from file:
     /storage/coda1/p-amedford6/0/shared/rich_project_chbe-medford/medford-share/data/pseudos_module/espresso/nninc/pbe/van/O.UPF
     MD5 check sum: 78c19812648e8988a0fe644b0f25305e
     Pseudo is Ultrasoft, Zval =  6.0
     Generated by new atomic code, or converted to UPF format
     Using radial grid of  737 points,  4 beta functions with:
                l(1) =   0
                l(2) =   0
                l(3) =   1
                l(4) =   1
     Q(r) pseudized with  8 coefficients,  rinner =    0.800   0.800   0.800

     PseudoPot. # 3 for N  read from file:
     /storage/coda1/p-amedford6/0/shared/rich_project_chbe-medford/medford-share/data/pseudos_module/espresso/nninc/pbe/van/N.UPF
     MD5 check sum: 90d10febe142ad51ac9d5be1deb811c4
     Pseudo is Ultrasoft, Zval =  5.0
     Generated by new atomic code, or converted to UPF format
     Using radial grid of  729 points,  4 beta functions with:
                l(1) =   0
                l(2) =   0
                l(3) =   1
                l(4) =   1
     Q(r) pseudized with  8 coefficients,  rinner =    0.800   0.800   0.800

     PseudoPot. # 4 for C  read from file:
     /storage/coda1/p-amedford6/0/shared/rich_project_chbe-medford/medford-share/data/pseudos_module/espresso/nninc/pbe/van/C.UPF
     MD5 check sum: 1a69bf6b8db32088f5b2163dbdb77a27
     Pseudo is Ultrasoft, Zval =  4.0
     Generated by new atomic code, or converted to UPF format
     Using radial grid of  721 points,  4 beta functions with:
                l(1) =   0
                l(2) =   0
                l(3) =   1
                l(4) =   1
     Q(r) pseudized with  8 coefficients,  rinner =    0.800   0.800   0.800

     PseudoPot. # 5 for H  read from file:
     /storage/coda1/p-amedford6/0/shared/rich_project_chbe-medford/medford-share/data/pseudos_module/espresso/nninc/pbe/van/H.UPF
     MD5 check sum: b5ee9d7bfd3a09ee7748110bda690ff7
     Pseudo is Ultrasoft, Zval =  1.0
     Generated by new atomic code, or converted to UPF format
     Using radial grid of  615 points,  1 beta functions with:
                l(1) =   0
     Q(r) pseudized with  8 coefficients,  rinner =    0.800

     atomic species   valence    mass     pseudopotential
        Ti1           12.00    47.86700     Ti( 1.00)
        O1             6.00    15.99900     O ( 1.00)
        N1             5.00    14.00700     N ( 1.00)
        C1             4.00    12.01100     C ( 1.00)
        H1             1.00     1.00800     H ( 1.00)

     No symmetry found

   Cartesian axes

     site n.     atom                  positions (alat units)
         1           Ti1 tau(   1) = (   0.0004258   2.9801865   6.0000000  )
         2           Ti1 tau(   2) = (   3.2906075   1.4906267   6.0002472  )
         3           O1  tau(   3) = (   0.0006271   0.0005054   7.9858123  )
         4           O1  tau(   4) = (   3.2906025   0.0005020   7.3038282  )
         5           O1  tau(   5) = (   4.5942328   1.4918067   9.2879030  )
         6           O1  tau(   6) = (   1.9868534   1.4903216   9.2879459  )
         7           Ti1 tau(   7) = (   3.2907910   2.8959150   9.1758416  )
         8           Ti1 tau(   8) = (   0.0015273   1.4827037   9.2680791  )
         9           O1  tau(   9) = (   3.2714441   0.0289406  11.3813764  )
        10           O1  tau(  10) = (   0.0116148   5.9584955  10.6183126  )
        11           O1  tau(  11) = (   1.2692032   1.5162281  12.7122965  )
        12           O1  tau(  12) = (   5.2779133   1.5159715  12.6811497  )
        13           Ti1 tau(  13) = (   6.5579218   3.0031650  12.5037829  )
        14           Ti1 tau(  14) = (   3.2791490   1.5128154  12.5375672  )
        15           O1  tau(  15) = (   6.5208524   5.8954130  14.6845636  )
        16           O1  tau(  16) = (   3.2849572   0.0099931  14.0031570  )
        17           O1  tau(  17) = (   4.4884262   1.5607690  16.1641467  )
        18           O1  tau(  18) = (   1.9729656   1.5430890  16.0903287  )
        19           Ti1 tau(  19) = (   3.2372663   3.0309179  15.7728032  )
        20           Ti1 tau(  20) = (   6.5553692   1.3539605  15.8053163  )
        21           O1  tau(  21) = (   3.2904802   0.0005063   4.7018136  )
        22           O1  tau(  22) = (   6.5123495   0.2165906  17.2215032  )
        23           O1  tau(  23) = (   1.3043587   1.4918075   6.0039043  )
        24           O1  tau(  24) = (   5.2767064   1.4903225   6.0039473  )
        25           Ti1 tau(  25) = (   0.0000382   5.9609847   6.0000000  )
        26           Ti1 tau(  26) = (   3.2902200   4.4714249   6.0002472  )
        27           O1  tau(  27) = (   0.0002396   2.9813036   7.9858123  )
        28           O1  tau(  28) = (   3.2902150   2.9813002   7.3038282  )
        29           O1  tau(  29) = (   4.5938453   4.4726049   9.2879030  )
        30           O1  tau(  30) = (   1.9864658   4.4711199   9.2879459  )
        31           Ti1 tau(  31) = (   3.2891106   5.8743827   9.1763621  )
        32           Ti1 tau(  32) = (   0.0006254   4.4649316   9.2693709  )
        33           O1  tau(  33) = (   3.2699379   2.9911670  11.3762017  )
        34           O1  tau(  34) = (   0.0092240   2.9805883  10.6323155  )
        35           O1  tau(  35) = (   1.2730946   4.4825978  12.6662957  )
        36           O1  tau(  36) = (   5.2742290   4.4829497  12.6320226  )
        37           Ti1 tau(  37) = (   6.5783117   0.0079037  12.5026730  )
        38           Ti1 tau(  38) = (   3.2784283   4.4905194  12.5286134  )
        39           O1  tau(  39) = (   6.5033290   3.0824797  14.9867588  )
        40           O1  tau(  40) = (   3.2824109   3.0350539  13.9807796  )
        41           O1  tau(  41) = (   4.4804250   4.5097483  16.2808085  )
        42           O1  tau(  42) = (   1.9642025   4.5165872  16.2225063  )
        43           Ti1 tau(  43) = (   3.2609991   0.0502580  15.7998297  )
        44           Ti1 tau(  44) = (   6.5501253   4.5826093  16.0954727  )
        45           O1  tau(  45) = (   3.2900926   2.9813045   4.7018136  )
        46           O1  tau(  46) = (   1.3039711   4.4726057   6.0039043  )
        47           O1  tau(  47) = (   5.2763189   4.4711207   6.0039473  )
        48           N1  tau(  48) = (   0.8845045   3.2634721  19.1145209  )
        49           N1  tau(  49) = (   6.3504243   3.3997271  18.1887592  )
        50           C1  tau(  50) = (   1.3027081   4.5631590  19.6429350  )
        51           H1  tau(  51) = (   0.4658632   5.1229972  20.1056819  )
        52           H1  tau(  52) = (   2.0600825   4.3818216  20.3958833  )
        53           H1  tau(  53) = (   1.7018904   5.1738364  18.8453250  )
        54           H1  tau(  54) = (   0.5628611   2.6866381  19.8888112  )
        55           H1  tau(  55) = (   5.6051421   3.9827062  18.5884547  )
        56           H1  tau(  56) = (   5.9567982   2.4624696  18.0937858  )

     number of k points=    10  Fermi-Dirac smearing, width (Ry)=  0.0073
                       cart. coord. in units 2pi/alat
        k(    1) = (   0.0000000   0.0000000   0.0000000), wk =   0.1250000
        k(    2) = (   0.0000000   0.0419351   0.0000000), wk =   0.2500000
        k(    3) = (   0.0000000  -0.0838702   0.0000000), wk =   0.1250000
        k(    4) = (   0.0379955   0.0000049   0.0000000), wk =   0.2500000
        k(    5) = (   0.0379955   0.0419400   0.0000000), wk =   0.2500000
        k(    6) = (   0.0379955  -0.0838652   0.0000000), wk =   0.2500000
        k(    7) = (   0.0379955  -0.0419301   0.0000000), wk =   0.2500000
        k(    8) = (  -0.0759910  -0.0000099   0.0000000), wk =   0.1250000
        k(    9) = (  -0.0759910   0.0419252   0.0000000), wk =   0.2500000
        k(   10) = (  -0.0759910  -0.0838800   0.0000000), wk =   0.1250000

     Initial potential from superposition of free atoms

     starting charge  381.99914, renormalised to  398.00000

     negative rho (up, down):  1.416E-02 0.000E+00

     %%%%%%%%%%%%%%%%%%%%%%%%%%%%%%%%%%%%%%%%%%%%%%%%%%%%%%%%%%%%%%%%%%%%%%%%
     %                                                                      %
     % You are using vdW-DF, which was implemented by the Thonhauser group. %
     % Please cite the following two papers that made this development      %
     % possible and the two reviews that describe the various versions:     %
     %                                                                      %
     %   T. Thonhauser et al., PRL 115, 136402 (2015).                      %
     %   T. Thonhauser et al., PRB 76, 125112 (2007).                       %
     %   K. Berland et al., Rep. Prog. Phys. 78, 066501 (2015).             %
     %   D.C. Langreth et al., J. Phys.: Condens. Matter 21, 084203 (2009). %
     %                                                                      %
     %                                                                      %
     % If you are calculating the stress with vdW-DF, please also cite:     %
     %                                                                      %
     %   R. Sabatini et al., J. Phys.: Condens. Matter 24, 424209 (2012).   %
     %                                                                      %
     %%%%%%%%%%%%%%%%%%%%%%%%%%%%%%%%%%%%%%%%%%%%%%%%%%%%%%%%%%%%%%%%%%%%%%%%

     Adding external electric field

     Computed dipole along edir(3) :
        Dipole              -11.7171 Ry au,        -29.7818 Debye
        Dipole field         -0.0221 Ry au,

        Potential amp.        2.0497 Ry
        Total length         46.3494 bohr

     Starting wfcs are  302 atomic wfcs
  @ DRIVER MODE: Message from server: STATUS
  @ DRIVER MODE: Message from server: POSDATA
  @ DRIVER MODE: Reading and sharing cell
  @ DRIVER MODE: Reading and sharing positions
  @ DRIVER MODE: Received positions

     Self-consistent Calculation

     iteration #  1     ecut=    29.40 Ry     beta= 0.05
     Davidson diagonalization with overlap
     c_bands:  3 eigenvalues not converged
     c_bands:  1 eigenvalues not converged
     c_bands:  1 eigenvalues not converged
     c_bands:  4 eigenvalues not converged
     c_bands:  1 eigenvalues not converged
     c_bands:  4 eigenvalues not converged
     c_bands:  5 eigenvalues not converged
     c_bands:  2 eigenvalues not converged
     ethr =  1.00E-05,  avg # of iterations = 21.9

[...]

     total energy              =   -2424.53933632 Ry
     estimated scf accuracy    <    5830.50633986 Ry

     iteration #  2     ecut=    29.40 Ry     beta= 0.05
     Davidson diagonalization with overlap
     ethr =  1.00E-02,  avg # of iterations = 22.0

[...]

     iteration # 74     ecut=    29.40 Ry     beta= 0.05
     Davidson diagonalization with overlap
     ethr =  4.25E-11,  avg # of iterations =  1.5

[...]

     total energy              =   -2942.84373931 Ry
     estimated scf accuracy    <       0.00000013 Ry

     iteration # 75     ecut=    29.40 Ry     beta= 0.05
     Davidson diagonalization with overlap
     c_bands:  1 eigenvalues not converged
     ethr =  3.17E-11,  avg # of iterations = 15.3

     negative rho (up, down):  1.512E-02 0.000E+00

     Adding external electric field

     Computed dipole along edir(3) :
        Dipole                1.4948 Ry au,          3.7995 Debye
        Dipole field          0.0028 Ry au,

        Potential amp.       -0.2615 Ry
        Total length         46.3494 bohr

     End of self-consistent calculation

          k = 0.0000 0.0000 0.0000 ( 18029 PWs)   bands (ev):

   -55.2019 -55.1648 -55.1540 -55.1253 -55.1199 -55.0830 -55.0798 -55.0449
   -55.0260 -55.0129 -54.9916 -54.9866 -54.9529 -54.8562 -54.1861 -54.1521
   -31.7682 -31.6520 -31.6470 -31.5679 -31.5152 -31.5141 -31.5112 -31.4927
   -31.4430 -31.4393 -31.4115 -31.4092 -31.3990 -31.3821 -31.3692 -31.3634
   -31.3564 -31.3464 -31.3393 -31.3223 -31.3066 -31.3035 -31.2720 -31.2683
   -31.2575 -31.2567 -31.2380 -31.2286 -31.2112 -31.2103 -31.2062 -31.1854
   -31.1853 -31.1818 -31.1752 -31.1727 -31.1394 -31.1296 -31.1149 -31.0980
   -31.0694 -31.0501 -30.5958 -30.5011 -30.4790 -30.4120 -30.3252 -30.2144
   -17.9458 -16.0352 -15.7729 -15.6275 -15.5153 -15.4041 -15.2846 -15.2538
   -15.1341 -15.0580 -14.9240 -14.8977 -14.8751 -14.8517 -14.8398 -14.8271
   -14.7515 -14.7450 -14.7289 -14.7007 -14.6988 -14.6536 -14.6439 -14.6045
   -14.5795 -14.5581 -14.4536 -14.3654 -14.2914 -14.0746 -13.4319 -12.6890
   -12.5714  -9.7145  -6.5946  -6.0858  -4.5525  -3.3736  -3.2627  -3.2256
    -3.1399  -3.1048  -3.0962  -3.0429  -2.9561  -2.7922  -2.6502  -2.6247
    -2.4930  -2.4180  -2.4018  -2.3771  -2.2474  -2.2120  -2.1612  -2.1216
    -2.0630  -2.0321  -2.0086  -1.9930  -1.9620  -1.9529  -1.9277  -1.8385
    -1.7789  -1.6852  -1.6679  -1.6013  -1.5927  -1.5607  -1.5396  -1.4944
    -1.4841  -1.4337  -1.4268  -1.4142  -1.3946  -1.2643  -1.2231  -1.1133
    -1.0518  -0.9642  -0.8437  -0.8036  -0.7895  -0.6989  -0.6901  -0.6580
    -0.5816  -0.5783  -0.5477  -0.4395  -0.3745  -0.3109  -0.2520  -0.2255
    -0.1925  -0.1150  -0.0242   0.0119   0.0286   0.0518   0.1520   0.1870
     0.2427   0.3095   0.3210   0.3342   0.4144   0.4550   0.5303   0.5671
     0.5847   0.6732   0.6999   0.7274   0.7280   0.7659   0.7800   0.8198
     0.8684   0.8952   0.9817   1.0570   1.1033   1.3474   1.3999   1.4059
     1.7320   1.7399   1.8364   2.0198   2.4129   2.4613   3.8947   3.9636
     4.0392   4.0441   4.0666   4.1304   4.3683   4.3914   4.4003   4.4025
     4.4292

[...]

          k = 0.0380-0.0419 0.0000 ( 17876 PWs)   bands (ev):

[...]

          k =-0.0760-0.0000 0.0000 ( 17886 PWs)   bands (ev):

[...]

          k =-0.0760-0.0839 0.0000 ( 17948 PWs)   bands (ev):

   -55.1881 -55.1784 -55.1371 -55.1366 -55.1240 -55.0787 -55.0653 -55.0594
   -55.0172 -55.0101 -55.0070 -54.9701 -54.9696 -54.8573 -54.1692 -54.1689
   -31.5764 -31.5754 -31.5686 -31.4837 -31.4622 -31.4618 -31.4588 -31.4283
   -31.4281 -31.4125 -31.4018 -31.4003 -31.3916 -31.3659 -31.3566 -31.3434
   -31.3426 -31.3388 -31.3354 -31.3299 -31.3280 -31.3219 -31.2829 -31.2796
   -31.2794 -31.2781 -31.2603 -31.2587 -31.2568 -31.2564 -31.2515 -31.2432
   -31.2402 -31.2233 -31.2199 -31.2039 -31.2031 -31.2003 -31.1507 -31.1505
   -31.1259 -31.0738 -30.4918 -30.4915 -30.4084 -30.4081 -30.3687 -30.3685
   -17.9425 -15.5602 -15.4303 -15.4012 -15.2448 -15.2086 -15.1752 -15.1620
   -15.0410 -15.0036 -14.9790 -14.9697 -14.9520 -14.9117 -14.9061 -14.8990
   -14.8286 -14.8094 -14.8051 -14.7828 -14.7247 -14.7157 -14.7118 -14.7043
   -14.6537 -14.6501 -14.5693 -14.5594 -14.5561 -14.3761 -13.4353 -12.6729
   -12.6728  -9.7304  -6.5792  -6.0860  -4.5310  -3.2405  -3.0027  -2.6927
    -2.6883  -2.6598  -2.4587  -2.3960  -2.3653  -2.3597  -2.2624  -2.2258
    -2.2012  -2.1978  -2.1325  -2.1180  -2.0866  -2.0571  -2.0409  -2.0268
    -2.0105  -1.9963  -1.9717  -1.9343  -1.9262  -1.9176  -1.8856  -1.8644
    -1.8414  -1.8188  -1.8056  -1.7871  -1.7611  -1.7385  -1.6017  -1.5702
    -1.4998  -1.4550  -1.4136  -1.4093  -1.3375  -1.3010  -1.2509  -1.2387
    -1.2214  -1.0810  -1.0237  -0.9726  -0.9527  -0.9418  -0.8129  -0.7986
    -0.7255  -0.7079  -0.6916  -0.6155  -0.5659  -0.5277  -0.5140  -0.4208
    -0.4051  -0.3391  -0.2369  -0.2141  -0.2003  -0.1596  -0.1566  -0.1094
    -0.1023  -0.0181   0.0260   0.0611   0.0719   0.1077   0.3007   0.3168
     0.3266   0.4798   0.4960   0.6371   0.6807   0.7471   0.8061   0.8450
     0.9066   0.9438   1.0636   1.0898   1.1016   1.1113   1.1713   1.1832
     1.2459   1.2567   2.1925   2.1931   2.2812   2.2814   4.0406   4.1480
     4.1557   4.1974   4.3172   4.3475   4.4097   4.4369   4.4789   4.4820
     4.5418

     the Fermi energy is     3.9580 ev

!    total energy              =   -2942.84375049 Ry
     estimated scf accuracy    <       0.00000006 Ry
     smearing contrib. (-TS)   =      -0.03707708 Ry
     internal energy E=F+TS    =   -2942.80667342 Ry

     The total energy is F=E-TS. E is the sum of the following terms:
     one-electron contribution =  -23366.58497418 Ry
     hartree contribution      =   11777.46805904 Ry
     xc contribution           =    -487.74042435 Ry
     ewald contribution        =    9134.04644928 Ry
     electric field correction =       0.00421679 Ry

     convergence has been achieved in  75 iterations

     Forces acting on atoms (cartesian axes, Ry/au):

     atom    1 type  1   force =     0.00016987   -0.00032787    0.09327755
     atom    2 type  1   force =    -0.00006059   -0.00042121   -0.17825015
     atom    3 type  2   force =     0.00002613   -0.00032278   -0.02003286
     atom    4 type  2   force =     0.00002162   -0.00183370    0.05923432
     atom    5 type  2   force =    -0.01046096   -0.00026327    0.00864037
     atom    6 type  2   force =     0.01147520    0.00040859    0.00645218
     atom    7 type  1   force =    -0.00100342    0.00212950   -0.01398106
     atom    8 type  1   force =     0.00081484   -0.00094614   -0.00572626
     atom    9 type  2   force =    -0.00009983    0.00012693   -0.00001691
     atom   10 type  2   force =    -0.00185441    0.00411267    0.00028073
     atom   11 type  2   force =    -0.00008865   -0.00064736    0.00028208
     atom   12 type  2   force =     0.00000868   -0.00041718    0.00053744
     atom   13 type  1   force =     0.00003854    0.00009730    0.00032594
     atom   14 type  1   force =    -0.00037614   -0.00000266    0.00008321
     atom   15 type  2   force =     0.00052146    0.00025068   -0.00034507
     atom   16 type  2   force =     0.00032147   -0.00035050   -0.00005743
     atom   17 type  2   force =    -0.00057211   -0.00001256   -0.00001314
     atom   18 type  2   force =     0.00054121   -0.00020511   -0.00000212
     atom   19 type  1   force =    -0.00003037   -0.00054616    0.00023216
     atom   20 type  1   force =     0.00070318    0.00013092    0.00092745
     atom   21 type  2   force =     0.00012529   -0.00012771    0.10403744
     atom   22 type  2   force =    -0.00032045    0.00016153   -0.00022083
     atom   23 type  2   force =    -0.07027855   -0.00021725   -0.02688234
     atom   24 type  2   force =     0.07026993    0.00022080   -0.02690603
     atom   25 type  1   force =     0.00008031   -0.00032342    0.09258521
     atom   26 type  1   force =    -0.00002744   -0.00059561   -0.17836621
     atom   27 type  2   force =     0.00012976   -0.00016340   -0.01908787
     atom   28 type  2   force =     0.00005140   -0.00163491    0.05859348
     atom   29 type  2   force =    -0.01105851   -0.00055857    0.00932073
     atom   30 type  2   force =     0.01197885   -0.00002004    0.00721017
     atom   31 type  1   force =    -0.00093273    0.00646402   -0.01504601
     atom   32 type  1   force =     0.00085645    0.00101381   -0.00587034
     atom   33 type  2   force =     0.00017452   -0.00057395   -0.00004902
     atom   34 type  2   force =    -0.00185850   -0.00052059   -0.00048908
     atom   35 type  2   force =    -0.00047113    0.00006785   -0.00043750
     atom   36 type  2   force =     0.00037030   -0.00011292    0.00017850
     atom   37 type  1   force =    -0.00051802   -0.00024818    0.00019967
     atom   38 type  1   force =    -0.00004703   -0.00014911   -0.00008590
     atom   39 type  2   force =     0.00030070   -0.00061355   -0.00001137
     atom   40 type  2   force =    -0.00060282   -0.00051346    0.00026494
     atom   41 type  2   force =    -0.00024674   -0.00073816   -0.00069861
     atom   42 type  2   force =     0.00046032   -0.00008327   -0.00009119
     atom   43 type  1   force =     0.00024030   -0.00019480   -0.00020015
     atom   44 type  1   force =     0.00051011    0.00004749    0.00081228
     atom   45 type  2   force =     0.00013424   -0.00014362    0.10400162
     atom   46 type  2   force =    -0.07027972   -0.00016795   -0.02685350
     atom   47 type  2   force =     0.07024882    0.00025606   -0.02690909
     atom   48 type  3   force =     0.00357629    0.00164522   -0.00035814
     atom   49 type  3   force =     0.00069075    0.00009729    0.00082988
     atom   50 type  4   force =    -0.01997966   -0.00130620   -0.00038853
     atom   51 type  5   force =     0.00614718   -0.00140973   -0.00190357
     atom   52 type  5   force =     0.00690641   -0.00169925    0.00453688
     atom   53 type  5   force =     0.00397415    0.00251049   -0.00417580
     atom   54 type  5   force =     0.00018566   -0.00119578    0.00082251
     atom   55 type  5   force =    -0.00000307   -0.00037109   -0.00010938
     atom   56 type  5   force =    -0.00088311    0.00023785   -0.00010127

     Total force =     0.367111     Total SCF correction =     0.000687
  @ DRIVER MODE: Message from server: STATUS
  @ DRIVER MODE: Message from server: GETFORCE
  @ DRIVER MODE: Returning v,forces,stress,ensemble

     Writing output data file ./calc.save/
  @ DRIVER MODE: Message from server: EXIT
  @ DRIVE MODE: Exiting

     General routines

     Parallel routines

   This run was terminated on:   0:55:29  25Aug2021

   JOB DONE.