     Program PWSCF v.6.7GPU starts on 23Sep2021 at 22:11: 7

     R & G space division:  proc/nbgrp/npool/nimage =       8
     Reading input from /storage/home/hcoda1/3/ntian30/research/carbon/CxH_vib/H2O_calc/ads_slab/CH2N2HO_b/out_0029/pw.inp
Warning: card &CELL ignored
Warning: card   CELL_DYNAMICS='IPI', ignored
Warning: card / ignored

     Current dimensions of program PWSCF are:
     Max number of different atomic species (ntypx) = 10
     Max number of k-points (npk) =  40000
     Max angular momentum in pseudopotentials (lmaxx) =  3
     Presently no symmetry can be used with electric field

     Message from routine cell_base_init:
     DEPRECATED: use true lattice parameter, not A to a.u. conversion factor

     IMPORTANT: XC functional enforced from input :
     Exchange-correlation= BEEF-VDW
                           (   1   4  43  14   2   0   0)
     Any further DFT definition will be discarded
     Please, verify this is what you really want

  @ DRIVER MODE: Connecting to
 qe_1139763_2947312.sched-torque.pace.gatech.edu5cv73p50_scratch
  using UNIX socket
  @ DRIVER MODE: Message from server: STATUS
  @ DRIVER MODE: Message from server: INIT
  @ DRIVER MODE: Receiving replica           0          -1
  @ DRIVER MODE: Receiving encoded integer          25
  @ DRIVER MODE:  SCF:  T  FORCE:  T  STRESS:  F  VC:  F  ENSEMBLE:  F
  @ DRIVER MODE:  SCF:  T  FORCE:  T  STRESS:  F  VC:  F  ENSEMBLE:  F

     Using Slab Decomposition

     bravais-lattice index     =            0
     lattice parameter (alat)  =       1.8897  a.u.
     unit-cell volume          =    6658.9804 (a.u.)^3
     number of atoms/cell      =           54
     number of atomic types    =            5
     number of electrons       =       401.00
     number of Kohn-Sham states=          210
     kinetic-energy cutoff     =      29.3995  Ry
     charge density cutoff     =     293.9946  Ry
     scf convergence threshold =      7.3E-08
     mixing beta               =       0.0500
     number of iterations used =            8  plain     mixing
     Exchange-correlation= BEEF-VDW
                           (   1   4  43  14   2   0   0)

     celldm(1)=   1.889726  celldm(2)=   0.000000  celldm(3)=   0.000000
     celldm(4)=   0.000000  celldm(5)=   0.000000  celldm(6)=   0.000000

     crystal axes: (cart. coord. in units of alat)
               a(1) = (   6.579727   0.000000   0.000000 )
               a(2) = (  -0.000775   5.961596   0.000000 )
               a(3) = (   0.000000   0.000000  25.155947 )

     reciprocal axes: (cart. coord. in units 2 pi/alat)
               b(1) = (  0.151982  0.000020  0.000000 )
               b(2) = (  0.000000  0.167740  0.000000 )
               b(3) = (  0.000000  0.000000  0.039752 )

     PseudoPot. # 1 for Ti read from file:
     /storage/coda1/p-amedford6/0/shared/rich_project_chbe-medford/medford-share/data/pseudos_module/espresso/nninc/pbe/van/Ti.UPF
     MD5 check sum: 8e4df49b7f0d34bbd5052bf3f5ea0213
     Pseudo is Ultrasoft, Zval = 12.0
     Generated by new atomic code, or converted to UPF format
     Using radial grid of  851 points,  6 beta functions with:
                l(1) =   0
                l(2) =   0
                l(3) =   1
                l(4) =   1
                l(5) =   2
                l(6) =   2
     Q(r) pseudized with  8 coefficients,  rinner =    1.000   1.000   1.000
                                                       1.000   1.000

     PseudoPot. # 2 for O  read from file:
     /storage/coda1/p-amedford6/0/shared/rich_project_chbe-medford/medford-share/data/pseudos_module/espresso/nninc/pbe/van/O.UPF
     MD5 check sum: 78c19812648e8988a0fe644b0f25305e
     Pseudo is Ultrasoft, Zval =  6.0
     Generated by new atomic code, or converted to UPF format
     Using radial grid of  737 points,  4 beta functions with:
                l(1) =   0
                l(2) =   0
                l(3) =   1
                l(4) =   1
     Q(r) pseudized with  8 coefficients,  rinner =    0.800   0.800   0.800

     PseudoPot. # 3 for N  read from file:
     /storage/coda1/p-amedford6/0/shared/rich_project_chbe-medford/medford-share/data/pseudos_module/espresso/nninc/pbe/van/N.UPF
     MD5 check sum: 90d10febe142ad51ac9d5be1deb811c4
     Pseudo is Ultrasoft, Zval =  5.0
     Generated by new atomic code, or converted to UPF format
     Using radial grid of  729 points,  4 beta functions with:
                l(1) =   0
                l(2) =   0
                l(3) =   1
                l(4) =   1
     Q(r) pseudized with  8 coefficients,  rinner =    0.800   0.800   0.800

     PseudoPot. # 4 for C  read from file:
     /storage/coda1/p-amedford6/0/shared/rich_project_chbe-medford/medford-share/data/pseudos_module/espresso/nninc/pbe/van/C.UPF
     MD5 check sum: 1a69bf6b8db32088f5b2163dbdb77a27
     Pseudo is Ultrasoft, Zval =  4.0
     Generated by new atomic code, or converted to UPF format
     Using radial grid of  721 points,  4 beta functions with:
                l(1) =   0
                l(2) =   0
                l(3) =   1
                l(4) =   1
     Q(r) pseudized with  8 coefficients,  rinner =    0.800   0.800   0.800

     PseudoPot. # 5 for H  read from file:
     /storage/coda1/p-amedford6/0/shared/rich_project_chbe-medford/medford-share/data/pseudos_module/espresso/nninc/pbe/van/H.UPF
     MD5 check sum: b5ee9d7bfd3a09ee7748110bda690ff7
     Pseudo is Ultrasoft, Zval =  1.0
     Generated by new atomic code, or converted to UPF format
     Using radial grid of  615 points,  1 beta functions with:
                l(1) =   0
     Q(r) pseudized with  8 coefficients,  rinner =    0.800

     atomic species   valence    mass     pseudopotential
        Ti1           12.00    47.86700     Ti( 1.00)
        O1             6.00    15.99900     O ( 1.00)
        N1             5.00    14.00700     N ( 1.00)
        C1             4.00    12.01100     C ( 1.00)
        H1             1.00     1.00800     H ( 1.00)

     No symmetry found

   Cartesian axes

     site n.     atom                  positions (alat units)
         1           Ti1 tau(   1) = (   0.0004258   2.9801865   6.0000000  )
         2           Ti1 tau(   2) = (   3.2906075   1.4906267   6.0002472  )
         3           O1  tau(   3) = (   0.0006271   0.0005054   7.9858123  )
         4           O1  tau(   4) = (   3.2906025   0.0005020   7.3038282  )
         5           O1  tau(   5) = (   4.5942328   1.4918067   9.2879030  )
         6           O1  tau(   6) = (   1.9868534   1.4903216   9.2879459  )
         7           Ti1 tau(   7) = (   3.2907910   2.8959150   9.1758416  )
         8           Ti1 tau(   8) = (   0.0015273   1.4827037   9.2680791  )
         9           O1  tau(   9) = (   3.2935892   5.9488104  11.3374186  )
        10           O1  tau(  10) = (   0.0116148   5.9584955  10.6183126  )
        11           O1  tau(  11) = (   1.2908913   1.5070562  12.6495475  )
        12           O1  tau(  12) = (   5.3136790   1.4931969  12.6373367  )
        13           Ti1 tau(  13) = (   0.0127878   2.8868139  12.6015941  )
        14           Ti1 tau(  14) = (   3.2987545   1.3040885  12.7026746  )
        15           O1  tau(  15) = (   0.0175227   0.0240941  14.6538407  )
        16           O1  tau(  16) = (   3.3064676   0.0741613  13.9771881  )
        17           O1  tau(  17) = (   4.5827780   1.5498142  16.1449436  )
        18           O1  tau(  18) = (   2.0366442   1.5898792  16.0867183  )
        19           Ti1 tau(  19) = (   3.3102262   3.0030951  15.6784192  )
        20           Ti1 tau(  20) = (   0.0574396   1.3488835  16.0050117  )
        21           O1  tau(  21) = (   3.2904802   0.0005063   4.7018136  )
        22           O1  tau(  22) = (   0.0721820   0.0083530  17.1768217  )
        23           O1  tau(  23) = (   1.3043587   1.4918075   6.0039043  )
        24           O1  tau(  24) = (   5.2767064   1.4903225   6.0039473  )
        25           Ti1 tau(  25) = (   0.0000382   5.9609847   6.0000000  )
        26           Ti1 tau(  26) = (   3.2902200   4.4714249   6.0002472  )
        27           O1  tau(  27) = (   0.0002396   2.9813036   7.9858123  )
        28           O1  tau(  28) = (   3.2902150   2.9813002   7.3038282  )
        29           O1  tau(  29) = (   4.5938453   4.4726049   9.2879030  )
        30           O1  tau(  30) = (   1.9864658   4.4711199   9.2879459  )
        31           Ti1 tau(  31) = (   3.2891106   5.8743827   9.1763621  )
        32           Ti1 tau(  32) = (   0.0006254   4.4649316   9.2693709  )
        33           O1  tau(  33) = (   3.2934580   3.0155445  11.2926531  )
        34           O1  tau(  34) = (   0.0092240   2.9805883  10.6323155  )
        35           O1  tau(  35) = (   1.2931599   4.4792858  12.6478595  )
        36           O1  tau(  36) = (   5.3056662   4.4876152  12.6363886  )
        37           Ti1 tau(  37) = (   6.5746511   5.8741161  12.5153022  )
        38           Ti1 tau(  38) = (   3.2863760   4.3878630  12.4273393  )
        39           O1  tau(  39) = (   6.5684735   3.0099032  14.7382625  )
        40           O1  tau(  40) = (   3.3273571   2.9915841  13.8999870  )
        41           O1  tau(  41) = (   4.5754576   4.4629145  16.1269992  )
        42           O1  tau(  42) = (   2.0375947   4.4358961  16.0236521  )
        43           Ti1 tau(  43) = (   3.3857405   0.0156461  16.2930207  )
        44           Ti1 tau(  44) = (   0.0840152   4.5257857  15.8004899  )
        45           O1  tau(  45) = (   3.2900926   2.9813045   4.7018136  )
        46           O1  tau(  46) = (   1.3039711   4.4726057   6.0039043  )
        47           O1  tau(  47) = (   5.2763189   4.4711207   6.0039473  )
        48           N1  tau(  48) = (   6.4876325   3.2951735  18.6921505  )
        49           N1  tau(  49) = (   0.0139976   3.0420413  17.5569154  )
        50           C1  tau(  50) = (   6.3059459   3.6199554  19.9036174  )
        51           H1  tau(  51) = (   5.2963100   3.8231348  20.2372398  )
        52           H1  tau(  52) = (   0.5840524   3.7151184  20.5447593  )
        53           O1  tau(  53) = (   3.1058724   5.9363815  18.1230642  )
        54           H1  tau(  54) = (   2.1709728   0.0855973  18.3648350  )

     number of k points=    10  Fermi-Dirac smearing, width (Ry)=  0.0073
                       cart. coord. in units 2pi/alat
        k(    1) = (   0.0000000   0.0000000   0.0000000), wk =   0.1250000
        k(    2) = (   0.0000000   0.0419351   0.0000000), wk =   0.2500000
        k(    3) = (   0.0000000  -0.0838702   0.0000000), wk =   0.1250000
        k(    4) = (   0.0379955   0.0000049   0.0000000), wk =   0.2500000
        k(    5) = (   0.0379955   0.0419400   0.0000000), wk =   0.2500000
        k(    6) = (   0.0379955  -0.0838652   0.0000000), wk =   0.2500000
        k(    7) = (   0.0379955  -0.0419301   0.0000000), wk =   0.2500000
        k(    8) = (  -0.0759910  -0.0000099   0.0000000), wk =   0.1250000
        k(    9) = (  -0.0759910   0.0419252   0.0000000), wk =   0.2500000
        k(   10) = (  -0.0759910  -0.0838800   0.0000000), wk =   0.1250000

     Initial potential from superposition of free atoms

     starting charge  384.99916, renormalised to  401.00000

     negative rho (up, down):  1.408E-02 0.000E+00

     %%%%%%%%%%%%%%%%%%%%%%%%%%%%%%%%%%%%%%%%%%%%%%%%%%%%%%%%%%%%%%%%%%%%%%%%
     %                                                                      %
     % You are using vdW-DF, which was implemented by the Thonhauser group. %
     % Please cite the following two papers that made this development      %
     % possible and the two reviews that describe the various versions:     %
     %                                                                      %
     %   T. Thonhauser et al., PRL 115, 136402 (2015).                      %
     %   T. Thonhauser et al., PRB 76, 125112 (2007).                       %
     %   K. Berland et al., Rep. Prog. Phys. 78, 066501 (2015).             %
     %   D.C. Langreth et al., J. Phys.: Condens. Matter 21, 084203 (2009). %
     %                                                                      %
     %                                                                      %
     % If you are calculating the stress with vdW-DF, please also cite:     %
     %                                                                      %
     %   R. Sabatini et al., J. Phys.: Condens. Matter 24, 424209 (2012).   %
     %                                                                      %
     %%%%%%%%%%%%%%%%%%%%%%%%%%%%%%%%%%%%%%%%%%%%%%%%%%%%%%%%%%%%%%%%%%%%%%%%

     Adding external electric field

     Computed dipole along edir(3) :
        Dipole              -11.8198 Ry au,        -30.0428 Debye
        Dipole field         -0.0223 Ry au,

        Potential amp.        2.0677 Ry
        Total length         46.3494 bohr

     Starting wfcs are  303 atomic wfcs
  @ DRIVER MODE: Message from server: STATUS
  @ DRIVER MODE: Message from server: POSDATA
  @ DRIVER MODE: Reading and sharing cell
  @ DRIVER MODE: Reading and sharing positions
  @ DRIVER MODE: Received positions

     Self-consistent Calculation

     iteration #  1     ecut=    29.40 Ry     beta= 0.05
     Davidson diagonalization with overlap
     c_bands:  3 eigenvalues not converged
     c_bands:  4 eigenvalues not converged
     c_bands:  1 eigenvalues not converged
     c_bands:  4 eigenvalues not converged
     c_bands:  4 eigenvalues not converged
     c_bands:  1 eigenvalues not converged
     c_bands:  2 eigenvalues not converged
     ethr =  1.00E-05,  avg # of iterations = 22.9

[...]

     total energy              =   -2411.59709864 Ry
     estimated scf accuracy    <    6296.18183434 Ry

     iteration #  2     ecut=    29.40 Ry     beta= 0.05
     Davidson diagonalization with overlap
     ethr =  1.00E-02,  avg # of iterations = 22.5

[...]

     iteration # 40     ecut=    29.40 Ry     beta= 0.05
     Davidson diagonalization with overlap
     c_bands:  2 eigenvalues not converged
     ethr =  2.42E-06,  avg # of iterations = 14.3

[...]

     total energy              =   -2971.49155331 Ry
     estimated scf accuracy    <       0.00000053 Ry

     iteration # 78     ecut=    29.40 Ry     beta= 0.05
     Davidson diagonalization with overlap
     ethr =  4.30E-11,  avg # of iterations =  6.2

     negative rho (up, down):  1.461E-02 0.000E+00

     Adding external electric field

     Computed dipole along edir(3) :
        Dipole                1.0656 Ry au,          2.7084 Debye
        Dipole field          0.0020 Ry au,

        Potential amp.       -0.1864 Ry
        Total length         46.3494 bohr

     End of self-consistent calculation

          k = 0.0000 0.0000 0.0000 ( 18029 PWs)   bands (ev):

   -55.6912 -55.6572 -55.4761 -55.4752 -55.4422 -55.3334 -55.3164 -55.2815
   -55.2810 -55.2258 -55.1804 -55.0955 -55.0866 -54.9804 -54.5993 -54.5653
   -32.1651 -31.9867 -31.9846 -31.9286 -31.8439 -31.8167 -31.8116 -31.7929
   -31.7877 -31.7564 -31.7497 -31.7487 -31.7129 -31.6953 -31.6834 -31.6501
   -31.6477 -31.6107 -31.5837 -31.5785 -31.5756 -31.5511 -31.5418 -31.5389
   -31.4938 -31.4869 -31.4810 -31.4706 -31.4584 -31.4442 -31.4399 -31.4252
   -31.4244 -31.3688 -31.3644 -31.3609 -31.2945 -31.2818 -31.2588 -31.2298
   -31.2045 -31.1912 -31.0023 -30.9237 -30.9008 -30.8202 -30.7344 -30.6224
   -20.7458 -16.2548 -16.1714 -15.9668 -15.7890 -15.6382 -15.5855 -15.4453
   -15.3737 -15.2749 -15.1932 -15.0942 -15.0737 -15.0336 -14.9980 -14.9960
   -14.9683 -14.9358 -14.9353 -14.9131 -14.8949 -14.8475 -14.7872 -14.7705
   -14.7256 -14.6981 -14.6516 -14.6460 -14.6178 -14.5156 -14.2478 -14.2335
   -13.0970 -12.9819  -7.4114  -6.1142  -5.6773  -5.0483  -3.7641  -3.5793
    -3.5049  -3.3563  -3.2771  -3.2021  -3.0871  -2.9858  -2.9079  -2.7478
    -2.6622  -2.6360  -2.5845  -2.5279  -2.4625  -2.4362  -2.3953  -2.3724
    -2.2941  -2.2531  -2.2301  -2.2088  -2.1546  -2.1252  -2.0902  -2.0047
    -1.9753  -1.9412  -1.8667  -1.8581  -1.8330  -1.8250  -1.7825  -1.7640
    -1.7508  -1.7323  -1.5961  -1.5877  -1.5099  -1.4710  -1.3244  -1.2002
    -1.1356  -1.0657  -1.0512  -0.9690  -0.9335  -0.8537  -0.8349  -0.8049
    -0.7672  -0.6999  -0.6357  -0.6130  -0.5683  -0.5316  -0.3956  -0.3735
    -0.3266  -0.3222  -0.2987  -0.2347  -0.1652  -0.0838  -0.0715  -0.0058
     0.0148   0.0968   0.1789   0.1862   0.2357   0.2593   0.3138   0.3367
     0.3550   0.3884   0.4181   0.4873   0.5505   0.5977   0.6031   0.6363
     0.7036   0.7712   0.8113   0.8445   0.9938   1.0229   1.0366   1.1281
     1.1390   1.2470   1.4056   1.4271   1.6311   1.6323   1.9871   2.0296
     3.4551   3.5853   3.6190   3.6929   3.7783   3.9060   3.9148   4.0418
     4.1615   4.1667

[...]

          k = 0.0380-0.0419 0.0000 ( 17876 PWs)   bands (ev):

[...]

          k =-0.0760-0.0000 0.0000 ( 17886 PWs)   bands (ev):

[...]

          k =-0.0760-0.0839 0.0000 ( 17948 PWs)   bands (ev):

   -55.6747 -55.6736 -55.4744 -55.4603 -55.4577 -55.3271 -55.3028 -55.2945
   -55.2877 -55.2264 -55.1768 -55.0989 -55.0840 -54.9829 -54.5829 -54.5817
   -31.9810 -31.9804 -31.9708 -31.9699 -31.7954 -31.7940 -31.7817 -31.7761
   -31.7428 -31.7223 -31.6950 -31.6885 -31.6846 -31.6694 -31.6535 -31.6488
   -31.6315 -31.6177 -31.6163 -31.6117 -31.5932 -31.5515 -31.5466 -31.5249
   -31.5237 -31.5184 -31.5137 -31.5125 -31.5045 -31.4869 -31.4648 -31.4568
   -31.4296 -31.3890 -31.3754 -31.3531 -31.3410 -31.3259 -31.2979 -31.2859
   -31.2361 -31.1947 -30.9140 -30.9131 -30.8163 -30.8149 -30.7778 -30.7769
   -20.7447 -16.2290 -15.6174 -15.5493 -15.5290 -15.5204 -15.4050 -15.3723
   -15.2405 -15.2394 -15.2167 -15.1576 -15.1474 -15.1162 -15.1086 -15.0837
   -15.0505 -15.0256 -15.0027 -14.9726 -14.9619 -14.9184 -14.8914 -14.8879
   -14.8741 -14.8253 -14.7386 -14.6556 -14.6483 -14.5753 -14.4940 -14.3669
   -13.0844 -13.0839  -7.4121  -6.1177  -5.6801  -5.0259  -3.7372  -3.1219
    -2.8964  -2.7488  -2.7219  -2.5940  -2.5751  -2.4810  -2.4729  -2.4297
    -2.4164  -2.3770  -2.3493  -2.3320  -2.2895  -2.2723  -2.2569  -2.2529
    -2.2344  -2.2039  -2.1954  -2.1912  -2.1821  -2.1525  -2.1253  -2.1109
    -2.0948  -2.0481  -2.0213  -1.9224  -1.8172  -1.7922  -1.7189  -1.7130
    -1.7110  -1.6987  -1.6764  -1.6526  -1.5680  -1.4781  -1.4404  -1.3841
    -1.2099  -1.1958  -1.1729  -1.1513  -1.0941  -1.0464  -1.0176  -0.9658
    -0.9535  -0.9299  -0.8569  -0.7941  -0.7212  -0.7006  -0.6323  -0.5828
    -0.5655  -0.4754  -0.4621  -0.4293  -0.3884  -0.3742  -0.3453  -0.2913
    -0.2764  -0.2572  -0.2288  -0.1905  -0.1550   0.0141   0.1476   0.2109
     0.2288   0.2655   0.3197   0.3853   0.4091   0.5930   0.6057   0.6104
     0.6486   0.7085   0.7341   0.7508   0.8420   0.9566   0.9842   1.0201
     1.0479   1.0674   1.1477   1.2072   1.7980   1.8062   1.8492   1.8498
     3.4567   3.9921   4.0111   4.0126   4.0136   4.1082   4.1324   4.1406
     4.2055   4.2629

     the Fermi energy is     3.4495 ev

!    total energy              =   -2971.49156594 Ry
     estimated scf accuracy    <       0.00000005 Ry
     smearing contrib. (-TS)   =      -0.01886196 Ry
     internal energy E=F+TS    =   -2971.47270398 Ry

     The total energy is F=E-TS. E is the sum of the following terms:
     one-electron contribution =  -23618.64125975 Ry
     hartree contribution      =   11903.18064916 Ry
     xc contribution           =    -492.37225030 Ry
     ewald contribution        =    9236.35801420 Ry
     electric field correction =       0.00214272 Ry

     convergence has been achieved in  78 iterations

     Forces acting on atoms (cartesian axes, Ry/au):

     atom    1 type  1   force =     0.00001405   -0.00040039    0.09765571
     atom    2 type  1   force =    -0.00004052    0.00021865   -0.17213608
     atom    3 type  2   force =     0.00005163   -0.00005176   -0.02535837
     atom    4 type  2   force =     0.00001596   -0.00144816    0.04761761
     atom    5 type  2   force =    -0.00616644   -0.00239669   -0.00084881
     atom    6 type  2   force =     0.00778842   -0.00181482   -0.00151333
     atom    7 type  1   force =    -0.00008611   -0.00483871    0.01886316
     atom    8 type  1   force =     0.00022419    0.01221769    0.02698555
     atom    9 type  2   force =    -0.00010469   -0.00016567   -0.00010134
     atom   10 type  2   force =    -0.00111815    0.00132049   -0.02499724
     atom   11 type  2   force =     0.00014761   -0.00002874    0.00006573
     atom   12 type  2   force =     0.00005656   -0.00003342   -0.00000832
     atom   13 type  1   force =     0.00034654   -0.00021946   -0.00021489
     atom   14 type  1   force =     0.00005113   -0.00013351   -0.00020954
     atom   15 type  2   force =    -0.00030436   -0.00019067   -0.00025684
     atom   16 type  2   force =    -0.00002971   -0.00012212   -0.00045434
     atom   17 type  2   force =    -0.00011381   -0.00005389   -0.00000636
     atom   18 type  2   force =     0.00002980   -0.00017933   -0.00003618
     atom   19 type  1   force =    -0.00017567   -0.00001083   -0.00043549
     atom   20 type  1   force =    -0.00014857   -0.00019687    0.00009426
     atom   21 type  2   force =     0.00005694    0.00008613    0.10225632
     atom   22 type  2   force =     0.00009071    0.00004926   -0.00017152
     atom   23 type  2   force =    -0.07353749   -0.00015766   -0.02810423
     atom   24 type  2   force =     0.07345473    0.00028633   -0.02817900
     atom   25 type  1   force =     0.00013774   -0.00033409    0.09745170
     atom   26 type  1   force =    -0.00004102   -0.00130648   -0.17227046
     atom   27 type  2   force =     0.00009420   -0.00030600   -0.02399663
     atom   28 type  2   force =     0.00004176    0.00031216    0.04324853
     atom   29 type  2   force =    -0.00505614    0.00402812   -0.00277638
     atom   30 type  2   force =     0.00656573    0.00441769   -0.00333231
     atom   31 type  1   force =     0.00001186    0.00580175    0.00689407
     atom   32 type  1   force =     0.00029030   -0.01518938    0.02657253
     atom   33 type  2   force =     0.00038263   -0.00003062    0.00011636
     atom   34 type  2   force =    -0.00138519    0.00099713   -0.02674250
     atom   35 type  2   force =     0.00037671    0.00005173    0.00003714
     atom   36 type  2   force =    -0.00028656   -0.00006279   -0.00008239
     atom   37 type  1   force =     0.00009880   -0.00052089   -0.00014854
     atom   38 type  1   force =     0.00024500    0.00012642    0.00007415
     atom   39 type  2   force =    -0.00012662   -0.00016078   -0.00004707
     atom   40 type  2   force =     0.00005700    0.00002288   -0.00011551
     atom   41 type  2   force =    -0.00015375    0.00008551   -0.00015296
     atom   42 type  2   force =    -0.00028913   -0.00010695    0.00005164
     atom   43 type  1   force =    -0.00009979    0.00020997   -0.00073678
     atom   44 type  1   force =    -0.00026226    0.00040547    0.00009240
     atom   45 type  2   force =     0.00004927   -0.00008156    0.10203917
     atom   46 type  2   force =    -0.07357363   -0.00008243   -0.02814070
     atom   47 type  2   force =     0.07347956    0.00035718   -0.02818843
     atom   48 type  3   force =    -0.00132257   -0.00003377   -0.00139212
     atom   49 type  3   force =    -0.00020199   -0.00028626    0.00011828
     atom   50 type  4   force =    -0.00534349   -0.00102937   -0.00514259
     atom   51 type  5   force =     0.00024225   -0.00005916    0.00045553
     atom   52 type  5   force =     0.00534915    0.00099344    0.00601617
     atom   53 type  2   force =     0.00036076    0.00069332   -0.00017838
     atom   54 type  5   force =    -0.00014334   -0.00064812   -0.00023038

     Total force =     0.365160     Total SCF correction =     0.000758
  @ DRIVER MODE: Message from server: STATUS
  @ DRIVER MODE: Message from server: GETFORCE
  @ DRIVER MODE: Returning v,forces,stress,ensemble

     Writing output data file ./calc.save/
  @ DRIVER MODE: Message from server: EXIT
  @ DRIVE MODE: Exiting

     General routines

     Parallel routines

   This run was terminated on:  22:36:46  23Sep2021

   JOB DONE.