     Program PWSCF v.6.7GPU starts on 23Sep2021 at  7:55:56

     R & G space division:  proc/nbgrp/npool/nimage =      10
     Reading input from /storage/home/hcoda1/3/ntian30/research/carbon/CxH_vib/H2O_calc/ads_slab/CHNHNH2H2O_b/out_0044/pw.inp
Warning: card &CELL ignored
Warning: card   CELL_DYNAMICS='IPI', ignored
Warning: card / ignored

     Current dimensions of program PWSCF are:
     Max number of different atomic species (ntypx) = 10
     Max number of k-points (npk) =  40000
     Max angular momentum in pseudopotentials (lmaxx) =  3
     Presently no symmetry can be used with electric field

     Message from routine cell_base_init:
     DEPRECATED: use true lattice parameter, not A to a.u. conversion factor

     IMPORTANT: XC functional enforced from input :
     Exchange-correlation= BEEF-VDW
                           (   1   4  43  14   2   0   0)
     Any further DFT definition will be discarded
     Please, verify this is what you really want

  @ DRIVER MODE: Connecting to
 qe_1139763_2937312.sched-torque.pace.gatech.eduyczpr9ur_scratch
  using UNIX socket
  @ DRIVER MODE: Message from server: STATUS
  @ DRIVER MODE: Message from server: INIT
  @ DRIVER MODE: Receiving replica           0          -1
  @ DRIVER MODE: Receiving encoded integer          25
  @ DRIVER MODE:  SCF:  T  FORCE:  T  STRESS:  F  VC:  F  ENSEMBLE:  F
  @ DRIVER MODE:  SCF:  T  FORCE:  T  STRESS:  F  VC:  F  ENSEMBLE:  F

     Using Slab Decomposition

     bravais-lattice index     =            0
     lattice parameter (alat)  =       1.8897  a.u.
     unit-cell volume          =    6658.9804 (a.u.)^3
     number of atoms/cell      =           57
     number of atomic types    =            5
     number of electrons       =       404.00
     number of Kohn-Sham states=          212
     kinetic-energy cutoff     =      29.3995  Ry
     charge density cutoff     =     293.9946  Ry
     scf convergence threshold =      7.3E-08
     mixing beta               =       0.0500
     number of iterations used =            8  plain     mixing
     Exchange-correlation= BEEF-VDW
                           (   1   4  43  14   2   0   0)

     celldm(1)=   1.889726  celldm(2)=   0.000000  celldm(3)=   0.000000
     celldm(4)=   0.000000  celldm(5)=   0.000000  celldm(6)=   0.000000

     crystal axes: (cart. coord. in units of alat)
               a(1) = (   6.579727   0.000000   0.000000 )
               a(2) = (  -0.000775   5.961596   0.000000 )
               a(3) = (   0.000000   0.000000  25.155947 )

     reciprocal axes: (cart. coord. in units 2 pi/alat)
               b(1) = (  0.151982  0.000020  0.000000 )
               b(2) = (  0.000000  0.167740  0.000000 )
               b(3) = (  0.000000  0.000000  0.039752 )

     PseudoPot. # 1 for Ti read from file:
     /storage/coda1/p-amedford6/0/shared/rich_project_chbe-medford/medford-share/data/pseudos_module/espresso/nninc/pbe/van/Ti.UPF
     MD5 check sum: 8e4df49b7f0d34bbd5052bf3f5ea0213
     Pseudo is Ultrasoft, Zval = 12.0
     Generated by new atomic code, or converted to UPF format
     Using radial grid of  851 points,  6 beta functions with:
                l(1) =   0
                l(2) =   0
                l(3) =   1
                l(4) =   1
                l(5) =   2
                l(6) =   2
     Q(r) pseudized with  8 coefficients,  rinner =    1.000   1.000   1.000
                                                       1.000   1.000

     PseudoPot. # 2 for O  read from file:
     /storage/coda1/p-amedford6/0/shared/rich_project_chbe-medford/medford-share/data/pseudos_module/espresso/nninc/pbe/van/O.UPF
     MD5 check sum: 78c19812648e8988a0fe644b0f25305e
     Pseudo is Ultrasoft, Zval =  6.0
     Generated by new atomic code, or converted to UPF format
     Using radial grid of  737 points,  4 beta functions with:
                l(1) =   0
                l(2) =   0
                l(3) =   1
                l(4) =   1
     Q(r) pseudized with  8 coefficients,  rinner =    0.800   0.800   0.800

     PseudoPot. # 3 for N  read from file:
     /storage/coda1/p-amedford6/0/shared/rich_project_chbe-medford/medford-share/data/pseudos_module/espresso/nninc/pbe/van/N.UPF
     MD5 check sum: 90d10febe142ad51ac9d5be1deb811c4
     Pseudo is Ultrasoft, Zval =  5.0
     Generated by new atomic code, or converted to UPF format
     Using radial grid of  729 points,  4 beta functions with:
                l(1) =   0
                l(2) =   0
                l(3) =   1
                l(4) =   1
     Q(r) pseudized with  8 coefficients,  rinner =    0.800   0.800   0.800

     PseudoPot. # 4 for C  read from file:
     /storage/coda1/p-amedford6/0/shared/rich_project_chbe-medford/medford-share/data/pseudos_module/espresso/nninc/pbe/van/C.UPF
     MD5 check sum: 1a69bf6b8db32088f5b2163dbdb77a27
     Pseudo is Ultrasoft, Zval =  4.0
     Generated by new atomic code, or converted to UPF format
     Using radial grid of  721 points,  4 beta functions with:
                l(1) =   0
                l(2) =   0
                l(3) =   1
                l(4) =   1
     Q(r) pseudized with  8 coefficients,  rinner =    0.800   0.800   0.800

     PseudoPot. # 5 for H  read from file:
     /storage/coda1/p-amedford6/0/shared/rich_project_chbe-medford/medford-share/data/pseudos_module/espresso/nninc/pbe/van/H.UPF
     MD5 check sum: b5ee9d7bfd3a09ee7748110bda690ff7
     Pseudo is Ultrasoft, Zval =  1.0
     Generated by new atomic code, or converted to UPF format
     Using radial grid of  615 points,  1 beta functions with:
                l(1) =   0
     Q(r) pseudized with  8 coefficients,  rinner =    0.800

     atomic species   valence    mass     pseudopotential
        Ti1           12.00    47.86700     Ti( 1.00)
        O1             6.00    15.99900     O ( 1.00)
        N1             5.00    14.00700     N ( 1.00)
        C1             4.00    12.01100     C ( 1.00)
        H1             1.00     1.00800     H ( 1.00)

     No symmetry found

   Cartesian axes

     site n.     atom                  positions (alat units)
         1           Ti1 tau(   1) = (   0.0004258   2.9801865   6.0000000  )
         2           Ti1 tau(   2) = (   3.2906075   1.4906267   6.0002472  )
         3           O1  tau(   3) = (   0.0006271   0.0005054   7.9858123  )
         4           O1  tau(   4) = (   3.2906025   0.0005020   7.3038282  )
         5           O1  tau(   5) = (   4.5942328   1.4918067   9.2879030  )
         6           O1  tau(   6) = (   1.9868534   1.4903216   9.2879459  )
         7           Ti1 tau(   7) = (   3.2907910   2.8959150   9.1758416  )
         8           Ti1 tau(   8) = (   0.0015273   1.4827037   9.2680791  )
         9           O1  tau(   9) = (   3.3066417   5.9496923  11.3845403  )
        10           O1  tau(  10) = (   0.0116148   5.9584955  10.6183126  )
        11           O1  tau(  11) = (   1.3010148   1.4986442  12.6442229  )
        12           O1  tau(  12) = (   5.3085967   1.5001388  12.6592367  )
        13           Ti1 tau(  13) = (   0.0282779   2.9853959  12.5065338  )
        14           Ti1 tau(  14) = (   3.3279724   1.4707331  12.5413945  )
        15           O1  tau(  15) = (   0.0378505   0.0859181  14.6860672  )
        16           O1  tau(  16) = (   3.3018867   0.0259462  14.0338077  )
        17           O1  tau(  17) = (   4.5998927   1.5484098  16.1661054  )
        18           O1  tau(  18) = (   2.0454451   1.5021798  16.2221046  )
        19           Ti1 tau(  19) = (   3.3206312   2.9825829  15.7321521  )
        20           Ti1 tau(  20) = (   0.0140791   1.4435866  15.9983415  )
        21           O1  tau(  21) = (   3.2904802   0.0005063   4.7018136  )
        22           O1  tau(  22) = (   6.5273045   5.8164216  17.2577718  )
        23           O1  tau(  23) = (   1.3043587   1.4918075   6.0039043  )
        24           O1  tau(  24) = (   5.2767064   1.4903225   6.0039473  )
        25           Ti1 tau(  25) = (   0.0000382   5.9609847   6.0000000  )
        26           Ti1 tau(  26) = (   3.2902200   4.4714249   6.0002472  )
        27           O1  tau(  27) = (   0.0002396   2.9813036   7.9858123  )
        28           O1  tau(  28) = (   3.2902150   2.9813002   7.3038282  )
        29           O1  tau(  29) = (   4.5938453   4.4726049   9.2879030  )
        30           O1  tau(  30) = (   1.9864658   4.4711199   9.2879459  )
        31           Ti1 tau(  31) = (   3.2891106   5.8743827   9.1763621  )
        32           Ti1 tau(  32) = (   0.0006254   4.4649316   9.2693709  )
        33           O1  tau(  33) = (   3.3068470   2.9864458  11.3814114  )
        34           O1  tau(  34) = (   0.0092240   2.9805883  10.6323155  )
        35           O1  tau(  35) = (   1.2982948   4.4740332  12.6840172  )
        36           O1  tau(  36) = (   5.3097620   4.4704985  12.6972095  )
        37           Ti1 tau(  37) = (   0.0348817   0.0130325  12.4954113  )
        38           Ti1 tau(  38) = (   3.3270268   4.4633798  12.5435021  )
        39           O1  tau(  39) = (   0.0563025   2.9439880  14.9425960  )
        40           O1  tau(  40) = (   3.2900316   2.9661073  13.9503945  )
        41           O1  tau(  41) = (   4.5967999   4.4093095  16.0633277  )
        42           O1  tau(  42) = (   2.0412097   4.4536800  16.1303113  )
        43           Ti1 tau(  43) = (   3.2964201   5.9600488  15.8742613  )
        44           Ti1 tau(  44) = (   0.0241369   4.6516137  15.8518307  )
        45           O1  tau(  45) = (   3.2900926   2.9813045   4.7018136  )
        46           O1  tau(  46) = (   1.3039711   4.4726057   6.0039043  )
        47           O1  tau(  47) = (   5.2763189   4.4711207   6.0039473  )
        48           N1  tau(  48) = (   1.4509408   2.7109095  18.7602185  )
        49           N1  tau(  49) = (   0.0917387   2.5303350  18.2207845  )
        50           C1  tau(  50) = (   1.9503960   3.7723240  19.2784661  )
        51           H1  tau(  51) = (   1.1612915   4.5273475  19.4152495  )
        52           H1  tau(  52) = (   2.0208952   1.9183395  18.4664618  )
        53           H1  tau(  53) = (   6.1377449   3.3539424  18.4987646  )
        54           H1  tau(  54) = (   6.2616785   1.7135167  18.6767212  )
        55           O1  tau(  55) = (   3.7112217   5.9496235  18.2853534  )
        56           H1  tau(  56) = (   4.6684668   5.8470116  18.1670174  )
        57           H1  tau(  57) = (   3.3852657   5.1278045  18.7338684  )

     number of k points=    10  Fermi-Dirac smearing, width (Ry)=  0.0073
                       cart. coord. in units 2pi/alat
        k(    1) = (   0.0000000   0.0000000   0.0000000), wk =   0.1250000
        k(    2) = (   0.0000000   0.0419351   0.0000000), wk =   0.2500000
        k(    3) = (   0.0000000  -0.0838702   0.0000000), wk =   0.1250000
        k(    4) = (   0.0379955   0.0000049   0.0000000), wk =   0.2500000
        k(    5) = (   0.0379955   0.0419400   0.0000000), wk =   0.2500000
        k(    6) = (   0.0379955  -0.0838652   0.0000000), wk =   0.2500000
        k(    7) = (   0.0379955  -0.0419301   0.0000000), wk =   0.2500000
        k(    8) = (  -0.0759910  -0.0000099   0.0000000), wk =   0.1250000
        k(    9) = (  -0.0759910   0.0419252   0.0000000), wk =   0.2500000
        k(   10) = (  -0.0759910  -0.0838800   0.0000000), wk =   0.1250000

     Initial potential from superposition of free atoms

     starting charge  387.99913, renormalised to  404.00000

     negative rho (up, down):  1.597E-02 0.000E+00

     %%%%%%%%%%%%%%%%%%%%%%%%%%%%%%%%%%%%%%%%%%%%%%%%%%%%%%%%%%%%%%%%%%%%%%%%
     %                                                                      %
     % You are using vdW-DF, which was implemented by the Thonhauser group. %
     % Please cite the following two papers that made this development      %
     % possible and the two reviews that describe the various versions:     %
     %                                                                      %
     %   T. Thonhauser et al., PRL 115, 136402 (2015).                      %
     %   T. Thonhauser et al., PRB 76, 125112 (2007).                       %
     %   K. Berland et al., Rep. Prog. Phys. 78, 066501 (2015).             %
     %   D.C. Langreth et al., J. Phys.: Condens. Matter 21, 084203 (2009). %
     %                                                                      %
     %                                                                      %
     % If you are calculating the stress with vdW-DF, please also cite:     %
     %                                                                      %
     %   R. Sabatini et al., J. Phys.: Condens. Matter 24, 424209 (2012).   %
     %                                                                      %
     %%%%%%%%%%%%%%%%%%%%%%%%%%%%%%%%%%%%%%%%%%%%%%%%%%%%%%%%%%%%%%%%%%%%%%%%

     Adding external electric field

     Computed dipole along edir(3) :
        Dipole              -14.3585 Ry au,        -36.4957 Debye
        Dipole field         -0.0271 Ry au,

        Potential amp.        2.5118 Ry
        Total length         46.3494 bohr

     Starting wfcs are  306 atomic wfcs
  @ DRIVER MODE: Message from server: STATUS
  @ DRIVER MODE: Message from server: POSDATA
  @ DRIVER MODE: Reading and sharing cell
  @ DRIVER MODE: Reading and sharing positions
  @ DRIVER MODE: Received positions

     Self-consistent Calculation

     iteration #  1     ecut=    29.40 Ry     beta= 0.05
     Davidson diagonalization with overlap
     c_bands:  4 eigenvalues not converged
     c_bands:  4 eigenvalues not converged
     c_bands:  4 eigenvalues not converged
     c_bands:  4 eigenvalues not converged
     c_bands:  3 eigenvalues not converged
     c_bands:  2 eigenvalues not converged
     c_bands:  5 eigenvalues not converged
     ethr =  1.00E-05,  avg # of iterations = 23.5

[...]

     total energy              =   -2220.90829339 Ry
     estimated scf accuracy    <    8587.44535172 Ry

     iteration #  2     ecut=    29.40 Ry     beta= 0.05
     Davidson diagonalization with overlap
     ethr =  1.00E-02,  avg # of iterations = 27.7

[...]

     iteration # 75     ecut=    29.40 Ry     beta= 0.05
     Davidson diagonalization with overlap
     c_bands:  1 eigenvalues not converged
     ethr =  9.13E-10,  avg # of iterations = 11.8

[...]

     total energy              =   -2975.10510743 Ry
     estimated scf accuracy    <       0.00000009 Ry

     iteration # 83     ecut=    29.40 Ry     beta= 0.05
     Davidson diagonalization with overlap
     ethr =  2.30E-11,  avg # of iterations = 10.7

     negative rho (up, down):  1.579E-02 0.000E+00

     Adding external electric field

     Computed dipole along edir(3) :
        Dipole                1.0266 Ry au,          2.6095 Debye
        Dipole field          0.0019 Ry au,

        Potential amp.       -0.1796 Ry
        Total length         46.3494 bohr

     End of self-consistent calculation

          k = 0.0000 0.0000 0.0000 ( 18029 PWs)   bands (ev):

   -55.3844 -55.3486 -55.3445 -55.3104 -55.3074 -55.3016 -55.2665 -55.2312
   -55.2160 -55.1812 -55.1745 -55.1589 -55.1407 -55.1108 -54.3758 -54.3417
   -31.9434 -31.8792 -31.8372 -31.7562 -31.7072 -31.7046 -31.6804 -31.6774
   -31.6333 -31.5975 -31.5907 -31.5891 -31.5820 -31.5785 -31.5605 -31.5584
   -31.5338 -31.5257 -31.5228 -31.5115 -31.4972 -31.4907 -31.4718 -31.4667
   -31.4585 -31.4456 -31.4450 -31.4162 -31.4018 -31.3982 -31.3950 -31.3729
   -31.3690 -31.3649 -31.3613 -31.3398 -31.3291 -31.3169 -31.3022 -31.3017
   -31.2912 -31.2856 -30.7852 -30.6907 -30.6687 -30.6016 -30.5148 -30.4039
   -18.8842 -18.4837 -16.2192 -15.9719 -15.8357 -15.7313 -15.5940 -15.4958
   -15.3867 -15.2734 -15.2504 -15.1560 -15.0822 -15.0787 -15.0410 -15.0155
   -14.9529 -14.9315 -14.9078 -14.9018 -14.8872 -14.8771 -14.8405 -14.8296
   -14.7971 -14.7856 -14.7684 -14.6509 -14.6259 -14.5511 -14.4805 -14.3420
   -12.8782 -12.7607  -9.8396  -7.0023  -6.4227  -6.0907  -4.4344  -3.7332
    -3.5430  -3.4095  -3.3299  -3.3026  -3.2848  -3.1533  -3.0517  -2.8985
    -2.8610  -2.8039  -2.6729  -2.5971  -2.5905  -2.5024  -2.4299  -2.4069
    -2.3743  -2.2649  -2.2588  -2.2085  -2.1912  -2.1681  -2.1589  -2.1133
    -2.0657  -2.0390  -1.9540  -1.8525  -1.8086  -1.7890  -1.7529  -1.7300
    -1.7253  -1.6816  -1.6754  -1.6516  -1.6128  -1.5888  -1.5431  -1.4310
    -1.3898  -1.2311  -1.1932  -1.0393  -1.0190  -0.9798  -0.9593  -0.9241
    -0.8928  -0.8765  -0.8618  -0.7714  -0.7131  -0.6468  -0.5828  -0.4920
    -0.4817  -0.4072  -0.3818  -0.3166  -0.2294  -0.1843  -0.1747  -0.1502
    -0.1469  -0.0330   0.0118   0.0723   0.0906   0.1481   0.1641   0.1862
     0.2562   0.3096   0.3792   0.4102   0.4890   0.5072   0.5423   0.5515
     0.5841   0.5943   0.6708   0.6855   0.7135   0.8163   0.9136   1.0075
     1.2166   1.2193   1.2484   1.5517   1.5539   1.6472   1.8305   2.2235
     2.2719   3.7054   3.7838   3.8334   3.8510   3.8555   3.9404   4.1949
     4.2092   4.2219   4.2281   4.2690

[...]

          k = 0.0380-0.0419 0.0000 ( 17876 PWs)   bands (ev):

[...]

          k =-0.0760-0.0000 0.0000 ( 17886 PWs)   bands (ev):

[...]

          k =-0.0760-0.0839 0.0000 ( 17948 PWs)   bands (ev):

   -55.3676 -55.3652 -55.3275 -55.3273 -55.3045 -55.3006 -55.2527 -55.2449
   -55.2017 -55.1950 -55.1607 -55.1586 -55.1568 -55.1126 -54.3587 -54.3587
   -31.7939 -31.7559 -31.7417 -31.6523 -31.6522 -31.6377 -31.6261 -31.6186
   -31.6185 -31.5977 -31.5927 -31.5895 -31.5667 -31.5586 -31.5469 -31.5330
   -31.5299 -31.5273 -31.5234 -31.5152 -31.5106 -31.5085 -31.5074 -31.4995
   -31.4680 -31.4665 -31.4472 -31.4471 -31.4468 -31.4416 -31.4392 -31.4346
   -31.4252 -31.4138 -31.4081 -31.3914 -31.3895 -31.3789 -31.3385 -31.3373
   -31.3366 -31.3173 -30.6813 -30.6813 -30.5978 -30.5976 -30.5582 -30.5582
   -18.8783 -18.4862 -15.8386 -15.6520 -15.5008 -15.4290 -15.4087 -15.3254
   -15.2700 -15.2670 -15.1938 -15.1756 -15.1633 -15.1420 -15.1316 -15.0846
   -15.0476 -15.0109 -14.9921 -14.9695 -14.9264 -14.9037 -14.9021 -14.8953
   -14.8875 -14.8471 -14.8420 -14.8387 -14.7470 -14.7451 -14.7088 -14.5589
   -12.8622 -12.8622  -9.8491  -6.9912  -6.3983  -6.0653  -4.4487  -3.6618
    -3.0098  -2.9101  -2.8986  -2.6693  -2.6524  -2.5913  -2.5787  -2.4907
    -2.4751  -2.4146  -2.3910  -2.3407  -2.3179  -2.2798  -2.2660  -2.2446
    -2.2235  -2.2098  -2.1838  -2.1671  -2.1501  -2.1306  -2.1195  -2.1081
    -2.0530  -2.0469  -2.0383  -2.0130  -1.9899  -1.9538  -1.9439  -1.9277
    -1.7721  -1.7560  -1.7345  -1.5996  -1.5952  -1.5614  -1.5211  -1.4935
    -1.4359  -1.4270  -1.3990  -1.3404  -1.1467  -1.1363  -1.1237  -1.1061
    -1.0342  -0.9792  -0.9652  -0.9473  -0.8941  -0.8149  -0.7822  -0.7291
    -0.6412  -0.5882  -0.5794  -0.5531  -0.4317  -0.4090  -0.3655  -0.3481
    -0.3317  -0.2975  -0.2959  -0.2385  -0.1860  -0.1504  -0.1275  -0.1132
    -0.0762   0.0784   0.1309   0.1470   0.2618   0.2906   0.4686   0.5113
     0.5337   0.6384   0.7216   0.7492   0.7640   0.8905   0.9119   0.9140
     0.9823   1.0045   1.0646   1.0703   1.2046   2.0032   2.0045   2.0917
     2.0919   3.8305   3.9534   3.9976   4.0334   4.1098   4.1621   4.2191
     4.2782   4.2900   4.2933   4.3601

     the Fermi energy is     3.7675 ev

!    total energy              =   -2975.10511733 Ry
     estimated scf accuracy    <       0.00000004 Ry
     smearing contrib. (-TS)   =      -0.03671797 Ry
     internal energy E=F+TS    =   -2975.06839936 Ry

     The total energy is F=E-TS. E is the sum of the following terms:
     one-electron contribution =  -23505.49860580 Ry
     hartree contribution      =   11848.77769257 Ry
     xc contribution           =    -494.92389432 Ry
     ewald contribution        =    9176.57441915 Ry
     electric field correction =       0.00198904 Ry

     convergence has been achieved in  83 iterations

     Forces acting on atoms (cartesian axes, Ry/au):

     atom    1 type  1   force =     0.00002920   -0.00025103    0.09306954
     atom    2 type  1   force =    -0.00019717   -0.00032614   -0.17839976
     atom    3 type  2   force =     0.00006144   -0.00017066   -0.02023280
     atom    4 type  2   force =     0.00001800   -0.00203532    0.05925505
     atom    5 type  2   force =    -0.01032439   -0.00110234    0.00809462
     atom    6 type  2   force =     0.01216958   -0.00054794    0.00817367
     atom    7 type  1   force =     0.00015035    0.00329093   -0.01112056
     atom    8 type  1   force =    -0.00029664    0.00054081   -0.00561399
     atom    9 type  2   force =     0.00004311    0.00017406   -0.00013637
     atom   10 type  2   force =    -0.00146262   -0.00003741   -0.00172193
     atom   11 type  2   force =     0.00038366   -0.00003311   -0.00005145
     atom   12 type  2   force =    -0.00009630    0.00010816   -0.00008366
     atom   13 type  1   force =    -0.00009530   -0.00016785   -0.00023158
     atom   14 type  1   force =    -0.00020738   -0.00034285    0.00034366
     atom   15 type  2   force =     0.00007531   -0.00046387    0.00007902
     atom   16 type  2   force =     0.00021643    0.00009225    0.00032532
     atom   17 type  2   force =     0.00040387   -0.00003741    0.00002272
     atom   18 type  2   force =    -0.00000175   -0.00022048    0.00004257
     atom   19 type  1   force =    -0.00014430   -0.00046637   -0.00002931
     atom   20 type  1   force =     0.00001715    0.00013960    0.00056695
     atom   21 type  2   force =    -0.00000429   -0.00007403    0.10399645
     atom   22 type  2   force =     0.00035164   -0.00007736   -0.00048105
     atom   23 type  2   force =    -0.07032420   -0.00015702   -0.02684138
     atom   24 type  2   force =     0.07019499    0.00028830   -0.02691832
     atom   25 type  1   force =     0.00002524   -0.00015819    0.09272712
     atom   26 type  1   force =    -0.00016582   -0.00039821   -0.17834625
     atom   27 type  2   force =     0.00011218   -0.00030551   -0.01917689
     atom   28 type  2   force =     0.00004839   -0.00163138    0.05840644
     atom   29 type  2   force =    -0.01027408   -0.00064281    0.00729961
     atom   30 type  2   force =     0.01201215   -0.00031142    0.00743520
     atom   31 type  1   force =     0.00007584    0.00514999   -0.01466321
     atom   32 type  1   force =    -0.00014038   -0.00052865   -0.00595594
     atom   33 type  2   force =     0.00012920   -0.00039017   -0.00022670
     atom   34 type  2   force =    -0.00078619    0.00261125   -0.00103524
     atom   35 type  2   force =    -0.00006403   -0.00011285   -0.00011411
     atom   36 type  2   force =     0.00023611    0.00000430   -0.00014335
     atom   37 type  1   force =    -0.00044062    0.00008487    0.00005010
     atom   38 type  1   force =    -0.00002642   -0.00026043   -0.00024013
     atom   39 type  2   force =    -0.00026486   -0.00023881   -0.00017845
     atom   40 type  2   force =    -0.00014374   -0.00005742   -0.00004053
     atom   41 type  2   force =    -0.00016951   -0.00024143    0.00025700
     atom   42 type  2   force =     0.00002388   -0.00017700    0.00031092
     atom   43 type  1   force =     0.00031348   -0.00022017    0.00000179
     atom   44 type  1   force =    -0.00010272    0.00015675    0.00031535
     atom   45 type  2   force =     0.00001045   -0.00010592    0.10396808
     atom   46 type  2   force =    -0.07034702   -0.00011719   -0.02686447
     atom   47 type  2   force =     0.07019596    0.00031754   -0.02692121
     atom   48 type  3   force =     0.00003171    0.00086503    0.00037242
     atom   49 type  3   force =    -0.00069531   -0.00074032    0.00038299
     atom   50 type  4   force =     0.00046451    0.00152921    0.00038558
     atom   51 type  5   force =    -0.00005862   -0.00069705   -0.00041361
     atom   52 type  5   force =    -0.00004638   -0.00096552   -0.00034087
     atom   53 type  5   force =    -0.00008408    0.00006828   -0.00000041
     atom   54 type  5   force =     0.00020579    0.00051476   -0.00006862
     atom   55 type  2   force =    -0.02110992   -0.00193928    0.00493242
     atom   56 type  5   force =     0.01743398   -0.00318180   -0.00205127
     atom   57 type  5   force =     0.00264047    0.00399660   -0.00217117

     Total force =     0.367289     Total SCF correction =     0.000699
  @ DRIVER MODE: Message from server: STATUS
  @ DRIVER MODE: Message from server: GETFORCE
  @ DRIVER MODE: Returning v,forces,stress,ensemble

     Writing output data file ./calc.save/
  @ DRIVER MODE: Message from server: EXIT
  @ DRIVE MODE: Exiting

     General routines

     Parallel routines

   This run was terminated on:   8:19:35  23Sep2021

   JOB DONE.