     Program PWSCF v.6.7GPU starts on  2Aug2021 at 20:48:12

     R & G space division:  proc/nbgrp/npool/nimage =      16
     Reading input from /storage/home/hcoda1/3/ntian30/research/carbon/02Aug_vib_paired/ads_slab/CH3NNHH_a/out_0029/pw.inp
Warning: card &CELL ignored
Warning: card   CELL_DYNAMICS='IPI', ignored
Warning: card / ignored

     Current dimensions of program PWSCF are:
     Max number of different atomic species (ntypx) = 10
     Max number of k-points (npk) =  40000
     Max angular momentum in pseudopotentials (lmaxx) =  3
     Presently no symmetry can be used with electric field

     Message from routine cell_base_init:
     DEPRECATED: use true lattice parameter, not A to a.u. conversion factor

     IMPORTANT: XC functional enforced from input :
     Exchange-correlation= BEEF-VDW
                           (   1   4  43  14   2   0   0)
     Any further DFT definition will be discarded
     Please, verify this is what you really want

  @ DRIVER MODE: Connecting to
 qe_1139763_2482543.sched-torque.pace.gatech.eduyhf81seo_scratch
  using UNIX socket
  @ DRIVER MODE: Message from server: STATUS
  @ DRIVER MODE: Message from server: INIT
  @ DRIVER MODE: Receiving replica           0          -1
  @ DRIVER MODE: Receiving encoded integer          25
  @ DRIVER MODE:  SCF:  T  FORCE:  T  STRESS:  F  VC:  F  ENSEMBLE:  F
  @ DRIVER MODE:  SCF:  T  FORCE:  T  STRESS:  F  VC:  F  ENSEMBLE:  F

     Using Slab Decomposition

     bravais-lattice index     =            0
     lattice parameter (alat)  =       1.8897  a.u.
     unit-cell volume          =    6658.9804 (a.u.)^3
     number of atoms/cell      =           55
     number of atomic types    =            5
     number of electrons       =       397.00
     number of Kohn-Sham states=          208
     kinetic-energy cutoff     =      29.3995  Ry
     charge density cutoff     =     293.9946  Ry
     scf convergence threshold =      7.3E-08
     mixing beta               =       0.0500
     number of iterations used =            8  plain     mixing
     Exchange-correlation= BEEF-VDW
                           (   1   4  43  14   2   0   0)

     celldm(1)=   1.889726  celldm(2)=   0.000000  celldm(3)=   0.000000
     celldm(4)=   0.000000  celldm(5)=   0.000000  celldm(6)=   0.000000

     crystal axes: (cart. coord. in units of alat)
               a(1) = (   6.579727   0.000000   0.000000 )
               a(2) = (  -0.000775   5.961596   0.000000 )
               a(3) = (   0.000000   0.000000  25.155947 )

     reciprocal axes: (cart. coord. in units 2 pi/alat)
               b(1) = (  0.151982  0.000020  0.000000 )
               b(2) = (  0.000000  0.167740  0.000000 )
               b(3) = (  0.000000  0.000000  0.039752 )

     PseudoPot. # 1 for Ti read from file:
     /storage/coda1/p-amedford6/0/shared/rich_project_chbe-medford/medford-share/data/pseudos_module/espresso/nninc/pbe/van/Ti.UPF
     MD5 check sum: 8e4df49b7f0d34bbd5052bf3f5ea0213
     Pseudo is Ultrasoft, Zval = 12.0
     Generated by new atomic code, or converted to UPF format
     Using radial grid of  851 points,  6 beta functions with:
                l(1) =   0
                l(2) =   0
                l(3) =   1
                l(4) =   1
                l(5) =   2
                l(6) =   2
     Q(r) pseudized with  8 coefficients,  rinner =    1.000   1.000   1.000
                                                       1.000   1.000

     PseudoPot. # 2 for O  read from file:
     /storage/coda1/p-amedford6/0/shared/rich_project_chbe-medford/medford-share/data/pseudos_module/espresso/nninc/pbe/van/O.UPF
     MD5 check sum: 78c19812648e8988a0fe644b0f25305e
     Pseudo is Ultrasoft, Zval =  6.0
     Generated by new atomic code, or converted to UPF format
     Using radial grid of  737 points,  4 beta functions with:
                l(1) =   0
                l(2) =   0
                l(3) =   1
                l(4) =   1
     Q(r) pseudized with  8 coefficients,  rinner =    0.800   0.800   0.800

     PseudoPot. # 3 for N  read from file:
     /storage/coda1/p-amedford6/0/shared/rich_project_chbe-medford/medford-share/data/pseudos_module/espresso/nninc/pbe/van/N.UPF
     MD5 check sum: 90d10febe142ad51ac9d5be1deb811c4
     Pseudo is Ultrasoft, Zval =  5.0
     Generated by new atomic code, or converted to UPF format
     Using radial grid of  729 points,  4 beta functions with:
                l(1) =   0
                l(2) =   0
                l(3) =   1
                l(4) =   1
     Q(r) pseudized with  8 coefficients,  rinner =    0.800   0.800   0.800

     PseudoPot. # 4 for C  read from file:
     /storage/coda1/p-amedford6/0/shared/rich_project_chbe-medford/medford-share/data/pseudos_module/espresso/nninc/pbe/van/C.UPF
     MD5 check sum: 1a69bf6b8db32088f5b2163dbdb77a27
     Pseudo is Ultrasoft, Zval =  4.0
     Generated by new atomic code, or converted to UPF format
     Using radial grid of  721 points,  4 beta functions with:
                l(1) =   0
                l(2) =   0
                l(3) =   1
                l(4) =   1
     Q(r) pseudized with  8 coefficients,  rinner =    0.800   0.800   0.800

     PseudoPot. # 5 for H  read from file:
     /storage/coda1/p-amedford6/0/shared/rich_project_chbe-medford/medford-share/data/pseudos_module/espresso/nninc/pbe/van/H.UPF
     MD5 check sum: b5ee9d7bfd3a09ee7748110bda690ff7
     Pseudo is Ultrasoft, Zval =  1.0
     Generated by new atomic code, or converted to UPF format
     Using radial grid of  615 points,  1 beta functions with:
                l(1) =   0
     Q(r) pseudized with  8 coefficients,  rinner =    0.800

     atomic species   valence    mass     pseudopotential
        Ti1           12.00    47.86700     Ti( 1.00)
        O1             6.00    15.99900     O ( 1.00)
        N1             5.00    14.00700     N ( 1.00)
        C1             4.00    12.01100     C ( 1.00)
        H1             1.00     1.00800     H ( 1.00)

     No symmetry found

   Cartesian axes

     site n.     atom                  positions (alat units)
         1           Ti1 tau(   1) = (   0.0004258   2.9801865   6.0000000  )
         2           Ti1 tau(   2) = (   3.2906075   1.4906267   6.0002472  )
         3           O1  tau(   3) = (   0.0006271   0.0005054   7.9858123  )
         4           O1  tau(   4) = (   3.2906025   0.0005020   7.3038282  )
         5           O1  tau(   5) = (   4.5942328   1.4918067   9.2879030  )
         6           O1  tau(   6) = (   1.9868534   1.4903216   9.2879459  )
         7           Ti1 tau(   7) = (   3.2907910   2.8959150   9.1758416  )
         8           Ti1 tau(   8) = (   0.0015273   1.4827037   9.2680791  )
         9           O1  tau(   9) = (   3.3049802   0.0007868  11.3057318  )
        10           O1  tau(  10) = (   0.0116148   5.9584955  10.6183126  )
        11           O1  tau(  11) = (   1.3244024   1.4905818  12.6109357  )
        12           O1  tau(  12) = (   5.3168099   1.4893704  12.6271843  )
        13           Ti1 tau(  13) = (   6.5373159   3.0114403  12.6515439  )
        14           Ti1 tau(  14) = (   3.2156784   1.4952808  12.4541107  )
        15           O1  tau(  15) = (   0.0550716   5.9579553  14.6769760  )
        16           O1  tau(  16) = (   3.3119233   0.0240268  13.8744051  )
        17           O1  tau(  17) = (   4.5754650   1.5399768  16.1198157  )
        18           O1  tau(  18) = (   2.0928293   1.5118261  15.9950610  )
        19           Ti1 tau(  19) = (   3.3312717   3.0210965  15.6459898  )
        20           Ti1 tau(  20) = (   0.0837956   1.4057146  15.8023643  )
        21           O1  tau(  21) = (   3.2904802   0.0005063   4.7018136  )
        22           O1  tau(  22) = (   0.0662678   0.0194342  17.2484716  )
        23           O1  tau(  23) = (   1.3043587   1.4918075   6.0039043  )
        24           O1  tau(  24) = (   5.2767064   1.4903225   6.0039473  )
        25           Ti1 tau(  25) = (   0.0000382   5.9609847   6.0000000  )
        26           Ti1 tau(  26) = (   3.2902200   4.4714249   6.0002472  )
        27           O1  tau(  27) = (   0.0002396   2.9813036   7.9858123  )
        28           O1  tau(  28) = (   3.2902150   2.9813002   7.3038282  )
        29           O1  tau(  29) = (   4.5938453   4.4726049   9.2879030  )
        30           O1  tau(  30) = (   1.9864658   4.4711199   9.2879459  )
        31           Ti1 tau(  31) = (   3.2891106   5.8743827   9.1763621  )
        32           Ti1 tau(  32) = (   0.0006254   4.4649316   9.2693709  )
        33           O1  tau(  33) = (   3.3066024   2.9928613  11.3071500  )
        34           O1  tau(  34) = (   0.0092240   2.9805883  10.6323155  )
        35           O1  tau(  35) = (   1.3207996   4.4694119  12.6241097  )
        36           O1  tau(  36) = (   5.3140488   4.4801720  12.6365454  )
        37           Ti1 tau(  37) = (   6.5381296   0.0208815  12.5444857  )
        38           Ti1 tau(  38) = (   3.2183512   4.4801350  12.4586296  )
        39           O1  tau(  39) = (   0.0202472   2.9427232  14.7250097  )
        40           O1  tau(  40) = (   3.3152672   2.9848540  13.8607131  )
        41           O1  tau(  41) = (   4.5737023   4.5140360  15.9163038  )
        42           O1  tau(  42) = (   2.1295162   4.4918226  16.0779194  )
        43           Ti1 tau(  43) = (   3.3279662   0.0229233  15.6733299  )
        44           Ti1 tau(  44) = (   6.5520288   4.5036137  16.2892914  )
        45           O1  tau(  45) = (   3.2900926   2.9813045   4.7018136  )
        46           O1  tau(  46) = (   1.3039711   4.4726057   6.0039043  )
        47           O1  tau(  47) = (   5.2763189   4.4711207   6.0039473  )
        48           N1  tau(  48) = (   0.3708600   2.9881754  17.6030774  )
        49           C1  tau(  49) = (   1.3543844   2.7351176  18.6431602  )
        50           H1  tau(  50) = (   1.5086739   3.6319226  19.2591966  )
        51           H1  tau(  51) = (   1.0320479   1.9069190  19.2840631  )
        52           H1  tau(  52) = (   2.3019873   2.4496563  18.1894378  )
        53           N1  tau(  53) = (   5.7269228   3.4566738  18.1314761  )
        54           H1  tau(  54) = (   5.8315057   4.0292447  18.9662490  )
        55           H1  tau(  55) = (   5.0361168   2.7172796  18.2515220  )

     number of k points=    10  Fermi-Dirac smearing, width (Ry)=  0.0073
                       cart. coord. in units 2pi/alat
        k(    1) = (   0.0000000   0.0000000   0.0000000), wk =   0.1250000
        k(    2) = (   0.0000000   0.0419351   0.0000000), wk =   0.2500000
        k(    3) = (   0.0000000  -0.0838702   0.0000000), wk =   0.1250000
        k(    4) = (   0.0379955   0.0000049   0.0000000), wk =   0.2500000
        k(    5) = (   0.0379955   0.0419400   0.0000000), wk =   0.2500000
        k(    6) = (   0.0379955  -0.0838652   0.0000000), wk =   0.2500000
        k(    7) = (   0.0379955  -0.0419301   0.0000000), wk =   0.2500000
        k(    8) = (  -0.0759910  -0.0000099   0.0000000), wk =   0.1250000
        k(    9) = (  -0.0759910   0.0419252   0.0000000), wk =   0.2500000
        k(   10) = (  -0.0759910  -0.0838800   0.0000000), wk =   0.1250000

     Initial potential from superposition of free atoms

     starting charge  380.99914, renormalised to  397.00000

     negative rho (up, down):  1.666E-02 0.000E+00

     %%%%%%%%%%%%%%%%%%%%%%%%%%%%%%%%%%%%%%%%%%%%%%%%%%%%%%%%%%%%%%%%%%%%%%%%
     %                                                                      %
     % You are using vdW-DF, which was implemented by the Thonhauser group. %
     % Please cite the following two papers that made this development      %
     % possible and the two reviews that describe the various versions:     %
     %                                                                      %
     %   T. Thonhauser et al., PRL 115, 136402 (2015).                      %
     %   T. Thonhauser et al., PRB 76, 125112 (2007).                       %
     %   K. Berland et al., Rep. Prog. Phys. 78, 066501 (2015).             %
     %   D.C. Langreth et al., J. Phys.: Condens. Matter 21, 084203 (2009). %
     %                                                                      %
     %                                                                      %
     % If you are calculating the stress with vdW-DF, please also cite:     %
     %                                                                      %
     %   R. Sabatini et al., J. Phys.: Condens. Matter 24, 424209 (2012).   %
     %                                                                      %
     %%%%%%%%%%%%%%%%%%%%%%%%%%%%%%%%%%%%%%%%%%%%%%%%%%%%%%%%%%%%%%%%%%%%%%%%

     Adding external electric field

     Computed dipole along edir(3) :
        Dipole               -9.2532 Ry au,        -23.5193 Debye
        Dipole field         -0.0175 Ry au,

        Potential amp.        1.6187 Ry
        Total length         46.3494 bohr

     Starting wfcs are  301 atomic wfcs
  @ DRIVER MODE: Message from server: STATUS
  @ DRIVER MODE: Message from server: POSDATA
  @ DRIVER MODE: Reading and sharing cell
  @ DRIVER MODE: Reading and sharing positions
  @ DRIVER MODE: Received positions

     Self-consistent Calculation

     iteration #  1     ecut=    29.40 Ry     beta= 0.05
     Davidson diagonalization with overlap
     c_bands:  1 eigenvalues not converged
     c_bands:  2 eigenvalues not converged
     c_bands:  1 eigenvalues not converged
     c_bands:  2 eigenvalues not converged
     c_bands:  2 eigenvalues not converged
     c_bands:  1 eigenvalues not converged
     c_bands:  2 eigenvalues not converged
     c_bands:  2 eigenvalues not converged
     c_bands:  4 eigenvalues not converged
     ethr =  1.00E-05,  avg # of iterations = 19.7

[...]

     total energy              =   -2525.59175051 Ry
     estimated scf accuracy    <    4612.73986806 Ry

     iteration #  2     ecut=    29.40 Ry     beta= 0.05
     Davidson diagonalization with overlap
     ethr =  1.00E-02,  avg # of iterations = 22.6

[...]

     iteration # 63     ecut=    29.40 Ry     beta= 0.05
     Davidson diagonalization with overlap
     c_bands:  2 eigenvalues not converged
     ethr =  1.86E-10,  avg # of iterations = 12.1

[...]

     total energy              =   -2941.63747414 Ry
     estimated scf accuracy    <       0.00000008 Ry

     iteration # 68     ecut=    29.40 Ry     beta= 0.05
     Davidson diagonalization with overlap
     ethr =  2.04E-11,  avg # of iterations =  5.8

     negative rho (up, down):  1.675E-02 0.000E+00

     Adding external electric field

     Computed dipole along edir(3) :
        Dipole                1.1492 Ry au,          2.9211 Debye
        Dipole field          0.0022 Ry au,

        Potential amp.       -0.2010 Ry
        Total length         46.3494 bohr

     End of self-consistent calculation

          k = 0.0000 0.0000 0.0000 ( 18029 PWs)   bands (ev):

   -55.5722 -55.5697 -55.5357 -55.5354 -55.4588 -55.4224 -55.4209 -55.3873
   -55.3699 -55.3359 -55.3248 -55.2910 -55.0318 -54.8870 -54.5361 -54.5021
   -32.1350 -32.0510 -31.9560 -31.8917 -31.8867 -31.8721 -31.8623 -31.8174
   -31.8103 -31.8037 -31.7833 -31.7581 -31.7542 -31.7248 -31.7220 -31.7141
   -31.6730 -31.6594 -31.6566 -31.6476 -31.6468 -31.6271 -31.6106 -31.5950
   -31.5681 -31.5672 -31.5655 -31.5575 -31.5552 -31.5287 -31.5050 -31.5041
   -31.4983 -31.4916 -31.4793 -31.4733 -31.4385 -31.3080 -31.2568 -31.1580
   -31.1398 -31.0477 -30.9425 -30.8559 -30.8334 -30.7596 -30.6731 -30.5617
   -17.5921 -16.3611 -16.0480 -15.8369 -15.7257 -15.7211 -15.6371 -15.4162
   -15.2960 -15.2806 -15.1644 -15.1595 -15.1010 -15.0602 -15.0537 -15.0483
   -15.0134 -15.0011 -14.9830 -14.9524 -14.9141 -14.8963 -14.8764 -14.7703
   -14.7084 -14.6987 -14.6826 -14.6158 -14.5718 -14.2074 -13.0380 -12.9218
   -12.5422  -9.1962  -6.3470  -5.0937  -4.1960  -3.7393  -3.5483  -3.4729
    -3.4378  -3.3732  -3.3565  -3.1815  -3.1743  -2.7963  -2.7755  -2.7563
    -2.7348  -2.7321  -2.4642  -2.4105  -2.3949  -2.3924  -2.3750  -2.3570
    -2.3358  -2.3250  -2.2968  -2.2893  -2.1550  -2.1105  -2.0314  -2.0010
    -1.9909  -1.8779  -1.8544  -1.8329  -1.8220  -1.8075  -1.7792  -1.7714
    -1.7510  -1.6422  -1.5332  -1.4596  -1.4134  -1.3607  -1.3421  -1.1617
    -1.1106  -1.0521  -1.0270  -1.0019  -0.9870  -0.9534  -0.8791  -0.8553
    -0.7131  -0.6747  -0.6221  -0.5959  -0.5652  -0.5093  -0.4743  -0.4465
    -0.3496  -0.3374  -0.3258  -0.3127  -0.2531  -0.0649  -0.0175   0.0007
     0.0164   0.1165   0.1560   0.1793   0.2157   0.2715   0.2974   0.3641
     0.3942   0.4136   0.4235   0.4477   0.4700   0.6016   0.6301   0.6593
     0.7183   0.7722   0.8492   0.9613   1.0470   1.0998   1.2011   1.4194
     1.4865   1.5705   1.6803   1.7032   2.0560   2.1010   3.5655   3.6560
     3.6942   3.7082   3.8151   3.8668   4.0144   4.0244   4.0671   4.0960

[...]

          k = 0.0380-0.0419 0.0000 ( 17876 PWs)   bands (ev):

[...]

          k =-0.0760-0.0000 0.0000 ( 17886 PWs)   bands (ev):

[...]

          k =-0.0760-0.0839 0.0000 ( 17948 PWs)   bands (ev):

   -55.5570 -55.5532 -55.5521 -55.5504 -55.4480 -55.4316 -55.4073 -55.4021
   -55.3543 -55.3511 -55.3095 -55.3064 -55.0304 -54.8883 -54.5191 -54.5190
   -31.9400 -31.9311 -31.8667 -31.8659 -31.8482 -31.8473 -31.8422 -31.8269
   -31.8002 -31.7865 -31.7670 -31.7481 -31.7201 -31.7115 -31.7064 -31.6814
   -31.6792 -31.6729 -31.6716 -31.6669 -31.6639 -31.6509 -31.6478 -31.6438
   -31.6247 -31.6125 -31.6024 -31.6006 -31.5516 -31.5495 -31.5425 -31.5407
   -31.5336 -31.5302 -31.5248 -31.5233 -31.4134 -31.3202 -31.2586 -31.2192
   -31.1454 -31.0596 -30.8462 -30.8461 -30.7554 -30.7552 -30.7164 -30.7163
   -17.5802 -15.8187 -15.7831 -15.5254 -15.5180 -15.5162 -15.4746 -15.3520
   -15.3035 -15.2769 -15.2654 -15.2464 -15.2403 -15.1351 -15.1226 -15.1053
   -15.0955 -15.0694 -15.0258 -15.0201 -15.0126 -15.0026 -14.9907 -14.9263
   -14.8713 -14.8676 -14.7589 -14.6644 -14.5218 -14.4375 -13.0238 -13.0234
   -12.5614  -9.1572  -6.3066  -5.1218  -4.1287  -3.4269  -3.1198  -3.0759
    -2.7873  -2.7681  -2.7544  -2.6380  -2.5177  -2.5090  -2.4843  -2.4611
    -2.4283  -2.4141  -2.4053  -2.3971  -2.3790  -2.3602  -2.3490  -2.3104
    -2.2416  -2.2342  -2.2253  -2.2164  -2.1999  -2.1761  -2.1660  -2.1380
    -2.1138  -2.0802  -2.0209  -1.9900  -1.8398  -1.7933  -1.7397  -1.6949
    -1.6865  -1.6573  -1.6240  -1.6164  -1.5086  -1.4944  -1.4586  -1.3288
    -1.2669  -1.2591  -1.2265  -1.1412  -1.1016  -0.9722  -0.9592  -0.9234
    -0.8691  -0.8584  -0.8212  -0.7838  -0.7314  -0.6798  -0.6359  -0.6117
    -0.5954  -0.5234  -0.5227  -0.4764  -0.4188  -0.3501  -0.3257  -0.3180
    -0.2867  -0.2423  -0.1967  -0.1317  -0.0571  -0.0358  -0.0213   0.0766
     0.1528   0.3690   0.4144   0.5161   0.5358   0.5615   0.6242   0.6729
     0.7426   0.7564   0.7859   0.8597   0.8819   0.9726   0.9832   0.9997
     1.1782   1.6351   1.8520   1.8529   1.9206   1.9213   3.8598   3.8733
     3.8995   3.9235   4.0848   4.0888   4.1009   4.1035   4.2245   4.2570

     the Fermi energy is     3.5644 ev

!    total energy              =   -2941.63749945 Ry
     estimated scf accuracy    <       0.00000006 Ry
     smearing contrib. (-TS)   =      -0.02170695 Ry
     internal energy E=F+TS    =   -2941.61579250 Ry

     The total energy is F=E-TS. E is the sum of the following terms:
     one-electron contribution =  -24405.79307199 Ry
     hartree contribution      =   12294.84980684 Ry
     xc contribution           =    -486.94243491 Ry
     ewald contribution        =    9656.26741516 Ry
     electric field correction =       0.00249239 Ry

     convergence has been achieved in  68 iterations

     Forces acting on atoms (cartesian axes, Ry/au):

     atom    1 type  1   force =     0.00002459   -0.00018750    0.09682532
     atom    2 type  1   force =     0.00010811   -0.00066939   -0.17457531
     atom    3 type  2   force =     0.00020104   -0.00005551   -0.02508347
     atom    4 type  2   force =     0.00001515   -0.00122328    0.05106846
     atom    5 type  2   force =    -0.01106214   -0.00078560    0.00212937
     atom    6 type  2   force =     0.01301581   -0.00028554    0.00280513
     atom    7 type  1   force =     0.00113844    0.00020347   -0.01334894
     atom    8 type  1   force =    -0.00018637    0.01540571    0.02796836
     atom    9 type  2   force =    -0.00011523    0.00045091    0.00002291
     atom   10 type  2   force =    -0.00221556    0.00097603   -0.01127566
     atom   11 type  2   force =     0.00029877   -0.00011190    0.00016779
     atom   12 type  2   force =    -0.00026766   -0.00011943    0.00039392
     atom   13 type  1   force =    -0.00008593   -0.00027479    0.00011238
     atom   14 type  1   force =     0.00012335    0.00012298   -0.00005114
     atom   15 type  2   force =     0.00011198   -0.00054331   -0.00034557
     atom   16 type  2   force =    -0.00044351    0.00017272    0.00028182
     atom   17 type  2   force =    -0.00020662   -0.00003721   -0.00008828
     atom   18 type  2   force =    -0.00038429   -0.00005157    0.00009556
     atom   19 type  1   force =     0.00004781    0.00044293   -0.00034094
     atom   20 type  1   force =    -0.00036455   -0.00001395    0.00022516
     atom   21 type  2   force =     0.00005094   -0.00009779    0.10297317
     atom   22 type  2   force =    -0.00074768   -0.00039739    0.00036077
     atom   23 type  2   force =    -0.07182899   -0.00021761   -0.02779920
     atom   24 type  2   force =     0.07179811    0.00023659   -0.02785580
     atom   25 type  1   force =     0.00004444   -0.00022775    0.09637221
     atom   26 type  1   force =    -0.00000835   -0.00030732   -0.17484628
     atom   27 type  2   force =     0.00020372   -0.00025043   -0.02392560
     atom   28 type  2   force =     0.00007609   -0.00096139    0.05129235
     atom   29 type  2   force =    -0.01105973    0.00095815    0.00149076
     atom   30 type  2   force =     0.01286561    0.00120169    0.00212229
     atom   31 type  1   force =     0.00115248    0.00257562   -0.01566344
     atom   32 type  1   force =    -0.00002211   -0.01668050    0.02888292
     atom   33 type  2   force =    -0.00017905   -0.00045278    0.00044975
     atom   34 type  2   force =    -0.00258323    0.00114816   -0.01891594
     atom   35 type  2   force =    -0.00010664   -0.00011130    0.00003710
     atom   36 type  2   force =    -0.00003708   -0.00018857    0.00022527
     atom   37 type  1   force =    -0.00024124   -0.00016802    0.00049468
     atom   38 type  1   force =     0.00010414   -0.00053571    0.00034162
     atom   39 type  2   force =     0.00005259    0.00046875    0.00019680
     atom   40 type  2   force =    -0.00032136   -0.00013383   -0.00069728
     atom   41 type  2   force =     0.00015008    0.00001986    0.00004077
     atom   42 type  2   force =    -0.00014958    0.00021267    0.00017288
     atom   43 type  1   force =     0.00007845   -0.00052090   -0.00076988
     atom   44 type  1   force =    -0.00054513    0.00132443   -0.00022512
     atom   45 type  2   force =     0.00006274   -0.00011176    0.10298880
     atom   46 type  2   force =    -0.07184831   -0.00016919   -0.02781305
     atom   47 type  2   force =     0.07180647    0.00021483   -0.02785887
     atom   48 type  3   force =    -0.00095601   -0.00102604    0.00036171
     atom   49 type  4   force =     0.00394642   -0.00016447   -0.00315360
     atom   50 type  5   force =     0.00059505   -0.00020094    0.00011090
     atom   51 type  5   force =    -0.00029886   -0.00087125   -0.00032928
     atom   52 type  5   force =    -0.00257176    0.00082588    0.00395249
     atom   53 type  3   force =     0.00013402    0.00050887    0.00061536
     atom   54 type  5   force =     0.00061987   -0.00021573    0.00111806
     atom   55 type  5   force =     0.00001070    0.00089942   -0.00173423

     Total force =     0.367189     Total SCF correction =     0.000477
  @ DRIVER MODE: Message from server: STATUS
  @ DRIVER MODE: Message from server: GETFORCE
  @ DRIVER MODE: Returning v,forces,stress,ensemble

     Writing output data file ./calc.save/
  @ DRIVER MODE: Message from server: EXIT
  @ DRIVE MODE: Exiting

     General routines

     Parallel routines

   This run was terminated on:  21: 4: 3   2Aug2021

   JOB DONE.