     Program PWSCF v.6.7GPU starts on  9Sep2021 at  6:16:15

     R & G space division:  proc/nbgrp/npool/nimage =      10
     Reading input from /storage/home/hcoda1/3/ntian30/research/carbon/CxH_vib/CH2_calc/ads_slab/CH2N2_b/out_0024/pw.inp
Warning: card &CELL ignored
Warning: card   CELL_DYNAMICS='IPI', ignored
Warning: card / ignored

     Current dimensions of program PWSCF are:
     Max number of different atomic species (ntypx) = 10
     Max number of k-points (npk) =  40000
     Max angular momentum in pseudopotentials (lmaxx) =  3
     Presently no symmetry can be used with electric field

     Message from routine cell_base_init:
     DEPRECATED: use true lattice parameter, not A to a.u. conversion factor

     IMPORTANT: XC functional enforced from input :
     Exchange-correlation= BEEF-VDW
                           (   1   4  43  14   2   0   0)
     Any further DFT definition will be discarded
     Please, verify this is what you really want

  @ DRIVER MODE: Connecting to
 qe_1139763_2767386.sched-torque.pace.gatech.edu2dkx41t8_scratch
  using UNIX socket
  @ DRIVER MODE: Message from server: STATUS
  @ DRIVER MODE: Message from server: INIT
  @ DRIVER MODE: Receiving replica           0          -1
  @ DRIVER MODE: Receiving encoded integer          25
  @ DRIVER MODE:  SCF:  T  FORCE:  T  STRESS:  F  VC:  F  ENSEMBLE:  F
  @ DRIVER MODE:  SCF:  T  FORCE:  T  STRESS:  F  VC:  F  ENSEMBLE:  F

     Using Slab Decomposition

     bravais-lattice index     =            0
     lattice parameter (alat)  =       1.8897  a.u.
     unit-cell volume          =    6658.9804 (a.u.)^3
     number of atoms/cell      =           52
     number of atomic types    =            5
     number of electrons       =       394.00
     number of Kohn-Sham states=          207
     kinetic-energy cutoff     =      29.3995  Ry
     charge density cutoff     =     293.9946  Ry
     scf convergence threshold =      7.3E-08
     mixing beta               =       0.0500
     number of iterations used =            8  plain     mixing
     Exchange-correlation= BEEF-VDW
                           (   1   4  43  14   2   0   0)

     celldm(1)=   1.889726  celldm(2)=   0.000000  celldm(3)=   0.000000
     celldm(4)=   0.000000  celldm(5)=   0.000000  celldm(6)=   0.000000

     crystal axes: (cart. coord. in units of alat)
               a(1) = (   6.579727   0.000000   0.000000 )
               a(2) = (  -0.000775   5.961596   0.000000 )
               a(3) = (   0.000000   0.000000  25.155947 )

     reciprocal axes: (cart. coord. in units 2 pi/alat)
               b(1) = (  0.151982  0.000020  0.000000 )
               b(2) = (  0.000000  0.167740  0.000000 )
               b(3) = (  0.000000  0.000000  0.039752 )

     PseudoPot. # 1 for Ti read from file:
     /storage/coda1/p-amedford6/0/shared/rich_project_chbe-medford/medford-share/data/pseudos_module/espresso/nninc/pbe/van/Ti.UPF
     MD5 check sum: 8e4df49b7f0d34bbd5052bf3f5ea0213
     Pseudo is Ultrasoft, Zval = 12.0
     Generated by new atomic code, or converted to UPF format
     Using radial grid of  851 points,  6 beta functions with:
                l(1) =   0
                l(2) =   0
                l(3) =   1
                l(4) =   1
                l(5) =   2
                l(6) =   2
     Q(r) pseudized with  8 coefficients,  rinner =    1.000   1.000   1.000
                                                       1.000   1.000

     PseudoPot. # 2 for O  read from file:
     /storage/coda1/p-amedford6/0/shared/rich_project_chbe-medford/medford-share/data/pseudos_module/espresso/nninc/pbe/van/O.UPF
     MD5 check sum: 78c19812648e8988a0fe644b0f25305e
     Pseudo is Ultrasoft, Zval =  6.0
     Generated by new atomic code, or converted to UPF format
     Using radial grid of  737 points,  4 beta functions with:
                l(1) =   0
                l(2) =   0
                l(3) =   1
                l(4) =   1
     Q(r) pseudized with  8 coefficients,  rinner =    0.800   0.800   0.800

     PseudoPot. # 3 for N  read from file:
     /storage/coda1/p-amedford6/0/shared/rich_project_chbe-medford/medford-share/data/pseudos_module/espresso/nninc/pbe/van/N.UPF
     MD5 check sum: 90d10febe142ad51ac9d5be1deb811c4
     Pseudo is Ultrasoft, Zval =  5.0
     Generated by new atomic code, or converted to UPF format
     Using radial grid of  729 points,  4 beta functions with:
                l(1) =   0
                l(2) =   0
                l(3) =   1
                l(4) =   1
     Q(r) pseudized with  8 coefficients,  rinner =    0.800   0.800   0.800

     PseudoPot. # 4 for C  read from file:
     /storage/coda1/p-amedford6/0/shared/rich_project_chbe-medford/medford-share/data/pseudos_module/espresso/nninc/pbe/van/C.UPF
     MD5 check sum: 1a69bf6b8db32088f5b2163dbdb77a27
     Pseudo is Ultrasoft, Zval =  4.0
     Generated by new atomic code, or converted to UPF format
     Using radial grid of  721 points,  4 beta functions with:
                l(1) =   0
                l(2) =   0
                l(3) =   1
                l(4) =   1
     Q(r) pseudized with  8 coefficients,  rinner =    0.800   0.800   0.800

     PseudoPot. # 5 for H  read from file:
     /storage/coda1/p-amedford6/0/shared/rich_project_chbe-medford/medford-share/data/pseudos_module/espresso/nninc/pbe/van/H.UPF
     MD5 check sum: b5ee9d7bfd3a09ee7748110bda690ff7
     Pseudo is Ultrasoft, Zval =  1.0
     Generated by new atomic code, or converted to UPF format
     Using radial grid of  615 points,  1 beta functions with:
                l(1) =   0
     Q(r) pseudized with  8 coefficients,  rinner =    0.800

     atomic species   valence    mass     pseudopotential
        Ti1           12.00    47.86700     Ti( 1.00)
        O1             6.00    15.99900     O ( 1.00)
        N1             5.00    14.00700     N ( 1.00)
        C1             4.00    12.01100     C ( 1.00)
        H1             1.00     1.00800     H ( 1.00)

     No symmetry found

   Cartesian axes

     site n.     atom                  positions (alat units)
         1           Ti1 tau(   1) = (   0.0004258   2.9801865   6.0000000  )
         2           Ti1 tau(   2) = (   3.2906075   1.4906267   6.0002472  )
         3           O1  tau(   3) = (   0.0006271   0.0005054   7.9858123  )
         4           O1  tau(   4) = (   3.2906025   0.0005020   7.3038282  )
         5           O1  tau(   5) = (   4.5942328   1.4918067   9.2879030  )
         6           O1  tau(   6) = (   1.9868534   1.4903216   9.2879459  )
         7           Ti1 tau(   7) = (   3.2907910   2.8959150   9.1758416  )
         8           Ti1 tau(   8) = (   0.0015273   1.4827037   9.2680791  )
         9           O1  tau(   9) = (   3.2944872   5.9444814  11.3088555  )
        10           O1  tau(  10) = (   0.0116148   5.9584955  10.6183126  )
        11           O1  tau(  11) = (   1.2913257   1.4757505  12.6225222  )
        12           O1  tau(  12) = (   5.2743172   1.4729811  12.6021195  )
        13           Ti1 tau(  13) = (   0.0890023   2.9564894  12.7220187  )
        14           Ti1 tau(  14) = (   3.4221593   1.4702301  12.4648352  )
        15           O1  tau(  15) = (   0.0068176   5.9411714  14.5947238  )
        16           O1  tau(  16) = (   3.2944910   5.9492763  13.8828731  )
        17           O1  tau(  17) = (   4.5250581   1.4982466  16.0456249  )
        18           O1  tau(  18) = (   2.0665045   1.4881935  16.0281199  )
        19           Ti1 tau(  19) = (   3.2778778   2.9684174  15.6871799  )
        20           Ti1 tau(  20) = (   6.5490154   1.5309925  16.0314916  )
        21           O1  tau(  21) = (   3.2904802   0.0005063   4.7018136  )
        22           O1  tau(  22) = (   0.0123181   0.0076990  17.1679072  )
        23           O1  tau(  23) = (   1.3043587   1.4918075   6.0039043  )
        24           O1  tau(  24) = (   5.2767064   1.4903225   6.0039473  )
        25           Ti1 tau(  25) = (   0.0000382   5.9609847   6.0000000  )
        26           Ti1 tau(  26) = (   3.2902200   4.4714249   6.0002472  )
        27           O1  tau(  27) = (   0.0002396   2.9813036   7.9858123  )
        28           O1  tau(  28) = (   3.2902150   2.9813002   7.3038282  )
        29           O1  tau(  29) = (   4.5938453   4.4726049   9.2879030  )
        30           O1  tau(  30) = (   1.9864658   4.4711199   9.2879459  )
        31           Ti1 tau(  31) = (   3.2891106   5.8743827   9.1763621  )
        32           Ti1 tau(  32) = (   0.0006254   4.4649316   9.2693709  )
        33           O1  tau(  33) = (   3.2980042   2.9668427  11.3079272  )
        34           O1  tau(  34) = (   0.0092240   2.9805883  10.6323155  )
        35           O1  tau(  35) = (   1.2899229   4.4488879  12.6271902  )
        36           O1  tau(  36) = (   5.2743549   4.4545148  12.6090941  )
        37           Ti1 tau(  37) = (   0.1039690   5.9375691  12.6739196  )
        38           Ti1 tau(  38) = (   3.4213609   4.4493060  12.4702176  )
        39           O1  tau(  39) = (   6.5648181   2.9459624  14.6378081  )
        40           O1  tau(  40) = (   3.2943236   2.9658899  13.8785053  )
        41           O1  tau(  41) = (   4.5287159   4.4634493  16.0515226  )
        42           O1  tau(  42) = (   2.0597896   4.4749507  16.0164256  )
        43           Ti1 tau(  43) = (   3.2714021   5.9517381  15.6902239  )
        44           Ti1 tau(  44) = (   6.5616293   4.5902425  16.0297769  )
        45           O1  tau(  45) = (   3.2900926   2.9813045   4.7018136  )
        46           O1  tau(  46) = (   1.3039711   4.4726057   6.0039043  )
        47           O1  tau(  47) = (   5.2763189   4.4711207   6.0039473  )
        48           N1  tau(  48) = (   0.6459789   3.0609845  18.5091170  )
        49           N1  tau(  49) = (   0.0956274   2.9759187  17.3381616  )
        50           C1  tau(  50) = (   0.0579326   3.2697647  19.6266723  )
        51           H1  tau(  51) = (   5.5568954   3.3836083  19.7110695  )
        52           H1  tau(  52) = (   0.6727643   3.3288843  20.5134281  )

     number of k points=    10  Fermi-Dirac smearing, width (Ry)=  0.0073
                       cart. coord. in units 2pi/alat
        k(    1) = (   0.0000000   0.0000000   0.0000000), wk =   0.1250000
        k(    2) = (   0.0000000   0.0419351   0.0000000), wk =   0.2500000
        k(    3) = (   0.0000000  -0.0838702   0.0000000), wk =   0.1250000
        k(    4) = (   0.0379955   0.0000049   0.0000000), wk =   0.2500000
        k(    5) = (   0.0379955   0.0419400   0.0000000), wk =   0.2500000
        k(    6) = (   0.0379955  -0.0838652   0.0000000), wk =   0.2500000
        k(    7) = (   0.0379955  -0.0419301   0.0000000), wk =   0.2500000
        k(    8) = (  -0.0759910  -0.0000099   0.0000000), wk =   0.1250000
        k(    9) = (  -0.0759910   0.0419252   0.0000000), wk =   0.2500000
        k(   10) = (  -0.0759910  -0.0838800   0.0000000), wk =   0.1250000

     Initial potential from superposition of free atoms

     starting charge  377.99917, renormalised to  394.00000

     negative rho (up, down):  1.508E-02 0.000E+00

     %%%%%%%%%%%%%%%%%%%%%%%%%%%%%%%%%%%%%%%%%%%%%%%%%%%%%%%%%%%%%%%%%%%%%%%%
     %                                                                      %
     % You are using vdW-DF, which was implemented by the Thonhauser group. %
     % Please cite the following two papers that made this development      %
     % possible and the two reviews that describe the various versions:     %
     %                                                                      %
     %   T. Thonhauser et al., PRL 115, 136402 (2015).                      %
     %   T. Thonhauser et al., PRB 76, 125112 (2007).                       %
     %   K. Berland et al., Rep. Prog. Phys. 78, 066501 (2015).             %
     %   D.C. Langreth et al., J. Phys.: Condens. Matter 21, 084203 (2009). %
     %                                                                      %
     %                                                                      %
     % If you are calculating the stress with vdW-DF, please also cite:     %
     %                                                                      %
     %   R. Sabatini et al., J. Phys.: Condens. Matter 24, 424209 (2012).   %
     %                                                                      %
     %%%%%%%%%%%%%%%%%%%%%%%%%%%%%%%%%%%%%%%%%%%%%%%%%%%%%%%%%%%%%%%%%%%%%%%%

     Adding external electric field

     Computed dipole along edir(3) :
        Dipole               -7.6445 Ry au,        -19.4305 Debye
        Dipole field         -0.0144 Ry au,

        Potential amp.        1.3373 Ry
        Total length         46.3494 bohr

     Starting wfcs are  298 atomic wfcs
  @ DRIVER MODE: Message from server: STATUS
  @ DRIVER MODE: Message from server: POSDATA
  @ DRIVER MODE: Reading and sharing cell
  @ DRIVER MODE: Reading and sharing positions
  @ DRIVER MODE: Received positions

     Self-consistent Calculation

     iteration #  1     ecut=    29.40 Ry     beta= 0.05
     Davidson diagonalization with overlap
     c_bands:  1 eigenvalues not converged
     c_bands:  1 eigenvalues not converged
     c_bands:  1 eigenvalues not converged
     c_bands:  1 eigenvalues not converged
     c_bands:  1 eigenvalues not converged
     c_bands:  1 eigenvalues not converged
     ethr =  1.00E-05,  avg # of iterations = 18.6

[...]

     total energy              =   -2699.58287626 Ry
     estimated scf accuracy    <    2638.58700869 Ry

[...]

     iteration #  3     ecut=    29.40 Ry     beta= 0.05
     Davidson diagonalization with overlap
     ethr =  1.00E-02,  avg # of iterations = 15.9

[...]

     iteration # 56     ecut=    29.40 Ry     beta= 0.05
     Davidson diagonalization with overlap
     c_bands:  2 eigenvalues not converged
     ethr =  1.37E-06,  avg # of iterations = 10.6

[...]

     total energy              =   -2937.89153884 Ry
     estimated scf accuracy    <       0.00000008 Ry

     iteration # 89     ecut=    29.40 Ry     beta= 0.05
     Davidson diagonalization with overlap
     ethr =  1.91E-11,  avg # of iterations =  2.0

     negative rho (up, down):  1.606E-02 0.000E+00

     Adding external electric field

     Computed dipole along edir(3) :
        Dipole                0.5188 Ry au,          1.3187 Debye
        Dipole field          0.0010 Ry au,

        Potential amp.       -0.0908 Ry
        Total length         46.3494 bohr

     End of self-consistent calculation

          k = 0.0000 0.0000 0.0000 ( 18029 PWs)   bands (ev):

   -56.3158 -56.2819 -55.8956 -55.8932 -55.8596 -55.8593 -55.8305 -55.7968
   -55.6776 -55.6691 -55.6381 -55.6326 -55.1641 -55.1360 -55.1301 -55.0590
   -32.7718 -32.6079 -32.5806 -32.4747 -32.4369 -32.3952 -32.3815 -32.3582
   -32.3169 -32.1936 -32.1804 -32.1506 -32.1409 -32.1183 -32.1084 -32.0776
   -32.0624 -32.0614 -32.0586 -32.0317 -32.0271 -32.0236 -32.0213 -32.0090
   -31.9958 -31.9932 -31.9824 -31.9408 -31.9120 -31.9080 -31.8439 -31.8299
   -31.8142 -31.8024 -31.7879 -31.7419 -31.6619 -31.5658 -31.4910 -31.4677
   -31.3891 -31.3831 -31.3466 -31.3132 -31.2975 -31.2613 -31.1864 -31.1861
   -17.7310 -16.6878 -16.5312 -16.2528 -16.0268 -15.9996 -15.8628 -15.8298
   -15.8060 -15.7782 -15.6578 -15.6176 -15.5796 -15.4630 -15.4197 -15.4078
   -15.3900 -15.3713 -15.3651 -15.2761 -15.2521 -15.2353 -15.1836 -15.0897
   -15.0579 -15.0168 -14.8754 -14.8579 -14.7619 -14.5005 -13.6651 -13.5511
   -11.9275  -6.6433  -4.6188  -4.1561  -4.0736  -4.0188  -3.8661  -3.7829
    -3.5953  -3.5623  -3.4683  -3.2408  -3.1551  -3.1465  -3.0706  -3.0458
    -3.0354  -2.9435  -2.8765  -2.8454  -2.8227  -2.8009  -2.7430  -2.6654
    -2.6193  -2.5862  -2.5680  -2.5340  -2.4288  -2.3722  -2.3570  -2.3336
    -2.2741  -2.2595  -2.2356  -2.2313  -2.1952  -2.1828  -2.1027  -2.0686
    -1.9460  -1.8724  -1.7487  -1.7421  -1.6696  -1.6516  -1.6264  -1.4280
    -1.4029  -1.3281  -1.2935  -1.2377  -1.2109  -1.1565  -1.0951  -1.0618
    -0.9641  -0.9375  -0.9066  -0.8717  -0.8498  -0.8199  -0.8002  -0.7405
    -0.6927  -0.5176  -0.4756  -0.4415  -0.3470  -0.3320  -0.3020  -0.2634
    -0.2488  -0.1968  -0.1913  -0.1776  -0.1191  -0.1047  -0.0198   0.0471
     0.0533   0.1029   0.1774   0.2395   0.2759   0.3934   0.4422   0.5097
     0.6049   0.6132   0.6741   0.8237   0.8386   0.8575   0.8625   1.0699
     1.3184   1.4196   1.4615   1.5667   2.7679   2.9049   3.0139   3.2101
     3.3265   3.3455   3.5225   3.6633   3.7001   3.7565   3.7643

[...]

          k = 0.0380-0.0419 0.0000 ( 17876 PWs)   bands (ev):

[...]

          k =-0.0760-0.0000 0.0000 ( 17886 PWs)   bands (ev):

[...]

          k =-0.0760-0.0839 0.0000 ( 17948 PWs)   bands (ev):

   -56.2990 -56.2986 -55.8798 -55.8787 -55.8751 -55.8735 -55.8146 -55.8128
   -55.6670 -55.6567 -55.6485 -55.6449 -55.1471 -55.1470 -55.1318 -55.0631
   -32.5937 -32.5932 -32.5876 -32.5873 -32.4263 -32.4259 -32.2437 -32.2399
   -32.1837 -32.1781 -32.1552 -32.1531 -32.1364 -32.1334 -32.0933 -32.0895
   -32.0682 -32.0624 -32.0560 -32.0536 -32.0426 -32.0411 -32.0277 -32.0266
   -32.0151 -32.0020 -31.9817 -31.9729 -31.9465 -31.9358 -31.8873 -31.8809
   -31.8729 -31.8477 -31.8162 -31.8125 -31.5509 -31.4806 -31.4805 -31.4058
   -31.3795 -31.3793 -31.3580 -31.3417 -31.3404 -31.3403 -31.2687 -31.2437
   -17.7250 -16.0474 -16.0451 -16.0414 -16.0350 -15.9169 -15.9148 -15.7577
   -15.7556 -15.7302 -15.7248 -15.5789 -15.5555 -15.5145 -15.5136 -15.4736
   -15.4637 -15.3943 -15.3916 -15.3831 -15.3773 -15.3619 -15.3574 -15.3124
   -15.2710 -15.0332 -14.9602 -14.9006 -14.7858 -14.6907 -13.6537 -13.6536
   -11.9317  -6.6377  -4.5573  -4.0697  -3.3376  -3.3329  -3.1700  -3.1523
    -3.0979  -3.0966  -3.0150  -2.9729  -2.9717  -2.8563  -2.8341  -2.7930
    -2.7896  -2.7755  -2.7729  -2.7390  -2.7331  -2.7113  -2.7047  -2.6491
    -2.6342  -2.6273  -2.6223  -2.5485  -2.5049  -2.4767  -2.4438  -2.4103
    -2.3806  -2.2908  -2.2872  -2.2494  -2.2275  -2.1692  -2.1656  -2.1115
    -2.0762  -2.0088  -1.9993  -1.7871  -1.7417  -1.7324  -1.6809  -1.5954
    -1.5730  -1.4281  -1.3968  -1.3345  -1.3208  -1.2723  -1.2540  -1.2455
    -1.1586  -1.1511  -1.1421  -1.0653  -1.0576  -0.9962  -0.9600  -0.9273
    -0.8434  -0.8293  -0.7901  -0.7875  -0.7776  -0.7097  -0.6630  -0.5914
    -0.5433  -0.5298  -0.4110  -0.3618  -0.2950  -0.2319  -0.1892  -0.0849
    -0.0435  -0.0339   0.1758   0.1864   0.2318   0.3224   0.4434   0.4442
     0.4826   0.5743   0.5961   0.6218   0.6387   0.8357   0.9089   1.2372
     1.2384   1.2782   1.2786   1.5306   2.7267   3.4294   3.4303   3.4555
     3.4559   3.5931   3.6167   3.6531   3.6622   3.7449   3.7487

     the Fermi energy is     2.8542 ev

!    total energy              =   -2937.89154510 Ry
     estimated scf accuracy    <       0.00000006 Ry
     smearing contrib. (-TS)   =      -0.01394691 Ry
     internal energy E=F+TS    =   -2937.87759819 Ry

     The total energy is F=E-TS. E is the sum of the following terms:
     one-electron contribution =  -24293.54591326 Ry
     hartree contribution      =   12233.10384535 Ry
     xc contribution           =    -484.31321433 Ry
     ewald contribution        =    9606.87717607 Ry
     electric field correction =       0.00050799 Ry

     convergence has been achieved in  89 iterations

     Forces acting on atoms (cartesian axes, Ry/au):

     atom    1 type  1   force =     0.00011207   -0.00021208    0.10744348
     atom    2 type  1   force =    -0.00012218   -0.00062368   -0.16927922
     atom    3 type  2   force =    -0.00016086    0.00000541   -0.04194306
     atom    4 type  2   force =     0.00005478   -0.00093558    0.04202155
     atom    5 type  2   force =    -0.01491347    0.00022380   -0.00302797
     atom    6 type  2   force =     0.01654758    0.00103894   -0.00400483
     atom    7 type  1   force =    -0.00113532   -0.00213271    0.00243585
     atom    8 type  1   force =     0.00131927    0.00452660    0.07561734
     atom    9 type  2   force =     0.00004132    0.00010921    0.00041689
     atom   10 type  2   force =    -0.00132313    0.00009855   -0.04725750
     atom   11 type  2   force =    -0.00047270    0.00031723    0.00022546
     atom   12 type  2   force =    -0.00008003    0.00050044    0.00013534
     atom   13 type  1   force =     0.00045369   -0.00041478    0.00076096
     atom   14 type  1   force =    -0.00014288   -0.00012057   -0.00004389
     atom   15 type  2   force =    -0.00022613   -0.00020531    0.00014685
     atom   16 type  2   force =     0.00019678    0.00024311   -0.00019408
     atom   17 type  2   force =     0.00011357    0.00049080    0.00029151
     atom   18 type  2   force =    -0.00039575   -0.00006324   -0.00031126
     atom   19 type  1   force =     0.00019406    0.00076926   -0.00021610
     atom   20 type  1   force =     0.00018889    0.00012732    0.00015525
     atom   21 type  2   force =     0.00007025    0.00003932    0.10166956
     atom   22 type  2   force =    -0.00042758    0.00041567    0.00007647
     atom   23 type  2   force =    -0.07422606   -0.00003389   -0.02981686
     atom   24 type  2   force =     0.07417806    0.00041863   -0.02981864
     atom   25 type  1   force =     0.00025765   -0.00034427    0.10693983
     atom   26 type  1   force =    -0.00002959   -0.00037198   -0.16935955
     atom   27 type  2   force =    -0.00004163   -0.00029211   -0.04088589
     atom   28 type  2   force =     0.00010910   -0.00073646    0.04199297
     atom   29 type  2   force =    -0.01521799    0.00064104   -0.00331664
     atom   30 type  2   force =     0.01678063    0.00101481   -0.00429045
     atom   31 type  1   force =    -0.00133516    0.00037432    0.00219416
     atom   32 type  1   force =     0.00130745   -0.00711302    0.07624071
     atom   33 type  2   force =    -0.00005040    0.00016814    0.00014269
     atom   34 type  2   force =    -0.00146293   -0.00007962   -0.05556460
     atom   35 type  2   force =     0.00000621    0.00006192    0.00010794
     atom   36 type  2   force =    -0.00003605    0.00022004   -0.00015489
     atom   37 type  1   force =     0.00022154    0.00028211    0.00045656
     atom   38 type  1   force =     0.00011588    0.00023171   -0.00029294
     atom   39 type  2   force =    -0.00022634   -0.00003821   -0.00068758
     atom   40 type  2   force =     0.00008002    0.00026697    0.00012955
     atom   41 type  2   force =    -0.00042498    0.00024646   -0.00044533
     atom   42 type  2   force =     0.00018426    0.00022254    0.00021913
     atom   43 type  1   force =    -0.00013035    0.00061545    0.00026754
     atom   44 type  1   force =    -0.00023600    0.00016306   -0.00002937
     atom   45 type  2   force =     0.00006045    0.00000005    0.10168169
     atom   46 type  2   force =    -0.07421224    0.00001671   -0.02978623
     atom   47 type  2   force =     0.07416773    0.00044850   -0.02980762
     atom   48 type  3   force =    -0.00070522    0.00115163    0.00036733
     atom   49 type  3   force =     0.00000382   -0.00033364   -0.00134760
     atom   50 type  4   force =     0.00024029   -0.00115642    0.00286897
     atom   51 type  5   force =     0.00089276    0.00002019   -0.00261573
     atom   52 type  5   force =    -0.00016316   -0.00026237   -0.00050771

     Total force =     0.389325     Total SCF correction =     0.000828
  @ DRIVER MODE: Message from server: STATUS
  @ DRIVER MODE: Message from server: GETFORCE
  @ DRIVER MODE: Returning v,forces,stress,ensemble

     Writing output data file ./calc.save/
  @ DRIVER MODE: Message from server: EXIT
  @ DRIVE MODE: Exiting

     General routines

     Parallel routines

   This run was terminated on:   6:41:10   9Sep2021

   JOB DONE.