     Program PWSCF v.6.7GPU starts on 15Sep2021 at 16:13:25

     R & G space division:  proc/nbgrp/npool/nimage =      10
     Reading input from /storage/home/hcoda1/3/ntian30/research/carbon/CxH_vib/H2O_calc/ads_slab/CHOHH2O_a/out_0002/pw.inp
Warning: card &CELL ignored
Warning: card   CELL_DYNAMICS='IPI', ignored
Warning: card / ignored

     Current dimensions of program PWSCF are:
     Max number of different atomic species (ntypx) = 10
     Max number of k-points (npk) =  40000
     Max angular momentum in pseudopotentials (lmaxx) =  3
     Presently no symmetry can be used with electric field

     Message from routine cell_base_init:
     DEPRECATED: use true lattice parameter, not A to a.u. conversion factor

     IMPORTANT: XC functional enforced from input :
     Exchange-correlation= BEEF-VDW
                           (   1   4  43  14   2   0   0)
     Any further DFT definition will be discarded
     Please, verify this is what you really want

  @ DRIVER MODE: Connecting to
 qe_1139763_2852632.sched-torque.pace.gatech.educ7u56myx_scratch
  using UNIX socket
  @ DRIVER MODE: Message from server: STATUS
  @ DRIVER MODE: Message from server: INIT
  @ DRIVER MODE: Receiving replica           0          -1
  @ DRIVER MODE: Receiving encoded integer          25
  @ DRIVER MODE:  SCF:  T  FORCE:  T  STRESS:  F  VC:  F  ENSEMBLE:  F
  @ DRIVER MODE:  SCF:  T  FORCE:  T  STRESS:  F  VC:  F  ENSEMBLE:  F

     Using Slab Decomposition

     bravais-lattice index     =            0
     lattice parameter (alat)  =       1.8897  a.u.
     unit-cell volume          =    6658.9804 (a.u.)^3
     number of atoms/cell      =           54
     number of atomic types    =            4
     number of electrons       =       398.00
     number of Kohn-Sham states=          209
     kinetic-energy cutoff     =      29.3995  Ry
     charge density cutoff     =     293.9946  Ry
     scf convergence threshold =      7.3E-08
     mixing beta               =       0.0500
     number of iterations used =            8  plain     mixing
     Exchange-correlation= BEEF-VDW
                           (   1   4  43  14   2   0   0)

     celldm(1)=   1.889726  celldm(2)=   0.000000  celldm(3)=   0.000000
     celldm(4)=   0.000000  celldm(5)=   0.000000  celldm(6)=   0.000000

     crystal axes: (cart. coord. in units of alat)
               a(1) = (   6.579727   0.000000   0.000000 )
               a(2) = (  -0.000775   5.961596   0.000000 )
               a(3) = (   0.000000   0.000000  25.155947 )

     reciprocal axes: (cart. coord. in units 2 pi/alat)
               b(1) = (  0.151982  0.000020  0.000000 )
               b(2) = (  0.000000  0.167740  0.000000 )
               b(3) = (  0.000000  0.000000  0.039752 )

     PseudoPot. # 1 for Ti read from file:
     /storage/coda1/p-amedford6/0/shared/rich_project_chbe-medford/medford-share/data/pseudos_module/espresso/nninc/pbe/van/Ti.UPF
     MD5 check sum: 8e4df49b7f0d34bbd5052bf3f5ea0213
     Pseudo is Ultrasoft, Zval = 12.0
     Generated by new atomic code, or converted to UPF format
     Using radial grid of  851 points,  6 beta functions with:
                l(1) =   0
                l(2) =   0
                l(3) =   1
                l(4) =   1
                l(5) =   2
                l(6) =   2
     Q(r) pseudized with  8 coefficients,  rinner =    1.000   1.000   1.000
                                                       1.000   1.000

     PseudoPot. # 2 for O  read from file:
     /storage/coda1/p-amedford6/0/shared/rich_project_chbe-medford/medford-share/data/pseudos_module/espresso/nninc/pbe/van/O.UPF
     MD5 check sum: 78c19812648e8988a0fe644b0f25305e
     Pseudo is Ultrasoft, Zval =  6.0
     Generated by new atomic code, or converted to UPF format
     Using radial grid of  737 points,  4 beta functions with:
                l(1) =   0
                l(2) =   0
                l(3) =   1
                l(4) =   1
     Q(r) pseudized with  8 coefficients,  rinner =    0.800   0.800   0.800

     PseudoPot. # 3 for C  read from file:
     /storage/coda1/p-amedford6/0/shared/rich_project_chbe-medford/medford-share/data/pseudos_module/espresso/nninc/pbe/van/C.UPF
     MD5 check sum: 1a69bf6b8db32088f5b2163dbdb77a27
     Pseudo is Ultrasoft, Zval =  4.0
     Generated by new atomic code, or converted to UPF format
     Using radial grid of  721 points,  4 beta functions with:
                l(1) =   0
                l(2) =   0
                l(3) =   1
                l(4) =   1
     Q(r) pseudized with  8 coefficients,  rinner =    0.800   0.800   0.800

     PseudoPot. # 4 for H  read from file:
     /storage/coda1/p-amedford6/0/shared/rich_project_chbe-medford/medford-share/data/pseudos_module/espresso/nninc/pbe/van/H.UPF
     MD5 check sum: b5ee9d7bfd3a09ee7748110bda690ff7
     Pseudo is Ultrasoft, Zval =  1.0
     Generated by new atomic code, or converted to UPF format
     Using radial grid of  615 points,  1 beta functions with:
                l(1) =   0
     Q(r) pseudized with  8 coefficients,  rinner =    0.800

     atomic species   valence    mass     pseudopotential
        Ti1           12.00    47.86700     Ti( 1.00)
        O1             6.00    15.99900     O ( 1.00)
        C1             4.00    12.01100     C ( 1.00)
        H1             1.00     1.00800     H ( 1.00)

     No symmetry found

   Cartesian axes

     site n.     atom                  positions (alat units)
         1           Ti1 tau(   1) = (   0.0004258   2.9801865   6.0000000  )
         2           Ti1 tau(   2) = (   3.2906075   1.4906267   6.0002472  )
         3           O1  tau(   3) = (   0.0006271   0.0005054   7.9858123  )
         4           O1  tau(   4) = (   3.2906025   0.0005020   7.3038282  )
         5           O1  tau(   5) = (   4.5942328   1.4918067   9.2879030  )
         6           O1  tau(   6) = (   1.9868534   1.4903216   9.2879459  )
         7           Ti1 tau(   7) = (   3.3203992   3.0065636   9.1614972  )
         8           Ti1 tau(   8) = (   0.0364112   1.5055733   9.2692997  )
         9           O1  tau(   9) = (   3.3037507   0.0048223  11.3846665  )
        10           O1  tau(  10) = (   0.0023770   0.0017864  10.5989407  )
        11           O1  tau(  11) = (   1.2986710   1.4943985  12.6419360  )
        12           O1  tau(  12) = (   5.3019195   1.4930987  12.6558330  )
        13           Ti1 tau(  13) = (   0.0201679   2.9954199  12.5459836  )
        14           Ti1 tau(  14) = (   3.3085843   1.4996073  12.5278567  )
        15           O1  tau(  15) = (   0.0306707   0.0063333  14.6434371  )
        16           O1  tau(  16) = (   3.2901280   5.9588824  14.0411263  )
        17           O1  tau(  17) = (   4.5937705   1.5245028  16.1210063  )
        18           O1  tau(  18) = (   2.0412355   1.5396885  16.1535958  )
        19           Ti1 tau(  19) = (   3.3250740   2.9785215  15.7238461  )
        20           Ti1 tau(  20) = (   0.0142243   1.3716099  15.9029131  )
        21           O1  tau(  21) = (   3.2904802   0.0005063   4.7018136  )
        22           O1  tau(  22) = (   0.0234726   5.9563001  17.1693433  )
        23           O1  tau(  23) = (   1.3043587   1.4918075   6.0039043  )
        24           O1  tau(  24) = (   5.2767064   1.4903225   6.0039473  )
        25           Ti1 tau(  25) = (   0.0000382   5.9609847   6.0000000  )
        26           Ti1 tau(  26) = (   3.2902200   4.4714249   6.0002472  )
        27           O1  tau(  27) = (   0.0002396   2.9813036   7.9858123  )
        28           O1  tau(  28) = (   3.2902150   2.9813002   7.3038282  )
        29           O1  tau(  29) = (   4.5938453   4.4726049   9.2879030  )
        30           O1  tau(  30) = (   1.9864658   4.4711199   9.2879459  )
        31           Ti1 tau(  31) = (   3.3166040   0.0254347   9.1556988  )
        32           Ti1 tau(  32) = (   0.0362352   4.4699824   9.2670842  )
        33           O1  tau(  33) = (   3.3035804   2.9865095  11.3763011  )
        34           O1  tau(  34) = (   0.0042610   2.9829788  10.6236548  )
        35           O1  tau(  35) = (   1.2977823   4.4749822  12.6434080  )
        36           O1  tau(  36) = (   5.3021498   4.4756442  12.6578133  )
        37           Ti1 tau(  37) = (   0.0128731   0.0155586  12.4748574  )
        38           Ti1 tau(  38) = (   3.3087006   4.4877506  12.5360639  )
        39           O1  tau(  39) = (   0.0289868   2.9802581  14.8446641  )
        40           O1  tau(  40) = (   3.2975897   2.9808645  13.9396156  )
        41           O1  tau(  41) = (   4.5936103   4.4348319  16.1149158  )
        42           O1  tau(  42) = (   2.0365336   4.4144103  16.1518429  )
        43           Ti1 tau(  43) = (   3.2980932   5.9591119  15.8729608  )
        44           Ti1 tau(  44) = (   0.0070259   4.5936845  15.8821292  )
        45           O1  tau(  45) = (   3.2900926   2.9813045   4.7018136  )
        46           O1  tau(  46) = (   1.3039711   4.4726057   6.0039043  )
        47           O1  tau(  47) = (   5.2763189   4.4711207   6.0039473  )
        48           C1  tau(  48) = (   6.0663806   2.9601134  19.0478501  )
        49           O1  tau(  49) = (   0.1703025   2.9720528  17.8813388  )
        50           H1  tau(  50) = (   5.0099104   2.8626262  18.6876999  )
        51           H1  tau(  51) = (   1.1251272   3.0566160  18.0647747  )
        52           O1  tau(  52) = (   3.2803433   5.9178330  18.2983259  )
        53           H1  tau(  53) = (   4.0549949   5.9397654  18.8787675  )
        54           H1  tau(  54) = (   2.4787048   0.0262026  18.8357284  )

     number of k points=    10  Fermi-Dirac smearing, width (Ry)=  0.0073
                       cart. coord. in units 2pi/alat
        k(    1) = (   0.0000000   0.0000000   0.0000000), wk =   0.1250000
        k(    2) = (   0.0000000   0.0419351   0.0000000), wk =   0.2500000
        k(    3) = (   0.0000000  -0.0838702   0.0000000), wk =   0.1250000
        k(    4) = (   0.0379955   0.0000049   0.0000000), wk =   0.2500000
        k(    5) = (   0.0379955   0.0419400   0.0000000), wk =   0.2500000
        k(    6) = (   0.0379955  -0.0838652   0.0000000), wk =   0.2500000
        k(    7) = (   0.0379955  -0.0419301   0.0000000), wk =   0.2500000
        k(    8) = (  -0.0759910  -0.0000099   0.0000000), wk =   0.1250000
        k(    9) = (  -0.0759910   0.0419252   0.0000000), wk =   0.2500000
        k(   10) = (  -0.0759910  -0.0838800   0.0000000), wk =   0.1250000

     Initial potential from superposition of free atoms

     starting charge  381.99917, renormalised to  398.00000

     negative rho (up, down):  1.670E-02 0.000E+00

     %%%%%%%%%%%%%%%%%%%%%%%%%%%%%%%%%%%%%%%%%%%%%%%%%%%%%%%%%%%%%%%%%%%%%%%%
     %                                                                      %
     % You are using vdW-DF, which was implemented by the Thonhauser group. %
     % Please cite the following two papers that made this development      %
     % possible and the two reviews that describe the various versions:     %
     %                                                                      %
     %   T. Thonhauser et al., PRL 115, 136402 (2015).                      %
     %   T. Thonhauser et al., PRB 76, 125112 (2007).                       %
     %   K. Berland et al., Rep. Prog. Phys. 78, 066501 (2015).             %
     %   D.C. Langreth et al., J. Phys.: Condens. Matter 21, 084203 (2009). %
     %                                                                      %
     %                                                                      %
     % If you are calculating the stress with vdW-DF, please also cite:     %
     %                                                                      %
     %   R. Sabatini et al., J. Phys.: Condens. Matter 24, 424209 (2012).   %
     %                                                                      %
     %%%%%%%%%%%%%%%%%%%%%%%%%%%%%%%%%%%%%%%%%%%%%%%%%%%%%%%%%%%%%%%%%%%%%%%%

     Adding external electric field

     Computed dipole along edir(3) :
        Dipole              -10.5131 Ry au,        -26.7216 Debye
        Dipole field         -0.0198 Ry au,

        Potential amp.        1.8391 Ry
        Total length         46.3494 bohr

     Starting wfcs are  300 atomic wfcs
  @ DRIVER MODE: Message from server: STATUS
  @ DRIVER MODE: Message from server: POSDATA
  @ DRIVER MODE: Reading and sharing cell
  @ DRIVER MODE: Reading and sharing positions
  @ DRIVER MODE: Received positions

     Self-consistent Calculation

     iteration #  1     ecut=    29.40 Ry     beta= 0.05
     Davidson diagonalization with overlap
     c_bands:  2 eigenvalues not converged
     c_bands:  3 eigenvalues not converged
     c_bands:  1 eigenvalues not converged
     c_bands:  4 eigenvalues not converged
     c_bands:  4 eigenvalues not converged
     c_bands:  4 eigenvalues not converged
     c_bands:  1 eigenvalues not converged
     c_bands:  3 eigenvalues not converged
     c_bands:  4 eigenvalues not converged
     ethr =  1.00E-05,  avg # of iterations = 19.9

[...]

     total energy              =   -2479.43665946 Ry
     estimated scf accuracy    <    5441.05969999 Ry

     iteration #  2     ecut=    29.40 Ry     beta= 0.05
     Davidson diagonalization with overlap
     ethr =  1.00E-02,  avg # of iterations = 26.1

[...]

     iteration # 65     ecut=    29.40 Ry     beta= 0.05
     Davidson diagonalization with overlap
     c_bands:  1 eigenvalues not converged
     c_bands:  1 eigenvalues not converged
     c_bands:  1 eigenvalues not converged
     c_bands:  2 eigenvalues not converged
     ethr =  1.51E-09,  avg # of iterations = 18.6

[...]

     total energy              =   -2964.77936753 Ry
     estimated scf accuracy    <       0.00000008 Ry

     iteration # 75     ecut=    29.40 Ry     beta= 0.05
     Davidson diagonalization with overlap
     ethr =  2.06E-11,  avg # of iterations = 13.1

     negative rho (up, down):  1.519E-02 0.000E+00

     Adding external electric field

     Computed dipole along edir(3) :
        Dipole                0.7171 Ry au,          1.8227 Debye
        Dipole field          0.0014 Ry au,

        Potential amp.       -0.1254 Ry
        Total length         46.3494 bohr

     End of self-consistent calculation

          k = 0.0000 0.0000 0.0000 ( 18029 PWs)   bands (ev):

   -55.7007 -55.6878 -55.6645 -55.6623 -55.6533 -55.6024 -55.5511 -55.5493
   -55.5377 -55.5167 -55.5037 -55.4825 -55.4821 -55.4698 -54.7685 -54.7344
   -32.2613 -32.1818 -32.1798 -32.0836 -32.0464 -32.0268 -32.0154 -32.0053
   -31.9768 -31.9415 -31.9315 -31.9165 -31.8923 -31.8850 -31.8778 -31.8591
   -31.8415 -31.8407 -31.8376 -31.8302 -31.8147 -31.8032 -31.8028 -31.7934
   -31.7924 -31.7760 -31.7731 -31.7448 -31.7332 -31.7190 -31.7077 -31.7068
   -31.7024 -31.6977 -31.6915 -31.6834 -31.6512 -31.6497 -31.6448 -31.6409
   -31.6146 -31.5593 -31.1802 -31.0787 -31.0571 -30.9964 -30.9100 -30.7991
   -21.2094 -19.2609 -16.5200 -16.2781 -16.1356 -16.0325 -15.9271 -15.7948
   -15.7076 -15.5842 -15.5210 -15.3941 -15.3553 -15.3498 -15.3436 -15.3144
   -15.2943 -15.2700 -15.2461 -15.2053 -15.2008 -15.1972 -15.1682 -15.1561
   -15.0985 -15.0858 -15.0429 -14.9238 -14.8723 -14.8112 -14.4957 -13.2696
   -13.1504 -10.3514  -7.2217  -5.7534  -4.6791  -4.0613  -3.9422  -3.8113
    -3.7135  -3.6450  -3.6083  -3.5406  -3.4603  -3.2573  -3.1283  -3.1194
    -2.9863  -2.9494  -2.9050  -2.8036  -2.7387  -2.6759  -2.6656  -2.5901
    -2.5856  -2.5771  -2.5639  -2.4723  -2.4663  -2.4176  -2.3753  -2.2973
    -2.2620  -2.1436  -2.1128  -2.1037  -2.0601  -2.0443  -2.0376  -2.0255
    -1.9755  -1.9496  -1.9324  -1.9306  -1.7897  -1.7469  -1.6017  -1.4755
    -1.4444  -1.4288  -1.3034  -1.2628  -1.2463  -1.1895  -1.1695  -1.1582
    -1.1193  -1.0381  -0.9557  -0.9322  -0.8599  -0.8164  -0.7120  -0.6184
    -0.5747  -0.5255  -0.5021  -0.4928  -0.4733  -0.4103  -0.3611  -0.2741
    -0.2203  -0.1582  -0.1303  -0.1233  -0.0697  -0.0389   0.0408   0.0883
     0.1227   0.1361   0.2223   0.2369   0.2493   0.2804   0.2832   0.3962
     0.4501   0.5057   0.5136   0.6618   0.8274   0.8545   0.9332   1.1485
     1.2568   1.2591   1.4202   1.4624   1.8418   1.8961   3.3867   3.4568
     3.4913   3.5055   3.5144   3.5925   3.8258   3.8751   3.9061   3.9250
     3.9343

[...]

          k = 0.0380-0.0419 0.0000 ( 17876 PWs)   bands (ev):

[...]

          k =-0.0760-0.0000 0.0000 ( 17886 PWs)   bands (ev):

[...]

          k =-0.0760-0.0839 0.0000 ( 17948 PWs)   bands (ev):

   -55.6852 -55.6798 -55.6727 -55.6683 -55.6606 -55.5961 -55.5555 -55.5358
   -55.5316 -55.5309 -55.4889 -55.4879 -55.4857 -55.4839 -54.7514 -54.7513
   -32.1047 -32.0716 -32.0605 -31.9988 -31.9946 -31.9758 -31.9667 -31.9577
   -31.9556 -31.9310 -31.9299 -31.9051 -31.8959 -31.8676 -31.8538 -31.8523
   -31.8508 -31.8424 -31.8375 -31.8335 -31.8258 -31.8190 -31.8010 -31.7983
   -31.7953 -31.7934 -31.7932 -31.7918 -31.7885 -31.7805 -31.7786 -31.7486
   -31.7343 -31.7338 -31.7187 -31.7093 -31.7074 -31.7025 -31.6768 -31.6719
   -31.6709 -31.6483 -31.0696 -31.0696 -30.9930 -30.9927 -30.9533 -30.9531
   -21.2081 -19.2604 -16.1517 -15.9557 -15.8051 -15.7208 -15.7141 -15.6550
   -15.5751 -15.5341 -15.4885 -15.4762 -15.4659 -15.4314 -15.4231 -15.4118
   -15.3486 -15.2981 -15.2946 -15.2791 -15.2300 -15.2223 -15.2119 -15.2062
   -15.1975 -15.1545 -15.1503 -15.1356 -15.1247 -14.9828 -14.8279 -13.2519
   -13.2511 -10.3546  -7.2193  -5.7571  -4.6574  -3.9930  -3.8713  -3.2315
    -3.2282  -2.9666  -2.9446  -2.8860  -2.8747  -2.8101  -2.7793  -2.7031
    -2.6968  -2.6520  -2.6112  -2.6031  -2.5900  -2.5657  -2.5324  -2.5202
    -2.4771  -2.4680  -2.4418  -2.4381  -2.4179  -2.4019  -2.3768  -2.3709
    -2.3388  -2.3187  -2.3111  -2.3075  -2.2317  -2.1687  -2.0449  -2.0235
    -1.9838  -1.9330  -1.9175  -1.8470  -1.8113  -1.7967  -1.7392  -1.7053
    -1.6790  -1.5046  -1.4932  -1.4726  -1.3824  -1.3491  -1.3384  -1.3101
    -1.2527  -1.2229  -1.2195  -1.1411  -1.0302  -1.0073  -0.9083  -0.8630
    -0.8617  -0.7738  -0.7396  -0.7010  -0.6990  -0.6627  -0.6054  -0.5838
    -0.5268  -0.5215  -0.4739  -0.4527  -0.4292  -0.3985  -0.2266  -0.1706
    -0.1153  -0.0178   0.0092   0.2379   0.2685   0.2765   0.3420   0.3730
     0.4782   0.5000   0.5633   0.5784   0.6796   0.7090   0.7280   0.7330
     0.7790   1.4689   1.6086   1.6113   1.7102   1.7138   3.5369   3.5496
     3.6519   3.7039   3.7411   3.8444   3.8936   3.9256   3.9335   3.9483
     4.0227

     the Fermi energy is     3.4348 ev

!    total energy              =   -2964.77938016 Ry
     estimated scf accuracy    <       0.00000006 Ry
     smearing contrib. (-TS)   =      -0.03744915 Ry
     internal energy E=F+TS    =   -2964.74193101 Ry

     The total energy is F=E-TS. E is the sum of the following terms:
     one-electron contribution =  -24112.54142023 Ry
     hartree contribution      =   12146.51609254 Ry
     xc contribution           =    -490.02073581 Ry
     ewald contribution        =    9491.30316202 Ry
     electric field correction =       0.00097047 Ry

     convergence has been achieved in  75 iterations

     Forces acting on atoms (cartesian axes, Ry/au):

     atom    1 type  1   force =    -0.00035471   -0.00002646    0.09251028
     atom    2 type  1   force =    -0.00033245    0.00122150   -0.18263061
     atom    3 type  2   force =     0.00043573    0.00023006   -0.02457787
     atom    4 type  2   force =     0.00073523    0.00044812    0.05162876
     atom    5 type  2   force =    -0.01465975   -0.00007465    0.00466666
     atom    6 type  2   force =     0.01554056   -0.00056808    0.00541987
     atom    7 type  1   force =    -0.00050321   -0.00016952    0.00009704
     atom    8 type  1   force =     0.00021663    0.00002960    0.00021401
     atom    9 type  2   force =    -0.00016753   -0.00017680   -0.00030093
     atom   10 type  2   force =     0.00006298   -0.00004635    0.00033421
     atom   11 type  2   force =    -0.00031836    0.00021093    0.00005085
     atom   12 type  2   force =     0.00038702    0.00008192   -0.00019644
     atom   13 type  1   force =    -0.00021009   -0.00025790    0.00016989
     atom   14 type  1   force =     0.00013226   -0.00021937   -0.00049503
     atom   15 type  2   force =    -0.00033038    0.00033385   -0.00003845
     atom   16 type  2   force =     0.00007884    0.00001558   -0.00024556
     atom   17 type  2   force =     0.00000471   -0.00010962    0.00022369
     atom   18 type  2   force =    -0.00000906   -0.00002482   -0.00015449
     atom   19 type  1   force =    -0.00091056    0.00006360   -0.00039549
     atom   20 type  1   force =     0.00030162   -0.00021649   -0.00060350
     atom   21 type  2   force =    -0.00009620    0.00005769    0.10487672
     atom   22 type  2   force =    -0.00030829   -0.00002099    0.00073986
     atom   23 type  2   force =    -0.06833451    0.00002696   -0.02692788
     atom   24 type  2   force =     0.06802923    0.00046113   -0.02700380
     atom   25 type  1   force =    -0.00030689   -0.00001350    0.09719471
     atom   26 type  1   force =    -0.00030614   -0.00120273   -0.18267149
     atom   27 type  2   force =     0.00034941    0.00023852   -0.02299448
     atom   28 type  2   force =     0.00081480    0.00042668    0.05201198
     atom   29 type  2   force =    -0.01464175    0.00064999    0.00459526
     atom   30 type  2   force =     0.01566321    0.00040104    0.00532503
     atom   31 type  1   force =    -0.00045973    0.00000263    0.00011529
     atom   32 type  1   force =     0.00021379    0.00008385    0.00019074
     atom   33 type  2   force =    -0.00008609    0.00013038    0.00017616
     atom   34 type  2   force =     0.00001144    0.00001900    0.00018117
     atom   35 type  2   force =    -0.00015550   -0.00030510    0.00014041
     atom   36 type  2   force =     0.00022468   -0.00020184   -0.00009198
     atom   37 type  1   force =    -0.00029328    0.00016271   -0.00050454
     atom   38 type  1   force =     0.00012685    0.00037690   -0.00038798
     atom   39 type  2   force =    -0.00034349   -0.00028030   -0.00000463
     atom   40 type  2   force =     0.00018109   -0.00008387    0.00000229
     atom   41 type  2   force =    -0.00023367   -0.00014028   -0.00014093
     atom   42 type  2   force =     0.00021699   -0.00021658   -0.00050705
     atom   43 type  1   force =    -0.00084721   -0.00026393   -0.00002847
     atom   44 type  1   force =     0.00029297   -0.00035805   -0.00051078
     atom   45 type  2   force =    -0.00007242    0.00005381    0.10477604
     atom   46 type  2   force =    -0.06832237   -0.00060136   -0.02691929
     atom   47 type  2   force =     0.06802224   -0.00013769   -0.02699588
     atom   48 type  3   force =    -0.01410349   -0.00116530    0.00015115
     atom   49 type  2   force =     0.00471820    0.00030486   -0.00271962
     atom   50 type  4   force =     0.00852990    0.00098341    0.00421352
     atom   51 type  4   force =     0.00111721   -0.00010601   -0.00179513
     atom   52 type  2   force =     0.00004414   -0.00113323    0.00091285
     atom   53 type  4   force =    -0.00029008    0.00060389   -0.00047119
     atom   54 type  4   force =     0.00054549    0.00050221   -0.00060499

     Total force =     0.368876     Total SCF correction =     0.000499
  @ DRIVER MODE: Message from server: STATUS
  @ DRIVER MODE: Message from server: GETFORCE
  @ DRIVER MODE: Returning v,forces,stress,ensemble

     Writing output data file ./calc.save/
  @ DRIVER MODE: Message from server: EXIT
  @ DRIVE MODE: Exiting

     General routines

     Parallel routines

   This run was terminated on:  16:33:29  15Sep2021

   JOB DONE.