     Program PWSCF v.6.7GPU starts on 24Aug2021 at 14:52:58

     R & G space division:  proc/nbgrp/npool/nimage =      72
     Reading input from /storage/home/hcoda1/3/ntian30/research/carbon/CH2_vib/ads_slab/CH2NNH3_a/out_0014/pw.inp
Warning: card &CELL ignored
Warning: card   CELL_DYNAMICS='IPI', ignored
Warning: card / ignored

     Current dimensions of program PWSCF are:
     Max number of different atomic species (ntypx) = 10
     Max number of k-points (npk) =  40000
     Max angular momentum in pseudopotentials (lmaxx) =  3
     Presently no symmetry can be used with electric field

     Message from routine cell_base_init:
     DEPRECATED: use true lattice parameter, not A to a.u. conversion factor

     IMPORTANT: XC functional enforced from input :
     Exchange-correlation= BEEF-VDW
                           (   1   4  43  14   2   0   0)
     Any further DFT definition will be discarded
     Please, verify this is what you really want

  @ DRIVER MODE: Connecting to
 qe_1139763_2641442.sched-torque.pace.gatech.edub1jnlxwq_scratch
  using UNIX socket
  @ DRIVER MODE: Message from server: STATUS
  @ DRIVER MODE: Message from server: INIT
  @ DRIVER MODE: Receiving replica           0          -1
  @ DRIVER MODE: Receiving encoded integer          25
  @ DRIVER MODE:  SCF:  T  FORCE:  T  STRESS:  F  VC:  F  ENSEMBLE:  F
  @ DRIVER MODE:  SCF:  T  FORCE:  T  STRESS:  F  VC:  F  ENSEMBLE:  F

     Using Slab Decomposition

     bravais-lattice index     =            0
     lattice parameter (alat)  =       1.8897  a.u.
     unit-cell volume          =    6658.9804 (a.u.)^3
     number of atoms/cell      =           55
     number of atomic types    =            5
     number of electrons       =       397.00
     number of Kohn-Sham states=          208
     kinetic-energy cutoff     =      29.3995  Ry
     charge density cutoff     =     293.9946  Ry
     scf convergence threshold =      7.3E-08
     mixing beta               =       0.0500
     number of iterations used =            8  plain     mixing
     Exchange-correlation= BEEF-VDW
                           (   1   4  43  14   2   0   0)

     celldm(1)=   1.889726  celldm(2)=   0.000000  celldm(3)=   0.000000
     celldm(4)=   0.000000  celldm(5)=   0.000000  celldm(6)=   0.000000

     crystal axes: (cart. coord. in units of alat)
               a(1) = (   6.579727   0.000000   0.000000 )
               a(2) = (  -0.000775   5.961596   0.000000 )
               a(3) = (   0.000000   0.000000  25.155947 )

     reciprocal axes: (cart. coord. in units 2 pi/alat)
               b(1) = (  0.151982  0.000020  0.000000 )
               b(2) = (  0.000000  0.167740  0.000000 )
               b(3) = (  0.000000  0.000000  0.039752 )

     PseudoPot. # 1 for Ti read from file:
     /storage/coda1/p-amedford6/0/shared/rich_project_chbe-medford/medford-share/data/pseudos_module/espresso/nninc/pbe/van/Ti.UPF
     MD5 check sum: 8e4df49b7f0d34bbd5052bf3f5ea0213
     Pseudo is Ultrasoft, Zval = 12.0
     Generated by new atomic code, or converted to UPF format
     Using radial grid of  851 points,  6 beta functions with:
                l(1) =   0
                l(2) =   0
                l(3) =   1
                l(4) =   1
                l(5) =   2
                l(6) =   2
     Q(r) pseudized with  8 coefficients,  rinner =    1.000   1.000   1.000
                                                       1.000   1.000

     PseudoPot. # 2 for O  read from file:
     /storage/coda1/p-amedford6/0/shared/rich_project_chbe-medford/medford-share/data/pseudos_module/espresso/nninc/pbe/van/O.UPF
     MD5 check sum: 78c19812648e8988a0fe644b0f25305e
     Pseudo is Ultrasoft, Zval =  6.0
     Generated by new atomic code, or converted to UPF format
     Using radial grid of  737 points,  4 beta functions with:
                l(1) =   0
                l(2) =   0
                l(3) =   1
                l(4) =   1
     Q(r) pseudized with  8 coefficients,  rinner =    0.800   0.800   0.800

     PseudoPot. # 3 for N  read from file:
     /storage/coda1/p-amedford6/0/shared/rich_project_chbe-medford/medford-share/data/pseudos_module/espresso/nninc/pbe/van/N.UPF
     MD5 check sum: 90d10febe142ad51ac9d5be1deb811c4
     Pseudo is Ultrasoft, Zval =  5.0
     Generated by new atomic code, or converted to UPF format
     Using radial grid of  729 points,  4 beta functions with:
                l(1) =   0
                l(2) =   0
                l(3) =   1
                l(4) =   1
     Q(r) pseudized with  8 coefficients,  rinner =    0.800   0.800   0.800

     PseudoPot. # 4 for C  read from file:
     /storage/coda1/p-amedford6/0/shared/rich_project_chbe-medford/medford-share/data/pseudos_module/espresso/nninc/pbe/van/C.UPF
     MD5 check sum: 1a69bf6b8db32088f5b2163dbdb77a27
     Pseudo is Ultrasoft, Zval =  4.0
     Generated by new atomic code, or converted to UPF format
     Using radial grid of  721 points,  4 beta functions with:
                l(1) =   0
                l(2) =   0
                l(3) =   1
                l(4) =   1
     Q(r) pseudized with  8 coefficients,  rinner =    0.800   0.800   0.800

     PseudoPot. # 5 for H  read from file:
     /storage/coda1/p-amedford6/0/shared/rich_project_chbe-medford/medford-share/data/pseudos_module/espresso/nninc/pbe/van/H.UPF
     MD5 check sum: b5ee9d7bfd3a09ee7748110bda690ff7
     Pseudo is Ultrasoft, Zval =  1.0
     Generated by new atomic code, or converted to UPF format
     Using radial grid of  615 points,  1 beta functions with:
                l(1) =   0
     Q(r) pseudized with  8 coefficients,  rinner =    0.800

     atomic species   valence    mass     pseudopotential
        Ti1           12.00    47.86700     Ti( 1.00)
        O1             6.00    15.99900     O ( 1.00)
        N1             5.00    14.00700     N ( 1.00)
        C1             4.00    12.01100     C ( 1.00)
        H1             1.00     1.00800     H ( 1.00)

     No symmetry found

   Cartesian axes

     site n.     atom                  positions (alat units)
         1           Ti1 tau(   1) = (   0.0004258   2.9801865   6.0000000  )
         2           Ti1 tau(   2) = (   3.2906075   1.4906267   6.0002472  )
         3           O1  tau(   3) = (   0.0006271   0.0005054   7.9858123  )
         4           O1  tau(   4) = (   3.2906025   0.0005020   7.3038282  )
         5           O1  tau(   5) = (   4.5942328   1.4918067   9.2879030  )
         6           O1  tau(   6) = (   1.9868534   1.4903216   9.2879459  )
         7           Ti1 tau(   7) = (   3.2907910   2.8959150   9.1758416  )
         8           Ti1 tau(   8) = (   0.0015273   1.4827037   9.2680791  )
         9           O1  tau(   9) = (   3.2870044   0.0008392  11.3329265  )
        10           O1  tau(  10) = (   0.0116148   5.9584955  10.6183126  )
        11           O1  tau(  11) = (   1.3103063   1.4923116  12.6208530  )
        12           O1  tau(  12) = (   5.2933663   1.4849185  12.6124200  )
        13           Ti1 tau(  13) = (   6.5212574   2.9536302  12.6166858  )
        14           Ti1 tau(  14) = (   3.2058376   1.4897313  12.4816367  )
        15           O1  tau(  15) = (   6.5713238   0.0136578  14.6546308  )
        16           O1  tau(  16) = (   3.3039920   0.0133407  13.9274802  )
        17           O1  tau(  17) = (   4.5398155   1.5323753  16.0810081  )
        18           O1  tau(  18) = (   2.0543055   1.5218724  16.0470058  )
        19           Ti1 tau(  19) = (   3.2774803   3.0107093  15.7022328  )
        20           Ti1 tau(  20) = (   6.5342633   1.5374647  15.8423947  )
        21           O1  tau(  21) = (   3.2904802   0.0005063   4.7018136  )
        22           O1  tau(  22) = (   0.0034288   0.0322173  17.2228558  )
        23           O1  tau(  23) = (   1.3043587   1.4918075   6.0039043  )
        24           O1  tau(  24) = (   5.2767064   1.4903225   6.0039473  )
        25           Ti1 tau(  25) = (   0.0000382   5.9609847   6.0000000  )
        26           Ti1 tau(  26) = (   3.2902200   4.4714249   6.0002472  )
        27           O1  tau(  27) = (   0.0002396   2.9813036   7.9858123  )
        28           O1  tau(  28) = (   3.2902150   2.9813002   7.3038282  )
        29           O1  tau(  29) = (   4.5938453   4.4726049   9.2879030  )
        30           O1  tau(  30) = (   1.9864658   4.4711199   9.2879459  )
        31           Ti1 tau(  31) = (   3.2891106   5.8743827   9.1763621  )
        32           Ti1 tau(  32) = (   0.0006254   4.4649316   9.2693709  )
        33           O1  tau(  33) = (   3.2848367   2.9872869  11.3311783  )
        34           O1  tau(  34) = (   0.0092240   2.9805883  10.6323155  )
        35           O1  tau(  35) = (   1.3050274   4.4824158  12.6313026  )
        36           O1  tau(  36) = (   5.2955027   4.4751037  12.6224712  )
        37           Ti1 tau(  37) = (   6.5218534   5.9301143  12.5590122  )
        38           Ti1 tau(  38) = (   3.2037265   4.4702053  12.4865905  )
        39           O1  tau(  39) = (   6.5652647   2.9430126  14.6458727  )
        40           O1  tau(  40) = (   3.3006234   2.9978660  13.9063397  )
        41           O1  tau(  41) = (   4.5289998   4.4870283  16.1192093  )
        42           O1  tau(  42) = (   2.0463452   4.4937679  16.0531255  )
        43           Ti1 tau(  43) = (   3.2679282   0.0255942  15.7259849  )
        44           Ti1 tau(  44) = (   6.5624932   4.6695214  16.1100661  )
        45           O1  tau(  45) = (   3.2900926   2.9813045   4.7018136  )
        46           O1  tau(  46) = (   1.3039711   4.4726057   6.0039043  )
        47           O1  tau(  47) = (   5.2763189   4.4711207   6.0039473  )
        48           N1  tau(  48) = (   0.0665130   2.9625449  17.3937163  )
        49           C1  tau(  49) = (   0.2662726   2.8715582  18.6342609  )
        50           H1  tau(  50) = (   0.3959136   3.7587535  19.2661104  )
        51           H1  tau(  51) = (   0.3502417   1.8926937  19.1273272  )
        52           N1  tau(  52) = (   3.5829462   4.8819607  19.5834040  )
        53           H1  tau(  53) = (   4.1394342   5.6873527  19.8504637  )
        54           H1  tau(  54) = (   4.0752263   4.4438539  18.8113048  )
        55           H1  tau(  55) = (   3.6086599   4.2347498  20.3655469  )

     number of k points=    10  Fermi-Dirac smearing, width (Ry)=  0.0073
                       cart. coord. in units 2pi/alat
        k(    1) = (   0.0000000   0.0000000   0.0000000), wk =   0.1250000
        k(    2) = (   0.0000000   0.0419351   0.0000000), wk =   0.2500000
        k(    3) = (   0.0000000  -0.0838702   0.0000000), wk =   0.1250000
        k(    4) = (   0.0379955   0.0000049   0.0000000), wk =   0.2500000
        k(    5) = (   0.0379955   0.0419400   0.0000000), wk =   0.2500000
        k(    6) = (   0.0379955  -0.0838652   0.0000000), wk =   0.2500000
        k(    7) = (   0.0379955  -0.0419301   0.0000000), wk =   0.2500000
        k(    8) = (  -0.0759910  -0.0000099   0.0000000), wk =   0.1250000
        k(    9) = (  -0.0759910   0.0419252   0.0000000), wk =   0.2500000
        k(   10) = (  -0.0759910  -0.0838800   0.0000000), wk =   0.1250000

     Initial potential from superposition of free atoms

     starting charge  380.99914, renormalised to  397.00000

     negative rho (up, down):  1.455E-02 0.000E+00

     %%%%%%%%%%%%%%%%%%%%%%%%%%%%%%%%%%%%%%%%%%%%%%%%%%%%%%%%%%%%%%%%%%%%%%%%
     %                                                                      %
     % You are using vdW-DF, which was implemented by the Thonhauser group. %
     % Please cite the following two papers that made this development      %
     % possible and the two reviews that describe the various versions:     %
     %                                                                      %
     %   T. Thonhauser et al., PRL 115, 136402 (2015).                      %
     %   T. Thonhauser et al., PRB 76, 125112 (2007).                       %
     %   K. Berland et al., Rep. Prog. Phys. 78, 066501 (2015).             %
     %   D.C. Langreth et al., J. Phys.: Condens. Matter 21, 084203 (2009). %
     %                                                                      %
     %                                                                      %
     % If you are calculating the stress with vdW-DF, please also cite:     %
     %                                                                      %
     %   R. Sabatini et al., J. Phys.: Condens. Matter 24, 424209 (2012).   %
     %                                                                      %
     %%%%%%%%%%%%%%%%%%%%%%%%%%%%%%%%%%%%%%%%%%%%%%%%%%%%%%%%%%%%%%%%%%%%%%%%

     Adding external electric field

     Computed dipole along edir(3) :
        Dipole              -10.1102 Ry au,        -25.6976 Debye
        Dipole field         -0.0191 Ry au,

        Potential amp.        1.7686 Ry
        Total length         46.3494 bohr

     Starting wfcs are  301 atomic wfcs
  @ DRIVER MODE: Message from server: STATUS
  @ DRIVER MODE: Message from server: POSDATA
  @ DRIVER MODE: Reading and sharing cell
  @ DRIVER MODE: Reading and sharing positions
  @ DRIVER MODE: Received positions

     Self-consistent Calculation

     iteration #  1     ecut=    29.40 Ry     beta= 0.05
     Davidson diagonalization with overlap
     c_bands:  2 eigenvalues not converged
     c_bands:  1 eigenvalues not converged
     c_bands:  1 eigenvalues not converged
     c_bands:  1 eigenvalues not converged
     c_bands:  1 eigenvalues not converged
     c_bands:  1 eigenvalues not converged
     c_bands:  1 eigenvalues not converged
     c_bands:  2 eigenvalues not converged
     ethr =  1.00E-05,  avg # of iterations = 19.0

[...]

     total energy              =   -2537.38725941 Ry
     estimated scf accuracy    <    4509.57485427 Ry

     iteration #  2     ecut=    29.40 Ry     beta= 0.05
     Davidson diagonalization with overlap
     ethr =  1.00E-02,  avg # of iterations = 24.6

[...]

     iteration # 51     ecut=    29.40 Ry     beta= 0.05
     Davidson diagonalization with overlap
     c_bands:  1 eigenvalues not converged
     ethr =  4.51E-09,  avg # of iterations = 12.0

[...]

     total energy              =   -2941.70793090 Ry
     estimated scf accuracy    <       0.00000008 Ry

     iteration # 71     ecut=    29.40 Ry     beta= 0.05
     Davidson diagonalization with overlap
     ethr =  2.04E-11,  avg # of iterations =  9.3

     negative rho (up, down):  1.502E-02 0.000E+00

     Adding external electric field

     Computed dipole along edir(3) :
        Dipole                0.8865 Ry au,          2.2532 Debye
        Dipole field          0.0017 Ry au,

        Potential amp.       -0.1551 Ry
        Total length         46.3494 bohr

     End of self-consistent calculation

          k = 0.0000 0.0000 0.0000 ( 18029 PWs)   bands (ev):

   -55.7594 -55.7508 -55.7253 -55.7148 -55.6449 -55.6043 -55.5882 -55.5698
   -55.5679 -55.5340 -55.5318 -55.4982 -55.2786 -55.0264 -54.7364 -54.7024
   -32.3037 -32.2418 -32.1055 -32.0948 -32.0667 -32.0634 -32.0523 -32.0223
   -32.0019 -31.9779 -31.9712 -31.9508 -31.9305 -31.9114 -31.9029 -31.8898
   -31.8759 -31.8637 -31.8487 -31.8163 -31.8137 -31.8109 -31.7696 -31.7628
   -31.7621 -31.7603 -31.7557 -31.7465 -31.7337 -31.7191 -31.7112 -31.7071
   -31.7022 -31.6983 -31.6848 -31.6752 -31.6439 -31.5328 -31.4596 -31.3078
   -31.2803 -31.2339 -31.1435 -31.0552 -31.0328 -30.9602 -30.8737 -30.7627
   -16.4993 -16.2342 -16.0174 -15.9130 -15.8776 -15.7619 -15.5980 -15.4788
   -15.4261 -15.3280 -15.3144 -15.2951 -15.2614 -15.2449 -15.2241 -15.2053
   -15.2007 -15.1832 -15.1697 -15.1182 -15.0954 -15.0580 -14.9608 -14.9313
   -14.8938 -14.8771 -14.8191 -14.8141 -14.6794 -14.3302 -14.0417 -13.2389
   -13.1225  -7.2930  -4.1716  -4.1272  -4.0135  -3.8751  -3.7662  -3.7127
    -3.6645  -3.6041  -3.3983  -3.3078  -3.2829  -2.9865  -2.9406  -2.9257
    -2.9035  -2.8780  -2.6585  -2.6037  -2.5722  -2.5550  -2.5403  -2.5271
    -2.5194  -2.4999  -2.4658  -2.3682  -2.3144  -2.2998  -2.1766  -2.1481
    -2.0878  -2.0712  -2.0245  -2.0094  -1.9965  -1.9915  -1.9634  -1.9472
    -1.9216  -1.8433  -1.7278  -1.5754  -1.5570  -1.5231  -1.4041  -1.3661
    -1.3019  -1.2183  -1.2005  -1.1843  -1.1503  -1.1387  -1.0593  -0.9464
    -0.9063  -0.8976  -0.7943  -0.7544  -0.7340  -0.6300  -0.6062  -0.5382
    -0.5217  -0.5119  -0.4789  -0.3182  -0.2612  -0.2263  -0.1615  -0.1382
    -0.0790  -0.0608  -0.0309   0.0521   0.1001   0.1267   0.1285   0.1773
     0.2156   0.2325   0.2365   0.2513   0.2716   0.4385   0.5144   0.5284
     0.5979   0.6095   0.7719   0.8163   0.8983   1.0006   1.0432   1.2113
     1.2856   1.3752   1.4779   1.6809   1.8568   1.9024   3.3777   3.4611
     3.5096   3.5221   3.6202   3.6615   3.8305   3.8388   3.8494   3.9237

[...]

          k = 0.0380-0.0419 0.0000 ( 17876 PWs)   bands (ev):

[...]

          k =-0.0760-0.0000 0.0000 ( 17886 PWs)   bands (ev):

[...]

          k =-0.0760-0.0839 0.0000 ( 17948 PWs)   bands (ev):

   -55.7427 -55.7419 -55.7336 -55.7318 -55.6390 -55.5939 -55.5888 -55.5852
   -55.5517 -55.5498 -55.5157 -55.5144 -55.2775 -55.0274 -54.7195 -54.7193
   -32.1087 -32.1059 -32.0573 -32.0567 -32.0381 -32.0373 -32.0221 -32.0100
   -31.9575 -31.9534 -31.9488 -31.9447 -31.9101 -31.8833 -31.8819 -31.8786
   -31.8694 -31.8635 -31.8620 -31.8612 -31.8546 -31.8522 -31.8423 -31.8080
   -31.8018 -31.7948 -31.7823 -31.7697 -31.7504 -31.7499 -31.7469 -31.7458
   -31.7303 -31.7296 -31.7247 -31.7218 -31.6422 -31.5352 -31.4561 -31.3745
   -31.2820 -31.2559 -31.0456 -31.0454 -30.9563 -30.9562 -30.9171 -30.9169
   -15.9387 -15.9074 -15.7024 -15.6754 -15.6717 -15.6555 -15.5306 -15.4675
   -15.4544 -15.4521 -15.3879 -15.3676 -15.3311 -15.3038 -15.2895 -15.2793
   -15.2735 -15.2674 -15.2187 -15.2128 -15.1952 -15.1880 -15.0848 -15.0753
   -15.0714 -15.0162 -14.9359 -14.7938 -14.6960 -14.5038 -14.0414 -13.2243
   -13.2242  -7.2895  -4.1895  -4.0919  -4.0324  -3.4401  -3.2286  -3.1913
    -2.9320  -2.9138  -2.9002  -2.8452  -2.6724  -2.6550  -2.6335  -2.6154
    -2.5817  -2.5807  -2.5617  -2.5598  -2.5488  -2.5144  -2.5027  -2.4730
    -2.4354  -2.4252  -2.4134  -2.4121  -2.3820  -2.3723  -2.3335  -2.3041
    -2.2948  -2.2764  -2.2616  -2.0921  -1.9839  -1.9587  -1.8955  -1.8878
    -1.8588  -1.8228  -1.8154  -1.7946  -1.7438  -1.6577  -1.4907  -1.4585
    -1.4402  -1.3781  -1.3606  -1.3096  -1.2297  -1.1559  -1.1337  -1.1284
    -1.0787  -0.9691  -0.9464  -0.9383  -0.8686  -0.8223  -0.8155  -0.7801
    -0.7514  -0.7187  -0.7143  -0.6222  -0.5727  -0.5298  -0.5249  -0.4766
    -0.4092  -0.3979  -0.3693  -0.2601  -0.2374  -0.1806  -0.1446  -0.0357
     0.0287   0.2262   0.2800   0.3161   0.3735   0.4483   0.5307   0.5459
     0.5503   0.5607   0.6166   0.6702   0.7745   0.7833   0.8385   0.9455
     1.0100   1.6052   1.6494   1.6500   1.7222   1.7223   3.6604   3.6722
     3.7110   3.7317   3.8698   3.8851   3.9088   3.9097   3.9612   4.0474

     the Fermi energy is     3.3751 ev

!    total energy              =   -2941.70795139 Ry
     estimated scf accuracy    <       0.00000007 Ry
     smearing contrib. (-TS)   =      -0.02185463 Ry
     internal energy E=F+TS    =   -2941.68609676 Ry

     The total energy is F=E-TS. E is the sum of the following terms:
     one-electron contribution =  -23925.25943538 Ry
     hartree contribution      =   12052.26372627 Ry
     xc contribution           =    -486.76400730 Ry
     ewald contribution        =    9418.07213663 Ry
     electric field correction =       0.00148302 Ry

     convergence has been achieved in  71 iterations

     Forces acting on atoms (cartesian axes, Ry/au):

     atom    1 type  1   force =     0.00002886   -0.00025530    0.09663531
     atom    2 type  1   force =     0.00003789   -0.00057831   -0.17537883
     atom    3 type  2   force =     0.00011510   -0.00004111   -0.02487494
     atom    4 type  2   force =    -0.00000171   -0.00140945    0.05292812
     atom    5 type  2   force =    -0.01226870   -0.00026645    0.00348728
     atom    6 type  2   force =     0.01362210    0.00026197    0.00256196
     atom    7 type  1   force =     0.00031688    0.00058049   -0.01137550
     atom    8 type  1   force =     0.00052008    0.00782806    0.02844982
     atom    9 type  2   force =     0.00020594    0.00040908    0.00049907
     atom   10 type  2   force =    -0.00292018    0.00138751   -0.01555512
     atom   11 type  2   force =     0.00067108   -0.00000628   -0.00001748
     atom   12 type  2   force =    -0.00008160   -0.00013830   -0.00013727
     atom   13 type  1   force =    -0.00018819   -0.00032517    0.00099188
     atom   14 type  1   force =     0.00017902   -0.00007663   -0.00020437
     atom   15 type  2   force =     0.00017150    0.00051203    0.00020445
     atom   16 type  2   force =    -0.00033322   -0.00035931   -0.00029855
     atom   17 type  2   force =    -0.00069580    0.00000787   -0.00047835
     atom   18 type  2   force =     0.00032889    0.00046303   -0.00000941
     atom   19 type  1   force =    -0.00047849   -0.00078931   -0.00021072
     atom   20 type  1   force =     0.00040695    0.00090485   -0.00112561
     atom   21 type  2   force =     0.00005351   -0.00005567    0.10316952
     atom   22 type  2   force =    -0.00078178    0.00005718    0.00063500
     atom   23 type  2   force =    -0.07150211   -0.00014298   -0.02772292
     atom   24 type  2   force =     0.07142950    0.00031735   -0.02779817
     atom   25 type  1   force =     0.00016550   -0.00024585    0.09626541
     atom   26 type  1   force =     0.00009345   -0.00022889   -0.17562414
     atom   27 type  2   force =     0.00017035   -0.00019216   -0.02392383
     atom   28 type  2   force =    -0.00000062   -0.00118402    0.05284204
     atom   29 type  2   force =    -0.01239969    0.00039316    0.00318302
     atom   30 type  2   force =     0.01365275    0.00085551    0.00222839
     atom   31 type  1   force =     0.00028740    0.00324049   -0.01196516
     atom   32 type  1   force =     0.00065405   -0.01006321    0.02885517
     atom   33 type  2   force =     0.00024366   -0.00023995    0.00063101
     atom   34 type  2   force =    -0.00237825    0.00102000   -0.02370452
     atom   35 type  2   force =     0.00059648   -0.00070637   -0.00008960
     atom   36 type  2   force =    -0.00016321   -0.00079415    0.00017288
     atom   37 type  1   force =    -0.00017132   -0.00013410    0.00048692
     atom   38 type  1   force =     0.00030204    0.00037017   -0.00066570
     atom   39 type  2   force =    -0.00009702   -0.00076136    0.00118139
     atom   40 type  2   force =     0.00026750   -0.00062310   -0.00012522
     atom   41 type  2   force =    -0.00025336   -0.00063032   -0.00000725
     atom   42 type  2   force =    -0.00032632   -0.00024603   -0.00002182
     atom   43 type  1   force =    -0.00047678    0.00070338    0.00005744
     atom   44 type  1   force =    -0.00015787    0.00015256   -0.00034273
     atom   45 type  2   force =     0.00007269   -0.00007395    0.10319465
     atom   46 type  2   force =    -0.07154005   -0.00008565   -0.02774618
     atom   47 type  2   force =     0.07144498    0.00033780   -0.02781117
     atom   48 type  3   force =    -0.00060180   -0.00048216   -0.00098625
     atom   49 type  4   force =     0.00242574   -0.00020566    0.00136200
     atom   50 type  5   force =    -0.00131680   -0.00013199    0.00027033
     atom   51 type  5   force =    -0.00072313    0.00057508   -0.00048367
     atom   52 type  3   force =    -0.00159518    0.00029344   -0.00061024
     atom   53 type  5   force =     0.00138279    0.00074939   -0.00013081
     atom   54 type  5   force =     0.00139549   -0.00040428    0.00101119
     atom   55 type  5   force =     0.00021102    0.00045706   -0.00187872

     Total force =     0.368064     Total SCF correction =     0.000630
  @ DRIVER MODE: Message from server: STATUS
  @ DRIVER MODE: Message from server: GETFORCE
  @ DRIVER MODE: Returning v,forces,stress,ensemble

     Writing output data file ./calc.save/
  @ DRIVER MODE: Message from server: EXIT
  @ DRIVE MODE: Exiting

     General routines

     Parallel routines

   This run was terminated on:  15:16:17  24Aug2021

   JOB DONE.