     Program PWSCF v.6.7GPU starts on 24Aug2021 at 10:23:45

     R & G space division:  proc/nbgrp/npool/nimage =       6
     Reading input from /storage/home/hcoda1/3/ntian30/research/carbon/CH_vib/ads_slab/CHNNHHH_a/out_0041/pw.inp
Warning: card &CELL ignored
Warning: card   CELL_DYNAMICS='IPI', ignored
Warning: card / ignored

     Current dimensions of program PWSCF are:
     Max number of different atomic species (ntypx) = 10
     Max number of k-points (npk) =  40000
     Max angular momentum in pseudopotentials (lmaxx) =  3
     Presently no symmetry can be used with electric field

     Message from routine cell_base_init:
     DEPRECATED: use true lattice parameter, not A to a.u. conversion factor

     IMPORTANT: XC functional enforced from input :
     Exchange-correlation= BEEF-VDW
                           (   1   4  43  14   2   0   0)
     Any further DFT definition will be discarded
     Please, verify this is what you really want

  @ DRIVER MODE: Connecting to
 qe_1139763_2632795.sched-torque.pace.gatech.eduxjq_qszm_scratch
  using UNIX socket
  @ DRIVER MODE: Message from server: STATUS
  @ DRIVER MODE: Message from server: INIT
  @ DRIVER MODE: Receiving replica           0          -1
  @ DRIVER MODE: Receiving encoded integer          25
  @ DRIVER MODE:  SCF:  T  FORCE:  T  STRESS:  F  VC:  F  ENSEMBLE:  F
  @ DRIVER MODE:  SCF:  T  FORCE:  T  STRESS:  F  VC:  F  ENSEMBLE:  F

     Using Slab Decomposition

     bravais-lattice index     =            0
     lattice parameter (alat)  =       1.8897  a.u.
     unit-cell volume          =    6658.9804 (a.u.)^3
     number of atoms/cell      =           54
     number of atomic types    =            5
     number of electrons       =       396.00
     number of Kohn-Sham states=          208
     kinetic-energy cutoff     =      29.3995  Ry
     charge density cutoff     =     293.9946  Ry
     scf convergence threshold =      7.3E-08
     mixing beta               =       0.0500
     number of iterations used =            8  plain     mixing
     Exchange-correlation= BEEF-VDW
                           (   1   4  43  14   2   0   0)

     celldm(1)=   1.889726  celldm(2)=   0.000000  celldm(3)=   0.000000
     celldm(4)=   0.000000  celldm(5)=   0.000000  celldm(6)=   0.000000

     crystal axes: (cart. coord. in units of alat)
               a(1) = (   6.579727   0.000000   0.000000 )
               a(2) = (  -0.000775   5.961596   0.000000 )
               a(3) = (   0.000000   0.000000  25.155947 )

     reciprocal axes: (cart. coord. in units 2 pi/alat)
               b(1) = (  0.151982  0.000020  0.000000 )
               b(2) = (  0.000000  0.167740  0.000000 )
               b(3) = (  0.000000  0.000000  0.039752 )

     PseudoPot. # 1 for Ti read from file:
     /storage/coda1/p-amedford6/0/shared/rich_project_chbe-medford/medford-share/data/pseudos_module/espresso/nninc/pbe/van/Ti.UPF
     MD5 check sum: 8e4df49b7f0d34bbd5052bf3f5ea0213
     Pseudo is Ultrasoft, Zval = 12.0
     Generated by new atomic code, or converted to UPF format
     Using radial grid of  851 points,  6 beta functions with:
                l(1) =   0
                l(2) =   0
                l(3) =   1
                l(4) =   1
                l(5) =   2
                l(6) =   2
     Q(r) pseudized with  8 coefficients,  rinner =    1.000   1.000   1.000
                                                       1.000   1.000

     PseudoPot. # 2 for O  read from file:
     /storage/coda1/p-amedford6/0/shared/rich_project_chbe-medford/medford-share/data/pseudos_module/espresso/nninc/pbe/van/O.UPF
     MD5 check sum: 78c19812648e8988a0fe644b0f25305e
     Pseudo is Ultrasoft, Zval =  6.0
     Generated by new atomic code, or converted to UPF format
     Using radial grid of  737 points,  4 beta functions with:
                l(1) =   0
                l(2) =   0
                l(3) =   1
                l(4) =   1
     Q(r) pseudized with  8 coefficients,  rinner =    0.800   0.800   0.800

     PseudoPot. # 3 for N  read from file:
     /storage/coda1/p-amedford6/0/shared/rich_project_chbe-medford/medford-share/data/pseudos_module/espresso/nninc/pbe/van/N.UPF
     MD5 check sum: 90d10febe142ad51ac9d5be1deb811c4
     Pseudo is Ultrasoft, Zval =  5.0
     Generated by new atomic code, or converted to UPF format
     Using radial grid of  729 points,  4 beta functions with:
                l(1) =   0
                l(2) =   0
                l(3) =   1
                l(4) =   1
     Q(r) pseudized with  8 coefficients,  rinner =    0.800   0.800   0.800

     PseudoPot. # 4 for C  read from file:
     /storage/coda1/p-amedford6/0/shared/rich_project_chbe-medford/medford-share/data/pseudos_module/espresso/nninc/pbe/van/C.UPF
     MD5 check sum: 1a69bf6b8db32088f5b2163dbdb77a27
     Pseudo is Ultrasoft, Zval =  4.0
     Generated by new atomic code, or converted to UPF format
     Using radial grid of  721 points,  4 beta functions with:
                l(1) =   0
                l(2) =   0
                l(3) =   1
                l(4) =   1
     Q(r) pseudized with  8 coefficients,  rinner =    0.800   0.800   0.800

     PseudoPot. # 5 for H  read from file:
     /storage/coda1/p-amedford6/0/shared/rich_project_chbe-medford/medford-share/data/pseudos_module/espresso/nninc/pbe/van/H.UPF
     MD5 check sum: b5ee9d7bfd3a09ee7748110bda690ff7
     Pseudo is Ultrasoft, Zval =  1.0
     Generated by new atomic code, or converted to UPF format
     Using radial grid of  615 points,  1 beta functions with:
                l(1) =   0
     Q(r) pseudized with  8 coefficients,  rinner =    0.800

     atomic species   valence    mass     pseudopotential
        Ti1           12.00    47.86700     Ti( 1.00)
        O1             6.00    15.99900     O ( 1.00)
        N1             5.00    14.00700     N ( 1.00)
        C1             4.00    12.01100     C ( 1.00)
        H1             1.00     1.00800     H ( 1.00)

     No symmetry found

   Cartesian axes

     site n.     atom                  positions (alat units)
         1           Ti1 tau(   1) = (   0.0004258   2.9801865   6.0000000  )
         2           Ti1 tau(   2) = (   3.2906075   1.4906267   6.0002472  )
         3           O1  tau(   3) = (   0.0006271   0.0005054   7.9858123  )
         4           O1  tau(   4) = (   3.2906025   0.0005020   7.3038282  )
         5           O1  tau(   5) = (   4.5942328   1.4918067   9.2879030  )
         6           O1  tau(   6) = (   1.9868534   1.4903216   9.2879459  )
         7           Ti1 tau(   7) = (   3.2907910   2.8959150   9.1758416  )
         8           Ti1 tau(   8) = (   0.0015273   1.4827037   9.2680791  )
         9           O1  tau(   9) = (   3.3116888   5.9365513  11.3741315  )
        10           O1  tau(  10) = (   0.0116148   5.9584955  10.6183126  )
        11           O1  tau(  11) = (   1.3152863   1.4773744  12.6583839  )
        12           O1  tau(  12) = (   5.3185463   1.4781915  12.6604289  )
        13           Ti1 tau(  13) = (   0.0312267   2.9553392  12.5172039  )
        14           Ti1 tau(  14) = (   3.3247105   1.4628205  12.5237724  )
        15           O1  tau(  15) = (   0.0176705   0.0150782  14.7085838  )
        16           O1  tau(  16) = (   3.3263678   5.9469243  13.9928752  )
        17           O1  tau(  17) = (   4.5829619   1.4750097  16.2211409  )
        18           O1  tau(  18) = (   2.0801478   1.4636096  16.1819230  )
        19           Ti1 tau(  19) = (   3.3264833   2.9461821  15.7545810  )
        20           Ti1 tau(  20) = (   0.0064452   1.3478264  16.0581623  )
        21           O1  tau(  21) = (   3.2904802   0.0005063   4.7018136  )
        22           O1  tau(  22) = (   0.0393124   5.8647722  17.2449945  )
        23           O1  tau(  23) = (   1.3043587   1.4918075   6.0039043  )
        24           O1  tau(  24) = (   5.2767064   1.4903225   6.0039473  )
        25           Ti1 tau(  25) = (   0.0000382   5.9609847   6.0000000  )
        26           Ti1 tau(  26) = (   3.2902200   4.4714249   6.0002472  )
        27           O1  tau(  27) = (   0.0002396   2.9813036   7.9858123  )
        28           O1  tau(  28) = (   3.2902150   2.9813002   7.3038282  )
        29           O1  tau(  29) = (   4.5938453   4.4726049   9.2879030  )
        30           O1  tau(  30) = (   1.9864658   4.4711199   9.2879459  )
        31           Ti1 tau(  31) = (   3.2891106   5.8743827   9.1763621  )
        32           Ti1 tau(  32) = (   0.0006254   4.4649316   9.2693709  )
        33           O1  tau(  33) = (   3.3126387   2.9639063  11.3704323  )
        34           O1  tau(  34) = (   0.0092240   2.9805883  10.6323155  )
        35           O1  tau(  35) = (   1.3140505   4.4512041  12.6779488  )
        36           O1  tau(  36) = (   5.3186431   4.4503656  12.6784002  )
        37           Ti1 tau(  37) = (   0.0306983   5.9434578  12.5012515  )
        38           Ti1 tau(  38) = (   3.3249252   4.4426326  12.5284913  )
        39           O1  tau(  39) = (   0.0332616   2.9308952  14.9693926  )
        40           O1  tau(  40) = (   3.3269026   2.9510973  13.9662216  )
        41           O1  tau(  41) = (   4.5816979   4.4256876  16.1885362  )
        42           O1  tau(  42) = (   2.0739833   4.4348339  16.1471384  )
        43           Ti1 tau(  43) = (   3.3139036   5.9323143  15.7909994  )
        44           Ti1 tau(  44) = (   0.0257917   4.5791344  15.8913375  )
        45           O1  tau(  45) = (   3.2900926   2.9813045   4.7018136  )
        46           O1  tau(  46) = (   1.3039711   4.4726057   6.0039043  )
        47           O1  tau(  47) = (   5.2763189   4.4711207   6.0039473  )
        48           N1  tau(  48) = (   0.2611162   2.7486399  18.0384573  )
        49           C1  tau(  49) = (   1.0666652   3.1333113  18.7681872  )
        50           H1  tau(  50) = (   1.9496291   3.4674532  19.3170853  )
        51           N1  tau(  51) = (   3.9312863   3.7371558  19.5917579  )
        52           H1  tau(  52) = (   4.2637485   4.0673035  20.4913501  )
        53           H1  tau(  53) = (   4.3024207   4.3757745  18.8906580  )
        54           H1  tau(  54) = (   4.4024832   2.8518033  19.4077320  )

     number of k points=    10  Fermi-Dirac smearing, width (Ry)=  0.0073
                       cart. coord. in units 2pi/alat
        k(    1) = (   0.0000000   0.0000000   0.0000000), wk =   0.1250000
        k(    2) = (   0.0000000   0.0419351   0.0000000), wk =   0.2500000
        k(    3) = (   0.0000000  -0.0838702   0.0000000), wk =   0.1250000
        k(    4) = (   0.0379955   0.0000049   0.0000000), wk =   0.2500000
        k(    5) = (   0.0379955   0.0419400   0.0000000), wk =   0.2500000
        k(    6) = (   0.0379955  -0.0838652   0.0000000), wk =   0.2500000
        k(    7) = (   0.0379955  -0.0419301   0.0000000), wk =   0.2500000
        k(    8) = (  -0.0759910  -0.0000099   0.0000000), wk =   0.1250000
        k(    9) = (  -0.0759910   0.0419252   0.0000000), wk =   0.2500000
        k(   10) = (  -0.0759910  -0.0838800   0.0000000), wk =   0.1250000

     Initial potential from superposition of free atoms

     starting charge  379.99915, renormalised to  396.00000

     negative rho (up, down):  1.481E-02 0.000E+00

     %%%%%%%%%%%%%%%%%%%%%%%%%%%%%%%%%%%%%%%%%%%%%%%%%%%%%%%%%%%%%%%%%%%%%%%%
     %                                                                      %
     % You are using vdW-DF, which was implemented by the Thonhauser group. %
     % Please cite the following two papers that made this development      %
     % possible and the two reviews that describe the various versions:     %
     %                                                                      %
     %   T. Thonhauser et al., PRL 115, 136402 (2015).                      %
     %   T. Thonhauser et al., PRB 76, 125112 (2007).                       %
     %   K. Berland et al., Rep. Prog. Phys. 78, 066501 (2015).             %
     %   D.C. Langreth et al., J. Phys.: Condens. Matter 21, 084203 (2009). %
     %                                                                      %
     %                                                                      %
     % If you are calculating the stress with vdW-DF, please also cite:     %
     %                                                                      %
     %   R. Sabatini et al., J. Phys.: Condens. Matter 24, 424209 (2012).   %
     %                                                                      %
     %%%%%%%%%%%%%%%%%%%%%%%%%%%%%%%%%%%%%%%%%%%%%%%%%%%%%%%%%%%%%%%%%%%%%%%%

     Adding external electric field

     Computed dipole along edir(3) :
        Dipole              -10.3163 Ry au,        -26.2214 Debye
        Dipole field         -0.0195 Ry au,

        Potential amp.        1.8047 Ry
        Total length         46.3494 bohr

     Starting wfcs are  300 atomic wfcs
  @ DRIVER MODE: Message from server: STATUS
  @ DRIVER MODE: Message from server: POSDATA
  @ DRIVER MODE: Reading and sharing cell
  @ DRIVER MODE: Reading and sharing positions
  @ DRIVER MODE: Received positions

     Self-consistent Calculation

     iteration #  1     ecut=    29.40 Ry     beta= 0.05
     Davidson diagonalization with overlap
     c_bands:  1 eigenvalues not converged
     c_bands:  2 eigenvalues not converged
     c_bands:  2 eigenvalues not converged
     c_bands:  1 eigenvalues not converged
     c_bands:  3 eigenvalues not converged
     c_bands:  2 eigenvalues not converged
     c_bands:  3 eigenvalues not converged
     c_bands:  2 eigenvalues not converged
     c_bands:  2 eigenvalues not converged
     c_bands:  2 eigenvalues not converged
     ethr =  1.00E-05,  avg # of iterations = 20.0

[...]

     total energy              =   -2524.39701032 Ry
     estimated scf accuracy    <    4655.48831462 Ry

     iteration #  2     ecut=    29.40 Ry     beta= 0.05
     Davidson diagonalization with overlap
     ethr =  1.00E-02,  avg # of iterations = 24.2

[...]

     iteration # 70     ecut=    29.40 Ry     beta= 0.05
     Davidson diagonalization with overlap
     c_bands:  1 eigenvalues not converged
     ethr =  3.11E-11,  avg # of iterations = 16.6

[...]

     total energy              =   -2940.41308972 Ry
     estimated scf accuracy    <       0.00000013 Ry

     iteration # 72     ecut=    29.40 Ry     beta= 0.05
     Davidson diagonalization with overlap
     ethr =  3.11E-11,  avg # of iterations = 12.8

     negative rho (up, down):  1.579E-02 0.000E+00

     Adding external electric field

     Computed dipole along edir(3) :
        Dipole                1.4869 Ry au,          3.7793 Debye
        Dipole field          0.0028 Ry au,

        Potential amp.       -0.2601 Ry
        Total length         46.3494 bohr

     End of self-consistent calculation

          k = 0.0000 0.0000 0.0000 ( 18029 PWs)   bands (ev):

   -55.2564 -55.2205 -55.2077 -55.1736 -55.1336 -55.1254 -55.1015 -55.0983
   -55.0740 -55.0547 -55.0397 -55.0368 -55.0031 -54.9863 -54.2358 -54.2017
   -31.8250 -31.7046 -31.7001 -31.6213 -31.5657 -31.5636 -31.5550 -31.5422
   -31.4966 -31.4841 -31.4652 -31.4619 -31.4523 -31.4276 -31.4116 -31.4070
   -31.3928 -31.3811 -31.3722 -31.3708 -31.3601 -31.3480 -31.3215 -31.3192
   -31.3114 -31.3047 -31.2766 -31.2748 -31.2649 -31.2637 -31.2551 -31.2363
   -31.2352 -31.2271 -31.2233 -31.2216 -31.1879 -31.1879 -31.1701 -31.1648
   -31.1478 -31.0962 -30.6450 -30.5510 -30.5289 -30.4615 -30.3747 -30.2637
   -16.7744 -16.0813 -15.8116 -15.6692 -15.5632 -15.4519 -15.3370 -15.3168
   -15.1799 -15.1395 -15.0913 -14.9726 -14.9217 -14.9034 -14.8888 -14.8748
   -14.8683 -14.7972 -14.7920 -14.7687 -14.7482 -14.7356 -14.6927 -14.6909
   -14.6504 -14.6295 -14.5832 -14.4941 -14.4113 -14.3419 -14.0195 -12.7385
   -12.6210  -7.9757  -5.2670  -5.0091  -4.0141  -3.4202  -3.2698  -3.1739
    -3.1475  -3.1317  -3.0023  -2.8549  -2.8452  -2.7500  -2.6406  -2.5893
    -2.5068  -2.4582  -2.4458  -2.4275  -2.2444  -2.2275  -2.1744  -2.1264
    -2.0964  -2.0606  -2.0403  -2.0211  -2.0038  -1.9945  -1.9304  -1.8167
    -1.7811  -1.7290  -1.6775  -1.6523  -1.5982  -1.5776  -1.5415  -1.5355
    -1.5350  -1.4869  -1.4609  -1.4376  -1.3605  -1.2745  -1.1600  -1.1087
    -0.9538  -0.8914  -0.8351  -0.8228  -0.7592  -0.7394  -0.7094  -0.6331
    -0.6254  -0.5927  -0.4740  -0.3798  -0.3403  -0.3261  -0.2732  -0.2367
    -0.2094  -0.1623  -0.0662  -0.0341  -0.0173  -0.0128   0.1373   0.1511
     0.2201   0.2676   0.2893   0.2899   0.4030   0.4195   0.4918   0.5288
     0.5648   0.6381   0.6780   0.6940   0.6966   0.7302   0.7341   0.8251
     0.8472   0.8556   0.9278   1.0773   1.3040   1.3518   1.3595   1.6932
     1.6949   1.7870   1.9706   2.3628   2.4110   3.8423   3.9138   3.9880
     3.9945   4.0202   4.0804   4.3219   4.3323   4.3448   4.3480   4.3893

[...]

          k = 0.0380-0.0419 0.0000 ( 17876 PWs)   bands (ev):

[...]

          k =-0.0760-0.0000 0.0000 ( 17886 PWs)   bands (ev):

[...]

          k =-0.0760-0.0839 0.0000 ( 17948 PWs)   bands (ev):

   -55.2384 -55.2382 -55.1909 -55.1904 -55.1206 -55.1200 -55.1119 -55.0987
   -55.0590 -55.0578 -55.0554 -55.0204 -55.0197 -54.9892 -54.2187 -54.2187
   -31.6288 -31.6283 -31.6278 -31.5273 -31.5154 -31.5149 -31.5147 -31.4821
   -31.4817 -31.4637 -31.4565 -31.4508 -31.4464 -31.3956 -31.3909 -31.3888
   -31.3877 -31.3875 -31.3820 -31.3764 -31.3524 -31.3490 -31.3384 -31.3293
   -31.3283 -31.3221 -31.3136 -31.3104 -31.3101 -31.3040 -31.2910 -31.2883
   -31.2834 -31.2709 -31.2683 -31.2516 -31.2501 -31.2463 -31.2010 -31.2006
   -31.1949 -31.1885 -30.5416 -30.5416 -30.4576 -30.4575 -30.4181 -30.4181
   -16.7656 -15.6138 -15.4973 -15.4562 -15.2685 -15.2600 -15.2294 -15.2170
   -15.1463 -15.0660 -15.0393 -15.0290 -15.0157 -14.9640 -14.9578 -14.9525
   -14.9309 -14.8599 -14.8514 -14.8495 -14.8324 -14.7663 -14.7615 -14.7572
   -14.7463 -14.7032 -14.7003 -14.6061 -14.6040 -14.5100 -14.3862 -12.7225
   -12.7225  -7.9723  -5.2626  -5.0194  -4.0009  -2.7988  -2.7715  -2.7246
    -2.7156  -2.6992  -2.4800  -2.4572  -2.4202  -2.3702  -2.3087  -2.2575
    -2.2492  -2.2325  -2.1654  -2.1267  -2.1101  -2.0966  -2.0783  -2.0627
    -2.0483  -2.0227  -1.9803  -1.9727  -1.9517  -1.9312  -1.9013  -1.8929
    -1.8618  -1.8409  -1.8257  -1.8083  -1.6936  -1.6699  -1.6114  -1.5722
    -1.5308  -1.4585  -1.4533  -1.3561  -1.3487  -1.2944  -1.2827  -1.2566
    -1.1637  -1.0646  -1.0025  -0.9960  -0.9896  -0.8634  -0.8252  -0.8009
    -0.7641  -0.7359  -0.6767  -0.5986  -0.5771  -0.5425  -0.4583  -0.4500
    -0.3931  -0.3129  -0.2787  -0.2481  -0.2185  -0.2110  -0.2012  -0.1480
    -0.1415  -0.0704  -0.0204   0.0130   0.0241   0.0581   0.2629   0.2796
     0.3325   0.4308   0.5036   0.6237   0.6816   0.7028   0.7741   0.8142
     0.8581   0.9206   1.0232   1.0534   1.0563   1.1310   1.1627   1.2046
     1.2086   2.1439   2.1443   2.2309   2.2311   3.9863   4.0802   4.1023
     4.1505   4.2417   4.2770   4.3599   4.3780   4.4276   4.4300   4.4973

     the Fermi energy is     3.9053 ev

!    total energy              =   -2940.41310976 Ry
     estimated scf accuracy    <       0.00000004 Ry
     smearing contrib. (-TS)   =      -0.03731496 Ry
     internal energy E=F+TS    =   -2940.37579480 Ry

     The total energy is F=E-TS. E is the sum of the following terms:
     one-electron contribution =  -23553.55297615 Ry
     hartree contribution      =   11869.44947471 Ry
     xc contribution           =    -485.96710765 Ry
     ewald contribution        =    9229.69064217 Ry
     electric field correction =       0.00417212 Ry

     convergence has been achieved in  72 iterations

     Forces acting on atoms (cartesian axes, Ry/au):

     atom    1 type  1   force =    -0.00002907   -0.00018222    0.09331136
     atom    2 type  1   force =    -0.00015110   -0.00021896   -0.17811330
     atom    3 type  2   force =     0.00006370   -0.00020691   -0.02047353
     atom    4 type  2   force =     0.00000375   -0.00194864    0.05846577
     atom    5 type  2   force =    -0.01028834   -0.00135115    0.00736832
     atom    6 type  2   force =     0.01228373   -0.00075556    0.00786031
     atom    7 type  1   force =     0.00035989    0.00277663   -0.01405908
     atom    8 type  1   force =    -0.00056245    0.00105578   -0.00335470
     atom    9 type  2   force =     0.00003797    0.00049865   -0.00006833
     atom   10 type  2   force =    -0.00055322   -0.00103625   -0.00004787
     atom   11 type  2   force =     0.00008308    0.00011544    0.00004557
     atom   12 type  2   force =    -0.00025280    0.00016559   -0.00006767
     atom   13 type  1   force =    -0.00001726    0.00090282   -0.00027998
     atom   14 type  1   force =     0.00009589    0.00024745   -0.00017564
     atom   15 type  2   force =    -0.00013719    0.00011336    0.00097564
     atom   16 type  2   force =     0.00004570    0.00011261   -0.00004654
     atom   17 type  2   force =     0.00026296   -0.00029119    0.00004903
     atom   18 type  2   force =    -0.00020569   -0.00046293   -0.00048059
     atom   19 type  1   force =    -0.00066185   -0.00018417    0.00002846
     atom   20 type  1   force =    -0.00020362    0.00067689    0.00006773
     atom   21 type  2   force =    -0.00001947    0.00000664    0.10384326
     atom   22 type  2   force =    -0.00028806   -0.00066141   -0.00108631
     atom   23 type  2   force =    -0.07043164   -0.00007758   -0.02688737
     atom   24 type  2   force =     0.07026816    0.00035548   -0.02694090
     atom   25 type  1   force =     0.00004395   -0.00004581    0.09292810
     atom   26 type  1   force =    -0.00017098   -0.00018557   -0.17814271
     atom   27 type  2   force =     0.00012373   -0.00033404   -0.01948648
     atom   28 type  2   force =     0.00003189   -0.00167946    0.05804044
     atom   29 type  2   force =    -0.01039935   -0.00124794    0.00693938
     atom   30 type  2   force =     0.01228492   -0.00091940    0.00745054
     atom   31 type  1   force =     0.00034786    0.00516408   -0.01508437
     atom   32 type  1   force =    -0.00047066   -0.00161129   -0.00358067
     atom   33 type  2   force =    -0.00019584   -0.00021816   -0.00018195
     atom   34 type  2   force =     0.00029150   -0.00052459    0.00104797
     atom   35 type  2   force =    -0.00040733    0.00005292    0.00023671
     atom   36 type  2   force =     0.00033944   -0.00003001    0.00029858
     atom   37 type  1   force =    -0.00012062   -0.00043690   -0.00004424
     atom   38 type  1   force =     0.00013422    0.00033403   -0.00029638
     atom   39 type  2   force =    -0.00034694   -0.00043185    0.00116228
     atom   40 type  2   force =     0.00006845    0.00007156   -0.00017639
     atom   41 type  2   force =    -0.00002890    0.00022373   -0.00032390
     atom   42 type  2   force =    -0.00012688    0.00000696   -0.00041560
     atom   43 type  1   force =    -0.00081760   -0.00017584    0.00010775
     atom   44 type  1   force =     0.00010824    0.00050815    0.00003538
     atom   45 type  2   force =    -0.00000655    0.00000793    0.10382943
     atom   46 type  2   force =    -0.07045219   -0.00005002   -0.02689151
     atom   47 type  2   force =     0.07027920    0.00038977   -0.02696240
     atom   48 type  3   force =     0.00006293   -0.00078369    0.00018862
     atom   49 type  4   force =    -0.00077507    0.00052516   -0.00065022
     atom   50 type  5   force =     0.00014871   -0.00001947    0.00078983
     atom   51 type  3   force =     0.00099670   -0.00293706   -0.00361776
     atom   52 type  5   force =     0.00141421   -0.00041534    0.00063876
     atom   53 type  5   force =    -0.00033221    0.00149106   -0.00029654
     atom   54 type  5   force =    -0.00172789    0.00362068    0.00252373

     Total force =     0.365995     Total SCF correction =     0.000822
  @ DRIVER MODE: Message from server: STATUS
  @ DRIVER MODE: Message from server: GETFORCE
  @ DRIVER MODE: Returning v,forces,stress,ensemble

     Writing output data file ./calc.save/
  @ DRIVER MODE: Message from server: EXIT
  @ DRIVE MODE: Exiting

     General routines

     Parallel routines

   This run was terminated on:  10:53:37  24Aug2021

   JOB DONE.