     Program PWSCF v.6.7GPU starts on  2Aug2021 at 20:28: 5

     R & G space division:  proc/nbgrp/npool/nimage =      16
     Reading input from /storage/home/hcoda1/3/ntian30/research/carbon/02Aug_vib_paired/ads_slab/CH3N2H_a/out_0031/pw.inp
Warning: card &CELL ignored
Warning: card   CELL_DYNAMICS='IPI', ignored
Warning: card / ignored

     Current dimensions of program PWSCF are:
     Max number of different atomic species (ntypx) = 10
     Max number of k-points (npk) =  40000
     Max angular momentum in pseudopotentials (lmaxx) =  3
     Presently no symmetry can be used with electric field

     Message from routine cell_base_init:
     DEPRECATED: use true lattice parameter, not A to a.u. conversion factor

     IMPORTANT: XC functional enforced from input :
     Exchange-correlation= BEEF-VDW
                           (   1   4  43  14   2   0   0)
     Any further DFT definition will be discarded
     Please, verify this is what you really want

  @ DRIVER MODE: Connecting to
 qe_1139763_2482535.sched-torque.pace.gatech.edu4dlqy4om_scratch
  using UNIX socket
  @ DRIVER MODE: Message from server: STATUS
  @ DRIVER MODE: Message from server: INIT
  @ DRIVER MODE: Receiving replica           0          -1
  @ DRIVER MODE: Receiving encoded integer          25
  @ DRIVER MODE:  SCF:  T  FORCE:  T  STRESS:  F  VC:  F  ENSEMBLE:  F
  @ DRIVER MODE:  SCF:  T  FORCE:  T  STRESS:  F  VC:  F  ENSEMBLE:  F

     Using Slab Decomposition

     bravais-lattice index     =            0
     lattice parameter (alat)  =       1.8897  a.u.
     unit-cell volume          =    6658.9804 (a.u.)^3
     number of atoms/cell      =           54
     number of atomic types    =            5
     number of electrons       =       396.00
     number of Kohn-Sham states=          208
     kinetic-energy cutoff     =      29.3995  Ry
     charge density cutoff     =     293.9946  Ry
     scf convergence threshold =      7.3E-08
     mixing beta               =       0.0500
     number of iterations used =            8  plain     mixing
     Exchange-correlation= BEEF-VDW
                           (   1   4  43  14   2   0   0)

     celldm(1)=   1.889726  celldm(2)=   0.000000  celldm(3)=   0.000000
     celldm(4)=   0.000000  celldm(5)=   0.000000  celldm(6)=   0.000000

     crystal axes: (cart. coord. in units of alat)
               a(1) = (   6.579727   0.000000   0.000000 )
               a(2) = (  -0.000775   5.961596   0.000000 )
               a(3) = (   0.000000   0.000000  25.155947 )

     reciprocal axes: (cart. coord. in units 2 pi/alat)
               b(1) = (  0.151982  0.000020  0.000000 )
               b(2) = (  0.000000  0.167740  0.000000 )
               b(3) = (  0.000000  0.000000  0.039752 )

     PseudoPot. # 1 for Ti read from file:
     /storage/coda1/p-amedford6/0/shared/rich_project_chbe-medford/medford-share/data/pseudos_module/espresso/nninc/pbe/van/Ti.UPF
     MD5 check sum: 8e4df49b7f0d34bbd5052bf3f5ea0213
     Pseudo is Ultrasoft, Zval = 12.0
     Generated by new atomic code, or converted to UPF format
     Using radial grid of  851 points,  6 beta functions with:
                l(1) =   0
                l(2) =   0
                l(3) =   1
                l(4) =   1
                l(5) =   2
                l(6) =   2
     Q(r) pseudized with  8 coefficients,  rinner =    1.000   1.000   1.000
                                                       1.000   1.000

     PseudoPot. # 2 for O  read from file:
     /storage/coda1/p-amedford6/0/shared/rich_project_chbe-medford/medford-share/data/pseudos_module/espresso/nninc/pbe/van/O.UPF
     MD5 check sum: 78c19812648e8988a0fe644b0f25305e
     Pseudo is Ultrasoft, Zval =  6.0
     Generated by new atomic code, or converted to UPF format
     Using radial grid of  737 points,  4 beta functions with:
                l(1) =   0
                l(2) =   0
                l(3) =   1
                l(4) =   1
     Q(r) pseudized with  8 coefficients,  rinner =    0.800   0.800   0.800

     PseudoPot. # 3 for N  read from file:
     /storage/coda1/p-amedford6/0/shared/rich_project_chbe-medford/medford-share/data/pseudos_module/espresso/nninc/pbe/van/N.UPF
     MD5 check sum: 90d10febe142ad51ac9d5be1deb811c4
     Pseudo is Ultrasoft, Zval =  5.0
     Generated by new atomic code, or converted to UPF format
     Using radial grid of  729 points,  4 beta functions with:
                l(1) =   0
                l(2) =   0
                l(3) =   1
                l(4) =   1
     Q(r) pseudized with  8 coefficients,  rinner =    0.800   0.800   0.800

     PseudoPot. # 4 for C  read from file:
     /storage/coda1/p-amedford6/0/shared/rich_project_chbe-medford/medford-share/data/pseudos_module/espresso/nninc/pbe/van/C.UPF
     MD5 check sum: 1a69bf6b8db32088f5b2163dbdb77a27
     Pseudo is Ultrasoft, Zval =  4.0
     Generated by new atomic code, or converted to UPF format
     Using radial grid of  721 points,  4 beta functions with:
                l(1) =   0
                l(2) =   0
                l(3) =   1
                l(4) =   1
     Q(r) pseudized with  8 coefficients,  rinner =    0.800   0.800   0.800

     PseudoPot. # 5 for H  read from file:
     /storage/coda1/p-amedford6/0/shared/rich_project_chbe-medford/medford-share/data/pseudos_module/espresso/nninc/pbe/van/H.UPF
     MD5 check sum: b5ee9d7bfd3a09ee7748110bda690ff7
     Pseudo is Ultrasoft, Zval =  1.0
     Generated by new atomic code, or converted to UPF format
     Using radial grid of  615 points,  1 beta functions with:
                l(1) =   0
     Q(r) pseudized with  8 coefficients,  rinner =    0.800

     atomic species   valence    mass     pseudopotential
        Ti1           12.00    47.86700     Ti( 1.00)
        O1             6.00    15.99900     O ( 1.00)
        N1             5.00    14.00700     N ( 1.00)
        C1             4.00    12.01100     C ( 1.00)
        H1             1.00     1.00800     H ( 1.00)

     No symmetry found

   Cartesian axes

     site n.     atom                  positions (alat units)
         1           Ti1 tau(   1) = (   0.0004258   2.9801865   6.0000000  )
         2           Ti1 tau(   2) = (   3.2906075   1.4906267   6.0002472  )
         3           O1  tau(   3) = (   0.0006271   0.0005054   7.9858123  )
         4           O1  tau(   4) = (   3.2906025   0.0005020   7.3038282  )
         5           O1  tau(   5) = (   4.5942328   1.4918067   9.2879030  )
         6           O1  tau(   6) = (   1.9868534   1.4903216   9.2879459  )
         7           Ti1 tau(   7) = (   3.2907910   2.8959150   9.1758416  )
         8           Ti1 tau(   8) = (   0.0015273   1.4827037   9.2680791  )
         9           O1  tau(   9) = (   3.3106937   0.0084137  11.2927479  )
        10           O1  tau(  10) = (   0.0116148   5.9584955  10.6183126  )
        11           O1  tau(  11) = (   1.3255326   1.5151957  12.5859258  )
        12           O1  tau(  12) = (   5.3246634   1.4871208  12.6441624  )
        13           Ti1 tau(  13) = (   6.5358624   2.9940264  12.7507449  )
        14           Ti1 tau(  14) = (   3.1828407   1.5032771  12.4528579  )
        15           O1  tau(  15) = (   0.1336207   0.0073438  14.6266748  )
        16           O1  tau(  16) = (   3.2550344   0.0288700  13.8306396  )
        17           O1  tau(  17) = (   4.6334483   1.5013943  15.9792279  )
        18           O1  tau(  18) = (   2.1409664   1.5470880  15.9954950  )
        19           Ti1 tau(  19) = (   3.4798582   3.0305884  15.6593850  )
        20           Ti1 tau(  20) = (   0.1386493   1.3724552  15.8613965  )
        21           O1  tau(  21) = (   3.2904802   0.0005063   4.7018136  )
        22           O1  tau(  22) = (   0.1429122   0.0333940  17.1908172  )
        23           O1  tau(  23) = (   1.3043587   1.4918075   6.0039043  )
        24           O1  tau(  24) = (   5.2767064   1.4903225   6.0039473  )
        25           Ti1 tau(  25) = (   0.0000382   5.9609847   6.0000000  )
        26           Ti1 tau(  26) = (   3.2902200   4.4714249   6.0002472  )
        27           O1  tau(  27) = (   0.0002396   2.9813036   7.9858123  )
        28           O1  tau(  28) = (   3.2902150   2.9813002   7.3038282  )
        29           O1  tau(  29) = (   4.5938453   4.4726049   9.2879030  )
        30           O1  tau(  30) = (   1.9864658   4.4711199   9.2879459  )
        31           Ti1 tau(  31) = (   3.2891106   5.8743827   9.1763621  )
        32           Ti1 tau(  32) = (   0.0006254   4.4649316   9.2693709  )
        33           O1  tau(  33) = (   3.3137399   2.9960163  11.2943833  )
        34           O1  tau(  34) = (   0.0092240   2.9805883  10.6323155  )
        35           O1  tau(  35) = (   1.3234708   4.4688006  12.5930975  )
        36           O1  tau(  36) = (   5.3222282   4.4932535  12.6449723  )
        37           Ti1 tau(  37) = (   6.5041614   0.0053836  12.5833808  )
        38           Ti1 tau(  38) = (   3.1843229   4.4812189  12.4522442  )
        39           O1  tau(  39) = (   0.0584892   2.9792810  14.6723703  )
        40           O1  tau(  40) = (   3.3232524   2.9928384  13.8523860  )
        41           O1  tau(  41) = (   4.6237859   4.5837569  15.7472905  )
        42           O1  tau(  42) = (   2.1882403   4.4693611  16.1038286  )
        43           Ti1 tau(  43) = (   3.3015484   0.0242660  15.6383815  )
        44           Ti1 tau(  44) = (   0.0181797   4.4930750  16.1931172  )
        45           O1  tau(  45) = (   3.2900926   2.9813045   4.7018136  )
        46           O1  tau(  46) = (   1.3039711   4.4726057   6.0039043  )
        47           O1  tau(  47) = (   5.2763189   4.4711207   6.0039473  )
        48           N1  tau(  48) = (   0.2677213   2.8760844  17.5655548  )
        49           C1  tau(  49) = (   1.2271684   2.7639891  18.6598760  )
        50           H1  tau(  50) = (   1.2930054   3.7106696  19.2072709  )
        51           H1  tau(  51) = (   0.8976878   1.9730418  19.3402421  )
        52           H1  tau(  52) = (   2.2102292   2.4972526  18.2850250  )
        53           N1  tau(  53) = (   5.6632178   3.4927010  17.8452151  )
        54           H1  tau(  54) = (   5.7345573   4.0058295  18.7343860  )

     number of k points=    10  Fermi-Dirac smearing, width (Ry)=  0.0073
                       cart. coord. in units 2pi/alat
        k(    1) = (   0.0000000   0.0000000   0.0000000), wk =   0.1250000
        k(    2) = (   0.0000000   0.0419351   0.0000000), wk =   0.2500000
        k(    3) = (   0.0000000  -0.0838702   0.0000000), wk =   0.1250000
        k(    4) = (   0.0379955   0.0000049   0.0000000), wk =   0.2500000
        k(    5) = (   0.0379955   0.0419400   0.0000000), wk =   0.2500000
        k(    6) = (   0.0379955  -0.0838652   0.0000000), wk =   0.2500000
        k(    7) = (   0.0379955  -0.0419301   0.0000000), wk =   0.2500000
        k(    8) = (  -0.0759910  -0.0000099   0.0000000), wk =   0.1250000
        k(    9) = (  -0.0759910   0.0419252   0.0000000), wk =   0.2500000
        k(   10) = (  -0.0759910  -0.0838800   0.0000000), wk =   0.1250000

     Initial potential from superposition of free atoms

     starting charge  379.99915, renormalised to  396.00000

     negative rho (up, down):  1.687E-02 0.000E+00

     %%%%%%%%%%%%%%%%%%%%%%%%%%%%%%%%%%%%%%%%%%%%%%%%%%%%%%%%%%%%%%%%%%%%%%%%
     %                                                                      %
     % You are using vdW-DF, which was implemented by the Thonhauser group. %
     % Please cite the following two papers that made this development      %
     % possible and the two reviews that describe the various versions:     %
     %                                                                      %
     %   T. Thonhauser et al., PRL 115, 136402 (2015).                      %
     %   T. Thonhauser et al., PRB 76, 125112 (2007).                       %
     %   K. Berland et al., Rep. Prog. Phys. 78, 066501 (2015).             %
     %   D.C. Langreth et al., J. Phys.: Condens. Matter 21, 084203 (2009). %
     %                                                                      %
     %                                                                      %
     % If you are calculating the stress with vdW-DF, please also cite:     %
     %                                                                      %
     %   R. Sabatini et al., J. Phys.: Condens. Matter 24, 424209 (2012).   %
     %                                                                      %
     %%%%%%%%%%%%%%%%%%%%%%%%%%%%%%%%%%%%%%%%%%%%%%%%%%%%%%%%%%%%%%%%%%%%%%%%

     Adding external electric field

     Computed dipole along edir(3) :
        Dipole               -8.2222 Ry au,        -20.8988 Debye
        Dipole field         -0.0155 Ry au,

        Potential amp.        1.4384 Ry
        Total length         46.3494 bohr

     Starting wfcs are  300 atomic wfcs
  @ DRIVER MODE: Message from server: STATUS
  @ DRIVER MODE: Message from server: POSDATA
  @ DRIVER MODE: Reading and sharing cell
  @ DRIVER MODE: Reading and sharing positions
  @ DRIVER MODE: Received positions

     Self-consistent Calculation

     iteration #  1     ecut=    29.40 Ry     beta= 0.05
     Davidson diagonalization with overlap
     c_bands:  1 eigenvalues not converged
     c_bands:  1 eigenvalues not converged
     c_bands:  1 eigenvalues not converged
     c_bands:  1 eigenvalues not converged
     c_bands:  4 eigenvalues not converged
     c_bands:  1 eigenvalues not converged
     c_bands:  4 eigenvalues not converged
     c_bands:  2 eigenvalues not converged
     c_bands:  1 eigenvalues not converged
     ethr =  1.00E-05,  avg # of iterations = 19.9

[...]

     total energy              =   -2607.35616068 Ry
     estimated scf accuracy    <    3677.85652527 Ry

     iteration #  2     ecut=    29.40 Ry     beta= 0.05
     Davidson diagonalization with overlap
     ethr =  1.00E-02,  avg # of iterations = 22.0

[...]

     iteration # 44     ecut=    29.40 Ry     beta= 0.05
     Davidson diagonalization with overlap
     c_bands:  1 eigenvalues not converged
     ethr =  1.48E-06,  avg # of iterations = 11.2

[...]

     total energy              =   -2940.35208675 Ry
     estimated scf accuracy    <       0.00000034 Ry

     iteration # 65     ecut=    29.40 Ry     beta= 0.05
     Davidson diagonalization with overlap
     ethr =  3.11E-11,  avg # of iterations =  6.0

     negative rho (up, down):  1.746E-02 0.000E+00

     Adding external electric field

     Computed dipole along edir(3) :
        Dipole                0.7247 Ry au,          1.8419 Debye
        Dipole field          0.0014 Ry au,

        Potential amp.       -0.1268 Ry
        Total length         46.3494 bohr

     End of self-consistent calculation

          k = 0.0000 0.0000 0.0000 ( 18029 PWs)   bands (ev):

   -56.0354 -56.0014 -55.8112 -55.7723 -55.7364 -55.7019 -55.6705 -55.6501
   -55.6362 -55.6154 -55.5764 -55.4962 -55.2420 -54.9307 -54.8967 -54.7894
   -32.5020 -32.3531 -32.3295 -32.3059 -32.2034 -32.1903 -32.1731 -32.1396
   -32.1248 -32.1056 -32.0964 -32.0521 -32.0226 -31.9881 -31.9867 -31.9800
   -31.9529 -31.9378 -31.9212 -31.9074 -31.8939 -31.8784 -31.8753 -31.8612
   -31.8502 -31.8444 -31.8403 -31.8322 -31.8307 -31.8043 -31.8036 -31.7992
   -31.7831 -31.7628 -31.6926 -31.6657 -31.6169 -31.4684 -31.4654 -31.3342
   -31.2550 -31.2320 -31.2060 -31.1515 -31.0655 -30.9916 -30.9542 -30.9150
   -17.1976 -16.5664 -16.3781 -16.0880 -15.9348 -15.9071 -15.7939 -15.7004
   -15.6253 -15.5262 -15.4674 -15.4175 -15.4065 -15.3756 -15.3161 -15.2986
   -15.2538 -15.2397 -15.1945 -15.1795 -15.1307 -15.1201 -15.0919 -15.0509
   -14.9934 -14.9212 -14.9126 -14.7458 -14.6159 -14.4561 -13.4319 -13.3170
   -11.5378  -8.3040  -4.9645  -3.9849  -3.9539  -3.8867  -3.8129  -3.7813
    -3.7013  -3.4507  -3.4182  -3.3616  -3.0809  -3.0312  -3.0072  -3.0024
    -2.9034  -2.7683  -2.7364  -2.6759  -2.6688  -2.6505  -2.6265  -2.6114
    -2.5527  -2.4914  -2.4788  -2.4366  -2.3100  -2.2783  -2.2709  -2.2521
    -2.1816  -2.1734  -2.1074  -2.0937  -2.0688  -2.0534  -2.0116  -1.8776
    -1.8427  -1.7773  -1.6939  -1.6118  -1.5340  -1.4931  -1.3987  -1.3976
    -1.3259  -1.2713  -1.2385  -1.1818  -1.1546  -1.0705  -1.0475  -1.0111
    -0.9070  -0.8734  -0.8150  -0.7574  -0.7194  -0.7012  -0.6647  -0.6399
    -0.6322  -0.6132  -0.6027  -0.4046  -0.3817  -0.2373  -0.1928  -0.1668
    -0.1275  -0.1007  -0.0433  -0.0250  -0.0159   0.0195   0.0378   0.0823
     0.1402   0.1562   0.1802   0.2777   0.3107   0.3635   0.4892   0.5000
     0.5911   0.6547   0.7658   0.7723   0.8264   0.9598   1.0489   1.0772
     1.0916   1.2970   1.4066   1.6555   1.6979   3.0129   3.1584   3.2539
     3.3633   3.4842   3.5633   3.5960   3.7764   3.8184   3.8582   3.9060

[...]

          k = 0.0380-0.0419 0.0000 ( 17876 PWs)   bands (ev):

[...]

          k =-0.0760-0.0000 0.0000 ( 17886 PWs)   bands (ev):

[...]

          k =-0.0760-0.0839 0.0000 ( 17948 PWs)   bands (ev):

   -56.0193 -56.0174 -55.7991 -55.7842 -55.7228 -55.7153 -55.6553 -55.6514
   -55.6367 -55.6288 -55.5725 -55.5000 -55.2414 -54.9138 -54.9136 -54.7899
   -32.3183 -32.3175 -32.3152 -32.3135 -32.1607 -32.1484 -32.1423 -32.1402
   -32.0568 -32.0440 -32.0355 -32.0338 -32.0275 -32.0212 -31.9815 -31.9761
   -31.9626 -31.9504 -31.9143 -31.9137 -31.9015 -31.8970 -31.8919 -31.8880
   -31.8783 -31.8762 -31.8662 -31.8597 -31.8514 -31.8464 -31.8456 -31.8243
   -31.8012 -31.7974 -31.7654 -31.7064 -31.6076 -31.4708 -31.4649 -31.2562
   -31.2449 -31.2447 -31.1476 -31.1473 -31.1087 -31.1085 -31.0035 -30.9189
   -17.1763 -15.9820 -15.9539 -15.8520 -15.8328 -15.7406 -15.7277 -15.6140
   -15.6057 -15.5916 -15.5256 -15.4824 -15.4713 -15.3829 -15.3594 -15.3464
   -15.3255 -15.3162 -15.3088 -15.2971 -15.2781 -15.2079 -15.2025 -15.1893
   -15.1158 -15.0981 -14.9069 -14.8645 -14.6628 -14.6273 -13.4195 -13.4190
   -11.5415  -8.2837  -4.9705  -3.8792  -3.8080  -3.2839  -3.2479  -3.0371
    -3.0081  -2.9879  -2.9622  -2.7756  -2.7612  -2.7567  -2.7372  -2.7239
    -2.6862  -2.6671  -2.6535  -2.5888  -2.5779  -2.5611  -2.5567  -2.5434
    -2.5257  -2.5108  -2.5025  -2.4835  -2.4619  -2.4183  -2.3635  -2.3428
    -2.2889  -2.1954  -2.0902  -2.0521  -2.0412  -2.0319  -2.0085  -1.9996
    -1.9548  -1.9423  -1.8579  -1.6641  -1.6186  -1.5671  -1.5602  -1.5345
    -1.4862  -1.4326  -1.3799  -1.3060  -1.2476  -1.1976  -1.1663  -1.1460
    -1.1062  -1.0412  -0.9763  -0.9561  -0.9421  -0.9197  -0.9178  -0.8922
    -0.8142  -0.7270  -0.6910  -0.6621  -0.6401  -0.6279  -0.6128  -0.5858
    -0.4727  -0.4135  -0.3650  -0.3186  -0.2706  -0.2327  -0.1142  -0.1005
     0.1032   0.1594   0.1807   0.2648   0.3616   0.3836   0.3917   0.4640
     0.5381   0.6018   0.6372   0.6896   0.7015   0.7251   0.7913   1.0099
     1.0604   1.4657   1.4673   1.5160   1.5171   2.9750   3.6618   3.6677
     3.6711   3.6804   3.7040   3.7286   3.7823   3.8171   3.9136   3.9344

     the Fermi energy is     3.1226 ev

!    total energy              =   -2940.35212163 Ry
     estimated scf accuracy    <       0.00000004 Ry
     smearing contrib. (-TS)   =      -0.01856742 Ry
     internal energy E=F+TS    =   -2940.33355421 Ry

     The total energy is F=E-TS. E is the sum of the following terms:
     one-electron contribution =  -24661.19444706 Ry
     hartree contribution      =   12419.66509162 Ry
     xc contribution           =    -486.03896979 Ry
     ewald contribution        =    9787.23378001 Ry
     electric field correction =       0.00099100 Ry

     convergence has been achieved in  65 iterations

     Forces acting on atoms (cartesian axes, Ry/au):

     atom    1 type  1   force =     0.00025790   -0.00036374    0.10157369
     atom    2 type  1   force =     0.00004584   -0.00086649   -0.17133485
     atom    3 type  2   force =     0.00029249    0.00021825   -0.03330504
     atom    4 type  2   force =     0.00003327   -0.00078461    0.04472888
     atom    5 type  2   force =    -0.01194633   -0.00019874   -0.00237580
     atom    6 type  2   force =     0.01438541    0.00039672   -0.00118036
     atom    7 type  1   force =     0.00140399   -0.00129426   -0.00412014
     atom    8 type  1   force =    -0.00078383    0.02218037    0.05638046
     atom    9 type  2   force =     0.00003839   -0.00033043    0.00028857
     atom   10 type  2   force =    -0.00265721    0.00207909   -0.02622821
     atom   11 type  2   force =     0.00001577    0.00024768   -0.00015352
     atom   12 type  2   force =     0.00014242    0.00071816   -0.00006943
     atom   13 type  1   force =    -0.00002783    0.00014372    0.00073535
     atom   14 type  1   force =     0.00025159    0.00027202    0.00032906
     atom   15 type  2   force =     0.00025153   -0.00030462   -0.00046467
     atom   16 type  2   force =    -0.00004065   -0.00012308    0.00030924
     atom   17 type  2   force =    -0.00020898   -0.00093794   -0.00031770
     atom   18 type  2   force =     0.00050802   -0.00075367    0.00010844
     atom   19 type  1   force =     0.00014331   -0.00044145    0.00099281
     atom   20 type  1   force =    -0.00003573    0.00031333    0.00080964
     atom   21 type  2   force =     0.00006741   -0.00000997    0.10206721
     atom   22 type  2   force =    -0.00010153   -0.00046035   -0.00010142
     atom   23 type  2   force =    -0.07328960   -0.00015292   -0.02888919
     atom   24 type  2   force =     0.07324125    0.00033371   -0.02894042
     atom   25 type  1   force =    -0.00029014   -0.00033701    0.10202968
     atom   26 type  1   force =     0.00003031   -0.00017689   -0.17133908
     atom   27 type  2   force =     0.00036616   -0.00022836   -0.03202260
     atom   28 type  2   force =     0.00008954   -0.00056315    0.04534095
     atom   29 type  2   force =    -0.01209701    0.00213703   -0.00293096
     atom   30 type  2   force =     0.01441067    0.00229676   -0.00167970
     atom   31 type  1   force =     0.00158443    0.00092154   -0.00545166
     atom   32 type  1   force =    -0.00059231   -0.02474559    0.05744170
     atom   33 type  2   force =     0.00015674    0.00036163    0.00044530
     atom   34 type  2   force =    -0.00420400    0.00212265   -0.04859700
     atom   35 type  2   force =     0.00060289   -0.00058724   -0.00008530
     atom   36 type  2   force =    -0.00035686   -0.00073238    0.00004308
     atom   37 type  1   force =     0.00005036    0.00060644    0.00043319
     atom   38 type  1   force =     0.00000416   -0.00013523    0.00020875
     atom   39 type  2   force =     0.00018916    0.00001127   -0.00107973
     atom   40 type  2   force =    -0.00012371   -0.00004244   -0.00076587
     atom   41 type  2   force =    -0.00013233    0.00077211   -0.00070317
     atom   42 type  2   force =     0.00005351    0.00042297    0.00052676
     atom   43 type  1   force =    -0.00012781   -0.00019131    0.00062492
     atom   44 type  1   force =    -0.00053428   -0.00053821    0.00186625
     atom   45 type  2   force =     0.00004344   -0.00004893    0.10213366
     atom   46 type  2   force =    -0.07329636   -0.00009456   -0.02886658
     atom   47 type  2   force =     0.07324866    0.00028495   -0.02890293
     atom   48 type  3   force =    -0.00851063    0.00406968   -0.00019788
     atom   49 type  4   force =    -0.00191386    0.00010620    0.00002253
     atom   50 type  5   force =     0.00008040   -0.00020410    0.00005625
     atom   51 type  5   force =    -0.00044889   -0.00046564    0.00061991
     atom   52 type  5   force =    -0.00022068   -0.00036734   -0.00000209
     atom   53 type  3   force =     0.01136212   -0.00422512    0.00112456
     atom   54 type  5   force =    -0.00141060   -0.00031050   -0.00113557

     Total force =     0.378168     Total SCF correction =     0.000481
  @ DRIVER MODE: Message from server: STATUS
  @ DRIVER MODE: Message from server: GETFORCE
  @ DRIVER MODE: Returning v,forces,stress,ensemble

     Writing output data file ./calc.save/
  @ DRIVER MODE: Message from server: EXIT
  @ DRIVE MODE: Exiting

     General routines

     Parallel routines

   This run was terminated on:  20:42:17   2Aug2021

   JOB DONE.