     Program PWSCF v.6.7GPU starts on 16Sep2021 at  2: 3:11

     R & G space division:  proc/nbgrp/npool/nimage =      10
     Reading input from /storage/home/hcoda1/3/ntian30/research/carbon/CxH_vib/H2O_calc/ads_slab/CH3NH2O_a/out_0034/pw.inp
Warning: card &CELL ignored
Warning: card   CELL_DYNAMICS='IPI', ignored
Warning: card / ignored

     Current dimensions of program PWSCF are:
     Max number of different atomic species (ntypx) = 10
     Max number of k-points (npk) =  40000
     Max angular momentum in pseudopotentials (lmaxx) =  3
     Presently no symmetry can be used with electric field

     Message from routine cell_base_init:
     DEPRECATED: use true lattice parameter, not A to a.u. conversion factor

     IMPORTANT: XC functional enforced from input :
     Exchange-correlation= BEEF-VDW
                           (   1   4  43  14   2   0   0)
     Any further DFT definition will be discarded
     Please, verify this is what you really want

  @ DRIVER MODE: Connecting to
 qe_1139763_2852618.sched-torque.pace.gatech.edu9qlzed1x_scratch
  using UNIX socket
  @ DRIVER MODE: Message from server: STATUS
  @ DRIVER MODE: Message from server: INIT
  @ DRIVER MODE: Receiving replica           0          -1
  @ DRIVER MODE: Receiving encoded integer          25
  @ DRIVER MODE:  SCF:  T  FORCE:  T  STRESS:  F  VC:  F  ENSEMBLE:  F
  @ DRIVER MODE:  SCF:  T  FORCE:  T  STRESS:  F  VC:  F  ENSEMBLE:  F

     Using Slab Decomposition

     bravais-lattice index     =            0
     lattice parameter (alat)  =       1.8897  a.u.
     unit-cell volume          =    6658.9804 (a.u.)^3
     number of atoms/cell      =           55
     number of atomic types    =            5
     number of electrons       =       398.00
     number of Kohn-Sham states=          209
     kinetic-energy cutoff     =      29.3995  Ry
     charge density cutoff     =     293.9946  Ry
     scf convergence threshold =      7.3E-08
     mixing beta               =       0.0500
     number of iterations used =            8  plain     mixing
     Exchange-correlation= BEEF-VDW
                           (   1   4  43  14   2   0   0)

     celldm(1)=   1.889726  celldm(2)=   0.000000  celldm(3)=   0.000000
     celldm(4)=   0.000000  celldm(5)=   0.000000  celldm(6)=   0.000000

     crystal axes: (cart. coord. in units of alat)
               a(1) = (   6.579727   0.000000   0.000000 )
               a(2) = (  -0.000775   5.961596   0.000000 )
               a(3) = (   0.000000   0.000000  25.155947 )

     reciprocal axes: (cart. coord. in units 2 pi/alat)
               b(1) = (  0.151982  0.000020  0.000000 )
               b(2) = (  0.000000  0.167740  0.000000 )
               b(3) = (  0.000000  0.000000  0.039752 )

     PseudoPot. # 1 for Ti read from file:
     /storage/coda1/p-amedford6/0/shared/rich_project_chbe-medford/medford-share/data/pseudos_module/espresso/nninc/pbe/van/Ti.UPF
     MD5 check sum: 8e4df49b7f0d34bbd5052bf3f5ea0213
     Pseudo is Ultrasoft, Zval = 12.0
     Generated by new atomic code, or converted to UPF format
     Using radial grid of  851 points,  6 beta functions with:
                l(1) =   0
                l(2) =   0
                l(3) =   1
                l(4) =   1
                l(5) =   2
                l(6) =   2
     Q(r) pseudized with  8 coefficients,  rinner =    1.000   1.000   1.000
                                                       1.000   1.000

     PseudoPot. # 2 for O  read from file:
     /storage/coda1/p-amedford6/0/shared/rich_project_chbe-medford/medford-share/data/pseudos_module/espresso/nninc/pbe/van/O.UPF
     MD5 check sum: 78c19812648e8988a0fe644b0f25305e
     Pseudo is Ultrasoft, Zval =  6.0
     Generated by new atomic code, or converted to UPF format
     Using radial grid of  737 points,  4 beta functions with:
                l(1) =   0
                l(2) =   0
                l(3) =   1
                l(4) =   1
     Q(r) pseudized with  8 coefficients,  rinner =    0.800   0.800   0.800

     PseudoPot. # 3 for N  read from file:
     /storage/coda1/p-amedford6/0/shared/rich_project_chbe-medford/medford-share/data/pseudos_module/espresso/nninc/pbe/van/N.UPF
     MD5 check sum: 90d10febe142ad51ac9d5be1deb811c4
     Pseudo is Ultrasoft, Zval =  5.0
     Generated by new atomic code, or converted to UPF format
     Using radial grid of  729 points,  4 beta functions with:
                l(1) =   0
                l(2) =   0
                l(3) =   1
                l(4) =   1
     Q(r) pseudized with  8 coefficients,  rinner =    0.800   0.800   0.800

     PseudoPot. # 4 for C  read from file:
     /storage/coda1/p-amedford6/0/shared/rich_project_chbe-medford/medford-share/data/pseudos_module/espresso/nninc/pbe/van/C.UPF
     MD5 check sum: 1a69bf6b8db32088f5b2163dbdb77a27
     Pseudo is Ultrasoft, Zval =  4.0
     Generated by new atomic code, or converted to UPF format
     Using radial grid of  721 points,  4 beta functions with:
                l(1) =   0
                l(2) =   0
                l(3) =   1
                l(4) =   1
     Q(r) pseudized with  8 coefficients,  rinner =    0.800   0.800   0.800

     PseudoPot. # 5 for H  read from file:
     /storage/coda1/p-amedford6/0/shared/rich_project_chbe-medford/medford-share/data/pseudos_module/espresso/nninc/pbe/van/H.UPF
     MD5 check sum: b5ee9d7bfd3a09ee7748110bda690ff7
     Pseudo is Ultrasoft, Zval =  1.0
     Generated by new atomic code, or converted to UPF format
     Using radial grid of  615 points,  1 beta functions with:
                l(1) =   0
     Q(r) pseudized with  8 coefficients,  rinner =    0.800

     atomic species   valence    mass     pseudopotential
        Ti1           12.00    47.86700     Ti( 1.00)
        O1             6.00    15.99900     O ( 1.00)
        N1             5.00    14.00700     N ( 1.00)
        C1             4.00    12.01100     C ( 1.00)
        H1             1.00     1.00800     H ( 1.00)

     No symmetry found

   Cartesian axes

     site n.     atom                  positions (alat units)
         1           Ti1 tau(   1) = (   0.0004258   2.9801865   6.0000000  )
         2           Ti1 tau(   2) = (   3.2906075   1.4906267   6.0002472  )
         3           O1  tau(   3) = (   0.0006271   0.0005054   7.9858123  )
         4           O1  tau(   4) = (   3.2906025   0.0005020   7.3038282  )
         5           O1  tau(   5) = (   4.5942328   1.4918067   9.2879030  )
         6           O1  tau(   6) = (   1.9868534   1.4903216   9.2879459  )
         7           Ti1 tau(   7) = (   3.2907910   2.8959150   9.1758416  )
         8           Ti1 tau(   8) = (   0.0015273   1.4827037   9.2680791  )
         9           O1  tau(   9) = (   3.2951577   0.0167633  11.2896499  )
        10           O1  tau(  10) = (   0.0116148   5.9584955  10.6183126  )
        11           O1  tau(  11) = (   1.3222759   1.5071707  12.6129440  )
        12           O1  tau(  12) = (   5.3060066   1.5095485  12.6267335  )
        13           Ti1 tau(  13) = (   6.4824898   3.0013615  12.7357613  )
        14           Ti1 tau(  14) = (   3.1735365   1.4973312  12.4739500  )
        15           O1  tau(  15) = (   0.0245190   0.0017265  14.5963640  )
        16           O1  tau(  16) = (   3.2983568   0.0259644  13.8884976  )
        17           O1  tau(  17) = (   4.5535709   1.5599051  15.9919625  )
        18           O1  tau(  18) = (   2.0723989   1.5598234  15.9883263  )
        19           Ti1 tau(  19) = (   3.3263631   3.0313633  15.6478355  )
        20           Ti1 tau(  20) = (   0.0083359   1.6222165  16.0589653  )
        21           O1  tau(  21) = (   3.2904802   0.0005063   4.7018136  )
        22           O1  tau(  22) = (   0.0206953   0.0548308  17.2083480  )
        23           O1  tau(  23) = (   1.3043587   1.4918075   6.0039043  )
        24           O1  tau(  24) = (   5.2767064   1.4903225   6.0039473  )
        25           Ti1 tau(  25) = (   0.0000382   5.9609847   6.0000000  )
        26           Ti1 tau(  26) = (   3.2902200   4.4714249   6.0002472  )
        27           O1  tau(  27) = (   0.0002396   2.9813036   7.9858123  )
        28           O1  tau(  28) = (   3.2902150   2.9813002   7.3038282  )
        29           O1  tau(  29) = (   4.5938453   4.4726049   9.2879030  )
        30           O1  tau(  30) = (   1.9864658   4.4711199   9.2879459  )
        31           Ti1 tau(  31) = (   3.2891106   5.8743827   9.1763621  )
        32           Ti1 tau(  32) = (   0.0006254   4.4649316   9.2693709  )
        33           O1  tau(  33) = (   3.2909539   2.9954008  11.2901670  )
        34           O1  tau(  34) = (   0.0092240   2.9805883  10.6323155  )
        35           O1  tau(  35) = (   1.3211080   4.4795309  12.6092917  )
        36           O1  tau(  36) = (   5.3058445   4.4798052  12.6251394  )
        37           Ti1 tau(  37) = (   6.5140999   0.0198189  12.7603067  )
        38           Ti1 tau(  38) = (   3.1705570   4.4938763  12.4677136  )
        39           O1  tau(  39) = (   0.0016069   2.9863809  14.6467327  )
        40           O1  tau(  40) = (   3.3112668   3.0122049  13.8485686  )
        41           O1  tau(  41) = (   4.5534170   4.5051619  16.0179686  )
        42           O1  tau(  42) = (   2.0797414   4.5084034  16.0201905  )
        43           Ti1 tau(  43) = (   3.2815144   0.0627375  15.7417980  )
        44           Ti1 tau(  44) = (   0.0076503   4.5954094  16.1032789  )
        45           O1  tau(  45) = (   3.2900926   2.9813045   4.7018136  )
        46           O1  tau(  46) = (   1.3039711   4.4726057   6.0039043  )
        47           O1  tau(  47) = (   5.2763189   4.4711207   6.0039473  )
        48           N1  tau(  48) = (   0.0651939   3.0276870  17.3150544  )
        49           C1  tau(  49) = (   0.3375872   3.0185870  18.7284822  )
        50           H1  tau(  50) = (   0.4544735   4.0311245  19.1352477  )
        51           H1  tau(  51) = (   6.1015407   2.5302758  19.2785169  )
        52           H1  tau(  52) = (   1.2508204   2.4494767  18.9518403  )
        53           O1  tau(  53) = (   3.3357083   0.1259715  18.1615364  )
        54           H1  tau(  54) = (   4.1514219   5.6051498  18.3929375  )
        55           H1  tau(  55) = (   2.5926282   5.5337384  18.4710493  )

     number of k points=    10  Fermi-Dirac smearing, width (Ry)=  0.0073
                       cart. coord. in units 2pi/alat
        k(    1) = (   0.0000000   0.0000000   0.0000000), wk =   0.1250000
        k(    2) = (   0.0000000   0.0419351   0.0000000), wk =   0.2500000
        k(    3) = (   0.0000000  -0.0838702   0.0000000), wk =   0.1250000
        k(    4) = (   0.0379955   0.0000049   0.0000000), wk =   0.2500000
        k(    5) = (   0.0379955   0.0419400   0.0000000), wk =   0.2500000
        k(    6) = (   0.0379955  -0.0838652   0.0000000), wk =   0.2500000
        k(    7) = (   0.0379955  -0.0419301   0.0000000), wk =   0.2500000
        k(    8) = (  -0.0759910  -0.0000099   0.0000000), wk =   0.1250000
        k(    9) = (  -0.0759910   0.0419252   0.0000000), wk =   0.2500000
        k(   10) = (  -0.0759910  -0.0838800   0.0000000), wk =   0.1250000

     Initial potential from superposition of free atoms

     starting charge  381.99915, renormalised to  398.00000

     negative rho (up, down):  1.656E-02 0.000E+00

     %%%%%%%%%%%%%%%%%%%%%%%%%%%%%%%%%%%%%%%%%%%%%%%%%%%%%%%%%%%%%%%%%%%%%%%%
     %                                                                      %
     % You are using vdW-DF, which was implemented by the Thonhauser group. %
     % Please cite the following two papers that made this development      %
     % possible and the two reviews that describe the various versions:     %
     %                                                                      %
     %   T. Thonhauser et al., PRL 115, 136402 (2015).                      %
     %   T. Thonhauser et al., PRB 76, 125112 (2007).                       %
     %   K. Berland et al., Rep. Prog. Phys. 78, 066501 (2015).             %
     %   D.C. Langreth et al., J. Phys.: Condens. Matter 21, 084203 (2009). %
     %                                                                      %
     %                                                                      %
     % If you are calculating the stress with vdW-DF, please also cite:     %
     %                                                                      %
     %   R. Sabatini et al., J. Phys.: Condens. Matter 24, 424209 (2012).   %
     %                                                                      %
     %%%%%%%%%%%%%%%%%%%%%%%%%%%%%%%%%%%%%%%%%%%%%%%%%%%%%%%%%%%%%%%%%%%%%%%%

     Adding external electric field

     Computed dipole along edir(3) :
        Dipole               -9.1079 Ry au,        -23.1500 Debye
        Dipole field         -0.0172 Ry au,

        Potential amp.        1.5933 Ry
        Total length         46.3494 bohr

     Starting wfcs are  301 atomic wfcs
  @ DRIVER MODE: Message from server: STATUS
  @ DRIVER MODE: Message from server: POSDATA
  @ DRIVER MODE: Reading and sharing cell
  @ DRIVER MODE: Reading and sharing positions
  @ DRIVER MODE: Received positions

     Self-consistent Calculation

     iteration #  1     ecut=    29.40 Ry     beta= 0.05
     Davidson diagonalization with overlap
     c_bands:  1 eigenvalues not converged
     c_bands:  1 eigenvalues not converged
     c_bands:  1 eigenvalues not converged
     c_bands:  1 eigenvalues not converged
     c_bands:  1 eigenvalues not converged
     c_bands:  1 eigenvalues not converged
     c_bands:  1 eigenvalues not converged
     c_bands:  2 eigenvalues not converged
     ethr =  1.00E-05,  avg # of iterations = 19.6

[...]

     total energy              =   -2564.54678029 Ry
     estimated scf accuracy    <    4317.19919107 Ry

     iteration #  2     ecut=    29.40 Ry     beta= 0.05
     Davidson diagonalization with overlap
     ethr =  1.00E-02,  avg # of iterations = 23.6

[...]

     iteration # 39     ecut=    29.40 Ry     beta= 0.05
     Davidson diagonalization with overlap
     c_bands:  4 eigenvalues not converged
     c_bands:  1 eigenvalues not converged
     c_bands:  1 eigenvalues not converged
     ethr =  1.96E-06,  avg # of iterations =  8.6

[...]

     total energy              =   -2953.97098539 Ry
     estimated scf accuracy    <       0.00000012 Ry

     iteration # 79     ecut=    29.40 Ry     beta= 0.05
     Davidson diagonalization with overlap
     ethr =  3.07E-11,  avg # of iterations =  5.4

     negative rho (up, down):  1.668E-02 0.000E+00

     Adding external electric field

     Computed dipole along edir(3) :
        Dipole                0.5300 Ry au,          1.3470 Debye
        Dipole field          0.0010 Ry au,

        Potential amp.       -0.0927 Ry
        Total length         46.3494 bohr

     End of self-consistent calculation

          k = 0.0000 0.0000 0.0000 ( 18029 PWs)   bands (ev):

   -56.5948 -56.5612 -55.7127 -55.6788 -55.6683 -55.6336 -55.4920 -55.4558
   -55.3619 -55.2430 -55.2306 -55.2279 -55.2091 -55.1325 -54.7257 -54.6760
   -33.0215 -32.8693 -32.8411 -32.7712 -32.6802 -32.6476 -32.1806 -32.1509
   -32.0276 -31.9775 -31.9298 -31.9104 -31.8815 -31.8710 -31.8436 -31.8375
   -31.8182 -31.8136 -31.7914 -31.7752 -31.7679 -31.7118 -31.7071 -31.6697
   -31.6561 -31.6340 -31.6268 -31.6182 -31.5957 -31.5869 -31.5827 -31.5585
   -31.4659 -31.4531 -31.4201 -31.4063 -31.3800 -31.3699 -31.3567 -31.3377
   -31.3098 -31.2589 -31.2404 -30.9693 -30.9480 -30.9182 -30.8942 -30.7852
   -18.7415 -16.7501 -16.2867 -16.0456 -15.9509 -15.8688 -15.8289 -15.7857
   -15.6386 -15.5651 -15.5452 -15.5427 -15.4751 -15.3310 -15.2768 -15.1790
   -15.0931 -14.9517 -14.9403 -14.9000 -14.8869 -14.8504 -14.8461 -14.7961
   -14.6270 -14.5913 -14.5454 -14.4873 -14.3948 -14.1736 -13.7416 -13.6319
   -12.9716  -7.7734  -6.4896  -4.3173  -3.7851  -3.5203  -3.4879  -3.3598
    -3.3555  -3.3131  -3.1807  -3.1648  -3.0891  -3.0639  -3.0258  -2.9499
    -2.9037  -2.8701  -2.7795  -2.7654  -2.7461  -2.7367  -2.7168  -2.5999
    -2.5552  -2.5063  -2.4022  -2.2920  -2.2497  -2.2225  -2.1766  -2.1433
    -2.0922  -2.0816  -2.0687  -2.0567  -1.9511  -1.8309  -1.8053  -1.7827
    -1.7362  -1.7225  -1.7134  -1.6906  -1.6051  -1.4972  -1.4045  -1.3367
    -1.3296  -1.2533  -1.2452  -1.1872  -1.0751  -1.0132  -1.0107  -0.9890
    -0.8850  -0.8600  -0.7889  -0.7267  -0.6671  -0.6141  -0.5513  -0.4991
    -0.4760  -0.4666  -0.3688  -0.2992  -0.2745  -0.2191  -0.2094  -0.2058
    -0.1787  -0.0830  -0.0483   0.0277   0.0630   0.1115   0.1455   0.2259
     0.2856   0.3515   0.3982   0.4202   0.4851   0.5414   0.5967   0.6876
     0.7450   0.7510   0.7784   0.8371   0.8506   0.9245   1.0069   1.0269
     1.0934   1.1645   1.3282   1.3672   1.6137   1.6866   2.3115   2.6826
     2.8437   3.1389   3.3285   3.4667   3.6618   3.6722   3.6794   3.9005
     3.9290

[...]

          k = 0.0380-0.0419 0.0000 ( 17876 PWs)   bands (ev):

[...]

          k =-0.0760-0.0000 0.0000 ( 17886 PWs)   bands (ev):

[...]

          k =-0.0760-0.0839 0.0000 ( 17948 PWs)   bands (ev):

   -56.5782 -56.5776 -55.6977 -55.6934 -55.6555 -55.6465 -55.4780 -55.4697
   -55.3595 -55.2328 -55.2261 -55.2259 -55.2246 -55.1357 -54.7186 -54.6830
   -32.8552 -32.8548 -32.8385 -32.8382 -32.7244 -32.7239 -32.0043 -31.9984
   -31.9867 -31.9798 -31.9035 -31.8888 -31.8879 -31.8836 -31.8768 -31.8753
   -31.8677 -31.8597 -31.8333 -31.8164 -31.7231 -31.7167 -31.6850 -31.6772
   -31.6543 -31.6187 -31.5869 -31.5717 -31.5714 -31.5703 -31.5487 -31.5315
   -31.4799 -31.4509 -31.4506 -31.4470 -31.4319 -31.4118 -31.4116 -31.4011
   -31.3747 -31.3392 -31.1013 -31.0387 -30.9455 -30.9198 -30.9039 -30.8569
   -18.7406 -16.1009 -16.0989 -16.0634 -16.0627 -15.7963 -15.7930 -15.7034
   -15.6978 -15.5663 -15.4457 -15.3414 -15.3288 -15.2948 -15.2683 -15.1583
   -15.1373 -15.1258 -15.1156 -15.0084 -14.9892 -14.9405 -14.9267 -14.9116
   -14.9037 -14.6087 -14.5923 -14.4922 -14.4662 -14.3260 -13.7355 -13.7355
   -12.9902  -7.7669  -6.4825  -3.1996  -3.1908  -3.1619  -3.1363  -3.1354
    -3.0757  -2.9780  -2.9303  -2.9285  -2.9273  -2.8488  -2.7829  -2.7749
    -2.7008  -2.6679  -2.6506  -2.5953  -2.5786  -2.5151  -2.4886  -2.4805
    -2.4626  -2.4389  -2.4377  -2.3441  -2.2781  -2.2321  -2.2268  -2.1676
    -2.1378  -2.0783  -2.0556  -2.0440  -2.0113  -1.9705  -1.9590  -1.9190
    -1.8781  -1.8437  -1.7802  -1.6138  -1.6046  -1.5957  -1.5756  -1.4558
    -1.4461  -1.4111  -1.3796  -1.3743  -1.3037  -1.2543  -1.2159  -1.1658
    -1.0772  -1.0557  -0.9509  -0.8990  -0.8559  -0.7990  -0.6950  -0.6743
    -0.6665  -0.6559  -0.6251  -0.5555  -0.5198  -0.5175  -0.3947  -0.3702
    -0.3320  -0.3026  -0.2431  -0.2154  -0.1586  -0.1245  -0.0547  -0.0404
    -0.0010   0.0760   0.1513   0.1859   0.2365   0.2428   0.5171   0.5909
     0.7199   0.7831   0.8458   0.9135   0.9790   1.0074   1.0365   1.1623
     1.1666   1.1761   1.1765   1.2467   1.2520   1.5924   2.1896   3.2586
     3.2589   3.3251   3.3258   3.6467   3.6530   3.7600   3.7703   3.9303
     3.9446

     the Fermi energy is     2.5096 ev

!    total energy              =   -2953.97099161 Ry
     estimated scf accuracy    <       0.00000007 Ry
     smearing contrib. (-TS)   =      -0.00443370 Ry
     internal energy E=F+TS    =   -2953.96655792 Ry

     The total energy is F=E-TS. E is the sum of the following terms:
     one-electron contribution =  -24343.82747068 Ry
     hartree contribution      =   12263.80829303 Ry
     xc contribution           =    -488.76212708 Ry
     ewald contribution        =    9614.81421680 Ry
     electric field correction =       0.00053001 Ry

     convergence has been achieved in  79 iterations

     Forces acting on atoms (cartesian axes, Ry/au):

     atom    1 type  1   force =    -0.00003139   -0.00047832    0.12439926
     atom    2 type  1   force =    -0.00003964   -0.00048245   -0.15979972
     atom    3 type  2   force =     0.00020025   -0.00023626   -0.06783062
     atom    4 type  2   force =     0.00000258   -0.00009503    0.02614406
     atom    5 type  2   force =    -0.01437171    0.00191262   -0.00990882
     atom    6 type  2   force =     0.01615562    0.00232284   -0.01028225
     atom    7 type  1   force =     0.00071855   -0.00389390    0.02846071
     atom    8 type  1   force =    -0.00033395   -0.00436219    0.10934760
     atom    9 type  2   force =     0.00002359    0.00001716    0.00007720
     atom   10 type  2   force =    -0.00225504    0.00266740   -0.07360735
     atom   11 type  2   force =     0.00082000   -0.00002878   -0.00022996
     atom   12 type  2   force =    -0.00044853    0.00004926   -0.00019428
     atom   13 type  1   force =    -0.00000748    0.00013164   -0.00010956
     atom   14 type  1   force =    -0.00034694    0.00047538   -0.00040998
     atom   15 type  2   force =     0.00002400   -0.00066985   -0.00024747
     atom   16 type  2   force =    -0.00018318   -0.00000205    0.00039736
     atom   17 type  2   force =    -0.00060300   -0.00022861   -0.00046159
     atom   18 type  2   force =     0.00025217   -0.00011081   -0.00002414
     atom   19 type  1   force =     0.00044862   -0.00021786   -0.00028512
     atom   20 type  1   force =    -0.00022402   -0.00070229   -0.00079596
     atom   21 type  2   force =     0.00006622   -0.00004024    0.09950868
     atom   22 type  2   force =     0.00006116   -0.00052255    0.00018317
     atom   23 type  2   force =    -0.07970083   -0.00006549   -0.03245659
     atom   24 type  2   force =     0.07957311    0.00037606   -0.03251573
     atom   25 type  1   force =    -0.00000557   -0.00058404    0.12403624
     atom   26 type  1   force =    -0.00010822   -0.00063035   -0.15993171
     atom   27 type  2   force =     0.00033317   -0.00035719   -0.06690142
     atom   28 type  2   force =    -0.00002374    0.00018041    0.02516604
     atom   29 type  2   force =    -0.01496264    0.00189529   -0.00988501
     atom   30 type  2   force =     0.01664994    0.00242264   -0.01021824
     atom   31 type  1   force =     0.00078436   -0.00077062    0.02374111
     atom   32 type  1   force =    -0.00023011    0.00201202    0.10997391
     atom   33 type  2   force =     0.00004530   -0.00026907    0.00034298
     atom   34 type  2   force =    -0.00212271    0.00206921   -0.07172318
     atom   35 type  2   force =     0.00024397   -0.00012217   -0.00008284
     atom   36 type  2   force =    -0.00018026   -0.00024551   -0.00015377
     atom   37 type  1   force =     0.00043490   -0.00001748    0.00037130
     atom   38 type  1   force =     0.00001475   -0.00055905   -0.00019414
     atom   39 type  2   force =     0.00006673    0.00021096    0.00060511
     atom   40 type  2   force =    -0.00008646   -0.00022854    0.00029143
     atom   41 type  2   force =     0.00058784   -0.00023970    0.00033516
     atom   42 type  2   force =    -0.00087151   -0.00031364    0.00081508
     atom   43 type  1   force =     0.00003005   -0.00008464   -0.00003813
     atom   44 type  1   force =    -0.00027707    0.00005541   -0.00088220
     atom   45 type  2   force =     0.00005560   -0.00004526    0.09947241
     atom   46 type  2   force =    -0.07970991    0.00000369   -0.03247947
     atom   47 type  2   force =     0.07958992    0.00043151   -0.03250433
     atom   48 type  3   force =    -0.00049582   -0.00010247   -0.00041507
     atom   49 type  4   force =    -0.00031945    0.00012766    0.00021037
     atom   50 type  5   force =    -0.00048538    0.00000861    0.00015876
     atom   51 type  5   force =    -0.00013197   -0.00064652    0.00054727
     atom   52 type  5   force =     0.00054375    0.00011651    0.00019303
     atom   53 type  2   force =    -0.00088888   -0.01271075    0.00562039
     atom   54 type  5   force =    -0.00523304    0.00581306   -0.00196382
     atom   55 type  5   force =     0.00695229    0.00676434   -0.00386618

     Total force =     0.423771     Total SCF correction =     0.000689
  @ DRIVER MODE: Message from server: STATUS
  @ DRIVER MODE: Message from server: GETFORCE
  @ DRIVER MODE: Returning v,forces,stress,ensemble

     Writing output data file ./calc.save/
  @ DRIVER MODE: Message from server: EXIT
  @ DRIVE MODE: Exiting

     General routines

     Parallel routines

   This run was terminated on:   2:22:46  16Sep2021

   JOB DONE.