     Program PWSCF v.6.7GPU starts on 15Sep2021 at 15:34:20

     R & G space division:  proc/nbgrp/npool/nimage =      10
     Reading input from /storage/home/hcoda1/3/ntian30/research/carbon/CxH_vib/H2O_calc/ads_slab/CH2OHH2O_a/out_0000/pw.inp
Warning: card &CELL ignored
Warning: card   CELL_DYNAMICS='IPI', ignored
Warning: card / ignored

     Current dimensions of program PWSCF are:
     Max number of different atomic species (ntypx) = 10
     Max number of k-points (npk) =  40000
     Max angular momentum in pseudopotentials (lmaxx) =  3
     Presently no symmetry can be used with electric field

     Message from routine cell_base_init:
     DEPRECATED: use true lattice parameter, not A to a.u. conversion factor

     IMPORTANT: XC functional enforced from input :
     Exchange-correlation= BEEF-VDW
                           (   1   4  43  14   2   0   0)
     Any further DFT definition will be discarded
     Please, verify this is what you really want

  @ DRIVER MODE: Connecting to
 qe_1139763_2852615.sched-torque.pace.gatech.eduje4fu7s0_scratch
  using UNIX socket
  @ DRIVER MODE: Message from server: STATUS
  @ DRIVER MODE: Message from server: INIT
  @ DRIVER MODE: Receiving replica           0          -1
  @ DRIVER MODE: Receiving encoded integer          25
  @ DRIVER MODE:  SCF:  T  FORCE:  T  STRESS:  F  VC:  F  ENSEMBLE:  F
  @ DRIVER MODE:  SCF:  T  FORCE:  T  STRESS:  F  VC:  F  ENSEMBLE:  F

     Using Slab Decomposition

     bravais-lattice index     =            0
     lattice parameter (alat)  =       1.8897  a.u.
     unit-cell volume          =    6658.9804 (a.u.)^3
     number of atoms/cell      =           55
     number of atomic types    =            4
     number of electrons       =       399.00
     number of Kohn-Sham states=          209
     kinetic-energy cutoff     =      29.3995  Ry
     charge density cutoff     =     293.9946  Ry
     scf convergence threshold =      7.3E-08
     mixing beta               =       0.0500
     number of iterations used =            8  plain     mixing
     Exchange-correlation= BEEF-VDW
                           (   1   4  43  14   2   0   0)

     celldm(1)=   1.889726  celldm(2)=   0.000000  celldm(3)=   0.000000
     celldm(4)=   0.000000  celldm(5)=   0.000000  celldm(6)=   0.000000

     crystal axes: (cart. coord. in units of alat)
               a(1) = (   6.579727   0.000000   0.000000 )
               a(2) = (  -0.000775   5.961596   0.000000 )
               a(3) = (   0.000000   0.000000  25.155947 )

     reciprocal axes: (cart. coord. in units 2 pi/alat)
               b(1) = (  0.151982  0.000020  0.000000 )
               b(2) = (  0.000000  0.167740  0.000000 )
               b(3) = (  0.000000  0.000000  0.039752 )

     PseudoPot. # 1 for Ti read from file:
     /storage/coda1/p-amedford6/0/shared/rich_project_chbe-medford/medford-share/data/pseudos_module/espresso/nninc/pbe/van/Ti.UPF
     MD5 check sum: 8e4df49b7f0d34bbd5052bf3f5ea0213
     Pseudo is Ultrasoft, Zval = 12.0
     Generated by new atomic code, or converted to UPF format
     Using radial grid of  851 points,  6 beta functions with:
                l(1) =   0
                l(2) =   0
                l(3) =   1
                l(4) =   1
                l(5) =   2
                l(6) =   2
     Q(r) pseudized with  8 coefficients,  rinner =    1.000   1.000   1.000
                                                       1.000   1.000

     PseudoPot. # 2 for O  read from file:
     /storage/coda1/p-amedford6/0/shared/rich_project_chbe-medford/medford-share/data/pseudos_module/espresso/nninc/pbe/van/O.UPF
     MD5 check sum: 78c19812648e8988a0fe644b0f25305e
     Pseudo is Ultrasoft, Zval =  6.0
     Generated by new atomic code, or converted to UPF format
     Using radial grid of  737 points,  4 beta functions with:
                l(1) =   0
                l(2) =   0
                l(3) =   1
                l(4) =   1
     Q(r) pseudized with  8 coefficients,  rinner =    0.800   0.800   0.800

     PseudoPot. # 3 for C  read from file:
     /storage/coda1/p-amedford6/0/shared/rich_project_chbe-medford/medford-share/data/pseudos_module/espresso/nninc/pbe/van/C.UPF
     MD5 check sum: 1a69bf6b8db32088f5b2163dbdb77a27
     Pseudo is Ultrasoft, Zval =  4.0
     Generated by new atomic code, or converted to UPF format
     Using radial grid of  721 points,  4 beta functions with:
                l(1) =   0
                l(2) =   0
                l(3) =   1
                l(4) =   1
     Q(r) pseudized with  8 coefficients,  rinner =    0.800   0.800   0.800

     PseudoPot. # 4 for H  read from file:
     /storage/coda1/p-amedford6/0/shared/rich_project_chbe-medford/medford-share/data/pseudos_module/espresso/nninc/pbe/van/H.UPF
     MD5 check sum: b5ee9d7bfd3a09ee7748110bda690ff7
     Pseudo is Ultrasoft, Zval =  1.0
     Generated by new atomic code, or converted to UPF format
     Using radial grid of  615 points,  1 beta functions with:
                l(1) =   0
     Q(r) pseudized with  8 coefficients,  rinner =    0.800

     atomic species   valence    mass     pseudopotential
        Ti1           12.00    47.86700     Ti( 1.00)
        O1             6.00    15.99900     O ( 1.00)
        C1             4.00    12.01100     C ( 1.00)
        H1             1.00     1.00800     H ( 1.00)

     No symmetry found

   Cartesian axes

     site n.     atom                  positions (alat units)
         1           Ti1 tau(   1) = (   0.0004258   2.9801865   6.0000000  )
         2           Ti1 tau(   2) = (   3.2906075   1.4906267   6.0002472  )
         3           O1  tau(   3) = (   0.0006271   0.0005054   7.9858123  )
         4           O1  tau(   4) = (   3.2906025   0.0005020   7.3038282  )
         5           O1  tau(   5) = (   4.5942328   1.4918067   9.2879030  )
         6           O1  tau(   6) = (   1.9868534   1.4903216   9.2879459  )
         7           Ti1 tau(   7) = (   3.2434587   3.0186650   9.1693953  )
         8           Ti1 tau(   8) = (   6.5248695   1.5265067   9.2859949  )
         9           O1  tau(   9) = (   3.3238096   0.0077392  11.3399147  )
        10           O1  tau(  10) = (   0.0083103   0.0007143  10.5763085  )
        11           O1  tau(  11) = (   1.3076427   1.5153157  12.5877682  )
        12           O1  tau(  12) = (   5.3324098   1.4751673  12.6362968  )
        13           Ti1 tau(  13) = (   0.0822926   2.9518924  12.6100891  )
        14           Ti1 tau(  14) = (   3.3652580   1.6116561  12.6031695  )
        15           O1  tau(  15) = (   0.1623142   0.0003102  14.6136642  )
        16           O1  tau(  16) = (   3.2083997   0.0016335  13.9229753  )
        17           O1  tau(  17) = (   4.6427586   1.3635169  15.8692112  )
        18           O1  tau(  18) = (   2.0707938   1.5934636  16.1317492  )
        19           Ti1 tau(  19) = (   3.4055461   2.9583945  15.9219660  )
        20           Ti1 tau(  20) = (   0.0529163   1.3399360  15.9091509  )
        21           O1  tau(  21) = (   3.2904802   0.0005063   4.7018136  )
        22           O1  tau(  22) = (   0.1143047   5.9459637  17.1421970  )
        23           O1  tau(  23) = (   1.3043587   1.4918075   6.0039043  )
        24           O1  tau(  24) = (   5.2767064   1.4903225   6.0039473  )
        25           Ti1 tau(  25) = (   0.0000382   5.9609847   6.0000000  )
        26           Ti1 tau(  26) = (   3.2902200   4.4714249   6.0002472  )
        27           O1  tau(  27) = (   0.0002396   2.9813036   7.9858123  )
        28           O1  tau(  28) = (   3.2902150   2.9813002   7.3038282  )
        29           O1  tau(  29) = (   4.5938453   4.4726049   9.2879030  )
        30           O1  tau(  30) = (   1.9864658   4.4711199   9.2879459  )
        31           Ti1 tau(  31) = (   3.2519499   0.0415563   9.1803751  )
        32           Ti1 tau(  32) = (   6.5223785   4.4699269   9.2708698  )
        33           O1  tau(  33) = (   3.3249262   3.0006027  11.3427062  )
        34           O1  tau(  34) = (   6.5728067   2.9803724  10.5910131  )
        35           O1  tau(  35) = (   1.3048910   4.4590737  12.5876729  )
        36           O1  tau(  36) = (   5.3248012   4.5079456  12.6396186  )
        37           Ti1 tau(  37) = (   0.0305998   5.9348532  12.4502240  )
        38           Ti1 tau(  38) = (   3.3518916   4.5407868  12.4757475  )
        39           O1  tau(  39) = (   0.0741357   2.9755951  14.7167286  )
        40           O1  tau(  40) = (   3.3703583   2.9475192  13.9294239  )
        41           O1  tau(  41) = (   4.6408928   4.5782690  15.8216857  )
        42           O1  tau(  42) = (   2.0743197   4.3710070  16.0958311  )
        43           Ti1 tau(  43) = (   3.3271525   5.9323444  15.7323421  )
        44           Ti1 tau(  44) = (   0.0603002   4.5335970  15.7939964  )
        45           O1  tau(  45) = (   3.2900926   2.9813045   4.7018136  )
        46           O1  tau(  46) = (   1.3039711   4.4726057   6.0039043  )
        47           O1  tau(  47) = (   5.2763189   4.4711207   6.0039473  )
        48           C1  tau(  48) = (   4.5917920   3.0228413  17.9030398  )
        49           O1  tau(  49) = (   6.0625861   3.0006587  17.4562122  )
        50           H1  tau(  50) = (   0.0503952   3.1075262  18.2373115  )
        51           H1  tau(  51) = (   4.5265887   2.1706275  18.5876854  )
        52           H1  tau(  52) = (   4.4781653   3.9549082  18.4551422  )
        53           O1  tau(  53) = (   2.8659371   5.8926936  18.2031264  )
        54           H1  tau(  54) = (   3.0528466   0.8172038  18.5446680  )
        55           H1  tau(  55) = (   1.8959954   5.8777970  18.0521013  )

     number of k points=    10  Fermi-Dirac smearing, width (Ry)=  0.0073
                       cart. coord. in units 2pi/alat
        k(    1) = (   0.0000000   0.0000000   0.0000000), wk =   0.1250000
        k(    2) = (   0.0000000   0.0419351   0.0000000), wk =   0.2500000
        k(    3) = (   0.0000000  -0.0838702   0.0000000), wk =   0.1250000
        k(    4) = (   0.0379955   0.0000049   0.0000000), wk =   0.2500000
        k(    5) = (   0.0379955   0.0419400   0.0000000), wk =   0.2500000
        k(    6) = (   0.0379955  -0.0838652   0.0000000), wk =   0.2500000
        k(    7) = (   0.0379955  -0.0419301   0.0000000), wk =   0.2500000
        k(    8) = (  -0.0759910  -0.0000099   0.0000000), wk =   0.1250000
        k(    9) = (  -0.0759910   0.0419252   0.0000000), wk =   0.2500000
        k(   10) = (  -0.0759910  -0.0838800   0.0000000), wk =   0.1250000

     Initial potential from superposition of free atoms

     starting charge  382.99916, renormalised to  399.00000

     negative rho (up, down):  1.858E-02 0.000E+00

     %%%%%%%%%%%%%%%%%%%%%%%%%%%%%%%%%%%%%%%%%%%%%%%%%%%%%%%%%%%%%%%%%%%%%%%%
     %                                                                      %
     % You are using vdW-DF, which was implemented by the Thonhauser group. %
     % Please cite the following two papers that made this development      %
     % possible and the two reviews that describe the various versions:     %
     %                                                                      %
     %   T. Thonhauser et al., PRL 115, 136402 (2015).                      %
     %   T. Thonhauser et al., PRB 76, 125112 (2007).                       %
     %   K. Berland et al., Rep. Prog. Phys. 78, 066501 (2015).             %
     %   D.C. Langreth et al., J. Phys.: Condens. Matter 21, 084203 (2009). %
     %                                                                      %
     %                                                                      %
     % If you are calculating the stress with vdW-DF, please also cite:     %
     %                                                                      %
     %   R. Sabatini et al., J. Phys.: Condens. Matter 24, 424209 (2012).   %
     %                                                                      %
     %%%%%%%%%%%%%%%%%%%%%%%%%%%%%%%%%%%%%%%%%%%%%%%%%%%%%%%%%%%%%%%%%%%%%%%%

     Adding external electric field

     Computed dipole along edir(3) :
        Dipole               -9.7304 Ry au,        -24.7321 Debye
        Dipole field         -0.0184 Ry au,

        Potential amp.        1.7022 Ry
        Total length         46.3494 bohr

     Starting wfcs are  301 atomic wfcs
  @ DRIVER MODE: Message from server: STATUS
  @ DRIVER MODE: Message from server: POSDATA
  @ DRIVER MODE: Reading and sharing cell
  @ DRIVER MODE: Reading and sharing positions
  @ DRIVER MODE: Received positions

     Self-consistent Calculation

     iteration #  1     ecut=    29.40 Ry     beta= 0.05
     Davidson diagonalization with overlap
     ethr =  1.00E-02,  avg # of iterations =  2.4

[...]

     total energy              =   -2494.21096065 Ry
     estimated scf accuracy    <    5248.59371526 Ry

[...]

     iteration # 17     ecut=    29.40 Ry     beta= 0.05
     Davidson diagonalization with overlap
     c_bands:  1 eigenvalues not converged
     ethr =  3.33E-03,  avg # of iterations =  8.0

[...]

     iteration # 72     ecut=    29.40 Ry     beta= 0.05
     Davidson diagonalization with overlap
     c_bands:  2 eigenvalues not converged
     ethr =  2.38E-11,  avg # of iterations = 12.3

[...]

     total energy              =   -2966.15823559 Ry
     estimated scf accuracy    <       0.00000021 Ry

     iteration # 73     ecut=    29.40 Ry     beta= 0.05
     Davidson diagonalization with overlap
     ethr =  2.38E-11,  avg # of iterations =  7.5

     negative rho (up, down):  1.797E-02 0.000E+00

     Adding external electric field

     Computed dipole along edir(3) :
        Dipole                1.0037 Ry au,          2.5512 Debye
        Dipole field          0.0019 Ry au,

        Potential amp.       -0.1756 Ry
        Total length         46.3494 bohr

     End of self-consistent calculation

          k = 0.0000 0.0000 0.0000 ( 18029 PWs)   bands (ev):

   -55.6894 -55.6529 -55.5820 -55.5737 -55.5171 -55.5149 -55.5091 -55.5062
   -55.4784 -55.4609 -55.4540 -55.4430 -55.4274 -55.3381 -54.6589 -54.6249
   -32.1797 -32.1654 -32.0554 -32.0257 -32.0033 -31.9767 -31.9558 -31.9440
   -31.9306 -31.8712 -31.8437 -31.8370 -31.8336 -31.8245 -31.7971 -31.7875
   -31.7840 -31.7646 -31.7596 -31.7485 -31.7374 -31.7321 -31.6984 -31.6929
   -31.6904 -31.6837 -31.6783 -31.6704 -31.6653 -31.6604 -31.6527 -31.6360
   -31.6322 -31.6300 -31.6242 -31.6213 -31.6129 -31.6122 -31.5870 -31.5640
   -31.5526 -31.4248 -31.0659 -30.9775 -30.9550 -30.8827 -30.7963 -30.6851
   -19.3891 -18.7445 -16.3747 -16.1780 -15.9732 -15.8597 -15.8399 -15.6588
   -15.5349 -15.3886 -15.3363 -15.3074 -15.2865 -15.2172 -15.2104 -15.1953
   -15.1602 -15.1551 -15.1189 -15.0991 -15.0930 -15.0654 -15.0139 -14.9922
   -14.9425 -14.8824 -14.8139 -14.7938 -14.7848 -14.7093 -14.6174 -13.1595
   -13.0429  -9.4328  -6.5053  -6.2794  -4.0750  -3.8416  -3.6866  -3.6439
    -3.6119  -3.5756  -3.4156  -3.3042  -3.1241  -3.0197  -2.9533  -2.9028
    -2.8660  -2.7888  -2.7470  -2.6227  -2.5993  -2.5493  -2.5167  -2.4806
    -2.4737  -2.4525  -2.4074  -2.3898  -2.3744  -2.2174  -2.2071  -2.1735
    -2.1087  -2.0773  -2.0501  -2.0131  -1.9913  -1.9642  -1.9460  -1.8995
    -1.8811  -1.8093  -1.8013  -1.7580  -1.6907  -1.6578  -1.3935  -1.3156
    -1.2954  -1.2569  -1.1934  -1.0965  -1.0927  -1.0862  -1.0857  -1.0286
    -1.0100  -0.8631  -0.8488  -0.8340  -0.7539  -0.6749  -0.5956  -0.5590
    -0.4944  -0.4441  -0.4115  -0.3837  -0.3575  -0.3018  -0.2335  -0.2108
    -0.1401  -0.0662  -0.0330   0.0194   0.0453   0.0900   0.1205   0.1966
     0.2356   0.2696   0.2975   0.3155   0.3255   0.3689   0.3888   0.4783
     0.5557   0.5836   0.5903   0.6645   0.7911   0.8735   0.9853   1.0769
     1.2992   1.3653   1.4168   1.5490   1.5564   1.9371   1.9876   3.4519
     3.5210   3.5805   3.5809   3.6158   3.6964   3.8993   3.9465   4.0040
     4.0377

[...]

          k = 0.0380-0.0419 0.0000 ( 17876 PWs)   bands (ev):

[...]

          k =-0.0760-0.0000 0.0000 ( 17886 PWs)   bands (ev):

[...]

          k =-0.0760-0.0839 0.0000 ( 17948 PWs)   bands (ev):

   -55.6777 -55.6645 -55.5767 -55.5690 -55.5215 -55.5136 -55.5114 -55.5028
   -55.4632 -55.4602 -55.4574 -55.4461 -55.4425 -55.3396 -54.6419 -54.6418
   -32.0986 -31.9868 -31.9761 -31.9742 -31.9521 -31.9015 -31.8749 -31.8539
   -31.8467 -31.8419 -31.8388 -31.8157 -31.8146 -31.8000 -31.7985 -31.7892
   -31.7883 -31.7799 -31.7784 -31.7751 -31.7723 -31.7629 -31.7412 -31.7357
   -31.7299 -31.7180 -31.7110 -31.7044 -31.7020 -31.6877 -31.6733 -31.6660
   -31.6652 -31.6626 -31.6608 -31.6543 -31.6528 -31.6509 -31.6490 -31.6463
   -31.6287 -31.4270 -30.9677 -30.9676 -30.8792 -30.8784 -30.8397 -30.8392
   -19.3826 -18.7434 -15.9928 -15.6539 -15.6409 -15.6358 -15.6050 -15.4836
   -15.4596 -15.4372 -15.3917 -15.3616 -15.3557 -15.3326 -15.2882 -15.2317
   -15.2126 -15.2049 -15.1952 -15.1428 -15.1284 -15.1176 -15.0718 -15.0313
   -15.0287 -15.0049 -14.9787 -14.9733 -14.9731 -14.9454 -14.8779 -13.1463
   -13.1431  -9.4390  -6.5053  -6.2597  -4.0321  -3.7281  -3.1611  -3.0412
    -2.8715  -2.8489  -2.7983  -2.7762  -2.7232  -2.6545  -2.6258  -2.6143
    -2.6126  -2.5787  -2.5160  -2.4820  -2.4781  -2.4388  -2.4206  -2.4128
    -2.3924  -2.3672  -2.3425  -2.3238  -2.3176  -2.2819  -2.2696  -2.2546
    -2.2486  -2.2371  -2.2184  -2.1778  -2.0702  -1.9483  -1.9144  -1.8789
    -1.8391  -1.7802  -1.7739  -1.7599  -1.7257  -1.7249  -1.7088  -1.6307
    -1.4667  -1.4039  -1.3430  -1.3210  -1.2474  -1.2351  -1.2196  -1.1758
    -1.1353  -1.0877  -1.0433  -1.0210  -0.9650  -0.9207  -0.7921  -0.7381
    -0.6536  -0.6485  -0.6259  -0.6109  -0.5568  -0.5321  -0.5071  -0.4625
    -0.4280  -0.3840  -0.3518  -0.3430  -0.3209  -0.2598  -0.1598  -0.1108
    -0.0485  -0.0425   0.0400   0.1696   0.3550   0.3853   0.4437   0.4946
     0.5840   0.6063   0.6552   0.6749   0.7324   0.7596   0.8010   0.8612
     0.9219   0.9500   1.5141   1.7287   1.7351   1.7983   1.8077   3.7433
     3.8309   3.9234   3.9374   3.9717   3.9839   3.9895   4.0191   4.0757
     4.1159

     the Fermi energy is     3.4494 ev

!    total energy              =   -2966.15826278 Ry
     estimated scf accuracy    <       0.00000003 Ry
     smearing contrib. (-TS)   =      -0.02139779 Ry
     internal energy E=F+TS    =   -2966.13686499 Ry

     The total energy is F=E-TS. E is the sum of the following terms:
     one-electron contribution =  -24755.62812128 Ry
     hartree contribution      =   12470.32955122 Ry
     xc contribution           =    -490.95910304 Ry
     ewald contribution        =    9810.11890691 Ry
     electric field correction =       0.00190120 Ry

     convergence has been achieved in  73 iterations

     Forces acting on atoms (cartesian axes, Ry/au):

     atom    1 type  1   force =     0.00075291   -0.00018082    0.09533292
     atom    2 type  1   force =     0.00024291   -0.00220505   -0.17569447
     atom    3 type  2   force =    -0.00066260   -0.00040958   -0.03008771
     atom    4 type  2   force =    -0.00084961    0.00063438    0.05234478
     atom    5 type  2   force =    -0.01386084   -0.00099905    0.00146268
     atom    6 type  2   force =     0.01581317    0.00241075    0.00318630
     atom    7 type  1   force =     0.00034030    0.00039178   -0.00027334
     atom    8 type  1   force =    -0.00036377    0.00140012    0.00066989
     atom    9 type  2   force =     0.00011376   -0.00002000    0.00023589
     atom   10 type  2   force =     0.00017540    0.00016960   -0.00057766
     atom   11 type  2   force =    -0.00022519    0.00024593    0.00018211
     atom   12 type  2   force =    -0.00038446    0.00008772    0.00007656
     atom   13 type  1   force =     0.00022471   -0.00017851   -0.00062008
     atom   14 type  1   force =    -0.00101567    0.00000919    0.00027723
     atom   15 type  2   force =     0.00006431   -0.00110492   -0.00014276
     atom   16 type  2   force =    -0.00001200   -0.00006499   -0.00020254
     atom   17 type  2   force =    -0.00035927   -0.00032476   -0.00014862
     atom   18 type  2   force =     0.00035522   -0.00031639    0.00008060
     atom   19 type  1   force =     0.00006080    0.00031733    0.00017054
     atom   20 type  1   force =     0.00023639    0.00087566    0.00028670
     atom   21 type  2   force =     0.00014755    0.00019814    0.10303729
     atom   22 type  2   force =     0.00015759   -0.00112642    0.00019568
     atom   23 type  2   force =    -0.07130293    0.00094414   -0.02829296
     atom   24 type  2   force =     0.07135548    0.00133863   -0.02832825
     atom   25 type  1   force =     0.00022033    0.00038467    0.10640774
     atom   26 type  1   force =     0.00000423    0.00252928   -0.17558750
     atom   27 type  2   force =    -0.00037834    0.00013339   -0.02787005
     atom   28 type  2   force =    -0.00096155    0.00076166    0.05165202
     atom   29 type  2   force =    -0.01301065   -0.00123198    0.00106778
     atom   30 type  2   force =     0.01545653    0.00037212    0.00295026
     atom   31 type  1   force =     0.00051571    0.00002541   -0.00001157
     atom   32 type  1   force =    -0.00041248   -0.00140720    0.00018708
     atom   33 type  2   force =    -0.00016596   -0.00031481    0.00019805
     atom   34 type  2   force =     0.00000621    0.00010693   -0.00014441
     atom   35 type  2   force =    -0.00061246   -0.00019410    0.00065761
     atom   36 type  2   force =     0.00002415   -0.00037191    0.00023718
     atom   37 type  1   force =     0.00059815    0.00027637    0.00052481
     atom   38 type  1   force =    -0.00092377    0.00014648    0.00045117
     atom   39 type  2   force =    -0.00017189    0.00065235    0.00024293
     atom   40 type  2   force =    -0.00002607   -0.00051421   -0.00067946
     atom   41 type  2   force =     0.00118488   -0.00005160   -0.00007548
     atom   42 type  2   force =    -0.00090145   -0.00015908    0.00016052
     atom   43 type  1   force =     0.00018789   -0.00098646   -0.00002264
     atom   44 type  1   force =    -0.00035132    0.00031071   -0.00016172
     atom   45 type  2   force =     0.00012242    0.00015531    0.10330780
     atom   46 type  2   force =    -0.07122828   -0.00126205   -0.02828770
     atom   47 type  2   force =     0.07129606   -0.00086611   -0.02832562
     atom   48 type  3   force =    -0.00076117   -0.00010098   -0.00007513
     atom   49 type  2   force =     0.00051814   -0.00006924   -0.00008023
     atom   50 type  4   force =    -0.00000307   -0.00040434   -0.00015644
     atom   51 type  4   force =    -0.00068836   -0.00012944    0.00013614
     atom   52 type  4   force =    -0.00036024   -0.00000934   -0.00036123
     atom   53 type  2   force =     0.00152808   -0.00040167    0.00082610
     atom   54 type  4   force =    -0.00024599    0.00041589    0.00007902
     atom   55 type  4   force =    -0.00146386    0.00011106   -0.00041779

     Total force =     0.367364     Total SCF correction =     0.000388
  @ DRIVER MODE: Message from server: STATUS
  @ DRIVER MODE: Message from server: GETFORCE
  @ DRIVER MODE: Returning v,forces,stress,ensemble

     Writing output data file ./calc.save/
  @ DRIVER MODE: Message from server: EXIT
  @ DRIVE MODE: Exiting

     General routines

     Parallel routines

   This run was terminated on:  15:55: 2  15Sep2021

   JOB DONE.