     Program PWSCF v.6.7GPU starts on 25Aug2021 at  1: 8:46

     R & G space division:  proc/nbgrp/npool/nimage =       6
     Reading input from /storage/home/hcoda1/3/ntian30/research/carbon/CH3_vib_end_on/ads_slab/CH3N_a/out_0021/pw.inp
Warning: card &CELL ignored
Warning: card   CELL_DYNAMICS='IPI', ignored
Warning: card / ignored

     Current dimensions of program PWSCF are:
     Max number of different atomic species (ntypx) = 10
     Max number of k-points (npk) =  40000
     Max angular momentum in pseudopotentials (lmaxx) =  3
     Presently no symmetry can be used with electric field

     Message from routine cell_base_init:
     DEPRECATED: use true lattice parameter, not A to a.u. conversion factor

     IMPORTANT: XC functional enforced from input :
     Exchange-correlation= BEEF-VDW
                           (   1   4  43  14   2   0   0)
     Any further DFT definition will be discarded
     Please, verify this is what you really want

  @ DRIVER MODE: Connecting to
 qe_1139763_2643872.sched-torque.pace.gatech.edu0n1b97sv_scratch
  using UNIX socket
  @ DRIVER MODE: Message from server: STATUS
  @ DRIVER MODE: Message from server: INIT
  @ DRIVER MODE: Receiving replica           0          -1
  @ DRIVER MODE: Receiving encoded integer          25
  @ DRIVER MODE:  SCF:  T  FORCE:  T  STRESS:  F  VC:  F  ENSEMBLE:  F
  @ DRIVER MODE:  SCF:  T  FORCE:  T  STRESS:  F  VC:  F  ENSEMBLE:  F

     Using Slab Decomposition

     bravais-lattice index     =            0
     lattice parameter (alat)  =       1.8897  a.u.
     unit-cell volume          =    6658.9804 (a.u.)^3
     number of atoms/cell      =           52
     number of atomic types    =            5
     number of electrons       =       390.00
     number of Kohn-Sham states=          205
     kinetic-energy cutoff     =      29.3995  Ry
     charge density cutoff     =     293.9946  Ry
     scf convergence threshold =      7.3E-08
     mixing beta               =       0.0500
     number of iterations used =            8  plain     mixing
     Exchange-correlation= BEEF-VDW
                           (   1   4  43  14   2   0   0)

     celldm(1)=   1.889726  celldm(2)=   0.000000  celldm(3)=   0.000000
     celldm(4)=   0.000000  celldm(5)=   0.000000  celldm(6)=   0.000000

     crystal axes: (cart. coord. in units of alat)
               a(1) = (   6.579727   0.000000   0.000000 )
               a(2) = (  -0.000775   5.961596   0.000000 )
               a(3) = (   0.000000   0.000000  25.155947 )

     reciprocal axes: (cart. coord. in units 2 pi/alat)
               b(1) = (  0.151982  0.000020  0.000000 )
               b(2) = (  0.000000  0.167740  0.000000 )
               b(3) = (  0.000000  0.000000  0.039752 )

     PseudoPot. # 1 for Ti read from file:
     /storage/coda1/p-amedford6/0/shared/rich_project_chbe-medford/medford-share/data/pseudos_module/espresso/nninc/pbe/van/Ti.UPF
     MD5 check sum: 8e4df49b7f0d34bbd5052bf3f5ea0213
     Pseudo is Ultrasoft, Zval = 12.0
     Generated by new atomic code, or converted to UPF format
     Using radial grid of  851 points,  6 beta functions with:
                l(1) =   0
                l(2) =   0
                l(3) =   1
                l(4) =   1
                l(5) =   2
                l(6) =   2
     Q(r) pseudized with  8 coefficients,  rinner =    1.000   1.000   1.000
                                                       1.000   1.000

     PseudoPot. # 2 for O  read from file:
     /storage/coda1/p-amedford6/0/shared/rich_project_chbe-medford/medford-share/data/pseudos_module/espresso/nninc/pbe/van/O.UPF
     MD5 check sum: 78c19812648e8988a0fe644b0f25305e
     Pseudo is Ultrasoft, Zval =  6.0
     Generated by new atomic code, or converted to UPF format
     Using radial grid of  737 points,  4 beta functions with:
                l(1) =   0
                l(2) =   0
                l(3) =   1
                l(4) =   1
     Q(r) pseudized with  8 coefficients,  rinner =    0.800   0.800   0.800

     PseudoPot. # 3 for N  read from file:
     /storage/coda1/p-amedford6/0/shared/rich_project_chbe-medford/medford-share/data/pseudos_module/espresso/nninc/pbe/van/N.UPF
     MD5 check sum: 90d10febe142ad51ac9d5be1deb811c4
     Pseudo is Ultrasoft, Zval =  5.0
     Generated by new atomic code, or converted to UPF format
     Using radial grid of  729 points,  4 beta functions with:
                l(1) =   0
                l(2) =   0
                l(3) =   1
                l(4) =   1
     Q(r) pseudized with  8 coefficients,  rinner =    0.800   0.800   0.800

     PseudoPot. # 4 for C  read from file:
     /storage/coda1/p-amedford6/0/shared/rich_project_chbe-medford/medford-share/data/pseudos_module/espresso/nninc/pbe/van/C.UPF
     MD5 check sum: 1a69bf6b8db32088f5b2163dbdb77a27
     Pseudo is Ultrasoft, Zval =  4.0
     Generated by new atomic code, or converted to UPF format
     Using radial grid of  721 points,  4 beta functions with:
                l(1) =   0
                l(2) =   0
                l(3) =   1
                l(4) =   1
     Q(r) pseudized with  8 coefficients,  rinner =    0.800   0.800   0.800

     PseudoPot. # 5 for H  read from file:
     /storage/coda1/p-amedford6/0/shared/rich_project_chbe-medford/medford-share/data/pseudos_module/espresso/nninc/pbe/van/H.UPF
     MD5 check sum: b5ee9d7bfd3a09ee7748110bda690ff7
     Pseudo is Ultrasoft, Zval =  1.0
     Generated by new atomic code, or converted to UPF format
     Using radial grid of  615 points,  1 beta functions with:
                l(1) =   0
     Q(r) pseudized with  8 coefficients,  rinner =    0.800

     atomic species   valence    mass     pseudopotential
        Ti1           12.00    47.86700     Ti( 1.00)
        O1             6.00    15.99900     O ( 1.00)
        N1             5.00    14.00700     N ( 1.00)
        C1             4.00    12.01100     C ( 1.00)
        H1             1.00     1.00800     H ( 1.00)

     No symmetry found

   Cartesian axes

     site n.     atom                  positions (alat units)
         1           Ti1 tau(   1) = (   0.0004258   2.9801865   6.0000000  )
         2           Ti1 tau(   2) = (   3.2906075   1.4906267   6.0002472  )
         3           O1  tau(   3) = (   0.0006271   0.0005054   7.9858123  )
         4           O1  tau(   4) = (   3.2906025   0.0005020   7.3038282  )
         5           O1  tau(   5) = (   4.5942328   1.4918067   9.2879030  )
         6           O1  tau(   6) = (   1.9868534   1.4903216   9.2879459  )
         7           Ti1 tau(   7) = (   3.2907910   2.8959150   9.1758416  )
         8           Ti1 tau(   8) = (   0.0015273   1.4827037   9.2680791  )
         9           O1  tau(   9) = (   3.3018735   5.9614316  11.2970789  )
        10           O1  tau(  10) = (   0.0116148   5.9584955  10.6183126  )
        11           O1  tau(  11) = (   1.3353665   1.4968727  12.6140821  )
        12           O1  tau(  12) = (   5.3123320   1.5002621  12.6324210  )
        13           Ti1 tau(  13) = (   6.4913169   2.9877414  12.7576577  )
        14           Ti1 tau(  14) = (   3.1819880   1.4874128  12.4666476  )
        15           O1  tau(  15) = (   0.0325390   5.9514364  14.5942808  )
        16           O1  tau(  16) = (   3.3157460   0.0104736  13.8786857  )
        17           O1  tau(  17) = (   4.5538541   1.5308062  16.0536203  )
        18           O1  tau(  18) = (   2.1012647   1.5271178  16.0466835  )
        19           Ti1 tau(  19) = (   3.3239613   3.0121693  15.6870930  )
        20           Ti1 tau(  20) = (   0.0188375   1.6096557  16.0875739  )
        21           O1  tau(  21) = (   3.2904802   0.0005063   4.7018136  )
        22           O1  tau(  22) = (   0.0443345   0.0604659  17.2041813  )
        23           O1  tau(  23) = (   1.3043587   1.4918075   6.0039043  )
        24           O1  tau(  24) = (   5.2767064   1.4903225   6.0039473  )
        25           Ti1 tau(  25) = (   0.0000382   5.9609847   6.0000000  )
        26           Ti1 tau(  26) = (   3.2902200   4.4714249   6.0002472  )
        27           O1  tau(  27) = (   0.0002396   2.9813036   7.9858123  )
        28           O1  tau(  28) = (   3.2902150   2.9813002   7.3038282  )
        29           O1  tau(  29) = (   4.5938453   4.4726049   9.2879030  )
        30           O1  tau(  30) = (   1.9864658   4.4711199   9.2879459  )
        31           Ti1 tau(  31) = (   3.2891106   5.8743827   9.1763621  )
        32           Ti1 tau(  32) = (   0.0006254   4.4649316   9.2693709  )
        33           O1  tau(  33) = (   3.3028429   2.9834257  11.2952420  )
        34           O1  tau(  34) = (   0.0092240   2.9805883  10.6323155  )
        35           O1  tau(  35) = (   1.3370139   4.4664586  12.6123119  )
        36           O1  tau(  36) = (   5.3107101   4.4655690  12.6333123  )
        37           Ti1 tau(  37) = (   6.5188704   0.0058144  12.7695920  )
        38           Ti1 tau(  38) = (   3.1805296   4.4670443  12.4671176  )
        39           O1  tau(  39) = (   0.0099197   2.9765079  14.6559069  )
        40           O1  tau(  40) = (   3.3143426   2.9928857  13.8797190  )
        41           O1  tau(  41) = (   4.5573730   4.5089470  16.0521860  )
        42           O1  tau(  42) = (   2.1018054   4.5121927  16.0508938  )
        43           Ti1 tau(  43) = (   3.3145791   0.0316975  15.6896801  )
        44           Ti1 tau(  44) = (   0.0207397   4.5876961  16.1385408  )
        45           O1  tau(  45) = (   3.2900926   2.9813045   4.7018136  )
        46           O1  tau(  46) = (   1.3039711   4.4726057   6.0039043  )
        47           O1  tau(  47) = (   5.2763189   4.4711207   6.0039473  )
        48           N1  tau(  48) = (   0.0936308   3.0233000  17.3257847  )
        49           C1  tau(  49) = (   0.4281149   3.0137428  18.7308649  )
        50           H1  tau(  50) = (   0.7292188   4.0033843  19.0862330  )
        51           H1  tau(  51) = (   6.1445545   2.6762439  19.3232575  )
        52           H1  tau(  52) = (   1.2401080   2.3040860  18.9332505  )

     number of k points=    10  Fermi-Dirac smearing, width (Ry)=  0.0073
                       cart. coord. in units 2pi/alat
        k(    1) = (   0.0000000   0.0000000   0.0000000), wk =   0.1250000
        k(    2) = (   0.0000000   0.0419351   0.0000000), wk =   0.2500000
        k(    3) = (   0.0000000  -0.0838702   0.0000000), wk =   0.1250000
        k(    4) = (   0.0379955   0.0000049   0.0000000), wk =   0.2500000
        k(    5) = (   0.0379955   0.0419400   0.0000000), wk =   0.2500000
        k(    6) = (   0.0379955  -0.0838652   0.0000000), wk =   0.2500000
        k(    7) = (   0.0379955  -0.0419301   0.0000000), wk =   0.2500000
        k(    8) = (  -0.0759910  -0.0000099   0.0000000), wk =   0.1250000
        k(    9) = (  -0.0759910   0.0419252   0.0000000), wk =   0.2500000
        k(   10) = (  -0.0759910  -0.0838800   0.0000000), wk =   0.1250000

     Initial potential from superposition of free atoms

     starting charge  373.99917, renormalised to  390.00000

     negative rho (up, down):  1.729E-02 0.000E+00

     %%%%%%%%%%%%%%%%%%%%%%%%%%%%%%%%%%%%%%%%%%%%%%%%%%%%%%%%%%%%%%%%%%%%%%%%
     %                                                                      %
     % You are using vdW-DF, which was implemented by the Thonhauser group. %
     % Please cite the following two papers that made this development      %
     % possible and the two reviews that describe the various versions:     %
     %                                                                      %
     %   T. Thonhauser et al., PRL 115, 136402 (2015).                      %
     %   T. Thonhauser et al., PRB 76, 125112 (2007).                       %
     %   K. Berland et al., Rep. Prog. Phys. 78, 066501 (2015).             %
     %   D.C. Langreth et al., J. Phys.: Condens. Matter 21, 084203 (2009). %
     %                                                                      %
     %                                                                      %
     % If you are calculating the stress with vdW-DF, please also cite:     %
     %                                                                      %
     %   R. Sabatini et al., J. Phys.: Condens. Matter 24, 424209 (2012).   %
     %                                                                      %
     %%%%%%%%%%%%%%%%%%%%%%%%%%%%%%%%%%%%%%%%%%%%%%%%%%%%%%%%%%%%%%%%%%%%%%%%

     Adding external electric field

     Computed dipole along edir(3) :
        Dipole               -4.6272 Ry au,        -11.7612 Debye
        Dipole field         -0.0087 Ry au,

        Potential amp.        0.8095 Ry
        Total length         46.3494 bohr

     Starting wfcs are  295 atomic wfcs
  @ DRIVER MODE: Message from server: STATUS
  @ DRIVER MODE: Message from server: POSDATA
  @ DRIVER MODE: Reading and sharing cell
  @ DRIVER MODE: Reading and sharing positions
  @ DRIVER MODE: Received positions

     Self-consistent Calculation

     iteration #  1     ecut=    29.40 Ry     beta= 0.05
     Davidson diagonalization with overlap
     c_bands:  4 eigenvalues not converged
     c_bands:  2 eigenvalues not converged
     c_bands:  3 eigenvalues not converged
     c_bands:  4 eigenvalues not converged
     c_bands:  4 eigenvalues not converged
     c_bands:  2 eigenvalues not converged
     c_bands:  2 eigenvalues not converged
     c_bands:  2 eigenvalues not converged
     ethr =  1.00E-05,  avg # of iterations = 19.7

[...]

     total energy              =   -2877.54014882 Ry
     estimated scf accuracy    <     480.02819950 Ry

     iteration #  2     ecut=    29.40 Ry     beta= 0.05
     Davidson diagonalization with overlap
     ethr =  1.00E-02,  avg # of iterations = 13.5

[...]

     iteration # 22     ecut=    29.40 Ry     beta= 0.05
     Davidson diagonalization with overlap
     c_bands:  2 eigenvalues not converged
     c_bands:  1 eigenvalues not converged
     ethr =  1.67E-06,  avg # of iterations = 13.3

[...]

     total energy              =   -2919.13181737 Ry
     estimated scf accuracy    <       0.00000013 Ry

     iteration # 57     ecut=    29.40 Ry     beta= 0.05
     Davidson diagonalization with overlap
     ethr =  3.44E-11,  avg # of iterations =  5.2

     negative rho (up, down):  1.786E-02 0.000E+00

     Adding external electric field

     Computed dipole along edir(3) :
        Dipole                0.2598 Ry au,          0.6604 Debye
        Dipole field          0.0005 Ry au,

        Potential amp.       -0.0454 Ry
        Total length         46.3494 bohr

     End of self-consistent calculation

          k = 0.0000 0.0000 0.0000 ( 18029 PWs)   bands (ev):

   -56.8872 -56.8535 -56.0097 -55.9979 -55.9747 -55.9650 -55.8629 -55.8242
   -55.6468 -55.6114 -55.5517 -55.5495 -55.5177 -55.4402 -54.9686 -54.9217
   -33.3151 -33.1619 -33.1338 -33.0631 -32.9721 -32.9411 -32.4806 -32.4743
   -32.4036 -32.2938 -32.2474 -32.2234 -32.2050 -32.1837 -32.1501 -32.1457
   -32.1420 -32.1388 -32.1132 -32.1111 -32.0991 -32.0701 -32.0438 -32.0302
   -32.0170 -31.9972 -31.9903 -31.9668 -31.9440 -31.8902 -31.8781 -31.8661
   -31.7909 -31.7855 -31.7627 -31.7245 -31.7133 -31.6792 -31.6695 -31.6446
   -31.6259 -31.5682 -31.4986 -31.2193 -31.1937 -31.1729 -31.1426 -31.0275
   -17.0515 -16.6167 -16.3863 -16.2498 -16.1830 -16.1279 -16.0844 -15.9606
   -15.8875 -15.8825 -15.8417 -15.8104 -15.7393 -15.6010 -15.5024 -15.4454
   -15.4017 -15.2828 -15.2237 -15.1904 -15.1844 -15.1457 -15.1305 -14.9337
   -14.9071 -14.8187 -14.7992 -14.6722 -14.4404 -14.0502 -13.9401 -13.0818
    -7.8066  -4.6170  -4.1130  -3.8720  -3.7890  -3.6809  -3.6678  -3.5877
    -3.4681  -3.4216  -3.3750  -3.2589  -3.2557  -3.1116  -3.1091  -3.0628
    -3.0608  -3.0250  -2.9602  -2.9429  -2.8974  -2.8930  -2.8861  -2.7319
    -2.6328  -2.5665  -2.5389  -2.5261  -2.4953  -2.4239  -2.3938  -2.3842
    -2.3804  -2.2753  -2.1296  -2.1279  -2.0970  -2.0549  -2.0520  -2.0117
    -2.0012  -1.8770  -1.7858  -1.6769  -1.6669  -1.6294  -1.5678  -1.5609
    -1.4649  -1.3893  -1.3191  -1.3009  -1.1913  -1.1479  -1.1248  -1.0350
    -0.9734  -0.9360  -0.9130  -0.8966  -0.7926  -0.7767  -0.7699  -0.6765
    -0.6642  -0.6208  -0.5276  -0.5045  -0.4984  -0.4168  -0.4098  -0.3049
    -0.2764  -0.2318  -0.1990  -0.0941  -0.0735   0.0243   0.0614   0.0802
     0.2017   0.2191   0.2795   0.3517   0.4173   0.4340   0.4701   0.5002
     0.5166   0.5943   0.7068   0.7143   0.8177   0.8506   1.0226   1.0615
     1.3441   1.3530   2.0466   2.3874   2.5469   2.8454   3.0342   3.1474
     3.3622   3.3777   3.3831   3.5543   3.6066

[...]

          k = 0.0380-0.0419 0.0000 ( 17876 PWs)   bands (ev):

[...]

          k =-0.0760-0.0000 0.0000 ( 17886 PWs)   bands (ev):

[...]

          k =-0.0760-0.0839 0.0000 ( 17948 PWs)   bands (ev):

   -56.8704 -56.8701 -55.9945 -55.9887 -55.9822 -55.9816 -55.8514 -55.8356
   -55.6321 -55.6259 -55.5466 -55.5347 -55.5346 -55.4430 -54.9606 -54.9296
   -33.1478 -33.1475 -33.1320 -33.1318 -33.0162 -33.0159 -32.3104 -32.3081
   -32.2988 -32.2922 -32.2392 -32.2358 -32.1974 -32.1932 -32.1920 -32.1881
   -32.1840 -32.1811 -32.1790 -32.1774 -32.1018 -32.0893 -32.0506 -32.0384
   -31.9825 -31.9738 -31.9143 -31.9082 -31.8791 -31.8790 -31.8746 -31.8307
   -31.8288 -31.7996 -31.7628 -31.7602 -31.7601 -31.7212 -31.7211 -31.7203
   -31.6857 -31.6463 -31.3634 -31.2859 -31.1903 -31.1632 -31.1512 -31.1098
   -16.4002 -16.3982 -16.3654 -16.3651 -16.0964 -16.0928 -16.0470 -16.0436
   -15.8721 -15.8649 -15.6599 -15.6511 -15.6441 -15.6413 -15.5135 -15.5079
   -15.4448 -15.4306 -15.3425 -15.3401 -15.2773 -15.2712 -15.2326 -15.2128
   -14.9028 -14.8850 -14.7729 -14.7476 -14.5839 -14.0435 -14.0435 -13.0983
    -7.7974  -3.4987  -3.4979  -3.4346  -3.4336  -3.3094  -3.3036  -3.2299
    -3.2291  -3.1281  -3.1244  -3.0898  -2.9948  -2.9850  -2.9821  -2.9714
    -2.9497  -2.8297  -2.8276  -2.8168  -2.8008  -2.7444  -2.7421  -2.7290
    -2.6533  -2.6388  -2.6048  -2.5665  -2.4576  -2.4441  -2.4312  -2.3993
    -2.3435  -2.3295  -2.3165  -2.2749  -2.2494  -2.1628  -2.1082  -2.0556
    -1.9395  -1.9362  -1.9281  -1.9126  -1.7610  -1.7193  -1.6916  -1.6841
    -1.6763  -1.6327  -1.5340  -1.5274  -1.3930  -1.3925  -1.3128  -1.2339
    -1.2160  -1.1859  -1.0561  -1.0154  -0.9791  -0.9709  -0.9436  -0.9240
    -0.9005  -0.8632  -0.7218  -0.7086  -0.6715  -0.6365  -0.6316  -0.5753
    -0.5181  -0.4380  -0.3613  -0.3603  -0.3066  -0.2343  -0.1736  -0.0925
    -0.0785  -0.0739   0.2062   0.2860   0.3780   0.4544   0.5229   0.5764
     0.6110   0.6761   0.7145   0.8483   0.8528   0.8708   0.8711   0.9328
     0.9343   1.3344   1.9361   2.9603   2.9606   3.0275   3.0279   3.3514
     3.3573   3.4654   3.4749   3.5857   3.5878

     the Fermi energy is     2.2264 ev

!    total energy              =   -2919.13186741 Ry
     estimated scf accuracy    <       0.00000007 Ry
     smearing contrib. (-TS)   =      -0.00482098 Ry
     internal energy E=F+TS    =   -2919.12704642 Ry

     The total energy is F=E-TS. E is the sum of the following terms:
     one-electron contribution =  -24569.36810928 Ry
     hartree contribution      =   12368.91135777 Ry
     xc contribution           =    -479.89794207 Ry
     ewald contribution        =    9761.22751978 Ry
     electric field correction =       0.00012738 Ry

     convergence has been achieved in  57 iterations

     Forces acting on atoms (cartesian axes, Ry/au):

     atom    1 type  1   force =     0.00005952   -0.00050989    0.12426233
     atom    2 type  1   force =    -0.00008900   -0.00055009   -0.16066519
     atom    3 type  2   force =     0.00022097   -0.00024133   -0.06808170
     atom    4 type  2   force =    -0.00000214   -0.00032315    0.02759421
     atom    5 type  2   force =    -0.01621440    0.00174765   -0.00936904
     atom    6 type  2   force =     0.01826819    0.00228577   -0.00892249
     atom    7 type  1   force =     0.00112255   -0.00381781    0.02200566
     atom    8 type  1   force =    -0.00061690   -0.00325333    0.11121130
     atom    9 type  2   force =    -0.00010514    0.00138867   -0.00034178
     atom   10 type  2   force =    -0.00191012    0.00178520   -0.07346366
     atom   11 type  2   force =     0.00082716    0.00006326    0.00006783
     atom   12 type  2   force =    -0.00066554    0.00020403    0.00016810
     atom   13 type  1   force =     0.00005129    0.00022414   -0.00042916
     atom   14 type  1   force =    -0.00100805   -0.00024545   -0.00048212
     atom   15 type  2   force =     0.00000336   -0.00027718    0.00010639
     atom   16 type  2   force =    -0.00006203    0.00106886    0.00078016
     atom   17 type  2   force =     0.00010292    0.00013625   -0.00044912
     atom   18 type  2   force =     0.00004049    0.00020391   -0.00006266
     atom   19 type  1   force =     0.00013648    0.00003144   -0.00071491
     atom   20 type  1   force =     0.00031608   -0.00103573    0.00005593
     atom   21 type  2   force =     0.00003931   -0.00006730    0.09975194
     atom   22 type  2   force =     0.00016252   -0.00053169   -0.00008965
     atom   23 type  2   force =    -0.07920711   -0.00005385   -0.03245367
     atom   24 type  2   force =     0.07907308    0.00038195   -0.03247700
     atom   25 type  1   force =     0.00004539   -0.00050180    0.12370901
     atom   26 type  1   force =    -0.00009681   -0.00050806   -0.16068415
     atom   27 type  2   force =     0.00032612   -0.00048078   -0.06713580
     atom   28 type  2   force =     0.00002674   -0.00014416    0.02728451
     atom   29 type  2   force =    -0.01661333    0.00134899   -0.00957107
     atom   30 type  2   force =     0.01855496    0.00165560   -0.00914087
     atom   31 type  1   force =     0.00110215   -0.00129254    0.02156332
     atom   32 type  1   force =    -0.00052085    0.00069381    0.11186078
     atom   33 type  2   force =    -0.00033906   -0.00115295    0.00016025
     atom   34 type  2   force =    -0.00156787    0.00135615   -0.07239873
     atom   35 type  2   force =    -0.00177423   -0.00020090    0.00028329
     atom   36 type  2   force =     0.00067818   -0.00042308   -0.00003479
     atom   37 type  1   force =     0.00071789   -0.00033383    0.00068131
     atom   38 type  1   force =    -0.00015779    0.00052307    0.00019963
     atom   39 type  2   force =     0.00018183   -0.00032023   -0.00032621
     atom   40 type  2   force =     0.00010473   -0.00017456    0.00036090
     atom   41 type  2   force =     0.00001424    0.00045492   -0.00013783
     atom   42 type  2   force =     0.00027445    0.00054460   -0.00003049
     atom   43 type  1   force =     0.00037876    0.00016681   -0.00035516
     atom   44 type  1   force =    -0.00022664    0.00009751    0.00005232
     atom   45 type  2   force =     0.00002395   -0.00007140    0.09976148
     atom   46 type  2   force =    -0.07921606   -0.00000572   -0.03245359
     atom   47 type  2   force =     0.07908368    0.00042328   -0.03247636
     atom   48 type  3   force =     0.00000285   -0.00083238   -0.00039659
     atom   49 type  4   force =    -0.00281117   -0.00258700    0.00208123
     atom   50 type  5   force =    -0.00160071   -0.00025528    0.00070407
     atom   51 type  5   force =     0.00261493    0.00269612   -0.00133658
     atom   52 type  5   force =     0.00025020    0.00070957   -0.00022558

     Total force =     0.424666     Total SCF correction =     0.000798
  @ DRIVER MODE: Message from server: STATUS
  @ DRIVER MODE: Message from server: GETFORCE
  @ DRIVER MODE: Returning v,forces,stress,ensemble

     Writing output data file ./calc.save/
  @ DRIVER MODE: Message from server: EXIT
  @ DRIVE MODE: Exiting

     General routines

     Parallel routines

   This run was terminated on:   1:30: 5  25Aug2021

   JOB DONE.