     Program PWSCF v.6.7GPU starts on 15Jul2021 at 16:27:55

     R & G space division:  proc/nbgrp/npool/nimage =      16
     Reading input from /storage/home/hcoda1/3/ntian30/research/carbon/15Jul_vib/ads_slab/CH3NH_a/out_0000/pw.inp
Warning: card &CELL ignored
Warning: card   CELL_DYNAMICS='IPI', ignored
Warning: card / ignored

     Current dimensions of program PWSCF are:
     Max number of different atomic species (ntypx) = 10
     Max number of k-points (npk) =  40000
     Max angular momentum in pseudopotentials (lmaxx) =  3
     Presently no symmetry can be used with electric field

     Message from routine cell_base_init:
     DEPRECATED: use true lattice parameter, not A to a.u. conversion factor

     IMPORTANT: XC functional enforced from input :
     Exchange-correlation= BEEF-VDW
                           (   1   4  43  14   2   0   0)
     Any further DFT definition will be discarded
     Please, verify this is what you really want

  @ DRIVER MODE: Connecting to
 qe_1139763_2351648.sched-torque.pace.gatech.edu418bl9gu_scratch
  using UNIX socket
  @ DRIVER MODE: Message from server: STATUS
  @ DRIVER MODE: Message from server: INIT
  @ DRIVER MODE: Receiving replica           0          -1
  @ DRIVER MODE: Receiving encoded integer          25
  @ DRIVER MODE:  SCF:  T  FORCE:  T  STRESS:  F  VC:  F  ENSEMBLE:  F
  @ DRIVER MODE:  SCF:  T  FORCE:  T  STRESS:  F  VC:  F  ENSEMBLE:  F

     Using Slab Decomposition

     bravais-lattice index     =            0
     lattice parameter (alat)  =       1.8897  a.u.
     unit-cell volume          =    6658.9804 (a.u.)^3
     number of atoms/cell      =           53
     number of atomic types    =            5
     number of electrons       =       391.00
     number of Kohn-Sham states=          205
     kinetic-energy cutoff     =      29.3995  Ry
     charge density cutoff     =     293.9946  Ry
     scf convergence threshold =      7.3E-08
     mixing beta               =       0.0500
     number of iterations used =            8  plain     mixing
     Exchange-correlation= BEEF-VDW
                           (   1   4  43  14   2   0   0)

     celldm(1)=   1.889726  celldm(2)=   0.000000  celldm(3)=   0.000000
     celldm(4)=   0.000000  celldm(5)=   0.000000  celldm(6)=   0.000000

     crystal axes: (cart. coord. in units of alat)
               a(1) = (   6.579727   0.000000   0.000000 )
               a(2) = (  -0.000775   5.961596   0.000000 )
               a(3) = (   0.000000   0.000000  25.155947 )

     reciprocal axes: (cart. coord. in units 2 pi/alat)
               b(1) = (  0.151982  0.000020  0.000000 )
               b(2) = (  0.000000  0.167740  0.000000 )
               b(3) = (  0.000000  0.000000  0.039752 )

     PseudoPot. # 1 for Ti read from file:
     /storage/coda1/p-amedford6/0/shared/rich_project_chbe-medford/medford-share/data/pseudos_module/espresso/nninc/pbe/van/Ti.UPF
     MD5 check sum: 8e4df49b7f0d34bbd5052bf3f5ea0213
     Pseudo is Ultrasoft, Zval = 12.0
     Generated by new atomic code, or converted to UPF format
     Using radial grid of  851 points,  6 beta functions with:
                l(1) =   0
                l(2) =   0
                l(3) =   1
                l(4) =   1
                l(5) =   2
                l(6) =   2
     Q(r) pseudized with  8 coefficients,  rinner =    1.000   1.000   1.000
                                                       1.000   1.000

     PseudoPot. # 2 for O  read from file:
     /storage/coda1/p-amedford6/0/shared/rich_project_chbe-medford/medford-share/data/pseudos_module/espresso/nninc/pbe/van/O.UPF
     MD5 check sum: 78c19812648e8988a0fe644b0f25305e
     Pseudo is Ultrasoft, Zval =  6.0
     Generated by new atomic code, or converted to UPF format
     Using radial grid of  737 points,  4 beta functions with:
                l(1) =   0
                l(2) =   0
                l(3) =   1
                l(4) =   1
     Q(r) pseudized with  8 coefficients,  rinner =    0.800   0.800   0.800

     PseudoPot. # 3 for H  read from file:
     /storage/coda1/p-amedford6/0/shared/rich_project_chbe-medford/medford-share/data/pseudos_module/espresso/nninc/pbe/van/H.UPF
     MD5 check sum: b5ee9d7bfd3a09ee7748110bda690ff7
     Pseudo is Ultrasoft, Zval =  1.0
     Generated by new atomic code, or converted to UPF format
     Using radial grid of  615 points,  1 beta functions with:
                l(1) =   0
     Q(r) pseudized with  8 coefficients,  rinner =    0.800

     PseudoPot. # 4 for N  read from file:
     /storage/coda1/p-amedford6/0/shared/rich_project_chbe-medford/medford-share/data/pseudos_module/espresso/nninc/pbe/van/N.UPF
     MD5 check sum: 90d10febe142ad51ac9d5be1deb811c4
     Pseudo is Ultrasoft, Zval =  5.0
     Generated by new atomic code, or converted to UPF format
     Using radial grid of  729 points,  4 beta functions with:
                l(1) =   0
                l(2) =   0
                l(3) =   1
                l(4) =   1
     Q(r) pseudized with  8 coefficients,  rinner =    0.800   0.800   0.800

     PseudoPot. # 5 for C  read from file:
     /storage/coda1/p-amedford6/0/shared/rich_project_chbe-medford/medford-share/data/pseudos_module/espresso/nninc/pbe/van/C.UPF
     MD5 check sum: 1a69bf6b8db32088f5b2163dbdb77a27
     Pseudo is Ultrasoft, Zval =  4.0
     Generated by new atomic code, or converted to UPF format
     Using radial grid of  721 points,  4 beta functions with:
                l(1) =   0
                l(2) =   0
                l(3) =   1
                l(4) =   1
     Q(r) pseudized with  8 coefficients,  rinner =    0.800   0.800   0.800

     atomic species   valence    mass     pseudopotential
        Ti1           12.00    47.86700     Ti( 1.00)
        O1             6.00    15.99900     O ( 1.00)
        H1             1.00     1.00800     H ( 1.00)
        N1             5.00    14.00700     N ( 1.00)
        C1             4.00    12.01100     C ( 1.00)

     Starting magnetic structure
     atomic species   magnetization
        Ti1          0.000
        O1           0.000
        H1           0.000
        N1           0.000
        C1           0.025

     No symmetry found

   Cartesian axes

     site n.     atom                  positions (alat units)
         1           Ti1 tau(   1) = (   0.0004258   2.9801865   6.0000000  )
         2           Ti1 tau(   2) = (   3.2906075   1.4906267   6.0002472  )
         3           O1  tau(   3) = (   0.0006271   0.0005054   7.9858123  )
         4           O1  tau(   4) = (   3.2906025   0.0005020   7.3038282  )
         5           O1  tau(   5) = (   4.5942328   1.4918067   9.2879030  )
         6           O1  tau(   6) = (   1.9868534   1.4903216   9.2879459  )
         7           Ti1 tau(   7) = (   3.2907910   2.8959150   9.1758416  )
         8           Ti1 tau(   8) = (   0.0015273   1.4827037   9.2680791  )
         9           O1  tau(   9) = (   3.2884659   0.0075485  11.3235732  )
        10           O1  tau(  10) = (   0.0116148   5.9584955  10.6183126  )
        11           O1  tau(  11) = (   1.3171120   1.5008813  12.6157184  )
        12           O1  tau(  12) = (   5.2946386   1.4924346  12.6071097  )
        13           Ti1 tau(  13) = (   6.5241923   2.9548932  12.6217359  )
        14           Ti1 tau(  14) = (   3.2094326   1.4975571  12.4685497  )
        15           O1  tau(  15) = (   6.5712017   0.0435206  14.6415704  )
        16           O1  tau(  16) = (   3.3105969   0.0188825  13.9167609  )
        17           O1  tau(  17) = (   4.5276945   1.5520673  16.0775932  )
        18           O1  tau(  18) = (   2.0451199   1.5488911  16.0433559  )
        19           Ti1 tau(  19) = (   3.3056363   3.0248959  15.6834923  )
        20           Ti1 tau(  20) = (   0.0598299   1.5678558  15.8702049  )
        21           O1  tau(  21) = (   3.2904802   0.0005063   4.7018136  )
        22           O1  tau(  22) = (   0.0261329   0.0581799  17.1997403  )
        23           O1  tau(  23) = (   1.3043587   1.4918075   6.0039043  )
        24           O1  tau(  24) = (   5.2767064   1.4903225   6.0039473  )
        25           Ti1 tau(  25) = (   0.0000382   5.9609847   6.0000000  )
        26           Ti1 tau(  26) = (   3.2902200   4.4714249   6.0002472  )
        27           O1  tau(  27) = (   0.0002396   2.9813036   7.9858123  )
        28           O1  tau(  28) = (   3.2902150   2.9813002   7.3038282  )
        29           O1  tau(  29) = (   4.5938453   4.4726049   9.2879030  )
        30           O1  tau(  30) = (   1.9864658   4.4711199   9.2879459  )
        31           Ti1 tau(  31) = (   3.2891106   5.8743827   9.1763621  )
        32           Ti1 tau(  32) = (   0.0006254   4.4649316   9.2693709  )
        33           O1  tau(  33) = (   3.2900467   2.9919642  11.3219399  )
        34           O1  tau(  34) = (   0.0092240   2.9805883  10.6323155  )
        35           O1  tau(  35) = (   1.3109590   4.4888342  12.6262493  )
        36           O1  tau(  36) = (   5.2962169   4.4808628  12.6191006  )
        37           Ti1 tau(  37) = (   6.5213093   5.9327278  12.5667326  )
        38           Ti1 tau(  38) = (   3.2063601   4.4772876  12.4706241  )
        39           O1  tau(  39) = (   6.5765807   2.9606619  14.6437028  )
        40           O1  tau(  40) = (   3.3047873   3.0036736  13.8926904  )
        41           O1  tau(  41) = (   4.5386289   4.5058657  16.0833063  )
        42           O1  tau(  42) = (   2.0584685   4.5123608  16.0729366  )
        43           Ti1 tau(  43) = (   3.3398093   0.0384087  15.7085799  )
        44           Ti1 tau(  44) = (   0.0478225   4.6849499  16.0879628  )
        45           O1  tau(  45) = (   3.2900926   2.9813045   4.7018136  )
        46           O1  tau(  46) = (   1.3039711   4.4726057   6.0039043  )
        47           O1  tau(  47) = (   5.2763189   4.4711207   6.0039473  )
        48           H1  tau(  48) = (   5.6109407   2.9912845  17.7881963  )
        49           N1  tau(  49) = (   6.5652763   3.0051276  17.4431066  )
        50           C1  tau(  50) = (   0.8863280   2.9891452  18.6126320  )
        51           H1  tau(  51) = (   1.3596840   3.9617220  18.7724638  )
        52           H1  tau(  52) = (   0.3315535   2.7344040  19.5171108  )
        53           H1  tau(  53) = (   1.6705027   2.2407838  18.4910999  )

     number of k points=    10  Fermi-Dirac smearing, width (Ry)=  0.0073
                       cart. coord. in units 2pi/alat
        k(    1) = (   0.0000000   0.0000000   0.0000000), wk =   0.0625000
        k(    2) = (   0.0000000   0.0419351   0.0000000), wk =   0.1250000
        k(    3) = (   0.0000000  -0.0838702   0.0000000), wk =   0.0625000
        k(    4) = (   0.0379955   0.0000049   0.0000000), wk =   0.1250000
        k(    5) = (   0.0379955   0.0419400   0.0000000), wk =   0.1250000
        k(    6) = (   0.0379955  -0.0838652   0.0000000), wk =   0.1250000
        k(    7) = (   0.0379955  -0.0419301   0.0000000), wk =   0.1250000
        k(    8) = (  -0.0759910  -0.0000099   0.0000000), wk =   0.0625000
        k(    9) = (  -0.0759910   0.0419252   0.0000000), wk =   0.1250000
        k(   10) = (  -0.0759910  -0.0838800   0.0000000), wk =   0.0625000

     Initial potential from superposition of free atoms

     starting charge  374.99916, renormalised to  391.00000

     negative rho (up, down):  8.890E-03 8.897E-03

     %%%%%%%%%%%%%%%%%%%%%%%%%%%%%%%%%%%%%%%%%%%%%%%%%%%%%%%%%%%%%%%%%%%%%%%%
     %                                                                      %
     % You are using vdW-DF, which was implemented by the Thonhauser group. %
     % Please cite the following two papers that made this development      %
     % possible and the two reviews that describe the various versions:     %
     %                                                                      %
     %   T. Thonhauser et al., PRL 115, 136402 (2015).                      %
     %   T. Thonhauser et al., PRB 76, 125112 (2007).                       %
     %   K. Berland et al., Rep. Prog. Phys. 78, 066501 (2015).             %
     %   D.C. Langreth et al., J. Phys.: Condens. Matter 21, 084203 (2009). %
     %                                                                      %
     %                                                                      %
     % If you are calculating the stress with vdW-DF, please also cite:     %
     %                                                                      %
     %   R. Sabatini et al., J. Phys.: Condens. Matter 24, 424209 (2012).   %
     %                                                                      %
     %%%%%%%%%%%%%%%%%%%%%%%%%%%%%%%%%%%%%%%%%%%%%%%%%%%%%%%%%%%%%%%%%%%%%%%%

     Adding external electric field

     Computed dipole along edir(3) :
        Dipole               -5.8084 Ry au,        -14.7635 Debye
        Dipole field         -0.0110 Ry au,

        Potential amp.        1.0161 Ry
        Total length         46.3494 bohr

[...]

     Starting wfcs are  296 atomic wfcs
  @ DRIVER MODE: Message from server: STATUS
  @ DRIVER MODE: Message from server: POSDATA
  @ DRIVER MODE: Reading and sharing cell
  @ DRIVER MODE: Reading and sharing positions
  @ DRIVER MODE: Received positions

     Self-consistent Calculation

     iteration #  1     ecut=    29.40 Ry     beta= 0.05
     Davidson diagonalization with overlap
     ethr =  1.00E-02,  avg # of iterations =  2.2

[...]

     total energy              =   -2773.36966653 Ry
     estimated scf accuracy    <    1609.05200197 Ry

     total magnetization       =     0.01 Bohr mag/cell
     absolute magnetization    =     0.03 Bohr mag/cell

[...]

     iteration # 13     ecut=    29.40 Ry     beta= 0.05
     Davidson diagonalization with overlap
     c_bands:  1 eigenvalues not converged
     ethr =  5.72E-04,  avg # of iterations = 13.7

[...]

     iteration # 78     ecut=    29.40 Ry     beta= 0.05
     Davidson diagonalization with overlap
     c_bands:  1 eigenvalues not converged
     c_bands:  1 eigenvalues not converged
     ethr =  3.19E-11,  avg # of iterations = 13.9

[...]

     total energy              =   -2920.42048308 Ry
     estimated scf accuracy    <       0.00000008 Ry

[...]

     iteration # 80     ecut=    29.40 Ry     beta= 0.05
     Davidson diagonalization with overlap
     ethr =  2.09E-11,  avg # of iterations =  8.9

     negative rho (up, down):  9.151E-03 9.151E-03

[...]

     Adding external electric field

     Computed dipole along edir(3) :
        Dipole                0.6954 Ry au,          1.7677 Debye
        Dipole field          0.0013 Ry au,

        Potential amp.       -0.1217 Ry
        Total length         46.3494 bohr

     Magnetic moment per site  (integrated on atomic sphere of radius R)
     atom   1 (R=0.717)  charge=  7.8575  magn= -0.0021
     atom   2 (R=0.717)  charge=  7.8411  magn= -0.0001
     atom   3 (R=0.717)  charge=  4.8649  magn=  0.0002
     atom   4 (R=0.717)  charge=  4.9003  magn=  0.0000
     atom   5 (R=0.717)  charge=  4.8705  magn=  0.0000
     atom   6 (R=0.717)  charge=  4.8712  magn=  0.0000
     atom   7 (R=0.717)  charge=  7.8398  magn= -0.0001
     atom   8 (R=0.717)  charge=  7.8315  magn= -0.0005
     atom   9 (R=0.717)  charge=  4.8873  magn=  0.0000
     atom  10 (R=0.717)  charge=  4.8599  magn=  0.0000
     atom  11 (R=0.717)  charge=  4.8722  magn=  0.0000
     atom  12 (R=0.717)  charge=  4.8711  magn=  0.0000
     atom  13 (R=0.717)  charge=  7.8297  magn= -0.0001
     atom  14 (R=0.717)  charge=  7.8426  magn= -0.0001
     atom  15 (R=0.717)  charge=  4.8599  magn=  0.0000
     atom  16 (R=0.717)  charge=  4.8822  magn=  0.0001
     atom  17 (R=0.717)  charge=  4.8579  magn=  0.0001
     atom  18 (R=0.717)  charge=  4.8644  magn=  0.0001
     atom  19 (R=0.717)  charge=  7.8685  magn= -0.0002
     atom  20 (R=0.717)  charge=  7.8397  magn= -0.0001
     atom  21 (R=0.717)  charge=  4.7571  magn=  0.0000
     atom  22 (R=0.717)  charge=  4.8381  magn=  0.0000
     atom  23 (R=0.717)  charge=  4.8628  magn=  0.0002
     atom  24 (R=0.717)  charge=  4.8628  magn=  0.0002
     atom  25 (R=0.717)  charge=  7.8575  magn= -0.0020
     atom  26 (R=0.717)  charge=  7.8411  magn= -0.0001
     atom  27 (R=0.717)  charge=  4.8641  magn=  0.0002
     atom  28 (R=0.717)  charge=  4.9005  magn=  0.0000
     atom  29 (R=0.717)  charge=  4.8713  magn=  0.0000
     atom  30 (R=0.717)  charge=  4.8719  magn=  0.0000
     atom  31 (R=0.717)  charge=  7.8400  magn= -0.0001
     atom  32 (R=0.717)  charge=  7.8316  magn= -0.0005
     atom  33 (R=0.717)  charge=  4.8864  magn=  0.0000
     atom  34 (R=0.717)  charge=  4.8465  magn=  0.0000
     atom  35 (R=0.717)  charge=  4.8727  magn=  0.0000
     atom  36 (R=0.717)  charge=  4.8718  magn=  0.0000
     atom  37 (R=0.717)  charge=  7.8315  magn= -0.0001
     atom  38 (R=0.717)  charge=  7.8428  magn= -0.0001
     atom  39 (R=0.717)  charge=  4.8525  magn=  0.0000
     atom  40 (R=0.717)  charge=  4.8881  magn=  0.0000
     atom  41 (R=0.717)  charge=  4.8602  magn=  0.0001
     atom  42 (R=0.717)  charge=  4.8621  magn=  0.0001
     atom  43 (R=0.717)  charge=  7.8658  magn= -0.0002
     atom  44 (R=0.717)  charge=  7.8696  magn= -0.0000
     atom  45 (R=0.717)  charge=  4.7572  magn=  0.0001
     atom  46 (R=0.717)  charge=  4.8628  magn=  0.0002
     atom  47 (R=0.717)  charge=  4.8628  magn=  0.0002
     atom  48 (R=0.419)  charge=  0.4540  magn= -0.0000
     atom  49 (R=0.419)  charge=  1.3226  magn=  0.0000
     atom  50 (R=0.450)  charge=  0.8489  magn=  0.0000
     atom  51 (R=0.419)  charge=  0.4420  magn= -0.0000
     atom  52 (R=0.419)  charge=  0.4440  magn= -0.0000
     atom  53 (R=0.419)  charge=  0.4432  magn= -0.0000

     End of self-consistent calculation

 ------ SPIN UP ------------

          k = 0.0000 0.0000 0.0000 ( 18029 PWs)   bands (ev):

   -55.9795 -55.9727 -55.9454 -55.9366 -55.8847 -55.8239 -55.8193 -55.7858
   -55.7847 -55.7519 -55.7455 -55.7118 -55.5546 -55.2746 -54.9539 -54.9199
   -32.5326 -32.4619 -32.3336 -32.3205 -32.2998 -32.2844 -32.2721 -32.2365
   -32.2209 -32.2199 -32.1956 -32.1886 -32.1558 -32.1310 -32.1244 -32.1174
   -32.1156 -32.0839 -32.0640 -32.0360 -32.0304 -32.0260 -32.0103 -31.9888
   -31.9793 -31.9770 -31.9721 -31.9622 -31.9488 -31.9421 -31.9399 -31.9346
   -31.9222 -31.9160 -31.8987 -31.8926 -31.8580 -31.8193 -31.7234 -31.5488
   -31.5422 -31.4712 -31.3606 -31.2729 -31.2504 -31.1773 -31.0908 -30.9798
   -16.7422 -16.4589 -16.2796 -16.1365 -16.1033 -16.0182 -15.8179 -15.6928
   -15.6796 -15.5764 -15.5387 -15.5159 -15.5081 -15.4811 -15.4780 -15.4191
   -15.4160 -15.4037 -15.3913 -15.3352 -15.3112 -15.2714 -15.1772 -15.1533
   -15.1377 -15.1113 -15.0302 -15.0231 -14.5830 -14.1015 -13.4562 -13.3399
    -8.9332  -4.3697  -4.1128  -3.9360  -3.8970  -3.8837  -3.8351  -3.5835
    -3.5673  -3.3117  -3.1925  -3.1770  -3.1671  -3.1515  -3.1371  -3.1177
    -2.8804  -2.8099  -2.7962  -2.7739  -2.7668  -2.7636  -2.7516  -2.7473
    -2.7050  -2.6451  -2.5275  -2.5143  -2.4084  -2.3611  -2.3383  -2.2907
    -2.2471  -2.2406  -2.2284  -2.2111  -2.1970  -2.1774  -2.1596  -2.0250
    -1.9615  -1.8333  -1.7858  -1.7797  -1.5820  -1.5372  -1.4475  -1.4242
    -1.4078  -1.4003  -1.3681  -1.2879  -1.1965  -1.1394  -1.1259  -1.0731
    -0.9965  -0.9849  -0.8744  -0.8698  -0.8064  -0.7502  -0.7410  -0.7315
    -0.6863  -0.6127  -0.5400  -0.4659  -0.4162  -0.3948  -0.3677  -0.2890
    -0.2589  -0.1623  -0.1439  -0.0973  -0.0940  -0.0449  -0.0031   0.0068
     0.0135   0.0282   0.0459   0.1945   0.3015   0.3582   0.3916   0.4025
     0.5579   0.5939   0.6821   0.7695   0.9952   1.0682   1.1618   1.2611
     1.3244   1.6389   1.6843   3.1629   3.2432   3.2947   3.3026   3.4044
     3.4069   3.6129   3.6245   3.6350   3.7032

[...]

          k =-0.0760-0.0000 0.0000 ( 17886 PWs)   bands (ev):

[...]

 ------ SPIN DOWN ----------

[...]

          k = 0.0380-0.0419 0.0000 ( 17876 PWs)   bands (ev):

[...]

          k =-0.0760-0.0839 0.0000 ( 17948 PWs)   bands (ev):

   -55.9666 -55.9659 -55.9556 -55.9537 -55.8799 -55.8298 -55.8044 -55.8001
   -55.7705 -55.7687 -55.7294 -55.7282 -55.5539 -55.2756 -54.9370 -54.9369
   -32.3371 -32.3342 -32.2791 -32.2786 -32.2658 -32.2622 -32.2615 -32.2452
   -32.1829 -32.1820 -32.1753 -32.1715 -32.1486 -32.1204 -32.1015 -32.0974
   -32.0872 -32.0861 -32.0854 -32.0837 -32.0817 -32.0693 -32.0669 -32.0359
   -32.0248 -32.0189 -31.9945 -31.9853 -31.9670 -31.9665 -31.9623 -31.9611
   -31.9443 -31.9437 -31.9419 -31.9401 -31.8877 -31.8223 -31.7189 -31.6121
   -31.5445 -31.4968 -31.2633 -31.2632 -31.1735 -31.1733 -31.1342 -31.1342
   -16.1940 -16.1606 -15.9251 -15.9155 -15.9066 -15.8905 -15.7458 -15.6939
   -15.6855 -15.6788 -15.6543 -15.6307 -15.5795 -15.5490 -15.5152 -15.5086
   -15.5020 -15.4967 -15.4404 -15.4339 -15.4116 -15.4042 -15.2907 -15.2866
   -15.2850 -15.2089 -15.1446 -15.0112 -14.7530 -14.1224 -13.4418 -13.4415
    -8.9369  -4.3807  -3.4885  -3.4504  -3.2763  -3.1929  -3.1651  -3.1519
    -3.1308  -3.0513  -2.8916  -2.8771  -2.8586  -2.8456  -2.8054  -2.8003
    -2.7886  -2.7747  -2.7676  -2.7498  -2.7160  -2.6754  -2.6469  -2.6399
    -2.6309  -2.6063  -2.5940  -2.5676  -2.5620  -2.5292  -2.5210  -2.5023
    -2.4785  -2.2168  -2.1979  -2.1807  -2.1116  -2.1048  -2.0700  -2.0617
    -2.0428  -2.0294  -1.9773  -1.8761  -1.7130  -1.6801  -1.6671  -1.6504
    -1.5852  -1.5647  -1.4159  -1.3877  -1.3708  -1.3309  -1.2821  -1.2523
    -1.2153  -1.1757  -1.1385  -1.0780  -1.0700  -0.9908  -0.9407  -0.9402
    -0.9130  -0.8432  -0.7644  -0.7473  -0.7355  -0.6943  -0.6806  -0.5992
    -0.5765  -0.4781  -0.4653  -0.3953  -0.3632  -0.2972  -0.0933   0.0040
     0.0629   0.0866   0.1397   0.2370   0.2913   0.3051   0.3384   0.3434
     0.4032   0.4440   0.5583   0.5659   0.6343   0.7379   1.2726   1.4326
     1.4332   1.5040   1.5043   3.4235   3.4293   3.4788   3.5097   3.6602
     3.6646   3.6878   3.6889   3.8104   3.8279

     the Fermi energy is     3.1550 ev

!    total energy              =   -2920.42048896 Ry
     estimated scf accuracy    <       0.00000005 Ry
     smearing contrib. (-TS)   =      -0.02203180 Ry
     internal energy E=F+TS    =   -2920.39845715 Ry

     The total energy is F=E-TS. E is the sum of the following terms:
     one-electron contribution =  -24727.71580003 Ry
     hartree contribution      =   12448.52700836 Ry
     xc contribution           =    -480.87646189 Ry
     ewald contribution        =    9839.66588370 Ry
     electric field correction =       0.00091271 Ry

     total magnetization       =    -0.01 Bohr mag/cell
     absolute magnetization    =     0.01 Bohr mag/cell

     convergence has been achieved in  80 iterations

     Forces acting on atoms (cartesian axes, Ry/au):

     atom    1 type  1   force =     0.00009472   -0.00018633    0.09686960
     atom    2 type  1   force =     0.00004714   -0.00050274   -0.17507228
     atom    3 type  2   force =     0.00012950    0.00000950   -0.02534166
     atom    4 type  2   force =    -0.00003247   -0.00128521    0.05236631
     atom    5 type  2   force =    -0.01222207   -0.00001095    0.00299504
     atom    6 type  2   force =     0.01365234    0.00058503    0.00233098
     atom    7 type  1   force =     0.00058853    0.00033511   -0.01303128
     atom    8 type  1   force =     0.00047660    0.00729088    0.03068082
     atom    9 type  2   force =     0.00055936    0.00003561   -0.00021285
     atom   10 type  2   force =    -0.00267695    0.00210979   -0.01739670
     atom   11 type  2   force =    -0.00013413    0.00007410   -0.00002136
     atom   12 type  2   force =     0.00045984    0.00034100    0.00018409
     atom   13 type  1   force =    -0.00011295   -0.00056074   -0.00015441
     atom   14 type  1   force =    -0.00042593    0.00005396    0.00080577
     atom   15 type  2   force =    -0.00000329   -0.00078435    0.00081027
     atom   16 type  2   force =     0.00026288    0.00063271   -0.00046705
     atom   17 type  2   force =     0.00064710    0.00008545    0.00063087
     atom   18 type  2   force =    -0.00011246   -0.00007866    0.00004303
     atom   19 type  1   force =     0.00000428    0.00048947   -0.00026565
     atom   20 type  1   force =    -0.00025760   -0.00050725    0.00008011
     atom   21 type  2   force =     0.00005628   -0.00002696    0.10311485
     atom   22 type  2   force =     0.00014377   -0.00087863    0.00102207
     atom   23 type  2   force =    -0.07164371   -0.00015243   -0.02781827
     atom   24 type  2   force =     0.07154774    0.00034395   -0.02787435
     atom   25 type  1   force =     0.00009082   -0.00014571    0.09658210
     atom   26 type  1   force =     0.00009429   -0.00023974   -0.17520418
     atom   27 type  2   force =     0.00011754   -0.00011535   -0.02440633
     atom   28 type  2   force =     0.00004390   -0.00104088    0.05228328
     atom   29 type  2   force =    -0.01242124    0.00063766    0.00278823
     atom   30 type  2   force =     0.01372446    0.00098251    0.00213543
     atom   31 type  1   force =     0.00045471    0.00313478   -0.01357805
     atom   32 type  1   force =     0.00033332   -0.00951456    0.03107442
     atom   33 type  2   force =    -0.00007050    0.00031520   -0.00060462
     atom   34 type  2   force =    -0.00206467    0.00181791   -0.02539365
     atom   35 type  2   force =    -0.00017329   -0.00029020    0.00037970
     atom   36 type  2   force =     0.00025290   -0.00077916    0.00040660
     atom   37 type  1   force =     0.00002653    0.00022550    0.00101682
     atom   38 type  1   force =    -0.00021367    0.00041310    0.00077436
     atom   39 type  2   force =    -0.00005752   -0.00016598   -0.00061067
     atom   40 type  2   force =     0.00042807    0.00007954    0.00058756
     atom   41 type  2   force =     0.00029035   -0.00024623   -0.00004118
     atom   42 type  2   force =    -0.00051291   -0.00040983   -0.00034660
     atom   43 type  1   force =    -0.00076155   -0.00018511    0.00042846
     atom   44 type  1   force =    -0.00036121   -0.00067883    0.00050349
     atom   45 type  2   force =     0.00003898   -0.00004870    0.10313078
     atom   46 type  2   force =    -0.07163850   -0.00006808   -0.02781647
     atom   47 type  2   force =     0.07155886    0.00034741   -0.02787789
     atom   48 type  3   force =    -0.00003076   -0.00043160   -0.00004821
     atom   49 type  4   force =    -0.00019188   -0.00011813   -0.00042390
     atom   50 type  5   force =     0.00044173   -0.00054869    0.00052393
     atom   51 type  3   force =    -0.00086155    0.00026676    0.00026788
     atom   52 type  3   force =     0.00022801   -0.00059083   -0.00044047
     atom   53 type  3   force =     0.00018626   -0.00001510   -0.00036878

     Total force =     0.368452     Total SCF correction =     0.000441
  @ DRIVER MODE: Message from server: STATUS
  @ DRIVER MODE: Message from server: GETFORCE
  @ DRIVER MODE: Returning v,forces,stress,ensemble

     Writing output data file ./calc.save/
  @ DRIVER MODE: Message from server: EXIT
  @ DRIVE MODE: Exiting

     General routines

     Parallel routines

   This run was terminated on:  16:59:53  15Jul2021

   JOB DONE.