     Program PWSCF v.6.7GPU starts on 22Sep2021 at  7: 4:50

     R & G space division:  proc/nbgrp/npool/nimage =      10
     Reading input from /storage/home/hcoda1/3/ntian30/research/carbon/CxH_vib/CH_calc/ads_slab/CHNHNHH2O_b/out_0025/pw.inp
Warning: card &CELL ignored
Warning: card   CELL_DYNAMICS='IPI', ignored
Warning: card / ignored

     Current dimensions of program PWSCF are:
     Max number of different atomic species (ntypx) = 10
     Max number of k-points (npk) =  40000
     Max angular momentum in pseudopotentials (lmaxx) =  3
     Presently no symmetry can be used with electric field

     Message from routine cell_base_init:
     DEPRECATED: use true lattice parameter, not A to a.u. conversion factor

     IMPORTANT: XC functional enforced from input :
     Exchange-correlation= BEEF-VDW
                           (   1   4  43  14   2   0   0)
     Any further DFT definition will be discarded
     Please, verify this is what you really want

  @ DRIVER MODE: Connecting to
 qe_1139763_2927424.sched-torque.pace.gatech.eduolu0hki2_scratch
  using UNIX socket
  @ DRIVER MODE: Message from server: STATUS
  @ DRIVER MODE: Message from server: INIT
  @ DRIVER MODE: Receiving replica           0          -1
  @ DRIVER MODE: Receiving encoded integer          25
  @ DRIVER MODE:  SCF:  T  FORCE:  T  STRESS:  F  VC:  F  ENSEMBLE:  F
  @ DRIVER MODE:  SCF:  T  FORCE:  T  STRESS:  F  VC:  F  ENSEMBLE:  F

     Using Slab Decomposition

     bravais-lattice index     =            0
     lattice parameter (alat)  =       1.8897  a.u.
     unit-cell volume          =    6658.9804 (a.u.)^3
     number of atoms/cell      =           56
     number of atomic types    =            5
     number of electrons       =       403.00
     number of Kohn-Sham states=          211
     kinetic-energy cutoff     =      29.3995  Ry
     charge density cutoff     =     293.9946  Ry
     scf convergence threshold =      7.3E-08
     mixing beta               =       0.0500
     number of iterations used =            8  plain     mixing
     Exchange-correlation= BEEF-VDW
                           (   1   4  43  14   2   0   0)

     celldm(1)=   1.889726  celldm(2)=   0.000000  celldm(3)=   0.000000
     celldm(4)=   0.000000  celldm(5)=   0.000000  celldm(6)=   0.000000

     crystal axes: (cart. coord. in units of alat)
               a(1) = (   6.579727   0.000000   0.000000 )
               a(2) = (  -0.000775   5.961596   0.000000 )
               a(3) = (   0.000000   0.000000  25.155947 )

     reciprocal axes: (cart. coord. in units 2 pi/alat)
               b(1) = (  0.151982  0.000020  0.000000 )
               b(2) = (  0.000000  0.167740  0.000000 )
               b(3) = (  0.000000  0.000000  0.039752 )

     PseudoPot. # 1 for Ti read from file:
     /storage/coda1/p-amedford6/0/shared/rich_project_chbe-medford/medford-share/data/pseudos_module/espresso/nninc/pbe/van/Ti.UPF
     MD5 check sum: 8e4df49b7f0d34bbd5052bf3f5ea0213
     Pseudo is Ultrasoft, Zval = 12.0
     Generated by new atomic code, or converted to UPF format
     Using radial grid of  851 points,  6 beta functions with:
                l(1) =   0
                l(2) =   0
                l(3) =   1
                l(4) =   1
                l(5) =   2
                l(6) =   2
     Q(r) pseudized with  8 coefficients,  rinner =    1.000   1.000   1.000
                                                       1.000   1.000

     PseudoPot. # 2 for O  read from file:
     /storage/coda1/p-amedford6/0/shared/rich_project_chbe-medford/medford-share/data/pseudos_module/espresso/nninc/pbe/van/O.UPF
     MD5 check sum: 78c19812648e8988a0fe644b0f25305e
     Pseudo is Ultrasoft, Zval =  6.0
     Generated by new atomic code, or converted to UPF format
     Using radial grid of  737 points,  4 beta functions with:
                l(1) =   0
                l(2) =   0
                l(3) =   1
                l(4) =   1
     Q(r) pseudized with  8 coefficients,  rinner =    0.800   0.800   0.800

     PseudoPot. # 3 for N  read from file:
     /storage/coda1/p-amedford6/0/shared/rich_project_chbe-medford/medford-share/data/pseudos_module/espresso/nninc/pbe/van/N.UPF
     MD5 check sum: 90d10febe142ad51ac9d5be1deb811c4
     Pseudo is Ultrasoft, Zval =  5.0
     Generated by new atomic code, or converted to UPF format
     Using radial grid of  729 points,  4 beta functions with:
                l(1) =   0
                l(2) =   0
                l(3) =   1
                l(4) =   1
     Q(r) pseudized with  8 coefficients,  rinner =    0.800   0.800   0.800

     PseudoPot. # 4 for C  read from file:
     /storage/coda1/p-amedford6/0/shared/rich_project_chbe-medford/medford-share/data/pseudos_module/espresso/nninc/pbe/van/C.UPF
     MD5 check sum: 1a69bf6b8db32088f5b2163dbdb77a27
     Pseudo is Ultrasoft, Zval =  4.0
     Generated by new atomic code, or converted to UPF format
     Using radial grid of  721 points,  4 beta functions with:
                l(1) =   0
                l(2) =   0
                l(3) =   1
                l(4) =   1
     Q(r) pseudized with  8 coefficients,  rinner =    0.800   0.800   0.800

     PseudoPot. # 5 for H  read from file:
     /storage/coda1/p-amedford6/0/shared/rich_project_chbe-medford/medford-share/data/pseudos_module/espresso/nninc/pbe/van/H.UPF
     MD5 check sum: b5ee9d7bfd3a09ee7748110bda690ff7
     Pseudo is Ultrasoft, Zval =  1.0
     Generated by new atomic code, or converted to UPF format
     Using radial grid of  615 points,  1 beta functions with:
                l(1) =   0
     Q(r) pseudized with  8 coefficients,  rinner =    0.800

     atomic species   valence    mass     pseudopotential
        Ti1           12.00    47.86700     Ti( 1.00)
        O1             6.00    15.99900     O ( 1.00)
        N1             5.00    14.00700     N ( 1.00)
        C1             4.00    12.01100     C ( 1.00)
        H1             1.00     1.00800     H ( 1.00)

     No symmetry found

   Cartesian axes

     site n.     atom                  positions (alat units)
         1           Ti1 tau(   1) = (   0.0004258   2.9801865   6.0000000  )
         2           Ti1 tau(   2) = (   3.2906075   1.4906267   6.0002472  )
         3           O1  tau(   3) = (   0.0006271   0.0005054   7.9858123  )
         4           O1  tau(   4) = (   3.2906025   0.0005020   7.3038282  )
         5           O1  tau(   5) = (   4.5942328   1.4918067   9.2879030  )
         6           O1  tau(   6) = (   1.9868534   1.4903216   9.2879459  )
         7           Ti1 tau(   7) = (   3.2907910   2.8959150   9.1758416  )
         8           Ti1 tau(   8) = (   0.0015273   1.4827037   9.2680791  )
         9           O1  tau(   9) = (   3.2780774   5.9605562  11.3537357  )
        10           O1  tau(  10) = (   0.0116148   5.9584955  10.6183126  )
        11           O1  tau(  11) = (   1.2922713   1.4781662  12.6511241  )
        12           O1  tau(  12) = (   5.2965393   1.5043564  12.6031353  )
        13           Ti1 tau(  13) = (   6.5273184   3.0207086  12.5807821  )
        14           Ti1 tau(  14) = (   3.2344070   1.4559942  12.5004267  )
        15           O1  tau(  15) = (   6.4759410   0.0295824  14.6525783  )
        16           O1  tau(  16) = (   3.3604338   0.0238249  13.9383540  )
        17           O1  tau(  17) = (   4.5324113   1.5808541  16.1066768  )
        18           O1  tau(  18) = (   1.9684897   1.4712893  15.8817925  )
        19           Ti1 tau(  19) = (   3.2566353   3.0739815  15.8599551  )
        20           Ti1 tau(  20) = (   6.5466614   1.5318677  15.7800735  )
        21           O1  tau(  21) = (   3.2904802   0.0005063   4.7018136  )
        22           O1  tau(  22) = (   6.5744325   0.0155309  17.2227980  )
        23           O1  tau(  23) = (   1.3043587   1.4918075   6.0039043  )
        24           O1  tau(  24) = (   5.2767064   1.4903225   6.0039473  )
        25           Ti1 tau(  25) = (   0.0000382   5.9609847   6.0000000  )
        26           Ti1 tau(  26) = (   3.2902200   4.4714249   6.0002472  )
        27           O1  tau(  27) = (   0.0002396   2.9813036   7.9858123  )
        28           O1  tau(  28) = (   3.2902150   2.9813002   7.3038282  )
        29           O1  tau(  29) = (   4.5938453   4.4726049   9.2879030  )
        30           O1  tau(  30) = (   1.9864658   4.4711199   9.2879459  )
        31           Ti1 tau(  31) = (   3.2891106   5.8743827   9.1763621  )
        32           Ti1 tau(  32) = (   0.0006254   4.4649316   9.2693709  )
        33           O1  tau(  33) = (   3.2727763   2.9788165  11.3438337  )
        34           O1  tau(  34) = (   0.0092240   2.9805883  10.6323155  )
        35           O1  tau(  35) = (   1.2865780   4.4896361  12.6556599  )
        36           O1  tau(  36) = (   5.2967437   4.4749066  12.6066920  )
        37           Ti1 tau(  37) = (   6.5467059   0.0356701  12.5108493  )
        38           Ti1 tau(  38) = (   3.2305653   4.4019604  12.5605372  )
        39           O1  tau(  39) = (   6.5199767   2.9846217  14.6905747  )
        40           O1  tau(  40) = (   3.2851694   3.0254550  13.9321539  )
        41           O1  tau(  41) = (   4.5310495   4.4602642  16.1636806  )
        42           O1  tau(  42) = (   1.9842988   4.5744318  15.9411167  )
        43           Ti1 tau(  43) = (   3.2691225   0.1036042  15.7405456  )
        44           Ti1 tau(  44) = (   6.5697781   4.6877429  16.0360384  )
        45           O1  tau(  45) = (   3.2900926   2.9813045   4.7018136  )
        46           O1  tau(  46) = (   1.3039711   4.4726057   6.0039043  )
        47           O1  tau(  47) = (   5.2763189   4.4711207   6.0039473  )
        48           N1  tau(  48) = (   1.2792381   2.8578196  18.3696018  )
        49           N1  tau(  49) = (   0.1888888   2.9646215  17.5057353  )
        50           C1  tau(  50) = (   2.5352320   2.9081513  18.0382144  )
        51           H1  tau(  51) = (   3.1442446   2.7411670  18.9317345  )
        52           H1  tau(  52) = (   0.9914291   2.6635404  19.3302151  )
        53           H1  tau(  53) = (   5.9397212   2.8571719  18.0851170  )
        54           O1  tau(  54) = (   3.2630597   0.0341043  18.2348460  )
        55           H1  tau(  55) = (   4.0455299   5.4198958  18.2485053  )
        56           H1  tau(  56) = (   2.4923979   5.4091459  18.3156537  )

     number of k points=    10  Fermi-Dirac smearing, width (Ry)=  0.0073
                       cart. coord. in units 2pi/alat
        k(    1) = (   0.0000000   0.0000000   0.0000000), wk =   0.1250000
        k(    2) = (   0.0000000   0.0419351   0.0000000), wk =   0.2500000
        k(    3) = (   0.0000000  -0.0838702   0.0000000), wk =   0.1250000
        k(    4) = (   0.0379955   0.0000049   0.0000000), wk =   0.2500000
        k(    5) = (   0.0379955   0.0419400   0.0000000), wk =   0.2500000
        k(    6) = (   0.0379955  -0.0838652   0.0000000), wk =   0.2500000
        k(    7) = (   0.0379955  -0.0419301   0.0000000), wk =   0.2500000
        k(    8) = (  -0.0759910  -0.0000099   0.0000000), wk =   0.1250000
        k(    9) = (  -0.0759910   0.0419252   0.0000000), wk =   0.2500000
        k(   10) = (  -0.0759910  -0.0838800   0.0000000), wk =   0.1250000

     Initial potential from superposition of free atoms

     starting charge  386.99914, renormalised to  403.00000

     negative rho (up, down):  1.738E-02 0.000E+00

     %%%%%%%%%%%%%%%%%%%%%%%%%%%%%%%%%%%%%%%%%%%%%%%%%%%%%%%%%%%%%%%%%%%%%%%%
     %                                                                      %
     % You are using vdW-DF, which was implemented by the Thonhauser group. %
     % Please cite the following two papers that made this development      %
     % possible and the two reviews that describe the various versions:     %
     %                                                                      %
     %   T. Thonhauser et al., PRL 115, 136402 (2015).                      %
     %   T. Thonhauser et al., PRB 76, 125112 (2007).                       %
     %   K. Berland et al., Rep. Prog. Phys. 78, 066501 (2015).             %
     %   D.C. Langreth et al., J. Phys.: Condens. Matter 21, 084203 (2009). %
     %                                                                      %
     %                                                                      %
     % If you are calculating the stress with vdW-DF, please also cite:     %
     %                                                                      %
     %   R. Sabatini et al., J. Phys.: Condens. Matter 24, 424209 (2012).   %
     %                                                                      %
     %%%%%%%%%%%%%%%%%%%%%%%%%%%%%%%%%%%%%%%%%%%%%%%%%%%%%%%%%%%%%%%%%%%%%%%%

     Adding external electric field

     Computed dipole along edir(3) :
        Dipole              -12.3463 Ry au,        -31.3811 Debye
        Dipole field         -0.0233 Ry au,

        Potential amp.        2.1598 Ry
        Total length         46.3494 bohr

     Starting wfcs are  305 atomic wfcs
  @ DRIVER MODE: Message from server: STATUS
  @ DRIVER MODE: Message from server: POSDATA
  @ DRIVER MODE: Reading and sharing cell
  @ DRIVER MODE: Reading and sharing positions
  @ DRIVER MODE: Received positions

     Self-consistent Calculation

     iteration #  1     ecut=    29.40 Ry     beta= 0.05
     Davidson diagonalization with overlap
     c_bands:  5 eigenvalues not converged
     c_bands:  3 eigenvalues not converged
     c_bands:  3 eigenvalues not converged
     c_bands:  1 eigenvalues not converged
     c_bands:  2 eigenvalues not converged
     c_bands:  2 eigenvalues not converged
     c_bands:  5 eigenvalues not converged
     c_bands:  2 eigenvalues not converged
     c_bands:  4 eigenvalues not converged
     ethr =  1.00E-05,  avg # of iterations = 29.3

[...]

     total energy              =   -2358.73417019 Ry
     estimated scf accuracy    <    6971.29668675 Ry

     iteration #  2     ecut=    29.40 Ry     beta= 0.05
     Davidson diagonalization with overlap
     ethr =  1.00E-02,  avg # of iterations = 25.9

[...]

     iteration # 59     ecut=    29.40 Ry     beta= 0.05
     Davidson diagonalization with overlap
     c_bands:  1 eigenvalues not converged
     ethr =  9.67E-09,  avg # of iterations = 12.2

[...]

     total energy              =   -2973.94008793 Ry
     estimated scf accuracy    <       0.00000009 Ry

     iteration # 73     ecut=    29.40 Ry     beta= 0.05
     Davidson diagonalization with overlap
     ethr =  2.13E-11,  avg # of iterations = 10.1

     negative rho (up, down):  1.725E-02 0.000E+00

     Adding external electric field

     Computed dipole along edir(3) :
        Dipole                1.3969 Ry au,          3.5505 Debye
        Dipole field          0.0026 Ry au,

        Potential amp.       -0.2444 Ry
        Total length         46.3494 bohr

     End of self-consistent calculation

          k = 0.0000 0.0000 0.0000 ( 18029 PWs)   bands (ev):

   -55.3199 -55.2859 -55.2105 -55.1862 -55.1675 -55.1560 -55.1407 -55.1188
   -55.1069 -55.1053 -55.0979 -55.0633 -54.9919 -54.8337 -54.3002 -54.2662
   -31.8042 -31.7314 -31.6574 -31.6504 -31.6405 -31.6119 -31.5875 -31.5651
   -31.5202 -31.5008 -31.4723 -31.4644 -31.4559 -31.4412 -31.4260 -31.4218
   -31.3985 -31.3805 -31.3772 -31.3653 -31.3360 -31.3334 -31.3292 -31.3263
   -31.3233 -31.3195 -31.3154 -31.2974 -31.2894 -31.2795 -31.2727 -31.2726
   -31.2629 -31.2610 -31.2523 -31.2485 -31.2400 -31.2147 -31.2104 -31.0899
   -31.0751 -31.0491 -30.7069 -30.6192 -30.5968 -30.5241 -30.4377 -30.3262
   -18.8776 -18.6482 -15.9781 -15.7943 -15.6132 -15.4743 -15.3922 -15.1606
   -15.1021 -15.0637 -14.9826 -14.9599 -14.8593 -14.8405 -14.8390 -14.8207
   -14.8178 -14.7627 -14.7473 -14.7431 -14.6945 -14.6877 -14.6624 -14.6470
   -14.5944 -14.5157 -14.5072 -14.4607 -14.4155 -14.3690 -14.0225 -13.4051
   -12.8009 -12.6844  -8.7994  -7.2639  -6.6171  -4.3209  -3.7889  -3.3612
    -3.2848  -3.2496  -3.2247  -3.0886  -2.9719  -2.8660  -2.7534  -2.6715
    -2.5850  -2.4806  -2.4240  -2.3784  -2.3175  -2.2580  -2.2316  -2.1459
    -2.1263  -2.1067  -2.0848  -2.0583  -2.0289  -1.9918  -1.8691  -1.8584
    -1.7766  -1.7202  -1.6815  -1.6637  -1.6385  -1.6340  -1.6009  -1.5813
    -1.5727  -1.5609  -1.5596  -1.5241  -1.3854  -1.3614  -1.3327  -1.3093
    -1.1634  -1.0261  -0.9373  -0.9348  -0.8254  -0.7607  -0.7575  -0.7191
    -0.7035  -0.6009  -0.5157  -0.4792  -0.4544  -0.3751  -0.3178  -0.2629
    -0.2112  -0.1755  -0.1094  -0.0854  -0.0688  -0.0519   0.0176   0.0798
     0.1410   0.2262   0.2696   0.2940   0.3850   0.3991   0.4221   0.4871
     0.5192   0.5639   0.5992   0.6285   0.6520   0.6823   0.7076   0.7508
     0.7886   0.9146   0.9329   0.9614   0.9826   1.1569   1.2066   1.3077
     1.3394   1.4422   1.4836   1.6625   1.7238   1.8031   1.9156   2.2939
     2.3396   3.7892   3.9007   3.9347   3.9597   3.9990   4.0503   4.2569
     4.3300   4.3712   4.4280

[...]

          k = 0.0380-0.0419 0.0000 ( 17876 PWs)   bands (ev):

[...]

          k =-0.0760-0.0000 0.0000 ( 17886 PWs)   bands (ev):

[...]

          k =-0.0760-0.0839 0.0000 ( 17948 PWs)   bands (ev):

   -55.3031 -55.3025 -55.2011 -55.1827 -55.1762 -55.1445 -55.1306 -55.1238
   -55.1231 -55.1089 -55.0846 -55.0767 -54.9902 -54.8353 -54.2832 -54.2831
   -31.6196 -31.6192 -31.5975 -31.5971 -31.5657 -31.5337 -31.5026 -31.4901
   -31.4832 -31.4679 -31.4492 -31.4446 -31.4401 -31.4308 -31.4257 -31.4235
   -31.4225 -31.4221 -31.4170 -31.4012 -31.3902 -31.3763 -31.3657 -31.3634
   -31.3583 -31.3538 -31.3445 -31.3321 -31.3262 -31.3247 -31.3094 -31.3003
   -31.2970 -31.2963 -31.2946 -31.2918 -31.2626 -31.2333 -31.2194 -31.1460
   -31.0923 -31.0780 -30.6095 -30.6095 -30.5198 -30.5197 -30.4810 -30.4809
   -18.8670 -18.6543 -15.3554 -15.3204 -15.2824 -15.2551 -15.2390 -15.1182
   -15.1045 -15.0688 -15.0273 -15.0142 -14.9839 -14.9551 -14.9063 -14.8978
   -14.8637 -14.8441 -14.8048 -14.7785 -14.7591 -14.7548 -14.7380 -14.7164
   -14.6729 -14.6511 -14.6385 -14.6342 -14.5823 -14.4877 -14.2078 -13.4277
   -12.7863 -12.7862  -8.7949  -7.1892  -6.6181  -4.5301  -3.5712  -2.8656
    -2.6654  -2.6308  -2.5787  -2.4886  -2.4411  -2.3195  -2.3128  -2.2902
    -2.2448  -2.2318  -2.1910  -2.1508  -2.1449  -2.1171  -2.1047  -2.0601
    -2.0488  -2.0456  -2.0314  -1.9977  -1.9922  -1.9717  -1.9475  -1.9444
    -1.9341  -1.9178  -1.8846  -1.8776  -1.8504  -1.8310  -1.6804  -1.6066
    -1.5632  -1.4859  -1.4628  -1.4460  -1.4269  -1.3922  -1.3720  -1.3463
    -1.3181  -1.1720  -1.0312  -0.9968  -0.9721  -0.8736  -0.8582  -0.8389
    -0.7921  -0.7505  -0.7147  -0.6565  -0.6483  -0.6014  -0.5802  -0.4601
    -0.4230  -0.3238  -0.2883  -0.2866  -0.2689  -0.2541  -0.2371  -0.2112
    -0.1616  -0.0904  -0.0749  -0.0262  -0.0024   0.0003   0.0132   0.1594
     0.2300   0.2507   0.3532   0.3828   0.5577   0.7217   0.7336   0.8014
     0.8644   0.9196   0.9533   0.9931   1.0032   1.0689   1.0937   1.1980
     1.2086   1.2577   1.2618   1.3421   1.3539   2.0875   2.0891   2.1596
     2.1597   4.1533   4.1687   4.1971   4.2601   4.3036   4.3152   4.3526
     4.3563   4.4593   4.4746

     the Fermi energy is     3.8074 ev

!    total energy              =   -2973.94010164 Ry
     estimated scf accuracy    <       0.00000005 Ry
     smearing contrib. (-TS)   =      -0.02072370 Ry
     internal energy E=F+TS    =   -2973.91937794 Ry

     The total energy is F=E-TS. E is the sum of the following terms:
     one-electron contribution =  -24338.94097582 Ry
     hartree contribution      =   12267.17302187 Ry
     xc contribution           =    -494.11533736 Ry
     ewald contribution        =    9591.96023116 Ry
     electric field correction =       0.00368222 Ry

     convergence has been achieved in  73 iterations

     Forces acting on atoms (cartesian axes, Ry/au):

     atom    1 type  1   force =     0.00002395   -0.00009883    0.09508185
     atom    2 type  1   force =     0.00017834   -0.00068898   -0.17563958
     atom    3 type  2   force =     0.00008839   -0.00004862   -0.02295117
     atom    4 type  2   force =     0.00002148   -0.00143417    0.05290100
     atom    5 type  2   force =    -0.01000627   -0.00031389    0.00380394
     atom    6 type  2   force =     0.01112922    0.00020250    0.00205886
     atom    7 type  1   force =    -0.00021134    0.00177888   -0.00588742
     atom    8 type  1   force =     0.00080868    0.01008598    0.01604793
     atom    9 type  2   force =    -0.00015883    0.00086700    0.00031418
     atom   10 type  2   force =    -0.00227294    0.00217609   -0.01802540
     atom   11 type  2   force =     0.00023653   -0.00003444    0.00006907
     atom   12 type  2   force =    -0.00034930   -0.00018719    0.00054961
     atom   13 type  1   force =    -0.00002268    0.00125559    0.00019822
     atom   14 type  1   force =    -0.00011784    0.00007311   -0.00000211
     atom   15 type  2   force =     0.00011637    0.00020979   -0.00004844
     atom   16 type  2   force =    -0.00037205    0.00044128   -0.00024152
     atom   17 type  2   force =    -0.00020129   -0.00021061   -0.00000784
     atom   18 type  2   force =    -0.00001830    0.00002093    0.00039056
     atom   19 type  1   force =    -0.00056546    0.00032254   -0.00043013
     atom   20 type  1   force =    -0.00026479   -0.00005022    0.00018530
     atom   21 type  2   force =     0.00009124   -0.00008538    0.10321143
     atom   22 type  2   force =     0.00037568    0.00000973    0.00054994
     atom   23 type  2   force =    -0.07162121   -0.00016811   -0.02757499
     atom   24 type  2   force =     0.07157811    0.00024647   -0.02762409
     atom   25 type  1   force =     0.00023653   -0.00039570    0.09518561
     atom   26 type  1   force =    -0.00004014   -0.00020220   -0.17580608
     atom   27 type  2   force =     0.00012177   -0.00012301   -0.02197728
     atom   28 type  2   force =     0.00001448   -0.00139844    0.05323191
     atom   29 type  2   force =    -0.01035079   -0.00022738    0.00364570
     atom   30 type  2   force =     0.01138809    0.00042446    0.00191385
     atom   31 type  1   force =    -0.00029948    0.00266262   -0.00008829
     atom   32 type  1   force =     0.00067289   -0.01114831    0.01692636
     atom   33 type  2   force =     0.00037409   -0.00027343   -0.00000316
     atom   34 type  2   force =    -0.00033758    0.00143984   -0.01895901
     atom   35 type  2   force =    -0.00001231   -0.00035221   -0.00017595
     atom   36 type  2   force =     0.00000278   -0.00024437    0.00042494
     atom   37 type  1   force =    -0.00005466   -0.00122426    0.00035731
     atom   38 type  1   force =    -0.00039177    0.00091986    0.00005275
     atom   39 type  2   force =     0.00009472    0.00006504    0.00004448
     atom   40 type  2   force =    -0.00047814   -0.00059634    0.00007489
     atom   41 type  2   force =     0.00015944   -0.00016566    0.00030953
     atom   42 type  2   force =    -0.00017372   -0.00034424   -0.00022213
     atom   43 type  1   force =    -0.00026555   -0.00019463    0.00045989
     atom   44 type  1   force =     0.00005567   -0.00038175    0.00025356
     atom   45 type  2   force =     0.00010061   -0.00010254    0.10323017
     atom   46 type  2   force =    -0.07160687   -0.00016980   -0.02756688
     atom   47 type  2   force =     0.07160727    0.00024336   -0.02758017
     atom   48 type  3   force =    -0.00281204   -0.00118983    0.00346278
     atom   49 type  3   force =     0.00002355    0.00032096   -0.00140064
     atom   50 type  4   force =    -0.00039426   -0.00049877    0.00191190
     atom   51 type  5   force =    -0.00012757   -0.00050578   -0.00026719
     atom   52 type  5   force =     0.00375472   -0.00033613   -0.00394598
     atom   53 type  5   force =     0.00019786   -0.00039339   -0.00069077
     atom   54 type  2   force =    -0.00004299    0.00107612   -0.00012101
     atom   55 type  5   force =     0.00014740   -0.00023970   -0.00001582
     atom   56 type  5   force =    -0.00002974   -0.00081383    0.00040550

     Total force =     0.365302     Total SCF correction =     0.000587
  @ DRIVER MODE: Message from server: STATUS
  @ DRIVER MODE: Message from server: GETFORCE
  @ DRIVER MODE: Returning v,forces,stress,ensemble

     Writing output data file ./calc.save/
  @ DRIVER MODE: Message from server: EXIT
  @ DRIVE MODE: Exiting

     General routines

     Parallel routines

   This run was terminated on:   7:26:46  22Sep2021

   JOB DONE.