     Program PWSCF v.6.7GPU starts on 16Sep2021 at  2:58:27

     R & G space division:  proc/nbgrp/npool/nimage =      10
     Reading input from /storage/home/hcoda1/3/ntian30/research/carbon/CxH_vib/H2O_calc/ads_slab/CHN2HH2O_a/out_0037/pw.inp
Warning: card &CELL ignored
Warning: card   CELL_DYNAMICS='IPI', ignored
Warning: card / ignored

     Current dimensions of program PWSCF are:
     Max number of different atomic species (ntypx) = 10
     Max number of k-points (npk) =  40000
     Max angular momentum in pseudopotentials (lmaxx) =  3
     Presently no symmetry can be used with electric field

     Message from routine cell_base_init:
     DEPRECATED: use true lattice parameter, not A to a.u. conversion factor

     IMPORTANT: XC functional enforced from input :
     Exchange-correlation= BEEF-VDW
                           (   1   4  43  14   2   0   0)
     Any further DFT definition will be discarded
     Please, verify this is what you really want

  @ DRIVER MODE: Connecting to
 qe_1139763_2852626.sched-torque.pace.gatech.eduim1xic0g_scratch
  using UNIX socket
  @ DRIVER MODE: Message from server: STATUS
  @ DRIVER MODE: Message from server: INIT
  @ DRIVER MODE: Receiving replica           0          -1
  @ DRIVER MODE: Receiving encoded integer          25
  @ DRIVER MODE:  SCF:  T  FORCE:  T  STRESS:  F  VC:  F  ENSEMBLE:  F
  @ DRIVER MODE:  SCF:  T  FORCE:  T  STRESS:  F  VC:  F  ENSEMBLE:  F

     Using Slab Decomposition

     bravais-lattice index     =            0
     lattice parameter (alat)  =       1.8897  a.u.
     unit-cell volume          =    6658.9804 (a.u.)^3
     number of atoms/cell      =           55
     number of atomic types    =            5
     number of electrons       =       402.00
     number of Kohn-Sham states=          211
     kinetic-energy cutoff     =      29.3995  Ry
     charge density cutoff     =     293.9946  Ry
     scf convergence threshold =      7.3E-08
     mixing beta               =       0.0500
     number of iterations used =            8  plain     mixing
     Exchange-correlation= BEEF-VDW
                           (   1   4  43  14   2   0   0)

     celldm(1)=   1.889726  celldm(2)=   0.000000  celldm(3)=   0.000000
     celldm(4)=   0.000000  celldm(5)=   0.000000  celldm(6)=   0.000000

     crystal axes: (cart. coord. in units of alat)
               a(1) = (   6.579727   0.000000   0.000000 )
               a(2) = (  -0.000775   5.961596   0.000000 )
               a(3) = (   0.000000   0.000000  25.155947 )

     reciprocal axes: (cart. coord. in units 2 pi/alat)
               b(1) = (  0.151982  0.000020  0.000000 )
               b(2) = (  0.000000  0.167740  0.000000 )
               b(3) = (  0.000000  0.000000  0.039752 )

     PseudoPot. # 1 for Ti read from file:
     /storage/coda1/p-amedford6/0/shared/rich_project_chbe-medford/medford-share/data/pseudos_module/espresso/nninc/pbe/van/Ti.UPF
     MD5 check sum: 8e4df49b7f0d34bbd5052bf3f5ea0213
     Pseudo is Ultrasoft, Zval = 12.0
     Generated by new atomic code, or converted to UPF format
     Using radial grid of  851 points,  6 beta functions with:
                l(1) =   0
                l(2) =   0
                l(3) =   1
                l(4) =   1
                l(5) =   2
                l(6) =   2
     Q(r) pseudized with  8 coefficients,  rinner =    1.000   1.000   1.000
                                                       1.000   1.000

     PseudoPot. # 2 for O  read from file:
     /storage/coda1/p-amedford6/0/shared/rich_project_chbe-medford/medford-share/data/pseudos_module/espresso/nninc/pbe/van/O.UPF
     MD5 check sum: 78c19812648e8988a0fe644b0f25305e
     Pseudo is Ultrasoft, Zval =  6.0
     Generated by new atomic code, or converted to UPF format
     Using radial grid of  737 points,  4 beta functions with:
                l(1) =   0
                l(2) =   0
                l(3) =   1
                l(4) =   1
     Q(r) pseudized with  8 coefficients,  rinner =    0.800   0.800   0.800

     PseudoPot. # 3 for N  read from file:
     /storage/coda1/p-amedford6/0/shared/rich_project_chbe-medford/medford-share/data/pseudos_module/espresso/nninc/pbe/van/N.UPF
     MD5 check sum: 90d10febe142ad51ac9d5be1deb811c4
     Pseudo is Ultrasoft, Zval =  5.0
     Generated by new atomic code, or converted to UPF format
     Using radial grid of  729 points,  4 beta functions with:
                l(1) =   0
                l(2) =   0
                l(3) =   1
                l(4) =   1
     Q(r) pseudized with  8 coefficients,  rinner =    0.800   0.800   0.800

     PseudoPot. # 4 for C  read from file:
     /storage/coda1/p-amedford6/0/shared/rich_project_chbe-medford/medford-share/data/pseudos_module/espresso/nninc/pbe/van/C.UPF
     MD5 check sum: 1a69bf6b8db32088f5b2163dbdb77a27
     Pseudo is Ultrasoft, Zval =  4.0
     Generated by new atomic code, or converted to UPF format
     Using radial grid of  721 points,  4 beta functions with:
                l(1) =   0
                l(2) =   0
                l(3) =   1
                l(4) =   1
     Q(r) pseudized with  8 coefficients,  rinner =    0.800   0.800   0.800

     PseudoPot. # 5 for H  read from file:
     /storage/coda1/p-amedford6/0/shared/rich_project_chbe-medford/medford-share/data/pseudos_module/espresso/nninc/pbe/van/H.UPF
     MD5 check sum: b5ee9d7bfd3a09ee7748110bda690ff7
     Pseudo is Ultrasoft, Zval =  1.0
     Generated by new atomic code, or converted to UPF format
     Using radial grid of  615 points,  1 beta functions with:
                l(1) =   0
     Q(r) pseudized with  8 coefficients,  rinner =    0.800

     atomic species   valence    mass     pseudopotential
        Ti1           12.00    47.86700     Ti( 1.00)
        O1             6.00    15.99900     O ( 1.00)
        N1             5.00    14.00700     N ( 1.00)
        C1             4.00    12.01100     C ( 1.00)
        H1             1.00     1.00800     H ( 1.00)

     No symmetry found

   Cartesian axes

     site n.     atom                  positions (alat units)
         1           Ti1 tau(   1) = (   0.0004258   2.9801865   6.0000000  )
         2           Ti1 tau(   2) = (   3.2906075   1.4906267   6.0002472  )
         3           O1  tau(   3) = (   0.0006271   0.0005054   7.9858123  )
         4           O1  tau(   4) = (   3.2906025   0.0005020   7.3038282  )
         5           O1  tau(   5) = (   4.5942328   1.4918067   9.2879030  )
         6           O1  tau(   6) = (   1.9868534   1.4903216   9.2879459  )
         7           Ti1 tau(   7) = (   3.2907910   2.8959150   9.1758416  )
         8           Ti1 tau(   8) = (   0.0015273   1.4827037   9.2680791  )
         9           O1  tau(   9) = (   3.2768631   0.0039008  11.3091060  )
        10           O1  tau(  10) = (   0.0116148   5.9584955  10.6183126  )
        11           O1  tau(  11) = (   1.2710838   1.4709840  12.6395574  )
        12           O1  tau(  12) = (   5.2772223   1.5075092  12.6020671  )
        13           Ti1 tau(  13) = (   0.0276258   2.9086511  12.7028215  )
        14           Ti1 tau(  14) = (   3.3492493   1.4375301  12.4845766  )
        15           O1  tau(  15) = (   6.5006329   5.9509897  14.6081112  )
        16           O1  tau(  16) = (   3.3450391   0.0041935  13.9069437  )
        17           O1  tau(  17) = (   4.5555219   1.5659029  16.0522165  )
        18           O1  tau(  18) = (   1.9836904   1.4119734  15.8927236  )
        19           Ti1 tau(  19) = (   3.2827818   2.9316656  15.8555152  )
        20           Ti1 tau(  20) = (   6.5629331   1.3437128  15.9803530  )
        21           O1  tau(  21) = (   3.2904802   0.0005063   4.7018136  )
        22           O1  tau(  22) = (   6.5074089   5.9525318  17.1494500  )
        23           O1  tau(  23) = (   1.3043587   1.4918075   6.0039043  )
        24           O1  tau(  24) = (   5.2767064   1.4903225   6.0039473  )
        25           Ti1 tau(  25) = (   0.0000382   5.9609847   6.0000000  )
        26           Ti1 tau(  26) = (   3.2902200   4.4714249   6.0002472  )
        27           O1  tau(  27) = (   0.0002396   2.9813036   7.9858123  )
        28           O1  tau(  28) = (   3.2902150   2.9813002   7.3038282  )
        29           O1  tau(  29) = (   4.5938453   4.4726049   9.2879030  )
        30           O1  tau(  30) = (   1.9864658   4.4711199   9.2879459  )
        31           Ti1 tau(  31) = (   3.2891106   5.8743827   9.1763621  )
        32           Ti1 tau(  32) = (   0.0006254   4.4649316   9.2693709  )
        33           O1  tau(  33) = (   3.2854303   2.9668816  11.2996989  )
        34           O1  tau(  34) = (   0.0092240   2.9805883  10.6323155  )
        35           O1  tau(  35) = (   1.2743094   4.4851408  12.6236879  )
        36           O1  tau(  36) = (   5.2782958   4.4707264  12.5946799  )
        37           Ti1 tau(  37) = (   0.0481499   5.8920156  12.5607908  )
        38           Ti1 tau(  38) = (   3.3544845   4.3749597  12.5572158  )
        39           O1  tau(  39) = (   6.5410016   3.0017514  14.6365314  )
        40           O1  tau(  40) = (   3.2441134   3.0029108  13.8718978  )
        41           O1  tau(  41) = (   4.5385932   4.4028810  16.0550583  )
        42           O1  tau(  42) = (   1.9619458   4.5383001  15.8611175  )
        43           Ti1 tau(  43) = (   3.2178196   5.9097812  15.7399460  )
        44           Ti1 tau(  44) = (   6.5330930   4.4908980  15.8705378  )
        45           O1  tau(  45) = (   3.2900926   2.9813045   4.7018136  )
        46           O1  tau(  46) = (   1.3039711   4.4726057   6.0039043  )
        47           O1  tau(  47) = (   5.2763189   4.4711207   6.0039473  )
        48           N1  tau(  48) = (   1.2867840   3.0293760  18.3347772  )
        49           C1  tau(  49) = (   2.5003166   3.0326976  17.9707196  )
        50           H1  tau(  50) = (   3.2053588   3.1791635  18.8000936  )
        51           N1  tau(  51) = (   0.2138509   2.9871109  17.4421441  )
        52           H1  tau(  52) = (   5.9621615   2.9869774  18.0311354  )
        53           O1  tau(  53) = (   3.4290693   5.9360351  18.0748810  )
        54           H1  tau(  54) = (   4.3680305   0.1327944  18.2306609  )
        55           H1  tau(  55) = (   2.9458904   0.7245148  18.4607207  )

     number of k points=    10  Fermi-Dirac smearing, width (Ry)=  0.0073
                       cart. coord. in units 2pi/alat
        k(    1) = (   0.0000000   0.0000000   0.0000000), wk =   0.1250000
        k(    2) = (   0.0000000   0.0419351   0.0000000), wk =   0.2500000
        k(    3) = (   0.0000000  -0.0838702   0.0000000), wk =   0.1250000
        k(    4) = (   0.0379955   0.0000049   0.0000000), wk =   0.2500000
        k(    5) = (   0.0379955   0.0419400   0.0000000), wk =   0.2500000
        k(    6) = (   0.0379955  -0.0838652   0.0000000), wk =   0.2500000
        k(    7) = (   0.0379955  -0.0419301   0.0000000), wk =   0.2500000
        k(    8) = (  -0.0759910  -0.0000099   0.0000000), wk =   0.1250000
        k(    9) = (  -0.0759910   0.0419252   0.0000000), wk =   0.2500000
        k(   10) = (  -0.0759910  -0.0838800   0.0000000), wk =   0.1250000

     Initial potential from superposition of free atoms

     starting charge  385.99915, renormalised to  402.00000

     negative rho (up, down):  1.831E-02 0.000E+00

     %%%%%%%%%%%%%%%%%%%%%%%%%%%%%%%%%%%%%%%%%%%%%%%%%%%%%%%%%%%%%%%%%%%%%%%%
     %                                                                      %
     % You are using vdW-DF, which was implemented by the Thonhauser group. %
     % Please cite the following two papers that made this development      %
     % possible and the two reviews that describe the various versions:     %
     %                                                                      %
     %   T. Thonhauser et al., PRL 115, 136402 (2015).                      %
     %   T. Thonhauser et al., PRB 76, 125112 (2007).                       %
     %   K. Berland et al., Rep. Prog. Phys. 78, 066501 (2015).             %
     %   D.C. Langreth et al., J. Phys.: Condens. Matter 21, 084203 (2009). %
     %                                                                      %
     %                                                                      %
     % If you are calculating the stress with vdW-DF, please also cite:     %
     %                                                                      %
     %   R. Sabatini et al., J. Phys.: Condens. Matter 24, 424209 (2012).   %
     %                                                                      %
     %%%%%%%%%%%%%%%%%%%%%%%%%%%%%%%%%%%%%%%%%%%%%%%%%%%%%%%%%%%%%%%%%%%%%%%%

     Adding external electric field

     Computed dipole along edir(3) :
        Dipole              -11.0899 Ry au,        -28.1877 Debye
        Dipole field         -0.0209 Ry au,

        Potential amp.        1.9400 Ry
        Total length         46.3494 bohr

     Starting wfcs are  304 atomic wfcs
  @ DRIVER MODE: Message from server: STATUS
  @ DRIVER MODE: Message from server: POSDATA
  @ DRIVER MODE: Reading and sharing cell
  @ DRIVER MODE: Reading and sharing positions
  @ DRIVER MODE: Received positions

     Self-consistent Calculation

     iteration #  1     ecut=    29.40 Ry     beta= 0.05
     Davidson diagonalization with overlap
     c_bands:  5 eigenvalues not converged
     c_bands:  1 eigenvalues not converged
     c_bands:  3 eigenvalues not converged
     c_bands:  4 eigenvalues not converged
     c_bands:  1 eigenvalues not converged
     c_bands:  1 eigenvalues not converged
     c_bands:  1 eigenvalues not converged
     c_bands:  1 eigenvalues not converged
     ethr =  1.00E-05,  avg # of iterations = 28.9

[...]

     total energy              =   -2403.79525918 Ry
     estimated scf accuracy    <    6374.30168568 Ry

     iteration #  2     ecut=    29.40 Ry     beta= 0.05
     Davidson diagonalization with overlap
     ethr =  1.00E-02,  avg # of iterations = 25.0

[...]

     iteration # 49     ecut=    29.40 Ry     beta= 0.05
     Davidson diagonalization with overlap
     c_bands:  1 eigenvalues not converged
     ethr =  4.98E-08,  avg # of iterations =  7.5

[...]

     total energy              =   -2972.69098767 Ry
     estimated scf accuracy    <       0.00000008 Ry

     iteration # 68     ecut=    29.40 Ry     beta= 0.05
     Davidson diagonalization with overlap
     ethr =  2.05E-11,  avg # of iterations =  5.9

     negative rho (up, down):  1.794E-02 0.000E+00

     Adding external electric field

     Computed dipole along edir(3) :
        Dipole                0.3634 Ry au,          0.9236 Debye
        Dipole field          0.0007 Ry au,

        Potential amp.       -0.0636 Ry
        Total length         46.3494 bohr

     End of self-consistent calculation

          k = 0.0000 0.0000 0.0000 ( 18029 PWs)   bands (ev):

   -56.3426 -56.3087 -55.9406 -55.9069 -55.7525 -55.7161 -55.5607 -55.5561
   -55.5474 -55.5241 -55.5140 -55.4506 -55.2516 -55.2398 -55.1460 -55.1120
   -32.7961 -32.6351 -32.6083 -32.5008 -32.4199 -32.4157 -32.4079 -32.2414
   -32.1581 -32.1539 -32.0954 -32.0827 -32.0684 -32.0437 -32.0380 -31.9785
   -31.9752 -31.9668 -31.9336 -31.9098 -31.9079 -31.8664 -31.8513 -31.8431
   -31.8182 -31.7807 -31.7591 -31.7321 -31.7290 -31.7099 -31.7078 -31.7049
   -31.6891 -31.6698 -31.6529 -31.6381 -31.5509 -31.5447 -31.5124 -31.4974
   -31.4767 -31.4684 -31.4532 -31.4394 -31.3629 -31.3333 -31.2779 -31.1662
   -18.8078 -16.9395 -16.6594 -16.3474 -16.1456 -15.9623 -15.8990 -15.8402
   -15.7877 -15.6668 -15.6048 -15.5766 -15.5045 -15.3996 -15.3801 -15.3525
   -15.3019 -15.2847 -15.2677 -15.2378 -15.1848 -15.1509 -15.1325 -15.0573
   -15.0358 -15.0242 -14.8995 -14.8320 -14.8077 -14.7727 -14.5183 -13.6449
   -13.5319 -12.2815  -6.7389  -6.5656  -4.1611  -4.0801  -3.9062  -3.7739
    -3.6668  -3.6185  -3.4644  -3.4151  -3.3651  -3.2767  -3.1201  -3.0880
    -3.0153  -2.9650  -2.9229  -2.8638  -2.8044  -2.7597  -2.7177  -2.6353
    -2.6295  -2.6181  -2.5995  -2.5806  -2.5634  -2.4483  -2.3558  -2.3383
    -2.3147  -2.2717  -2.2527  -2.2404  -2.1902  -2.1609  -2.0772  -2.0678
    -2.0210  -1.9626  -1.9161  -1.8080  -1.7952  -1.7218  -1.7026  -1.6609
    -1.5302  -1.4053  -1.3749  -1.3220  -1.3136  -1.2256  -1.2045  -1.1773
    -1.0789  -1.0667  -1.0227  -1.0005  -0.8765  -0.8508  -0.8029  -0.7951
    -0.7670  -0.6712  -0.6312  -0.5209  -0.4750  -0.4302  -0.4211  -0.3459
    -0.3176  -0.2734  -0.2230  -0.1703  -0.1682  -0.1400  -0.0579  -0.0154
     0.0302   0.0784   0.1144   0.2025   0.2560   0.2925   0.3072   0.3958
     0.4385   0.4537   0.5193   0.5876   0.6393   0.7057   0.7488   0.8628
     0.8776   0.8947   0.9774   1.0996   1.4092   1.4307   1.4710   1.6598
     2.6482   2.8807   3.0016   3.1657   3.3109   3.3603   3.6302   3.6852
     3.7278   3.7609   3.8350

[...]

          k = 0.0380-0.0419 0.0000 ( 17876 PWs)   bands (ev):

[...]

          k =-0.0760-0.0000 0.0000 ( 17886 PWs)   bands (ev):

[...]

          k =-0.0760-0.0839 0.0000 ( 17948 PWs)   bands (ev):

   -56.3262 -56.3250 -55.9255 -55.9218 -55.7411 -55.7274 -55.5558 -55.5448
   -55.5382 -55.5332 -55.5290 -55.4491 -55.2528 -55.2408 -55.1290 -55.1289
   -32.6212 -32.6200 -32.6122 -32.6116 -32.4531 -32.4518 -32.2411 -32.2370
   -32.1308 -32.1275 -32.1179 -32.1107 -32.0413 -32.0312 -31.9692 -31.9592
   -31.9498 -31.9471 -31.8982 -31.8881 -31.8669 -31.8649 -31.8585 -31.8270
   -31.8125 -31.7818 -31.7745 -31.7583 -31.7553 -31.7475 -31.7460 -31.7309
   -31.7258 -31.7159 -31.7045 -31.6348 -31.6085 -31.5551 -31.5247 -31.5092
   -31.4730 -31.4661 -31.4661 -31.3590 -31.3588 -31.3347 -31.3205 -31.3204
   -18.8055 -16.9180 -16.0639 -16.0515 -15.9336 -15.9287 -15.7500 -15.7317
   -15.6979 -15.6725 -15.6354 -15.5497 -15.4850 -15.4773 -15.4704 -15.4066
   -15.3615 -15.3524 -15.3333 -15.3055 -15.2791 -15.2531 -15.1610 -15.1353
   -15.1313 -15.1016 -15.0202 -15.0078 -14.9472 -14.8105 -14.7360 -13.6349
   -13.6345 -12.3028  -6.7316  -6.4767  -3.9942  -3.8343  -3.2344  -3.1982
    -3.1748  -3.0654  -3.0402  -2.9641  -2.8678  -2.8520  -2.8358  -2.8021
    -2.7771  -2.7687  -2.7529  -2.7077  -2.6607  -2.6388  -2.6229  -2.6144
    -2.6092  -2.5957  -2.5655  -2.5377  -2.4786  -2.4694  -2.4368  -2.4178
    -2.3891  -2.3126  -2.3054  -2.2890  -2.2877  -2.2317  -2.1321  -2.1170
    -2.1082  -2.0649  -2.0005  -1.9309  -1.8422  -1.8008  -1.7346  -1.6787
    -1.6219  -1.5939  -1.5810  -1.4820  -1.4228  -1.4123  -1.3654  -1.3120
    -1.2363  -1.1971  -1.1596  -1.1482  -1.1356  -1.0940  -1.0478  -0.9847
    -0.8697  -0.8460  -0.8353  -0.7723  -0.7681  -0.7579  -0.6484  -0.6179
    -0.5670  -0.5419  -0.5226  -0.4847  -0.4547  -0.3828  -0.2888  -0.2438
    -0.1141  -0.0974  -0.0438   0.0036   0.0156   0.1065   0.1951   0.2191
     0.3579   0.3721   0.4047   0.5376   0.6069   0.6583   0.6753   0.7980
     0.8176   0.8530   1.0199   1.2639   1.2683   1.2873   1.2884   1.6103
     2.6250   3.4199   3.4222   3.4521   3.4542   3.6641   3.6777   3.7556
     3.7936   3.8844   3.9063

     the Fermi energy is     2.8221 ev

!    total energy              =   -2972.69101260 Ry
     estimated scf accuracy    <       0.00000006 Ry
     smearing contrib. (-TS)   =      -0.01345302 Ry
     internal energy E=F+TS    =   -2972.67755959 Ry

     The total energy is F=E-TS. E is the sum of the following terms:
     one-electron contribution =  -24586.84990382 Ry
     hartree contribution      =   12385.44285246 Ry
     xc contribution           =    -493.18345332 Ry
     ewald contribution        =    9721.91269589 Ry
     electric field correction =       0.00024920 Ry

     convergence has been achieved in  68 iterations

     Forces acting on atoms (cartesian axes, Ry/au):

     atom    1 type  1   force =    -0.00001066   -0.00028758    0.10604173
     atom    2 type  1   force =    -0.00022066   -0.00076722   -0.16693377
     atom    3 type  2   force =    -0.00002431   -0.00013694   -0.03889422
     atom    4 type  2   force =    -0.00009936   -0.00037820    0.03648000
     atom    5 type  2   force =    -0.00755169   -0.00013017   -0.00577022
     atom    6 type  2   force =     0.00856443    0.00077870   -0.00745856
     atom    7 type  1   force =    -0.00079635   -0.00145902    0.01972836
     atom    8 type  1   force =     0.00110404    0.01828309    0.06311725
     atom    9 type  2   force =    -0.00008381   -0.00020242    0.00035136
     atom   10 type  2   force =    -0.00265201    0.00203351   -0.04761747
     atom   11 type  2   force =    -0.00023296   -0.00001519    0.00012490
     atom   12 type  2   force =     0.00037061   -0.00013117    0.00009135
     atom   13 type  1   force =     0.00006053   -0.00010863   -0.00038074
     atom   14 type  1   force =    -0.00048702    0.00001816    0.00004311
     atom   15 type  2   force =     0.00026657    0.00008142   -0.00032781
     atom   16 type  2   force =    -0.00013173   -0.00030163    0.00064456
     atom   17 type  2   force =    -0.00001673   -0.00028876    0.00045021
     atom   18 type  2   force =     0.00020392    0.00005176   -0.00024467
     atom   19 type  1   force =     0.00003469    0.00007984    0.00119329
     atom   20 type  1   force =     0.00019959    0.00006242    0.00012483
     atom   21 type  2   force =     0.00004818   -0.00001910    0.10088393
     atom   22 type  2   force =     0.00045298    0.00027995    0.00023952
     atom   23 type  2   force =    -0.07579821   -0.00011780   -0.02987124
     atom   24 type  2   force =     0.07568753    0.00033668   -0.02988047
     atom   25 type  1   force =     0.00020126   -0.00055867    0.10640296
     atom   26 type  1   force =    -0.00006705   -0.00026523   -0.16737461
     atom   27 type  2   force =    -0.00006229   -0.00032033   -0.03754479
     atom   28 type  2   force =     0.00007069   -0.00045748    0.03693806
     atom   29 type  2   force =    -0.00852389    0.00126107   -0.00516313
     atom   30 type  2   force =     0.00947822    0.00122251   -0.00688094
     atom   31 type  1   force =    -0.00129738   -0.00008395    0.02605313
     atom   32 type  1   force =     0.00115680   -0.02138346    0.06368885
     atom   33 type  2   force =    -0.00002344    0.00024793   -0.00003411
     atom   34 type  2   force =    -0.00008437    0.00090903   -0.05940762
     atom   35 type  2   force =    -0.00008023    0.00008744   -0.00012629
     atom   36 type  2   force =    -0.00011807    0.00036265   -0.00014408
     atom   37 type  1   force =     0.00002269   -0.00031751    0.00005837
     atom   38 type  1   force =    -0.00042413   -0.00010091   -0.00013605
     atom   39 type  2   force =    -0.00021101    0.00037583    0.00047826
     atom   40 type  2   force =     0.00046050    0.00013222   -0.00039636
     atom   41 type  2   force =    -0.00012045    0.00038798   -0.00006886
     atom   42 type  2   force =     0.00053498    0.00021786    0.00008493
     atom   43 type  1   force =    -0.00046317   -0.00002935   -0.00040115
     atom   44 type  1   force =     0.00040460    0.00020858   -0.00025685
     atom   45 type  2   force =     0.00002556   -0.00000225    0.10091451
     atom   46 type  2   force =    -0.07580907   -0.00010511   -0.02982561
     atom   47 type  2   force =     0.07567771    0.00032233   -0.02986231
     atom   48 type  3   force =    -0.00012148    0.00024623   -0.00000041
     atom   49 type  4   force =     0.00093644    0.00089891    0.00094814
     atom   50 type  5   force =    -0.00030517   -0.00134899   -0.00024794
     atom   51 type  3   force =     0.00024560    0.00005741   -0.00023558
     atom   52 type  5   force =     0.00001697    0.00028377    0.00025687
     atom   53 type  2   force =    -0.01857353   -0.00192715   -0.00328411
     atom   54 type  5   force =     0.01840856    0.00256678    0.00330556
     atom   55 type  5   force =    -0.00024338   -0.00054982    0.00012594

     Total force =     0.384506     Total SCF correction =     0.000752
  @ DRIVER MODE: Message from server: STATUS
  @ DRIVER MODE: Message from server: GETFORCE
  @ DRIVER MODE: Returning v,forces,stress,ensemble

     Writing output data file ./calc.save/
  @ DRIVER MODE: Message from server: EXIT
  @ DRIVE MODE: Exiting

     General routines

     Parallel routines

   This run was terminated on:   3:16:57  16Sep2021

   JOB DONE.