     Program PWSCF v.6.7GPU starts on 23Sep2021 at  5:24: 6

     R & G space division:  proc/nbgrp/npool/nimage =      10
     Reading input from /storage/home/hcoda1/3/ntian30/research/carbon/CxH_vib/H2O_calc/ads_slab/CH2N2HHO_a/out_0039/pw.inp
Warning: card &CELL ignored
Warning: card   CELL_DYNAMICS='IPI', ignored
Warning: card / ignored

     Current dimensions of program PWSCF are:
     Max number of different atomic species (ntypx) = 10
     Max number of k-points (npk) =  40000
     Max angular momentum in pseudopotentials (lmaxx) =  3
     Presently no symmetry can be used with electric field

     Message from routine cell_base_init:
     DEPRECATED: use true lattice parameter, not A to a.u. conversion factor

     IMPORTANT: XC functional enforced from input :
     Exchange-correlation= BEEF-VDW
                           (   1   4  43  14   2   0   0)
     Any further DFT definition will be discarded
     Please, verify this is what you really want

  @ DRIVER MODE: Connecting to
 qe_1139763_2937323.sched-torque.pace.gatech.eduvxeucnvc_scratch
  using UNIX socket
  @ DRIVER MODE: Message from server: STATUS
  @ DRIVER MODE: Message from server: INIT
  @ DRIVER MODE: Receiving replica           0          -1
  @ DRIVER MODE: Receiving encoded integer          25
  @ DRIVER MODE:  SCF:  T  FORCE:  T  STRESS:  F  VC:  F  ENSEMBLE:  F
  @ DRIVER MODE:  SCF:  T  FORCE:  T  STRESS:  F  VC:  F  ENSEMBLE:  F

     Using Slab Decomposition

     bravais-lattice index     =            0
     lattice parameter (alat)  =       1.8897  a.u.
     unit-cell volume          =    6658.9804 (a.u.)^3
     number of atoms/cell      =           55
     number of atomic types    =            5
     number of electrons       =       402.00
     number of Kohn-Sham states=          211
     kinetic-energy cutoff     =      29.3995  Ry
     charge density cutoff     =     293.9946  Ry
     scf convergence threshold =      7.3E-08
     mixing beta               =       0.0500
     number of iterations used =            8  plain     mixing
     Exchange-correlation= BEEF-VDW
                           (   1   4  43  14   2   0   0)

     celldm(1)=   1.889726  celldm(2)=   0.000000  celldm(3)=   0.000000
     celldm(4)=   0.000000  celldm(5)=   0.000000  celldm(6)=   0.000000

     crystal axes: (cart. coord. in units of alat)
               a(1) = (   6.579727   0.000000   0.000000 )
               a(2) = (  -0.000775   5.961596   0.000000 )
               a(3) = (   0.000000   0.000000  25.155947 )

     reciprocal axes: (cart. coord. in units 2 pi/alat)
               b(1) = (  0.151982  0.000020  0.000000 )
               b(2) = (  0.000000  0.167740  0.000000 )
               b(3) = (  0.000000  0.000000  0.039752 )

     PseudoPot. # 1 for Ti read from file:
     /storage/coda1/p-amedford6/0/shared/rich_project_chbe-medford/medford-share/data/pseudos_module/espresso/nninc/pbe/van/Ti.UPF
     MD5 check sum: 8e4df49b7f0d34bbd5052bf3f5ea0213
     Pseudo is Ultrasoft, Zval = 12.0
     Generated by new atomic code, or converted to UPF format
     Using radial grid of  851 points,  6 beta functions with:
                l(1) =   0
                l(2) =   0
                l(3) =   1
                l(4) =   1
                l(5) =   2
                l(6) =   2
     Q(r) pseudized with  8 coefficients,  rinner =    1.000   1.000   1.000
                                                       1.000   1.000

     PseudoPot. # 2 for O  read from file:
     /storage/coda1/p-amedford6/0/shared/rich_project_chbe-medford/medford-share/data/pseudos_module/espresso/nninc/pbe/van/O.UPF
     MD5 check sum: 78c19812648e8988a0fe644b0f25305e
     Pseudo is Ultrasoft, Zval =  6.0
     Generated by new atomic code, or converted to UPF format
     Using radial grid of  737 points,  4 beta functions with:
                l(1) =   0
                l(2) =   0
                l(3) =   1
                l(4) =   1
     Q(r) pseudized with  8 coefficients,  rinner =    0.800   0.800   0.800

     PseudoPot. # 3 for N  read from file:
     /storage/coda1/p-amedford6/0/shared/rich_project_chbe-medford/medford-share/data/pseudos_module/espresso/nninc/pbe/van/N.UPF
     MD5 check sum: 90d10febe142ad51ac9d5be1deb811c4
     Pseudo is Ultrasoft, Zval =  5.0
     Generated by new atomic code, or converted to UPF format
     Using radial grid of  729 points,  4 beta functions with:
                l(1) =   0
                l(2) =   0
                l(3) =   1
                l(4) =   1
     Q(r) pseudized with  8 coefficients,  rinner =    0.800   0.800   0.800

     PseudoPot. # 4 for C  read from file:
     /storage/coda1/p-amedford6/0/shared/rich_project_chbe-medford/medford-share/data/pseudos_module/espresso/nninc/pbe/van/C.UPF
     MD5 check sum: 1a69bf6b8db32088f5b2163dbdb77a27
     Pseudo is Ultrasoft, Zval =  4.0
     Generated by new atomic code, or converted to UPF format
     Using radial grid of  721 points,  4 beta functions with:
                l(1) =   0
                l(2) =   0
                l(3) =   1
                l(4) =   1
     Q(r) pseudized with  8 coefficients,  rinner =    0.800   0.800   0.800

     PseudoPot. # 5 for H  read from file:
     /storage/coda1/p-amedford6/0/shared/rich_project_chbe-medford/medford-share/data/pseudos_module/espresso/nninc/pbe/van/H.UPF
     MD5 check sum: b5ee9d7bfd3a09ee7748110bda690ff7
     Pseudo is Ultrasoft, Zval =  1.0
     Generated by new atomic code, or converted to UPF format
     Using radial grid of  615 points,  1 beta functions with:
                l(1) =   0
     Q(r) pseudized with  8 coefficients,  rinner =    0.800

     atomic species   valence    mass     pseudopotential
        Ti1           12.00    47.86700     Ti( 1.00)
        O1             6.00    15.99900     O ( 1.00)
        N1             5.00    14.00700     N ( 1.00)
        C1             4.00    12.01100     C ( 1.00)
        H1             1.00     1.00800     H ( 1.00)

     No symmetry found

   Cartesian axes

     site n.     atom                  positions (alat units)
         1           Ti1 tau(   1) = (   0.0004258   2.9801865   6.0000000  )
         2           Ti1 tau(   2) = (   3.2906075   1.4906267   6.0002472  )
         3           O1  tau(   3) = (   0.0006271   0.0005054   7.9858123  )
         4           O1  tau(   4) = (   3.2906025   0.0005020   7.3038282  )
         5           O1  tau(   5) = (   4.5942328   1.4918067   9.2879030  )
         6           O1  tau(   6) = (   1.9868534   1.4903216   9.2879459  )
         7           Ti1 tau(   7) = (   3.2907910   2.8959150   9.1758416  )
         8           Ti1 tau(   8) = (   0.0015273   1.4827037   9.2680791  )
         9           O1  tau(   9) = (   3.3002520   5.9418316  11.2747492  )
        10           O1  tau(  10) = (   0.0116148   5.9584955  10.6183126  )
        11           O1  tau(  11) = (   1.2897458   1.4862980  12.6211975  )
        12           O1  tau(  12) = (   5.3051886   1.5023792  12.6347999  )
        13           Ti1 tau(  13) = (   0.0146078   2.8478158  12.7200684  )
        14           Ti1 tau(  14) = (   3.3063360   1.3081926  12.6482236  )
        15           O1  tau(  15) = (   0.0235978   5.9609164  14.6274833  )
        16           O1  tau(  16) = (   3.2983906   0.0399142  13.8749830  )
        17           O1  tau(  17) = (   4.5813539   1.5856785  16.0626423  )
        18           O1  tau(  18) = (   2.0324892   1.5097802  16.0098020  )
        19           Ti1 tau(  19) = (   3.2774956   2.9544257  15.6266065  )
        20           Ti1 tau(  20) = (   6.5530467   1.3151789  15.9772938  )
        21           O1  tau(  21) = (   3.2904802   0.0005063   4.7018136  )
        22           O1  tau(  22) = (   6.5059356   5.9265713  17.1294848  )
        23           O1  tau(  23) = (   1.3043587   1.4918075   6.0039043  )
        24           O1  tau(  24) = (   5.2767064   1.4903225   6.0039473  )
        25           Ti1 tau(  25) = (   0.0000382   5.9609847   6.0000000  )
        26           Ti1 tau(  26) = (   3.2902200   4.4714249   6.0002472  )
        27           O1  tau(  27) = (   0.0002396   2.9813036   7.9858123  )
        28           O1  tau(  28) = (   3.2902150   2.9813002   7.3038282  )
        29           O1  tau(  29) = (   4.5938453   4.4726049   9.2879030  )
        30           O1  tau(  30) = (   1.9864658   4.4711199   9.2879459  )
        31           Ti1 tau(  31) = (   3.2891106   5.8743827   9.1763621  )
        32           Ti1 tau(  32) = (   0.0006254   4.4649316   9.2693709  )
        33           O1  tau(  33) = (   3.2992753   3.0242338  11.2405823  )
        34           O1  tau(  34) = (   0.0092240   2.9805883  10.6323155  )
        35           O1  tau(  35) = (   1.2972400   4.4705050  12.6241655  )
        36           O1  tau(  36) = (   5.3008088   4.4694758  12.6340222  )
        37           Ti1 tau(  37) = (   0.0289225   5.8314391  12.5906285  )
        38           Ti1 tau(  38) = (   3.3189507   4.3956991  12.4097224  )
        39           O1  tau(  39) = (   0.0312427   2.9750824  14.7260556  )
        40           O1  tau(  40) = (   3.2762925   2.9668711  13.8358254  )
        41           O1  tau(  41) = (   4.5358187   4.4455929  15.9064879  )
        42           O1  tau(  42) = (   2.0572077   4.4429961  16.0439637  )
        43           Ti1 tau(  43) = (   3.2186928   5.9141907  16.2420754  )
        44           Ti1 tau(  44) = (   6.4642982   4.4840528  15.9061301  )
        45           O1  tau(  45) = (   3.2900926   2.9813045   4.7018136  )
        46           O1  tau(  46) = (   1.3039711   4.4726057   6.0039043  )
        47           O1  tau(  47) = (   5.2763189   4.4711207   6.0039473  )
        48           N1  tau(  48) = (   0.2499663   2.3419386  17.9913213  )
        49           C1  tau(  49) = (   0.6208863   1.8700663  19.1394302  )
        50           H1  tau(  50) = (   0.7431952   2.5333404  19.9929579  )
        51           H1  tau(  51) = (   0.8399735   0.8189210  19.2161768  )
        52           N1  tau(  52) = (   6.5658643   3.6116587  17.7752569  )
        53           H1  tau(  53) = (   0.1300021   4.2235620  18.5825096  )
        54           O1  tau(  54) = (   3.3713844   5.8989882  18.0735649  )
        55           H1  tau(  55) = (   4.1655974   0.3538959  18.4550359  )

     number of k points=    10  Fermi-Dirac smearing, width (Ry)=  0.0073
                       cart. coord. in units 2pi/alat
        k(    1) = (   0.0000000   0.0000000   0.0000000), wk =   0.1250000
        k(    2) = (   0.0000000   0.0419351   0.0000000), wk =   0.2500000
        k(    3) = (   0.0000000  -0.0838702   0.0000000), wk =   0.1250000
        k(    4) = (   0.0379955   0.0000049   0.0000000), wk =   0.2500000
        k(    5) = (   0.0379955   0.0419400   0.0000000), wk =   0.2500000
        k(    6) = (   0.0379955  -0.0838652   0.0000000), wk =   0.2500000
        k(    7) = (   0.0379955  -0.0419301   0.0000000), wk =   0.2500000
        k(    8) = (  -0.0759910  -0.0000099   0.0000000), wk =   0.1250000
        k(    9) = (  -0.0759910   0.0419252   0.0000000), wk =   0.2500000
        k(   10) = (  -0.0759910  -0.0838800   0.0000000), wk =   0.1250000

     Initial potential from superposition of free atoms

     starting charge  385.99915, renormalised to  402.00000

     negative rho (up, down):  1.591E-02 0.000E+00

     %%%%%%%%%%%%%%%%%%%%%%%%%%%%%%%%%%%%%%%%%%%%%%%%%%%%%%%%%%%%%%%%%%%%%%%%
     %                                                                      %
     % You are using vdW-DF, which was implemented by the Thonhauser group. %
     % Please cite the following two papers that made this development      %
     % possible and the two reviews that describe the various versions:     %
     %                                                                      %
     %   T. Thonhauser et al., PRL 115, 136402 (2015).                      %
     %   T. Thonhauser et al., PRB 76, 125112 (2007).                       %
     %   K. Berland et al., Rep. Prog. Phys. 78, 066501 (2015).             %
     %   D.C. Langreth et al., J. Phys.: Condens. Matter 21, 084203 (2009). %
     %                                                                      %
     %                                                                      %
     % If you are calculating the stress with vdW-DF, please also cite:     %
     %                                                                      %
     %   R. Sabatini et al., J. Phys.: Condens. Matter 24, 424209 (2012).   %
     %                                                                      %
     %%%%%%%%%%%%%%%%%%%%%%%%%%%%%%%%%%%%%%%%%%%%%%%%%%%%%%%%%%%%%%%%%%%%%%%%

     Adding external electric field

     Computed dipole along edir(3) :
        Dipole              -11.3527 Ry au,        -28.8557 Debye
        Dipole field         -0.0214 Ry au,

        Potential amp.        1.9860 Ry
        Total length         46.3494 bohr

     Starting wfcs are  304 atomic wfcs
  @ DRIVER MODE: Message from server: STATUS
  @ DRIVER MODE: Message from server: POSDATA
  @ DRIVER MODE: Reading and sharing cell
  @ DRIVER MODE: Reading and sharing positions
  @ DRIVER MODE: Received positions

     Self-consistent Calculation

     iteration #  1     ecut=    29.40 Ry     beta= 0.05
     Davidson diagonalization with overlap
     c_bands:  4 eigenvalues not converged
     c_bands:  3 eigenvalues not converged
     c_bands:  3 eigenvalues not converged
     c_bands:  5 eigenvalues not converged
     c_bands:  5 eigenvalues not converged
     c_bands:  1 eigenvalues not converged
     c_bands:  5 eigenvalues not converged
     c_bands:  4 eigenvalues not converged
     c_bands:  5 eigenvalues not converged
     c_bands:  1 eigenvalues not converged
     ethr =  1.00E-05,  avg # of iterations = 24.0

[...]

     total energy              =   -2410.17070484 Ry
     estimated scf accuracy    <    6308.41146438 Ry

     iteration #  2     ecut=    29.40 Ry     beta= 0.05
     Davidson diagonalization with overlap
     ethr =  1.00E-02,  avg # of iterations = 23.0

[...]

     iteration # 63     ecut=    29.40 Ry     beta= 0.05
     Davidson diagonalization with overlap
     c_bands:  1 eigenvalues not converged
     ethr =  4.15E-07,  avg # of iterations = 10.2

[...]

     total energy              =   -2972.72751859 Ry
     estimated scf accuracy    <       0.00000008 Ry

     iteration # 86     ecut=    29.40 Ry     beta= 0.05
     Davidson diagonalization with overlap
     ethr =  1.90E-11,  avg # of iterations =  6.0

     negative rho (up, down):  1.620E-02 0.000E+00

     Adding external electric field

     Computed dipole along edir(3) :
        Dipole                0.4606 Ry au,          1.1707 Debye
        Dipole field          0.0009 Ry au,

        Potential amp.       -0.0806 Ry
        Total length         46.3494 bohr

     End of self-consistent calculation

          k = 0.0000 0.0000 0.0000 ( 18029 PWs)   bands (ev):

   -56.5387 -56.5051 -55.8867 -55.8512 -55.6240 -55.5645 -55.3801 -55.3262
   -55.3004 -55.2301 -55.2002 -55.1900 -55.1561 -55.0326 -55.0325 -54.9853
   -32.9710 -32.8235 -32.7955 -32.7062 -32.6149 -32.5966 -32.3697 -32.1062
   -32.1045 -32.0770 -32.0298 -32.0262 -31.9931 -31.8696 -31.8527 -31.8448
   -31.7919 -31.7682 -31.7273 -31.7093 -31.6920 -31.6476 -31.6449 -31.5873
   -31.5848 -31.5802 -31.5785 -31.5346 -31.5309 -31.5255 -31.5068 -31.5062
   -31.4844 -31.4797 -31.4238 -31.4055 -31.3998 -31.3543 -31.3171 -31.2943
   -31.2885 -31.2792 -31.2434 -31.2424 -31.2180 -31.2052 -31.1762 -31.1559
   -17.8182 -16.7240 -16.2898 -16.1488 -15.9799 -15.9084 -15.8832 -15.8524
   -15.7865 -15.6132 -15.5347 -15.5093 -15.4998 -15.4406 -15.2730 -15.1765
   -15.1587 -15.0925 -15.0147 -14.9907 -14.9514 -14.8983 -14.8708 -14.8563
   -14.8406 -14.8056 -14.6831 -14.6025 -14.5048 -14.3232 -14.3065 -13.6873
   -13.5777 -11.9701  -7.7248  -5.1544  -4.3595  -4.2746  -3.7957  -3.7598
    -3.6062  -3.4264  -3.3707  -3.2257  -3.1668  -3.1176  -3.0613  -3.0468
    -2.9432  -2.8008  -2.7940  -2.7401  -2.7179  -2.7140  -2.6946  -2.5939
    -2.5282  -2.5193  -2.4241  -2.3325  -2.3113  -2.2724  -2.2324  -2.2246
    -2.1814  -2.1423  -2.0876  -2.0508  -2.0347  -1.9368  -1.9178  -1.8114
    -1.7853  -1.7611  -1.7516  -1.7184  -1.6793  -1.6208  -1.5499  -1.4323
    -1.3425  -1.3229  -1.2506  -1.2452  -1.2199  -1.0579  -1.0168  -1.0146
    -0.9543  -0.8779  -0.8491  -0.7928  -0.7557  -0.7106  -0.6585  -0.6178
    -0.5821  -0.4531  -0.4492  -0.3983  -0.3131  -0.2931  -0.2616  -0.2382
    -0.1577  -0.1023  -0.0657   0.0060   0.0653   0.0720   0.1169   0.1751
     0.2836   0.3262   0.3510   0.3819   0.4242   0.4484   0.5168   0.5640
     0.5951   0.6040   0.6802   0.7819   0.7989   0.8334   0.9229   0.9475
     1.0313   1.0709   1.0876   1.1722   1.1931   1.3715   1.4098   1.5802
     2.3836   2.7260   2.8760   3.1585   3.1736   3.4658   3.6882   3.7161
     3.7188   3.7988   3.9367

[...]

          k = 0.0380-0.0419 0.0000 ( 17876 PWs)   bands (ev):

[...]

          k =-0.0760-0.0000 0.0000 ( 17886 PWs)   bands (ev):

[...]

          k =-0.0760-0.0839 0.0000 ( 17948 PWs)   bands (ev):

   -56.5222 -56.5215 -55.8747 -55.8629 -55.6187 -55.5697 -55.3740 -55.3321
   -55.2983 -55.2287 -55.2020 -55.1736 -55.1724 -55.0338 -55.0253 -54.9924
   -32.8095 -32.8087 -32.7881 -32.7871 -32.6591 -32.6588 -32.1957 -32.1862
   -32.0683 -32.0555 -32.0551 -32.0473 -31.9268 -31.8880 -31.8465 -31.8398
   -31.7967 -31.7906 -31.7032 -31.6709 -31.6286 -31.6108 -31.5926 -31.5875
   -31.5739 -31.5647 -31.5497 -31.5386 -31.5220 -31.5202 -31.5193 -31.5100
   -31.4729 -31.4689 -31.4301 -31.4105 -31.3977 -31.3962 -31.3871 -31.3592
   -31.3581 -31.2988 -31.2814 -31.2597 -31.2462 -31.2443 -31.2205 -31.1783
   -17.8044 -16.1267 -16.1074 -16.1031 -16.0199 -16.0175 -15.8138 -15.8066
   -15.6259 -15.6022 -15.5282 -15.4597 -15.3507 -15.3173 -15.2934 -15.2423
   -15.1966 -15.1687 -15.1116 -15.0799 -14.9980 -14.9666 -14.9507 -14.9393
   -14.9067 -14.8546 -14.7216 -14.6869 -14.6694 -14.5881 -14.4536 -13.6818
   -13.6810 -11.9276  -7.6550  -5.2156  -4.4330  -3.7335  -3.2196  -3.1913
    -3.1426  -3.1335  -2.9352  -2.8949  -2.8733  -2.8222  -2.7855  -2.7705
    -2.7258  -2.7198  -2.6379  -2.5856  -2.5539  -2.5413  -2.5174  -2.4575
    -2.4359  -2.4060  -2.3940  -2.3622  -2.3511  -2.3417  -2.3180  -2.2509
    -2.2010  -2.1490  -2.1157  -2.0751  -2.0179  -2.0125  -1.9783  -1.9697
    -1.8914  -1.8015  -1.7618  -1.6864  -1.6047  -1.5703  -1.5425  -1.5246
    -1.4806  -1.4249  -1.3977  -1.3489  -1.3232  -1.2697  -1.2342  -1.2241
    -1.1575  -1.1200  -1.0527  -1.0313  -0.9518  -0.8394  -0.7839  -0.7597
    -0.7324  -0.7198  -0.6504  -0.5861  -0.5398  -0.5210  -0.4482  -0.4399
    -0.4129  -0.3631  -0.3483  -0.3143  -0.2017  -0.1385  -0.0776   0.0061
     0.0455   0.0828   0.1621   0.2157   0.2405   0.3159   0.3971   0.4762
     0.4927   0.5342   0.5385   0.7055   0.7351   0.8443   0.8772   0.9519
     0.9868   1.0257   1.1474   1.1911   1.2215   1.2228   1.2435   1.2614
     2.3292   3.2957   3.2984   3.3481   3.3563   3.6239   3.6323   3.7702
     3.7721   3.8908   3.9301

     the Fermi energy is     2.6051 ev

!    total energy              =   -2972.72752528 Ry
     estimated scf accuracy    <       0.00000006 Ry
     smearing contrib. (-TS)   =      -0.00744226 Ry
     internal energy E=F+TS    =   -2972.72008302 Ry

     The total energy is F=E-TS. E is the sum of the following terms:
     one-electron contribution =  -24031.64070966 Ry
     hartree contribution      =   12109.47005475 Ry
     xc contribution           =    -493.27954526 Ry
     ewald contribution        =    9442.72971677 Ry
     electric field correction =       0.00040037 Ry

     convergence has been achieved in  86 iterations

     Forces acting on atoms (cartesian axes, Ry/au):

     atom    1 type  1   force =    -0.00000119   -0.00042898    0.11615378
     atom    2 type  1   force =    -0.00007278    0.00014851   -0.15939544
     atom    3 type  2   force =     0.00002561    0.00000527   -0.05255660
     atom    4 type  2   force =     0.00005246   -0.00013946    0.02468521
     atom    5 type  2   force =    -0.00348065   -0.00224847   -0.01042406
     atom    6 type  2   force =     0.00527701   -0.00175014   -0.01062084
     atom    7 type  1   force =     0.00000290   -0.00613530    0.04629145
     atom    8 type  1   force =     0.00041319    0.01612715    0.08038528
     atom    9 type  2   force =    -0.00001045   -0.00062190    0.00011548
     atom   10 type  2   force =    -0.00257492    0.00058517   -0.04975243
     atom   11 type  2   force =    -0.00055823   -0.00013662   -0.00014847
     atom   12 type  2   force =     0.00059566   -0.00028298    0.00001000
     atom   13 type  1   force =    -0.00017719    0.00043819   -0.00001709
     atom   14 type  1   force =     0.00017202    0.00002980   -0.00105426
     atom   15 type  2   force =    -0.00021264   -0.00036106   -0.00052672
     atom   16 type  2   force =     0.00012557   -0.00063841    0.00063083
     atom   17 type  2   force =    -0.00016431    0.00035675    0.00042561
     atom   18 type  2   force =     0.00019688    0.00053880    0.00000552
     atom   19 type  1   force =    -0.00053413   -0.00001372   -0.00052619
     atom   20 type  1   force =     0.00063592    0.00026332   -0.00015772
     atom   21 type  2   force =     0.00004685    0.00021602    0.09894805
     atom   22 type  2   force =     0.00000193   -0.00043823   -0.00033414
     atom   23 type  2   force =    -0.07986911    0.00004051   -0.03165695
     atom   24 type  2   force =     0.07976317    0.00047544   -0.03171252
     atom   25 type  1   force =     0.00007222   -0.00057923    0.11645814
     atom   26 type  1   force =    -0.00011775   -0.00143713   -0.15992053
     atom   27 type  2   force =     0.00007078   -0.00069963   -0.05056983
     atom   28 type  2   force =     0.00005372    0.00166754    0.02021907
     atom   29 type  2   force =    -0.00168465    0.00505091   -0.01371151
     atom   30 type  2   force =     0.00359785    0.00547386   -0.01384270
     atom   31 type  1   force =    -0.00017170    0.00218511    0.03177768
     atom   32 type  1   force =     0.00031668   -0.01972869    0.08004062
     atom   33 type  2   force =     0.00014256   -0.00037368    0.00012678
     atom   34 type  2   force =    -0.00158590    0.00085522   -0.06329139
     atom   35 type  2   force =     0.00040496    0.00003018   -0.00016461
     atom   36 type  2   force =     0.00015929   -0.00004931   -0.00023770
     atom   37 type  1   force =    -0.00013477   -0.00024216   -0.00058696
     atom   38 type  1   force =     0.00013498    0.00049489    0.00010462
     atom   39 type  2   force =    -0.00027707    0.00051706    0.00014998
     atom   40 type  2   force =     0.00023207    0.00010149    0.00068251
     atom   41 type  2   force =     0.00149701   -0.00022648   -0.00043351
     atom   42 type  2   force =    -0.00124198   -0.00048962   -0.00013113
     atom   43 type  1   force =    -0.00058493   -0.00017810   -0.00051816
     atom   44 type  1   force =    -0.00020269    0.00036061    0.00019002
     atom   45 type  2   force =     0.00005141    0.00002999    0.09875827
     atom   46 type  2   force =    -0.07991938    0.00000408   -0.03165727
     atom   47 type  2   force =     0.07981370    0.00043657   -0.03172972
     atom   48 type  3   force =    -0.00016441    0.00048099   -0.00022075
     atom   49 type  4   force =    -0.00024445    0.00009426   -0.00021754
     atom   50 type  5   force =    -0.00016407   -0.00030118   -0.00019619
     atom   51 type  5   force =     0.00010127    0.00031292   -0.00030390
     atom   52 type  3   force =    -0.00021911   -0.00081713    0.00047870
     atom   53 type  5   force =    -0.00030543    0.00027769   -0.00005054
     atom   54 type  2   force =     0.00608490    0.00414193    0.00242596
     atom   55 type  5   force =    -0.00536867   -0.00342262   -0.00239617

     Total force =     0.396844     Total SCF correction =     0.000781
  @ DRIVER MODE: Message from server: STATUS
  @ DRIVER MODE: Message from server: GETFORCE
  @ DRIVER MODE: Returning v,forces,stress,ensemble

     Writing output data file ./calc.save/
  @ DRIVER MODE: Message from server: EXIT
  @ DRIVE MODE: Exiting

     General routines

     Parallel routines

   This run was terminated on:   5:46:50  23Sep2021

   JOB DONE.