     Program PWSCF v.6.7GPU starts on  9Sep2021 at  3:48: 2

     R & G space division:  proc/nbgrp/npool/nimage =      10
     Reading input from /storage/home/hcoda1/3/ntian30/research/carbon/CxH_vib/CH_calc/ads_slab/CHNNHH_a/out_0016/pw.inp
Warning: card &CELL ignored
Warning: card   CELL_DYNAMICS='IPI', ignored
Warning: card / ignored

     Current dimensions of program PWSCF are:
     Max number of different atomic species (ntypx) = 10
     Max number of k-points (npk) =  40000
     Max angular momentum in pseudopotentials (lmaxx) =  3
     Presently no symmetry can be used with electric field

     Message from routine cell_base_init:
     DEPRECATED: use true lattice parameter, not A to a.u. conversion factor

     IMPORTANT: XC functional enforced from input :
     Exchange-correlation= BEEF-VDW
                           (   1   4  43  14   2   0   0)
     Any further DFT definition will be discarded
     Please, verify this is what you really want

  @ DRIVER MODE: Connecting to
 qe_1139763_2767382.sched-torque.pace.gatech.edubxy1du3n_scratch
  using UNIX socket
  @ DRIVER MODE: Message from server: STATUS
  @ DRIVER MODE: Message from server: INIT
  @ DRIVER MODE: Receiving replica           0          -1
  @ DRIVER MODE: Receiving encoded integer          25
  @ DRIVER MODE:  SCF:  T  FORCE:  T  STRESS:  F  VC:  F  ENSEMBLE:  F
  @ DRIVER MODE:  SCF:  T  FORCE:  T  STRESS:  F  VC:  F  ENSEMBLE:  F

     Using Slab Decomposition

     bravais-lattice index     =            0
     lattice parameter (alat)  =       1.8897  a.u.
     unit-cell volume          =    6658.9804 (a.u.)^3
     number of atoms/cell      =           53
     number of atomic types    =            5
     number of electrons       =       395.00
     number of Kohn-Sham states=          207
     kinetic-energy cutoff     =      29.3995  Ry
     charge density cutoff     =     293.9946  Ry
     scf convergence threshold =      7.3E-08
     mixing beta               =       0.0500
     number of iterations used =            8  plain     mixing
     Exchange-correlation= BEEF-VDW
                           (   1   4  43  14   2   0   0)

     celldm(1)=   1.889726  celldm(2)=   0.000000  celldm(3)=   0.000000
     celldm(4)=   0.000000  celldm(5)=   0.000000  celldm(6)=   0.000000

     crystal axes: (cart. coord. in units of alat)
               a(1) = (   6.579727   0.000000   0.000000 )
               a(2) = (  -0.000775   5.961596   0.000000 )
               a(3) = (   0.000000   0.000000  25.155947 )

     reciprocal axes: (cart. coord. in units 2 pi/alat)
               b(1) = (  0.151982  0.000020  0.000000 )
               b(2) = (  0.000000  0.167740  0.000000 )
               b(3) = (  0.000000  0.000000  0.039752 )

     PseudoPot. # 1 for Ti read from file:
     /storage/coda1/p-amedford6/0/shared/rich_project_chbe-medford/medford-share/data/pseudos_module/espresso/nninc/pbe/van/Ti.UPF
     MD5 check sum: 8e4df49b7f0d34bbd5052bf3f5ea0213
     Pseudo is Ultrasoft, Zval = 12.0
     Generated by new atomic code, or converted to UPF format
     Using radial grid of  851 points,  6 beta functions with:
                l(1) =   0
                l(2) =   0
                l(3) =   1
                l(4) =   1
                l(5) =   2
                l(6) =   2
     Q(r) pseudized with  8 coefficients,  rinner =    1.000   1.000   1.000
                                                       1.000   1.000

     PseudoPot. # 2 for O  read from file:
     /storage/coda1/p-amedford6/0/shared/rich_project_chbe-medford/medford-share/data/pseudos_module/espresso/nninc/pbe/van/O.UPF
     MD5 check sum: 78c19812648e8988a0fe644b0f25305e
     Pseudo is Ultrasoft, Zval =  6.0
     Generated by new atomic code, or converted to UPF format
     Using radial grid of  737 points,  4 beta functions with:
                l(1) =   0
                l(2) =   0
                l(3) =   1
                l(4) =   1
     Q(r) pseudized with  8 coefficients,  rinner =    0.800   0.800   0.800

     PseudoPot. # 3 for N  read from file:
     /storage/coda1/p-amedford6/0/shared/rich_project_chbe-medford/medford-share/data/pseudos_module/espresso/nninc/pbe/van/N.UPF
     MD5 check sum: 90d10febe142ad51ac9d5be1deb811c4
     Pseudo is Ultrasoft, Zval =  5.0
     Generated by new atomic code, or converted to UPF format
     Using radial grid of  729 points,  4 beta functions with:
                l(1) =   0
                l(2) =   0
                l(3) =   1
                l(4) =   1
     Q(r) pseudized with  8 coefficients,  rinner =    0.800   0.800   0.800

     PseudoPot. # 4 for C  read from file:
     /storage/coda1/p-amedford6/0/shared/rich_project_chbe-medford/medford-share/data/pseudos_module/espresso/nninc/pbe/van/C.UPF
     MD5 check sum: 1a69bf6b8db32088f5b2163dbdb77a27
     Pseudo is Ultrasoft, Zval =  4.0
     Generated by new atomic code, or converted to UPF format
     Using radial grid of  721 points,  4 beta functions with:
                l(1) =   0
                l(2) =   0
                l(3) =   1
                l(4) =   1
     Q(r) pseudized with  8 coefficients,  rinner =    0.800   0.800   0.800

     PseudoPot. # 5 for H  read from file:
     /storage/coda1/p-amedford6/0/shared/rich_project_chbe-medford/medford-share/data/pseudos_module/espresso/nninc/pbe/van/H.UPF
     MD5 check sum: b5ee9d7bfd3a09ee7748110bda690ff7
     Pseudo is Ultrasoft, Zval =  1.0
     Generated by new atomic code, or converted to UPF format
     Using radial grid of  615 points,  1 beta functions with:
                l(1) =   0
     Q(r) pseudized with  8 coefficients,  rinner =    0.800

     atomic species   valence    mass     pseudopotential
        Ti1           12.00    47.86700     Ti( 1.00)
        O1             6.00    15.99900     O ( 1.00)
        N1             5.00    14.00700     N ( 1.00)
        C1             4.00    12.01100     C ( 1.00)
        H1             1.00     1.00800     H ( 1.00)

     No symmetry found

   Cartesian axes

     site n.     atom                  positions (alat units)
         1           Ti1 tau(   1) = (   0.0004258   2.9801865   6.0000000  )
         2           Ti1 tau(   2) = (   3.2906075   1.4906267   6.0002472  )
         3           O1  tau(   3) = (   0.0006271   0.0005054   7.9858123  )
         4           O1  tau(   4) = (   3.2906025   0.0005020   7.3038282  )
         5           O1  tau(   5) = (   4.5942328   1.4918067   9.2879030  )
         6           O1  tau(   6) = (   1.9868534   1.4903216   9.2879459  )
         7           Ti1 tau(   7) = (   3.2907910   2.8959150   9.1758416  )
         8           Ti1 tau(   8) = (   0.0015273   1.4827037   9.2680791  )
         9           O1  tau(   9) = (   3.2912281   5.9459940  11.3193265  )
        10           O1  tau(  10) = (   0.0116148   5.9584955  10.6183126  )
        11           O1  tau(  11) = (   1.3103257   1.4650607  12.6442557  )
        12           O1  tau(  12) = (   5.3047449   1.4806448  12.6312737  )
        13           Ti1 tau(  13) = (   6.5337005   3.0128982  12.6900614  )
        14           Ti1 tau(  14) = (   3.2207025   1.4698770  12.4715817  )
        15           O1  tau(  15) = (   6.5518216   5.9146589  14.6704082  )
        16           O1  tau(  16) = (   3.3240203   5.9583723  13.8895330  )
        17           O1  tau(  17) = (   4.5456974   1.5225049  16.1264218  )
        18           O1  tau(  18) = (   2.0489736   1.4727210  15.9535721  )
        19           Ti1 tau(  19) = (   3.2591190   2.9927146  15.6788090  )
        20           Ti1 tau(  20) = (   0.0289511   1.3544711  15.7732889  )
        21           O1  tau(  21) = (   3.2904802   0.0005063   4.7018136  )
        22           O1  tau(  22) = (   0.0559926   0.0451390  17.2112278  )
        23           O1  tau(  23) = (   1.3043587   1.4918075   6.0039043  )
        24           O1  tau(  24) = (   5.2767064   1.4903225   6.0039473  )
        25           Ti1 tau(  25) = (   0.0000382   5.9609847   6.0000000  )
        26           Ti1 tau(  26) = (   3.2902200   4.4714249   6.0002472  )
        27           O1  tau(  27) = (   0.0002396   2.9813036   7.9858123  )
        28           O1  tau(  28) = (   3.2902150   2.9813002   7.3038282  )
        29           O1  tau(  29) = (   4.5938453   4.4726049   9.2879030  )
        30           O1  tau(  30) = (   1.9864658   4.4711199   9.2879459  )
        31           Ti1 tau(  31) = (   3.2891106   5.8743827   9.1763621  )
        32           Ti1 tau(  32) = (   0.0006254   4.4649316   9.2693709  )
        33           O1  tau(  33) = (   3.2889932   2.9698301  11.3211337  )
        34           O1  tau(  34) = (   0.0092240   2.9805883  10.6323155  )
        35           O1  tau(  35) = (   1.3069247   4.4567274  12.6410950  )
        36           O1  tau(  36) = (   5.3013738   4.4587240  12.6283471  )
        37           Ti1 tau(  37) = (   6.5339814   0.0202798  12.5235249  )
        38           Ti1 tau(  38) = (   3.2191325   4.4512509  12.4750946  )
        39           O1  tau(  39) = (   6.5688456   2.9522374  14.7547250  )
        40           O1  tau(  40) = (   3.3031296   2.9710333  13.8824388  )
        41           O1  tau(  41) = (   4.5425837   4.4734130  15.9989242  )
        42           O1  tau(  42) = (   2.0771424   4.4889556  16.0364895  )
        43           Ti1 tau(  43) = (   3.3121389   0.0026565  15.6888161  )
        44           Ti1 tau(  44) = (   6.5128106   4.4989306  16.3061806  )
        45           O1  tau(  45) = (   3.2900926   2.9813045   4.7018136  )
        46           O1  tau(  46) = (   1.3039711   4.4726057   6.0039043  )
        47           O1  tau(  47) = (   5.2763189   4.4711207   6.0039473  )
        48           N1  tau(  48) = (   0.4628824   2.9849886  17.7976856  )
        49           C1  tau(  49) = (   1.4182946   2.9518240  18.6700831  )
        50           H1  tau(  50) = (   2.3503500   2.6558988  18.1556329  )
        51           N1  tau(  51) = (   5.7893717   3.5482605  18.2279111  )
        52           H1  tau(  52) = (   5.8942619   4.0012392  19.1365464  )
        53           H1  tau(  53) = (   5.0734348   2.8266848  18.2415795  )

     number of k points=    10  Fermi-Dirac smearing, width (Ry)=  0.0073
                       cart. coord. in units 2pi/alat
        k(    1) = (   0.0000000   0.0000000   0.0000000), wk =   0.1250000
        k(    2) = (   0.0000000   0.0419351   0.0000000), wk =   0.2500000
        k(    3) = (   0.0000000  -0.0838702   0.0000000), wk =   0.1250000
        k(    4) = (   0.0379955   0.0000049   0.0000000), wk =   0.2500000
        k(    5) = (   0.0379955   0.0419400   0.0000000), wk =   0.2500000
        k(    6) = (   0.0379955  -0.0838652   0.0000000), wk =   0.2500000
        k(    7) = (   0.0379955  -0.0419301   0.0000000), wk =   0.2500000
        k(    8) = (  -0.0759910  -0.0000099   0.0000000), wk =   0.1250000
        k(    9) = (  -0.0759910   0.0419252   0.0000000), wk =   0.2500000
        k(   10) = (  -0.0759910  -0.0838800   0.0000000), wk =   0.1250000

     Initial potential from superposition of free atoms

     starting charge  378.99916, renormalised to  395.00000

     negative rho (up, down):  1.775E-02 0.000E+00

     %%%%%%%%%%%%%%%%%%%%%%%%%%%%%%%%%%%%%%%%%%%%%%%%%%%%%%%%%%%%%%%%%%%%%%%%
     %                                                                      %
     % You are using vdW-DF, which was implemented by the Thonhauser group. %
     % Please cite the following two papers that made this development      %
     % possible and the two reviews that describe the various versions:     %
     %                                                                      %
     %   T. Thonhauser et al., PRL 115, 136402 (2015).                      %
     %   T. Thonhauser et al., PRB 76, 125112 (2007).                       %
     %   K. Berland et al., Rep. Prog. Phys. 78, 066501 (2015).             %
     %   D.C. Langreth et al., J. Phys.: Condens. Matter 21, 084203 (2009). %
     %                                                                      %
     %                                                                      %
     % If you are calculating the stress with vdW-DF, please also cite:     %
     %                                                                      %
     %   R. Sabatini et al., J. Phys.: Condens. Matter 24, 424209 (2012).   %
     %                                                                      %
     %%%%%%%%%%%%%%%%%%%%%%%%%%%%%%%%%%%%%%%%%%%%%%%%%%%%%%%%%%%%%%%%%%%%%%%%

     Adding external electric field

     Computed dipole along edir(3) :
        Dipole               -8.0620 Ry au,        -20.4914 Debye
        Dipole field         -0.0152 Ry au,

        Potential amp.        1.4103 Ry
        Total length         46.3494 bohr

     Starting wfcs are  299 atomic wfcs
  @ DRIVER MODE: Message from server: STATUS
  @ DRIVER MODE: Message from server: POSDATA
  @ DRIVER MODE: Reading and sharing cell
  @ DRIVER MODE: Reading and sharing positions
  @ DRIVER MODE: Received positions

     Self-consistent Calculation

     iteration #  1     ecut=    29.40 Ry     beta= 0.05
     Davidson diagonalization with overlap
     c_bands:  1 eigenvalues not converged
     c_bands:  1 eigenvalues not converged
     c_bands:  2 eigenvalues not converged
     c_bands:  3 eigenvalues not converged
     c_bands:  3 eigenvalues not converged
     c_bands:  2 eigenvalues not converged
     c_bands:  1 eigenvalues not converged
     ethr =  1.00E-05,  avg # of iterations = 19.3

[...]

     total energy              =   -2614.86471696 Ry
     estimated scf accuracy    <    3583.89195920 Ry

[...]

     iteration #  3     ecut=    29.40 Ry     beta= 0.05
     Davidson diagonalization with overlap
     ethr =  1.00E-02,  avg # of iterations = 13.8

[...]

     iteration # 59     ecut=    29.40 Ry     beta= 0.05
     Davidson diagonalization with overlap
     c_bands:  1 eigenvalues not converged
     c_bands:  1 eigenvalues not converged
     ethr =  2.15E-11,  avg # of iterations = 12.0

[...]

     total energy              =   -2939.00604712 Ry
     estimated scf accuracy    <       0.00000011 Ry

     iteration # 60     ecut=    29.40 Ry     beta= 0.05
     Davidson diagonalization with overlap
     ethr =  2.15E-11,  avg # of iterations =  8.0

     negative rho (up, down):  1.647E-02 0.000E+00

     Adding external electric field

     Computed dipole along edir(3) :
        Dipole                0.3056 Ry au,          0.7767 Debye
        Dipole field          0.0006 Ry au,

        Potential amp.       -0.0535 Ry
        Total length         46.3494 bohr

     End of self-consistent calculation

          k = 0.0000 0.0000 0.0000 ( 18029 PWs)   bands (ev):

   -56.1064 -56.1041 -56.0723 -56.0677 -55.9942 -55.9601 -55.9540 -55.9192
   -55.9037 -55.8695 -55.8679 -55.8336 -55.6452 -55.5854 -55.0758 -55.0418
   -32.6632 -32.5875 -32.4859 -32.4259 -32.4116 -32.4075 -32.3990 -32.3590
   -32.3465 -32.3317 -32.3060 -32.2846 -32.2784 -32.2588 -32.2516 -32.2449
   -32.2095 -32.1963 -32.1935 -32.1890 -32.1849 -32.1638 -32.1571 -32.1413
   -32.1161 -32.1021 -32.1009 -32.1003 -32.0950 -32.0916 -32.0701 -32.0434
   -32.0432 -32.0286 -32.0210 -32.0017 -31.9799 -31.9519 -31.8734 -31.8441
   -31.8011 -31.7363 -31.4825 -31.3953 -31.3728 -31.2994 -31.2130 -31.1017
   -17.9772 -16.8723 -16.5825 -16.3674 -16.2616 -16.2463 -16.1400 -15.9545
   -15.8212 -15.7931 -15.6863 -15.6799 -15.6386 -15.6263 -15.5971 -15.5739
   -15.5654 -15.5389 -15.5363 -15.5199 -15.4755 -15.4522 -15.4330 -15.3368
   -15.2972 -15.2366 -15.2149 -15.1533 -15.0312 -14.7962 -13.5782 -13.4619
   -13.3139  -8.0539  -6.3627  -4.3727  -4.2464  -4.0698  -4.0090  -3.9687
    -3.9614  -3.7188  -3.6862  -3.3271  -3.2947  -3.2752  -3.2643  -3.2532
    -3.1398  -3.0182  -2.9626  -2.9207  -2.9103  -2.8996  -2.8925  -2.8796
    -2.8536  -2.8313  -2.7279  -2.6835  -2.6523  -2.5424  -2.5242  -2.4321
    -2.4163  -2.4053  -2.3709  -2.3504  -2.3414  -2.3155  -2.3042  -2.2774
    -2.1925  -2.1438  -2.0286  -1.9628  -1.8852  -1.8500  -1.7025  -1.6591
    -1.5713  -1.5650  -1.5460  -1.5240  -1.4909  -1.4048  -1.3309  -1.2412
    -1.1993  -1.1616  -1.1257  -1.0824  -1.0010  -0.9820  -0.9647  -0.8683
    -0.8643  -0.8550  -0.8117  -0.6106  -0.5857  -0.5519  -0.5392  -0.4619
    -0.4034  -0.3873  -0.3658  -0.3179  -0.2577  -0.1945  -0.1486  -0.1337
    -0.1222  -0.1189  -0.0844  -0.0585   0.0842   0.0948   0.1889   0.2009
     0.2241   0.3508   0.5250   0.5631   0.5835   0.7040   0.8772   0.9464
     1.0481   1.1394   1.5167   1.5619   2.4088   3.0315   3.1177   3.1515
     3.1710   3.2764   3.3092   3.4789   3.4943   3.5295   3.5486

[...]

          k = 0.0380-0.0419 0.0000 ( 17876 PWs)   bands (ev):

[...]

          k =-0.0760-0.0000 0.0000 ( 17886 PWs)   bands (ev):

[...]

          k =-0.0760-0.0839 0.0000 ( 17948 PWs)   bands (ev):

   -56.0904 -56.0882 -56.0878 -56.0838 -55.9851 -55.9631 -55.9504 -55.9287
   -55.8886 -55.8842 -55.8542 -55.8475 -55.6419 -55.5886 -55.0588 -55.0587
   -32.4666 -32.4622 -32.4034 -32.4022 -32.3853 -32.3837 -32.3653 -32.3531
   -32.3339 -32.3145 -32.2912 -32.2748 -32.2488 -32.2391 -32.2385 -32.2199
   -32.2198 -32.2102 -32.2078 -32.2019 -32.2009 -32.1928 -32.1870 -32.1728
   -32.1680 -32.1499 -32.1337 -32.1308 -32.0880 -32.0859 -32.0842 -32.0802
   -32.0712 -32.0691 -32.0654 -32.0639 -32.0599 -31.9702 -31.8848 -31.8374
   -31.8044 -31.7927 -31.3856 -31.3854 -31.2954 -31.2951 -31.2563 -31.2562
   -17.9673 -16.3082 -16.2923 -16.0756 -16.0312 -16.0270 -16.0060 -15.9177
   -15.8276 -15.8084 -15.7941 -15.7767 -15.7616 -15.6816 -15.6560 -15.6336
   -15.6297 -15.6171 -15.5621 -15.5565 -15.5534 -15.5482 -15.5282 -15.4950
   -15.4124 -15.4075 -15.3968 -15.1586 -15.0928 -15.0213 -13.5639 -13.5635
   -13.3268  -8.0113  -6.3007  -4.3914  -3.6011  -3.5823  -3.3565  -3.3118
    -3.2830  -3.2742  -3.1589  -3.0565  -3.0266  -3.0140  -2.9753  -2.9572
    -2.9447  -2.9323  -2.9194  -2.9002  -2.8746  -2.8409  -2.8356  -2.7896
    -2.7727  -2.7517  -2.7343  -2.7126  -2.7116  -2.6709  -2.6650  -2.6266
    -2.5885  -2.5433  -2.4336  -2.3798  -2.3397  -2.2897  -2.2351  -2.2238
    -2.2149  -2.1613  -2.1562  -2.1226  -2.0372  -1.9618  -1.8262  -1.8043
    -1.7713  -1.7304  -1.6975  -1.6002  -1.5564  -1.5069  -1.4551  -1.3991
    -1.3873  -1.3445  -1.3076  -1.2415  -1.2245  -1.1849  -1.1639  -1.1013
    -1.0597  -1.0555  -0.9920  -0.9248  -0.8668  -0.8636  -0.8430  -0.8276
    -0.7703  -0.7226  -0.6559  -0.6067  -0.5651  -0.4680  -0.4112  -0.2945
    -0.1865  -0.0676   0.0036   0.0074   0.0631   0.1404   0.1858   0.2206
     0.2309   0.2488   0.3410   0.4125   0.4318   0.4453   0.5108   0.6983
     1.3111   1.3123   1.3812   1.3821   2.4054   3.3196   3.3577   3.3721
     3.4030   3.5483   3.5510   3.5634   3.5671   3.6856   3.7315

     the Fermi energy is     3.0286 ev

!    total energy              =   -2939.00609677 Ry
     estimated scf accuracy    <       0.00000003 Ry
     smearing contrib. (-TS)   =      -0.02201101 Ry
     internal energy E=F+TS    =   -2938.98408576 Ry

     The total energy is F=E-TS. E is the sum of the following terms:
     one-electron contribution =  -24452.75399845 Ry
     hartree contribution      =   12311.44582672 Ry
     xc contribution           =    -485.13152091 Ry
     ewald contribution        =    9687.45543064 Ry
     electric field correction =       0.00017623 Ry

     convergence has been achieved in  60 iterations

     Forces acting on atoms (cartesian axes, Ry/au):

     atom    1 type  1   force =     0.00018622   -0.00028892    0.09690525
     atom    2 type  1   force =     0.00006742   -0.00079538   -0.17497705
     atom    3 type  2   force =     0.00014493   -0.00008639   -0.02552223
     atom    4 type  2   force =    -0.00003369   -0.00142655    0.05153822
     atom    5 type  2   force =    -0.01205478   -0.00172795    0.00279471
     atom    6 type  2   force =     0.01347391   -0.00133683    0.00223275
     atom    7 type  1   force =     0.00040309    0.00016246   -0.01210287
     atom    8 type  1   force =     0.00019607    0.02418263    0.02897528
     atom    9 type  2   force =    -0.00004333    0.00052152   -0.00003947
     atom   10 type  2   force =    -0.00266550    0.00014717   -0.01162778
     atom   11 type  2   force =    -0.00003065    0.00026836    0.00004007
     atom   12 type  2   force =    -0.00023233   -0.00001998    0.00013919
     atom   13 type  1   force =    -0.00012703    0.00114146   -0.00014545
     atom   14 type  1   force =    -0.00001133    0.00050182    0.00003335
     atom   15 type  2   force =     0.00011856   -0.00000806   -0.00007482
     atom   16 type  2   force =    -0.00021730    0.00023091   -0.00028694
     atom   17 type  2   force =     0.00034753    0.00019623   -0.00035903
     atom   18 type  2   force =    -0.00020017    0.00014245   -0.00005645
     atom   19 type  1   force =    -0.00015314   -0.00022671   -0.00063994
     atom   20 type  1   force =     0.00021216   -0.00014791   -0.00022239
     atom   21 type  2   force =     0.00006675   -0.00007253    0.10298068
     atom   22 type  2   force =     0.00003309   -0.00011167   -0.00039801
     atom   23 type  2   force =    -0.07169824   -0.00017182   -0.02791070
     atom   24 type  2   force =     0.07160086    0.00028780   -0.02794728
     atom   25 type  1   force =     0.00003561   -0.00025585    0.09679420
     atom   26 type  1   force =    -0.00000353   -0.00018198   -0.17515047
     atom   27 type  2   force =     0.00015374   -0.00026921   -0.02419084
     atom   28 type  2   force =     0.00001314   -0.00118066    0.05209092
     atom   29 type  2   force =    -0.01221208    0.00078531    0.00247378
     atom   30 type  2   force =     0.01351396    0.00126816    0.00188111
     atom   31 type  1   force =     0.00044982    0.00287821   -0.01399015
     atom   32 type  1   force =     0.00039216   -0.02518061    0.03046385
     atom   33 type  2   force =     0.00004128   -0.00008255   -0.00014650
     atom   34 type  2   force =    -0.00184339   -0.00050204   -0.02070880
     atom   35 type  2   force =    -0.00000828    0.00021844   -0.00005323
     atom   36 type  2   force =     0.00018672    0.00033065    0.00016112
     atom   37 type  1   force =    -0.00020669   -0.00085324   -0.00003003
     atom   38 type  1   force =     0.00007758    0.00012274   -0.00022649
     atom   39 type  2   force =     0.00007304    0.00030773   -0.00021265
     atom   40 type  2   force =    -0.00007508    0.00009167    0.00042803
     atom   41 type  2   force =     0.00048923    0.00001149   -0.00010031
     atom   42 type  2   force =    -0.00028539   -0.00007438   -0.00021184
     atom   43 type  1   force =    -0.00037484    0.00033631    0.00009960
     atom   44 type  1   force =     0.00011130    0.00011078    0.00014402
     atom   45 type  2   force =     0.00005532   -0.00006554    0.10299777
     atom   46 type  2   force =    -0.07172859   -0.00011992   -0.02790806
     atom   47 type  2   force =     0.07161466    0.00025773   -0.02793537
     atom   48 type  3   force =     0.00024080    0.00105842   -0.00012485
     atom   49 type  4   force =    -0.00259688    0.00151120    0.00095172
     atom   50 type  5   force =     0.00270581   -0.00100517   -0.00137961
     atom   51 type  3   force =    -0.00005890   -0.00066485    0.00036349
     atom   52 type  5   force =     0.00004704   -0.00020766   -0.00007573
     atom   53 type  5   force =    -0.00019066   -0.00000729    0.00026626

     Total force =     0.369008     Total SCF correction =     0.000560
  @ DRIVER MODE: Message from server: STATUS
  @ DRIVER MODE: Message from server: GETFORCE
  @ DRIVER MODE: Returning v,forces,stress,ensemble

     Writing output data file ./calc.save/
  @ DRIVER MODE: Message from server: EXIT
  @ DRIVE MODE: Exiting

     General routines

     Parallel routines

   This run was terminated on:   4: 7:26   9Sep2021

   JOB DONE.