     Program PWSCF v.6.7GPU starts on 19Oct2021 at  0:19:42

     R & G space division:  proc/nbgrp/npool/nimage =       8
     Reading input from /storage/home/hcoda1/3/ntian30/research/carbon/CxH_vib/Thiel_calc/ads_slab/NH2NHH_perslab/out_0028/pw.inp
Warning: card &CELL ignored
Warning: card   CELL_DYNAMICS='IPI', ignored
Warning: card / ignored

     Current dimensions of program PWSCF are:
     Max number of different atomic species (ntypx) = 10
     Max number of k-points (npk) =  40000
     Max angular momentum in pseudopotentials (lmaxx) =  3
     Presently no symmetry can be used with electric field

     Message from routine cell_base_init:
     DEPRECATED: use true lattice parameter, not A to a.u. conversion factor

     IMPORTANT: XC functional enforced from input :
     Exchange-correlation= BEEF-VDW
                           (   1   4  43  14   2   0   0)
     Any further DFT definition will be discarded
     Please, verify this is what you really want

  @ DRIVER MODE: Connecting to
 qe_1139763_3255134.sched-torque.pace.gatech.eduqvky69sc_scratch
  using UNIX socket
  @ DRIVER MODE: Message from server: STATUS
  @ DRIVER MODE: Message from server: INIT
  @ DRIVER MODE: Receiving replica           0          -1
  @ DRIVER MODE: Receiving encoded integer          25
  @ DRIVER MODE:  SCF:  T  FORCE:  T  STRESS:  F  VC:  F  ENSEMBLE:  F
  @ DRIVER MODE:  SCF:  T  FORCE:  T  STRESS:  F  VC:  F  ENSEMBLE:  F

     Using Slab Decomposition

     bravais-lattice index     =            0
     lattice parameter (alat)  =       1.8897  a.u.
     unit-cell volume          =    9988.4706 (a.u.)^3
     number of atoms/cell      =           59
     number of atomic types    =            4
     number of electrons       =       440.00
     number of Kohn-Sham states=          230
     kinetic-energy cutoff     =      29.3995  Ry
     charge density cutoff     =     293.9946  Ry
     scf convergence threshold =      7.3E-08
     mixing beta               =       0.0500
     number of iterations used =            8  plain     mixing
     Exchange-correlation= BEEF-VDW
                           (   1   4  43  14   2   0   0)

     celldm(1)=   1.889726  celldm(2)=   0.000000  celldm(3)=   0.000000
     celldm(4)=   0.000000  celldm(5)=   0.000000  celldm(6)=   0.000000

     crystal axes: (cart. coord. in units of alat)
               a(1) = (   6.579727   0.000000   0.000000 )
               a(2) = (  -0.001163   8.942395   0.000000 )
               a(3) = (   0.000000   0.000000  25.155947 )

     reciprocal axes: (cart. coord. in units 2 pi/alat)
               b(1) = (  0.151982  0.000020  0.000000 )
               b(2) = (  0.000000  0.111827  0.000000 )
               b(3) = (  0.000000  0.000000  0.039752 )

     PseudoPot. # 1 for O  read from file:
     /storage/coda1/p-amedford6/0/shared/rich_project_chbe-medford/medford-share/data/pseudos_module/espresso/nninc/pbe/van/O.UPF
     MD5 check sum: 78c19812648e8988a0fe644b0f25305e
     Pseudo is Ultrasoft, Zval =  6.0
     Generated by new atomic code, or converted to UPF format
     Using radial grid of  737 points,  4 beta functions with:
                l(1) =   0
                l(2) =   0
                l(3) =   1
                l(4) =   1
     Q(r) pseudized with  8 coefficients,  rinner =    0.800   0.800   0.800

     PseudoPot. # 2 for Ti read from file:
     /storage/coda1/p-amedford6/0/shared/rich_project_chbe-medford/medford-share/data/pseudos_module/espresso/nninc/pbe/van/Ti.UPF
     MD5 check sum: 8e4df49b7f0d34bbd5052bf3f5ea0213
     Pseudo is Ultrasoft, Zval = 12.0
     Generated by new atomic code, or converted to UPF format
     Using radial grid of  851 points,  6 beta functions with:
                l(1) =   0
                l(2) =   0
                l(3) =   1
                l(4) =   1
                l(5) =   2
                l(6) =   2
     Q(r) pseudized with  8 coefficients,  rinner =    1.000   1.000   1.000
                                                       1.000   1.000

     PseudoPot. # 3 for H  read from file:
     /storage/coda1/p-amedford6/0/shared/rich_project_chbe-medford/medford-share/data/pseudos_module/espresso/nninc/pbe/van/H.UPF
     MD5 check sum: b5ee9d7bfd3a09ee7748110bda690ff7
     Pseudo is Ultrasoft, Zval =  1.0
     Generated by new atomic code, or converted to UPF format
     Using radial grid of  615 points,  1 beta functions with:
                l(1) =   0
     Q(r) pseudized with  8 coefficients,  rinner =    0.800

     PseudoPot. # 4 for N  read from file:
     /storage/coda1/p-amedford6/0/shared/rich_project_chbe-medford/medford-share/data/pseudos_module/espresso/nninc/pbe/van/N.UPF
     MD5 check sum: 90d10febe142ad51ac9d5be1deb811c4
     Pseudo is Ultrasoft, Zval =  5.0
     Generated by new atomic code, or converted to UPF format
     Using radial grid of  729 points,  4 beta functions with:
                l(1) =   0
                l(2) =   0
                l(3) =   1
                l(4) =   1
     Q(r) pseudized with  8 coefficients,  rinner =    0.800   0.800   0.800

     atomic species   valence    mass     pseudopotential
        O1             6.00    15.99900     O ( 1.00)
        Ti1           12.00    47.86700     Ti( 1.00)
        H1             1.00     1.00800     H ( 1.00)
        N1             5.00    14.00700     N ( 1.00)

     No symmetry found

   Cartesian axes

     site n.     atom                  positions (alat units)
         1           O1  tau(   1) = (   0.0007354   0.0005023  10.5931620  )
         2           O1  tau(   2) = (   3.2887669   8.9343558  13.7857904  )
         3           O1  tau(   3) = (  -0.0004435   8.9037079  17.1656601  )
         4           O1  tau(   4) = (   0.0006271   0.0005054   7.9858123  )
         5           O1  tau(   5) = (   3.2907596   0.0056730  11.1454013  )
         6           O1  tau(   6) = (   0.0000918   8.9024801  14.5153886  )
         7           O1  tau(   7) = (   1.9868534   1.4903216   9.2879459  )
         8           O1  tau(   8) = (   5.2129768   1.5767634  12.5412193  )
         9           O1  tau(   9) = (   2.0410104   1.4081166  15.9738913  )
        10           Ti1 tau(  10) = (   0.0007404   1.4906270   9.2895810  )
        11           Ti1 tau(  11) = (   3.2923993   1.3029312  12.4395176  )
        12           Ti1 tau(  12) = (   6.5786190   1.6682186  16.0479855  )
        13           O1  tau(  13) = (   4.5942328   1.4918067   9.2879030  )
        14           O1  tau(  14) = (   1.3693608   1.5763615  12.5409223  )
        15           O1  tau(  15) = (   4.5388119   1.4066068  15.9736107  )
        16           Ti1 tau(  16) = (   3.2902859   2.9801868   9.2893338  )
        17           Ti1 tau(  17) = (   0.0025983   2.7818652  12.5490862  )
        18           Ti1 tau(  18) = (   3.2890997   3.0957086  15.6341045  )
        19           O1  tau(  19) = (   0.0003479   2.9813005  10.5931620  )
        20           O1  tau(  20) = (   3.2906043   2.9558292  13.7911244  )
        21           O1  tau(  21) = (   0.0002396   2.9813036   7.9858123  )
        22           O1  tau(  22) = (   3.2907828   2.9846389  11.1656624  )
        23           O1  tau(  23) = (   0.0000664   2.9755257  14.5967958  )
        24           O1  tau(  24) = (   1.9864658   4.4711199   9.2879459  )
        25           O1  tau(  25) = (   5.2254851   4.5442098  12.5530165  )
        26           O1  tau(  26) = (   2.0413797   4.3804877  15.9810922  )
        27           Ti1 tau(  27) = (   0.0003529   4.4714252   9.2895810  )
        28           Ti1 tau(  28) = (   3.2927641   4.3249026  12.5337624  )
        29           Ti1 tau(  29) = (  -0.0001393   4.3779101  16.0758329  )
        30           O1  tau(  30) = (   4.5938453   4.4726049   9.2879030  )
        31           O1  tau(  31) = (   1.3554856   4.5423027  12.5528228  )
        32           O1  tau(  32) = (   4.5375453   4.3808357  15.9816482  )
        33           Ti1 tau(  33) = (   3.2898983   5.9609850   9.2893338  )
        34           Ti1 tau(  34) = (   0.0022780   5.7553130  12.5179661  )
        35           Ti1 tau(  35) = (   3.2911749   6.0723021  16.2828521  )
        36           O1  tau(  36) = (  -0.0000397   5.9620987  10.5931620  )
        37           O1  tau(  37) = (   3.2898444   5.9099340  13.7874885  )
        38           O1  tau(  38) = (  -0.0002305   5.9963729  17.1613877  )
        39           O1  tau(  39) = (  -0.0001480   5.9621018   7.9858123  )
        40           O1  tau(  40) = (   3.2898933   5.9403142  11.1650959  )
        41           O1  tau(  41) = (   0.0001730   6.0398540  14.5337486  )
        42           O1  tau(  42) = (   1.9860782   7.4519181   9.2879459  )
        43           O1  tau(  43) = (   5.2203866   7.5240042  12.5266709  )
        44           O1  tau(  44) = (   2.0308607   7.4363189  15.9936472  )
        45           Ti1 tau(  45) = (  -0.0000347   7.4522234   9.2895810  )
        46           Ti1 tau(  46) = (   3.2897547   7.2013570  12.5904776  )
        47           Ti1 tau(  47) = (  -0.0001197   7.5007381  15.6461876  )
        48           O1  tau(  48) = (   4.5934577   7.4534031   9.2879030  )
        49           O1  tau(  49) = (   1.3580612   7.5226468  12.5263262  )
        50           O1  tau(  50) = (   4.5486487   7.4363691  15.9933312  )
        51           Ti1 tau(  51) = (   3.2895107   8.9417832   9.2893338  )
        52           Ti1 tau(  52) = (  -0.0005051   8.7269297  12.4809553  )
        53           Ti1 tau(  53) = (   3.2886672   0.0795926  15.6360096  )
        54           H1  tau(  54) = (   6.5784023   6.0277306  18.1241331  )
        55           H1  tau(  55) = (   6.5784455   8.8634660  18.1266539  )
        56           N1  tau(  56) = (   6.5791914   3.0063145  17.2269018  )
        57           N1  tau(  57) = (   3.2902358   5.9939226  18.1904466  )
        58           H1  tau(  58) = (   3.2886139   5.1444262  18.7255412  )
        59           H1  tau(  59) = (   3.2892998   6.7958846  18.8069972  )

     number of k points=    10  Fermi-Dirac smearing, width (Ry)=  0.0073
                       cart. coord. in units 2pi/alat
        k(    1) = (   0.0000000   0.0000000   0.0000000), wk =   0.1250000
        k(    2) = (   0.0000000   0.0279567   0.0000000), wk =   0.2500000
        k(    3) = (   0.0000000  -0.0559134   0.0000000), wk =   0.1250000
        k(    4) = (   0.0379955   0.0000049   0.0000000), wk =   0.2500000
        k(    5) = (   0.0379955   0.0279617   0.0000000), wk =   0.2500000
        k(    6) = (   0.0379955  -0.0559085   0.0000000), wk =   0.2500000
        k(    7) = (   0.0379955  -0.0279518   0.0000000), wk =   0.2500000
        k(    8) = (  -0.0759910  -0.0000099   0.0000000), wk =   0.1250000
        k(    9) = (  -0.0759910   0.0279468   0.0000000), wk =   0.2500000
        k(   10) = (  -0.0759910  -0.0559233   0.0000000), wk =   0.1250000

     Initial potential from superposition of free atoms

     starting charge  421.99910, renormalised to  440.00000

     negative rho (up, down):  3.749E-02 0.000E+00

     %%%%%%%%%%%%%%%%%%%%%%%%%%%%%%%%%%%%%%%%%%%%%%%%%%%%%%%%%%%%%%%%%%%%%%%%
     %                                                                      %
     % You are using vdW-DF, which was implemented by the Thonhauser group. %
     % Please cite the following two papers that made this development      %
     % possible and the two reviews that describe the various versions:     %
     %                                                                      %
     %   T. Thonhauser et al., PRL 115, 136402 (2015).                      %
     %   T. Thonhauser et al., PRB 76, 125112 (2007).                       %
     %   K. Berland et al., Rep. Prog. Phys. 78, 066501 (2015).             %
     %   D.C. Langreth et al., J. Phys.: Condens. Matter 21, 084203 (2009). %
     %                                                                      %
     %                                                                      %
     % If you are calculating the stress with vdW-DF, please also cite:     %
     %                                                                      %
     %   R. Sabatini et al., J. Phys.: Condens. Matter 24, 424209 (2012).   %
     %                                                                      %
     %%%%%%%%%%%%%%%%%%%%%%%%%%%%%%%%%%%%%%%%%%%%%%%%%%%%%%%%%%%%%%%%%%%%%%%%

     Adding external electric field

     Computed dipole along edir(3) :
        Dipole               -3.9322 Ry au,         -9.9948 Debye
        Dipole field         -0.0049 Ry au,

        Potential amp.        0.4586 Ry
        Total length         46.3494 bohr

     Starting wfcs are  332 atomic wfcs
  @ DRIVER MODE: Message from server: STATUS
  @ DRIVER MODE: Message from server: POSDATA
  @ DRIVER MODE: Reading and sharing cell
  @ DRIVER MODE: Reading and sharing positions
  @ DRIVER MODE: Received positions

     Self-consistent Calculation

     iteration #  1     ecut=    29.40 Ry     beta= 0.05
     Davidson diagonalization with overlap
     c_bands:  2 eigenvalues not converged
     c_bands:  2 eigenvalues not converged
     c_bands:  5 eigenvalues not converged
     c_bands:  4 eigenvalues not converged
     c_bands:  1 eigenvalues not converged
     c_bands:  4 eigenvalues not converged
     c_bands:  5 eigenvalues not converged
     c_bands:  4 eigenvalues not converged
     c_bands:  3 eigenvalues not converged
     ethr =  1.00E-05,  avg # of iterations = 19.8

[...]

     total energy              =   -3294.69691277 Ry
     estimated scf accuracy    <      19.95202821 Ry

     iteration #  2     ecut=    29.40 Ry     beta= 0.05
     Davidson diagonalization with overlap
     ethr =  4.53E-03,  avg # of iterations =  1.0

[...]

     iteration # 24     ecut=    29.40 Ry     beta= 0.05
     Davidson diagonalization with overlap
     c_bands:  1 eigenvalues not converged
     ethr =  5.09E-07,  avg # of iterations =  9.4

[...]

     total energy              =   -3293.27265132 Ry
     estimated scf accuracy    <       0.00000012 Ry

     iteration # 61     ecut=    29.40 Ry     beta= 0.05
     Davidson diagonalization with overlap
     ethr =  1.77E-11,  avg # of iterations =  5.2

     negative rho (up, down):  3.596E-02 0.000E+00

     Adding external electric field

     Computed dipole along edir(3) :
        Dipole                1.3166 Ry au,          3.3465 Debye
        Dipole field          0.0017 Ry au,

        Potential amp.       -0.1535 Ry
        Total length         46.3494 bohr

     End of self-consistent calculation

          k = 0.0000 0.0000 0.0000 ( 26871 PWs)   bands (ev):

   -58.2801 -58.2567 -58.2513 -58.2267 -58.1674 -57.7781 -57.7743 -57.7543
   -57.6694 -57.5741 -57.5686 -57.5460 -57.3363 -56.8618 -56.8378 -56.8211
   -56.7388 -56.6388 -34.6902 -34.6505 -34.6178 -34.6022 -34.5980 -34.5966
   -34.5475 -34.4929 -34.4553 -34.4119 -34.4057 -34.3893 -34.3844 -34.3643
   -34.3166 -34.1924 -34.1414 -34.1350 -34.1262 -34.1218 -34.0771 -34.0551
   -34.0542 -34.0138 -34.0013 -33.9576 -33.9562 -33.8581 -33.8543 -33.8265
   -33.8193 -33.8036 -33.7706 -33.7576 -33.7527 -33.7328 -33.6842 -33.5763
   -33.5447 -33.2340 -33.2066 -33.1884 -33.1717 -33.1657 -33.1485 -33.0699
   -33.0570 -33.0114 -32.9930 -32.9839 -32.9510 -32.8882 -32.8704 -32.7668
   -18.9501 -18.8277 -18.7369 -18.3608 -18.3015 -18.1687 -18.1117 -18.1047
   -18.0113 -17.9422 -17.7183 -17.6702 -17.6583 -17.6338 -17.5381 -17.5256
   -17.5160 -17.4840 -17.4597 -17.4539 -17.3515 -17.3141 -17.2994 -17.2944
   -17.2631 -17.1841 -17.1348 -17.0397 -17.0068 -17.0045 -16.8349 -16.7948
   -15.3387 -15.2977 -15.2890 -15.2852 -11.6044  -6.9833  -6.8110  -6.7124
    -6.1804  -5.9694  -5.7732  -5.6112  -5.5138  -5.4472  -5.3774  -5.3107
    -5.2758  -5.2545  -5.2036  -5.1632  -5.0631  -5.0548  -4.9623  -4.9060
    -4.8766  -4.8455  -4.7668  -4.7448  -4.7283  -4.6790  -4.6182  -4.6087
    -4.5697  -4.4940  -4.4856  -4.4708  -4.4325  -4.4261  -4.3725  -4.2830
    -4.1949  -4.1641  -4.1555  -4.1132  -4.0410  -4.0372  -4.0088  -3.9826
    -3.9752  -3.9476  -3.8686  -3.8428  -3.7373  -3.6451  -3.6157  -3.6005
    -3.5133  -3.4300  -3.3735  -3.3470  -3.1726  -3.1461  -3.1032  -3.0398
    -3.0291  -2.9676  -2.9444  -2.9202  -2.8908  -2.8683  -2.8036  -2.7948
    -2.7935  -2.7731  -2.7485  -2.7012  -2.6514  -2.6308  -2.5683  -2.5387
    -2.5243  -2.4999  -2.4548  -2.4345  -2.3193  -2.2690  -2.2566  -2.2379
    -2.2325  -2.1533  -2.0755  -2.0181  -1.9996  -1.8721  -1.8667  -1.7514
    -1.7083  -1.7024  -1.6495  -1.5767  -1.5310  -1.4834  -1.3724  -1.2411
    -1.1756  -1.0931  -1.0285  -0.7642  -0.6722  -0.5549  -0.5480  -0.5352
    -0.5152  -0.3667  -0.3523  -0.2559   0.9952   1.1312   1.2893   1.3126
     1.5130   1.6009   1.6242   1.6664   1.7668   1.8605

[...]

          k = 0.0380-0.0280 0.0000 ( 26873 PWs)   bands (ev):

[...]

          k =-0.0760-0.0000 0.0000 ( 26902 PWs)   bands (ev):

[...]

          k =-0.0760-0.0559 0.0000 ( 26868 PWs)   bands (ev):

   -58.2736 -58.2691 -58.2453 -58.2266 -58.1675 -57.7777 -57.7742 -57.7547
   -57.6692 -57.5740 -57.5695 -57.5453 -57.3363 -56.8587 -56.8438 -56.8183
   -56.7388 -56.6387 -34.7184 -34.6929 -34.6512 -34.6234 -34.5919 -34.5063
   -34.4917 -34.4327 -34.4278 -34.4181 -34.4102 -34.4067 -34.4019 -34.3659
   -34.3641 -34.2328 -34.1729 -34.1589 -34.1292 -34.1213 -34.0608 -34.0079
   -33.9940 -33.9897 -33.9668 -33.9588 -33.9261 -33.9022 -33.8834 -33.8752
   -33.8308 -33.8032 -33.7703 -33.7555 -33.7515 -33.7338 -33.6861 -33.5759
   -33.5494 -33.2490 -33.2209 -33.2075 -33.1937 -33.1690 -33.0595 -33.0563
   -33.0391 -32.9837 -32.9815 -32.9737 -32.9586 -32.9515 -32.8887 -32.7737
   -18.9100 -18.7524 -18.6284 -18.4713 -18.2347 -18.1320 -17.9706 -17.8870
   -17.8628 -17.8600 -17.8440 -17.7446 -17.7387 -17.7036 -17.6460 -17.6189
   -17.6084 -17.6039 -17.5552 -17.5521 -17.3572 -17.3478 -17.2924 -17.2509
   -17.2263 -17.2040 -17.1042 -17.1025 -17.0320 -16.9573 -16.8539 -16.7707
   -15.3492 -15.3387 -15.2856 -15.2277 -11.6013  -6.9239  -6.8339  -6.7131
    -5.9559  -5.7462  -5.7186  -5.6695  -5.3510  -5.2969  -5.1961  -5.1681
    -5.1295  -5.1135  -5.0728  -5.0708  -5.0008  -4.9563  -4.9423  -4.9156
    -4.9014  -4.8717  -4.8414  -4.8164  -4.7539  -4.7501  -4.7349  -4.6916
    -4.6449  -4.5595  -4.5368  -4.5185  -4.4681  -4.4287  -4.2541  -4.2082
    -4.1819  -4.1669  -4.0899  -4.0564  -3.9798  -3.9522  -3.9062  -3.8305
    -3.7377  -3.6886  -3.6388  -3.5835  -3.5580  -3.5271  -3.5218  -3.4692
    -3.4410  -3.3912  -3.3592  -3.3531  -3.3021  -3.2455  -3.1996  -3.1811
    -3.1543  -3.1492  -3.1263  -3.1005  -3.0700  -3.0473  -3.0428  -2.9848
    -2.9372  -2.9243  -2.8497  -2.8178  -2.7640  -2.7106  -2.6870  -2.6310
    -2.6238  -2.5699  -2.5643  -2.4998  -2.4719  -2.4234  -2.4105  -2.3391
    -2.1603  -2.0962  -1.9915  -1.9467  -1.9359  -1.8666  -1.8334  -1.8211
    -1.6815  -1.6710  -1.6079  -1.6048  -1.5796  -1.3675  -1.3400  -1.3041
    -1.2740  -1.2357  -1.2025  -1.0902  -0.7977  -0.7114  -0.6741  -0.4841
    -0.4621  -0.4180  -0.3871  -0.3728   1.0403   1.2087   1.2771   1.3583
     1.3794   1.4216   1.4515   1.6377   1.6688   1.7000

     the Fermi energy is     0.3951 ev

!    total energy              =   -3293.27268530 Ry
     estimated scf accuracy    <       0.00000005 Ry
     smearing contrib. (-TS)   =      -0.00047494 Ry
     internal energy E=F+TS    =   -3293.27221036 Ry

     The total energy is F=E-TS. E is the sum of the following terms:
     one-electron contribution =  -34645.97225100 Ry
     hartree contribution      =   17387.51252757 Ry
     xc contribution           =    -542.13722447 Ry
     ewald contribution        =   14507.32255670 Ry
     electric field correction =       0.00218085 Ry

     convergence has been achieved in  61 iterations

     Forces acting on atoms (cartesian axes, Ry/au):

     atom    1 type  1   force =     0.00002297    0.00609044    0.04336331
     atom    2 type  1   force =     0.00000587   -0.00404275   -0.00308356
     atom    3 type  1   force =     0.00001810    0.00278784   -0.00210480
     atom    4 type  1   force =     0.00005048   -0.00044799    0.10166197
     atom    5 type  1   force =    -0.00000489    0.00013356    0.00748454
     atom    6 type  1   force =    -0.00000752    0.00310613    0.00046540
     atom    7 type  1   force =     0.07785902    0.00122528   -0.03552696
     atom    8 type  1   force =     0.00795693   -0.02606295    0.00024531
     atom    9 type  1   force =     0.00930970    0.01906531    0.00056094
     atom   10 type  2   force =    -0.00006558    0.00812201   -0.15941351
     atom   11 type  2   force =    -0.00006692    0.02227112   -0.00327268
     atom   12 type  2   force =     0.00002416   -0.02375316   -0.00517661
     atom   13 type  1   force =    -0.07794650    0.00075965   -0.03551768
     atom   14 type  1   force =    -0.00808128   -0.02593993    0.00026408
     atom   15 type  1   force =    -0.00940794    0.01914887    0.00060304
     atom   16 type  2   force =     0.00009999    0.00152138    0.07235628
     atom   17 type  2   force =     0.00009061    0.03130227    0.00147311
     atom   18 type  2   force =     0.00001944   -0.02632558    0.00316058
     atom   19 type  1   force =     0.00005425    0.00277783    0.05722398
     atom   20 type  1   force =     0.00000803   -0.00179163    0.00097579
     atom   21 type  1   force =     0.00005089   -0.00089363    0.10057465
     atom   22 type  1   force =     0.00000536   -0.00255742    0.00650316
     atom   23 type  1   force =    -0.00003085    0.00311479    0.00433752
     atom   24 type  1   force =     0.07897483    0.00059774   -0.03634260
     atom   25 type  1   force =     0.00962187   -0.02997674    0.00062491
     atom   26 type  1   force =     0.01028355    0.01564186    0.00400330
     atom   27 type  2   force =    -0.00008238   -0.00571039   -0.15464147
     atom   28 type  2   force =     0.00001693    0.02795812   -0.00280297
     atom   29 type  2   force =     0.00003225   -0.01129771   -0.01282041
     atom   30 type  1   force =    -0.07905855    0.00019541   -0.03634671
     atom   31 type  1   force =    -0.00970504   -0.02981194    0.00062991
     atom   32 type  1   force =    -0.01027160    0.01560361    0.00400260
     atom   33 type  2   force =     0.00011962   -0.00295161    0.07716891
     atom   34 type  2   force =     0.00004082    0.03528799    0.00329842
     atom   35 type  2   force =    -0.00005748   -0.01745568   -0.00030749
     atom   36 type  1   force =     0.00008431    0.00417023    0.05151209
     atom   37 type  1   force =    -0.00000106   -0.00284529   -0.00280137
     atom   38 type  1   force =     0.00001162    0.00203702    0.00344621
     atom   39 type  1   force =     0.00004534    0.00293539    0.10099146
     atom   40 type  1   force =    -0.00000579   -0.00194440    0.00748439
     atom   41 type  1   force =    -0.00000064    0.00063714    0.00074087
     atom   42 type  1   force =     0.07838583    0.00162902   -0.03444672
     atom   43 type  1   force =     0.00608260   -0.02323451   -0.00032883
     atom   44 type  1   force =     0.01012724    0.01577341   -0.00668904
     atom   45 type  2   force =    -0.00005572   -0.00739711   -0.16395672
     atom   46 type  2   force =    -0.00003111    0.01848819    0.00057548
     atom   47 type  2   force =     0.00001803   -0.01468735    0.01692717
     atom   48 type  1   force =    -0.07848958    0.00118519   -0.03443053
     atom   49 type  1   force =    -0.00607166   -0.02326075   -0.00032401
     atom   50 type  1   force =    -0.01011646    0.01579387   -0.00666913
     atom   51 type  2   force =     0.00010168   -0.00343949    0.06016440
     atom   52 type  2   force =     0.00004722    0.02832664    0.00339575
     atom   53 type  2   force =     0.00008813   -0.02104372    0.00090387
     atom   54 type  3   force =    -0.00003534    0.00068975   -0.00178709
     atom   55 type  3   force =    -0.00002405   -0.00074427   -0.00041368
     atom   56 type  4   force =    -0.00002941    0.00036729    0.00162074
     atom   57 type  4   force =     0.00003400    0.01153556   -0.00557440
     atom   58 type  3   force =    -0.00004560   -0.01362327    0.00658077
     atom   59 type  3   force =     0.00000125    0.00095937   -0.00054594

     Total force =     0.435254     Total SCF correction =     0.000614
  @ DRIVER MODE: Message from server: STATUS
  @ DRIVER MODE: Message from server: GETFORCE
  @ DRIVER MODE: Returning v,forces,stress,ensemble

     Writing output data file ./calc.save/
  @ DRIVER MODE: Message from server: EXIT
  @ DRIVE MODE: Exiting

     General routines

     Parallel routines

   This run was terminated on:   0:48:58  19Oct2021

   JOB DONE.