     Program PWSCF v.6.7GPU starts on 22Sep2021 at 21:48:24

     R & G space division:  proc/nbgrp/npool/nimage =      10
     Reading input from /storage/home/hcoda1/3/ntian30/research/carbon/CxH_vib/H2O_calc/ads_slab/CH2HO_a/out_0022/pw.inp
Warning: card &CELL ignored
Warning: card   CELL_DYNAMICS='IPI', ignored
Warning: card / ignored

     Current dimensions of program PWSCF are:
     Max number of different atomic species (ntypx) = 10
     Max number of k-points (npk) =  40000
     Max angular momentum in pseudopotentials (lmaxx) =  3
     Presently no symmetry can be used with electric field

     Message from routine cell_base_init:
     DEPRECATED: use true lattice parameter, not A to a.u. conversion factor

     IMPORTANT: XC functional enforced from input :
     Exchange-correlation= BEEF-VDW
                           (   1   4  43  14   2   0   0)
     Any further DFT definition will be discarded
     Please, verify this is what you really want

  @ DRIVER MODE: Connecting to
 qe_1139763_2937324.sched-torque.pace.gatech.edu5f_469fc_scratch
  using UNIX socket
  @ DRIVER MODE: Message from server: STATUS
  @ DRIVER MODE: Message from server: INIT
  @ DRIVER MODE: Receiving replica           0          -1
  @ DRIVER MODE: Receiving encoded integer          25
  @ DRIVER MODE:  SCF:  T  FORCE:  T  STRESS:  F  VC:  F  ENSEMBLE:  F
  @ DRIVER MODE:  SCF:  T  FORCE:  T  STRESS:  F  VC:  F  ENSEMBLE:  F

     Using Slab Decomposition

     bravais-lattice index     =            0
     lattice parameter (alat)  =       1.8897  a.u.
     unit-cell volume          =    6658.9804 (a.u.)^3
     number of atoms/cell      =           52
     number of atomic types    =            4
     number of electrons       =       391.00
     number of Kohn-Sham states=          205
     kinetic-energy cutoff     =      29.3995  Ry
     charge density cutoff     =     293.9946  Ry
     scf convergence threshold =      7.3E-08
     mixing beta               =       0.0500
     number of iterations used =            8  plain     mixing
     Exchange-correlation= BEEF-VDW
                           (   1   4  43  14   2   0   0)

     celldm(1)=   1.889726  celldm(2)=   0.000000  celldm(3)=   0.000000
     celldm(4)=   0.000000  celldm(5)=   0.000000  celldm(6)=   0.000000

     crystal axes: (cart. coord. in units of alat)
               a(1) = (   6.579727   0.000000   0.000000 )
               a(2) = (  -0.000775   5.961596   0.000000 )
               a(3) = (   0.000000   0.000000  25.155947 )

     reciprocal axes: (cart. coord. in units 2 pi/alat)
               b(1) = (  0.151982  0.000020  0.000000 )
               b(2) = (  0.000000  0.167740  0.000000 )
               b(3) = (  0.000000  0.000000  0.039752 )

     PseudoPot. # 1 for Ti read from file:
     /storage/coda1/p-amedford6/0/shared/rich_project_chbe-medford/medford-share/data/pseudos_module/espresso/nninc/pbe/van/Ti.UPF
     MD5 check sum: 8e4df49b7f0d34bbd5052bf3f5ea0213
     Pseudo is Ultrasoft, Zval = 12.0
     Generated by new atomic code, or converted to UPF format
     Using radial grid of  851 points,  6 beta functions with:
                l(1) =   0
                l(2) =   0
                l(3) =   1
                l(4) =   1
                l(5) =   2
                l(6) =   2
     Q(r) pseudized with  8 coefficients,  rinner =    1.000   1.000   1.000
                                                       1.000   1.000

     PseudoPot. # 2 for O  read from file:
     /storage/coda1/p-amedford6/0/shared/rich_project_chbe-medford/medford-share/data/pseudos_module/espresso/nninc/pbe/van/O.UPF
     MD5 check sum: 78c19812648e8988a0fe644b0f25305e
     Pseudo is Ultrasoft, Zval =  6.0
     Generated by new atomic code, or converted to UPF format
     Using radial grid of  737 points,  4 beta functions with:
                l(1) =   0
                l(2) =   0
                l(3) =   1
                l(4) =   1
     Q(r) pseudized with  8 coefficients,  rinner =    0.800   0.800   0.800

     PseudoPot. # 3 for C  read from file:
     /storage/coda1/p-amedford6/0/shared/rich_project_chbe-medford/medford-share/data/pseudos_module/espresso/nninc/pbe/van/C.UPF
     MD5 check sum: 1a69bf6b8db32088f5b2163dbdb77a27
     Pseudo is Ultrasoft, Zval =  4.0
     Generated by new atomic code, or converted to UPF format
     Using radial grid of  721 points,  4 beta functions with:
                l(1) =   0
                l(2) =   0
                l(3) =   1
                l(4) =   1
     Q(r) pseudized with  8 coefficients,  rinner =    0.800   0.800   0.800

     PseudoPot. # 4 for H  read from file:
     /storage/coda1/p-amedford6/0/shared/rich_project_chbe-medford/medford-share/data/pseudos_module/espresso/nninc/pbe/van/H.UPF
     MD5 check sum: b5ee9d7bfd3a09ee7748110bda690ff7
     Pseudo is Ultrasoft, Zval =  1.0
     Generated by new atomic code, or converted to UPF format
     Using radial grid of  615 points,  1 beta functions with:
                l(1) =   0
     Q(r) pseudized with  8 coefficients,  rinner =    0.800

     atomic species   valence    mass     pseudopotential
        Ti1           12.00    47.86700     Ti( 1.00)
        O1             6.00    15.99900     O ( 1.00)
        C1             4.00    12.01100     C ( 1.00)
        H1             1.00     1.00800     H ( 1.00)

     No symmetry found

   Cartesian axes

     site n.     atom                  positions (alat units)
         1           Ti1 tau(   1) = (   0.0004258   2.9801865   6.0000000  )
         2           Ti1 tau(   2) = (   3.2906075   1.4906267   6.0002472  )
         3           O1  tau(   3) = (   0.0006271   0.0005054   7.9858123  )
         4           O1  tau(   4) = (   3.2906025   0.0005020   7.3038282  )
         5           O1  tau(   5) = (   4.5942328   1.4918067   9.2879030  )
         6           O1  tau(   6) = (   1.9868534   1.4903216   9.2879459  )
         7           Ti1 tau(   7) = (   3.2576197   2.8654215   9.2214558  )
         8           Ti1 tau(   8) = (   6.5344909   1.4429808   9.3601258  )
         9           O1  tau(   9) = (   3.2692782   5.9266415  11.3199434  )
        10           O1  tau(  10) = (   6.5685443   5.9434748  10.5851361  )
        11           O1  tau(  11) = (   1.2543606   1.4786140  12.6270584  )
        12           O1  tau(  12) = (   5.2804994   1.4734118  12.6291387  )
        13           Ti1 tau(  13) = (   6.5561640   2.8465321  12.8092297  )
        14           Ti1 tau(  14) = (   3.2590950   1.2910582  12.6820668  )
        15           O1  tau(  15) = (   6.5637791   5.9505241  14.6246090  )
        16           O1  tau(  16) = (   3.2632455   0.0300109  13.9168947  )
        17           O1  tau(  17) = (   4.5093043   1.5331652  16.1230905  )
        18           O1  tau(  18) = (   1.9844652   1.5452522  16.1286669  )
        19           Ti1 tau(  19) = (   3.2766647   3.0056044  15.6806532  )
        20           Ti1 tau(  20) = (   0.0376264   1.5104518  16.1289793  )
        21           O1  tau(  21) = (   3.2904802   0.0005063   4.7018136  )
        22           O1  tau(  22) = (   6.5370995   5.9187843  17.1758003  )
        23           O1  tau(  23) = (   1.3043587   1.4918075   6.0039043  )
        24           O1  tau(  24) = (   5.2767064   1.4903225   6.0039473  )
        25           Ti1 tau(  25) = (   0.0000382   5.9609847   6.0000000  )
        26           Ti1 tau(  26) = (   3.2902200   4.4714249   6.0002472  )
        27           O1  tau(  27) = (   0.0002396   2.9813036   7.9858123  )
        28           O1  tau(  28) = (   3.2902150   2.9813002   7.3038282  )
        29           O1  tau(  29) = (   4.5938453   4.4726049   9.2879030  )
        30           O1  tau(  30) = (   1.9864658   4.4711199   9.2879459  )
        31           Ti1 tau(  31) = (   3.2565375   5.8496818   9.1814359  )
        32           Ti1 tau(  32) = (   6.5349656   4.3900073   9.3400910  )
        33           O1  tau(  33) = (   3.2728704   3.0037829  11.2907943  )
        34           O1  tau(  34) = (   6.5689136   2.9626257  10.5472476  )
        35           O1  tau(  35) = (   1.2549189   4.4436098  12.6280720  )
        36           O1  tau(  36) = (   5.2752285   4.4450423  12.6314263  )
        37           Ti1 tau(  37) = (   6.5445616   5.8332433  12.5976854  )
        38           Ti1 tau(  38) = (   3.2543598   4.3897341  12.4334224  )
        39           O1  tau(  39) = (   6.5579435   2.9355163  14.7117218  )
        40           O1  tau(  40) = (   3.2602875   2.9656724  13.9017019  )
        41           O1  tau(  41) = (   4.5395605   4.4315404  16.0360363  )
        42           O1  tau(  42) = (   2.0063696   4.4444213  16.0824092  )
        43           Ti1 tau(  43) = (   3.2990179   0.0081159  16.3450624  )
        44           Ti1 tau(  44) = (   6.5722952   4.6241161  15.8901152  )
        45           O1  tau(  45) = (   3.2900926   2.9813045   4.7018136  )
        46           O1  tau(  46) = (   1.3039711   4.4726057   6.0039043  )
        47           O1  tau(  47) = (   5.2763189   4.4711207   6.0039473  )
        48           C1  tau(  48) = (   6.5366691   2.9215611  17.7332970  )
        49           H1  tau(  49) = (   0.8393079   3.1163452  18.3454380  )
        50           H1  tau(  50) = (   5.6239513   3.1093896  18.3013171  )
        51           O1  tau(  51) = (   3.3457726   5.9161862  18.1608053  )
        52           H1  tau(  52) = (   4.0847859   0.3069366  18.6733355  )

     number of k points=    10  Fermi-Dirac smearing, width (Ry)=  0.0073
                       cart. coord. in units 2pi/alat
        k(    1) = (   0.0000000   0.0000000   0.0000000), wk =   0.1250000
        k(    2) = (   0.0000000   0.0419351   0.0000000), wk =   0.2500000
        k(    3) = (   0.0000000  -0.0838702   0.0000000), wk =   0.1250000
        k(    4) = (   0.0379955   0.0000049   0.0000000), wk =   0.2500000
        k(    5) = (   0.0379955   0.0419400   0.0000000), wk =   0.2500000
        k(    6) = (   0.0379955  -0.0838652   0.0000000), wk =   0.2500000
        k(    7) = (   0.0379955  -0.0419301   0.0000000), wk =   0.2500000
        k(    8) = (  -0.0759910  -0.0000099   0.0000000), wk =   0.1250000
        k(    9) = (  -0.0759910   0.0419252   0.0000000), wk =   0.2500000
        k(   10) = (  -0.0759910  -0.0838800   0.0000000), wk =   0.1250000

     Initial potential from superposition of free atoms

     starting charge  374.99918, renormalised to  391.00000

     negative rho (up, down):  1.929E-02 0.000E+00

     %%%%%%%%%%%%%%%%%%%%%%%%%%%%%%%%%%%%%%%%%%%%%%%%%%%%%%%%%%%%%%%%%%%%%%%%
     %                                                                      %
     % You are using vdW-DF, which was implemented by the Thonhauser group. %
     % Please cite the following two papers that made this development      %
     % possible and the two reviews that describe the various versions:     %
     %                                                                      %
     %   T. Thonhauser et al., PRL 115, 136402 (2015).                      %
     %   T. Thonhauser et al., PRB 76, 125112 (2007).                       %
     %   K. Berland et al., Rep. Prog. Phys. 78, 066501 (2015).             %
     %   D.C. Langreth et al., J. Phys.: Condens. Matter 21, 084203 (2009). %
     %                                                                      %
     %                                                                      %
     % If you are calculating the stress with vdW-DF, please also cite:     %
     %                                                                      %
     %   R. Sabatini et al., J. Phys.: Condens. Matter 24, 424209 (2012).   %
     %                                                                      %
     %%%%%%%%%%%%%%%%%%%%%%%%%%%%%%%%%%%%%%%%%%%%%%%%%%%%%%%%%%%%%%%%%%%%%%%%

     Adding external electric field

     Computed dipole along edir(3) :
        Dipole               -4.4316 Ry au,        -11.2641 Debye
        Dipole field         -0.0084 Ry au,

        Potential amp.        0.7752 Ry
        Total length         46.3494 bohr

     Starting wfcs are  295 atomic wfcs
  @ DRIVER MODE: Message from server: STATUS
  @ DRIVER MODE: Message from server: POSDATA
  @ DRIVER MODE: Reading and sharing cell
  @ DRIVER MODE: Reading and sharing positions
  @ DRIVER MODE: Received positions

     Self-consistent Calculation

     iteration #  1     ecut=    29.40 Ry     beta= 0.05
     Davidson diagonalization with overlap
     c_bands:  4 eigenvalues not converged
     c_bands:  2 eigenvalues not converged
     c_bands:  2 eigenvalues not converged
     c_bands:  2 eigenvalues not converged
     c_bands:  3 eigenvalues not converged
     c_bands:  1 eigenvalues not converged
     c_bands:  3 eigenvalues not converged
     c_bands:  1 eigenvalues not converged
     c_bands:  3 eigenvalues not converged
     ethr =  1.00E-05,  avg # of iterations = 19.9

[...]

     total energy              =   -2883.51502291 Ry
     estimated scf accuracy    <     546.30937443 Ry

     iteration #  2     ecut=    29.40 Ry     beta= 0.05
     Davidson diagonalization with overlap
     ethr =  1.00E-02,  avg # of iterations = 14.2

[...]

     iteration # 36     ecut=    29.40 Ry     beta= 0.05
     Davidson diagonalization with overlap
     c_bands:  1 eigenvalues not converged
     ethr =  1.76E-07,  avg # of iterations =  7.9

[...]

     total energy              =   -2931.27742894 Ry
     estimated scf accuracy    <       0.00000008 Ry

     iteration # 54     ecut=    29.40 Ry     beta= 0.05
     Davidson diagonalization with overlap
     ethr =  1.97E-11,  avg # of iterations =  4.8

     negative rho (up, down):  1.858E-02 0.000E+00

     Adding external electric field

     Computed dipole along edir(3) :
        Dipole                0.4336 Ry au,          1.1020 Debye
        Dipole field          0.0008 Ry au,

        Potential amp.       -0.0758 Ry
        Total length         46.3494 bohr

     End of self-consistent calculation

          k = 0.0000 0.0000 0.0000 ( 18029 PWs)   bands (ev):

   -56.6091 -56.5591 -56.1488 -56.0378 -55.9954 -55.9385 -55.9121 -55.8969
   -55.8539 -55.8124 -55.7832 -55.7263 -55.6785 -55.6101 -55.2186 -55.1847
   -33.0208 -32.8740 -32.8197 -32.7879 -32.6922 -32.6469 -32.4984 -32.4859
   -32.4661 -32.4051 -32.3733 -32.3504 -32.3075 -32.2850 -32.2664 -32.2427
   -32.2386 -32.2234 -32.2096 -32.1438 -32.1411 -32.1279 -32.1253 -32.1120
   -32.0991 -32.0941 -32.0893 -32.0862 -32.0605 -32.0404 -32.0166 -31.9993
   -31.9942 -31.9841 -31.9827 -31.9733 -31.9271 -31.8707 -31.8443 -31.8381
   -31.8219 -31.7885 -31.6132 -31.5590 -31.5347 -31.4298 -31.3448 -31.2341
   -16.9763 -16.7670 -16.6237 -16.4002 -16.2558 -16.1514 -15.9353 -15.9248
   -15.8031 -15.7858 -15.7611 -15.6298 -15.6167 -15.6002 -15.5602 -15.5392
   -15.5311 -15.5290 -15.5176 -15.4913 -15.4592 -15.4382 -15.3982 -15.3166
   -15.2410 -15.2339 -15.1987 -15.1432 -15.0797 -14.8606 -13.7215 -13.6131
    -8.9119  -4.6677  -4.2913  -4.0787  -3.9703  -3.8925  -3.7862  -3.6329
    -3.4338  -3.2951  -3.2458  -3.2089  -3.1606  -3.1449  -3.1238  -3.0794
    -3.0326  -2.9807  -2.9514  -2.8896  -2.8650  -2.8257  -2.7888  -2.7638
    -2.7483  -2.7302  -2.7238  -2.5893  -2.5243  -2.5140  -2.4671  -2.4651
    -2.4069  -2.3900  -2.3664  -2.3170  -2.2830  -2.1879  -2.1292  -2.0960
    -2.0505  -1.8294  -1.8107  -1.7454  -1.6709  -1.6180  -1.5597  -1.5169
    -1.4636  -1.4347  -1.3749  -1.3347  -1.2882  -1.2621  -1.2225  -1.1554
    -1.1352  -1.1003  -1.0388  -0.9629  -0.9174  -0.8484  -0.7831  -0.7460
    -0.6907  -0.6820  -0.6519  -0.5608  -0.4772  -0.4573  -0.4239  -0.3829
    -0.3650  -0.2942  -0.2814  -0.2393  -0.2221  -0.1455  -0.1304  -0.1012
    -0.0686  -0.0461  -0.0247   0.0416   0.1640   0.2318   0.2765   0.3127
     0.3287   0.4147   0.4342   0.5224   0.6770   0.7977   0.8369   1.0073
     1.0598   1.3485   1.3945   1.9252   2.6923   2.8567   3.1424   3.2444
     3.2812   3.3577   3.4022   3.4336   3.6302

[...]

          k = 0.0380-0.0419 0.0000 ( 17876 PWs)   bands (ev):

[...]

          k =-0.0760-0.0000 0.0000 ( 17886 PWs)   bands (ev):

[...]

          k =-0.0760-0.0839 0.0000 ( 17948 PWs)   bands (ev):

   -56.6026 -56.5654 -56.1480 -56.0354 -55.9894 -55.9443 -55.9143 -55.8974
   -55.8451 -55.8211 -55.7815 -55.7202 -55.6845 -55.6116 -55.2019 -55.2013
   -32.8698 -32.8533 -32.8236 -32.8214 -32.7544 -32.7227 -32.4246 -32.3811
   -32.3689 -32.3513 -32.3341 -32.2909 -32.2683 -32.2611 -32.2503 -32.2305
   -32.2149 -32.2024 -32.1916 -32.1830 -32.1637 -32.1625 -32.1402 -32.1366
   -32.1352 -32.1241 -32.1092 -32.1055 -32.0724 -32.0678 -32.0546 -32.0421
   -32.0030 -31.9956 -31.9877 -31.9867 -31.9543 -31.9308 -31.9103 -31.8724
   -31.8251 -31.8116 -31.5479 -31.5475 -31.4287 -31.4269 -31.3870 -31.3861
   -16.9652 -16.1453 -16.0837 -16.0741 -16.0609 -16.0310 -15.9896 -15.9181
   -15.9161 -15.8187 -15.7916 -15.7479 -15.7103 -15.6976 -15.6522 -15.6386
   -15.6253 -15.5634 -15.5211 -15.5022 -15.4870 -15.4743 -15.4531 -15.4285
   -15.4170 -15.3968 -15.3293 -15.2476 -15.2172 -15.0027 -13.7175 -13.7162
    -8.9197  -4.6591  -3.3824  -3.3277  -3.2488  -3.2305  -3.2193  -3.1500
    -3.0939  -3.0888  -3.0310  -3.0176  -2.9743  -2.9449  -2.9151  -2.9091
    -2.9019  -2.8923  -2.8786  -2.8551  -2.8009  -2.7980  -2.7803  -2.7711
    -2.7548  -2.7388  -2.7065  -2.6657  -2.6348  -2.6107  -2.5311  -2.4255
    -2.4198  -2.3866  -2.3550  -2.3225  -2.2803  -2.2589  -2.1828  -2.1755
    -2.1594  -2.1099  -2.0112  -1.7788  -1.7708  -1.7173  -1.6829  -1.6744
    -1.6122  -1.5426  -1.5357  -1.4511  -1.4482  -1.4345  -1.3344  -1.3168
    -1.2835  -1.2647  -1.2388  -1.2106  -1.1069  -1.0856  -1.0774  -1.0466
    -1.0011  -0.9798  -0.8880  -0.8696  -0.8518  -0.8235  -0.7415  -0.6893
    -0.6502  -0.6317  -0.4939  -0.4440  -0.4353  -0.2833  -0.2311  -0.1970
    -0.1753  -0.0880   0.0145   0.0560   0.1131   0.1602   0.2193   0.3264
     0.3386   0.3606   0.4257   0.4656   0.4727   0.4880   0.5649   1.1919
     1.1926   1.2008   1.2077   2.0840   3.2336   3.2590   3.2711   3.3046
     3.5191   3.5408   3.5516   3.6109   3.6521

     the Fermi energy is     2.0050 ev

!    total energy              =   -2931.27750934 Ry
     estimated scf accuracy    <       0.00000005 Ry
     smearing contrib. (-TS)   =      -0.01004644 Ry
     internal energy E=F+TS    =   -2931.26746291 Ry

     The total energy is F=E-TS. E is the sum of the following terms:
     one-electron contribution =  -24332.10710728 Ry
     hartree contribution      =   12249.83759723 Ry
     xc contribution           =    -481.70375906 Ry
     ewald contribution        =    9632.70545149 Ry
     electric field correction =       0.00035472 Ry

     convergence has been achieved in  54 iterations

     Forces acting on atoms (cartesian axes, Ry/au):

     atom    1 type  1   force =     0.00036274   -0.00077827    0.13238512
     atom    2 type  1   force =     0.00014062    0.00691110   -0.15728147
     atom    3 type  2   force =    -0.00018517    0.00282019   -0.05347822
     atom    4 type  2   force =    -0.00072739   -0.00116805    0.04119981
     atom    5 type  2   force =    -0.01141356   -0.00238223    0.00284487
     atom    6 type  2   force =     0.00919944   -0.00643406    0.00177619
     atom    7 type  1   force =     0.00043754    0.00029679   -0.00039225
     atom    8 type  1   force =     0.00019297   -0.00003058    0.00094225
     atom    9 type  2   force =    -0.00002190    0.00044179    0.00040157
     atom   10 type  2   force =     0.00025526    0.00023436   -0.00011832
     atom   11 type  2   force =     0.00050240    0.00033793    0.00026452
     atom   12 type  2   force =    -0.00013921    0.00027397   -0.00025545
     atom   13 type  1   force =    -0.00025832   -0.00046785   -0.00091385
     atom   14 type  1   force =     0.00020244    0.00052593   -0.00027787
     atom   15 type  2   force =     0.00006813   -0.00019781    0.00149629
     atom   16 type  2   force =     0.00049219   -0.00018100    0.00012086
     atom   17 type  2   force =     0.00046886   -0.00003171   -0.00078491
     atom   18 type  2   force =    -0.00117451   -0.00024639   -0.00047750
     atom   19 type  1   force =     0.00109227   -0.00040151   -0.00017822
     atom   20 type  1   force =    -0.00035161    0.00031141   -0.00017742
     atom   21 type  2   force =     0.00021153    0.00008881    0.09898761
     atom   22 type  2   force =     0.00006564    0.00082667   -0.00107578
     atom   23 type  2   force =    -0.08050030    0.00137450   -0.03417425
     atom   24 type  2   force =     0.08057445    0.00190465   -0.03418102
     atom   25 type  1   force =     0.00031072   -0.00011272    0.14243420
     atom   26 type  1   force =     0.00016314   -0.00836602   -0.15754276
     atom   27 type  2   force =    -0.00039194   -0.00116980   -0.05197367
     atom   28 type  2   force =    -0.00063976   -0.00038170    0.04299210
     atom   29 type  2   force =    -0.01012217    0.00504008    0.00017407
     atom   30 type  2   force =     0.00780190    0.00128640   -0.00110679
     atom   31 type  1   force =     0.00010524    0.00000348   -0.00026997
     atom   32 type  1   force =     0.00009809   -0.00043704    0.00097185
     atom   33 type  2   force =     0.00003666   -0.00033964   -0.00007473
     atom   34 type  2   force =     0.00024538    0.00012776   -0.00026010
     atom   35 type  2   force =    -0.00051252    0.00035262    0.00018557
     atom   36 type  2   force =     0.00131713    0.00031292   -0.00024939
     atom   37 type  1   force =     0.00000534   -0.00019849   -0.00044244
     atom   38 type  1   force =     0.00029303   -0.00011158   -0.00019921
     atom   39 type  2   force =     0.00002225    0.00012915    0.00011544
     atom   40 type  2   force =     0.00040526    0.00012136   -0.00037943
     atom   41 type  2   force =    -0.00119937    0.00036115    0.00029911
     atom   42 type  2   force =     0.00034588    0.00031441   -0.00006826
     atom   43 type  1   force =     0.00110495    0.00104302    0.00039493
     atom   44 type  1   force =    -0.00028347    0.00042993   -0.00022037
     atom   45 type  2   force =     0.00020235    0.00000001    0.09856378
     atom   46 type  2   force =    -0.08048676   -0.00109904   -0.03415495
     atom   47 type  2   force =     0.08058065   -0.00056393   -0.03423941
     atom   48 type  3   force =     0.00004554    0.00029690   -0.00014556
     atom   49 type  4   force =    -0.00024192   -0.00019949    0.00003842
     atom   50 type  4   force =     0.00018870    0.00016764   -0.00013986
     atom   51 type  2   force =    -0.00550163   -0.00301426   -0.00513702
     atom   52 type  4   force =     0.00661284    0.00197824    0.00378189

     Total force =     0.383878     Total SCF correction =     0.000507
  @ DRIVER MODE: Message from server: STATUS
  @ DRIVER MODE: Message from server: GETFORCE
  @ DRIVER MODE: Returning v,forces,stress,ensemble

     Writing output data file ./calc.save/
  @ DRIVER MODE: Message from server: EXIT
  @ DRIVE MODE: Exiting

     General routines

     Parallel routines

   This run was terminated on:  22: 1:40  22Sep2021

   JOB DONE.