     Program PWSCF v.6.7GPU starts on 15Sep2021 at 15:47:55

     R & G space division:  proc/nbgrp/npool/nimage =      10
     Reading input from /storage/home/hcoda1/3/ntian30/research/carbon/CxH_vib/H2O_calc/ads_slab/CHH2O_a/out_0001/pw.inp
Warning: card &CELL ignored
Warning: card   CELL_DYNAMICS='IPI', ignored
Warning: card / ignored

     Current dimensions of program PWSCF are:
     Max number of different atomic species (ntypx) = 10
     Max number of k-points (npk) =  40000
     Max angular momentum in pseudopotentials (lmaxx) =  3
     Presently no symmetry can be used with electric field

     Message from routine cell_base_init:
     DEPRECATED: use true lattice parameter, not A to a.u. conversion factor

     IMPORTANT: XC functional enforced from input :
     Exchange-correlation= BEEF-VDW
                           (   1   4  43  14   2   0   0)
     Any further DFT definition will be discarded
     Please, verify this is what you really want

  @ DRIVER MODE: Connecting to
 qe_1139763_2852624.sched-torque.pace.gatech.edu5snyfo21_scratch
  using UNIX socket
  @ DRIVER MODE: Message from server: STATUS
  @ DRIVER MODE: Message from server: INIT
  @ DRIVER MODE: Receiving replica           0          -1
  @ DRIVER MODE: Receiving encoded integer          25
  @ DRIVER MODE:  SCF:  T  FORCE:  T  STRESS:  F  VC:  F  ENSEMBLE:  F
  @ DRIVER MODE:  SCF:  T  FORCE:  T  STRESS:  F  VC:  F  ENSEMBLE:  F

     Using Slab Decomposition

     bravais-lattice index     =            0
     lattice parameter (alat)  =       1.8897  a.u.
     unit-cell volume          =    6658.9804 (a.u.)^3
     number of atoms/cell      =           52
     number of atomic types    =            4
     number of electrons       =       391.00
     number of Kohn-Sham states=          205
     kinetic-energy cutoff     =      29.3995  Ry
     charge density cutoff     =     293.9946  Ry
     scf convergence threshold =      7.3E-08
     mixing beta               =       0.0500
     number of iterations used =            8  plain     mixing
     Exchange-correlation= BEEF-VDW
                           (   1   4  43  14   2   0   0)

     celldm(1)=   1.889726  celldm(2)=   0.000000  celldm(3)=   0.000000
     celldm(4)=   0.000000  celldm(5)=   0.000000  celldm(6)=   0.000000

     crystal axes: (cart. coord. in units of alat)
               a(1) = (   6.579727   0.000000   0.000000 )
               a(2) = (  -0.000775   5.961596   0.000000 )
               a(3) = (   0.000000   0.000000  25.155947 )

     reciprocal axes: (cart. coord. in units 2 pi/alat)
               b(1) = (  0.151982  0.000020  0.000000 )
               b(2) = (  0.000000  0.167740  0.000000 )
               b(3) = (  0.000000  0.000000  0.039752 )

     PseudoPot. # 1 for Ti read from file:
     /storage/coda1/p-amedford6/0/shared/rich_project_chbe-medford/medford-share/data/pseudos_module/espresso/nninc/pbe/van/Ti.UPF
     MD5 check sum: 8e4df49b7f0d34bbd5052bf3f5ea0213
     Pseudo is Ultrasoft, Zval = 12.0
     Generated by new atomic code, or converted to UPF format
     Using radial grid of  851 points,  6 beta functions with:
                l(1) =   0
                l(2) =   0
                l(3) =   1
                l(4) =   1
                l(5) =   2
                l(6) =   2
     Q(r) pseudized with  8 coefficients,  rinner =    1.000   1.000   1.000
                                                       1.000   1.000

     PseudoPot. # 2 for O  read from file:
     /storage/coda1/p-amedford6/0/shared/rich_project_chbe-medford/medford-share/data/pseudos_module/espresso/nninc/pbe/van/O.UPF
     MD5 check sum: 78c19812648e8988a0fe644b0f25305e
     Pseudo is Ultrasoft, Zval =  6.0
     Generated by new atomic code, or converted to UPF format
     Using radial grid of  737 points,  4 beta functions with:
                l(1) =   0
                l(2) =   0
                l(3) =   1
                l(4) =   1
     Q(r) pseudized with  8 coefficients,  rinner =    0.800   0.800   0.800

     PseudoPot. # 3 for C  read from file:
     /storage/coda1/p-amedford6/0/shared/rich_project_chbe-medford/medford-share/data/pseudos_module/espresso/nninc/pbe/van/C.UPF
     MD5 check sum: 1a69bf6b8db32088f5b2163dbdb77a27
     Pseudo is Ultrasoft, Zval =  4.0
     Generated by new atomic code, or converted to UPF format
     Using radial grid of  721 points,  4 beta functions with:
                l(1) =   0
                l(2) =   0
                l(3) =   1
                l(4) =   1
     Q(r) pseudized with  8 coefficients,  rinner =    0.800   0.800   0.800

     PseudoPot. # 4 for H  read from file:
     /storage/coda1/p-amedford6/0/shared/rich_project_chbe-medford/medford-share/data/pseudos_module/espresso/nninc/pbe/van/H.UPF
     MD5 check sum: b5ee9d7bfd3a09ee7748110bda690ff7
     Pseudo is Ultrasoft, Zval =  1.0
     Generated by new atomic code, or converted to UPF format
     Using radial grid of  615 points,  1 beta functions with:
                l(1) =   0
     Q(r) pseudized with  8 coefficients,  rinner =    0.800

     atomic species   valence    mass     pseudopotential
        Ti1           12.00    47.86700     Ti( 1.00)
        O1             6.00    15.99900     O ( 1.00)
        C1             4.00    12.01100     C ( 1.00)
        H1             1.00     1.00800     H ( 1.00)

     No symmetry found

   Cartesian axes

     site n.     atom                  positions (alat units)
         1           Ti1 tau(   1) = (   0.0004258   2.9801865   6.0000000  )
         2           Ti1 tau(   2) = (   3.2906075   1.4906267   6.0002472  )
         3           O1  tau(   3) = (   0.0006271   0.0005054   7.9858123  )
         4           O1  tau(   4) = (   3.2906025   0.0005020   7.3038282  )
         5           O1  tau(   5) = (   4.5942328   1.4918067   9.2879030  )
         6           O1  tau(   6) = (   1.9868534   1.4903216   9.2879459  )
         7           Ti1 tau(   7) = (   3.2871774   2.8648350   9.1721854  )
         8           Ti1 tau(   8) = (  -0.0000353   1.4301884   9.3769680  )
         9           O1  tau(   9) = (   3.2813214   0.0053726  11.3480220  )
        10           O1  tau(  10) = (  -0.0004909   5.9494466  10.5591019  )
        11           O1  tau(  11) = (   1.2709337   1.5062281  12.6398922  )
        12           O1  tau(  12) = (   5.2659652   1.5004022  12.6256763  )
        13           Ti1 tau(  13) = (   0.0747037   2.9811850  12.8215060  )
        14           Ti1 tau(  14) = (   3.3904977   1.4744036  12.5039750  )
        15           O1  tau(  15) = (   6.5763451   5.9564350  14.6046450  )
        16           O1  tau(  16) = (   3.2806839   0.0238217  13.9603601  )
        17           O1  tau(  17) = (   4.5226094   1.5694261  16.0518702  )
        18           O1  tau(  18) = (   2.0202940   1.5641231  16.0352509  )
        19           Ti1 tau(  19) = (   3.2640091   3.0260151  15.6942499  )
        20           Ti1 tau(  20) = (   6.5358820   1.5903963  16.1090211  )
        21           O1  tau(  21) = (   3.2904802   0.0005063   4.7018136  )
        22           O1  tau(  22) = (   6.5569505   0.0478586  17.2430089  )
        23           O1  tau(  23) = (   1.3043587   1.4918075   6.0039043  )
        24           O1  tau(  24) = (   5.2767064   1.4903225   6.0039473  )
        25           Ti1 tau(  25) = (   0.0000382   5.9609847   6.0000000  )
        26           Ti1 tau(  26) = (   3.2902200   4.4714249   6.0002472  )
        27           O1  tau(  27) = (   0.0002396   2.9813036   7.9858123  )
        28           O1  tau(  28) = (   3.2902150   2.9813002   7.3038282  )
        29           O1  tau(  29) = (   4.5938453   4.4726049   9.2879030  )
        30           O1  tau(  30) = (   1.9864658   4.4711199   9.2879459  )
        31           Ti1 tau(  31) = (   3.2859829   5.8469316   9.1661464  )
        32           Ti1 tau(  32) = (  -0.0001559   4.4089299   9.3799519  )
        33           O1  tau(  33) = (   3.2865236   2.9807090  11.3458169  )
        34           O1  tau(  34) = (   6.5781283   2.9667683  10.5610256  )
        35           O1  tau(  35) = (   1.2712900   4.4620179  12.6345536  )
        36           O1  tau(  36) = (   5.2651022   4.4720110  12.6184623  )
        37           Ti1 tau(  37) = (   0.0601624   5.9591143  12.7910897  )
        38           Ti1 tau(  38) = (   3.3902089   4.4660181  12.4873354  )
        39           O1  tau(  39) = (   6.5660314   2.9936061  14.6787526  )
        40           O1  tau(  40) = (   3.2777068   3.0094971  13.9036223  )
        41           O1  tau(  41) = (   4.5190982   4.4944638  16.0861991  )
        42           O1  tau(  42) = (   2.0255100   4.4980322  16.0740450  )
        43           Ti1 tau(  43) = (   3.2415938   0.0554625  15.8014791  )
        44           Ti1 tau(  44) = (   6.5310484   4.6110724  16.1360643  )
        45           O1  tau(  45) = (   3.2900926   2.9813045   4.7018136  )
        46           O1  tau(  46) = (   1.3039711   4.4726057   6.0039043  )
        47           O1  tau(  47) = (   5.2763189   4.4711207   6.0039473  )
        48           C1  tau(  48) = (   0.0060176   3.0093394  17.4896075  )
        49           H1  tau(  49) = (   0.0793418   3.1169436  18.5737113  )
        50           O1  tau(  50) = (   3.2580281   0.1500328  18.1801156  )
        51           H1  tau(  51) = (   4.0450954   5.6463884  18.5036456  )
        52           H1  tau(  52) = (   2.4770123   5.6427573  18.5175526  )

     number of k points=    10  Fermi-Dirac smearing, width (Ry)=  0.0073
                       cart. coord. in units 2pi/alat
        k(    1) = (   0.0000000   0.0000000   0.0000000), wk =   0.1250000
        k(    2) = (   0.0000000   0.0419351   0.0000000), wk =   0.2500000
        k(    3) = (   0.0000000  -0.0838702   0.0000000), wk =   0.1250000
        k(    4) = (   0.0379955   0.0000049   0.0000000), wk =   0.2500000
        k(    5) = (   0.0379955   0.0419400   0.0000000), wk =   0.2500000
        k(    6) = (   0.0379955  -0.0838652   0.0000000), wk =   0.2500000
        k(    7) = (   0.0379955  -0.0419301   0.0000000), wk =   0.2500000
        k(    8) = (  -0.0759910  -0.0000099   0.0000000), wk =   0.1250000
        k(    9) = (  -0.0759910   0.0419252   0.0000000), wk =   0.2500000
        k(   10) = (  -0.0759910  -0.0838800   0.0000000), wk =   0.1250000

     Initial potential from superposition of free atoms

     starting charge  374.99918, renormalised to  391.00000

     negative rho (up, down):  1.886E-02 0.000E+00

     %%%%%%%%%%%%%%%%%%%%%%%%%%%%%%%%%%%%%%%%%%%%%%%%%%%%%%%%%%%%%%%%%%%%%%%%
     %                                                                      %
     % You are using vdW-DF, which was implemented by the Thonhauser group. %
     % Please cite the following two papers that made this development      %
     % possible and the two reviews that describe the various versions:     %
     %                                                                      %
     %   T. Thonhauser et al., PRL 115, 136402 (2015).                      %
     %   T. Thonhauser et al., PRB 76, 125112 (2007).                       %
     %   K. Berland et al., Rep. Prog. Phys. 78, 066501 (2015).             %
     %   D.C. Langreth et al., J. Phys.: Condens. Matter 21, 084203 (2009). %
     %                                                                      %
     %                                                                      %
     % If you are calculating the stress with vdW-DF, please also cite:     %
     %                                                                      %
     %   R. Sabatini et al., J. Phys.: Condens. Matter 24, 424209 (2012).   %
     %                                                                      %
     %%%%%%%%%%%%%%%%%%%%%%%%%%%%%%%%%%%%%%%%%%%%%%%%%%%%%%%%%%%%%%%%%%%%%%%%

     Adding external electric field

     Computed dipole along edir(3) :
        Dipole               -4.6207 Ry au,        -11.7446 Debye
        Dipole field         -0.0087 Ry au,

        Potential amp.        0.8083 Ry
        Total length         46.3494 bohr

     Starting wfcs are  295 atomic wfcs
  @ DRIVER MODE: Message from server: STATUS
  @ DRIVER MODE: Message from server: POSDATA
  @ DRIVER MODE: Reading and sharing cell
  @ DRIVER MODE: Reading and sharing positions
  @ DRIVER MODE: Received positions

     Self-consistent Calculation

     iteration #  1     ecut=    29.40 Ry     beta= 0.05
     Davidson diagonalization with overlap
     c_bands:  4 eigenvalues not converged
     c_bands:  1 eigenvalues not converged
     c_bands:  1 eigenvalues not converged
     c_bands:  1 eigenvalues not converged
     c_bands:  2 eigenvalues not converged
     c_bands:  1 eigenvalues not converged
     c_bands:  2 eigenvalues not converged
     c_bands:  1 eigenvalues not converged
     ethr =  1.00E-05,  avg # of iterations = 19.4

[...]

     total energy              =   -2877.66661532 Ry
     estimated scf accuracy    <     610.77121824 Ry

     iteration #  2     ecut=    29.40 Ry     beta= 0.05
     Davidson diagonalization with overlap
     ethr =  1.00E-02,  avg # of iterations = 14.6

[...]

     iteration # 43     ecut=    29.40 Ry     beta= 0.05
     Davidson diagonalization with overlap
     c_bands:  1 eigenvalues not converged
     ethr =  3.84E-08,  avg # of iterations =  6.3

[...]

     total energy              =   -2931.21628869 Ry
     estimated scf accuracy    <       0.00000008 Ry

     iteration # 67     ecut=    29.40 Ry     beta= 0.05
     Davidson diagonalization with overlap
     ethr =  1.97E-11,  avg # of iterations =  2.3

     negative rho (up, down):  1.827E-02 0.000E+00

     Adding external electric field

     Computed dipole along edir(3) :
        Dipole                0.7867 Ry au,          1.9995 Debye
        Dipole field          0.0015 Ry au,

        Potential amp.       -0.1376 Ry
        Total length         46.3494 bohr

     End of self-consistent calculation

          k = 0.0000 0.0000 0.0000 ( 18029 PWs)   bands (ev):

   -56.2778 -56.2441 -55.9075 -55.8887 -55.8689 -55.7087 -55.6570 -55.6503
   -55.6162 -55.5708 -55.5668 -55.5354 -55.0500 -55.0267 -55.0160 -54.9673
   -32.7047 -32.5260 -32.4978 -32.4689 -32.4435 -32.3778 -32.3316 -32.3009
   -32.2082 -32.1406 -32.1330 -32.1312 -32.1183 -32.1138 -32.0895 -32.0761
   -32.0726 -32.0643 -32.0292 -31.9249 -31.9039 -31.8935 -31.8873 -31.8823
   -31.8756 -31.8631 -31.8210 -31.8078 -31.7961 -31.7868 -31.7659 -31.7499
   -31.7458 -31.7342 -31.7286 -31.6746 -31.5624 -31.4494 -31.3773 -31.3534
   -31.2960 -31.2677 -31.2633 -31.2587 -31.1827 -31.1680 -31.0709 -31.0367
   -19.2359 -16.5786 -16.4284 -16.1900 -16.0546 -15.9600 -15.7846 -15.6420
   -15.6147 -15.5213 -15.5172 -15.4321 -15.4229 -15.3805 -15.3739 -15.3704
   -15.3534 -15.3236 -15.2844 -15.2749 -15.2678 -15.2366 -15.1754 -15.0824
   -15.0555 -15.0088 -14.9051 -14.8930 -14.8603 -14.6817 -13.5440 -13.4307
    -7.5459  -7.0604  -4.0223  -3.9390  -3.8215  -3.7795  -3.6922  -3.5841
    -3.3541  -3.3467  -3.0736  -3.0370  -2.9827  -2.9553  -2.9415  -2.8749
    -2.8008  -2.7578  -2.7196  -2.7003  -2.6817  -2.6585  -2.6536  -2.5879
    -2.5464  -2.4904  -2.4792  -2.4602  -2.3738  -2.3047  -2.2495  -2.2205
    -2.2133  -2.1738  -2.0966  -2.0786  -2.0656  -2.0128  -1.8985  -1.8156
    -1.7450  -1.7141  -1.6456  -1.6124  -1.5331  -1.4343  -1.3857  -1.3081
    -1.2899  -1.2854  -1.2229  -1.2051  -1.1297  -1.0406  -0.9776  -0.9273
    -0.8380  -0.8165  -0.7886  -0.7412  -0.7231  -0.6861  -0.6579  -0.6208
    -0.5671  -0.5558  -0.4716  -0.3236  -0.3064  -0.2817  -0.2656  -0.2239
    -0.1896  -0.1291  -0.1064  -0.0578  -0.0377   0.0060   0.0185   0.0574
     0.0861   0.1455   0.2618   0.2823   0.3009   0.3763   0.4900   0.5367
     0.5893   0.6914   0.7037   0.9052   0.9288   0.9773   1.1923   1.2336
     1.5625   1.6351   1.8896   2.6346   2.9942   3.1777   3.4666   3.4823
     3.5154   3.5879   3.7153   3.7495   3.8162

[...]

          k = 0.0380-0.0419 0.0000 ( 17876 PWs)   bands (ev):

[...]

          k =-0.0760-0.0000 0.0000 ( 17886 PWs)   bands (ev):

[...]

          k =-0.0760-0.0839 0.0000 ( 17948 PWs)   bands (ev):

   -56.2625 -56.2593 -55.8955 -55.8870 -55.8807 -55.7103 -55.6535 -55.6346
   -55.6316 -55.5703 -55.5554 -55.5508 -55.0329 -55.0329 -55.0213 -54.9726
   -32.5237 -32.5209 -32.5133 -32.5096 -32.4229 -32.4203 -32.2586 -32.2394
   -32.1778 -32.1682 -32.1524 -32.1044 -32.1035 -32.0961 -32.0841 -32.0594
   -32.0170 -31.9697 -31.9634 -31.9616 -31.9120 -31.9016 -31.8927 -31.8882
   -31.8822 -31.8718 -31.8695 -31.8615 -31.8450 -31.8422 -31.8112 -31.8040
   -31.7704 -31.7652 -31.7612 -31.7567 -31.4518 -31.3663 -31.3663 -31.3244
   -31.2923 -31.2654 -31.2638 -31.2635 -31.2253 -31.2252 -31.1833 -31.0762
   -19.2350 -16.0568 -15.9569 -15.8156 -15.7818 -15.7441 -15.7430 -15.6973
   -15.6632 -15.6340 -15.6297 -15.5419 -15.5120 -15.4870 -15.4820 -15.4165
   -15.4096 -15.4035 -15.4001 -15.3301 -15.3245 -15.2268 -15.2179 -15.1367
   -15.1294 -15.0944 -15.0757 -15.0324 -15.0298 -14.8274 -13.5331 -13.5330
    -7.5512  -7.0519  -3.6536  -3.3499  -3.1574  -3.0265  -2.9849  -2.8966
    -2.8714  -2.8622  -2.8617  -2.7985  -2.7544  -2.7436  -2.7033  -2.6771
    -2.6708  -2.6486  -2.6444  -2.6132  -2.6113  -2.6060  -2.6037  -2.5905
    -2.5548  -2.5065  -2.5038  -2.4917  -2.4846  -2.4361  -2.3666  -2.3306
    -2.2558  -2.1621  -2.1610  -2.0886  -2.0531  -1.9792  -1.9696  -1.9645
    -1.9456  -1.9195  -1.7827  -1.6721  -1.6499  -1.6338  -1.5823  -1.5739
    -1.5204  -1.3269  -1.3093  -1.2504  -1.1831  -1.1592  -1.1202  -1.1087
    -1.0483  -1.0441  -1.0238  -0.9883  -0.9797  -0.9343  -0.9064  -0.8192
    -0.7966  -0.7690  -0.7489  -0.6814  -0.6540  -0.6131  -0.5745  -0.5474
    -0.5293  -0.5053  -0.4329  -0.3911  -0.3256  -0.2819  -0.2166   0.0249
     0.0325   0.2223   0.2986   0.3887   0.4541   0.4744   0.4886   0.5509
     0.6195   0.6262   0.6423   0.6634   0.7379   0.7426   1.3634   1.3659
     1.4168   1.4173   2.1049   2.5276   3.5392   3.5440   3.5587   3.5796
     3.5877   3.6326   3.6485   3.6818   3.9494

     the Fermi energy is     2.4963 ev

!    total energy              =   -2931.21630893 Ry
     estimated scf accuracy    <       0.00000006 Ry
     smearing contrib. (-TS)   =      -0.01054267 Ry
     internal energy E=F+TS    =   -2931.20576626 Ry

     The total energy is F=E-TS. E is the sum of the following terms:
     one-electron contribution =  -24525.81302309 Ry
     hartree contribution      =   12349.38383377 Ry
     xc contribution           =    -481.84874076 Ry
     ewald contribution        =    9727.07099593 Ry
     electric field correction =       0.00116789 Ry

     convergence has been achieved in  67 iterations

     Forces acting on atoms (cartesian axes, Ry/au):

     atom    1 type  1   force =     0.00017764   -0.00008609    0.14779552
     atom    2 type  1   force =     0.00001227    0.00055637   -0.16853370
     atom    3 type  2   force =     0.00012275    0.00257789   -0.06042333
     atom    4 type  2   force =    -0.00023346   -0.00139668    0.04035340
     atom    5 type  2   force =    -0.02183776    0.00008936    0.00384754
     atom    6 type  2   force =     0.02068549   -0.00003941    0.00305706
     atom    7 type  1   force =     0.00105335    0.00043640    0.00002447
     atom    8 type  1   force =    -0.00060371    0.00113145   -0.00045165
     atom    9 type  2   force =    -0.00007705    0.00015571   -0.00038773
     atom   10 type  2   force =     0.00022628   -0.00015701    0.00046855
     atom   11 type  2   force =     0.00010989   -0.00023070    0.00009201
     atom   12 type  2   force =    -0.00028403   -0.00026495   -0.00006981
     atom   13 type  1   force =     0.00016474   -0.00046357   -0.00053235
     atom   14 type  1   force =     0.00022767   -0.00025086    0.00055634
     atom   15 type  2   force =    -0.00015121   -0.00022915    0.00011725
     atom   16 type  2   force =    -0.00005060    0.00011782    0.00001024
     atom   17 type  2   force =    -0.00043567    0.00000124   -0.00064516
     atom   18 type  2   force =    -0.00065020    0.00002395    0.00023604
     atom   19 type  1   force =     0.00069200    0.00088630   -0.00012456
     atom   20 type  1   force =    -0.00084146   -0.00077452    0.00109301
     atom   21 type  2   force =     0.00009068   -0.00009797    0.10203771
     atom   22 type  2   force =     0.00021347    0.00035341   -0.00028861
     atom   23 type  2   force =    -0.07527738    0.00017715   -0.03469417
     atom   24 type  2   force =     0.07530280    0.00061667   -0.03478605
     atom   25 type  1   force =    -0.00002532   -0.00011434    0.14835413
     atom   26 type  1   force =     0.00006593   -0.00187317   -0.16845850
     atom   27 type  2   force =     0.00016125    0.00246477   -0.05953087
     atom   28 type  2   force =    -0.00016963   -0.00144635    0.04095938
     atom   29 type  2   force =    -0.02194438    0.00144409    0.00421244
     atom   30 type  2   force =     0.02064297    0.00073074    0.00339070
     atom   31 type  1   force =     0.00110609   -0.00045791    0.00004049
     atom   32 type  1   force =    -0.00065894   -0.00066238   -0.00041145
     atom   33 type  2   force =     0.00011229   -0.00014250   -0.00061535
     atom   34 type  2   force =     0.00022078    0.00062627   -0.00051845
     atom   35 type  2   force =    -0.00014392    0.00015107   -0.00015379
     atom   36 type  2   force =     0.00052271   -0.00031571   -0.00013076
     atom   37 type  1   force =     0.00006528    0.00048222    0.00013249
     atom   38 type  1   force =    -0.00005639    0.00035403    0.00042926
     atom   39 type  2   force =     0.00007674   -0.00058096    0.00048577
     atom   40 type  2   force =    -0.00007172   -0.00043190    0.00046132
     atom   41 type  2   force =    -0.00092303   -0.00077676   -0.00042861
     atom   42 type  2   force =     0.00012319   -0.00074142    0.00033055
     atom   43 type  1   force =     0.00102474   -0.00103034   -0.00015766
     atom   44 type  1   force =    -0.00070638   -0.00009223    0.00010310
     atom   45 type  2   force =     0.00008321   -0.00009304    0.10197764
     atom   46 type  2   force =    -0.07529702    0.00010352   -0.03470855
     atom   47 type  2   force =     0.07532662    0.00054233   -0.03480592
     atom   48 type  3   force =     0.00199288   -0.00078534    0.00046424
     atom   49 type  4   force =    -0.00041380   -0.00021855   -0.00045935
     atom   50 type  2   force =    -0.00044479    0.00015624    0.00048429
     atom   51 type  4   force =     0.00025424   -0.00039851    0.00017287
     atom   52 type  4   force =     0.00043990   -0.00002666   -0.00037141

     Total force =     0.401714     Total SCF correction =     0.000342
  @ DRIVER MODE: Message from server: STATUS
  @ DRIVER MODE: Message from server: GETFORCE
  @ DRIVER MODE: Returning v,forces,stress,ensemble

     Writing output data file ./calc.save/
  @ DRIVER MODE: Message from server: EXIT
  @ DRIVE MODE: Exiting

     General routines

     Parallel routines

   This run was terminated on:  16: 3:47  15Sep2021

   JOB DONE.