     Program PWSCF v.6.7GPU starts on 22Sep2021 at 18:27:59

     R & G space division:  proc/nbgrp/npool/nimage =      10
     Reading input from /storage/home/hcoda1/3/ntian30/research/carbon/CxH_vib/H2O_calc/ads_slab/CHNHNHH2O_b/out_0008/pw.inp
Warning: card &CELL ignored
Warning: card   CELL_DYNAMICS='IPI', ignored
Warning: card / ignored

     Current dimensions of program PWSCF are:
     Max number of different atomic species (ntypx) = 10
     Max number of k-points (npk) =  40000
     Max angular momentum in pseudopotentials (lmaxx) =  3
     Presently no symmetry can be used with electric field

     Message from routine cell_base_init:
     DEPRECATED: use true lattice parameter, not A to a.u. conversion factor

     IMPORTANT: XC functional enforced from input :
     Exchange-correlation= BEEF-VDW
                           (   1   4  43  14   2   0   0)
     Any further DFT definition will be discarded
     Please, verify this is what you really want

  @ DRIVER MODE: Connecting to
 qe_1139763_2937311.sched-torque.pace.gatech.edu2snp919j_scratch
  using UNIX socket
  @ DRIVER MODE: Message from server: STATUS
  @ DRIVER MODE: Message from server: INIT
  @ DRIVER MODE: Receiving replica           0          -1
  @ DRIVER MODE: Receiving encoded integer          25
  @ DRIVER MODE:  SCF:  T  FORCE:  T  STRESS:  F  VC:  F  ENSEMBLE:  F
  @ DRIVER MODE:  SCF:  T  FORCE:  T  STRESS:  F  VC:  F  ENSEMBLE:  F

     Using Slab Decomposition

     bravais-lattice index     =            0
     lattice parameter (alat)  =       1.8897  a.u.
     unit-cell volume          =    6658.9804 (a.u.)^3
     number of atoms/cell      =           56
     number of atomic types    =            5
     number of electrons       =       403.00
     number of Kohn-Sham states=          211
     kinetic-energy cutoff     =      29.3995  Ry
     charge density cutoff     =     293.9946  Ry
     scf convergence threshold =      7.3E-08
     mixing beta               =       0.0500
     number of iterations used =            8  plain     mixing
     Exchange-correlation= BEEF-VDW
                           (   1   4  43  14   2   0   0)

     celldm(1)=   1.889726  celldm(2)=   0.000000  celldm(3)=   0.000000
     celldm(4)=   0.000000  celldm(5)=   0.000000  celldm(6)=   0.000000

     crystal axes: (cart. coord. in units of alat)
               a(1) = (   6.579727   0.000000   0.000000 )
               a(2) = (  -0.000775   5.961596   0.000000 )
               a(3) = (   0.000000   0.000000  25.155947 )

     reciprocal axes: (cart. coord. in units 2 pi/alat)
               b(1) = (  0.151982  0.000020  0.000000 )
               b(2) = (  0.000000  0.167740  0.000000 )
               b(3) = (  0.000000  0.000000  0.039752 )

     PseudoPot. # 1 for Ti read from file:
     /storage/coda1/p-amedford6/0/shared/rich_project_chbe-medford/medford-share/data/pseudos_module/espresso/nninc/pbe/van/Ti.UPF
     MD5 check sum: 8e4df49b7f0d34bbd5052bf3f5ea0213
     Pseudo is Ultrasoft, Zval = 12.0
     Generated by new atomic code, or converted to UPF format
     Using radial grid of  851 points,  6 beta functions with:
                l(1) =   0
                l(2) =   0
                l(3) =   1
                l(4) =   1
                l(5) =   2
                l(6) =   2
     Q(r) pseudized with  8 coefficients,  rinner =    1.000   1.000   1.000
                                                       1.000   1.000

     PseudoPot. # 2 for O  read from file:
     /storage/coda1/p-amedford6/0/shared/rich_project_chbe-medford/medford-share/data/pseudos_module/espresso/nninc/pbe/van/O.UPF
     MD5 check sum: 78c19812648e8988a0fe644b0f25305e
     Pseudo is Ultrasoft, Zval =  6.0
     Generated by new atomic code, or converted to UPF format
     Using radial grid of  737 points,  4 beta functions with:
                l(1) =   0
                l(2) =   0
                l(3) =   1
                l(4) =   1
     Q(r) pseudized with  8 coefficients,  rinner =    0.800   0.800   0.800

     PseudoPot. # 3 for N  read from file:
     /storage/coda1/p-amedford6/0/shared/rich_project_chbe-medford/medford-share/data/pseudos_module/espresso/nninc/pbe/van/N.UPF
     MD5 check sum: 90d10febe142ad51ac9d5be1deb811c4
     Pseudo is Ultrasoft, Zval =  5.0
     Generated by new atomic code, or converted to UPF format
     Using radial grid of  729 points,  4 beta functions with:
                l(1) =   0
                l(2) =   0
                l(3) =   1
                l(4) =   1
     Q(r) pseudized with  8 coefficients,  rinner =    0.800   0.800   0.800

     PseudoPot. # 4 for C  read from file:
     /storage/coda1/p-amedford6/0/shared/rich_project_chbe-medford/medford-share/data/pseudos_module/espresso/nninc/pbe/van/C.UPF
     MD5 check sum: 1a69bf6b8db32088f5b2163dbdb77a27
     Pseudo is Ultrasoft, Zval =  4.0
     Generated by new atomic code, or converted to UPF format
     Using radial grid of  721 points,  4 beta functions with:
                l(1) =   0
                l(2) =   0
                l(3) =   1
                l(4) =   1
     Q(r) pseudized with  8 coefficients,  rinner =    0.800   0.800   0.800

     PseudoPot. # 5 for H  read from file:
     /storage/coda1/p-amedford6/0/shared/rich_project_chbe-medford/medford-share/data/pseudos_module/espresso/nninc/pbe/van/H.UPF
     MD5 check sum: b5ee9d7bfd3a09ee7748110bda690ff7
     Pseudo is Ultrasoft, Zval =  1.0
     Generated by new atomic code, or converted to UPF format
     Using radial grid of  615 points,  1 beta functions with:
                l(1) =   0
     Q(r) pseudized with  8 coefficients,  rinner =    0.800

     atomic species   valence    mass     pseudopotential
        Ti1           12.00    47.86700     Ti( 1.00)
        O1             6.00    15.99900     O ( 1.00)
        N1             5.00    14.00700     N ( 1.00)
        C1             4.00    12.01100     C ( 1.00)
        H1             1.00     1.00800     H ( 1.00)

     No symmetry found

   Cartesian axes

     site n.     atom                  positions (alat units)
         1           Ti1 tau(   1) = (   0.0004258   2.9801865   6.0000000  )
         2           Ti1 tau(   2) = (   3.2906075   1.4906267   6.0002472  )
         3           O1  tau(   3) = (   0.0006271   0.0005054   7.9858123  )
         4           O1  tau(   4) = (   3.2906025   0.0005020   7.3038282  )
         5           O1  tau(   5) = (   4.5942328   1.4918067   9.2879030  )
         6           O1  tau(   6) = (   1.9868534   1.4903216   9.2879459  )
         7           Ti1 tau(   7) = (   3.2907910   2.8959150   9.1758416  )
         8           Ti1 tau(   8) = (   0.0015273   1.4827037   9.2680791  )
         9           O1  tau(   9) = (   3.2780774   5.9605562  11.3537357  )
        10           O1  tau(  10) = (   0.0116148   5.9584955  10.6183126  )
        11           O1  tau(  11) = (   1.2922713   1.4781662  12.6511241  )
        12           O1  tau(  12) = (   5.2965393   1.5043564  12.6031353  )
        13           Ti1 tau(  13) = (   6.5273184   3.0207086  12.5807821  )
        14           Ti1 tau(  14) = (   3.2344070   1.4559942  12.5004267  )
        15           O1  tau(  15) = (   6.4759410   0.0295824  14.6525783  )
        16           O1  tau(  16) = (   3.3604338   0.0238249  13.9383540  )
        17           O1  tau(  17) = (   4.5324113   1.5808541  16.1066768  )
        18           O1  tau(  18) = (   1.9684897   1.4712893  15.8817925  )
        19           Ti1 tau(  19) = (   3.2566353   3.0739815  15.8599551  )
        20           Ti1 tau(  20) = (   6.5466614   1.5318677  15.7800735  )
        21           O1  tau(  21) = (   3.2904802   0.0005063   4.7018136  )
        22           O1  tau(  22) = (   6.5744325   0.0155309  17.2227980  )
        23           O1  tau(  23) = (   1.3043587   1.4918075   6.0039043  )
        24           O1  tau(  24) = (   5.2767064   1.4903225   6.0039473  )
        25           Ti1 tau(  25) = (   0.0000382   5.9609847   6.0000000  )
        26           Ti1 tau(  26) = (   3.2902200   4.4714249   6.0002472  )
        27           O1  tau(  27) = (   0.0002396   2.9813036   7.9858123  )
        28           O1  tau(  28) = (   3.2902150   2.9813002   7.3038282  )
        29           O1  tau(  29) = (   4.5938453   4.4726049   9.2879030  )
        30           O1  tau(  30) = (   1.9864658   4.4711199   9.2879459  )
        31           Ti1 tau(  31) = (   3.2891106   5.8743827   9.1763621  )
        32           Ti1 tau(  32) = (   0.0006254   4.4649316   9.2693709  )
        33           O1  tau(  33) = (   3.2727763   2.9788165  11.3438337  )
        34           O1  tau(  34) = (   0.0092240   2.9805883  10.6323155  )
        35           O1  tau(  35) = (   1.2865780   4.4896361  12.6556599  )
        36           O1  tau(  36) = (   5.2967437   4.4749066  12.6066920  )
        37           Ti1 tau(  37) = (   6.5467059   0.0356701  12.5108493  )
        38           Ti1 tau(  38) = (   3.2305653   4.4019604  12.5605372  )
        39           O1  tau(  39) = (   6.5199767   2.9846217  14.6905747  )
        40           O1  tau(  40) = (   3.2851694   3.0254550  13.9321539  )
        41           O1  tau(  41) = (   4.5310495   4.4602642  16.1636806  )
        42           O1  tau(  42) = (   1.9842988   4.5744318  15.9411167  )
        43           Ti1 tau(  43) = (   3.2691225   0.1036042  15.7405456  )
        44           Ti1 tau(  44) = (   6.5697781   4.6877429  16.0360384  )
        45           O1  tau(  45) = (   3.2900926   2.9813045   4.7018136  )
        46           O1  tau(  46) = (   1.3039711   4.4726057   6.0039043  )
        47           O1  tau(  47) = (   5.2763189   4.4711207   6.0039473  )
        48           N1  tau(  48) = (   1.2792381   2.8578196  18.3696018  )
        49           N1  tau(  49) = (   0.1988888   2.9646215  17.5057353  )
        50           C1  tau(  50) = (   2.5352320   2.9081513  18.0382144  )
        51           H1  tau(  51) = (   3.1442446   2.7411670  18.9317345  )
        52           H1  tau(  52) = (   1.0014291   2.6635404  19.3302151  )
        53           H1  tau(  53) = (   5.9397212   2.8571719  18.0851170  )
        54           O1  tau(  54) = (   3.2630597   0.0341043  18.2348460  )
        55           H1  tau(  55) = (   4.0455299   5.4198958  18.2485053  )
        56           H1  tau(  56) = (   2.4923979   5.4091459  18.3156537  )

     number of k points=    10  Fermi-Dirac smearing, width (Ry)=  0.0073
                       cart. coord. in units 2pi/alat
        k(    1) = (   0.0000000   0.0000000   0.0000000), wk =   0.1250000
        k(    2) = (   0.0000000   0.0419351   0.0000000), wk =   0.2500000
        k(    3) = (   0.0000000  -0.0838702   0.0000000), wk =   0.1250000
        k(    4) = (   0.0379955   0.0000049   0.0000000), wk =   0.2500000
        k(    5) = (   0.0379955   0.0419400   0.0000000), wk =   0.2500000
        k(    6) = (   0.0379955  -0.0838652   0.0000000), wk =   0.2500000
        k(    7) = (   0.0379955  -0.0419301   0.0000000), wk =   0.2500000
        k(    8) = (  -0.0759910  -0.0000099   0.0000000), wk =   0.1250000
        k(    9) = (  -0.0759910   0.0419252   0.0000000), wk =   0.2500000
        k(   10) = (  -0.0759910  -0.0838800   0.0000000), wk =   0.1250000

     Initial potential from superposition of free atoms

     starting charge  386.99914, renormalised to  403.00000

     negative rho (up, down):  1.738E-02 0.000E+00

     %%%%%%%%%%%%%%%%%%%%%%%%%%%%%%%%%%%%%%%%%%%%%%%%%%%%%%%%%%%%%%%%%%%%%%%%
     %                                                                      %
     % You are using vdW-DF, which was implemented by the Thonhauser group. %
     % Please cite the following two papers that made this development      %
     % possible and the two reviews that describe the various versions:     %
     %                                                                      %
     %   T. Thonhauser et al., PRL 115, 136402 (2015).                      %
     %   T. Thonhauser et al., PRB 76, 125112 (2007).                       %
     %   K. Berland et al., Rep. Prog. Phys. 78, 066501 (2015).             %
     %   D.C. Langreth et al., J. Phys.: Condens. Matter 21, 084203 (2009). %
     %                                                                      %
     %                                                                      %
     % If you are calculating the stress with vdW-DF, please also cite:     %
     %                                                                      %
     %   R. Sabatini et al., J. Phys.: Condens. Matter 24, 424209 (2012).   %
     %                                                                      %
     %%%%%%%%%%%%%%%%%%%%%%%%%%%%%%%%%%%%%%%%%%%%%%%%%%%%%%%%%%%%%%%%%%%%%%%%

     Adding external electric field

     Computed dipole along edir(3) :
        Dipole              -12.3463 Ry au,        -31.3811 Debye
        Dipole field         -0.0233 Ry au,

        Potential amp.        2.1598 Ry
        Total length         46.3494 bohr

     Starting wfcs are  305 atomic wfcs
  @ DRIVER MODE: Message from server: STATUS
  @ DRIVER MODE: Message from server: POSDATA
  @ DRIVER MODE: Reading and sharing cell
  @ DRIVER MODE: Reading and sharing positions
  @ DRIVER MODE: Received positions

     Self-consistent Calculation

     iteration #  1     ecut=    29.40 Ry     beta= 0.05
     Davidson diagonalization with overlap
     c_bands:  5 eigenvalues not converged
     c_bands:  3 eigenvalues not converged
     c_bands:  3 eigenvalues not converged
     c_bands:  1 eigenvalues not converged
     c_bands:  2 eigenvalues not converged
     c_bands:  2 eigenvalues not converged
     c_bands:  5 eigenvalues not converged
     c_bands:  2 eigenvalues not converged
     c_bands:  4 eigenvalues not converged
     ethr =  1.00E-05,  avg # of iterations = 29.3

[...]

     total energy              =   -2358.73786399 Ry
     estimated scf accuracy    <    6971.28085554 Ry

     iteration #  2     ecut=    29.40 Ry     beta= 0.05
     Davidson diagonalization with overlap
     ethr =  1.00E-02,  avg # of iterations = 27.2

[...]

     iteration # 63     ecut=    29.40 Ry     beta= 0.05
     Davidson diagonalization with overlap
     c_bands:  1 eigenvalues not converged
     c_bands:  1 eigenvalues not converged
     ethr =  2.36E-11,  avg # of iterations = 16.3

[...]

     total energy              =   -2973.93991292 Ry
     estimated scf accuracy    <       0.00000012 Ry

     iteration # 64     ecut=    29.40 Ry     beta= 0.05
     Davidson diagonalization with overlap
     ethr =  2.36E-11,  avg # of iterations =  6.8

     negative rho (up, down):  1.725E-02 0.000E+00

     Adding external electric field

     Computed dipole along edir(3) :
        Dipole                1.3978 Ry au,          3.5530 Debye
        Dipole field          0.0026 Ry au,

        Potential amp.       -0.2445 Ry
        Total length         46.3494 bohr

     End of self-consistent calculation

          k = 0.0000 0.0000 0.0000 ( 18029 PWs)   bands (ev):

   -55.3196 -55.2855 -55.2105 -55.1861 -55.1676 -55.1562 -55.1405 -55.1189
   -55.1066 -55.1038 -55.0979 -55.0633 -54.9944 -54.8369 -54.3005 -54.2664
   -31.8038 -31.7315 -31.6569 -31.6505 -31.6403 -31.6116 -31.5875 -31.5648
   -31.5201 -31.5040 -31.4720 -31.4643 -31.4558 -31.4411 -31.4256 -31.4217
   -31.3986 -31.3805 -31.3769 -31.3653 -31.3352 -31.3332 -31.3293 -31.3262
   -31.3233 -31.3196 -31.3156 -31.2974 -31.2895 -31.2794 -31.2724 -31.2719
   -31.2617 -31.2602 -31.2523 -31.2483 -31.2428 -31.2163 -31.2104 -31.0936
   -31.0776 -31.0523 -30.7074 -30.6192 -30.5968 -30.5243 -30.4378 -30.3266
   -18.8786 -18.7107 -15.9783 -15.7945 -15.6134 -15.4742 -15.3926 -15.1609
   -15.1030 -15.0641 -14.9830 -14.9595 -14.8591 -14.8407 -14.8393 -14.8208
   -14.8180 -14.7627 -14.7483 -14.7431 -14.6949 -14.6879 -14.6627 -14.6470
   -14.5943 -14.5159 -14.5070 -14.4606 -14.4155 -14.3690 -14.0256 -13.3987
   -12.8010 -12.6845  -8.8109  -7.2738  -6.6146  -4.3204  -3.8138  -3.3597
    -3.2831  -3.2496  -3.2245  -3.0889  -2.9718  -2.8719  -2.7499  -2.6716
    -2.5854  -2.4807  -2.4241  -2.3788  -2.3180  -2.2580  -2.2319  -2.1467
    -2.1265  -2.1067  -2.0852  -2.0583  -2.0289  -1.9919  -1.8701  -1.8599
    -1.7764  -1.7204  -1.6807  -1.6636  -1.6376  -1.6336  -1.5982  -1.5812
    -1.5724  -1.5610  -1.5590  -1.5231  -1.3859  -1.3609  -1.3328  -1.3108
    -1.1638  -1.0263  -0.9374  -0.9350  -0.8254  -0.7605  -0.7575  -0.7190
    -0.7034  -0.6021  -0.5158  -0.4792  -0.4547  -0.3749  -0.3167  -0.2629
    -0.2114  -0.1752  -0.1093  -0.0854  -0.0687  -0.0517   0.0172   0.0801
     0.1408   0.2262   0.2693   0.2941   0.3850   0.3991   0.4223   0.4864
     0.5195   0.5638   0.5992   0.6285   0.6522   0.6822   0.7074   0.7507
     0.7891   0.9143   0.9325   0.9613   0.9830   1.1565   1.2058   1.3119
     1.3396   1.4472   1.4859   1.6625   1.7237   1.8030   1.9155   2.2939
     2.3397   3.7894   3.9008   3.9349   3.9598   3.9990   4.0503   4.2571
     4.3296   4.3711   4.4281

[...]

          k = 0.0380-0.0419 0.0000 ( 17876 PWs)   bands (ev):

[...]

          k =-0.0760-0.0000 0.0000 ( 17886 PWs)   bands (ev):

[...]

          k =-0.0760-0.0839 0.0000 ( 17948 PWs)   bands (ev):

   -55.3028 -55.3022 -55.2011 -55.1828 -55.1762 -55.1447 -55.1307 -55.1236
   -55.1229 -55.1074 -55.0846 -55.0767 -54.9927 -54.8386 -54.2834 -54.2834
   -31.6193 -31.6189 -31.5973 -31.5968 -31.5657 -31.5337 -31.5026 -31.4901
   -31.4833 -31.4680 -31.4492 -31.4437 -31.4399 -31.4307 -31.4258 -31.4255
   -31.4222 -31.4219 -31.4169 -31.4012 -31.3906 -31.3763 -31.3653 -31.3631
   -31.3583 -31.3538 -31.3448 -31.3321 -31.3260 -31.3246 -31.3095 -31.3002
   -31.2969 -31.2963 -31.2945 -31.2918 -31.2604 -31.2362 -31.2211 -31.1493
   -31.0958 -31.0806 -30.6095 -30.6095 -30.5202 -30.5201 -30.4812 -30.4811
   -18.8643 -18.7208 -15.3564 -15.3204 -15.2824 -15.2551 -15.2396 -15.1182
   -15.1043 -15.0692 -15.0271 -15.0142 -14.9841 -14.9552 -14.9067 -14.8981
   -14.8636 -14.8440 -14.8052 -14.7785 -14.7591 -14.7548 -14.7380 -14.7164
   -14.6728 -14.6510 -14.6386 -14.6343 -14.5825 -14.4893 -14.2113 -13.4208
   -12.7863 -12.7863  -8.8075  -7.1989  -6.6157  -4.5264  -3.6054  -2.8631
    -2.6597  -2.6312  -2.5784  -2.4885  -2.4412  -2.3196  -2.3131  -2.2902
    -2.2450  -2.2319  -2.1914  -2.1512  -2.1451  -2.1171  -2.1049  -2.0601
    -2.0489  -2.0462  -2.0318  -1.9974  -1.9921  -1.9716  -1.9473  -1.9443
    -1.9337  -1.9179  -1.8838  -1.8765  -1.8489  -1.8306  -1.6808  -1.6059
    -1.5639  -1.4860  -1.4628  -1.4460  -1.4272  -1.3923  -1.3721  -1.3470
    -1.3178  -1.1729  -1.0306  -0.9969  -0.9719  -0.8734  -0.8585  -0.8390
    -0.7923  -0.7503  -0.7163  -0.6569  -0.6466  -0.6030  -0.5821  -0.4607
    -0.4232  -0.3237  -0.2881  -0.2867  -0.2687  -0.2542  -0.2368  -0.2110
    -0.1627  -0.0904  -0.0749  -0.0262  -0.0024   0.0001   0.0135   0.1597
     0.2300   0.2511   0.3528   0.3824   0.5570   0.7216   0.7334   0.8012
     0.8641   0.9195   0.9532   0.9932   1.0036   1.0690   1.0943   1.1999
     1.2089   1.2583   1.2653   1.3477   1.3544   2.0874   2.0891   2.1596
     2.1598   4.1530   4.1703   4.1971   4.2602   4.3038   4.3154   4.3528
     4.3565   4.4596   4.4750

     the Fermi energy is     3.8076 ev

!    total energy              =   -2973.93995362 Ry
     estimated scf accuracy    <       0.00000007 Ry
     smearing contrib. (-TS)   =      -0.02072212 Ry
     internal energy E=F+TS    =   -2973.91923151 Ry

     The total energy is F=E-TS. E is the sum of the following terms:
     one-electron contribution =  -24339.13714772 Ry
     hartree contribution      =   12267.27135243 Ry
     xc contribution           =    -494.11885971 Ry
     ewald contribution        =    9592.06173613 Ry
     electric field correction =       0.00368737 Ry

     convergence has been achieved in  64 iterations

     Forces acting on atoms (cartesian axes, Ry/au):

     atom    1 type  1   force =     0.00002737   -0.00009626    0.09507108
     atom    2 type  1   force =     0.00017632   -0.00069372   -0.17565588
     atom    3 type  2   force =     0.00008836   -0.00004571   -0.02295024
     atom    4 type  2   force =     0.00002052   -0.00143149    0.05290780
     atom    5 type  2   force =    -0.01001119   -0.00031414    0.00381664
     atom    6 type  2   force =     0.01113191    0.00020359    0.00207167
     atom    7 type  1   force =    -0.00021052    0.00178870   -0.00588688
     atom    8 type  1   force =     0.00080981    0.01008398    0.01604274
     atom    9 type  2   force =    -0.00015712    0.00087013    0.00033834
     atom   10 type  2   force =    -0.00227236    0.00217977   -0.01798448
     atom   11 type  2   force =     0.00021986   -0.00002980    0.00008979
     atom   12 type  2   force =    -0.00033214   -0.00019252    0.00057737
     atom   13 type  1   force =    -0.00002244    0.00125198    0.00010141
     atom   14 type  1   force =    -0.00012168    0.00008768   -0.00000896
     atom   15 type  2   force =     0.00026230    0.00026427    0.00017599
     atom   16 type  2   force =    -0.00035970    0.00044232   -0.00025122
     atom   17 type  2   force =     0.00012335   -0.00014247    0.00007542
     atom   18 type  2   force =     0.00008471   -0.00020132    0.00023525
     atom   19 type  1   force =    -0.00074978    0.00032221    0.00011732
     atom   20 type  1   force =    -0.00000738   -0.00027710   -0.00000205
     atom   21 type  2   force =     0.00009300   -0.00008494    0.10319027
     atom   22 type  2   force =     0.00032313    0.00003274    0.00062879
     atom   23 type  2   force =    -0.07160825   -0.00016834   -0.02759097
     atom   24 type  2   force =     0.07156634    0.00024717   -0.02763718
     atom   25 type  1   force =     0.00023714   -0.00039353    0.09518606
     atom   26 type  1   force =    -0.00003974   -0.00020138   -0.17580666
     atom   27 type  2   force =     0.00012010   -0.00012288   -0.02197767
     atom   28 type  2   force =     0.00001262   -0.00139696    0.05323602
     atom   29 type  2   force =    -0.01035667   -0.00022700    0.00365676
     atom   30 type  2   force =     0.01139152    0.00042400    0.00192397
     atom   31 type  1   force =    -0.00030568    0.00266761   -0.00009192
     atom   32 type  1   force =     0.00067134   -0.01114443    0.01691830
     atom   33 type  2   force =     0.00037058   -0.00027236    0.00001776
     atom   34 type  2   force =    -0.00034539    0.00144355   -0.01891008
     atom   35 type  2   force =    -0.00002412   -0.00035501   -0.00015378
     atom   36 type  2   force =     0.00001571   -0.00024006    0.00045393
     atom   37 type  1   force =    -0.00004724   -0.00123433    0.00024595
     atom   38 type  1   force =    -0.00039697    0.00088645    0.00004729
     atom   39 type  2   force =    -0.00000679    0.00007638    0.00029343
     atom   40 type  2   force =    -0.00050120   -0.00060129   -0.00008311
     atom   41 type  2   force =     0.00051427   -0.00022566    0.00039078
     atom   42 type  2   force =    -0.00005234   -0.00010639   -0.00039781
     atom   43 type  1   force =    -0.00041810   -0.00019839    0.00053138
     atom   44 type  1   force =     0.00033088   -0.00024172   -0.00008095
     atom   45 type  2   force =     0.00009644   -0.00010164    0.10320638
     atom   46 type  2   force =    -0.07159280   -0.00016648   -0.02758326
     atom   47 type  2   force =     0.07159179    0.00024678   -0.02759495
     atom   48 type  3   force =     0.00642302   -0.00092594    0.00328981
     atom   49 type  3   force =    -0.01937180   -0.00081149    0.00316484
     atom   50 type  4   force =     0.00239160   -0.00022487    0.00134731
     atom   51 type  5   force =    -0.00007129   -0.00050432   -0.00032649
     atom   52 type  5   force =     0.00003061   -0.00105065   -0.00066065
     atom   53 type  5   force =     0.01017330    0.00098031   -0.00797715
     atom   54 type  2   force =    -0.00002497    0.00109141   -0.00014518
     atom   55 type  5   force =     0.00008105   -0.00027286    0.00000665
     atom   56 type  5   force =     0.00002870   -0.00089358    0.00040102

     Total force =     0.366050     Total SCF correction =     0.000890
  @ DRIVER MODE: Message from server: STATUS
  @ DRIVER MODE: Message from server: GETFORCE
  @ DRIVER MODE: Returning v,forces,stress,ensemble

     Writing output data file ./calc.save/
  @ DRIVER MODE: Message from server: EXIT
  @ DRIVE MODE: Exiting

     General routines

     Parallel routines

   This run was terminated on:  18:47: 1  22Sep2021

   JOB DONE.