     Program PWSCF v.6.7GPU starts on  9Sep2021 at 11: 4:54

     R & G space division:  proc/nbgrp/npool/nimage =      10
     Reading input from /storage/home/hcoda1/3/ntian30/research/carbon/CxH_vib/CH3_calc/ads_slab/CH3NHNH_a/out_0042/pw.inp
Warning: card &CELL ignored
Warning: card   CELL_DYNAMICS='IPI', ignored
Warning: card / ignored

     Current dimensions of program PWSCF are:
     Max number of different atomic species (ntypx) = 10
     Max number of k-points (npk) =  40000
     Max angular momentum in pseudopotentials (lmaxx) =  3
     Presently no symmetry can be used with electric field

     Message from routine cell_base_init:
     DEPRECATED: use true lattice parameter, not A to a.u. conversion factor

     IMPORTANT: XC functional enforced from input :
     Exchange-correlation= BEEF-VDW
                           (   1   4  43  14   2   0   0)
     Any further DFT definition will be discarded
     Please, verify this is what you really want

  @ DRIVER MODE: Connecting to
 qe_1139763_2767401.sched-torque.pace.gatech.eduf85vrgha_scratch
  using UNIX socket
  @ DRIVER MODE: Message from server: STATUS
  @ DRIVER MODE: Message from server: INIT
  @ DRIVER MODE: Receiving replica           0          -1
  @ DRIVER MODE: Receiving encoded integer          25
  @ DRIVER MODE:  SCF:  T  FORCE:  T  STRESS:  F  VC:  F  ENSEMBLE:  F
  @ DRIVER MODE:  SCF:  T  FORCE:  T  STRESS:  F  VC:  F  ENSEMBLE:  F

     Using Slab Decomposition

     bravais-lattice index     =            0
     lattice parameter (alat)  =       1.8897  a.u.
     unit-cell volume          =    6658.9804 (a.u.)^3
     number of atoms/cell      =           55
     number of atomic types    =            5
     number of electrons       =       397.00
     number of Kohn-Sham states=          208
     kinetic-energy cutoff     =      29.3995  Ry
     charge density cutoff     =     293.9946  Ry
     scf convergence threshold =      7.3E-08
     mixing beta               =       0.0500
     number of iterations used =            8  plain     mixing
     Exchange-correlation= BEEF-VDW
                           (   1   4  43  14   2   0   0)

     celldm(1)=   1.889726  celldm(2)=   0.000000  celldm(3)=   0.000000
     celldm(4)=   0.000000  celldm(5)=   0.000000  celldm(6)=   0.000000

     crystal axes: (cart. coord. in units of alat)
               a(1) = (   6.579727   0.000000   0.000000 )
               a(2) = (  -0.000775   5.961596   0.000000 )
               a(3) = (   0.000000   0.000000  25.155947 )

     reciprocal axes: (cart. coord. in units 2 pi/alat)
               b(1) = (  0.151982  0.000020  0.000000 )
               b(2) = (  0.000000  0.167740  0.000000 )
               b(3) = (  0.000000  0.000000  0.039752 )

     PseudoPot. # 1 for Ti read from file:
     /storage/coda1/p-amedford6/0/shared/rich_project_chbe-medford/medford-share/data/pseudos_module/espresso/nninc/pbe/van/Ti.UPF
     MD5 check sum: 8e4df49b7f0d34bbd5052bf3f5ea0213
     Pseudo is Ultrasoft, Zval = 12.0
     Generated by new atomic code, or converted to UPF format
     Using radial grid of  851 points,  6 beta functions with:
                l(1) =   0
                l(2) =   0
                l(3) =   1
                l(4) =   1
                l(5) =   2
                l(6) =   2
     Q(r) pseudized with  8 coefficients,  rinner =    1.000   1.000   1.000
                                                       1.000   1.000

     PseudoPot. # 2 for O  read from file:
     /storage/coda1/p-amedford6/0/shared/rich_project_chbe-medford/medford-share/data/pseudos_module/espresso/nninc/pbe/van/O.UPF
     MD5 check sum: 78c19812648e8988a0fe644b0f25305e
     Pseudo is Ultrasoft, Zval =  6.0
     Generated by new atomic code, or converted to UPF format
     Using radial grid of  737 points,  4 beta functions with:
                l(1) =   0
                l(2) =   0
                l(3) =   1
                l(4) =   1
     Q(r) pseudized with  8 coefficients,  rinner =    0.800   0.800   0.800

     PseudoPot. # 3 for N  read from file:
     /storage/coda1/p-amedford6/0/shared/rich_project_chbe-medford/medford-share/data/pseudos_module/espresso/nninc/pbe/van/N.UPF
     MD5 check sum: 90d10febe142ad51ac9d5be1deb811c4
     Pseudo is Ultrasoft, Zval =  5.0
     Generated by new atomic code, or converted to UPF format
     Using radial grid of  729 points,  4 beta functions with:
                l(1) =   0
                l(2) =   0
                l(3) =   1
                l(4) =   1
     Q(r) pseudized with  8 coefficients,  rinner =    0.800   0.800   0.800

     PseudoPot. # 4 for C  read from file:
     /storage/coda1/p-amedford6/0/shared/rich_project_chbe-medford/medford-share/data/pseudos_module/espresso/nninc/pbe/van/C.UPF
     MD5 check sum: 1a69bf6b8db32088f5b2163dbdb77a27
     Pseudo is Ultrasoft, Zval =  4.0
     Generated by new atomic code, or converted to UPF format
     Using radial grid of  721 points,  4 beta functions with:
                l(1) =   0
                l(2) =   0
                l(3) =   1
                l(4) =   1
     Q(r) pseudized with  8 coefficients,  rinner =    0.800   0.800   0.800

     PseudoPot. # 5 for H  read from file:
     /storage/coda1/p-amedford6/0/shared/rich_project_chbe-medford/medford-share/data/pseudos_module/espresso/nninc/pbe/van/H.UPF
     MD5 check sum: b5ee9d7bfd3a09ee7748110bda690ff7
     Pseudo is Ultrasoft, Zval =  1.0
     Generated by new atomic code, or converted to UPF format
     Using radial grid of  615 points,  1 beta functions with:
                l(1) =   0
     Q(r) pseudized with  8 coefficients,  rinner =    0.800

     atomic species   valence    mass     pseudopotential
        Ti1           12.00    47.86700     Ti( 1.00)
        O1             6.00    15.99900     O ( 1.00)
        N1             5.00    14.00700     N ( 1.00)
        C1             4.00    12.01100     C ( 1.00)
        H1             1.00     1.00800     H ( 1.00)

     No symmetry found

   Cartesian axes

     site n.     atom                  positions (alat units)
         1           Ti1 tau(   1) = (   0.0004258   2.9801865   6.0000000  )
         2           Ti1 tau(   2) = (   3.2906075   1.4906267   6.0002472  )
         3           O1  tau(   3) = (   0.0006271   0.0005054   7.9858123  )
         4           O1  tau(   4) = (   3.2906025   0.0005020   7.3038282  )
         5           O1  tau(   5) = (   4.5942328   1.4918067   9.2879030  )
         6           O1  tau(   6) = (   1.9868534   1.4903216   9.2879459  )
         7           Ti1 tau(   7) = (   3.2907910   2.8959150   9.1758416  )
         8           Ti1 tau(   8) = (   0.0015273   1.4827037   9.2680791  )
         9           O1  tau(   9) = (   3.2830128   5.9597860  11.3344455  )
        10           O1  tau(  10) = (   0.0116148   5.9584955  10.6183126  )
        11           O1  tau(  11) = (   1.2885291   1.4855062  12.6376555  )
        12           O1  tau(  12) = (   5.2724004   1.4911608  12.5936499  )
        13           Ti1 tau(  13) = (   0.0410009   3.0319447  12.6084003  )
        14           Ti1 tau(  14) = (   3.3739341   1.4916561  12.4823474  )
        15           O1  tau(  15) = (   6.4862162   0.0153916  14.6455093  )
        16           O1  tau(  16) = (   3.3439542   5.9611638  13.9051029  )
        17           O1  tau(  17) = (   4.4933269   1.5483200  16.1231154  )
        18           O1  tau(  18) = (   1.9964937   1.4536654  15.9127221  )
        19           Ti1 tau(  19) = (   3.1412959   3.0017366  15.7441667  )
        20           Ti1 tau(  20) = (   6.4823597   1.5369342  15.8006069  )
        21           O1  tau(  21) = (   3.2904802   0.0005063   4.7018136  )
        22           O1  tau(  22) = (   6.5709111   0.0522475  17.2082838  )
        23           O1  tau(  23) = (   1.3043587   1.4918075   6.0039043  )
        24           O1  tau(  24) = (   5.2767064   1.4903225   6.0039473  )
        25           Ti1 tau(  25) = (   0.0000382   5.9609847   6.0000000  )
        26           Ti1 tau(  26) = (   3.2902200   4.4714249   6.0002472  )
        27           O1  tau(  27) = (   0.0002396   2.9813036   7.9858123  )
        28           O1  tau(  28) = (   3.2902150   2.9813002   7.3038282  )
        29           O1  tau(  29) = (   4.5938453   4.4726049   9.2879030  )
        30           O1  tau(  30) = (   1.9864658   4.4711199   9.2879459  )
        31           Ti1 tau(  31) = (   3.2891106   5.8743827   9.1763621  )
        32           Ti1 tau(  32) = (   0.0006254   4.4649316   9.2693709  )
        33           O1  tau(  33) = (   3.2833609   2.9822938  11.3349093  )
        34           O1  tau(  34) = (   0.0092240   2.9805883  10.6323155  )
        35           O1  tau(  35) = (   1.2838611   4.4860338  12.6468719  )
        36           O1  tau(  36) = (   5.2760156   4.4607002  12.6015494  )
        37           Ti1 tau(  37) = (   0.0673138   0.0440259  12.5461749  )
        38           Ti1 tau(  38) = (   3.3712377   4.4654930  12.4933830  )
        39           O1  tau(  39) = (   6.5217465   2.9589972  14.6412948  )
        40           O1  tau(  40) = (   3.2809526   2.9956502  13.9333893  )
        41           O1  tau(  41) = (   4.4911989   4.4583117  16.1637052  )
        42           O1  tau(  42) = (   1.9937212   4.5427850  15.9740970  )
        43           Ti1 tau(  43) = (   3.2955853   0.0167752  15.6963065  )
        44           Ti1 tau(  44) = (   6.5082246   4.6715011  16.1069148  )
        45           O1  tau(  45) = (   3.2900926   2.9813045   4.7018136  )
        46           O1  tau(  46) = (   1.3039711   4.4726057   6.0039043  )
        47           O1  tau(  47) = (   5.2763189   4.4711207   6.0039473  )
        48           N1  tau(  48) = (   1.3945086   2.8365607  18.1849301  )
        49           N1  tau(  49) = (   0.1777896   2.9650562  17.4211889  )
        50           C1  tau(  50) = (   1.4118813   3.7128676  19.3556819  )
        51           H1  tau(  51) = (   0.5171711   3.5996102  19.9880000  )
        52           H1  tau(  52) = (   2.2935099   3.4681107  19.9517681  )
        53           H1  tau(  53) = (   1.4703795   4.7520035  19.0319817  )
        54           H1  tau(  54) = (   1.4579882   1.8621926  18.4923179  )
        55           H1  tau(  55) = (   5.9558665   2.8747675  18.0551794  )

     number of k points=    10  Fermi-Dirac smearing, width (Ry)=  0.0073
                       cart. coord. in units 2pi/alat
        k(    1) = (   0.0000000   0.0000000   0.0000000), wk =   0.1250000
        k(    2) = (   0.0000000   0.0419351   0.0000000), wk =   0.2500000
        k(    3) = (   0.0000000  -0.0838702   0.0000000), wk =   0.1250000
        k(    4) = (   0.0379955   0.0000049   0.0000000), wk =   0.2500000
        k(    5) = (   0.0379955   0.0419400   0.0000000), wk =   0.2500000
        k(    6) = (   0.0379955  -0.0838652   0.0000000), wk =   0.2500000
        k(    7) = (   0.0379955  -0.0419301   0.0000000), wk =   0.2500000
        k(    8) = (  -0.0759910  -0.0000099   0.0000000), wk =   0.1250000
        k(    9) = (  -0.0759910   0.0419252   0.0000000), wk =   0.2500000
        k(   10) = (  -0.0759910  -0.0838800   0.0000000), wk =   0.1250000

     Initial potential from superposition of free atoms

     starting charge  380.99914, renormalised to  397.00000

     negative rho (up, down):  1.540E-02 0.000E+00

     %%%%%%%%%%%%%%%%%%%%%%%%%%%%%%%%%%%%%%%%%%%%%%%%%%%%%%%%%%%%%%%%%%%%%%%%
     %                                                                      %
     % You are using vdW-DF, which was implemented by the Thonhauser group. %
     % Please cite the following two papers that made this development      %
     % possible and the two reviews that describe the various versions:     %
     %                                                                      %
     %   T. Thonhauser et al., PRL 115, 136402 (2015).                      %
     %   T. Thonhauser et al., PRB 76, 125112 (2007).                       %
     %   K. Berland et al., Rep. Prog. Phys. 78, 066501 (2015).             %
     %   D.C. Langreth et al., J. Phys.: Condens. Matter 21, 084203 (2009). %
     %                                                                      %
     %                                                                      %
     % If you are calculating the stress with vdW-DF, please also cite:     %
     %                                                                      %
     %   R. Sabatini et al., J. Phys.: Condens. Matter 24, 424209 (2012).   %
     %                                                                      %
     %%%%%%%%%%%%%%%%%%%%%%%%%%%%%%%%%%%%%%%%%%%%%%%%%%%%%%%%%%%%%%%%%%%%%%%%

     Adding external electric field

     Computed dipole along edir(3) :
        Dipole               -9.6188 Ry au,        -24.4486 Debye
        Dipole field         -0.0182 Ry au,

        Potential amp.        1.6827 Ry
        Total length         46.3494 bohr

     Starting wfcs are  301 atomic wfcs
  @ DRIVER MODE: Message from server: STATUS
  @ DRIVER MODE: Message from server: POSDATA
  @ DRIVER MODE: Reading and sharing cell
  @ DRIVER MODE: Reading and sharing positions
  @ DRIVER MODE: Received positions

     Self-consistent Calculation

     iteration #  1     ecut=    29.40 Ry     beta= 0.05
     Davidson diagonalization with overlap
     c_bands:  1 eigenvalues not converged
     c_bands:  1 eigenvalues not converged
     c_bands:  1 eigenvalues not converged
     c_bands:  1 eigenvalues not converged
     c_bands:  1 eigenvalues not converged
     c_bands:  1 eigenvalues not converged
     c_bands:  2 eigenvalues not converged
     ethr =  1.00E-05,  avg # of iterations = 18.8

[...]

     total energy              =   -2533.41137407 Ry
     estimated scf accuracy    <    4541.17622684 Ry

     iteration #  2     ecut=    29.40 Ry     beta= 0.05
     Davidson diagonalization with overlap
     ethr =  1.00E-02,  avg # of iterations = 24.7

[...]

     iteration # 95     ecut=    29.40 Ry     beta= 0.05
     Davidson diagonalization with overlap
     c_bands:  1 eigenvalues not converged
     ethr =  1.71E-08,  avg # of iterations = 15.3

[...]

     total energy              =   -2941.66156380 Ry
     estimated scf accuracy    <       0.00000015 Ry

     iteration #107     ecut=    29.40 Ry     beta= 0.05
     Davidson diagonalization with overlap
     ethr =  3.01E-11,  avg # of iterations =  9.6

     negative rho (up, down):  1.607E-02 0.000E+00

     Adding external electric field

     Computed dipole along edir(3) :
        Dipole                0.9419 Ry au,          2.3941 Debye
        Dipole field          0.0018 Ry au,

        Potential amp.       -0.1648 Ry
        Total length         46.3494 bohr

     End of self-consistent calculation

          k = 0.0000 0.0000 0.0000 ( 18029 PWs)   bands (ev):

   -55.6868 -55.6698 -55.6528 -55.6332 -55.5927 -55.5383 -55.5314 -55.5012
   -55.4954 -55.4673 -55.4653 -55.4311 -55.2590 -55.0353 -54.6671 -54.6331
   -32.2209 -32.1700 -32.0429 -32.0330 -31.9996 -31.9849 -31.9796 -31.9556
   -31.9308 -31.8990 -31.8967 -31.8904 -31.8474 -31.8390 -31.8253 -31.8235
   -31.8070 -31.7918 -31.7830 -31.7478 -31.7439 -31.7371 -31.7215 -31.7182
   -31.6951 -31.6905 -31.6879 -31.6801 -31.6660 -31.6639 -31.6561 -31.6470
   -31.6413 -31.6317 -31.6182 -31.6088 -31.5774 -31.5091 -31.4655 -31.3014
   -31.2921 -31.2381 -31.0745 -30.9858 -30.9634 -30.8911 -30.8046 -30.6936
   -16.7691 -16.4174 -16.1626 -15.9330 -15.8421 -15.8119 -15.6595 -15.5277
   -15.4183 -15.3367 -15.2517 -15.2328 -15.2253 -15.2144 -15.1886 -15.1829
   -15.1356 -15.1311 -15.1116 -15.0987 -15.0485 -15.0321 -15.0285 -14.9339
   -14.8699 -14.8345 -14.8198 -14.7852 -14.7478 -14.3336 -13.1696 -13.0531
   -11.8114  -8.9663  -5.4341  -4.3559  -3.8417  -3.7889  -3.6449  -3.5943
    -3.5341  -3.4954  -3.3175  -3.2151  -2.9424  -2.8852  -2.8557  -2.8467
    -2.7891  -2.7574  -2.6014  -2.5755  -2.5042  -2.4948  -2.4804  -2.4514
    -2.4426  -2.4360  -2.3949  -2.3757  -2.3476  -2.2432  -2.1035  -2.0942
    -2.0717  -2.0384  -2.0007  -1.9520  -1.9357  -1.9154  -1.8971  -1.8843
    -1.8719  -1.7370  -1.7020  -1.5856  -1.4962  -1.4492  -1.3693  -1.2989
    -1.2689  -1.1582  -1.1184  -1.1059  -1.0916  -1.0809  -0.9814  -0.8757
    -0.8585  -0.8207  -0.7653  -0.7096  -0.6390  -0.5941  -0.5430  -0.4909
    -0.4666  -0.4513  -0.4485  -0.4133  -0.3211  -0.1806  -0.1287  -0.0943
    -0.0720   0.0046   0.0397   0.0958   0.1206   0.1438   0.1795   0.2326
     0.2761   0.2826   0.2960   0.3105   0.3152   0.4896   0.5392   0.5809
     0.6142   0.6602   0.8214   0.8437   0.9652   1.0396   1.2035   1.2804
     1.3549   1.4329   1.5468   1.6134   1.9264   1.9721   3.4440   3.5316
     3.5762   3.5899   3.6853   3.7271   3.8967   3.9272   3.9417   4.0017

[...]

          k = 0.0380-0.0419 0.0000 ( 17876 PWs)   bands (ev):

[...]

          k =-0.0760-0.0000 0.0000 ( 17886 PWs)   bands (ev):

[...]

          k =-0.0760-0.0839 0.0000 ( 17948 PWs)   bands (ev):

   -55.6701 -55.6693 -55.6551 -55.6477 -55.5867 -55.5442 -55.5188 -55.5080
   -55.4847 -55.4833 -55.4512 -55.4454 -55.2578 -55.0364 -54.6501 -54.6500
   -32.0300 -32.0203 -31.9855 -31.9849 -31.9654 -31.9646 -31.9445 -31.9382
   -31.8852 -31.8846 -31.8744 -31.8692 -31.8522 -31.8342 -31.8096 -31.8049
   -31.8005 -31.7969 -31.7903 -31.7902 -31.7889 -31.7886 -31.7848 -31.7451
   -31.7368 -31.7254 -31.7171 -31.7059 -31.6853 -31.6843 -31.6823 -31.6756
   -31.6654 -31.6614 -31.6582 -31.6557 -31.6151 -31.5116 -31.4622 -31.3636
   -31.2942 -31.2641 -30.9762 -30.9760 -30.8873 -30.8871 -30.8479 -30.8478
   -16.7428 -15.8647 -15.8036 -15.6456 -15.6103 -15.5909 -15.5559 -15.4952
   -15.4121 -15.3847 -15.3802 -15.3329 -15.3074 -15.2745 -15.2364 -15.2222
   -15.2148 -15.1962 -15.1839 -15.1499 -15.1405 -15.1287 -15.1215 -15.0462
   -15.0084 -15.0041 -14.9987 -14.8951 -14.7686 -14.5013 -13.1550 -13.1548
   -11.8177  -8.9807  -5.4486  -4.3430  -3.7661  -3.1575  -3.0705  -2.8957
    -2.8402  -2.8114  -2.7954  -2.6290  -2.6177  -2.6036  -2.5547  -2.5362
    -2.5238  -2.5171  -2.5087  -2.4877  -2.4747  -2.4400  -2.4302  -2.3945
    -2.3803  -2.3630  -2.3461  -2.3291  -2.3093  -2.2949  -2.2783  -2.2377
    -2.2180  -2.2071  -2.1862  -2.1431  -1.9326  -1.8825  -1.8367  -1.8328
    -1.8221  -1.8025  -1.7476  -1.7427  -1.7087  -1.6577  -1.5789  -1.4341
    -1.3887  -1.3723  -1.2792  -1.2576  -1.2048  -1.1328  -1.0870  -1.0701
    -1.0351  -0.9711  -0.9342  -0.8976  -0.8311  -0.8064  -0.8003  -0.7069
    -0.6859  -0.6498  -0.6431  -0.5646  -0.5138  -0.4510  -0.4356  -0.4192
    -0.3876  -0.3542  -0.3361  -0.2683  -0.1762  -0.1751  -0.1518  -0.0429
     0.0476   0.2760   0.3387   0.3758   0.4207   0.5144   0.5828   0.6074
     0.6233   0.6448   0.6643   0.7127   0.8395   0.8496   0.8837   0.9966
     1.1026   1.6295   1.7185   1.7193   1.7919   1.7920   3.7455   3.7638
     3.7844   3.8308   3.9500   3.9571   3.9792   3.9814   4.1041   4.1166

     the Fermi energy is     3.4456 ev

!    total energy              =   -2941.66156561 Ry
     estimated scf accuracy    <       0.00000007 Ry
     smearing contrib. (-TS)   =      -0.02152122 Ry
     internal energy E=F+TS    =   -2941.64004438 Ry

     The total energy is F=E-TS. E is the sum of the following terms:
     one-electron contribution =  -24275.53499312 Ry
     hartree contribution      =   12228.23011893 Ry
     xc contribution           =    -486.87055849 Ry
     ewald contribution        =    9592.53371406 Ry
     electric field correction =       0.00167424 Ry

     convergence has been achieved in 107 iterations

     Forces acting on atoms (cartesian axes, Ry/au):

     atom    1 type  1   force =     0.00017815   -0.00011659    0.09633661
     atom    2 type  1   force =    -0.00021986   -0.00063003   -0.17551291
     atom    3 type  2   force =    -0.00004125   -0.00003187   -0.02421478
     atom    4 type  2   force =     0.00004777   -0.00143859    0.05291287
     atom    5 type  2   force =    -0.01180509   -0.00049240    0.00395286
     atom    6 type  2   force =     0.01311953    0.00023351    0.00228731
     atom    7 type  1   force =    -0.00139765    0.00079795   -0.01150068
     atom    8 type  1   force =     0.00053166    0.00921703    0.02521408
     atom    9 type  2   force =    -0.00011344    0.00017691    0.00037569
     atom   10 type  2   force =    -0.00086299    0.00148613   -0.01577944
     atom   11 type  2   force =    -0.00017705   -0.00049511    0.00040261
     atom   12 type  2   force =    -0.00013357   -0.00025931    0.00003437
     atom   13 type  1   force =     0.00053955   -0.00091709    0.00006332
     atom   14 type  1   force =    -0.00008796   -0.00040746    0.00025987
     atom   15 type  2   force =     0.00016729    0.00000359   -0.00027062
     atom   16 type  2   force =     0.00007343    0.00024061    0.00002905
     atom   17 type  2   force =    -0.00048910    0.00035379    0.00048642
     atom   18 type  2   force =     0.00013836    0.00011799    0.00019898
     atom   19 type  1   force =     0.00004224   -0.00066722    0.00027320
     atom   20 type  1   force =     0.00024944    0.00028637    0.00062576
     atom   21 type  2   force =     0.00007485   -0.00008093    0.10324488
     atom   22 type  2   force =    -0.00048545   -0.00034553    0.00014972
     atom   23 type  2   force =    -0.07148817   -0.00017965   -0.02769884
     atom   24 type  2   force =     0.07140621    0.00025247   -0.02770380
     atom   25 type  1   force =     0.00003414   -0.00028140    0.09580538
     atom   26 type  1   force =    -0.00015099   -0.00023738   -0.17568336
     atom   27 type  2   force =     0.00009364   -0.00012530   -0.02331666
     atom   28 type  2   force =     0.00008013   -0.00129554    0.05333975
     atom   29 type  2   force =    -0.01193820   -0.00005789    0.00374992
     atom   30 type  2   force =     0.01319046    0.00042720    0.00212235
     atom   31 type  1   force =    -0.00141429    0.00344600   -0.01081773
     atom   32 type  1   force =     0.00064076   -0.01009571    0.02562553
     atom   33 type  2   force =    -0.00039486    0.00005079    0.00004086
     atom   34 type  2   force =     0.00075246    0.00090032   -0.02304895
     atom   35 type  2   force =    -0.00009528    0.00029350   -0.00001895
     atom   36 type  2   force =    -0.00022439    0.00059805   -0.00028464
     atom   37 type  1   force =    -0.00082513   -0.00102608   -0.00015364
     atom   38 type  1   force =    -0.00003496   -0.00009478   -0.00003127
     atom   39 type  2   force =    -0.00035567    0.00004270    0.00059474
     atom   40 type  2   force =     0.00049452    0.00025661    0.00026626
     atom   41 type  2   force =     0.00008211    0.00048728    0.00028048
     atom   42 type  2   force =     0.00005714    0.00025103   -0.00015717
     atom   43 type  1   force =     0.00014128    0.00018365   -0.00017307
     atom   44 type  1   force =    -0.00020583   -0.00047504   -0.00001014
     atom   45 type  2   force =     0.00007215   -0.00008678    0.10327023
     atom   46 type  2   force =    -0.07148417   -0.00017060   -0.02769672
     atom   47 type  2   force =     0.07141182    0.00030752   -0.02770940
     atom   48 type  3   force =     0.00018888   -0.00422181    0.00253034
     atom   49 type  3   force =     0.00074380   -0.00086698    0.00090502
     atom   50 type  4   force =     0.00051799    0.00133297    0.00087773
     atom   51 type  5   force =     0.00113466    0.00039833   -0.00063944
     atom   52 type  5   force =    -0.00028056    0.00068590   -0.00071472
     atom   53 type  5   force =    -0.00023700   -0.00154801    0.00069467
     atom   54 type  5   force =    -0.00097194    0.00404571   -0.00363127
     atom   55 type  5   force =    -0.00028956   -0.00022887   -0.00018267

     Total force =     0.367415     Total SCF correction =     0.000699
  @ DRIVER MODE: Message from server: STATUS
  @ DRIVER MODE: Message from server: GETFORCE
  @ DRIVER MODE: Returning v,forces,stress,ensemble

     Writing output data file ./calc.save/
  @ DRIVER MODE: Message from server: EXIT
  @ DRIVE MODE: Exiting

     General routines

     Parallel routines

   This run was terminated on:  11:30:46   9Sep2021

   JOB DONE.