     Program PWSCF v.6.7GPU starts on 14Sep2021 at 15:49:27

     R & G space division:  proc/nbgrp/npool/nimage =      10
     Reading input from /storage/home/hcoda1/3/ntian30/research/carbon/CxH_vib/CH_calc/ads_slab/CHON2_d/out_0007/pw.inp
Warning: card &CELL ignored
Warning: card   CELL_DYNAMICS='IPI', ignored
Warning: card / ignored

     Current dimensions of program PWSCF are:
     Max number of different atomic species (ntypx) = 10
     Max number of k-points (npk) =  40000
     Max angular momentum in pseudopotentials (lmaxx) =  3
     Presently no symmetry can be used with electric field

     Message from routine cell_base_init:
     DEPRECATED: use true lattice parameter, not A to a.u. conversion factor

     IMPORTANT: XC functional enforced from input :
     Exchange-correlation= BEEF-VDW
                           (   1   4  43  14   2   0   0)
     Any further DFT definition will be discarded
     Please, verify this is what you really want

  @ DRIVER MODE: Connecting to
 qe_1139763_2840438.sched-torque.pace.gatech.eduwug7mny9_scratch
  using UNIX socket
  @ DRIVER MODE: Message from server: STATUS
  @ DRIVER MODE: Message from server: INIT
  @ DRIVER MODE: Receiving replica           0          -1
  @ DRIVER MODE: Receiving encoded integer          25
  @ DRIVER MODE:  SCF:  T  FORCE:  T  STRESS:  F  VC:  F  ENSEMBLE:  F
  @ DRIVER MODE:  SCF:  T  FORCE:  T  STRESS:  F  VC:  F  ENSEMBLE:  F

     Using Slab Decomposition

     bravais-lattice index     =            0
     lattice parameter (alat)  =       1.8897  a.u.
     unit-cell volume          =    6658.9804 (a.u.)^3
     number of atoms/cell      =           52
     number of atomic types    =            5
     number of electrons       =       399.00
     number of Kohn-Sham states=          209
     kinetic-energy cutoff     =      29.3995  Ry
     charge density cutoff     =     293.9946  Ry
     scf convergence threshold =      7.3E-08
     mixing beta               =       0.0500
     number of iterations used =            8  plain     mixing
     Exchange-correlation= BEEF-VDW
                           (   1   4  43  14   2   0   0)

     celldm(1)=   1.889726  celldm(2)=   0.000000  celldm(3)=   0.000000
     celldm(4)=   0.000000  celldm(5)=   0.000000  celldm(6)=   0.000000

     crystal axes: (cart. coord. in units of alat)
               a(1) = (   6.579727   0.000000   0.000000 )
               a(2) = (  -0.000775   5.961596   0.000000 )
               a(3) = (   0.000000   0.000000  25.155947 )

     reciprocal axes: (cart. coord. in units 2 pi/alat)
               b(1) = (  0.151982  0.000020  0.000000 )
               b(2) = (  0.000000  0.167740  0.000000 )
               b(3) = (  0.000000  0.000000  0.039752 )

     PseudoPot. # 1 for O  read from file:
     /storage/coda1/p-amedford6/0/shared/rich_project_chbe-medford/medford-share/data/pseudos_module/espresso/nninc/pbe/van/O.UPF
     MD5 check sum: 78c19812648e8988a0fe644b0f25305e
     Pseudo is Ultrasoft, Zval =  6.0
     Generated by new atomic code, or converted to UPF format
     Using radial grid of  737 points,  4 beta functions with:
                l(1) =   0
                l(2) =   0
                l(3) =   1
                l(4) =   1
     Q(r) pseudized with  8 coefficients,  rinner =    0.800   0.800   0.800

     PseudoPot. # 2 for Ti read from file:
     /storage/coda1/p-amedford6/0/shared/rich_project_chbe-medford/medford-share/data/pseudos_module/espresso/nninc/pbe/van/Ti.UPF
     MD5 check sum: 8e4df49b7f0d34bbd5052bf3f5ea0213
     Pseudo is Ultrasoft, Zval = 12.0
     Generated by new atomic code, or converted to UPF format
     Using radial grid of  851 points,  6 beta functions with:
                l(1) =   0
                l(2) =   0
                l(3) =   1
                l(4) =   1
                l(5) =   2
                l(6) =   2
     Q(r) pseudized with  8 coefficients,  rinner =    1.000   1.000   1.000
                                                       1.000   1.000

     PseudoPot. # 3 for C  read from file:
     /storage/coda1/p-amedford6/0/shared/rich_project_chbe-medford/medford-share/data/pseudos_module/espresso/nninc/pbe/van/C.UPF
     MD5 check sum: 1a69bf6b8db32088f5b2163dbdb77a27
     Pseudo is Ultrasoft, Zval =  4.0
     Generated by new atomic code, or converted to UPF format
     Using radial grid of  721 points,  4 beta functions with:
                l(1) =   0
                l(2) =   0
                l(3) =   1
                l(4) =   1
     Q(r) pseudized with  8 coefficients,  rinner =    0.800   0.800   0.800

     PseudoPot. # 4 for H  read from file:
     /storage/coda1/p-amedford6/0/shared/rich_project_chbe-medford/medford-share/data/pseudos_module/espresso/nninc/pbe/van/H.UPF
     MD5 check sum: b5ee9d7bfd3a09ee7748110bda690ff7
     Pseudo is Ultrasoft, Zval =  1.0
     Generated by new atomic code, or converted to UPF format
     Using radial grid of  615 points,  1 beta functions with:
                l(1) =   0
     Q(r) pseudized with  8 coefficients,  rinner =    0.800

     PseudoPot. # 5 for N  read from file:
     /storage/coda1/p-amedford6/0/shared/rich_project_chbe-medford/medford-share/data/pseudos_module/espresso/nninc/pbe/van/N.UPF
     MD5 check sum: 90d10febe142ad51ac9d5be1deb811c4
     Pseudo is Ultrasoft, Zval =  5.0
     Generated by new atomic code, or converted to UPF format
     Using radial grid of  729 points,  4 beta functions with:
                l(1) =   0
                l(2) =   0
                l(3) =   1
                l(4) =   1
     Q(r) pseudized with  8 coefficients,  rinner =    0.800   0.800   0.800

     atomic species   valence    mass     pseudopotential
        O1             6.00    15.99900     O ( 1.00)
        Ti1           12.00    47.86700     Ti( 1.00)
        C1             4.00    12.01100     C ( 1.00)
        H1             1.00     1.00800     H ( 1.00)
        N1             5.00    14.00700     N ( 1.00)

     No symmetry found

   Cartesian axes

     site n.     atom                  positions (alat units)
         1           O1  tau(   1) = (   3.2904802   0.0005063   4.7018136  )
         2           O1  tau(   2) = (   3.2900926   2.9813045   4.7018136  )
         3           Ti1 tau(   3) = (   0.0004258   2.9801865   6.0000000  )
         4           Ti1 tau(   4) = (   0.0000382   5.9609847   6.0000000  )
         5           Ti1 tau(   5) = (   3.2906075   1.4906267   6.0002472  )
         6           Ti1 tau(   6) = (   3.2902200   4.4714249   6.0002472  )
         7           O1  tau(   7) = (   1.3043587   1.4918075   6.0039043  )
         8           O1  tau(   8) = (   1.3039711   4.4726057   6.0039043  )
         9           O1  tau(   9) = (   5.2767064   1.4903225   6.0039473  )
        10           O1  tau(  10) = (   5.2763189   4.4711207   6.0039473  )
        11           O1  tau(  11) = (   3.2906025   0.0005020   7.3038282  )
        12           O1  tau(  12) = (   3.2902150   2.9813002   7.3038282  )
        13           O1  tau(  13) = (   0.0006271   0.0005054   7.9858123  )
        14           O1  tau(  14) = (   0.0002396   2.9813036   7.9858123  )
        15           Ti1 tau(  15) = (   3.2818399   0.0632074   9.1536190  )
        16           Ti1 tau(  16) = (   3.2594741   3.0397892   9.1577678  )
        17           Ti1 tau(  17) = (   6.5510804   4.5344316   9.2678866  )
        18           O1  tau(  18) = (   4.5942328   1.4918067   9.2879030  )
        19           O1  tau(  19) = (   4.5938453   4.4726049   9.2879030  )
        20           O1  tau(  20) = (   1.9868534   1.4903216   9.2879459  )
        21           O1  tau(  21) = (   1.9864658   4.4711199   9.2879459  )
        22           Ti1 tau(  22) = (   6.5572888   1.6134915   9.3644180  )
        23           O1  tau(  23) = (   0.0036999   2.9964159  10.5720758  )
        24           O1  tau(  24) = (   0.0032988   0.0129995  10.6087427  )
        25           O1  tau(  25) = (   3.3025789   3.0011443  11.3496891  )
        26           O1  tau(  26) = (   3.3069272   0.0203573  11.3499924  )
        27           Ti1 tau(  27) = (   3.3485197   1.5170776  12.4945998  )
        28           Ti1 tau(  28) = (   0.0476823   0.0282983  12.5166062  )
        29           Ti1 tau(  29) = (   3.3474104   4.4962924  12.4903914  )
        30           O1  tau(  30) = (   1.2998870   1.5091839  12.6411902  )
        31           O1  tau(  31) = (   5.2998363   1.5142331  12.6477699  )
        32           O1  tau(  32) = (   1.2995728   4.4957929  12.6443136  )
        33           O1  tau(  33) = (   5.3001588   4.4888893  12.6515721  )
        34           Ti1 tau(  34) = (   0.0405098   3.0100001  12.8178096  )
        35           O1  tau(  35) = (   3.3017622   3.0020563  13.9311684  )
        36           O1  tau(  36) = (   3.3043745   0.0240830  13.9418183  )
        37           O1  tau(  37) = (   0.0425158   3.0055145  14.7122960  )
        38           O1  tau(  38) = (   0.0212564   0.0294349  14.7090242  )
        39           Ti1 tau(  39) = (   3.3143756   3.0090542  15.7253892  )
        40           Ti1 tau(  40) = (   3.3278308   0.0282705  15.7347533  )
        41           Ti1 tau(  41) = (   0.0474550   4.6028283  15.9859659  )
        42           O1  tau(  42) = (   4.5544755   4.4960427  16.0754871  )
        43           O1  tau(  43) = (   2.0560418   4.4875074  16.0954883  )
        44           O1  tau(  44) = (   4.5513302   1.5206081  16.0934294  )
        45           O1  tau(  45) = (   2.0557237   1.5274495  16.1011513  )
        46           Ti1 tau(  46) = (   0.0476892   1.4302431  16.0559646  )
        47           O1  tau(  47) = (   0.0145416   0.0172736  17.2235231  )
        48           O1  tau(  48) = (   6.5187403   2.9994048  17.3870116  )
        49           C1  tau(  49) = (   5.8968627   3.1321688  18.5844627  )
        50           H1  tau(  50) = (   5.7866629   4.0998533  19.0461414  )
        51           N1  tau(  51) = (   5.4444810   2.0886009  19.2066540  )
        52           N1  tau(  52) = (   5.0309896   1.1542324  19.7398597  )

     number of k points=    10  Fermi-Dirac smearing, width (Ry)=  0.0073
                       cart. coord. in units 2pi/alat
        k(    1) = (   0.0000000   0.0000000   0.0000000), wk =   0.1250000
        k(    2) = (   0.0000000   0.0419351   0.0000000), wk =   0.2500000
        k(    3) = (   0.0000000  -0.0838702   0.0000000), wk =   0.1250000
        k(    4) = (   0.0379955   0.0000049   0.0000000), wk =   0.2500000
        k(    5) = (   0.0379955   0.0419400   0.0000000), wk =   0.2500000
        k(    6) = (   0.0379955  -0.0838652   0.0000000), wk =   0.2500000
        k(    7) = (   0.0379955  -0.0419301   0.0000000), wk =   0.2500000
        k(    8) = (  -0.0759910  -0.0000099   0.0000000), wk =   0.1250000
        k(    9) = (  -0.0759910   0.0419252   0.0000000), wk =   0.2500000
        k(   10) = (  -0.0759910  -0.0838800   0.0000000), wk =   0.1250000

     Initial potential from superposition of free atoms

     starting charge  382.99918, renormalised to  399.00000

     negative rho (up, down):  1.730E-02 0.000E+00

     %%%%%%%%%%%%%%%%%%%%%%%%%%%%%%%%%%%%%%%%%%%%%%%%%%%%%%%%%%%%%%%%%%%%%%%%
     %                                                                      %
     % You are using vdW-DF, which was implemented by the Thonhauser group. %
     % Please cite the following two papers that made this development      %
     % possible and the two reviews that describe the various versions:     %
     %                                                                      %
     %   T. Thonhauser et al., PRL 115, 136402 (2015).                      %
     %   T. Thonhauser et al., PRB 76, 125112 (2007).                       %
     %   K. Berland et al., Rep. Prog. Phys. 78, 066501 (2015).             %
     %   D.C. Langreth et al., J. Phys.: Condens. Matter 21, 084203 (2009). %
     %                                                                      %
     %                                                                      %
     % If you are calculating the stress with vdW-DF, please also cite:     %
     %                                                                      %
     %   R. Sabatini et al., J. Phys.: Condens. Matter 24, 424209 (2012).   %
     %                                                                      %
     %%%%%%%%%%%%%%%%%%%%%%%%%%%%%%%%%%%%%%%%%%%%%%%%%%%%%%%%%%%%%%%%%%%%%%%%

     Adding external electric field

     Computed dipole along edir(3) :
        Dipole              -10.9256 Ry au,        -27.7701 Debye
        Dipole field         -0.0206 Ry au,

        Potential amp.        1.9113 Ry
        Total length         46.3494 bohr

     Starting wfcs are  301 atomic wfcs
  @ DRIVER MODE: Message from server: STATUS
  @ DRIVER MODE: Message from server: POSDATA
  @ DRIVER MODE: Reading and sharing cell
  @ DRIVER MODE: Reading and sharing positions
  @ DRIVER MODE: Received positions

     Self-consistent Calculation

     iteration #  1     ecut=    29.40 Ry     beta= 0.05
     Davidson diagonalization with overlap
     c_bands:  1 eigenvalues not converged
     c_bands:  3 eigenvalues not converged
     c_bands:  1 eigenvalues not converged
     c_bands:  2 eigenvalues not converged
     c_bands:  3 eigenvalues not converged
     c_bands:  2 eigenvalues not converged
     c_bands:  2 eigenvalues not converged
     c_bands:  4 eigenvalues not converged
     c_bands:  3 eigenvalues not converged
     ethr =  1.00E-05,  avg # of iterations = 19.6

[...]

     total energy              =   -2496.07679804 Ry
     estimated scf accuracy    <    5311.94032538 Ry

     iteration #  2     ecut=    29.40 Ry     beta= 0.05
     Davidson diagonalization with overlap
     ethr =  1.00E-02,  avg # of iterations = 22.8

[...]

     iteration # 73     ecut=    29.40 Ry     beta= 0.05
     Davidson diagonalization with overlap
     ethr =  2.92E-11,  avg # of iterations =  7.7

[...]

     total energy              =   -2969.03734919 Ry
     estimated scf accuracy    <       0.00000016 Ry

     iteration # 75     ecut=    29.40 Ry     beta= 0.05
     Davidson diagonalization with overlap
     c_bands:  1 eigenvalues not converged
     ethr =  1.90E-11,  avg # of iterations = 14.7

     negative rho (up, down):  1.696E-02 0.000E+00

     Adding external electric field

     Computed dipole along edir(3) :
        Dipole                0.4416 Ry au,          1.1224 Debye
        Dipole field          0.0008 Ry au,

        Potential amp.       -0.0773 Ry
        Total length         46.3494 bohr

     End of self-consistent calculation

          k = 0.0000 0.0000 0.0000 ( 18029 PWs)   bands (ev):

   -55.9428 -55.9290 -55.9059 -55.8927 -55.8311 -55.8102 -55.7862 -55.7702
   -55.7652 -55.7196 -55.7175 -55.6989 -55.6650 -55.5959 -54.9571 -54.9231
   -32.4933 -32.4114 -32.3277 -32.2991 -32.2668 -32.2428 -32.2356 -32.2136
   -32.1794 -32.1706 -32.1523 -32.1459 -32.1410 -32.1097 -32.1026 -32.0735
   -32.0726 -32.0683 -32.0644 -32.0335 -32.0280 -32.0080 -32.0074 -31.9909
   -31.9846 -31.9678 -31.9519 -31.9462 -31.9365 -31.9339 -31.9291 -31.9227
   -31.9219 -31.9159 -31.8797 -31.8773 -31.8480 -31.8442 -31.8190 -31.8050
   -31.7863 -31.7833 -31.3669 -31.2699 -31.2475 -31.1837 -31.0976 -30.9863
   -20.5010 -18.6087 -16.6878 -16.3973 -16.2478 -16.1048 -16.0701 -15.9526
   -15.7842 -15.6627 -15.6281 -15.5628 -15.5134 -15.5094 -15.4926 -15.4804
   -15.4659 -15.4559 -15.4360 -15.3787 -15.3714 -15.3475 -15.3274 -15.2898
   -15.2270 -15.1530 -15.1035 -15.0628 -15.0152 -14.9492 -14.9306 -13.4821
   -13.4578 -13.3396  -6.9314  -5.8640  -4.5945  -4.0417  -3.8729  -3.8680
    -3.8338  -3.7541  -3.6083  -3.5107  -3.4973  -3.3017  -3.1895  -3.1219
    -3.0937  -3.0785  -3.0702  -2.8831  -2.8776  -2.8177  -2.7705  -2.7587
    -2.7557  -2.7279  -2.7117  -2.6865  -2.6629  -2.6544  -2.5980  -2.4815
    -2.3604  -2.3474  -2.3275  -2.2452  -2.2364  -2.2226  -2.2193  -2.1947
    -2.1664  -2.1553  -2.1454  -2.0602  -1.9771  -1.8896  -1.8553  -1.7663
    -1.7290  -1.6428  -1.4574  -1.4108  -1.3595  -1.3461  -1.3312  -1.2942
    -1.2600  -1.2107  -1.1635  -1.1384  -1.0619  -0.9639  -0.9453  -0.8563
    -0.7986  -0.7544  -0.6880  -0.6693  -0.6603  -0.6421  -0.5231  -0.4226
    -0.4099  -0.3849  -0.2841  -0.2351  -0.2249  -0.1720  -0.1581  -0.1217
    -0.0731  -0.0157   0.0149   0.0207   0.0541   0.0633   0.1061   0.2248
     0.2472   0.2525   0.3378   0.3658   0.5277   0.5690   0.7004   0.7885
     0.9703   1.0672   1.1324   1.2381   1.6557   1.7150   2.5924   3.2428
     3.2725   3.3045   3.3423   3.3970   3.5052   3.6513   3.6810   3.6998
     3.7242

[...]

          k = 0.0380-0.0419 0.0000 ( 17876 PWs)   bands (ev):

[...]

          k =-0.0760-0.0000 0.0000 ( 17886 PWs)   bands (ev):

[...]

          k =-0.0760-0.0839 0.0000 ( 17948 PWs)   bands (ev):

   -55.9316 -55.9170 -55.9120 -55.9094 -55.8242 -55.8001 -55.7930 -55.7799
   -55.7581 -55.7246 -55.7168 -55.6843 -55.6798 -55.5982 -54.9406 -54.9394
   -32.2966 -32.2936 -32.2354 -32.2297 -32.2241 -32.2200 -32.2011 -32.1995
   -32.1930 -32.1565 -32.1323 -32.1273 -32.1254 -32.0833 -32.0724 -32.0698
   -32.0613 -32.0573 -32.0541 -32.0479 -32.0408 -32.0248 -32.0205 -32.0117
   -32.0081 -32.0023 -32.0015 -31.9998 -31.9828 -31.9538 -31.9432 -31.9419
   -31.9362 -31.9354 -31.9351 -31.9157 -31.9073 -31.8994 -31.8906 -31.8799
   -31.8268 -31.7924 -31.2609 -31.2595 -31.1804 -31.1794 -31.1412 -31.1402
   -20.4996 -18.5944 -16.1190 -16.1005 -15.9059 -15.8609 -15.8552 -15.8016
   -15.7274 -15.7086 -15.6642 -15.6609 -15.6066 -15.5948 -15.5871 -15.5357
   -15.4943 -15.4650 -15.4559 -15.4502 -15.3946 -15.3906 -15.3899 -15.3354
   -15.3200 -15.3056 -15.2761 -15.2719 -15.2048 -15.1797 -15.1037 -13.4902
   -13.4420 -13.4396  -6.9032  -5.8712  -4.5932  -3.5841  -3.4093  -3.3868
    -3.2845  -3.1447  -3.0793  -3.0771  -2.9950  -2.9203  -2.8881  -2.8734
    -2.8389  -2.7900  -2.7825  -2.7776  -2.7622  -2.7494  -2.7273  -2.7128
    -2.6819  -2.6623  -2.6279  -2.6024  -2.5848  -2.5682  -2.5598  -2.5227
    -2.5034  -2.4908  -2.4809  -2.4753  -2.4104  -2.2469  -2.1960  -2.1151
    -2.0893  -2.0813  -2.0350  -2.0280  -2.0079  -1.9950  -1.9786  -1.8714
    -1.7764  -1.6908  -1.6791  -1.6625  -1.6420  -1.6039  -1.4873  -1.4570
    -1.3822  -1.3623  -1.3471  -1.2462  -1.2233  -1.1573  -1.1509  -1.0702
    -1.0259  -1.0138  -0.9509  -0.9105  -0.8959  -0.8382  -0.8127  -0.7463
    -0.6929  -0.6732  -0.6090  -0.5858  -0.5665  -0.5133  -0.4711  -0.4556
    -0.3873  -0.2972  -0.2478  -0.0610   0.0668   0.0846   0.1021   0.1755
     0.2559   0.2949   0.3180   0.3523   0.4389   0.4980   0.5721   0.5895
     0.6126   0.6780   1.4270   1.4286   1.5180   1.5288   2.5120   3.4517
     3.4737   3.4976   3.5488   3.7018   3.7063   3.7243   3.7339   3.8230
     3.8808

     the Fermi energy is     3.2115 ev

!    total energy              =   -2969.03736120 Ry
     estimated scf accuracy    <       0.00000003 Ry
     smearing contrib. (-TS)   =      -0.02336734 Ry
     internal energy E=F+TS    =   -2969.01399385 Ry

     The total energy is F=E-TS. E is the sum of the following terms:
     one-electron contribution =  -23804.31266016 Ry
     hartree contribution      =   11990.56262051 Ry
     xc contribution           =    -490.85026967 Ry
     ewald contribution        =    9335.58594747 Ry
     electric field correction =       0.00036801 Ry

     convergence has been achieved in  75 iterations

     Forces acting on atoms (cartesian axes, Ry/au):

     atom    1 type  1   force =     0.00008575    0.00006497    0.10421454
     atom    2 type  1   force =     0.00010585    0.00002560    0.10424102
     atom    3 type  2   force =     0.00028697   -0.00170647    0.10527442
     atom    4 type  2   force =     0.00012005    0.00145295    0.11699418
     atom    5 type  2   force =     0.00012676    0.00057547   -0.18002977
     atom    6 type  2   force =    -0.00004370   -0.00014209   -0.18013781
     atom    7 type  1   force =    -0.06883187    0.00078090   -0.02950855
     atom    8 type  1   force =    -0.06849633   -0.00143682   -0.02954673
     atom    9 type  1   force =     0.06892532    0.00107367   -0.02956311
     atom   10 type  1   force =     0.06847973   -0.00091210   -0.02961885
     atom   11 type  1   force =    -0.00025594    0.00067446    0.04561783
     atom   12 type  1   force =    -0.00062044    0.00092550    0.04728116
     atom   13 type  1   force =    -0.00012058   -0.00649923   -0.03345154
     atom   14 type  1   force =    -0.00030655    0.00406471   -0.02751037
     atom   15 type  2   force =    -0.00008452   -0.00037139   -0.00001047
     atom   16 type  2   force =    -0.00017048   -0.00039890    0.00004388
     atom   17 type  2   force =    -0.00018396   -0.00001061   -0.00008093
     atom   18 type  1   force =    -0.01864023   -0.00141572    0.00430637
     atom   19 type  1   force =    -0.01733612    0.00092762    0.00347467
     atom   20 type  1   force =     0.01933835    0.00094229    0.00436307
     atom   21 type  1   force =     0.01780435    0.00241887    0.00370066
     atom   22 type  2   force =    -0.00022141   -0.00007221   -0.00012858
     atom   23 type  1   force =    -0.00013465    0.00001088    0.00012517
     atom   24 type  1   force =     0.00016234   -0.00001300    0.00019348
     atom   25 type  1   force =     0.00000626    0.00011088   -0.00010384
     atom   26 type  1   force =    -0.00012950   -0.00015088   -0.00009459
     atom   27 type  2   force =     0.00005076    0.00001157   -0.00008210
     atom   28 type  2   force =    -0.00022460    0.00009319   -0.00015177
     atom   29 type  2   force =     0.00000303    0.00003692   -0.00008494
     atom   30 type  1   force =    -0.00025936   -0.00017247   -0.00017196
     atom   31 type  1   force =     0.00035273   -0.00023114   -0.00019950
     atom   32 type  1   force =    -0.00004256   -0.00017788    0.00015961
     atom   33 type  1   force =    -0.00006162   -0.00005525   -0.00009431
     atom   34 type  2   force =    -0.00004610    0.00018331    0.00012574
     atom   35 type  1   force =     0.00008752   -0.00022319   -0.00021359
     atom   36 type  1   force =     0.00004908    0.00003064   -0.00007632
     atom   37 type  1   force =    -0.00001573    0.00008624   -0.00024842
     atom   38 type  1   force =    -0.00013851    0.00029299   -0.00024643
     atom   39 type  2   force =     0.00008200    0.00014483    0.00036833
     atom   40 type  2   force =     0.00009174   -0.00029877    0.00007130
     atom   41 type  2   force =    -0.00026526   -0.00069148    0.00050977
     atom   42 type  1   force =     0.00008616    0.00019266   -0.00005524
     atom   43 type  1   force =    -0.00018732    0.00027143   -0.00027236
     atom   44 type  1   force =    -0.00023924   -0.00003433   -0.00011625
     atom   45 type  1   force =    -0.00005153    0.00008917    0.00011967
     atom   46 type  2   force =     0.00009593   -0.00014869    0.00074510
     atom   47 type  1   force =    -0.00005646    0.00012972   -0.00039251
     atom   48 type  1   force =    -0.00217529    0.00060275    0.00381143
     atom   49 type  3   force =     0.00539680    0.00171484   -0.00797005
     atom   50 type  4   force =    -0.00020047    0.00135549    0.00100262
     atom   51 type  5   force =    -0.00378792   -0.00388254    0.00367290
     atom   52 type  5   force =     0.00159078   -0.00023937   -0.00025603

     Total force =     0.376251     Total SCF correction =     0.000479
  @ DRIVER MODE: Message from server: STATUS
  @ DRIVER MODE: Message from server: GETFORCE
  @ DRIVER MODE: Returning v,forces,stress,ensemble

     Writing output data file ./calc.save/
  @ DRIVER MODE: Message from server: EXIT
  @ DRIVE MODE: Exiting

     General routines

     Parallel routines

   This run was terminated on:  16: 9:32  14Sep2021

   JOB DONE.