     Program PWSCF v.6.7GPU starts on  8Sep2021 at 23:28:32

     R & G space division:  proc/nbgrp/npool/nimage =      10
     Reading input from /storage/home/hcoda1/3/ntian30/research/carbon/CxH_vib/CH3_calc/ads_slab/CH3N2_c/out_0005/pw.inp
Warning: card &CELL ignored
Warning: card   CELL_DYNAMICS='IPI', ignored
Warning: card / ignored

     Current dimensions of program PWSCF are:
     Max number of different atomic species (ntypx) = 10
     Max number of k-points (npk) =  40000
     Max angular momentum in pseudopotentials (lmaxx) =  3
     Presently no symmetry can be used with electric field

     Message from routine cell_base_init:
     DEPRECATED: use true lattice parameter, not A to a.u. conversion factor

     IMPORTANT: XC functional enforced from input :
     Exchange-correlation= BEEF-VDW
                           (   1   4  43  14   2   0   0)
     Any further DFT definition will be discarded
     Please, verify this is what you really want

  @ DRIVER MODE: Connecting to
 qe_1139763_2767397.sched-torque.pace.gatech.edud0frqsyh_scratch
  using UNIX socket
  @ DRIVER MODE: Message from server: STATUS
  @ DRIVER MODE: Message from server: INIT
  @ DRIVER MODE: Receiving replica           0          -1
  @ DRIVER MODE: Receiving encoded integer          25
  @ DRIVER MODE:  SCF:  T  FORCE:  T  STRESS:  F  VC:  F  ENSEMBLE:  F
  @ DRIVER MODE:  SCF:  T  FORCE:  T  STRESS:  F  VC:  F  ENSEMBLE:  F

     Using Slab Decomposition

     bravais-lattice index     =            0
     lattice parameter (alat)  =       1.8897  a.u.
     unit-cell volume          =    6658.9804 (a.u.)^3
     number of atoms/cell      =           53
     number of atomic types    =            5
     number of electrons       =       395.00
     number of Kohn-Sham states=          207
     kinetic-energy cutoff     =      29.3995  Ry
     charge density cutoff     =     293.9946  Ry
     scf convergence threshold =      7.3E-08
     mixing beta               =       0.0500
     number of iterations used =            8  plain     mixing
     Exchange-correlation= BEEF-VDW
                           (   1   4  43  14   2   0   0)

     celldm(1)=   1.889726  celldm(2)=   0.000000  celldm(3)=   0.000000
     celldm(4)=   0.000000  celldm(5)=   0.000000  celldm(6)=   0.000000

     crystal axes: (cart. coord. in units of alat)
               a(1) = (   6.579727   0.000000   0.000000 )
               a(2) = (  -0.000775   5.961596   0.000000 )
               a(3) = (   0.000000   0.000000  25.155947 )

     reciprocal axes: (cart. coord. in units 2 pi/alat)
               b(1) = (  0.151982  0.000020  0.000000 )
               b(2) = (  0.000000  0.167740  0.000000 )
               b(3) = (  0.000000  0.000000  0.039752 )

     PseudoPot. # 1 for Ti read from file:
     /storage/coda1/p-amedford6/0/shared/rich_project_chbe-medford/medford-share/data/pseudos_module/espresso/nninc/pbe/van/Ti.UPF
     MD5 check sum: 8e4df49b7f0d34bbd5052bf3f5ea0213
     Pseudo is Ultrasoft, Zval = 12.0
     Generated by new atomic code, or converted to UPF format
     Using radial grid of  851 points,  6 beta functions with:
                l(1) =   0
                l(2) =   0
                l(3) =   1
                l(4) =   1
                l(5) =   2
                l(6) =   2
     Q(r) pseudized with  8 coefficients,  rinner =    1.000   1.000   1.000
                                                       1.000   1.000

     PseudoPot. # 2 for O  read from file:
     /storage/coda1/p-amedford6/0/shared/rich_project_chbe-medford/medford-share/data/pseudos_module/espresso/nninc/pbe/van/O.UPF
     MD5 check sum: 78c19812648e8988a0fe644b0f25305e
     Pseudo is Ultrasoft, Zval =  6.0
     Generated by new atomic code, or converted to UPF format
     Using radial grid of  737 points,  4 beta functions with:
                l(1) =   0
                l(2) =   0
                l(3) =   1
                l(4) =   1
     Q(r) pseudized with  8 coefficients,  rinner =    0.800   0.800   0.800

     PseudoPot. # 3 for N  read from file:
     /storage/coda1/p-amedford6/0/shared/rich_project_chbe-medford/medford-share/data/pseudos_module/espresso/nninc/pbe/van/N.UPF
     MD5 check sum: 90d10febe142ad51ac9d5be1deb811c4
     Pseudo is Ultrasoft, Zval =  5.0
     Generated by new atomic code, or converted to UPF format
     Using radial grid of  729 points,  4 beta functions with:
                l(1) =   0
                l(2) =   0
                l(3) =   1
                l(4) =   1
     Q(r) pseudized with  8 coefficients,  rinner =    0.800   0.800   0.800

     PseudoPot. # 4 for C  read from file:
     /storage/coda1/p-amedford6/0/shared/rich_project_chbe-medford/medford-share/data/pseudos_module/espresso/nninc/pbe/van/C.UPF
     MD5 check sum: 1a69bf6b8db32088f5b2163dbdb77a27
     Pseudo is Ultrasoft, Zval =  4.0
     Generated by new atomic code, or converted to UPF format
     Using radial grid of  721 points,  4 beta functions with:
                l(1) =   0
                l(2) =   0
                l(3) =   1
                l(4) =   1
     Q(r) pseudized with  8 coefficients,  rinner =    0.800   0.800   0.800

     PseudoPot. # 5 for H  read from file:
     /storage/coda1/p-amedford6/0/shared/rich_project_chbe-medford/medford-share/data/pseudos_module/espresso/nninc/pbe/van/H.UPF
     MD5 check sum: b5ee9d7bfd3a09ee7748110bda690ff7
     Pseudo is Ultrasoft, Zval =  1.0
     Generated by new atomic code, or converted to UPF format
     Using radial grid of  615 points,  1 beta functions with:
                l(1) =   0
     Q(r) pseudized with  8 coefficients,  rinner =    0.800

     atomic species   valence    mass     pseudopotential
        Ti1           12.00    47.86700     Ti( 1.00)
        O1             6.00    15.99900     O ( 1.00)
        N1             5.00    14.00700     N ( 1.00)
        C1             4.00    12.01100     C ( 1.00)
        H1             1.00     1.00800     H ( 1.00)

     No symmetry found

   Cartesian axes

     site n.     atom                  positions (alat units)
         1           Ti1 tau(   1) = (   0.0004258   2.9801865   6.0000000  )
         2           Ti1 tau(   2) = (   3.2906075   1.4906267   6.0002472  )
         3           O1  tau(   3) = (   0.0006271   0.0005054   7.9858123  )
         4           O1  tau(   4) = (   3.2906025   0.0005020   7.3038282  )
         5           O1  tau(   5) = (   4.5942328   1.4918067   9.2879030  )
         6           O1  tau(   6) = (   1.9868534   1.4903216   9.2879459  )
         7           Ti1 tau(   7) = (   3.2907910   2.8959150   9.1758416  )
         8           Ti1 tau(   8) = (   0.0015273   1.4827037   9.2680791  )
         9           O1  tau(   9) = (   3.2868105   5.9447858  11.3346005  )
        10           O1  tau(  10) = (   0.0116148   5.9584955  10.6183126  )
        11           O1  tau(  11) = (   1.2897616   1.4699164  12.6258314  )
        12           O1  tau(  12) = (   5.2713851   1.4716199  12.6109895  )
        13           Ti1 tau(  13) = (   0.0629619   2.9460495  12.6207869  )
        14           Ti1 tau(  14) = (   3.3778125   1.4702366  12.4807322  )
        15           O1  tau(  15) = (   6.5741670   5.9392046  14.6271830  )
        16           O1  tau(  16) = (   3.2925211   5.9405975  13.9303826  )
        17           O1  tau(  17) = (   4.5331425   1.4971777  16.0590535  )
        18           O1  tau(  18) = (   2.0416154   1.4974824  16.0477615  )
        19           Ti1 tau(  19) = (   3.2901388   2.9722967  15.7036181  )
        20           Ti1 tau(  20) = (   6.5714728   1.5019933  15.8140906  )
        21           O1  tau(  21) = (   3.2904802   0.0005063   4.7018136  )
        22           O1  tau(  22) = (   6.5775371   0.0159386  17.1814867  )
        23           O1  tau(  23) = (   1.3043587   1.4918075   6.0039043  )
        24           O1  tau(  24) = (   5.2767064   1.4903225   6.0039473  )
        25           Ti1 tau(  25) = (   0.0000382   5.9609847   6.0000000  )
        26           Ti1 tau(  26) = (   3.2902200   4.4714249   6.0002472  )
        27           O1  tau(  27) = (   0.0002396   2.9813036   7.9858123  )
        28           O1  tau(  28) = (   3.2902150   2.9813002   7.3038282  )
        29           O1  tau(  29) = (   4.5938453   4.4726049   9.2879030  )
        30           O1  tau(  30) = (   1.9864658   4.4711199   9.2879459  )
        31           Ti1 tau(  31) = (   3.2891106   5.8743827   9.1763621  )
        32           Ti1 tau(  32) = (   0.0006254   4.4649316   9.2693709  )
        33           O1  tau(  33) = (   3.2909631   2.9655588  11.3316111  )
        34           O1  tau(  34) = (   0.0092240   2.9805883  10.6323155  )
        35           O1  tau(  35) = (   1.2884032   4.4536117  12.6269208  )
        36           O1  tau(  36) = (   5.2752684   4.4605011  12.6109535  )
        37           Ti1 tau(  37) = (   0.0626277   5.9200555  12.5524633  )
        38           Ti1 tau(  38) = (   3.3797810   4.4486816  12.4846537  )
        39           O1  tau(  39) = (   6.5720240   2.9440667  14.6479771  )
        40           O1  tau(  40) = (   3.2941106   2.9728877  13.9057494  )
        41           O1  tau(  41) = (   4.5311790   4.4530262  16.1020043  )
        42           O1  tau(  42) = (   2.0427069   4.4534008  16.0946336  )
        43           Ti1 tau(  43) = (   3.2818950   5.9508925  15.7274921  )
        44           Ti1 tau(  44) = (   6.5750914   4.6476268  16.0792144  )
        45           O1  tau(  45) = (   3.2900926   2.9813045   4.7018136  )
        46           O1  tau(  46) = (   1.3039711   4.4726057   6.0039043  )
        47           O1  tau(  47) = (   5.2763189   4.4711207   6.0039473  )
        48           N1  tau(  48) = (   0.0795740   2.6614725  18.6286781  )
        49           N1  tau(  49) = (   0.0132033   2.8794178  17.4383708  )
        50           C1  tau(  50) = (   0.1510961   3.8031638  19.5808395  )
        51           H1  tau(  51) = (   6.4701351   4.7592986  19.1328852  )
        52           H1  tau(  52) = (   6.0910372   3.5604803  20.4266230  )
        53           H1  tau(  53) = (   1.1812797   3.8285794  19.9476819  )

     number of k points=    10  Fermi-Dirac smearing, width (Ry)=  0.0073
                       cart. coord. in units 2pi/alat
        k(    1) = (   0.0000000   0.0000000   0.0000000), wk =   0.1250000
        k(    2) = (   0.0000000   0.0419351   0.0000000), wk =   0.2500000
        k(    3) = (   0.0000000  -0.0838702   0.0000000), wk =   0.1250000
        k(    4) = (   0.0379955   0.0000049   0.0000000), wk =   0.2500000
        k(    5) = (   0.0379955   0.0419400   0.0000000), wk =   0.2500000
        k(    6) = (   0.0379955  -0.0838652   0.0000000), wk =   0.2500000
        k(    7) = (   0.0379955  -0.0419301   0.0000000), wk =   0.2500000
        k(    8) = (  -0.0759910  -0.0000099   0.0000000), wk =   0.1250000
        k(    9) = (  -0.0759910   0.0419252   0.0000000), wk =   0.2500000
        k(   10) = (  -0.0759910  -0.0838800   0.0000000), wk =   0.1250000

     Initial potential from superposition of free atoms

     starting charge  378.99916, renormalised to  395.00000

     negative rho (up, down):  1.506E-02 0.000E+00

     %%%%%%%%%%%%%%%%%%%%%%%%%%%%%%%%%%%%%%%%%%%%%%%%%%%%%%%%%%%%%%%%%%%%%%%%
     %                                                                      %
     % You are using vdW-DF, which was implemented by the Thonhauser group. %
     % Please cite the following two papers that made this development      %
     % possible and the two reviews that describe the various versions:     %
     %                                                                      %
     %   T. Thonhauser et al., PRL 115, 136402 (2015).                      %
     %   T. Thonhauser et al., PRB 76, 125112 (2007).                       %
     %   K. Berland et al., Rep. Prog. Phys. 78, 066501 (2015).             %
     %   D.C. Langreth et al., J. Phys.: Condens. Matter 21, 084203 (2009). %
     %                                                                      %
     %                                                                      %
     % If you are calculating the stress with vdW-DF, please also cite:     %
     %                                                                      %
     %   R. Sabatini et al., J. Phys.: Condens. Matter 24, 424209 (2012).   %
     %                                                                      %
     %%%%%%%%%%%%%%%%%%%%%%%%%%%%%%%%%%%%%%%%%%%%%%%%%%%%%%%%%%%%%%%%%%%%%%%%

     Adding external electric field

     Computed dipole along edir(3) :
        Dipole               -8.8455 Ry au,        -22.4830 Debye
        Dipole field         -0.0167 Ry au,

        Potential amp.        1.5474 Ry
        Total length         46.3494 bohr

     Starting wfcs are  299 atomic wfcs
  @ DRIVER MODE: Message from server: STATUS
  @ DRIVER MODE: Message from server: POSDATA
  @ DRIVER MODE: Reading and sharing cell
  @ DRIVER MODE: Reading and sharing positions
  @ DRIVER MODE: Received positions

     Self-consistent Calculation

     iteration #  1     ecut=    29.40 Ry     beta= 0.05
     Davidson diagonalization with overlap
     c_bands:  1 eigenvalues not converged
     c_bands:  2 eigenvalues not converged
     c_bands:  2 eigenvalues not converged
     c_bands:  3 eigenvalues not converged
     c_bands:  3 eigenvalues not converged
     c_bands:  1 eigenvalues not converged
     ethr =  1.00E-05,  avg # of iterations = 19.0

[...]

     total energy              =   -2605.24955954 Ry
     estimated scf accuracy    <    3703.21134436 Ry

     iteration #  2     ecut=    29.40 Ry     beta= 0.05
     Davidson diagonalization with overlap
     ethr =  1.00E-02,  avg # of iterations = 21.8

[...]

     iteration # 53     ecut=    29.40 Ry     beta= 0.05
     Davidson diagonalization with overlap
     c_bands:  1 eigenvalues not converged
     ethr =  1.21E-07,  avg # of iterations =  7.5

[...]

     total energy              =   -2939.15451335 Ry
     estimated scf accuracy    <       0.00000012 Ry

     iteration # 69     ecut=    29.40 Ry     beta= 0.05
     Davidson diagonalization with overlap
     ethr =  2.98E-11,  avg # of iterations =  5.6

     negative rho (up, down):  1.564E-02 0.000E+00

     Adding external electric field

     Computed dipole along edir(3) :
        Dipole                0.7138 Ry au,          1.8144 Debye
        Dipole field          0.0013 Ry au,

        Potential amp.       -0.1249 Ry
        Total length         46.3494 bohr

     End of self-consistent calculation

          k = 0.0000 0.0000 0.0000 ( 18029 PWs)   bands (ev):

   -55.8891 -55.8746 -55.8550 -55.8387 -55.7921 -55.7245 -55.7004 -55.6977
   -55.6877 -55.6637 -55.6626 -55.6290 -55.2800 -55.0942 -54.8664 -54.8324
   -32.4290 -32.3712 -32.2248 -32.2240 -32.1963 -32.1945 -32.1819 -32.1532
   -32.1315 -32.1200 -32.0969 -32.0628 -32.0554 -32.0414 -32.0279 -32.0145
   -32.0142 -31.9931 -31.9790 -31.9463 -31.9383 -31.9341 -31.8928 -31.8903
   -31.8855 -31.8822 -31.8740 -31.8696 -31.8648 -31.8383 -31.8374 -31.8298
   -31.8286 -31.8155 -31.8042 -31.7748 -31.7741 -31.5611 -31.4548 -31.3551
   -31.3540 -31.3096 -31.2735 -31.1852 -31.1628 -31.0902 -31.0037 -30.8927
   -18.6019 -16.6280 -16.3626 -16.1370 -16.0404 -16.0080 -15.8906 -15.7272
   -15.6091 -15.5555 -15.4580 -15.4382 -15.4245 -15.3928 -15.3790 -15.3716
   -15.3385 -15.3311 -15.3131 -15.2983 -15.2488 -15.2253 -15.2054 -15.1051
   -15.0591 -15.0248 -15.0124 -14.9460 -14.9411 -14.4419 -13.3689 -13.2525
   -11.3487  -6.9258  -4.3719  -3.9977  -3.9211  -3.8943  -3.8420  -3.7945
    -3.7385  -3.6240  -3.4934  -3.4325  -3.1206  -3.0729  -3.0569  -3.0398
    -3.0025  -2.7948  -2.7441  -2.7026  -2.6790  -2.6719  -2.6606  -2.6542
    -2.6412  -2.6025  -2.5034  -2.4323  -2.4300  -2.3415  -2.2897  -2.2647
    -2.2010  -2.1834  -2.1602  -2.1375  -2.1252  -2.1087  -2.0842  -2.0739
    -1.9732  -1.8789  -1.7577  -1.6997  -1.6915  -1.6675  -1.6620  -1.4965
    -1.3722  -1.3345  -1.3304  -1.3150  -1.2809  -1.2734  -1.1862  -1.0633
    -1.0472  -1.0112  -0.9582  -0.8977  -0.8722  -0.7704  -0.7339  -0.6561
    -0.6505  -0.6341  -0.5852  -0.5446  -0.3714  -0.3332  -0.3057  -0.2823
    -0.2595  -0.1863  -0.1640  -0.0497  -0.0319  -0.0130   0.0473   0.0688
     0.0825   0.0929   0.1099   0.1288   0.1453   0.3128   0.3863   0.4352
     0.4617   0.5166   0.6448   0.7102   0.7696   0.8674   1.0813   1.1556
     1.2475   1.3477   1.7268   1.7724   2.6768   3.2502   3.3308   3.3800
     3.3942   3.4917   3.5222   3.7020   3.7032   3.7312   3.8012

[...]

          k = 0.0380-0.0419 0.0000 ( 17876 PWs)   bands (ev):

[...]

          k =-0.0760-0.0000 0.0000 ( 17886 PWs)   bands (ev):

[...]

          k =-0.0760-0.0839 0.0000 ( 17948 PWs)   bands (ev):

   -55.8724 -55.8715 -55.8568 -55.8563 -55.7887 -55.7127 -55.7037 -55.6995
   -55.6815 -55.6793 -55.6466 -55.6452 -55.2786 -55.0956 -54.8495 -54.8492
   -32.2335 -32.2318 -32.1867 -32.1862 -32.1677 -32.1668 -32.1655 -32.1292
   -32.0834 -32.0803 -32.0757 -32.0733 -32.0383 -32.0073 -31.9993 -31.9987
   -31.9939 -31.9922 -31.9921 -31.9910 -31.9897 -31.9854 -31.9829 -31.9324
   -31.9181 -31.9084 -31.9050 -31.8941 -31.8806 -31.8801 -31.8777 -31.8766
   -31.8611 -31.8603 -31.8512 -31.8488 -31.6904 -31.5628 -31.4648 -31.4102
   -31.3563 -31.3356 -31.1756 -31.1753 -31.0865 -31.0861 -31.0471 -31.0469
   -18.5979 -16.0640 -16.0380 -15.8368 -15.8036 -15.8007 -15.7864 -15.6777
   -15.5924 -15.5849 -15.5819 -15.5193 -15.4896 -15.4719 -15.4296 -15.4169
   -15.4100 -15.3978 -15.3908 -15.3498 -15.3425 -15.3251 -15.3176 -15.2351
   -15.2056 -15.2015 -15.1774 -15.0588 -14.9284 -14.6192 -13.3544 -13.3542
   -11.3463  -6.9374  -4.2851  -3.9281  -3.8698  -3.3534  -3.3246  -3.0837
    -3.0450  -3.0312  -2.9775  -2.8168  -2.7859  -2.7607  -2.7488  -2.7174
    -2.7116  -2.7003  -2.6944  -2.6743  -2.6353  -2.6168  -2.5967  -2.5779
    -2.5567  -2.5428  -2.5295  -2.5110  -2.5011  -2.4625  -2.4388  -2.4280
    -2.4094  -2.3976  -2.2442  -2.1176  -2.0825  -2.0276  -2.0171  -1.9984
    -1.9585  -1.9526  -1.9408  -1.8763  -1.8206  -1.6652  -1.6365  -1.5890
    -1.5839  -1.5640  -1.4963  -1.4575  -1.3695  -1.2958  -1.2703  -1.2664
    -1.1991  -1.1100  -1.1078  -1.0578  -1.0165  -1.0070  -0.9496  -0.8847
    -0.8517  -0.8476  -0.8025  -0.7360  -0.7104  -0.6579  -0.6514  -0.6065
    -0.5607  -0.5507  -0.5243  -0.4819  -0.3999  -0.3760  -0.2394  -0.1586
    -0.0398   0.0783   0.1719   0.1870   0.2652   0.3190   0.4008   0.4209
     0.4319   0.4388   0.4829   0.5624   0.6430   0.6577   0.7030   0.8243
     1.5193   1.5200   1.5920   1.5924   2.7349   3.4962   3.5403   3.5832
     3.6158   3.7235   3.7549   3.7787   3.7799   3.8089   3.9225

     the Fermi energy is     3.2453 ev

!    total energy              =   -2939.15454734 Ry
     estimated scf accuracy    <       0.00000006 Ry
     smearing contrib. (-TS)   =      -0.02255643 Ry
     internal energy E=F+TS    =   -2939.13199092 Ry

     The total energy is F=E-TS. E is the sum of the following terms:
     one-electron contribution =  -24178.78574602 Ry
     hartree contribution      =   12176.66930944 Ry
     xc contribution           =    -485.19627864 Ry
     ewald contribution        =    9548.17976273 Ry
     electric field correction =       0.00096157 Ry

     convergence has been achieved in  69 iterations

     Forces acting on atoms (cartesian axes, Ry/au):

     atom    1 type  1   force =     0.00012252   -0.00023830    0.09669962
     atom    2 type  1   force =    -0.00012057   -0.00049395   -0.17520638
     atom    3 type  2   force =     0.00000342   -0.00010220   -0.02497812
     atom    4 type  2   force =     0.00005315   -0.00150700    0.05299747
     atom    5 type  2   force =    -0.01214777   -0.00109209    0.00360987
     atom    6 type  2   force =     0.01370165   -0.00028276    0.00228767
     atom    7 type  1   force =    -0.00118115    0.00037280   -0.01151640
     atom    8 type  1   force =     0.00056070    0.00940911    0.02849523
     atom    9 type  2   force =     0.00020105    0.00053232   -0.00011549
     atom   10 type  2   force =    -0.00114614    0.00027555   -0.01822113
     atom   11 type  2   force =    -0.00011437    0.00000541   -0.00010279
     atom   12 type  2   force =     0.00014293    0.00021599    0.00021815
     atom   13 type  1   force =     0.00008699   -0.00029967   -0.00001364
     atom   14 type  1   force =     0.00021277    0.00017346    0.00008997
     atom   15 type  2   force =     0.00021337   -0.00020241    0.00010481
     atom   16 type  2   force =    -0.00033170    0.00033870    0.00055452
     atom   17 type  2   force =     0.00001853    0.00051586    0.00007089
     atom   18 type  2   force =    -0.00005123    0.00026607    0.00044140
     atom   19 type  1   force =    -0.00007191    0.00014612   -0.00030876
     atom   20 type  1   force =    -0.00061436   -0.00065194   -0.00154135
     atom   21 type  2   force =     0.00008515    0.00001161    0.10322070
     atom   22 type  2   force =    -0.00018930    0.00049638    0.00121168
     atom   23 type  2   force =    -0.07144471   -0.00006402   -0.02769603
     atom   24 type  2   force =     0.07141352    0.00035835   -0.02770541
     atom   25 type  1   force =     0.00006717   -0.00021806    0.09639481
     atom   26 type  1   force =    -0.00021982   -0.00026853   -0.17562286
     atom   27 type  2   force =     0.00007180   -0.00025056   -0.02399553
     atom   28 type  2   force =     0.00009613   -0.00125601    0.05286415
     atom   29 type  2   force =    -0.01238989    0.00003683    0.00352238
     atom   30 type  2   force =     0.01385842    0.00033134    0.00216504
     atom   31 type  1   force =    -0.00114354    0.00334301   -0.01192799
     atom   32 type  1   force =     0.00064781   -0.01117152    0.02910617
     atom   33 type  2   force =     0.00011269   -0.00020317   -0.00037225
     atom   34 type  2   force =    -0.00089323   -0.00093519   -0.02479494
     atom   35 type  2   force =    -0.00038285    0.00026508    0.00005331
     atom   36 type  2   force =     0.00073346    0.00029525    0.00037249
     atom   37 type  1   force =    -0.00002502   -0.00023510   -0.00005697
     atom   38 type  1   force =    -0.00002816    0.00011004   -0.00011313
     atom   39 type  2   force =     0.00032923    0.00045413   -0.00022600
     atom   40 type  2   force =    -0.00030686    0.00010099    0.00033301
     atom   41 type  2   force =    -0.00023271    0.00042902    0.00032548
     atom   42 type  2   force =    -0.00018607    0.00034833    0.00062373
     atom   43 type  1   force =    -0.00004621    0.00040287    0.00015831
     atom   44 type  1   force =    -0.00044271    0.00085133   -0.00053365
     atom   45 type  2   force =     0.00008225   -0.00002817    0.10322951
     atom   46 type  2   force =    -0.07148222   -0.00004440   -0.02770831
     atom   47 type  2   force =     0.07144818    0.00037845   -0.02773258
     atom   48 type  3   force =     0.00167590   -0.00325976    0.02804750
     atom   49 type  3   force =    -0.00061337    0.00432591   -0.02360211
     atom   50 type  4   force =     0.00212982   -0.00051616   -0.00231292
     atom   51 type  5   force =     0.00010129    0.00073849   -0.00027086
     atom   52 type  5   force =    -0.00142038   -0.00166233    0.00011887
     atom   53 type  5   force =    -0.00094367   -0.00054551   -0.00064117

     Total force =     0.370171     Total SCF correction =     0.000689
  @ DRIVER MODE: Message from server: STATUS
  @ DRIVER MODE: Message from server: GETFORCE
  @ DRIVER MODE: Returning v,forces,stress,ensemble

     Writing output data file ./calc.save/
  @ DRIVER MODE: Message from server: EXIT
  @ DRIVE MODE: Exiting

     General routines

     Parallel routines

   This run was terminated on:  23:46:16   8Sep2021

   JOB DONE.