     Program PWSCF v.6.7GPU starts on 28Sep2021 at 14:45: 3

     R & G space division:  proc/nbgrp/npool/nimage =       8
     Reading input from /storage/home/hcoda1/3/ntian30/research/carbon/CxH_vib/H2O_calc/ads_slab/CHNHNH2HO_b/out_0010/pw.inp
Warning: card &CELL ignored
Warning: card   CELL_DYNAMICS='IPI', ignored
Warning: card / ignored

     Current dimensions of program PWSCF are:
     Max number of different atomic species (ntypx) = 10
     Max number of k-points (npk) =  40000
     Max angular momentum in pseudopotentials (lmaxx) =  3
     Presently no symmetry can be used with electric field

     Message from routine cell_base_init:
     DEPRECATED: use true lattice parameter, not A to a.u. conversion factor

     IMPORTANT: XC functional enforced from input :
     Exchange-correlation= BEEF-VDW
                           (   1   4  43  14   2   0   0)
     Any further DFT definition will be discarded
     Please, verify this is what you really want

  @ DRIVER MODE: Connecting to
 qe_1139763_3009830.sched-torque.pace.gatech.edu72if4j33_scratch
  using UNIX socket
  @ DRIVER MODE: Message from server: STATUS
  @ DRIVER MODE: Message from server: INIT
  @ DRIVER MODE: Receiving replica           0          -1
  @ DRIVER MODE: Receiving encoded integer          25
  @ DRIVER MODE:  SCF:  T  FORCE:  T  STRESS:  F  VC:  F  ENSEMBLE:  F
  @ DRIVER MODE:  SCF:  T  FORCE:  T  STRESS:  F  VC:  F  ENSEMBLE:  F

     Using Slab Decomposition

     bravais-lattice index     =            0
     lattice parameter (alat)  =       1.8897  a.u.
     unit-cell volume          =    6658.9804 (a.u.)^3
     number of atoms/cell      =           56
     number of atomic types    =            5
     number of electrons       =       403.00
     number of Kohn-Sham states=          211
     kinetic-energy cutoff     =      29.3995  Ry
     charge density cutoff     =     293.9946  Ry
     scf convergence threshold =      7.3E-08
     mixing beta               =       0.0500
     number of iterations used =            8  plain     mixing
     Exchange-correlation= BEEF-VDW
                           (   1   4  43  14   2   0   0)

     celldm(1)=   1.889726  celldm(2)=   0.000000  celldm(3)=   0.000000
     celldm(4)=   0.000000  celldm(5)=   0.000000  celldm(6)=   0.000000

     crystal axes: (cart. coord. in units of alat)
               a(1) = (   6.579727   0.000000   0.000000 )
               a(2) = (  -0.000775   5.961596   0.000000 )
               a(3) = (   0.000000   0.000000  25.155947 )

     reciprocal axes: (cart. coord. in units 2 pi/alat)
               b(1) = (  0.151982  0.000020  0.000000 )
               b(2) = (  0.000000  0.167740  0.000000 )
               b(3) = (  0.000000  0.000000  0.039752 )

     PseudoPot. # 1 for Ti read from file:
     /storage/coda1/p-amedford6/0/shared/rich_project_chbe-medford/medford-share/data/pseudos_module/espresso/nninc/pbe/van/Ti.UPF
     MD5 check sum: 8e4df49b7f0d34bbd5052bf3f5ea0213
     Pseudo is Ultrasoft, Zval = 12.0
     Generated by new atomic code, or converted to UPF format
     Using radial grid of  851 points,  6 beta functions with:
                l(1) =   0
                l(2) =   0
                l(3) =   1
                l(4) =   1
                l(5) =   2
                l(6) =   2
     Q(r) pseudized with  8 coefficients,  rinner =    1.000   1.000   1.000
                                                       1.000   1.000

     PseudoPot. # 2 for O  read from file:
     /storage/coda1/p-amedford6/0/shared/rich_project_chbe-medford/medford-share/data/pseudos_module/espresso/nninc/pbe/van/O.UPF
     MD5 check sum: 78c19812648e8988a0fe644b0f25305e
     Pseudo is Ultrasoft, Zval =  6.0
     Generated by new atomic code, or converted to UPF format
     Using radial grid of  737 points,  4 beta functions with:
                l(1) =   0
                l(2) =   0
                l(3) =   1
                l(4) =   1
     Q(r) pseudized with  8 coefficients,  rinner =    0.800   0.800   0.800

     PseudoPot. # 3 for N  read from file:
     /storage/coda1/p-amedford6/0/shared/rich_project_chbe-medford/medford-share/data/pseudos_module/espresso/nninc/pbe/van/N.UPF
     MD5 check sum: 90d10febe142ad51ac9d5be1deb811c4
     Pseudo is Ultrasoft, Zval =  5.0
     Generated by new atomic code, or converted to UPF format
     Using radial grid of  729 points,  4 beta functions with:
                l(1) =   0
                l(2) =   0
                l(3) =   1
                l(4) =   1
     Q(r) pseudized with  8 coefficients,  rinner =    0.800   0.800   0.800

     PseudoPot. # 4 for C  read from file:
     /storage/coda1/p-amedford6/0/shared/rich_project_chbe-medford/medford-share/data/pseudos_module/espresso/nninc/pbe/van/C.UPF
     MD5 check sum: 1a69bf6b8db32088f5b2163dbdb77a27
     Pseudo is Ultrasoft, Zval =  4.0
     Generated by new atomic code, or converted to UPF format
     Using radial grid of  721 points,  4 beta functions with:
                l(1) =   0
                l(2) =   0
                l(3) =   1
                l(4) =   1
     Q(r) pseudized with  8 coefficients,  rinner =    0.800   0.800   0.800

     PseudoPot. # 5 for H  read from file:
     /storage/coda1/p-amedford6/0/shared/rich_project_chbe-medford/medford-share/data/pseudos_module/espresso/nninc/pbe/van/H.UPF
     MD5 check sum: b5ee9d7bfd3a09ee7748110bda690ff7
     Pseudo is Ultrasoft, Zval =  1.0
     Generated by new atomic code, or converted to UPF format
     Using radial grid of  615 points,  1 beta functions with:
                l(1) =   0
     Q(r) pseudized with  8 coefficients,  rinner =    0.800

     atomic species   valence    mass     pseudopotential
        Ti1           12.00    47.86700     Ti( 1.00)
        O1             6.00    15.99900     O ( 1.00)
        N1             5.00    14.00700     N ( 1.00)
        C1             4.00    12.01100     C ( 1.00)
        H1             1.00     1.00800     H ( 1.00)

     No symmetry found

   Cartesian axes

     site n.     atom                  positions (alat units)
         1           Ti1 tau(   1) = (   0.0004258   2.9801865   6.0000000  )
         2           Ti1 tau(   2) = (   3.2906075   1.4906267   6.0002472  )
         3           O1  tau(   3) = (   0.0006271   0.0005054   7.9858123  )
         4           O1  tau(   4) = (   3.2906025   0.0005020   7.3038282  )
         5           O1  tau(   5) = (   4.5942328   1.4918067   9.2879030  )
         6           O1  tau(   6) = (   1.9868534   1.4903216   9.2879459  )
         7           Ti1 tau(   7) = (   3.2907910   2.8959150   9.1758416  )
         8           Ti1 tau(   8) = (   0.0015273   1.4827037   9.2680791  )
         9           O1  tau(   9) = (   3.2982983   0.0405180  11.3424948  )
        10           O1  tau(  10) = (   0.0116148   5.9584955  10.6183126  )
        11           O1  tau(  11) = (   1.2753745   1.5072422  12.7016807  )
        12           O1  tau(  12) = (   5.3195175   1.5181342  12.6954276  )
        13           Ti1 tau(  13) = (   0.0019584   2.9687762  12.4995492  )
        14           Ti1 tau(  14) = (   3.3051642   1.5697923  12.4614731  )
        15           O1  tau(  15) = (   6.5474216   5.8614089  14.6874354  )
        16           O1  tau(  16) = (   3.3077571   5.9224049  13.9445013  )
        17           O1  tau(  17) = (   4.5645563   1.5748115  16.1270233  )
        18           O1  tau(  18) = (   2.0342606   1.5395256  16.0843959  )
        19           Ti1 tau(  19) = (   3.2752269   2.9899004  15.7194909  )
        20           Ti1 tau(  20) = (   6.5310352   1.3332667  15.7916221  )
        21           O1  tau(  21) = (   3.2904802   0.0005063   4.7018136  )
        22           O1  tau(  22) = (   0.0193913   0.2006272  17.2172921  )
        23           O1  tau(  23) = (   1.3043587   1.4918075   6.0039043  )
        24           O1  tau(  24) = (   5.2767064   1.4903225   6.0039473  )
        25           Ti1 tau(  25) = (   0.0000382   5.9609847   6.0000000  )
        26           Ti1 tau(  26) = (   3.2902200   4.4714249   6.0002472  )
        27           O1  tau(  27) = (   0.0002396   2.9813036   7.9858123  )
        28           O1  tau(  28) = (   3.2902150   2.9813002   7.3038282  )
        29           O1  tau(  29) = (   4.5938453   4.4726049   9.2879030  )
        30           O1  tau(  30) = (   1.9864658   4.4711199   9.2879459  )
        31           Ti1 tau(  31) = (   3.2891106   5.8743827   9.1763621  )
        32           Ti1 tau(  32) = (   0.0006254   4.4649316   9.2693709  )
        33           O1  tau(  33) = (   3.2939295   2.9453814  11.3217152  )
        34           O1  tau(  34) = (   0.0092240   2.9805883  10.6323155  )
        35           O1  tau(  35) = (   1.2781447   4.4822909  12.6561401  )
        36           O1  tau(  36) = (   5.3212068   4.4743896  12.6463055  )
        37           Ti1 tau(  37) = (   0.0302233   5.9315785  12.5023592  )
        38           Ti1 tau(  38) = (   3.3112215   4.6713144  12.7097751  )
        39           O1  tau(  39) = (   0.0192075   3.0624537  14.9697097  )
        40           O1  tau(  40) = (   3.2993887   3.0147307  13.9488589  )
        41           O1  tau(  41) = (   4.5718800   4.4489939  16.2708329  )
        42           O1  tau(  42) = (   2.0246426   4.4466800  16.2581844  )
        43           Ti1 tau(  43) = (   3.2612680   0.0306108  16.4716933  )
        44           Ti1 tau(  44) = (   6.5506247   4.5497786  16.0606151  )
        45           O1  tau(  45) = (   3.2900926   2.9813045   4.7018136  )
        46           O1  tau(  46) = (   1.3039711   4.4726057   6.0039043  )
        47           O1  tau(  47) = (   5.2763189   4.4711207   6.0039473  )
        48           N1  tau(  48) = (   0.9981237   2.4704741  18.7333368  )
        49           N1  tau(  49) = (   6.5532285   3.4332418  18.2716252  )
        50           C1  tau(  50) = (   2.1690532   2.7243113  19.1879583  )
        51           H1  tau(  51) = (   2.3212509   3.8010200  19.3435938  )
        52           H1  tau(  52) = (   0.7222050   1.5235952  18.4365492  )
        53           H1  tau(  53) = (   0.1086806   4.2950834  18.7847415  )
        54           H1  tau(  54) = (   5.6367167   3.0457734  18.5222562  )
        55           O1  tau(  55) = (   3.2473456   0.1866190  18.2687603  )
        56           H1  tau(  56) = (   3.0571027   1.0491837  18.7494863  )

     number of k points=    10  Fermi-Dirac smearing, width (Ry)=  0.0073
                       cart. coord. in units 2pi/alat
        k(    1) = (   0.0000000   0.0000000   0.0000000), wk =   0.1250000
        k(    2) = (   0.0000000   0.0419351   0.0000000), wk =   0.2500000
        k(    3) = (   0.0000000  -0.0838702   0.0000000), wk =   0.1250000
        k(    4) = (   0.0379955   0.0000049   0.0000000), wk =   0.2500000
        k(    5) = (   0.0379955   0.0419400   0.0000000), wk =   0.2500000
        k(    6) = (   0.0379955  -0.0838652   0.0000000), wk =   0.2500000
        k(    7) = (   0.0379955  -0.0419301   0.0000000), wk =   0.2500000
        k(    8) = (  -0.0759910  -0.0000099   0.0000000), wk =   0.1250000
        k(    9) = (  -0.0759910   0.0419252   0.0000000), wk =   0.2500000
        k(   10) = (  -0.0759910  -0.0838800   0.0000000), wk =   0.1250000

     Initial potential from superposition of free atoms

     starting charge  386.99914, renormalised to  403.00000

     negative rho (up, down):  1.628E-02 0.000E+00

     %%%%%%%%%%%%%%%%%%%%%%%%%%%%%%%%%%%%%%%%%%%%%%%%%%%%%%%%%%%%%%%%%%%%%%%%
     %                                                                      %
     % You are using vdW-DF, which was implemented by the Thonhauser group. %
     % Please cite the following two papers that made this development      %
     % possible and the two reviews that describe the various versions:     %
     %                                                                      %
     %   T. Thonhauser et al., PRL 115, 136402 (2015).                      %
     %   T. Thonhauser et al., PRB 76, 125112 (2007).                       %
     %   K. Berland et al., Rep. Prog. Phys. 78, 066501 (2015).             %
     %   D.C. Langreth et al., J. Phys.: Condens. Matter 21, 084203 (2009). %
     %                                                                      %
     %                                                                      %
     % If you are calculating the stress with vdW-DF, please also cite:     %
     %                                                                      %
     %   R. Sabatini et al., J. Phys.: Condens. Matter 24, 424209 (2012).   %
     %                                                                      %
     %%%%%%%%%%%%%%%%%%%%%%%%%%%%%%%%%%%%%%%%%%%%%%%%%%%%%%%%%%%%%%%%%%%%%%%%

     Adding external electric field

     Computed dipole along edir(3) :
        Dipole              -13.0968 Ry au,        -33.2887 Debye
        Dipole field         -0.0247 Ry au,

        Potential amp.        2.2911 Ry
        Total length         46.3494 bohr

     Starting wfcs are  305 atomic wfcs
  @ DRIVER MODE: Message from server: STATUS
  @ DRIVER MODE: Message from server: POSDATA
  @ DRIVER MODE: Reading and sharing cell
  @ DRIVER MODE: Reading and sharing positions
  @ DRIVER MODE: Received positions

     Self-consistent Calculation

     iteration #  1     ecut=    29.40 Ry     beta= 0.05
     Davidson diagonalization with overlap
     c_bands:  5 eigenvalues not converged
     c_bands:  2 eigenvalues not converged
     c_bands:  1 eigenvalues not converged
     c_bands:  1 eigenvalues not converged
     c_bands:  4 eigenvalues not converged
     c_bands:  1 eigenvalues not converged
     ethr =  1.00E-05,  avg # of iterations = 28.5

[...]

     total energy              =   -2288.77662157 Ry
     estimated scf accuracy    <    7754.80676624 Ry

     iteration #  2     ecut=    29.40 Ry     beta= 0.05
     Davidson diagonalization with overlap
     ethr =  1.00E-02,  avg # of iterations = 26.2

[...]

     iteration # 51     ecut=    29.40 Ry     beta= 0.05
     Davidson diagonalization with overlap
     c_bands:  1 eigenvalues not converged
     c_bands:  1 eigenvalues not converged
     ethr =  1.21E-07,  avg # of iterations = 16.6

[...]

     total energy              =   -2973.89785214 Ry
     estimated scf accuracy    <       0.00000010 Ry

     iteration # 66     ecut=    29.40 Ry     beta= 0.05
     Davidson diagonalization with overlap
     ethr =  2.32E-11,  avg # of iterations =  9.0

     negative rho (up, down):  1.612E-02 0.000E+00

     Adding external electric field

     Computed dipole along edir(3) :
        Dipole                0.8550 Ry au,          2.1731 Debye
        Dipole field          0.0016 Ry au,

        Potential amp.       -0.1496 Ry
        Total length         46.3494 bohr

     End of self-consistent calculation

          k = 0.0000 0.0000 0.0000 ( 18029 PWs)   bands (ev):

   -55.6407 -55.6368 -55.6028 -55.5660 -55.4871 -55.4648 -55.4450 -55.4412
   -55.4308 -55.3882 -55.3459 -55.2880 -55.2098 -55.0646 -54.5999 -54.5659
   -32.1212 -32.0941 -31.9755 -31.9695 -31.9683 -31.9274 -31.9036 -31.8828
   -31.8761 -31.8616 -31.8417 -31.8293 -31.7896 -31.7597 -31.7453 -31.7432
   -31.7386 -31.7250 -31.7043 -31.7001 -31.6947 -31.6684 -31.6629 -31.6501
   -31.6394 -31.6379 -31.6158 -31.6069 -31.5920 -31.5878 -31.5824 -31.5710
   -31.5597 -31.5430 -31.4997 -31.4918 -31.4886 -31.4736 -31.4098 -31.3241
   -31.2901 -31.2822 -31.0050 -30.9207 -30.8982 -30.8230 -30.7367 -30.6245
   -18.6607 -16.3055 -16.2523 -16.1098 -15.8866 -15.7996 -15.7683 -15.6073
   -15.4809 -15.4391 -15.3156 -15.1690 -15.1389 -15.1311 -15.1252 -15.1165
   -15.0988 -15.0711 -15.0578 -15.0530 -15.0395 -14.9752 -14.9567 -14.9275
   -14.8478 -14.7956 -14.7677 -14.6975 -14.6546 -14.5513 -14.5291 -14.2699
   -13.0976 -12.9814  -9.5808  -6.8528  -5.9024  -4.3063  -4.0976  -3.8291
    -3.6236  -3.5355  -3.5123  -3.4039  -3.3119  -3.0834  -3.0610  -2.9907
    -2.8393  -2.7462  -2.6614  -2.6344  -2.5932  -2.5396  -2.5256  -2.4829
    -2.4168  -2.3855  -2.3438  -2.3317  -2.2827  -2.2746  -2.2282  -2.1508
    -2.1441  -2.0385  -1.9705  -1.9661  -1.9511  -1.9426  -1.8932  -1.8776
    -1.8699  -1.7996  -1.7447  -1.7099  -1.6446  -1.6179  -1.5465  -1.3041
    -1.2232  -1.2107  -1.1492  -1.0678  -1.0376  -1.0235  -1.0123  -0.9872
    -0.9595  -0.8722  -0.8446  -0.7041  -0.6980  -0.6659  -0.6383  -0.6068
    -0.4932  -0.4296  -0.4060  -0.3607  -0.3395  -0.2996  -0.2370  -0.2180
    -0.1386  -0.0949  -0.0154  -0.0135   0.0124   0.0831   0.1427   0.1771
     0.1928   0.2935   0.3084   0.3371   0.3439   0.3664   0.3928   0.4859
     0.5037   0.5454   0.5682   0.7097   0.7204   0.7724   0.9157   0.9463
     1.0487   1.1465   1.3654   1.3871   1.4274   1.4543   1.6235   1.9923
     2.0371   3.4426   3.6019   3.6150   3.7114   3.7243   3.8014   3.9371
     4.0314   4.1035   4.1367

[...]

          k = 0.0380-0.0419 0.0000 ( 17876 PWs)   bands (ev):

[...]

          k =-0.0760-0.0000 0.0000 ( 17886 PWs)   bands (ev):

[...]

          k =-0.0760-0.0839 0.0000 ( 17948 PWs)   bands (ev):

   -55.6398 -55.6198 -55.6197 -55.5648 -55.4789 -55.4504 -55.4484 -55.4458
   -55.4456 -55.3799 -55.3543 -55.2891 -55.2079 -55.0664 -54.5829 -54.5828
   -32.0188 -31.9365 -31.9365 -31.9298 -31.9130 -31.9128 -31.9041 -31.8422
   -31.8165 -31.8070 -31.7976 -31.7818 -31.7764 -31.7597 -31.7583 -31.7399
   -31.7399 -31.7300 -31.7287 -31.7175 -31.7167 -31.7027 -31.6916 -31.6852
   -31.6492 -31.6455 -31.6445 -31.6384 -31.6236 -31.6210 -31.6133 -31.6008
   -31.5843 -31.5785 -31.5673 -31.5644 -31.4935 -31.4650 -31.4133 -31.4053
   -31.3288 -31.2855 -30.9109 -30.9109 -30.8182 -30.8177 -30.7800 -30.7797
   -18.6544 -16.2589 -15.9384 -15.6333 -15.6324 -15.6123 -15.4537 -15.4198
   -15.3878 -15.3582 -15.3083 -15.3025 -15.2769 -15.2418 -15.2287 -15.1752
   -15.1510 -15.1340 -15.1155 -15.0966 -15.0770 -15.0484 -15.0377 -15.0362
   -14.9568 -14.9477 -14.9329 -14.9251 -14.8511 -14.6360 -14.4978 -14.4278
   -13.0833 -13.0833  -9.5681  -6.8465  -5.8659  -4.4898  -3.9510  -3.7600
    -3.0655  -2.8675  -2.8380  -2.7106  -2.6778  -2.6543  -2.5897  -2.5489
    -2.5476  -2.4708  -2.4581  -2.4129  -2.4087  -2.3640  -2.3616  -2.3338
    -2.3249  -2.3113  -2.3019  -2.2949  -2.2461  -2.2201  -2.2169  -2.2044
    -2.1810  -2.1671  -2.1432  -2.1267  -2.0669  -1.9916  -1.8793  -1.8568
    -1.7974  -1.7626  -1.7482  -1.7290  -1.7070  -1.6797  -1.6610  -1.5645
    -1.4809  -1.4201  -1.3186  -1.2324  -1.2110  -1.1579  -1.1498  -1.1070
    -1.0843  -1.0643  -1.0279  -0.9602  -0.8496  -0.8386  -0.7702  -0.6840
    -0.6461  -0.5770  -0.5745  -0.5681  -0.5524  -0.5287  -0.5094  -0.4652
    -0.4551  -0.3634  -0.3394  -0.3322  -0.3139  -0.2858  -0.1496  -0.1119
    -0.0614   0.1384   0.1449   0.1733   0.2809   0.3709   0.4368   0.4467
     0.5038   0.5524   0.5866   0.6262   0.6819   0.7057   0.7716   0.8812
     0.8875   0.9064   0.9482   1.0095   1.2400   1.7925   1.7993   1.8575
     1.8577   3.6570   3.8516   3.9663   3.9720   3.9871   4.0285   4.0369
     4.0512   4.1117   4.1194

     the Fermi energy is     3.4832 ev

!    total energy              =   -2973.89787967 Ry
     estimated scf accuracy    <       0.00000006 Ry
     smearing contrib. (-TS)   =      -0.01933710 Ry
     internal energy E=F+TS    =   -2973.87854257 Ry

     The total energy is F=E-TS. E is the sum of the following terms:
     one-electron contribution =  -23221.58945299 Ry
     hartree contribution      =   11705.22379875 Ry
     xc contribution           =    -493.95539669 Ry
     ewald contribution        =    9036.44112897 Ry
     electric field correction =       0.00137939 Ry

     convergence has been achieved in  66 iterations

     Forces acting on atoms (cartesian axes, Ry/au):

     atom    1 type  1   force =     0.00007155   -0.00020132    0.09417836
     atom    2 type  1   force =    -0.00016308    0.00003777   -0.17483230
     atom    3 type  2   force =     0.00003091   -0.00050152   -0.02069571
     atom    4 type  2   force =     0.00004369   -0.00070906    0.05229566
     atom    5 type  2   force =    -0.00299426   -0.00196823    0.00013290
     atom    6 type  2   force =     0.00463075   -0.00150345   -0.00032348
     atom    7 type  1   force =    -0.00019312    0.00281756    0.01406067
     atom    8 type  1   force =    -0.00012257   -0.00121962   -0.00060248
     atom    9 type  2   force =     0.00005302   -0.00010439   -0.00008539
     atom   10 type  2   force =    -0.00139909    0.00346851   -0.00729718
     atom   11 type  2   force =    -0.00018789    0.00025478    0.00021206
     atom   12 type  2   force =     0.00037512    0.00039696    0.00062037
     atom   13 type  1   force =    -0.00042694    0.00057155   -0.00031229
     atom   14 type  1   force =     0.00000126   -0.00008451    0.00069106
     atom   15 type  2   force =     0.00038117    0.00110448    0.00059563
     atom   16 type  2   force =    -0.00009329   -0.00077523    0.00092863
     atom   17 type  2   force =     0.00059428   -0.00023455   -0.00005474
     atom   18 type  2   force =     0.00027720   -0.00011035   -0.00021540
     atom   19 type  1   force =     0.00001289    0.00013215   -0.00062356
     atom   20 type  1   force =    -0.00023622   -0.00057907   -0.00066083
     atom   21 type  2   force =     0.00007008   -0.00000095    0.10300192
     atom   22 type  2   force =     0.00040646    0.00081218   -0.00007973
     atom   23 type  2   force =    -0.07236590   -0.00018349   -0.02723998
     atom   24 type  2   force =     0.07231099    0.00026279   -0.02728907
     atom   25 type  1   force =     0.00006383   -0.00031517    0.09363488
     atom   26 type  1   force =    -0.00006343   -0.00116111   -0.17494137
     atom   27 type  2   force =     0.00017346   -0.00002320   -0.01956687
     atom   28 type  2   force =     0.00003287   -0.00104365    0.04857602
     atom   29 type  2   force =    -0.00593989    0.00105664    0.00313043
     atom   30 type  2   force =     0.00742425    0.00157191    0.00263080
     atom   31 type  1   force =     0.00004737    0.00142133    0.00265809
     atom   32 type  1   force =     0.00006903    0.00066767   -0.00039460
     atom   33 type  2   force =    -0.00016784   -0.00010879   -0.00050443
     atom   34 type  2   force =    -0.00061439   -0.00196989   -0.01091363
     atom   35 type  2   force =     0.00023391   -0.00040568   -0.00012934
     atom   36 type  2   force =    -0.00003421   -0.00026387   -0.00019638
     atom   37 type  1   force =    -0.00026257   -0.00038020   -0.00050799
     atom   38 type  1   force =     0.00025903    0.00022390    0.00031868
     atom   39 type  2   force =    -0.00036592   -0.00122354   -0.00018625
     atom   40 type  2   force =    -0.00012998    0.00034934    0.00083607
     atom   41 type  2   force =    -0.00099028    0.00016349    0.00018052
     atom   42 type  2   force =     0.00046903   -0.00045730   -0.00010369
     atom   43 type  1   force =    -0.00032128    0.00050364   -0.00018262
     atom   44 type  1   force =     0.00009558   -0.00123182    0.00032108
     atom   45 type  2   force =     0.00006717    0.00005623    0.10284799
     atom   46 type  2   force =    -0.07232302   -0.00006075   -0.02719409
     atom   47 type  2   force =     0.07223320    0.00038914   -0.02722663
     atom   48 type  3   force =     0.00005348    0.00496468    0.00017615
     atom   49 type  3   force =    -0.00564324   -0.02041438   -0.00459565
     atom   50 type  4   force =    -0.00057219   -0.00004475    0.00029047
     atom   51 type  5   force =    -0.00000843   -0.00129115    0.00024890
     atom   52 type  5   force =    -0.00124982    0.00209580   -0.00005753
     atom   53 type  5   force =     0.00172837    0.01079848    0.00684161
     atom   54 type  5   force =     0.00474688    0.00506806   -0.00127064
     atom   55 type  2   force =     0.00030091    0.00051035   -0.00015305
     atom   56 type  5   force =    -0.00038889   -0.00112838   -0.00097205

     Total force =     0.362046     Total SCF correction =     0.000635
  @ DRIVER MODE: Message from server: STATUS
  @ DRIVER MODE: Message from server: GETFORCE
  @ DRIVER MODE: Returning v,forces,stress,ensemble

     Writing output data file ./calc.save/
  @ DRIVER MODE: Message from server: EXIT
  @ DRIVE MODE: Exiting

     General routines

     Parallel routines

   This run was terminated on:  15: 9:48  28Sep2021

   JOB DONE.