     Program PWSCF v.6.7GPU starts on 22Sep2021 at 23:14:16

     R & G space division:  proc/nbgrp/npool/nimage =       8
     Reading input from /storage/home/hcoda1/3/ntian30/research/carbon/CxH_vib/H2O_calc/ads_slab/CH3N2HO_c/out_0003/pw.inp
Warning: card &CELL ignored
Warning: card   CELL_DYNAMICS='IPI', ignored
Warning: card / ignored

     Current dimensions of program PWSCF are:
     Max number of different atomic species (ntypx) = 10
     Max number of k-points (npk) =  40000
     Max angular momentum in pseudopotentials (lmaxx) =  3
     Presently no symmetry can be used with electric field

     Message from routine cell_base_init:
     DEPRECATED: use true lattice parameter, not A to a.u. conversion factor

     IMPORTANT: XC functional enforced from input :
     Exchange-correlation= BEEF-VDW
                           (   1   4  43  14   2   0   0)
     Any further DFT definition will be discarded
     Please, verify this is what you really want

  @ DRIVER MODE: Connecting to
 qe_1139763_2941007.sched-torque.pace.gatech.eduswucy__w_scratch
  using UNIX socket
  @ DRIVER MODE: Message from server: STATUS
  @ DRIVER MODE: Message from server: INIT
  @ DRIVER MODE: Receiving replica           0          -1
  @ DRIVER MODE: Receiving encoded integer          25
  @ DRIVER MODE:  SCF:  T  FORCE:  T  STRESS:  F  VC:  F  ENSEMBLE:  F
  @ DRIVER MODE:  SCF:  T  FORCE:  T  STRESS:  F  VC:  F  ENSEMBLE:  F

     Using Slab Decomposition

     bravais-lattice index     =            0
     lattice parameter (alat)  =       1.8897  a.u.
     unit-cell volume          =    6658.9804 (a.u.)^3
     number of atoms/cell      =           55
     number of atomic types    =            5
     number of electrons       =       402.00
     number of Kohn-Sham states=          211
     kinetic-energy cutoff     =      29.3995  Ry
     charge density cutoff     =     293.9946  Ry
     scf convergence threshold =      7.3E-08
     mixing beta               =       0.0500
     number of iterations used =            8  plain     mixing
     Exchange-correlation= BEEF-VDW
                           (   1   4  43  14   2   0   0)

     celldm(1)=   1.889726  celldm(2)=   0.000000  celldm(3)=   0.000000
     celldm(4)=   0.000000  celldm(5)=   0.000000  celldm(6)=   0.000000

     crystal axes: (cart. coord. in units of alat)
               a(1) = (   6.579727   0.000000   0.000000 )
               a(2) = (  -0.000775   5.961596   0.000000 )
               a(3) = (   0.000000   0.000000  25.155947 )

     reciprocal axes: (cart. coord. in units 2 pi/alat)
               b(1) = (  0.151982  0.000020  0.000000 )
               b(2) = (  0.000000  0.167740  0.000000 )
               b(3) = (  0.000000  0.000000  0.039752 )

     PseudoPot. # 1 for Ti read from file:
     /storage/coda1/p-amedford6/0/shared/rich_project_chbe-medford/medford-share/data/pseudos_module/espresso/nninc/pbe/van/Ti.UPF
     MD5 check sum: 8e4df49b7f0d34bbd5052bf3f5ea0213
     Pseudo is Ultrasoft, Zval = 12.0
     Generated by new atomic code, or converted to UPF format
     Using radial grid of  851 points,  6 beta functions with:
                l(1) =   0
                l(2) =   0
                l(3) =   1
                l(4) =   1
                l(5) =   2
                l(6) =   2
     Q(r) pseudized with  8 coefficients,  rinner =    1.000   1.000   1.000
                                                       1.000   1.000

     PseudoPot. # 2 for O  read from file:
     /storage/coda1/p-amedford6/0/shared/rich_project_chbe-medford/medford-share/data/pseudos_module/espresso/nninc/pbe/van/O.UPF
     MD5 check sum: 78c19812648e8988a0fe644b0f25305e
     Pseudo is Ultrasoft, Zval =  6.0
     Generated by new atomic code, or converted to UPF format
     Using radial grid of  737 points,  4 beta functions with:
                l(1) =   0
                l(2) =   0
                l(3) =   1
                l(4) =   1
     Q(r) pseudized with  8 coefficients,  rinner =    0.800   0.800   0.800

     PseudoPot. # 3 for N  read from file:
     /storage/coda1/p-amedford6/0/shared/rich_project_chbe-medford/medford-share/data/pseudos_module/espresso/nninc/pbe/van/N.UPF
     MD5 check sum: 90d10febe142ad51ac9d5be1deb811c4
     Pseudo is Ultrasoft, Zval =  5.0
     Generated by new atomic code, or converted to UPF format
     Using radial grid of  729 points,  4 beta functions with:
                l(1) =   0
                l(2) =   0
                l(3) =   1
                l(4) =   1
     Q(r) pseudized with  8 coefficients,  rinner =    0.800   0.800   0.800

     PseudoPot. # 4 for C  read from file:
     /storage/coda1/p-amedford6/0/shared/rich_project_chbe-medford/medford-share/data/pseudos_module/espresso/nninc/pbe/van/C.UPF
     MD5 check sum: 1a69bf6b8db32088f5b2163dbdb77a27
     Pseudo is Ultrasoft, Zval =  4.0
     Generated by new atomic code, or converted to UPF format
     Using radial grid of  721 points,  4 beta functions with:
                l(1) =   0
                l(2) =   0
                l(3) =   1
                l(4) =   1
     Q(r) pseudized with  8 coefficients,  rinner =    0.800   0.800   0.800

     PseudoPot. # 5 for H  read from file:
     /storage/coda1/p-amedford6/0/shared/rich_project_chbe-medford/medford-share/data/pseudos_module/espresso/nninc/pbe/van/H.UPF
     MD5 check sum: b5ee9d7bfd3a09ee7748110bda690ff7
     Pseudo is Ultrasoft, Zval =  1.0
     Generated by new atomic code, or converted to UPF format
     Using radial grid of  615 points,  1 beta functions with:
                l(1) =   0
     Q(r) pseudized with  8 coefficients,  rinner =    0.800

     atomic species   valence    mass     pseudopotential
        Ti1           12.00    47.86700     Ti( 1.00)
        O1             6.00    15.99900     O ( 1.00)
        N1             5.00    14.00700     N ( 1.00)
        C1             4.00    12.01100     C ( 1.00)
        H1             1.00     1.00800     H ( 1.00)

     No symmetry found

   Cartesian axes

     site n.     atom                  positions (alat units)
         1           Ti1 tau(   1) = (   0.0004258   2.9801865   6.0000000  )
         2           Ti1 tau(   2) = (   3.2906075   1.4906267   6.0002472  )
         3           O1  tau(   3) = (   0.0006271   0.0005054   7.9858123  )
         4           O1  tau(   4) = (   3.2906025   0.0005020   7.3038282  )
         5           O1  tau(   5) = (   4.5942328   1.4918067   9.2879030  )
         6           O1  tau(   6) = (   1.9868534   1.4903216   9.2879459  )
         7           Ti1 tau(   7) = (   3.2907910   2.8959150   9.1758416  )
         8           Ti1 tau(   8) = (   0.0015273   1.4827037   9.2680791  )
         9           O1  tau(   9) = (   3.2989311   0.0219330  11.3020621  )
        10           O1  tau(  10) = (   0.0116148   5.9584955  10.6183126  )
        11           O1  tau(  11) = (   1.3029919   1.4976758  12.6257209  )
        12           O1  tau(  12) = (   5.3026591   1.4951023  12.6306759  )
        13           Ti1 tau(  13) = (   0.0286689   2.8598525  12.6759356  )
        14           Ti1 tau(  14) = (   3.3054201   1.5706400  12.4108957  )
        15           O1  tau(  15) = (   0.0066217   5.9386728  14.6456674  )
        16           O1  tau(  16) = (   3.2936494   5.9217248  13.9190535  )
        17           O1  tau(  17) = (   4.5783085   1.5227378  16.0725395  )
        18           O1  tau(  18) = (   2.0661487   1.5008106  16.0935948  )
        19           Ti1 tau(  19) = (   3.3004316   2.9577776  15.6622982  )
        20           Ti1 tau(  20) = (   6.5114840   1.4532315  15.8500040  )
        21           O1  tau(  21) = (   3.2904802   0.0005063   4.7018136  )
        22           O1  tau(  22) = (   0.0101108   5.9483577  17.1703567  )
        23           O1  tau(  23) = (   1.3043587   1.4918075   6.0039043  )
        24           O1  tau(  24) = (   5.2767064   1.4903225   6.0039473  )
        25           Ti1 tau(  25) = (   0.0000382   5.9609847   6.0000000  )
        26           Ti1 tau(  26) = (   3.2902200   4.4714249   6.0002472  )
        27           O1  tau(  27) = (   0.0002396   2.9813036   7.9858123  )
        28           O1  tau(  28) = (   3.2902150   2.9813002   7.3038282  )
        29           O1  tau(  29) = (   4.5938453   4.4726049   9.2879030  )
        30           O1  tau(  30) = (   1.9864658   4.4711199   9.2879459  )
        31           Ti1 tau(  31) = (   3.2891106   5.8743827   9.1763621  )
        32           Ti1 tau(  32) = (   0.0006254   4.4649316   9.2693709  )
        33           O1  tau(  33) = (   3.2985377   2.9527140  11.2683515  )
        34           O1  tau(  34) = (   0.0092240   2.9805883  10.6323155  )
        35           O1  tau(  35) = (   1.2869011   4.4751273  12.6337776  )
        36           O1  tau(  36) = (   5.3033013   4.4751711  12.6363117  )
        37           Ti1 tau(  37) = (   6.5677423   5.8343599  12.5653580  )
        38           Ti1 tau(  38) = (   3.2861748   4.6640272  12.6826305  )
        39           O1  tau(  39) = (   0.0268303   2.9326313  14.6927244  )
        40           O1  tau(  40) = (   3.2973518   2.9805258  13.8830516  )
        41           O1  tau(  41) = (   4.5656241   4.3944478  16.1024780  )
        42           O1  tau(  42) = (   2.0389263   4.3990843  16.1000718  )
        43           Ti1 tau(  43) = (   3.2183859   5.9292641  16.3327267  )
        44           Ti1 tau(  44) = (   6.5399727   4.6159235  16.0325440  )
        45           O1  tau(  45) = (   3.2900926   2.9813045   4.7018136  )
        46           O1  tau(  46) = (   1.3039711   4.4726057   6.0039043  )
        47           O1  tau(  47) = (   5.2763189   4.4711207   6.0039473  )
        48           N1  tau(  48) = (   0.1383159   2.7069024  18.7005470  )
        49           N1  tau(  49) = (   0.0454196   2.8879789  17.5111406  )
        50           C1  tau(  50) = (   0.1807782   3.8735959  19.6428767  )
        51           H1  tau(  51) = (   6.4938760   4.8136915  19.1652781  )
        52           H1  tau(  52) = (   6.0945921   3.6282151  20.4682347  )
        53           H1  tau(  53) = (   1.2016282   3.9139503  20.0277151  )
        54           O1  tau(  54) = (   3.2907091   5.9158944  18.1602194  )
        55           H1  tau(  55) = (   3.1351319   0.7410148  18.7017648  )

     number of k points=    10  Fermi-Dirac smearing, width (Ry)=  0.0073
                       cart. coord. in units 2pi/alat
        k(    1) = (   0.0000000   0.0000000   0.0000000), wk =   0.1250000
        k(    2) = (   0.0000000   0.0419351   0.0000000), wk =   0.2500000
        k(    3) = (   0.0000000  -0.0838702   0.0000000), wk =   0.1250000
        k(    4) = (   0.0379955   0.0000049   0.0000000), wk =   0.2500000
        k(    5) = (   0.0379955   0.0419400   0.0000000), wk =   0.2500000
        k(    6) = (   0.0379955  -0.0838652   0.0000000), wk =   0.2500000
        k(    7) = (   0.0379955  -0.0419301   0.0000000), wk =   0.2500000
        k(    8) = (  -0.0759910  -0.0000099   0.0000000), wk =   0.1250000
        k(    9) = (  -0.0759910   0.0419252   0.0000000), wk =   0.2500000
        k(   10) = (  -0.0759910  -0.0838800   0.0000000), wk =   0.1250000

     Initial potential from superposition of free atoms

     starting charge  385.99915, renormalised to  402.00000

     negative rho (up, down):  1.430E-02 0.000E+00

     %%%%%%%%%%%%%%%%%%%%%%%%%%%%%%%%%%%%%%%%%%%%%%%%%%%%%%%%%%%%%%%%%%%%%%%%
     %                                                                      %
     % You are using vdW-DF, which was implemented by the Thonhauser group. %
     % Please cite the following two papers that made this development      %
     % possible and the two reviews that describe the various versions:     %
     %                                                                      %
     %   T. Thonhauser et al., PRL 115, 136402 (2015).                      %
     %   T. Thonhauser et al., PRB 76, 125112 (2007).                       %
     %   K. Berland et al., Rep. Prog. Phys. 78, 066501 (2015).             %
     %   D.C. Langreth et al., J. Phys.: Condens. Matter 21, 084203 (2009). %
     %                                                                      %
     %                                                                      %
     % If you are calculating the stress with vdW-DF, please also cite:     %
     %                                                                      %
     %   R. Sabatini et al., J. Phys.: Condens. Matter 24, 424209 (2012).   %
     %                                                                      %
     %%%%%%%%%%%%%%%%%%%%%%%%%%%%%%%%%%%%%%%%%%%%%%%%%%%%%%%%%%%%%%%%%%%%%%%%

     Adding external electric field

     Computed dipole along edir(3) :
        Dipole              -12.0462 Ry au,        -30.6184 Debye
        Dipole field         -0.0227 Ry au,

        Potential amp.        2.1073 Ry
        Total length         46.3494 bohr

     Starting wfcs are  304 atomic wfcs
  @ DRIVER MODE: Message from server: STATUS
  @ DRIVER MODE: Message from server: POSDATA
  @ DRIVER MODE: Reading and sharing cell
  @ DRIVER MODE: Reading and sharing positions
  @ DRIVER MODE: Received positions

     Self-consistent Calculation

     iteration #  1     ecut=    29.40 Ry     beta= 0.05
     Davidson diagonalization with overlap
     c_bands:  5 eigenvalues not converged
     c_bands:  3 eigenvalues not converged
     c_bands:  5 eigenvalues not converged
     c_bands:  3 eigenvalues not converged
     c_bands:  3 eigenvalues not converged
     c_bands:  2 eigenvalues not converged
     c_bands:  5 eigenvalues not converged
     c_bands:  5 eigenvalues not converged
     ethr =  1.00E-05,  avg # of iterations = 21.5

[...]

     total energy              =   -2397.72373130 Ry
     estimated scf accuracy    <    6480.66885003 Ry

     iteration #  2     ecut=    29.40 Ry     beta= 0.05
     Davidson diagonalization with overlap
     ethr =  1.00E-02,  avg # of iterations = 22.3

[...]

     iteration # 66     ecut=    29.40 Ry     beta= 0.05
     Davidson diagonalization with overlap
     ethr =  6.19E-11,  avg # of iterations =  2.8

[...]

     total energy              =   -2972.75295034 Ry
     estimated scf accuracy    <       0.00000011 Ry

     iteration # 67     ecut=    29.40 Ry     beta= 0.05
     Davidson diagonalization with overlap
     c_bands:  1 eigenvalues not converged
     ethr =  2.70E-11,  avg # of iterations =  7.3

     negative rho (up, down):  1.492E-02 0.000E+00

     Adding external electric field

     Computed dipole along edir(3) :
        Dipole                0.6398 Ry au,          1.6262 Debye
        Dipole field          0.0012 Ry au,

        Potential amp.       -0.1119 Ry
        Total length         46.3494 bohr

     End of self-consistent calculation

          k = 0.0000 0.0000 0.0000 ( 18029 PWs)   bands (ev):

   -56.2138 -56.1800 -55.7978 -55.7643 -55.5827 -55.5570 -55.5071 -55.3551
   -55.3194 -55.3161 -55.1750 -55.1572 -55.0336 -55.0087 -54.9843 -54.9503
   -32.6641 -32.5062 -32.4792 -32.3723 -32.2883 -32.2797 -32.2774 -32.0410
   -32.0166 -31.9969 -31.9449 -31.9397 -31.9263 -31.9048 -31.8526 -31.8195
   -31.7921 -31.7792 -31.7777 -31.7334 -31.7151 -31.7073 -31.6878 -31.6649
   -31.6430 -31.6312 -31.5608 -31.5347 -31.5275 -31.5260 -31.5052 -31.4716
   -31.4412 -31.4041 -31.3807 -31.3697 -31.3605 -31.3176 -31.2940 -31.2905
   -31.2630 -31.2457 -31.2440 -31.2402 -31.2193 -31.1995 -31.1150 -31.0030
   -18.7677 -16.5063 -16.4389 -16.1699 -15.9593 -15.7882 -15.6998 -15.6916
   -15.6449 -15.5239 -15.5056 -15.3989 -15.3109 -15.2370 -15.2076 -15.1995
   -15.1109 -15.0635 -15.0182 -14.9933 -14.9838 -14.9715 -14.9449 -14.8376
   -14.8330 -14.8020 -14.7054 -14.6868 -14.5881 -14.2887 -14.2747 -13.4820
   -13.3698 -11.3649  -6.8845  -4.3196  -4.1535  -4.0164  -3.9371  -3.9009
    -3.7181  -3.5055  -3.4173  -3.2490  -3.2048  -3.1217  -2.9270  -2.9178
    -2.8647  -2.7928  -2.7154  -2.6562  -2.6105  -2.5939  -2.4942  -2.4604
    -2.4412  -2.4375  -2.3963  -2.3857  -2.2604  -2.2560  -2.2257  -2.1764
    -2.1216  -2.1035  -2.0380  -2.0282  -2.0130  -1.9644  -1.9226  -1.8814
    -1.8028  -1.7857  -1.6551  -1.6344  -1.6246  -1.5433  -1.5251  -1.5186
    -1.4616  -1.3032  -1.2332  -1.1867  -1.1816  -1.0455  -1.0279  -0.9912
    -0.9122  -0.8758  -0.7880  -0.7745  -0.7631  -0.7520  -0.6743  -0.6406
    -0.6207  -0.5956  -0.4146  -0.3827  -0.3189  -0.2735  -0.1728  -0.1290
    -0.1192  -0.1134  -0.0725  -0.0185   0.0057   0.0192   0.1200   0.1469
     0.2029   0.2668   0.3034   0.3761   0.3939   0.3957   0.4085   0.4619
     0.5559   0.6467   0.6882   0.7063   0.7736   0.7895   0.9253   0.9398
     1.0400   1.0826   1.0951   1.1574   1.2713   1.5582   1.5882   1.6274
     2.7463   3.0129   3.1407   3.2986   3.4448   3.5431   3.8430   3.8802
     3.9185   3.9460   3.9891

[...]

          k = 0.0380-0.0419 0.0000 ( 17876 PWs)   bands (ev):

[...]

          k =-0.0760-0.0000 0.0000 ( 17886 PWs)   bands (ev):

[...]

          k =-0.0760-0.0839 0.0000 ( 17948 PWs)   bands (ev):

   -56.1970 -56.1967 -55.7817 -55.7802 -55.5820 -55.5504 -55.5136 -55.3424
   -55.3319 -55.3166 -55.1731 -55.1552 -55.0355 -55.0105 -54.9673 -54.9672
   -32.4918 -32.4916 -32.4802 -32.4800 -32.3245 -32.3240 -32.1020 -32.0984
   -31.9758 -31.9729 -31.9704 -31.9694 -31.8699 -31.8563 -31.8298 -31.8207
   -31.7826 -31.7724 -31.7719 -31.7385 -31.7302 -31.6929 -31.6762 -31.6644
   -31.6065 -31.6012 -31.5811 -31.5645 -31.5485 -31.5482 -31.5279 -31.5120
   -31.4334 -31.4086 -31.3787 -31.3753 -31.3585 -31.3070 -31.3069 -31.3047
   -31.2951 -31.2530 -31.2512 -31.2446 -31.1956 -31.1952 -31.1576 -31.1572
   -18.7649 -16.4297 -15.9148 -15.9058 -15.7797 -15.7748 -15.6000 -15.5865
   -15.5797 -15.5008 -15.4580 -15.4386 -15.2948 -15.2808 -15.2199 -15.1933
   -15.1729 -15.1524 -15.1465 -15.1121 -15.1004 -15.0454 -14.9894 -14.9844
   -14.9260 -14.9184 -14.7601 -14.6992 -14.6537 -14.4999 -14.4100 -13.4731
   -13.4726 -11.3627  -6.8985  -4.2580  -4.1720  -3.9284  -3.8934  -3.0792
    -3.0312  -2.9276  -2.8919  -2.8088  -2.7953  -2.6870  -2.6686  -2.6247
    -2.6078  -2.5987  -2.5517  -2.5061  -2.4943  -2.4733  -2.4469  -2.4277
    -2.4186  -2.3753  -2.3294  -2.3138  -2.3077  -2.2830  -2.1814  -2.1491
    -2.1436  -2.1319  -2.0998  -2.0784  -2.0310  -1.9660  -1.9346  -1.8962
    -1.8835  -1.8086  -1.7448  -1.7011  -1.6737  -1.6164  -1.5563  -1.5313
    -1.4538  -1.4142  -1.3000  -1.2857  -1.2688  -1.2071  -1.1816  -1.1240
    -1.1051  -1.0450  -1.0000  -0.9762  -0.9697  -0.9539  -0.8837  -0.8252
    -0.7115  -0.6681  -0.6515  -0.6228  -0.6148  -0.5886  -0.5519  -0.5133
    -0.4151  -0.4023  -0.3868  -0.3379  -0.3270  -0.2511  -0.1786  -0.0616
     0.0617   0.1360   0.1451   0.1673   0.2029   0.2886   0.3626   0.4035
     0.4513   0.5113   0.5546   0.5970   0.6618   0.8000   0.8539   0.8785
     0.9587   0.9962   1.0679   1.1535   1.4285   1.4393   1.4433   1.4442
     2.7958   3.5622   3.5646   3.5944   3.6053   3.7303   3.8008   3.8184
     3.9447   4.0021   4.0606

     the Fermi energy is     2.9490 ev

!    total energy              =   -2972.75297640 Ry
     estimated scf accuracy    <       0.00000006 Ry
     smearing contrib. (-TS)   =      -0.01279130 Ry
     internal energy E=F+TS    =   -2972.74018510 Ry

     The total energy is F=E-TS. E is the sum of the following terms:
     one-electron contribution =  -23538.27678591 Ry
     hartree contribution      =   11862.68873714 Ry
     xc contribution           =    -493.06270383 Ry
     ewald contribution        =    9195.90979507 Ry
     electric field correction =       0.00077243 Ry

     convergence has been achieved in  67 iterations

     Forces acting on atoms (cartesian axes, Ry/au):

     atom    1 type  1   force =     0.00007694   -0.00036838    0.10687941
     atom    2 type  1   force =    -0.00013339    0.00016496   -0.16540494
     atom    3 type  2   force =     0.00006856   -0.00044966   -0.03898873
     atom    4 type  2   force =     0.00000222    0.00016374    0.03528502
     atom    5 type  2   force =    -0.00260824   -0.00317737   -0.00916831
     atom    6 type  2   force =     0.00442872   -0.00251255   -0.00945250
     atom    7 type  1   force =    -0.00001785    0.00132819    0.03470820
     atom    8 type  1   force =     0.00023791    0.01554441    0.06098919
     atom    9 type  2   force =    -0.00018136   -0.00044887   -0.00006622
     atom   10 type  2   force =    -0.00255766    0.00088681   -0.04276408
     atom   11 type  2   force =    -0.00101846    0.00035564    0.00032869
     atom   12 type  2   force =     0.00051290    0.00025160    0.00022300
     atom   13 type  1   force =     0.00046106    0.00069038   -0.00012590
     atom   14 type  1   force =     0.00026372   -0.00013115    0.00060720
     atom   15 type  2   force =     0.00023558    0.00042091    0.00001645
     atom   16 type  2   force =    -0.00009178   -0.00042789   -0.00096961
     atom   17 type  2   force =    -0.00015010    0.00022557   -0.00003065
     atom   18 type  2   force =     0.00021568   -0.00002214   -0.00025606
     atom   19 type  1   force =     0.00017873   -0.00098849    0.00040676
     atom   20 type  1   force =     0.00009177    0.00017801   -0.00033456
     atom   21 type  2   force =     0.00003287    0.00013243    0.10039877
     atom   22 type  2   force =     0.00012967    0.00076779   -0.00038146
     atom   23 type  2   force =    -0.07683575   -0.00000448   -0.03012268
     atom   24 type  2   force =     0.07670570    0.00046567   -0.03016738
     atom   25 type  1   force =    -0.00008142   -0.00045552    0.10724697
     atom   26 type  1   force =    -0.00020818   -0.00131477   -0.16545526
     atom   27 type  2   force =     0.00010132   -0.00031837   -0.03727771
     atom   28 type  2   force =     0.00004598   -0.00000208    0.03044739
     atom   29 type  2   force =    -0.00564669    0.00366431   -0.00703681
     atom   30 type  2   force =     0.00728284    0.00401168   -0.00731019
     atom   31 type  1   force =    -0.00011982   -0.00229133    0.02288905
     atom   32 type  1   force =     0.00032677   -0.01776167    0.06145567
     atom   33 type  2   force =    -0.00017011    0.00021504   -0.00031343
     atom   34 type  2   force =    -0.00143771    0.00002305   -0.05446782
     atom   35 type  2   force =    -0.00005806   -0.00015240   -0.00026995
     atom   36 type  2   force =    -0.00025902    0.00008068   -0.00011664
     atom   37 type  1   force =     0.00012622   -0.00009764    0.00083712
     atom   38 type  1   force =     0.00033064   -0.00002075    0.00033598
     atom   39 type  2   force =    -0.00013018    0.00028528   -0.00045996
     atom   40 type  2   force =     0.00001136    0.00030441    0.00022221
     atom   41 type  2   force =    -0.00019094    0.00019601   -0.00021770
     atom   42 type  2   force =     0.00020809   -0.00003622   -0.00013056
     atom   43 type  1   force =     0.00022575    0.00053245    0.00079106
     atom   44 type  1   force =     0.00038333    0.00005981   -0.00003944
     atom   45 type  2   force =     0.00003746    0.00013531    0.10024171
     atom   46 type  2   force =    -0.07680889    0.00003340   -0.03010683
     atom   47 type  2   force =     0.07666948    0.00047026   -0.03012797
     atom   48 type  3   force =    -0.00002577    0.00933341   -0.00339188
     atom   49 type  3   force =     0.00064783   -0.00328844    0.00292177
     atom   50 type  4   force =     0.00031689   -0.00446111   -0.00021668
     atom   51 type  5   force =    -0.00028066   -0.00160722   -0.00146062
     atom   52 type  5   force =    -0.00025229   -0.00030177   -0.00015032
     atom   53 type  5   force =     0.00017298   -0.00006179   -0.00067984
     atom   54 type  2   force =     0.00017065   -0.00013882    0.00131363
     atom   55 type  5   force =    -0.00143529   -0.00008031   -0.00108256

     Total force =     0.381125     Total SCF correction =     0.000636
  @ DRIVER MODE: Message from server: STATUS
  @ DRIVER MODE: Message from server: GETFORCE
  @ DRIVER MODE: Returning v,forces,stress,ensemble

     Writing output data file ./calc.save/
  @ DRIVER MODE: Message from server: EXIT
  @ DRIVE MODE: Exiting

     General routines

     Parallel routines

   This run was terminated on:  23:36:44  22Sep2021

   JOB DONE.