     Program PWSCF v.6.7GPU starts on  9Sep2021 at 14:32:23

     R & G space division:  proc/nbgrp/npool/nimage =      10
     Reading input from /storage/home/hcoda1/3/ntian30/research/carbon/CxH_vib/CH3_calc/ads_slab/CH3NH2NH_c/out_0049/pw.inp
Warning: card &CELL ignored
Warning: card   CELL_DYNAMICS='IPI', ignored
Warning: card / ignored

     Current dimensions of program PWSCF are:
     Max number of different atomic species (ntypx) = 10
     Max number of k-points (npk) =  40000
     Max angular momentum in pseudopotentials (lmaxx) =  3
     Presently no symmetry can be used with electric field

     Message from routine cell_base_init:
     DEPRECATED: use true lattice parameter, not A to a.u. conversion factor

     IMPORTANT: XC functional enforced from input :
     Exchange-correlation= BEEF-VDW
                           (   1   4  43  14   2   0   0)
     Any further DFT definition will be discarded
     Please, verify this is what you really want

  @ DRIVER MODE: Connecting to
 qe_1139763_2767400.sched-torque.pace.gatech.eduzi3zn826_scratch
  using UNIX socket
  @ DRIVER MODE: Message from server: STATUS
  @ DRIVER MODE: Message from server: INIT
  @ DRIVER MODE: Receiving replica           0          -1
  @ DRIVER MODE: Receiving encoded integer          25
  @ DRIVER MODE:  SCF:  T  FORCE:  T  STRESS:  F  VC:  F  ENSEMBLE:  F
  @ DRIVER MODE:  SCF:  T  FORCE:  T  STRESS:  F  VC:  F  ENSEMBLE:  F

     Using Slab Decomposition

     bravais-lattice index     =            0
     lattice parameter (alat)  =       1.8897  a.u.
     unit-cell volume          =    6658.9804 (a.u.)^3
     number of atoms/cell      =           56
     number of atomic types    =            5
     number of electrons       =       398.00
     number of Kohn-Sham states=          209
     kinetic-energy cutoff     =      29.3995  Ry
     charge density cutoff     =     293.9946  Ry
     scf convergence threshold =      7.3E-08
     mixing beta               =       0.0500
     number of iterations used =            8  plain     mixing
     Exchange-correlation= BEEF-VDW
                           (   1   4  43  14   2   0   0)

     celldm(1)=   1.889726  celldm(2)=   0.000000  celldm(3)=   0.000000
     celldm(4)=   0.000000  celldm(5)=   0.000000  celldm(6)=   0.000000

     crystal axes: (cart. coord. in units of alat)
               a(1) = (   6.579727   0.000000   0.000000 )
               a(2) = (  -0.000775   5.961596   0.000000 )
               a(3) = (   0.000000   0.000000  25.155947 )

     reciprocal axes: (cart. coord. in units 2 pi/alat)
               b(1) = (  0.151982  0.000020  0.000000 )
               b(2) = (  0.000000  0.167740  0.000000 )
               b(3) = (  0.000000  0.000000  0.039752 )

     PseudoPot. # 1 for Ti read from file:
     /storage/coda1/p-amedford6/0/shared/rich_project_chbe-medford/medford-share/data/pseudos_module/espresso/nninc/pbe/van/Ti.UPF
     MD5 check sum: 8e4df49b7f0d34bbd5052bf3f5ea0213
     Pseudo is Ultrasoft, Zval = 12.0
     Generated by new atomic code, or converted to UPF format
     Using radial grid of  851 points,  6 beta functions with:
                l(1) =   0
                l(2) =   0
                l(3) =   1
                l(4) =   1
                l(5) =   2
                l(6) =   2
     Q(r) pseudized with  8 coefficients,  rinner =    1.000   1.000   1.000
                                                       1.000   1.000

     PseudoPot. # 2 for O  read from file:
     /storage/coda1/p-amedford6/0/shared/rich_project_chbe-medford/medford-share/data/pseudos_module/espresso/nninc/pbe/van/O.UPF
     MD5 check sum: 78c19812648e8988a0fe644b0f25305e
     Pseudo is Ultrasoft, Zval =  6.0
     Generated by new atomic code, or converted to UPF format
     Using radial grid of  737 points,  4 beta functions with:
                l(1) =   0
                l(2) =   0
                l(3) =   1
                l(4) =   1
     Q(r) pseudized with  8 coefficients,  rinner =    0.800   0.800   0.800

     PseudoPot. # 3 for N  read from file:
     /storage/coda1/p-amedford6/0/shared/rich_project_chbe-medford/medford-share/data/pseudos_module/espresso/nninc/pbe/van/N.UPF
     MD5 check sum: 90d10febe142ad51ac9d5be1deb811c4
     Pseudo is Ultrasoft, Zval =  5.0
     Generated by new atomic code, or converted to UPF format
     Using radial grid of  729 points,  4 beta functions with:
                l(1) =   0
                l(2) =   0
                l(3) =   1
                l(4) =   1
     Q(r) pseudized with  8 coefficients,  rinner =    0.800   0.800   0.800

     PseudoPot. # 4 for C  read from file:
     /storage/coda1/p-amedford6/0/shared/rich_project_chbe-medford/medford-share/data/pseudos_module/espresso/nninc/pbe/van/C.UPF
     MD5 check sum: 1a69bf6b8db32088f5b2163dbdb77a27
     Pseudo is Ultrasoft, Zval =  4.0
     Generated by new atomic code, or converted to UPF format
     Using radial grid of  721 points,  4 beta functions with:
                l(1) =   0
                l(2) =   0
                l(3) =   1
                l(4) =   1
     Q(r) pseudized with  8 coefficients,  rinner =    0.800   0.800   0.800

     PseudoPot. # 5 for H  read from file:
     /storage/coda1/p-amedford6/0/shared/rich_project_chbe-medford/medford-share/data/pseudos_module/espresso/nninc/pbe/van/H.UPF
     MD5 check sum: b5ee9d7bfd3a09ee7748110bda690ff7
     Pseudo is Ultrasoft, Zval =  1.0
     Generated by new atomic code, or converted to UPF format
     Using radial grid of  615 points,  1 beta functions with:
                l(1) =   0
     Q(r) pseudized with  8 coefficients,  rinner =    0.800

     atomic species   valence    mass     pseudopotential
        Ti1           12.00    47.86700     Ti( 1.00)
        O1             6.00    15.99900     O ( 1.00)
        N1             5.00    14.00700     N ( 1.00)
        C1             4.00    12.01100     C ( 1.00)
        H1             1.00     1.00800     H ( 1.00)

     No symmetry found

   Cartesian axes

     site n.     atom                  positions (alat units)
         1           Ti1 tau(   1) = (   0.0004258   2.9801865   6.0000000  )
         2           Ti1 tau(   2) = (   3.2906075   1.4906267   6.0002472  )
         3           O1  tau(   3) = (   0.0006271   0.0005054   7.9858123  )
         4           O1  tau(   4) = (   3.2906025   0.0005020   7.3038282  )
         5           O1  tau(   5) = (   4.5942328   1.4918067   9.2879030  )
         6           O1  tau(   6) = (   1.9868534   1.4903216   9.2879459  )
         7           Ti1 tau(   7) = (   3.2907910   2.8959150   9.1758416  )
         8           Ti1 tau(   8) = (   0.0015273   1.4827037   9.2680791  )
         9           O1  tau(   9) = (   3.3032705   0.0110091  11.3485381  )
        10           O1  tau(  10) = (   0.0116148   5.9584955  10.6183126  )
        11           O1  tau(  11) = (   1.3020657   1.4959176  12.6398190  )
        12           O1  tau(  12) = (   5.2896457   1.4919019  12.6612249  )
        13           Ti1 tau(  13) = (   0.0353884   3.0012823  12.5523301  )
        14           Ti1 tau(  14) = (   3.3275346   1.5008247  12.4978572  )
        15           O1  tau(  15) = (   0.0424128   0.0047235  14.7277795  )
        16           O1  tau(  16) = (   3.2762846   0.0047332  13.9819514  )
        17           O1  tau(  17) = (   4.5591522   1.5298593  16.0930730  )
        18           O1  tau(  18) = (   2.0612242   1.5646392  16.2256692  )
        19           Ti1 tau(  19) = (   3.3170857   3.0293758  15.7013767  )
        20           Ti1 tau(  20) = (   6.5267591   1.5471840  15.7818195  )
        21           O1  tau(  21) = (   3.2904802   0.0005063   4.7018136  )
        22           O1  tau(  22) = (   0.0258072   0.0396315  17.3287798  )
        23           O1  tau(  23) = (   1.3043587   1.4918075   6.0039043  )
        24           O1  tau(  24) = (   5.2767064   1.4903225   6.0039473  )
        25           Ti1 tau(  25) = (   0.0000382   5.9609847   6.0000000  )
        26           Ti1 tau(  26) = (   3.2902200   4.4714249   6.0002472  )
        27           O1  tau(  27) = (   0.0002396   2.9813036   7.9858123  )
        28           O1  tau(  28) = (   3.2902150   2.9813002   7.3038282  )
        29           O1  tau(  29) = (   4.5938453   4.4726049   9.2879030  )
        30           O1  tau(  30) = (   1.9864658   4.4711199   9.2879459  )
        31           Ti1 tau(  31) = (   3.2891106   5.8743827   9.1763621  )
        32           Ti1 tau(  32) = (   0.0006254   4.4649316   9.2693709  )
        33           O1  tau(  33) = (   3.3047253   2.9863606  11.3412877  )
        34           O1  tau(  34) = (   0.0092240   2.9805883  10.6323155  )
        35           O1  tau(  35) = (   1.3023160   4.4818153  12.6295520  )
        36           O1  tau(  36) = (   5.2910779   4.4839738  12.6480862  )
        37           Ti1 tau(  37) = (   0.0306270   0.0097343  12.5156175  )
        38           Ti1 tau(  38) = (   3.3295341   4.4791655  12.4867326  )
        39           O1  tau(  39) = (   0.0319336   2.9935560  14.7343221  )
        40           O1  tau(  40) = (   3.2835893   3.0037955  13.9224844  )
        41           O1  tau(  41) = (   4.5669158   4.4809188  16.1713821  )
        42           O1  tau(  42) = (   2.0542530   4.4668402  16.2247519  )
        43           Ti1 tau(  43) = (   3.3000170   0.0150779  15.7669526  )
        44           Ti1 tau(  44) = (   0.0416703   4.6955124  16.1636639  )
        45           O1  tau(  45) = (   3.2900926   2.9813045   4.7018136  )
        46           O1  tau(  46) = (   1.3039711   4.4726057   6.0039043  )
        47           O1  tau(  47) = (   5.2763189   4.4711207   6.0039473  )
        48           N1  tau(  48) = (   0.9019483   2.4226080  18.4567899  )
        49           N1  tau(  49) = (   6.4923839   2.9153054  17.5348467  )
        50           C1  tau(  50) = (   1.2734633   3.3482217  19.5544901  )
        51           H1  tau(  51) = (   0.3921683   3.5464126  20.1615046  )
        52           H1  tau(  52) = (   2.0553077   2.8833093  20.1573268  )
        53           H1  tau(  53) = (   1.6239766   4.2728770  19.1044814  )
        54           H1  tau(  54) = (   0.5870980   1.4942747  18.7832689  )
        55           H1  tau(  55) = (   5.5983569   2.8486818  18.0159164  )
        56           H1  tau(  56) = (   1.6925450   2.1792920  17.8234971  )

     number of k points=    10  Fermi-Dirac smearing, width (Ry)=  0.0073
                       cart. coord. in units 2pi/alat
        k(    1) = (   0.0000000   0.0000000   0.0000000), wk =   0.1250000
        k(    2) = (   0.0000000   0.0419351   0.0000000), wk =   0.2500000
        k(    3) = (   0.0000000  -0.0838702   0.0000000), wk =   0.1250000
        k(    4) = (   0.0379955   0.0000049   0.0000000), wk =   0.2500000
        k(    5) = (   0.0379955   0.0419400   0.0000000), wk =   0.2500000
        k(    6) = (   0.0379955  -0.0838652   0.0000000), wk =   0.2500000
        k(    7) = (   0.0379955  -0.0419301   0.0000000), wk =   0.2500000
        k(    8) = (  -0.0759910  -0.0000099   0.0000000), wk =   0.1250000
        k(    9) = (  -0.0759910   0.0419252   0.0000000), wk =   0.2500000
        k(   10) = (  -0.0759910  -0.0838800   0.0000000), wk =   0.1250000

     Initial potential from superposition of free atoms

     starting charge  381.99914, renormalised to  398.00000

     negative rho (up, down):  1.484E-02 0.000E+00

     %%%%%%%%%%%%%%%%%%%%%%%%%%%%%%%%%%%%%%%%%%%%%%%%%%%%%%%%%%%%%%%%%%%%%%%%
     %                                                                      %
     % You are using vdW-DF, which was implemented by the Thonhauser group. %
     % Please cite the following two papers that made this development      %
     % possible and the two reviews that describe the various versions:     %
     %                                                                      %
     %   T. Thonhauser et al., PRL 115, 136402 (2015).                      %
     %   T. Thonhauser et al., PRB 76, 125112 (2007).                       %
     %   K. Berland et al., Rep. Prog. Phys. 78, 066501 (2015).             %
     %   D.C. Langreth et al., J. Phys.: Condens. Matter 21, 084203 (2009). %
     %                                                                      %
     %                                                                      %
     % If you are calculating the stress with vdW-DF, please also cite:     %
     %                                                                      %
     %   R. Sabatini et al., J. Phys.: Condens. Matter 24, 424209 (2012).   %
     %                                                                      %
     %%%%%%%%%%%%%%%%%%%%%%%%%%%%%%%%%%%%%%%%%%%%%%%%%%%%%%%%%%%%%%%%%%%%%%%%

     Adding external electric field

     Computed dipole along edir(3) :
        Dipole              -10.9106 Ry au,        -27.7320 Debye
        Dipole field         -0.0206 Ry au,

        Potential amp.        1.9086 Ry
        Total length         46.3494 bohr

     Starting wfcs are  302 atomic wfcs
  @ DRIVER MODE: Message from server: STATUS
  @ DRIVER MODE: Message from server: POSDATA
  @ DRIVER MODE: Reading and sharing cell
  @ DRIVER MODE: Reading and sharing positions
  @ DRIVER MODE: Received positions

     Self-consistent Calculation

     iteration #  1     ecut=    29.40 Ry     beta= 0.05
     Davidson diagonalization with overlap
     c_bands:  5 eigenvalues not converged
     c_bands:  4 eigenvalues not converged
     c_bands:  1 eigenvalues not converged
     c_bands:  2 eigenvalues not converged
     c_bands:  3 eigenvalues not converged
     c_bands:  4 eigenvalues not converged
     c_bands:  4 eigenvalues not converged
     ethr =  1.00E-05,  avg # of iterations = 24.5

[...]

     total energy              =   -2445.34588616 Ry
     estimated scf accuracy    <    5568.54963968 Ry

     iteration #  2     ecut=    29.40 Ry     beta= 0.05
     Davidson diagonalization with overlap
     ethr =  1.00E-02,  avg # of iterations = 23.5

[...]

     iteration # 72     ecut=    29.40 Ry     beta= 0.05
     Davidson diagonalization with overlap
     ethr =  4.15E-11,  avg # of iterations =  4.6

[...]

     total energy              =   -2942.84144366 Ry
     estimated scf accuracy    <       0.00000017 Ry

     iteration # 74     ecut=    29.40 Ry     beta= 0.05
     Davidson diagonalization with overlap
     c_bands:  1 eigenvalues not converged
     c_bands:  1 eigenvalues not converged
     ethr =  2.09E-11,  avg # of iterations = 11.5

     negative rho (up, down):  1.045E-02 0.000E+00

     Adding external electric field

     Computed dipole along edir(3) :
        Dipole                1.5763 Ry au,          4.0067 Debye
        Dipole field          0.0030 Ry au,

        Potential amp.       -0.2758 Ry
        Total length         46.3494 bohr

     End of self-consistent calculation

          k = 0.0000 0.0000 0.0000 ( 18029 PWs)   bands (ev):

   -55.0918 -55.0562 -55.0526 -55.0221 -54.9691 -54.9663 -54.9288 -54.8921
   -54.8838 -54.8694 -54.8563 -54.8515 -54.8046 -54.7603 -54.0663 -54.0322
   -31.6657 -31.5455 -31.4558 -31.4260 -31.3870 -31.3824 -31.3807 -31.3511
   -31.3482 -31.3464 -31.3033 -31.3013 -31.3006 -31.2663 -31.2481 -31.2286
   -31.2086 -31.2049 -31.1957 -31.1940 -31.1671 -31.1499 -31.1484 -31.1223
   -31.1129 -31.0990 -31.0965 -31.0940 -31.0905 -31.0775 -31.0725 -31.0652
   -31.0527 -31.0420 -31.0232 -31.0155 -31.0078 -31.0024 -30.9976 -30.9918
   -30.9876 -30.9529 -30.4746 -30.3829 -30.3607 -30.2913 -30.2046 -30.0934
   -19.1881 -15.9342 -15.6593 -15.5367 -15.3266 -15.2771 -15.2040 -15.0089
   -14.9439 -14.8872 -14.8759 -14.8660 -14.8495 -14.7782 -14.6992 -14.6186
   -14.6160 -14.6096 -14.5975 -14.5807 -14.5734 -14.5108 -14.5037 -14.4717
   -14.4596 -14.4197 -14.3125 -14.2307 -14.1738 -14.0237 -13.3329 -12.5688
   -12.4517 -11.1327  -7.9045  -6.5662  -5.8719  -4.1176  -3.9504  -3.2795
    -3.0945  -3.0713  -3.0097  -2.9846  -2.8101  -2.7600  -2.5586  -2.4488
    -2.3613  -2.3222  -2.3100  -2.2934  -2.1434  -2.0755  -2.0407  -1.9941
    -1.9699  -1.9474  -1.9060  -1.8984  -1.8678  -1.8496  -1.8411  -1.6639
    -1.5882  -1.5400  -1.5093  -1.4715  -1.4217  -1.3939  -1.3752  -1.3707
    -1.3654  -1.3464  -1.3139  -1.2538  -1.2262  -1.1694  -1.1011  -1.0743
    -0.9846  -0.9028  -0.7150  -0.6692  -0.6518  -0.6157  -0.5555  -0.5066
    -0.4724  -0.4376  -0.4235  -0.3575  -0.2879  -0.2553  -0.1927  -0.1282
    -0.1177  -0.0551  -0.0483   0.1139   0.1255   0.1467   0.2385   0.3254
     0.3723   0.3806   0.4387   0.5126   0.5347   0.5449   0.5813   0.6014
     0.6779   0.7874   0.8119   0.8535   0.8651   0.8988   0.9216   0.9765
     1.0002   1.0629   1.0692   1.1735   1.2213   1.2556   1.5055   1.5385
     1.8690   1.9023   1.9564   2.1430   2.5302   2.5773   4.0165   4.0793
     4.0918   4.1423   4.1655   4.1841   4.2566   4.4774   4.5025   4.5088
     4.5162

[...]

          k = 0.0380-0.0419 0.0000 ( 17876 PWs)   bands (ev):

[...]

          k =-0.0760-0.0000 0.0000 ( 17886 PWs)   bands (ev):

[...]

          k =-0.0760-0.0839 0.0000 ( 17948 PWs)   bands (ev):

   -55.0797 -55.0645 -55.0391 -55.0389 -54.9661 -54.9552 -54.9398 -54.8750
   -54.8723 -54.8715 -54.8696 -54.8673 -54.7985 -54.7663 -54.0493 -54.0491
   -31.4734 -31.4637 -31.4010 -31.3608 -31.3606 -31.3593 -31.3319 -31.3316
   -31.3007 -31.2967 -31.2918 -31.2857 -31.2604 -31.2261 -31.2188 -31.2128
   -31.2106 -31.2068 -31.2061 -31.1973 -31.1651 -31.1641 -31.1604 -31.1583
   -31.1580 -31.1553 -31.1510 -31.1345 -31.1089 -31.1053 -31.0996 -31.0900
   -31.0881 -31.0862 -31.0851 -31.0690 -31.0508 -31.0494 -31.0384 -31.0328
   -31.0084 -30.9920 -30.3735 -30.3733 -30.2873 -30.2870 -30.2480 -30.2479
   -19.1842 -15.4173 -15.3271 -15.1789 -15.1581 -15.1102 -15.0621 -15.0457
   -15.0272 -14.9716 -14.9316 -14.8865 -14.8380 -14.7951 -14.7928 -14.7542
   -14.6823 -14.6608 -14.6587 -14.6442 -14.5933 -14.5826 -14.5550 -14.5362
   -14.5312 -14.4881 -14.4284 -14.4248 -14.3856 -14.2076 -13.3433 -12.5534
   -12.5532 -11.1351  -7.9146  -6.5501  -5.8608  -4.0895  -3.9443  -2.6864
    -2.5873  -2.5322  -2.4208  -2.3340  -2.2937  -2.2593  -2.1244  -2.1043
    -2.0863  -2.0603  -2.0473  -2.0130  -2.0051  -1.9575  -1.9280  -1.9177
    -1.9114  -1.8986  -1.8764  -1.8285  -1.8060  -1.7965  -1.7870  -1.7483
    -1.7343  -1.7024  -1.6964  -1.6575  -1.6360  -1.5509  -1.4619  -1.4220
    -1.3711  -1.3067  -1.2724  -1.2657  -1.1721  -1.1640  -1.1410  -1.1077
    -1.0624  -0.9416  -0.8842  -0.8217  -0.8177  -0.8048  -0.6976  -0.6598
    -0.6301  -0.5939  -0.5577  -0.5268  -0.4883  -0.4416  -0.3647  -0.3342
    -0.2948  -0.2583  -0.1857  -0.0982  -0.0787  -0.0477  -0.0435   0.0420
     0.0675   0.1057   0.1152   0.1343   0.1909   0.2040   0.2915   0.3814
     0.4456   0.5341   0.6475   0.6523   0.7299   0.8214   0.9084   0.9469
     0.9986   1.0641   1.0663   1.1000   1.2212   1.2284   1.3499   1.3888
     1.3975   1.4199   2.3154   2.3164   2.3974   2.3975   4.1458   4.2434
     4.2823   4.3235   4.3760   4.5209   4.5441   4.5896   4.5901   4.6616
     4.6767

     the Fermi energy is     4.0631 ev

!    total energy              =   -2942.84145977 Ry
     estimated scf accuracy    <       0.00000005 Ry
     smearing contrib. (-TS)   =      -0.03725064 Ry
     internal energy E=F+TS    =   -2942.80420914 Ry

     The total energy is F=E-TS. E is the sum of the following terms:
     one-electron contribution =  -23856.58511819 Ry
     hartree contribution      =   12023.61205245 Ry
     xc contribution           =    -487.76049287 Ry
     ewald contribution        =    9377.92466019 Ry
     electric field correction =       0.00468929 Ry

     convergence has been achieved in  74 iterations

     Forces acting on atoms (cartesian axes, Ry/au):

     atom    1 type  1   force =     0.00002245   -0.00023023    0.09433161
     atom    2 type  1   force =    -0.00015755   -0.00054405   -0.17708542
     atom    3 type  2   force =     0.00001709   -0.00024906   -0.02146641
     atom    4 type  2   force =    -0.00001429   -0.00167863    0.05642887
     atom    5 type  2   force =    -0.01049714   -0.00075130    0.00562706
     atom    6 type  2   force =     0.01226309   -0.00009494    0.00551828
     atom    7 type  1   force =    -0.00024173    0.00106960   -0.01570927
     atom    8 type  1   force =    -0.00007232    0.00525420    0.00655783
     atom    9 type  2   force =    -0.00030591    0.00055770    0.00021638
     atom   10 type  2   force =    -0.00199805    0.00265680   -0.00434559
     atom   11 type  2   force =     0.00039044   -0.00022895    0.00026658
     atom   12 type  2   force =    -0.00007591   -0.00029582   -0.00020478
     atom   13 type  1   force =    -0.00073415    0.00044855   -0.00004789
     atom   14 type  1   force =     0.00036998   -0.00016491    0.00004294
     atom   15 type  2   force =    -0.00021226   -0.00062759   -0.00035948
     atom   16 type  2   force =     0.00006264    0.00036423   -0.00033047
     atom   17 type  2   force =     0.00083409    0.00016210    0.00036253
     atom   18 type  2   force =    -0.00025389   -0.00003991   -0.00049904
     atom   19 type  1   force =     0.00014606    0.00053808    0.00055750
     atom   20 type  1   force =    -0.00040325    0.00014010    0.00038567
     atom   21 type  2   force =    -0.00002004   -0.00011503    0.10366713
     atom   22 type  2   force =     0.00019610    0.00038859    0.00048547
     atom   23 type  2   force =    -0.07091896   -0.00021156   -0.02719888
     atom   24 type  2   force =     0.07071512    0.00023988   -0.02724447
     atom   25 type  1   force =     0.00002153   -0.00026943    0.09399899
     atom   26 type  1   force =    -0.00024770   -0.00055779   -0.17735406
     atom   27 type  2   force =     0.00005864   -0.00008021   -0.02060182
     atom   28 type  2   force =     0.00002454   -0.00136580    0.05572298
     atom   29 type  2   force =    -0.01080024   -0.00000377    0.00591924
     atom   30 type  2   force =     0.01248817    0.00028386    0.00577093
     atom   31 type  1   force =    -0.00017141    0.00517385   -0.01628808
     atom   32 type  1   force =    -0.00009385   -0.00625844    0.00669617
     atom   33 type  2   force =    -0.00009617   -0.00048005    0.00024904
     atom   34 type  2   force =    -0.00163554    0.00066908   -0.00774379
     atom   35 type  2   force =    -0.00033582    0.00005925    0.00041197
     atom   36 type  2   force =     0.00058353    0.00005784   -0.00008144
     atom   37 type  1   force =    -0.00082655   -0.00078149   -0.00009486
     atom   38 type  1   force =     0.00048316    0.00000968    0.00044926
     atom   39 type  2   force =    -0.00030542   -0.00016695    0.00061405
     atom   40 type  2   force =    -0.00004724   -0.00018313   -0.00026377
     atom   41 type  2   force =     0.00015348   -0.00047766    0.00028577
     atom   42 type  2   force =    -0.00020761   -0.00028916    0.00050252
     atom   43 type  1   force =    -0.00012127   -0.00047855   -0.00010514
     atom   44 type  1   force =     0.00027716    0.00046157    0.00023707
     atom   45 type  2   force =    -0.00002221   -0.00011664    0.10366091
     atom   46 type  2   force =    -0.07093005   -0.00014229   -0.02717067
     atom   47 type  2   force =     0.07073120    0.00027899   -0.02724036
     atom   48 type  3   force =    -0.00781960    0.00231061    0.00480356
     atom   49 type  3   force =    -0.00090010   -0.00060307    0.00091941
     atom   50 type  4   force =     0.00135590   -0.00009944   -0.00040378
     atom   51 type  5   force =     0.00017763   -0.00068100    0.00051382
     atom   52 type  5   force =    -0.00041721    0.00041442    0.00008207
     atom   53 type  5   force =     0.00043239   -0.00045097    0.00024382
     atom   54 type  5   force =    -0.00017989   -0.00028331    0.00027832
     atom   55 type  5   force =    -0.00022087   -0.00043401    0.00007915
     atom   56 type  5   force =     0.00947981   -0.00210387   -0.00404745

     Total force =     0.365944     Total SCF correction =     0.000433
  @ DRIVER MODE: Message from server: STATUS
  @ DRIVER MODE: Message from server: GETFORCE
  @ DRIVER MODE: Returning v,forces,stress,ensemble

     Writing output data file ./calc.save/
  @ DRIVER MODE: Message from server: EXIT
  @ DRIVE MODE: Exiting

     General routines

     Parallel routines

   This run was terminated on:  14:51:52   9Sep2021

   JOB DONE.