     Program PWSCF v.6.7GPU starts on 23Sep2021 at 19:49: 6

     R & G space division:  proc/nbgrp/npool/nimage =       8
     Reading input from /storage/home/hcoda1/3/ntian30/research/carbon/CxH_vib/H2O_calc/ads_slab/CH3NHHHO_a/out_0022/pw.inp
Warning: card &CELL ignored
Warning: card   CELL_DYNAMICS='IPI', ignored
Warning: card / ignored

     Current dimensions of program PWSCF are:
     Max number of different atomic species (ntypx) = 10
     Max number of k-points (npk) =  40000
     Max angular momentum in pseudopotentials (lmaxx) =  3
     Presently no symmetry can be used with electric field

     Message from routine cell_base_init:
     DEPRECATED: use true lattice parameter, not A to a.u. conversion factor

     IMPORTANT: XC functional enforced from input :
     Exchange-correlation= BEEF-VDW
                           (   1   4  43  14   2   0   0)
     Any further DFT definition will be discarded
     Please, verify this is what you really want

  @ DRIVER MODE: Connecting to
 qe_1139763_2947311.sched-torque.pace.gatech.edueve9v3_3_scratch
  using UNIX socket
  @ DRIVER MODE: Message from server: STATUS
  @ DRIVER MODE: Message from server: INIT
  @ DRIVER MODE: Receiving replica           0          -1
  @ DRIVER MODE: Receiving encoded integer          25
  @ DRIVER MODE:  SCF:  T  FORCE:  T  STRESS:  F  VC:  F  ENSEMBLE:  F
  @ DRIVER MODE:  SCF:  T  FORCE:  T  STRESS:  F  VC:  F  ENSEMBLE:  F

     Using Slab Decomposition

     bravais-lattice index     =            0
     lattice parameter (alat)  =       1.8897  a.u.
     unit-cell volume          =    6658.9804 (a.u.)^3
     number of atoms/cell      =           56
     number of atomic types    =            5
     number of electrons       =       399.00
     number of Kohn-Sham states=          209
     kinetic-energy cutoff     =      29.3995  Ry
     charge density cutoff     =     293.9946  Ry
     scf convergence threshold =      7.3E-08
     mixing beta               =       0.0500
     number of iterations used =            8  plain     mixing
     Exchange-correlation= BEEF-VDW
                           (   1   4  43  14   2   0   0)

     celldm(1)=   1.889726  celldm(2)=   0.000000  celldm(3)=   0.000000
     celldm(4)=   0.000000  celldm(5)=   0.000000  celldm(6)=   0.000000

     crystal axes: (cart. coord. in units of alat)
               a(1) = (   6.579727   0.000000   0.000000 )
               a(2) = (  -0.000775   5.961596   0.000000 )
               a(3) = (   0.000000   0.000000  25.155947 )

     reciprocal axes: (cart. coord. in units 2 pi/alat)
               b(1) = (  0.151982  0.000020  0.000000 )
               b(2) = (  0.000000  0.167740  0.000000 )
               b(3) = (  0.000000  0.000000  0.039752 )

     PseudoPot. # 1 for Ti read from file:
     /storage/coda1/p-amedford6/0/shared/rich_project_chbe-medford/medford-share/data/pseudos_module/espresso/nninc/pbe/van/Ti.UPF
     MD5 check sum: 8e4df49b7f0d34bbd5052bf3f5ea0213
     Pseudo is Ultrasoft, Zval = 12.0
     Generated by new atomic code, or converted to UPF format
     Using radial grid of  851 points,  6 beta functions with:
                l(1) =   0
                l(2) =   0
                l(3) =   1
                l(4) =   1
                l(5) =   2
                l(6) =   2
     Q(r) pseudized with  8 coefficients,  rinner =    1.000   1.000   1.000
                                                       1.000   1.000

     PseudoPot. # 2 for O  read from file:
     /storage/coda1/p-amedford6/0/shared/rich_project_chbe-medford/medford-share/data/pseudos_module/espresso/nninc/pbe/van/O.UPF
     MD5 check sum: 78c19812648e8988a0fe644b0f25305e
     Pseudo is Ultrasoft, Zval =  6.0
     Generated by new atomic code, or converted to UPF format
     Using radial grid of  737 points,  4 beta functions with:
                l(1) =   0
                l(2) =   0
                l(3) =   1
                l(4) =   1
     Q(r) pseudized with  8 coefficients,  rinner =    0.800   0.800   0.800

     PseudoPot. # 3 for N  read from file:
     /storage/coda1/p-amedford6/0/shared/rich_project_chbe-medford/medford-share/data/pseudos_module/espresso/nninc/pbe/van/N.UPF
     MD5 check sum: 90d10febe142ad51ac9d5be1deb811c4
     Pseudo is Ultrasoft, Zval =  5.0
     Generated by new atomic code, or converted to UPF format
     Using radial grid of  729 points,  4 beta functions with:
                l(1) =   0
                l(2) =   0
                l(3) =   1
                l(4) =   1
     Q(r) pseudized with  8 coefficients,  rinner =    0.800   0.800   0.800

     PseudoPot. # 4 for C  read from file:
     /storage/coda1/p-amedford6/0/shared/rich_project_chbe-medford/medford-share/data/pseudos_module/espresso/nninc/pbe/van/C.UPF
     MD5 check sum: 1a69bf6b8db32088f5b2163dbdb77a27
     Pseudo is Ultrasoft, Zval =  4.0
     Generated by new atomic code, or converted to UPF format
     Using radial grid of  721 points,  4 beta functions with:
                l(1) =   0
                l(2) =   0
                l(3) =   1
                l(4) =   1
     Q(r) pseudized with  8 coefficients,  rinner =    0.800   0.800   0.800

     PseudoPot. # 5 for H  read from file:
     /storage/coda1/p-amedford6/0/shared/rich_project_chbe-medford/medford-share/data/pseudos_module/espresso/nninc/pbe/van/H.UPF
     MD5 check sum: b5ee9d7bfd3a09ee7748110bda690ff7
     Pseudo is Ultrasoft, Zval =  1.0
     Generated by new atomic code, or converted to UPF format
     Using radial grid of  615 points,  1 beta functions with:
                l(1) =   0
     Q(r) pseudized with  8 coefficients,  rinner =    0.800

     atomic species   valence    mass     pseudopotential
        Ti1           12.00    47.86700     Ti( 1.00)
        O1             6.00    15.99900     O ( 1.00)
        N1             5.00    14.00700     N ( 1.00)
        C1             4.00    12.01100     C ( 1.00)
        H1             1.00     1.00800     H ( 1.00)

     No symmetry found

   Cartesian axes

     site n.     atom                  positions (alat units)
         1           Ti1 tau(   1) = (   0.0004258   2.9801865   6.0000000  )
         2           Ti1 tau(   2) = (   3.2906075   1.4906267   6.0002472  )
         3           O1  tau(   3) = (   0.0006271   0.0005054   7.9858123  )
         4           O1  tau(   4) = (   3.2906025   0.0005020   7.3038282  )
         5           O1  tau(   5) = (   4.5942328   1.4918067   9.2879030  )
         6           O1  tau(   6) = (   1.9868534   1.4903216   9.2879459  )
         7           Ti1 tau(   7) = (   3.2907910   2.8959150   9.1758416  )
         8           Ti1 tau(   8) = (   0.0015273   1.4827037   9.2680791  )
         9           O1  tau(   9) = (   3.2949530   5.9481847  11.3666340  )
        10           O1  tau(  10) = (   0.0116148   5.9584955  10.6183126  )
        11           O1  tau(  11) = (   1.2732546   1.4916747  12.6876809  )
        12           O1  tau(  12) = (   5.3119445   1.4892451  12.6851550  )
        13           Ti1 tau(  13) = (   6.5688325   2.9465269  12.5174317  )
        14           Ti1 tau(  14) = (   3.2996026   1.2975375  12.7241829  )
        15           O1  tau(  15) = (   0.0172205   5.8793003  14.6619373  )
        16           O1  tau(  16) = (   3.2917661   0.0702926  14.0149596  )
        17           O1  tau(  17) = (   4.5643074   1.5920826  16.1346482  )
        18           O1  tau(  18) = (   2.0131957   1.5841813  16.0575481  )
        19           Ti1 tau(  19) = (   3.2662748   3.0407108  15.6947786  )
        20           Ti1 tau(  20) = (   0.0618610   1.3206105  15.7998127  )
        21           O1  tau(  21) = (   3.2904802   0.0005063   4.7018136  )
        22           O1  tau(  22) = (   0.0233933   0.1570098  17.1842078  )
        23           O1  tau(  23) = (   1.3043587   1.4918075   6.0039043  )
        24           O1  tau(  24) = (   5.2767064   1.4903225   6.0039473  )
        25           Ti1 tau(  25) = (   0.0000382   5.9609847   6.0000000  )
        26           Ti1 tau(  26) = (   3.2902200   4.4714249   6.0002472  )
        27           O1  tau(  27) = (   0.0002396   2.9813036   7.9858123  )
        28           O1  tau(  28) = (   3.2902150   2.9813002   7.3038282  )
        29           O1  tau(  29) = (   4.5938453   4.4726049   9.2879030  )
        30           O1  tau(  30) = (   1.9864658   4.4711199   9.2879459  )
        31           Ti1 tau(  31) = (   3.2891106   5.8743827   9.1763621  )
        32           Ti1 tau(  32) = (   0.0006254   4.4649316   9.2693709  )
        33           O1  tau(  33) = (   3.2948289   2.9949798  11.3176834  )
        34           O1  tau(  34) = (   0.0092240   2.9805883  10.6323155  )
        35           O1  tau(  35) = (   1.2828652   4.4571597  12.6432593  )
        36           O1  tau(  36) = (   5.3079144   4.4605214  12.6419564  )
        37           Ti1 tau(  37) = (   0.0266940   5.9154698  12.5044250  )
        38           Ti1 tau(  38) = (   3.3008436   4.3760658  12.4353554  )
        39           O1  tau(  39) = (   6.5507285   3.0461080  14.9005035  )
        40           O1  tau(  40) = (   3.2938476   3.0131494  13.9233183  )
        41           O1  tau(  41) = (   4.5350990   4.4864192  16.1518712  )
        42           O1  tau(  42) = (   1.9883536   4.4285065  16.1690201  )
        43           Ti1 tau(  43) = (   3.3916644   0.0784854  16.2809578  )
        44           Ti1 tau(  44) = (   0.0590441   4.5159846  16.0209683  )
        45           O1  tau(  45) = (   3.2900926   2.9813045   4.7018136  )
        46           O1  tau(  46) = (   1.3039711   4.4726057   6.0039043  )
        47           O1  tau(  47) = (   5.2763189   4.4711207   6.0039473  )
        48           N1  tau(  48) = (   6.2706434   3.3837210  18.0754458  )
        49           C1  tau(  49) = (   0.7642246   3.1223808  19.0622891  )
        50           H1  tau(  50) = (   1.3158356   4.0410886  19.2409436  )
        51           H1  tau(  51) = (   0.3597117   2.7683523  20.0089400  )
        52           H1  tau(  52) = (   1.4517744   2.3810259  18.6668870  )
        53           H1  tau(  53) = (   5.6745199   4.1349376  18.4206214  )
        54           H1  tau(  54) = (   5.6587021   2.5696541  18.0151127  )
        55           O1  tau(  55) = (   3.1972372   0.0910451  18.1323504  )
        56           H1  tau(  56) = (   2.2767176   0.1080423  18.4377142  )

     number of k points=    10  Fermi-Dirac smearing, width (Ry)=  0.0073
                       cart. coord. in units 2pi/alat
        k(    1) = (   0.0000000   0.0000000   0.0000000), wk =   0.1250000
        k(    2) = (   0.0000000   0.0419351   0.0000000), wk =   0.2500000
        k(    3) = (   0.0000000  -0.0838702   0.0000000), wk =   0.1250000
        k(    4) = (   0.0379955   0.0000049   0.0000000), wk =   0.2500000
        k(    5) = (   0.0379955   0.0419400   0.0000000), wk =   0.2500000
        k(    6) = (   0.0379955  -0.0838652   0.0000000), wk =   0.2500000
        k(    7) = (   0.0379955  -0.0419301   0.0000000), wk =   0.2500000
        k(    8) = (  -0.0759910  -0.0000099   0.0000000), wk =   0.1250000
        k(    9) = (  -0.0759910   0.0419252   0.0000000), wk =   0.2500000
        k(   10) = (  -0.0759910  -0.0838800   0.0000000), wk =   0.1250000

     Initial potential from superposition of free atoms

     starting charge  382.99914, renormalised to  399.00000

     negative rho (up, down):  1.588E-02 0.000E+00

     %%%%%%%%%%%%%%%%%%%%%%%%%%%%%%%%%%%%%%%%%%%%%%%%%%%%%%%%%%%%%%%%%%%%%%%%
     %                                                                      %
     % You are using vdW-DF, which was implemented by the Thonhauser group. %
     % Please cite the following two papers that made this development      %
     % possible and the two reviews that describe the various versions:     %
     %                                                                      %
     %   T. Thonhauser et al., PRL 115, 136402 (2015).                      %
     %   T. Thonhauser et al., PRB 76, 125112 (2007).                       %
     %   K. Berland et al., Rep. Prog. Phys. 78, 066501 (2015).             %
     %   D.C. Langreth et al., J. Phys.: Condens. Matter 21, 084203 (2009). %
     %                                                                      %
     %                                                                      %
     % If you are calculating the stress with vdW-DF, please also cite:     %
     %                                                                      %
     %   R. Sabatini et al., J. Phys.: Condens. Matter 24, 424209 (2012).   %
     %                                                                      %
     %%%%%%%%%%%%%%%%%%%%%%%%%%%%%%%%%%%%%%%%%%%%%%%%%%%%%%%%%%%%%%%%%%%%%%%%

     Adding external electric field

     Computed dipole along edir(3) :
        Dipole              -10.6962 Ry au,        -27.1870 Debye
        Dipole field         -0.0202 Ry au,

        Potential amp.        1.8711 Ry
        Total length         46.3494 bohr

     Starting wfcs are  302 atomic wfcs
  @ DRIVER MODE: Message from server: STATUS
  @ DRIVER MODE: Message from server: POSDATA
  @ DRIVER MODE: Reading and sharing cell
  @ DRIVER MODE: Reading and sharing positions
  @ DRIVER MODE: Received positions

     Self-consistent Calculation

     iteration #  1     ecut=    29.40 Ry     beta= 0.05
     Davidson diagonalization with overlap
     c_bands:  3 eigenvalues not converged
     c_bands:  2 eigenvalues not converged
     c_bands:  2 eigenvalues not converged
     c_bands:  5 eigenvalues not converged
     c_bands:  2 eigenvalues not converged
     c_bands:  5 eigenvalues not converged
     c_bands:  4 eigenvalues not converged
     c_bands:  3 eigenvalues not converged
     ethr =  1.00E-05,  avg # of iterations = 21.6

[...]

     total energy              =   -2438.24357983 Ry
     estimated scf accuracy    <    5770.45660762 Ry

     iteration #  2     ecut=    29.40 Ry     beta= 0.05
     Davidson diagonalization with overlap
     ethr =  1.00E-02,  avg # of iterations = 23.6

[...]

     iteration # 62     ecut=    29.40 Ry     beta= 0.05
     Davidson diagonalization with overlap
     c_bands:  1 eigenvalues not converged
     ethr =  5.95E-11,  avg # of iterations = 11.3

[...]

     total energy              =   -2955.26290621 Ry
     estimated scf accuracy    <       0.00000018 Ry

     iteration # 65     ecut=    29.40 Ry     beta= 0.05
     Davidson diagonalization with overlap
     ethr =  4.45E-11,  avg # of iterations = 10.1

     negative rho (up, down):  1.648E-02 0.000E+00

     Adding external electric field

     Computed dipole along edir(3) :
        Dipole                0.9761 Ry au,          2.4811 Debye
        Dipole field          0.0018 Ry au,

        Potential amp.       -0.1708 Ry
        Total length         46.3494 bohr

     End of self-consistent calculation

          k = 0.0000 0.0000 0.0000 ( 18029 PWs)   bands (ev):

   -55.6824 -55.6361 -55.6021 -55.5114 -55.5014 -55.4657 -55.4652 -55.4631
   -55.4311 -55.4175 -55.3668 -55.2717 -55.2260 -55.2119 -54.6121 -54.5780
   -32.1216 -32.0192 -32.0111 -31.9875 -31.9680 -31.9558 -31.9269 -31.9007
   -31.8937 -31.8821 -31.8820 -31.7891 -31.7888 -31.7738 -31.7484 -31.7446
   -31.7435 -31.7421 -31.7412 -31.7051 -31.6937 -31.6642 -31.6612 -31.6553
   -31.6495 -31.6434 -31.6355 -31.6051 -31.6031 -31.5975 -31.5922 -31.5888
   -31.5781 -31.5627 -31.5482 -31.5229 -31.4631 -31.4547 -31.4451 -31.4216
   -31.4184 -31.4138 -31.0182 -30.9317 -30.9092 -30.8357 -30.7493 -30.6375
   -16.5110 -16.2957 -16.1491 -15.9785 -15.8389 -15.8098 -15.7689 -15.5983
   -15.5056 -15.4418 -15.2414 -15.2206 -15.1750 -15.1635 -15.1582 -15.1354
   -15.1256 -15.0806 -15.0621 -15.0588 -15.0488 -15.0312 -14.9948 -14.9525
   -14.9094 -14.8883 -14.7760 -14.7195 -14.6788 -14.4676 -14.3993 -13.1107
   -12.9943  -9.9938  -6.0170  -4.5969  -4.0624  -3.7677  -3.6443  -3.5464
    -3.5349  -3.4159  -3.4065  -3.1651  -3.0416  -2.9832  -2.9041  -2.7818
    -2.7498  -2.6767  -2.6368  -2.5866  -2.5681  -2.5311  -2.4914  -2.4480
    -2.4227  -2.3950  -2.3610  -2.3055  -2.2938  -2.1955  -2.1813  -2.1583
    -2.0528  -2.0118  -1.9717  -1.9536  -1.9488  -1.9296  -1.8910  -1.8845
    -1.8649  -1.7867  -1.7176  -1.6716  -1.6368  -1.6089  -1.3311  -1.2460
    -1.2022  -1.1876  -1.0836  -1.0599  -1.0318  -1.0183  -0.9815  -0.9649
    -0.8533  -0.8363  -0.7682  -0.7184  -0.7046  -0.6663  -0.5477  -0.5110
    -0.4598  -0.4199  -0.3696  -0.3521  -0.3474  -0.2526  -0.2259  -0.1911
    -0.0827  -0.0659  -0.0034   0.0818   0.0915   0.1429   0.1665   0.2267
     0.2312   0.2858   0.3154   0.3375   0.3911   0.4235   0.4598   0.4928
     0.5100   0.6123   0.6875   0.7003   0.7972   0.8720   0.9255   1.0293
     1.0971   1.3609   1.4144   1.4384   1.6063   1.9817   2.0271   3.4455
     3.5946   3.6101   3.6848   3.6974   3.7745   3.9350   3.9600   4.0950
     4.1335

[...]

          k = 0.0380-0.0419 0.0000 ( 17876 PWs)   bands (ev):

[...]

          k =-0.0760-0.0000 0.0000 ( 17886 PWs)   bands (ev):

[...]

          k =-0.0760-0.0839 0.0000 ( 17948 PWs)   bands (ev):

   -55.6815 -55.6192 -55.6188 -55.5102 -55.4903 -55.4742 -55.4665 -55.4488
   -55.4471 -55.4111 -55.3732 -55.2669 -55.2271 -55.2166 -54.5955 -54.5945
   -31.9522 -31.9443 -31.9370 -31.9367 -31.9294 -31.9126 -31.9121 -31.8961
   -31.8515 -31.8104 -31.7923 -31.7796 -31.7754 -31.7739 -31.7521 -31.7424
   -31.7392 -31.7386 -31.7280 -31.7243 -31.7165 -31.7157 -31.7011 -31.6771
   -31.6709 -31.6665 -31.6572 -31.6468 -31.6316 -31.6305 -31.6283 -31.6231
   -31.6214 -31.5960 -31.5954 -31.5544 -31.5297 -31.4946 -31.4674 -31.4629
   -31.4474 -31.4179 -30.9223 -30.9215 -30.8317 -30.8304 -30.7929 -30.7921
   -16.4810 -15.9388 -15.8571 -15.7441 -15.6210 -15.6077 -15.4966 -15.4137
   -15.4102 -15.3796 -15.3489 -15.3210 -15.3116 -15.2946 -15.2476 -15.2042
   -15.1690 -15.1412 -15.1392 -15.0934 -15.0863 -15.0749 -15.0622 -15.0399
   -15.0061 -14.9565 -14.9421 -14.9031 -14.7652 -14.6892 -14.5900 -13.0964
   -13.0959  -9.9958  -5.9968  -4.5945  -4.0263  -3.7273  -3.0555  -2.9592
    -2.8474  -2.7225  -2.7134  -2.6997  -2.6418  -2.6109  -2.5850  -2.5435
    -2.4864  -2.4679  -2.4461  -2.4296  -2.4080  -2.3898  -2.3811  -2.3759
    -2.3393  -2.3217  -2.3133  -2.2723  -2.2647  -2.2481  -2.2277  -2.2108
    -2.1802  -2.1757  -2.1462  -2.0946  -2.0453  -1.9715  -1.8786  -1.7973
    -1.7862  -1.7677  -1.7183  -1.7118  -1.6662  -1.6585  -1.6336  -1.5481
    -1.4359  -1.3853  -1.2748  -1.2552  -1.2282  -1.1890  -1.1357  -1.1216
    -1.0760  -1.0456  -0.9857  -0.8846  -0.8545  -0.7993  -0.6860  -0.6487
    -0.6100  -0.5901  -0.5780  -0.5529  -0.5363  -0.4964  -0.4683  -0.4209
    -0.3808  -0.3466  -0.3198  -0.2942  -0.2483  -0.1456  -0.0513  -0.0139
     0.0875   0.1337   0.1757   0.2077   0.2693   0.4044   0.4312   0.5270
     0.5417   0.5709   0.6725   0.6826   0.7838   0.8079   0.8460   0.8871
     0.9118   0.9329   0.9526   1.7760   1.7845   1.8474   1.8476   3.7384
     3.9310   3.9461   3.9623   4.0070   4.0142   4.0412   4.0468   4.1134
     4.1243

     the Fermi energy is     3.4845 ev

!    total energy              =   -2955.26293919 Ry
     estimated scf accuracy    <       0.00000005 Ry
     smearing contrib. (-TS)   =      -0.01952985 Ry
     internal energy E=F+TS    =   -2955.24340934 Ry

     The total energy is F=E-TS. E is the sum of the following terms:
     one-electron contribution =  -23741.59804270 Ry
     hartree contribution      =   11962.91351240 Ry
     xc contribution           =    -489.73966241 Ry
     ewald contribution        =    9313.17898524 Ry
     electric field correction =       0.00179814 Ry

     convergence has been achieved in  65 iterations

     Forces acting on atoms (cartesian axes, Ry/au):

     atom    1 type  1   force =     0.00009375   -0.00029215    0.09415328
     atom    2 type  1   force =    -0.00003937    0.00043199   -0.17539385
     atom    3 type  2   force =     0.00003975   -0.00033463   -0.02110201
     atom    4 type  2   force =     0.00002264   -0.00197654    0.05461993
     atom    5 type  2   force =    -0.00675339   -0.00244951    0.00302098
     atom    6 type  2   force =     0.00835885   -0.00187290    0.00244099
     atom    7 type  1   force =    -0.00017734   -0.00404451    0.00899218
     atom    8 type  1   force =     0.00031722    0.00082373    0.00312170
     atom    9 type  2   force =    -0.00058199    0.00058333   -0.00017320
     atom   10 type  2   force =    -0.00139230    0.00173297   -0.00926732
     atom   11 type  2   force =     0.00004377   -0.00015697    0.00037231
     atom   12 type  2   force =    -0.00006065   -0.00011127   -0.00031112
     atom   13 type  1   force =    -0.00048838   -0.00024489    0.00005295
     atom   14 type  1   force =     0.00000959   -0.00033873   -0.00007623
     atom   15 type  2   force =    -0.00031148   -0.00003305   -0.00014927
     atom   16 type  2   force =     0.00032040   -0.00054429   -0.00040526
     atom   17 type  2   force =     0.00043786   -0.00015009   -0.00079147
     atom   18 type  2   force =    -0.00047572    0.00016271   -0.00011930
     atom   19 type  1   force =     0.00050136   -0.00060180    0.00069035
     atom   20 type  1   force =     0.00048998    0.00027351    0.00039181
     atom   21 type  2   force =     0.00007538    0.00004742    0.10323313
     atom   22 type  2   force =    -0.00048491    0.00037949    0.00019062
     atom   23 type  2   force =    -0.07191213   -0.00019102   -0.02720796
     atom   24 type  2   force =     0.07184053    0.00025031   -0.02725223
     atom   25 type  1   force =     0.00002410   -0.00024016    0.09381939
     atom   26 type  1   force =    -0.00006411   -0.00132764   -0.17558486
     atom   27 type  2   force =     0.00015682   -0.00011609   -0.01986511
     atom   28 type  2   force =     0.00006968   -0.00032311    0.04989510
     atom   29 type  2   force =    -0.00614543    0.00232231    0.00252733
     atom   30 type  2   force =     0.00763873    0.00268720    0.00197618
     atom   31 type  1   force =     0.00002510    0.00840156   -0.00273080
     atom   32 type  1   force =     0.00012048   -0.00236235    0.00260259
     atom   33 type  2   force =     0.00005147   -0.00000257   -0.00004910
     atom   34 type  2   force =    -0.00211791   -0.00248835   -0.01004023
     atom   35 type  2   force =    -0.00014117   -0.00001806    0.00052829
     atom   36 type  2   force =    -0.00007579    0.00006906   -0.00008062
     atom   37 type  1   force =     0.00016407   -0.00009324   -0.00023569
     atom   38 type  1   force =     0.00005358   -0.00017660    0.00024046
     atom   39 type  2   force =    -0.00013042    0.00010193   -0.00028406
     atom   40 type  2   force =     0.00017029   -0.00025090   -0.00010342
     atom   41 type  2   force =    -0.00037501   -0.00073152    0.00061811
     atom   42 type  2   force =     0.00050743    0.00004197   -0.00020560
     atom   43 type  1   force =    -0.00077917   -0.00063131    0.00026914
     atom   44 type  1   force =     0.00041164    0.00044033   -0.00023084
     atom   45 type  2   force =     0.00006799   -0.00007248    0.10302995
     atom   46 type  2   force =    -0.07192905   -0.00004429   -0.02723937
     atom   47 type  2   force =     0.07189174    0.00039373   -0.02728945
     atom   48 type  3   force =    -0.00012168    0.00035592    0.00006931
     atom   49 type  4   force =     0.00185888    0.00326528   -0.00210694
     atom   50 type  5   force =     0.00092174    0.00116625   -0.00107400
     atom   51 type  5   force =    -0.00138641   -0.00215582    0.00313723
     atom   52 type  5   force =     0.00000012   -0.00054318    0.00003515
     atom   53 type  5   force =    -0.00034146    0.00055960   -0.00073214
     atom   54 type  5   force =     0.00032402   -0.00002698    0.00004255
     atom   55 type  2   force =    -0.00046136    0.00039142    0.00046171
     atom   56 type  5   force =    -0.00026233    0.00006498   -0.00043130

     Total force =     0.362222     Total SCF correction =     0.000543
  @ DRIVER MODE: Message from server: STATUS
  @ DRIVER MODE: Message from server: GETFORCE
  @ DRIVER MODE: Returning v,forces,stress,ensemble

     Writing output data file ./calc.save/
  @ DRIVER MODE: Message from server: EXIT
  @ DRIVE MODE: Exiting

     General routines

     Parallel routines

   This run was terminated on:  20:12: 3  23Sep2021

   JOB DONE.