     Program PWSCF v.6.7GPU starts on 16Sep2021 at  1:34:53

     R & G space division:  proc/nbgrp/npool/nimage =      10
     Reading input from /storage/home/hcoda1/3/ntian30/research/carbon/CxH_vib/H2O_calc/ads_slab/CH2OH2O_a/out_0030/pw.inp
Warning: card &CELL ignored
Warning: card   CELL_DYNAMICS='IPI', ignored
Warning: card / ignored

     Current dimensions of program PWSCF are:
     Max number of different atomic species (ntypx) = 10
     Max number of k-points (npk) =  40000
     Max angular momentum in pseudopotentials (lmaxx) =  3
     Presently no symmetry can be used with electric field

     Message from routine cell_base_init:
     DEPRECATED: use true lattice parameter, not A to a.u. conversion factor

     IMPORTANT: XC functional enforced from input :
     Exchange-correlation= BEEF-VDW
                           (   1   4  43  14   2   0   0)
     Any further DFT definition will be discarded
     Please, verify this is what you really want

  @ DRIVER MODE: Connecting to
 qe_1139763_2852613.sched-torque.pace.gatech.eduk5clp1ur_scratch
  using UNIX socket
  @ DRIVER MODE: Message from server: STATUS
  @ DRIVER MODE: Message from server: INIT
  @ DRIVER MODE: Receiving replica           0          -1
  @ DRIVER MODE: Receiving encoded integer          25
  @ DRIVER MODE:  SCF:  T  FORCE:  T  STRESS:  F  VC:  F  ENSEMBLE:  F
  @ DRIVER MODE:  SCF:  T  FORCE:  T  STRESS:  F  VC:  F  ENSEMBLE:  F

     Using Slab Decomposition

     bravais-lattice index     =            0
     lattice parameter (alat)  =       1.8897  a.u.
     unit-cell volume          =    6658.9804 (a.u.)^3
     number of atoms/cell      =           54
     number of atomic types    =            4
     number of electrons       =       398.00
     number of Kohn-Sham states=          209
     kinetic-energy cutoff     =      29.3995  Ry
     charge density cutoff     =     293.9946  Ry
     scf convergence threshold =      7.3E-08
     mixing beta               =       0.0500
     number of iterations used =            8  plain     mixing
     Exchange-correlation= BEEF-VDW
                           (   1   4  43  14   2   0   0)

     celldm(1)=   1.889726  celldm(2)=   0.000000  celldm(3)=   0.000000
     celldm(4)=   0.000000  celldm(5)=   0.000000  celldm(6)=   0.000000

     crystal axes: (cart. coord. in units of alat)
               a(1) = (   6.579727   0.000000   0.000000 )
               a(2) = (  -0.000775   5.961596   0.000000 )
               a(3) = (   0.000000   0.000000  25.155947 )

     reciprocal axes: (cart. coord. in units 2 pi/alat)
               b(1) = (  0.151982  0.000020  0.000000 )
               b(2) = (  0.000000  0.167740  0.000000 )
               b(3) = (  0.000000  0.000000  0.039752 )

     PseudoPot. # 1 for O  read from file:
     /storage/coda1/p-amedford6/0/shared/rich_project_chbe-medford/medford-share/data/pseudos_module/espresso/nninc/pbe/van/O.UPF
     MD5 check sum: 78c19812648e8988a0fe644b0f25305e
     Pseudo is Ultrasoft, Zval =  6.0
     Generated by new atomic code, or converted to UPF format
     Using radial grid of  737 points,  4 beta functions with:
                l(1) =   0
                l(2) =   0
                l(3) =   1
                l(4) =   1
     Q(r) pseudized with  8 coefficients,  rinner =    0.800   0.800   0.800

     PseudoPot. # 2 for Ti read from file:
     /storage/coda1/p-amedford6/0/shared/rich_project_chbe-medford/medford-share/data/pseudos_module/espresso/nninc/pbe/van/Ti.UPF
     MD5 check sum: 8e4df49b7f0d34bbd5052bf3f5ea0213
     Pseudo is Ultrasoft, Zval = 12.0
     Generated by new atomic code, or converted to UPF format
     Using radial grid of  851 points,  6 beta functions with:
                l(1) =   0
                l(2) =   0
                l(3) =   1
                l(4) =   1
                l(5) =   2
                l(6) =   2
     Q(r) pseudized with  8 coefficients,  rinner =    1.000   1.000   1.000
                                                       1.000   1.000

     PseudoPot. # 3 for C  read from file:
     /storage/coda1/p-amedford6/0/shared/rich_project_chbe-medford/medford-share/data/pseudos_module/espresso/nninc/pbe/van/C.UPF
     MD5 check sum: 1a69bf6b8db32088f5b2163dbdb77a27
     Pseudo is Ultrasoft, Zval =  4.0
     Generated by new atomic code, or converted to UPF format
     Using radial grid of  721 points,  4 beta functions with:
                l(1) =   0
                l(2) =   0
                l(3) =   1
                l(4) =   1
     Q(r) pseudized with  8 coefficients,  rinner =    0.800   0.800   0.800

     PseudoPot. # 4 for H  read from file:
     /storage/coda1/p-amedford6/0/shared/rich_project_chbe-medford/medford-share/data/pseudos_module/espresso/nninc/pbe/van/H.UPF
     MD5 check sum: b5ee9d7bfd3a09ee7748110bda690ff7
     Pseudo is Ultrasoft, Zval =  1.0
     Generated by new atomic code, or converted to UPF format
     Using radial grid of  615 points,  1 beta functions with:
                l(1) =   0
     Q(r) pseudized with  8 coefficients,  rinner =    0.800

     atomic species   valence    mass     pseudopotential
        O1             6.00    15.99900     O ( 1.00)
        Ti1           12.00    47.86700     Ti( 1.00)
        C1             4.00    12.01100     C ( 1.00)
        H1             1.00     1.00800     H ( 1.00)

     No symmetry found

   Cartesian axes

     site n.     atom                  positions (alat units)
         1           O1  tau(   1) = (   3.2904802   0.0005063   4.7018136  )
         2           O1  tau(   2) = (   3.2900926   2.9813045   4.7018136  )
         3           Ti1 tau(   3) = (   0.0004258   2.9801865   6.0000000  )
         4           Ti1 tau(   4) = (   0.0000382   5.9609847   6.0000000  )
         5           Ti1 tau(   5) = (   3.2906075   1.4906267   6.0002472  )
         6           Ti1 tau(   6) = (   3.2902200   4.4714249   6.0002472  )
         7           O1  tau(   7) = (   1.3043587   1.4918075   6.0039043  )
         8           O1  tau(   8) = (   1.3039711   4.4726057   6.0039043  )
         9           O1  tau(   9) = (   5.2767064   1.4903225   6.0039473  )
        10           O1  tau(  10) = (   5.2763189   4.4711207   6.0039473  )
        11           O1  tau(  11) = (   3.2906025   0.0005020   7.3038282  )
        12           O1  tau(  12) = (   3.2902150   2.9813002   7.3038282  )
        13           O1  tau(  13) = (   0.0006271   0.0005054   7.9858123  )
        14           O1  tau(  14) = (   0.0002396   2.9813036   7.9858123  )
        15           Ti1 tau(  15) = (   3.3036605   0.0548493   9.1550340  )
        16           Ti1 tau(  16) = (   3.3179312   3.0323762   9.1622521  )
        17           Ti1 tau(  17) = (   0.0293130   4.5303424   9.2586280  )
        18           Ti1 tau(  18) = (   0.0255512   1.6071936   9.3606264  )
        19           O1  tau(  19) = (   4.5942328   1.4918067   9.2879030  )
        20           O1  tau(  20) = (   4.5938453   4.4726049   9.2879030  )
        21           O1  tau(  21) = (   1.9868534   1.4903216   9.2879459  )
        22           O1  tau(  22) = (   1.9864658   4.4711199   9.2879459  )
        23           O1  tau(  23) = (   0.0067149   0.0090568  10.6008527  )
        24           O1  tau(  24) = (   0.0066098   2.9904127  10.5810825  )
        25           O1  tau(  25) = (   3.3023248   2.9935247  11.3558429  )
        26           O1  tau(  26) = (   3.3019398   0.0103095  11.3581380  )
        27           Ti1 tau(  27) = (   0.0322082   0.0188897  12.5014682  )
        28           Ti1 tau(  28) = (   3.3323403   4.4947089  12.5096490  )
        29           Ti1 tau(  29) = (   3.3327227   1.5059056  12.5040540  )
        30           Ti1 tau(  30) = (   0.0321551   3.0004163  12.7750784  )
        31           O1  tau(  31) = (   1.2963378   4.4834263  12.6382484  )
        32           O1  tau(  32) = (   1.2968596   1.4996660  12.6342602  )
        33           O1  tau(  33) = (   5.3004736   4.4821179  12.6410582  )
        34           O1  tau(  34) = (   5.3007909   1.4998706  12.6367838  )
        35           O1  tau(  35) = (   3.3017874   2.9879694  13.9086975  )
        36           O1  tau(  36) = (   3.3040514   0.0100701  13.9766235  )
        37           O1  tau(  37) = (   0.0177811   0.0165449  14.6846256  )
        38           O1  tau(  38) = (   0.0218693   2.9952767  14.7100221  )
        39           Ti1 tau(  39) = (   3.3083447   2.9915206  15.7010863  )
        40           Ti1 tau(  40) = (   3.3165693   0.0114089  15.8055842  )
        41           Ti1 tau(  41) = (   0.0300915   4.5703342  15.9344200  )
        42           Ti1 tau(  42) = (   0.0294271   1.3911826  15.9958598  )
        43           O1  tau(  43) = (   4.5666857   4.4545776  16.0545193  )
        44           O1  tau(  44) = (   4.5654216   1.5273373  16.0688375  )
        45           O1  tau(  45) = (   2.0398213   1.5345912  16.0698912  )
        46           O1  tau(  46) = (   2.0372649   4.4468515  16.0554978  )
        47           O1  tau(  47) = (   0.0160947   0.0056016  17.2166677  )
        48           O1  tau(  48) = (   6.5639191   3.0028441  17.4181802  )
        49           C1  tau(  49) = (   6.3909186   3.0704891  18.6902598  )
        50           H1  tau(  50) = (   6.3116585   4.0479728  19.1570877  )
        51           H1  tau(  51) = (   6.3127454   2.1532251  19.2664540  )
        52           O1  tau(  52) = (   3.2659488   5.9319982  18.2241537  )
        53           H1  tau(  53) = (   4.0486762   5.9278262  18.7801078  )
        54           H1  tau(  54) = (   2.4667005   5.9275743  18.7583984  )

     number of k points=    10  Fermi-Dirac smearing, width (Ry)=  0.0073
                       cart. coord. in units 2pi/alat
        k(    1) = (   0.0000000   0.0000000   0.0000000), wk =   0.1250000
        k(    2) = (   0.0000000   0.0419351   0.0000000), wk =   0.2500000
        k(    3) = (   0.0000000  -0.0838702   0.0000000), wk =   0.1250000
        k(    4) = (   0.0379955   0.0000049   0.0000000), wk =   0.2500000
        k(    5) = (   0.0379955   0.0419400   0.0000000), wk =   0.2500000
        k(    6) = (   0.0379955  -0.0838652   0.0000000), wk =   0.2500000
        k(    7) = (   0.0379955  -0.0419301   0.0000000), wk =   0.2500000
        k(    8) = (  -0.0759910  -0.0000099   0.0000000), wk =   0.1250000
        k(    9) = (  -0.0759910   0.0419252   0.0000000), wk =   0.2500000
        k(   10) = (  -0.0759910  -0.0838800   0.0000000), wk =   0.1250000

     Initial potential from superposition of free atoms

     starting charge  381.99917, renormalised to  398.00000

     negative rho (up, down):  1.686E-02 0.000E+00

     %%%%%%%%%%%%%%%%%%%%%%%%%%%%%%%%%%%%%%%%%%%%%%%%%%%%%%%%%%%%%%%%%%%%%%%%
     %                                                                      %
     % You are using vdW-DF, which was implemented by the Thonhauser group. %
     % Please cite the following two papers that made this development      %
     % possible and the two reviews that describe the various versions:     %
     %                                                                      %
     %   T. Thonhauser et al., PRL 115, 136402 (2015).                      %
     %   T. Thonhauser et al., PRB 76, 125112 (2007).                       %
     %   K. Berland et al., Rep. Prog. Phys. 78, 066501 (2015).             %
     %   D.C. Langreth et al., J. Phys.: Condens. Matter 21, 084203 (2009). %
     %                                                                      %
     %                                                                      %
     % If you are calculating the stress with vdW-DF, please also cite:     %
     %                                                                      %
     %   R. Sabatini et al., J. Phys.: Condens. Matter 24, 424209 (2012).   %
     %                                                                      %
     %%%%%%%%%%%%%%%%%%%%%%%%%%%%%%%%%%%%%%%%%%%%%%%%%%%%%%%%%%%%%%%%%%%%%%%%

     Adding external electric field

     Computed dipole along edir(3) :
        Dipole               -9.6420 Ry au,        -24.5075 Debye
        Dipole field         -0.0182 Ry au,

        Potential amp.        1.6867 Ry
        Total length         46.3494 bohr

     Starting wfcs are  300 atomic wfcs
  @ DRIVER MODE: Message from server: STATUS
  @ DRIVER MODE: Message from server: POSDATA
  @ DRIVER MODE: Reading and sharing cell
  @ DRIVER MODE: Reading and sharing positions
  @ DRIVER MODE: Received positions

     Self-consistent Calculation

     iteration #  1     ecut=    29.40 Ry     beta= 0.05
     Davidson diagonalization with overlap
     c_bands:  1 eigenvalues not converged
     c_bands:  3 eigenvalues not converged
     c_bands:  2 eigenvalues not converged
     c_bands:  2 eigenvalues not converged
     c_bands:  2 eigenvalues not converged
     c_bands:  1 eigenvalues not converged
     c_bands:  2 eigenvalues not converged
     c_bands:  1 eigenvalues not converged
     c_bands:  2 eigenvalues not converged
     ethr =  1.00E-05,  avg # of iterations = 19.6

[...]

     total energy              =   -2526.80688186 Ry
     estimated scf accuracy    <    4873.87728772 Ry

     iteration #  2     ecut=    29.40 Ry     beta= 0.05
     Davidson diagonalization with overlap
     ethr =  1.00E-02,  avg # of iterations = 26.6

[...]

     iteration # 68     ecut=    29.40 Ry     beta= 0.05
     Davidson diagonalization with overlap
     c_bands:  1 eigenvalues not converged
     ethr =  5.12E-11,  avg # of iterations = 10.7

[...]

     total energy              =   -2964.99519792 Ry
     estimated scf accuracy    <       0.00000008 Ry

     iteration # 71     ecut=    29.40 Ry     beta= 0.05
     Davidson diagonalization with overlap
     ethr =  1.89E-11,  avg # of iterations = 10.5

     negative rho (up, down):  1.530E-02 0.000E+00

     Adding external electric field

     Computed dipole along edir(3) :
        Dipole                1.2211 Ry au,          3.1038 Debye
        Dipole field          0.0023 Ry au,

        Potential amp.       -0.2136 Ry
        Total length         46.3494 bohr

     End of self-consistent calculation

          k = 0.0000 0.0000 0.0000 ( 18029 PWs)   bands (ev):

   -55.5410 -55.5042 -55.5033 -55.4671 -55.4647 -55.4195 -55.3832 -55.3165
   -55.3036 -55.2808 -55.2702 -55.2611 -55.2196 -55.2112 -54.5522 -54.5181
   -32.0590 -32.0114 -31.8973 -31.8548 -31.8532 -31.8352 -31.8148 -31.8063
   -31.7826 -31.7709 -31.7376 -31.7270 -31.6998 -31.6877 -31.6847 -31.6511
   -31.6474 -31.6410 -31.6362 -31.6334 -31.6045 -31.5990 -31.5913 -31.5873
   -31.5600 -31.5555 -31.5522 -31.5318 -31.5245 -31.5229 -31.4775 -31.4764
   -31.4503 -31.4483 -31.4351 -31.4296 -31.4238 -31.4095 -31.3979 -31.3967
   -31.3934 -31.3771 -30.9617 -30.8655 -30.8431 -30.7782 -30.6921 -30.5810
   -19.3663 -19.1758 -16.2564 -15.9938 -15.8224 -15.7109 -15.6639 -15.4619
   -15.3689 -15.2883 -15.2246 -15.1469 -15.1302 -15.0927 -15.0666 -15.0609
   -15.0563 -15.0077 -14.9982 -14.9585 -14.9467 -14.9454 -14.9266 -14.9079
   -14.8259 -14.7241 -14.6803 -14.6620 -14.6031 -14.5467 -14.5333 -13.0532
   -12.9352  -9.0182  -7.2442  -5.2226  -5.1837  -3.7372  -3.5704  -3.4597
    -3.4252  -3.3883  -3.3183  -3.1400  -3.1315  -3.0383  -2.8011  -2.7108
    -2.6774  -2.6198  -2.6096  -2.5102  -2.4691  -2.3627  -2.3538  -2.3500
    -2.3334  -2.3070  -2.2747  -2.2321  -2.2081  -2.1961  -2.0684  -2.0581
    -1.9291  -1.9230  -1.8998  -1.8450  -1.8402  -1.7980  -1.7852  -1.7819
    -1.7686  -1.7204  -1.7086  -1.5956  -1.5216  -1.4586  -1.3708  -1.2334
    -1.1721  -1.0984  -1.0460  -1.0108  -0.9482  -0.9452  -0.8908  -0.8502
    -0.7919  -0.7806  -0.7733  -0.6767  -0.5781  -0.5560  -0.5260  -0.4474
    -0.3693  -0.2831  -0.2637  -0.2614  -0.2601  -0.2390  -0.1020  -0.0179
     0.0382   0.0442   0.1405   0.1738   0.2084   0.2231   0.2552   0.2758
     0.3319   0.4067   0.4182   0.4317   0.4574   0.5032   0.5088   0.6214
     0.6972   0.6986   0.7354   0.7681   0.9434   0.9784   1.1054   1.2124
     1.3789   1.4719   1.5439   1.6449   2.0579   2.1156   3.6322   3.6741
     3.6890   3.7312   3.7810   3.8076   3.8752   4.0741   4.0907   4.1006
     4.1400

[...]

          k = 0.0380-0.0419 0.0000 ( 17876 PWs)   bands (ev):

[...]

          k =-0.0760-0.0000 0.0000 ( 17886 PWs)   bands (ev):

[...]

          k =-0.0760-0.0839 0.0000 ( 17948 PWs)   bands (ev):

   -55.5296 -55.5155 -55.4865 -55.4837 -55.4632 -55.4093 -55.3934 -55.3130
   -55.2883 -55.2858 -55.2752 -55.2625 -55.2249 -55.2139 -54.5356 -54.5345
   -31.8696 -31.8548 -31.8355 -31.8228 -31.8200 -31.8004 -31.7759 -31.7579
   -31.7447 -31.7398 -31.7397 -31.7315 -31.6983 -31.6647 -31.6581 -31.6543
   -31.6451 -31.6422 -31.6393 -31.6365 -31.6306 -31.6117 -31.6110 -31.6098
   -31.6051 -31.5903 -31.5698 -31.5544 -31.5413 -31.5397 -31.5328 -31.5158
   -31.4982 -31.4937 -31.4870 -31.4852 -31.4673 -31.4491 -31.4438 -31.4382
   -31.4078 -31.4015 -30.8565 -30.8551 -30.7751 -30.7741 -30.7357 -30.7347
   -19.3575 -19.1755 -15.7077 -15.5986 -15.5644 -15.4173 -15.4131 -15.3622
   -15.3542 -15.3182 -15.2382 -15.2347 -15.1848 -15.1661 -15.1313 -15.1079
   -15.0959 -15.0501 -15.0477 -15.0291 -15.0054 -14.9865 -14.9700 -14.9425
   -14.9186 -14.9115 -14.8733 -14.8650 -14.8005 -14.7462 -14.7248 -13.0376
   -13.0354  -9.0191  -7.2417  -5.1997  -5.1606  -3.6824  -3.1590  -2.9916
    -2.8044  -2.7882  -2.6565  -2.6217  -2.6035  -2.5132  -2.4800  -2.4462
    -2.3832  -2.3722  -2.3658  -2.3441  -2.3393  -2.3254  -2.3047  -2.2663
    -2.2567  -2.2263  -2.1960  -2.1819  -2.1613  -2.1516  -2.1231  -2.1035
    -2.0904  -2.0874  -2.0256  -1.9980  -1.9129  -1.8462  -1.7651  -1.7129
    -1.6813  -1.6790  -1.6428  -1.6042  -1.5965  -1.5813  -1.4354  -1.3865
    -1.2633  -1.2500  -1.2307  -1.1544  -1.1389  -1.1042  -1.0994  -1.0331
    -0.9463  -0.9421  -0.9195  -0.8913  -0.8037  -0.7354  -0.6943  -0.6589
    -0.6146  -0.5847  -0.5106  -0.4972  -0.4863  -0.4239  -0.3839  -0.2986
    -0.2847  -0.2657  -0.2144  -0.1854  -0.1517  -0.0821  -0.0639  -0.0423
     0.0399   0.1060   0.1124   0.3221   0.4844   0.5136   0.5301   0.6148
     0.6615   0.7703   0.7929   0.8024   0.8450   0.8907   0.9783   1.0043
     1.0061   1.0835   1.8322   1.8329   1.9204   1.9309   3.5640   3.8779
     3.9421   3.9653   3.9907   4.1057   4.1083   4.1276   4.1361   4.2787
     4.2939

     the Fermi energy is     3.6106 ev

!    total energy              =   -2964.99521189 Ry
     estimated scf accuracy    <       0.00000006 Ry
     smearing contrib. (-TS)   =      -0.03113169 Ry
     internal energy E=F+TS    =   -2964.96408020 Ry

     The total energy is F=E-TS. E is the sum of the following terms:
     one-electron contribution =  -24339.39658178 Ry
     hartree contribution      =   12262.73373070 Ry
     xc contribution           =    -490.11203887 Ry
     ewald contribution        =    9601.80799566 Ry
     electric field correction =       0.00281409 Ry

     convergence has been achieved in  71 iterations

     Forces acting on atoms (cartesian axes, Ry/au):

     atom    1 type  1   force =    -0.00009884    0.00006807    0.10405483
     atom    2 type  1   force =    -0.00008958    0.00006301    0.10406737
     atom    3 type  2   force =    -0.00029435   -0.00188696    0.10330388
     atom    4 type  2   force =    -0.00015472    0.00151424    0.11464066
     atom    5 type  2   force =    -0.00037426    0.00124353   -0.17933348
     atom    6 type  2   force =    -0.00016864   -0.00076474   -0.17971275
     atom    7 type  1   force =    -0.06940173    0.00065473   -0.02928020
     atom    8 type  1   force =    -0.06894945   -0.00122550   -0.02932908
     atom    9 type  1   force =     0.06904314    0.00114685   -0.02934173
     atom   10 type  1   force =     0.06867820   -0.00080860   -0.02940344
     atom   11 type  1   force =     0.00041854    0.00056707    0.04680138
     atom   12 type  1   force =     0.00063135    0.00080747    0.04850316
     atom   13 type  1   force =     0.00026644   -0.00568123   -0.03325040
     atom   14 type  1   force =     0.00033165    0.00339521   -0.02638474
     atom   15 type  2   force =    -0.00010177   -0.00001944    0.00040085
     atom   16 type  2   force =     0.00001700    0.00002484    0.00050700
     atom   17 type  2   force =    -0.00002638    0.00013151    0.00042671
     atom   18 type  2   force =    -0.00006942   -0.00033282    0.00007241
     atom   19 type  1   force =    -0.01806743   -0.00015750    0.00403578
     atom   20 type  1   force =    -0.01684279    0.00147967    0.00328553
     atom   21 type  1   force =     0.01933754   -0.00136961    0.00448224
     atom   22 type  1   force =     0.01790531    0.00116370    0.00355898
     atom   23 type  1   force =     0.00001770    0.00003229   -0.00012974
     atom   24 type  1   force =    -0.00005420   -0.00000870   -0.00006742
     atom   25 type  1   force =    -0.00004979    0.00000777   -0.00059216
     atom   26 type  1   force =    -0.00023071    0.00014398   -0.00066281
     atom   27 type  2   force =     0.00004148    0.00014279   -0.00044970
     atom   28 type  2   force =     0.00022507   -0.00000906   -0.00014670
     atom   29 type  2   force =     0.00021652    0.00004266   -0.00026820
     atom   30 type  2   force =    -0.00008795    0.00020162    0.00015087
     atom   31 type  1   force =    -0.00063968   -0.00024371    0.00053974
     atom   32 type  1   force =    -0.00055032    0.00032584    0.00056821
     atom   33 type  1   force =     0.00039865   -0.00014408    0.00035738
     atom   34 type  1   force =     0.00032085    0.00018997    0.00038450
     atom   35 type  1   force =    -0.00014801    0.00001156    0.00026634
     atom   36 type  1   force =    -0.00008757    0.00001292    0.00002584
     atom   37 type  1   force =    -0.00036628    0.00000678   -0.00018089
     atom   38 type  1   force =    -0.00051470    0.00026906   -0.00000155
     atom   39 type  2   force =    -0.00016610   -0.00009487    0.00128839
     atom   40 type  2   force =     0.00006552    0.00020072   -0.00121218
     atom   41 type  2   force =    -0.00031642   -0.00089979   -0.00061041
     atom   42 type  2   force =    -0.00029505    0.00089870   -0.00048476
     atom   43 type  1   force =    -0.00009826    0.00033061    0.00045063
     atom   44 type  1   force =    -0.00014870   -0.00018874    0.00022978
     atom   45 type  1   force =    -0.00032460   -0.00036962    0.00013384
     atom   46 type  1   force =    -0.00036698    0.00054450    0.00030065
     atom   47 type  1   force =    -0.00004642   -0.00019768    0.00021588
     atom   48 type  1   force =    -0.00023632    0.00013333    0.00086563
     atom   49 type  3   force =     0.00021663   -0.00056541    0.00005883
     atom   50 type  4   force =     0.00048029   -0.00116848    0.00042903
     atom   51 type  4   force =     0.00037176   -0.00026319   -0.00064247
     atom   52 type  1   force =     0.00025038    0.00080558   -0.01746225
     atom   53 type  4   force =     0.00805368   -0.00007596    0.00847266
     atom   54 type  4   force =    -0.00792027   -0.00008488    0.00606803

     Total force =     0.375174     Total SCF correction =     0.000777
  @ DRIVER MODE: Message from server: STATUS
  @ DRIVER MODE: Message from server: GETFORCE
  @ DRIVER MODE: Returning v,forces,stress,ensemble

     Writing output data file ./calc.save/
  @ DRIVER MODE: Message from server: EXIT
  @ DRIVE MODE: Exiting

     General routines

     Parallel routines

   This run was terminated on:   1:54:41  16Sep2021

   JOB DONE.