     Program PWSCF v.6.7GPU starts on 15Sep2021 at 19:18:33

     R & G space division:  proc/nbgrp/npool/nimage =      10
     Reading input from /storage/home/hcoda1/3/ntian30/research/carbon/CxH_vib/H2O_calc/ads_slab/CH3N2HH2O_a/out_0012/pw.inp
Warning: card &CELL ignored
Warning: card   CELL_DYNAMICS='IPI', ignored
Warning: card / ignored

     Current dimensions of program PWSCF are:
     Max number of different atomic species (ntypx) = 10
     Max number of k-points (npk) =  40000
     Max angular momentum in pseudopotentials (lmaxx) =  3
     Presently no symmetry can be used with electric field

     Message from routine cell_base_init:
     DEPRECATED: use true lattice parameter, not A to a.u. conversion factor

     IMPORTANT: XC functional enforced from input :
     Exchange-correlation= BEEF-VDW
                           (   1   4  43  14   2   0   0)
     Any further DFT definition will be discarded
     Please, verify this is what you really want

  @ DRIVER MODE: Connecting to
 qe_1139763_2852617.sched-torque.pace.gatech.eduvz5lw3lv_scratch
  using UNIX socket
  @ DRIVER MODE: Message from server: STATUS
  @ DRIVER MODE: Message from server: INIT
  @ DRIVER MODE: Receiving replica           0          -1
  @ DRIVER MODE: Receiving encoded integer          25
  @ DRIVER MODE:  SCF:  T  FORCE:  T  STRESS:  F  VC:  F  ENSEMBLE:  F
  @ DRIVER MODE:  SCF:  T  FORCE:  T  STRESS:  F  VC:  F  ENSEMBLE:  F

     Using Slab Decomposition

     bravais-lattice index     =            0
     lattice parameter (alat)  =       1.8897  a.u.
     unit-cell volume          =    6658.9804 (a.u.)^3
     number of atoms/cell      =           57
     number of atomic types    =            5
     number of electrons       =       404.00
     number of Kohn-Sham states=          212
     kinetic-energy cutoff     =      29.3995  Ry
     charge density cutoff     =     293.9946  Ry
     scf convergence threshold =      7.3E-08
     mixing beta               =       0.0500
     number of iterations used =            8  plain     mixing
     Exchange-correlation= BEEF-VDW
                           (   1   4  43  14   2   0   0)

     celldm(1)=   1.889726  celldm(2)=   0.000000  celldm(3)=   0.000000
     celldm(4)=   0.000000  celldm(5)=   0.000000  celldm(6)=   0.000000

     crystal axes: (cart. coord. in units of alat)
               a(1) = (   6.579727   0.000000   0.000000 )
               a(2) = (  -0.000775   5.961596   0.000000 )
               a(3) = (   0.000000   0.000000  25.155947 )

     reciprocal axes: (cart. coord. in units 2 pi/alat)
               b(1) = (  0.151982  0.000020  0.000000 )
               b(2) = (  0.000000  0.167740  0.000000 )
               b(3) = (  0.000000  0.000000  0.039752 )

     PseudoPot. # 1 for Ti read from file:
     /storage/coda1/p-amedford6/0/shared/rich_project_chbe-medford/medford-share/data/pseudos_module/espresso/nninc/pbe/van/Ti.UPF
     MD5 check sum: 8e4df49b7f0d34bbd5052bf3f5ea0213
     Pseudo is Ultrasoft, Zval = 12.0
     Generated by new atomic code, or converted to UPF format
     Using radial grid of  851 points,  6 beta functions with:
                l(1) =   0
                l(2) =   0
                l(3) =   1
                l(4) =   1
                l(5) =   2
                l(6) =   2
     Q(r) pseudized with  8 coefficients,  rinner =    1.000   1.000   1.000
                                                       1.000   1.000

     PseudoPot. # 2 for O  read from file:
     /storage/coda1/p-amedford6/0/shared/rich_project_chbe-medford/medford-share/data/pseudos_module/espresso/nninc/pbe/van/O.UPF
     MD5 check sum: 78c19812648e8988a0fe644b0f25305e
     Pseudo is Ultrasoft, Zval =  6.0
     Generated by new atomic code, or converted to UPF format
     Using radial grid of  737 points,  4 beta functions with:
                l(1) =   0
                l(2) =   0
                l(3) =   1
                l(4) =   1
     Q(r) pseudized with  8 coefficients,  rinner =    0.800   0.800   0.800

     PseudoPot. # 3 for N  read from file:
     /storage/coda1/p-amedford6/0/shared/rich_project_chbe-medford/medford-share/data/pseudos_module/espresso/nninc/pbe/van/N.UPF
     MD5 check sum: 90d10febe142ad51ac9d5be1deb811c4
     Pseudo is Ultrasoft, Zval =  5.0
     Generated by new atomic code, or converted to UPF format
     Using radial grid of  729 points,  4 beta functions with:
                l(1) =   0
                l(2) =   0
                l(3) =   1
                l(4) =   1
     Q(r) pseudized with  8 coefficients,  rinner =    0.800   0.800   0.800

     PseudoPot. # 4 for C  read from file:
     /storage/coda1/p-amedford6/0/shared/rich_project_chbe-medford/medford-share/data/pseudos_module/espresso/nninc/pbe/van/C.UPF
     MD5 check sum: 1a69bf6b8db32088f5b2163dbdb77a27
     Pseudo is Ultrasoft, Zval =  4.0
     Generated by new atomic code, or converted to UPF format
     Using radial grid of  721 points,  4 beta functions with:
                l(1) =   0
                l(2) =   0
                l(3) =   1
                l(4) =   1
     Q(r) pseudized with  8 coefficients,  rinner =    0.800   0.800   0.800

     PseudoPot. # 5 for H  read from file:
     /storage/coda1/p-amedford6/0/shared/rich_project_chbe-medford/medford-share/data/pseudos_module/espresso/nninc/pbe/van/H.UPF
     MD5 check sum: b5ee9d7bfd3a09ee7748110bda690ff7
     Pseudo is Ultrasoft, Zval =  1.0
     Generated by new atomic code, or converted to UPF format
     Using radial grid of  615 points,  1 beta functions with:
                l(1) =   0
     Q(r) pseudized with  8 coefficients,  rinner =    0.800

     atomic species   valence    mass     pseudopotential
        Ti1           12.00    47.86700     Ti( 1.00)
        O1             6.00    15.99900     O ( 1.00)
        N1             5.00    14.00700     N ( 1.00)
        C1             4.00    12.01100     C ( 1.00)
        H1             1.00     1.00800     H ( 1.00)

     No symmetry found

   Cartesian axes

     site n.     atom                  positions (alat units)
         1           Ti1 tau(   1) = (   0.0004258   2.9801865   6.0000000  )
         2           Ti1 tau(   2) = (   3.2906075   1.4906267   6.0002472  )
         3           O1  tau(   3) = (   0.0006271   0.0005054   7.9858123  )
         4           O1  tau(   4) = (   3.2906025   0.0005020   7.3038282  )
         5           O1  tau(   5) = (   4.5942328   1.4918067   9.2879030  )
         6           O1  tau(   6) = (   1.9868534   1.4903216   9.2879459  )
         7           Ti1 tau(   7) = (   3.2907910   2.8959150   9.1758416  )
         8           Ti1 tau(   8) = (   0.0015273   1.4827037   9.2680791  )
         9           O1  tau(   9) = (   3.2846840   0.0164488  11.3171736  )
        10           O1  tau(  10) = (   0.0116148   5.9584955  10.6183126  )
        11           O1  tau(  11) = (   1.2780696   1.4966870  12.6228330  )
        12           O1  tau(  12) = (   5.2671132   1.5021727  12.6038655  )
        13           Ti1 tau(  13) = (   0.0814623   2.9703834  12.6092300  )
        14           Ti1 tau(  14) = (   3.3984034   1.5042134  12.4754612  )
        15           O1  tau(  15) = (   6.5611900   5.9602394  14.6246442  )
        16           O1  tau(  16) = (   3.2847170   0.0117735  13.9091713  )
        17           O1  tau(  17) = (   4.5127615   1.5439160  15.9886145  )
        18           O1  tau(  18) = (   2.0245574   1.5486524  15.9865356  )
        19           Ti1 tau(  19) = (   3.2678410   3.0292036  15.6627315  )
        20           Ti1 tau(  20) = (   6.5437773   1.5790868  15.8036792  )
        21           O1  tau(  21) = (   3.2904802   0.0005063   4.7018136  )
        22           O1  tau(  22) = (   6.5616667   0.0409992  17.2467836  )
        23           O1  tau(  23) = (   1.3043587   1.4918075   6.0039043  )
        24           O1  tau(  24) = (   5.2767064   1.4903225   6.0039473  )
        25           Ti1 tau(  25) = (   0.0000382   5.9609847   6.0000000  )
        26           Ti1 tau(  26) = (   3.2902200   4.4714249   6.0002472  )
        27           O1  tau(  27) = (   0.0002396   2.9813036   7.9858123  )
        28           O1  tau(  28) = (   3.2902150   2.9813002   7.3038282  )
        29           O1  tau(  29) = (   4.5938453   4.4726049   9.2879030  )
        30           O1  tau(  30) = (   1.9864658   4.4711199   9.2879459  )
        31           Ti1 tau(  31) = (   3.2891106   5.8743827   9.1763621  )
        32           Ti1 tau(  32) = (   0.0006254   4.4649316   9.2693709  )
        33           O1  tau(  33) = (   3.2886753   2.9955121  11.3174028  )
        34           O1  tau(  34) = (   0.0092240   2.9805883  10.6323155  )
        35           O1  tau(  35) = (   1.2771457   4.4765085  12.6200386  )
        36           O1  tau(  36) = (   5.2716127   4.4859779  12.5990880  )
        37           Ti1 tau(  37) = (   0.0719143   5.9417653  12.6408960  )
        38           Ti1 tau(  38) = (   3.4009286   4.4967646  12.4819834  )
        39           O1  tau(  39) = (   6.5633752   2.9851081  14.6229342  )
        40           O1  tau(  40) = (   3.2806164   3.0132077  13.8636590  )
        41           O1  tau(  41) = (   4.5054435   4.4842064  16.0752605  )
        42           O1  tau(  42) = (   2.0287922   4.4846499  16.0567397  )
        43           Ti1 tau(  43) = (   3.2585180   0.0608266  15.7494983  )
        44           Ti1 tau(  44) = (   6.5556145   4.6328118  16.1363011  )
        45           O1  tau(  45) = (   3.2900926   2.9813045   4.7018136  )
        46           O1  tau(  46) = (   1.3039711   4.4726057   6.0039043  )
        47           O1  tau(  47) = (   5.2763189   4.4711207   6.0039473  )
        48           N1  tau(  48) = (   6.4582227   2.6263240  18.5734135  )
        49           N1  tau(  49) = (   6.5493832   2.9496485  17.3203279  )
        50           C1  tau(  50) = (   0.1600853   3.5596473  19.6455425  )
        51           H1  tau(  51) = (   6.1911903   4.4878083  19.4849519  )
        52           H1  tau(  52) = (   6.4401482   3.1080517  20.5902855  )
        53           H1  tau(  53) = (   1.2308410   3.8049764  19.6956042  )
        54           H1  tau(  54) = (   6.5044843   1.6253530  18.7706356  )
        55           O1  tau(  55) = (   3.2415852   0.0755412  18.2049893  )
        56           H1  tau(  56) = (   4.0109045   5.4607113  18.3409029  )
        57           H1  tau(  57) = (   2.4534619   5.4803556  18.3240773  )

     number of k points=    10  Fermi-Dirac smearing, width (Ry)=  0.0073
                       cart. coord. in units 2pi/alat
        k(    1) = (   0.0000000   0.0000000   0.0000000), wk =   0.1250000
        k(    2) = (   0.0000000   0.0419351   0.0000000), wk =   0.2500000
        k(    3) = (   0.0000000  -0.0838702   0.0000000), wk =   0.1250000
        k(    4) = (   0.0379955   0.0000049   0.0000000), wk =   0.2500000
        k(    5) = (   0.0379955   0.0419400   0.0000000), wk =   0.2500000
        k(    6) = (   0.0379955  -0.0838652   0.0000000), wk =   0.2500000
        k(    7) = (   0.0379955  -0.0419301   0.0000000), wk =   0.2500000
        k(    8) = (  -0.0759910  -0.0000099   0.0000000), wk =   0.1250000
        k(    9) = (  -0.0759910   0.0419252   0.0000000), wk =   0.2500000
        k(   10) = (  -0.0759910  -0.0838800   0.0000000), wk =   0.1250000

     Initial potential from superposition of free atoms

     starting charge  387.99913, renormalised to  404.00000

     negative rho (up, down):  1.445E-02 0.000E+00

     %%%%%%%%%%%%%%%%%%%%%%%%%%%%%%%%%%%%%%%%%%%%%%%%%%%%%%%%%%%%%%%%%%%%%%%%
     %                                                                      %
     % You are using vdW-DF, which was implemented by the Thonhauser group. %
     % Please cite the following two papers that made this development      %
     % possible and the two reviews that describe the various versions:     %
     %                                                                      %
     %   T. Thonhauser et al., PRL 115, 136402 (2015).                      %
     %   T. Thonhauser et al., PRB 76, 125112 (2007).                       %
     %   K. Berland et al., Rep. Prog. Phys. 78, 066501 (2015).             %
     %   D.C. Langreth et al., J. Phys.: Condens. Matter 21, 084203 (2009). %
     %                                                                      %
     %                                                                      %
     % If you are calculating the stress with vdW-DF, please also cite:     %
     %                                                                      %
     %   R. Sabatini et al., J. Phys.: Condens. Matter 24, 424209 (2012).   %
     %                                                                      %
     %%%%%%%%%%%%%%%%%%%%%%%%%%%%%%%%%%%%%%%%%%%%%%%%%%%%%%%%%%%%%%%%%%%%%%%%

     Adding external electric field

     Computed dipole along edir(3) :
        Dipole              -13.5707 Ry au,        -34.4934 Debye
        Dipole field         -0.0256 Ry au,

        Potential amp.        2.3740 Ry
        Total length         46.3494 bohr

     Starting wfcs are  306 atomic wfcs
  @ DRIVER MODE: Message from server: STATUS
  @ DRIVER MODE: Message from server: POSDATA
  @ DRIVER MODE: Reading and sharing cell
  @ DRIVER MODE: Reading and sharing positions
  @ DRIVER MODE: Received positions

     Self-consistent Calculation

     iteration #  1     ecut=    29.40 Ry     beta= 0.05
     Davidson diagonalization with overlap
     c_bands:  4 eigenvalues not converged
     c_bands:  4 eigenvalues not converged
     c_bands:  3 eigenvalues not converged
     c_bands:  4 eigenvalues not converged
     c_bands:  3 eigenvalues not converged
     c_bands:  3 eigenvalues not converged
     ethr =  1.00E-05,  avg # of iterations = 25.2

[...]

     total energy              =   -2343.69964449 Ry
     estimated scf accuracy    <    7203.98681225 Ry

     iteration #  2     ecut=    29.40 Ry     beta= 0.05
     Davidson diagonalization with overlap
     ethr =  1.00E-02,  avg # of iterations = 24.4

[...]

     iteration # 52     ecut=    29.40 Ry     beta= 0.05
     Davidson diagonalization with overlap
     c_bands:  1 eigenvalues not converged
     c_bands:  1 eigenvalues not converged
     c_bands:  1 eigenvalues not converged
     ethr =  8.88E-07,  avg # of iterations = 14.4

[...]

     total energy              =   -2975.23034387 Ry
     estimated scf accuracy    <       0.00000013 Ry

     iteration # 80     ecut=    29.40 Ry     beta= 0.05
     Davidson diagonalization with overlap
     ethr =  2.99E-11,  avg # of iterations =  2.7

     negative rho (up, down):  1.505E-02 0.000E+00

     Adding external electric field

     Computed dipole along edir(3) :
        Dipole                1.1744 Ry au,          2.9849 Debye
        Dipole field          0.0022 Ry au,

        Potential amp.       -0.2054 Ry
        Total length         46.3494 bohr

     End of self-consistent calculation

          k = 0.0000 0.0000 0.0000 ( 18029 PWs)   bands (ev):

   -55.4900 -55.4560 -55.3232 -55.2867 -55.2478 -55.2141 -55.1979 -55.1941
   -55.1738 -55.1564 -55.1395 -55.0125 -54.5605 -54.4211 -54.3965 -54.3871
   -31.9632 -31.8587 -31.7842 -31.7694 -31.7066 -31.7043 -31.6629 -31.6433
   -31.6129 -31.6035 -31.5856 -31.5648 -31.5489 -31.5057 -31.5026 -31.4915
   -31.4788 -31.4672 -31.4464 -31.4249 -31.4238 -31.4082 -31.4023 -31.3920
   -31.3779 -31.3712 -31.3611 -31.3572 -31.3555 -31.3533 -31.3276 -31.3222
   -31.3094 -31.2863 -31.2049 -31.1782 -31.0538 -30.8262 -30.7840 -30.7698
   -30.7430 -30.7319 -30.7202 -30.6432 -30.6056 -30.5755 -30.5570 -30.4459
   -18.8007 -17.8891 -16.0645 -15.8703 -15.5985 -15.4858 -15.4508 -15.2662
   -15.1890 -15.1331 -15.0002 -14.9597 -14.9249 -14.9008 -14.8812 -14.8258
   -14.8029 -14.7760 -14.7582 -14.7395 -14.7190 -14.7105 -14.6706 -14.5952
   -14.5819 -14.5154 -14.4635 -14.4395 -14.3618 -14.3472 -13.9362 -12.9226
   -12.8070 -11.9450  -8.8314  -6.5708  -5.6543  -4.3469  -4.1326  -3.4489
    -3.3692  -3.3136  -3.1989  -3.1411  -2.9782  -2.9537  -2.9022  -2.7742
    -2.5931  -2.5369  -2.5138  -2.4826  -2.4005  -2.2622  -2.2490  -2.2071
    -2.1757  -2.1540  -2.1451  -2.1258  -2.0403  -1.9936  -1.9535  -1.8645
    -1.8201  -1.7808  -1.7725  -1.7617  -1.7539  -1.6791  -1.6498  -1.6317
    -1.6164  -1.5775  -1.5514  -1.5471  -1.4164  -1.3932  -1.2806  -1.1759
    -1.1270  -1.0713  -1.0329  -0.8768  -0.8732  -0.8576  -0.8086  -0.7984
    -0.7335  -0.6558  -0.6280  -0.5378  -0.4274  -0.4112  -0.3840  -0.2326
    -0.2310  -0.2051  -0.1667  -0.1554  -0.1107  -0.1043  -0.0549  -0.0032
     0.1059   0.1673   0.2744   0.2864   0.3336   0.3766   0.3849   0.4453
     0.4657   0.5128   0.5282   0.5356   0.5851   0.6187   0.6317   0.6836
     0.7340   0.8552   0.9257   0.9502   0.9950   1.1208   1.1982   1.2355
     1.2517   1.4141   1.5458   1.5620   1.6012   1.8013   1.8267   2.1681
     2.2120   3.6835   3.7012   3.7905   3.8482   3.9613   4.0288   4.1231
     4.1872   4.2664   4.3574   4.4147

[...]

          k = 0.0380-0.0419 0.0000 ( 17876 PWs)   bands (ev):

[...]

          k =-0.0760-0.0000 0.0000 ( 17886 PWs)   bands (ev):

[...]

          k =-0.0760-0.0839 0.0000 ( 17948 PWs)   bands (ev):

   -55.4731 -55.4727 -55.3086 -55.3010 -55.2309 -55.2306 -55.1962 -55.1826
   -55.1679 -55.1599 -55.1535 -55.0141 -54.5589 -54.4041 -54.4040 -54.3979
   -31.7787 -31.7786 -31.7695 -31.7694 -31.6718 -31.6547 -31.5942 -31.5936
   -31.5614 -31.5572 -31.5536 -31.5433 -31.5413 -31.5394 -31.5028 -31.4979
   -31.4814 -31.4797 -31.4705 -31.4677 -31.4246 -31.4222 -31.4142 -31.4123
   -31.4116 -31.4066 -31.3907 -31.3892 -31.3879 -31.3790 -31.3753 -31.3695
   -31.3476 -31.3236 -31.3150 -31.2125 -30.9635 -30.8085 -30.7731 -30.7526
   -30.7330 -30.7329 -30.6393 -30.6392 -30.6246 -30.6056 -30.6001 -30.6001
   -18.7997 -17.8837 -15.4908 -15.4221 -15.3461 -15.3423 -15.2407 -15.1880
   -15.0922 -15.0848 -15.0777 -15.0750 -14.9692 -14.9661 -14.9090 -14.8987
   -14.8606 -14.8475 -14.8438 -14.8284 -14.8192 -14.8097 -14.7990 -14.7584
   -14.7251 -14.7193 -14.5609 -14.5419 -14.4238 -14.4092 -14.0611 -12.9092
   -12.9090 -11.9460  -8.8418  -6.5546  -5.6459  -4.2996  -4.1522  -2.9622
    -2.9248  -2.7816  -2.6558  -2.5163  -2.5028  -2.4864  -2.4490  -2.2826
    -2.2689  -2.2521  -2.2415  -2.2048  -2.1925  -2.1745  -2.1611  -2.1102
    -2.0910  -2.0704  -2.0651  -2.0569  -2.0498  -2.0368  -2.0290  -2.0182
    -1.9939  -1.9553  -1.9327  -1.8565  -1.7688  -1.7590  -1.6859  -1.5461
    -1.5358  -1.5222  -1.5203  -1.5120  -1.5036  -1.4634  -1.4404  -1.3713
    -1.2941  -1.1525  -1.0931  -1.0737  -1.0330  -1.0041  -0.9149  -0.8382
    -0.7962  -0.7791  -0.6939  -0.6435  -0.5703  -0.5561  -0.5188  -0.4698
    -0.4403  -0.4271  -0.4042  -0.3968  -0.3464  -0.3035  -0.2294  -0.2157
    -0.1552  -0.1245  -0.0979  -0.0754  -0.0364   0.0620   0.0655   0.0833
     0.1251   0.1396   0.2083   0.3573   0.4008   0.6463   0.6563   0.7215
     0.8481   0.8800   0.8859   0.9555   0.9673   1.0035   1.0262   1.1541
     1.1767   1.1880   1.3276   1.3628   1.4451   1.9710   1.9718   2.0310
     2.0314   3.5475   4.1415   4.1525   4.1717   4.1853   4.2128   4.2182
     4.2561   4.2702   4.4247   4.4524

     the Fermi energy is     3.6598 ev

!    total energy              =   -2975.23035468 Ry
     estimated scf accuracy    <       0.00000006 Ry
     smearing contrib. (-TS)   =      -0.02127917 Ry
     internal energy E=F+TS    =   -2975.20907551 Ry

     The total energy is F=E-TS. E is the sum of the following terms:
     one-electron contribution =  -23876.38666653 Ry
     hartree contribution      =   12035.67245548 Ry
     xc contribution           =    -494.93484988 Ry
     ewald contribution        =    9360.43738284 Ry
     electric field correction =       0.00260258 Ry

     convergence has been achieved in  80 iterations

     Forces acting on atoms (cartesian axes, Ry/au):

     atom    1 type  1   force =     0.00016408   -0.00022618    0.09939389
     atom    2 type  1   force =    -0.00014631   -0.00038586   -0.17314104
     atom    3 type  2   force =    -0.00006830   -0.00000402   -0.02907498
     atom    4 type  2   force =     0.00003771   -0.00102856    0.04899109
     atom    5 type  2   force =    -0.01225455    0.00098625    0.00053638
     atom    6 type  2   force =     0.01356477    0.00185853   -0.00106122
     atom    7 type  1   force =    -0.00136542   -0.00051583   -0.00320790
     atom    8 type  1   force =     0.00094888   -0.00609288    0.04517842
     atom    9 type  2   force =     0.00000592   -0.00022753    0.00016179
     atom   10 type  2   force =    -0.00154133    0.00261733   -0.03052601
     atom   11 type  2   force =    -0.00015054   -0.00045416    0.00020415
     atom   12 type  2   force =     0.00016282   -0.00023429    0.00030733
     atom   13 type  1   force =    -0.00024229   -0.00054254   -0.00133437
     atom   14 type  1   force =     0.00026165   -0.00016211   -0.00017621
     atom   15 type  2   force =    -0.00004663    0.00032362    0.00112893
     atom   16 type  2   force =    -0.00023053    0.00007287    0.00069371
     atom   17 type  2   force =     0.00068108   -0.00007001    0.00048019
     atom   18 type  2   force =    -0.00052030   -0.00014389    0.00031943
     atom   19 type  1   force =     0.00004129   -0.00004317   -0.00032803
     atom   20 type  1   force =    -0.00000883   -0.00052174    0.00060687
     atom   21 type  2   force =     0.00008918   -0.00000631    0.10260850
     atom   22 type  2   force =     0.00008064    0.00014762    0.00024154
     atom   23 type  2   force =    -0.07247643   -0.00008988   -0.02846274
     atom   24 type  2   force =     0.07243935    0.00034153   -0.02844355
     atom   25 type  1   force =     0.00009261   -0.00028066    0.09889622
     atom   26 type  1   force =    -0.00006416   -0.00041418   -0.17332902
     atom   27 type  2   force =    -0.00003373    0.00000390   -0.02837843
     atom   28 type  2   force =     0.00009444   -0.00076390    0.04815571
     atom   29 type  2   force =    -0.01262258    0.00062080    0.00057081
     atom   30 type  2   force =     0.01385920    0.00095056   -0.00100021
     atom   31 type  1   force =    -0.00145754    0.00226918   -0.00592160
     atom   32 type  1   force =     0.00112035    0.00385342    0.04568074
     atom   33 type  2   force =    -0.00005616   -0.00026195    0.00008607
     atom   34 type  2   force =    -0.00094630    0.00134283   -0.03335892
     atom   35 type  2   force =    -0.00025656    0.00004713   -0.00008217
     atom   36 type  2   force =     0.00056676    0.00010365    0.00012627
     atom   37 type  1   force =    -0.00036005    0.00008076   -0.00082408
     atom   38 type  1   force =     0.00013226   -0.00030367   -0.00037833
     atom   39 type  2   force =     0.00001240   -0.00061279    0.00193510
     atom   40 type  2   force =    -0.00006083    0.00016163    0.00024499
     atom   41 type  2   force =     0.00024121   -0.00044151    0.00033633
     atom   42 type  2   force =    -0.00011950   -0.00035420    0.00017626
     atom   43 type  1   force =     0.00007695   -0.00009766   -0.00072675
     atom   44 type  1   force =     0.00006723   -0.00075965    0.00025293
     atom   45 type  2   force =     0.00009501   -0.00001358    0.10259868
     atom   46 type  2   force =    -0.07249703   -0.00000881   -0.02845515
     atom   47 type  2   force =     0.07245465    0.00037687   -0.02844674
     atom   48 type  3   force =    -0.00027032   -0.00316962    0.01210196
     atom   49 type  3   force =     0.00060217    0.00297843   -0.01882919
     atom   50 type  4   force =    -0.00014862   -0.00023888    0.00220371
     atom   51 type  5   force =     0.00016712   -0.00024245    0.00004708
     atom   52 type  5   force =    -0.00004762    0.00033504    0.00036111
     atom   53 type  5   force =    -0.00001410   -0.00025788   -0.00010213
     atom   54 type  5   force =     0.00003003   -0.00091701    0.00131849
     atom   55 type  2   force =     0.00061530    0.00060724   -0.00009104
     atom   56 type  5   force =    -0.00018904   -0.00038378   -0.00030442
     atom   57 type  5   force =    -0.00050949    0.00019199    0.00003951

     Total force =     0.372669     Total SCF correction =     0.000773
  @ DRIVER MODE: Message from server: STATUS
  @ DRIVER MODE: Message from server: GETFORCE
  @ DRIVER MODE: Returning v,forces,stress,ensemble

     Writing output data file ./calc.save/
  @ DRIVER MODE: Message from server: EXIT
  @ DRIVE MODE: Exiting

     General routines

     Parallel routines

   This run was terminated on:  19:39:42  15Sep2021

   JOB DONE.