     Program PWSCF v.6.7GPU starts on  9Sep2021 at  5:31:41

     R & G space division:  proc/nbgrp/npool/nimage =      10
     Reading input from /storage/home/hcoda1/3/ntian30/research/carbon/CxH_vib/CH2_calc/ads_slab/CH2OH_a/out_0027/pw.inp
Warning: card &CELL ignored
Warning: card   CELL_DYNAMICS='IPI', ignored
Warning: card / ignored

     Current dimensions of program PWSCF are:
     Max number of different atomic species (ntypx) = 10
     Max number of k-points (npk) =  40000
     Max angular momentum in pseudopotentials (lmaxx) =  3
     Presently no symmetry can be used with electric field

     Message from routine cell_base_init:
     DEPRECATED: use true lattice parameter, not A to a.u. conversion factor

     IMPORTANT: XC functional enforced from input :
     Exchange-correlation= BEEF-VDW
                           (   1   4  43  14   2   0   0)
     Any further DFT definition will be discarded
     Please, verify this is what you really want

  @ DRIVER MODE: Connecting to
 qe_1139763_2767393.sched-torque.pace.gatech.edudgwjnca0_scratch
  using UNIX socket
  @ DRIVER MODE: Message from server: STATUS
  @ DRIVER MODE: Message from server: INIT
  @ DRIVER MODE: Receiving replica           0          -1
  @ DRIVER MODE: Receiving encoded integer          25
  @ DRIVER MODE:  SCF:  T  FORCE:  T  STRESS:  F  VC:  F  ENSEMBLE:  F
  @ DRIVER MODE:  SCF:  T  FORCE:  T  STRESS:  F  VC:  F  ENSEMBLE:  F

     Using Slab Decomposition

     bravais-lattice index     =            0
     lattice parameter (alat)  =       1.8897  a.u.
     unit-cell volume          =    6658.9804 (a.u.)^3
     number of atoms/cell      =           52
     number of atomic types    =            4
     number of electrons       =       391.00
     number of Kohn-Sham states=          205
     kinetic-energy cutoff     =      29.3995  Ry
     charge density cutoff     =     293.9946  Ry
     scf convergence threshold =      7.3E-08
     mixing beta               =       0.0500
     number of iterations used =            8  plain     mixing
     Exchange-correlation= BEEF-VDW
                           (   1   4  43  14   2   0   0)

     celldm(1)=   1.889726  celldm(2)=   0.000000  celldm(3)=   0.000000
     celldm(4)=   0.000000  celldm(5)=   0.000000  celldm(6)=   0.000000

     crystal axes: (cart. coord. in units of alat)
               a(1) = (   6.579727   0.000000   0.000000 )
               a(2) = (  -0.000775   5.961596   0.000000 )
               a(3) = (   0.000000   0.000000  25.155947 )

     reciprocal axes: (cart. coord. in units 2 pi/alat)
               b(1) = (  0.151982  0.000020  0.000000 )
               b(2) = (  0.000000  0.167740  0.000000 )
               b(3) = (  0.000000  0.000000  0.039752 )

     PseudoPot. # 1 for Ti read from file:
     /storage/coda1/p-amedford6/0/shared/rich_project_chbe-medford/medford-share/data/pseudos_module/espresso/nninc/pbe/van/Ti.UPF
     MD5 check sum: 8e4df49b7f0d34bbd5052bf3f5ea0213
     Pseudo is Ultrasoft, Zval = 12.0
     Generated by new atomic code, or converted to UPF format
     Using radial grid of  851 points,  6 beta functions with:
                l(1) =   0
                l(2) =   0
                l(3) =   1
                l(4) =   1
                l(5) =   2
                l(6) =   2
     Q(r) pseudized with  8 coefficients,  rinner =    1.000   1.000   1.000
                                                       1.000   1.000

     PseudoPot. # 2 for O  read from file:
     /storage/coda1/p-amedford6/0/shared/rich_project_chbe-medford/medford-share/data/pseudos_module/espresso/nninc/pbe/van/O.UPF
     MD5 check sum: 78c19812648e8988a0fe644b0f25305e
     Pseudo is Ultrasoft, Zval =  6.0
     Generated by new atomic code, or converted to UPF format
     Using radial grid of  737 points,  4 beta functions with:
                l(1) =   0
                l(2) =   0
                l(3) =   1
                l(4) =   1
     Q(r) pseudized with  8 coefficients,  rinner =    0.800   0.800   0.800

     PseudoPot. # 3 for C  read from file:
     /storage/coda1/p-amedford6/0/shared/rich_project_chbe-medford/medford-share/data/pseudos_module/espresso/nninc/pbe/van/C.UPF
     MD5 check sum: 1a69bf6b8db32088f5b2163dbdb77a27
     Pseudo is Ultrasoft, Zval =  4.0
     Generated by new atomic code, or converted to UPF format
     Using radial grid of  721 points,  4 beta functions with:
                l(1) =   0
                l(2) =   0
                l(3) =   1
                l(4) =   1
     Q(r) pseudized with  8 coefficients,  rinner =    0.800   0.800   0.800

     PseudoPot. # 4 for H  read from file:
     /storage/coda1/p-amedford6/0/shared/rich_project_chbe-medford/medford-share/data/pseudos_module/espresso/nninc/pbe/van/H.UPF
     MD5 check sum: b5ee9d7bfd3a09ee7748110bda690ff7
     Pseudo is Ultrasoft, Zval =  1.0
     Generated by new atomic code, or converted to UPF format
     Using radial grid of  615 points,  1 beta functions with:
                l(1) =   0
     Q(r) pseudized with  8 coefficients,  rinner =    0.800

     atomic species   valence    mass     pseudopotential
        Ti1           12.00    47.86700     Ti( 1.00)
        O1             6.00    15.99900     O ( 1.00)
        C1             4.00    12.01100     C ( 1.00)
        H1             1.00     1.00800     H ( 1.00)

     No symmetry found

   Cartesian axes

     site n.     atom                  positions (alat units)
         1           Ti1 tau(   1) = (   0.0004258   2.9801865   6.0000000  )
         2           Ti1 tau(   2) = (   3.2906075   1.4906267   6.0002472  )
         3           O1  tau(   3) = (   0.0006271   0.0005054   7.9858123  )
         4           O1  tau(   4) = (   3.2906025   0.0005020   7.3038282  )
         5           O1  tau(   5) = (   4.5942328   1.4918067   9.2879030  )
         6           O1  tau(   6) = (   1.9868534   1.4903216   9.2879459  )
         7           Ti1 tau(   7) = (   3.2719207   3.0347534   9.1624208  )
         8           Ti1 tau(   8) = (   6.5479847   1.5485315   9.3114282  )
         9           O1  tau(   9) = (   3.3130468   5.9588651  11.3322545  )
        10           O1  tau(  10) = (   6.5779921   5.9597862  10.5854321  )
        11           O1  tau(  11) = (   1.2828316   1.4981946  12.5939292  )
        12           O1  tau(  12) = (   5.3076696   1.4616608  12.6584921  )
        13           Ti1 tau(  13) = (   0.0652608   2.9737989  12.6898254  )
        14           Ti1 tau(  14) = (   3.3390979   1.6191063  12.6104043  )
        15           O1  tau(  15) = (   0.1579450   5.9294946  14.6423442  )
        16           O1  tau(  16) = (   3.1680681   5.9402194  13.8972025  )
        17           O1  tau(  17) = (   4.6139792   1.3367142  15.8434034  )
        18           O1  tau(  18) = (   2.0781381   1.4994250  16.2203239  )
        19           Ti1 tau(  19) = (   3.3500823   2.9415657  15.9644494  )
        20           Ti1 tau(  20) = (   0.0003135   1.3236462  15.9137460  )
        21           O1  tau(  21) = (   3.2904802   0.0005063   4.7018136  )
        22           O1  tau(  22) = (   6.5745372   5.9170875  17.1494514  )
        23           O1  tau(  23) = (   1.3043587   1.4918075   6.0039043  )
        24           O1  tau(  24) = (   5.2767064   1.4903225   6.0039473  )
        25           Ti1 tau(  25) = (   0.0000382   5.9609847   6.0000000  )
        26           Ti1 tau(  26) = (   3.2902200   4.4714249   6.0002472  )
        27           O1  tau(  27) = (   0.0002396   2.9813036   7.9858123  )
        28           O1  tau(  28) = (   3.2902150   2.9813002   7.3038282  )
        29           O1  tau(  29) = (   4.5938453   4.4726049   9.2879030  )
        30           O1  tau(  30) = (   1.9864658   4.4711199   9.2879459  )
        31           Ti1 tau(  31) = (   3.2621523   0.0587977   9.1770015  )
        32           Ti1 tau(  32) = (   6.5480547   4.4734411   9.2675299  )
        33           O1  tau(  33) = (   3.3121001   2.9882390  11.3403144  )
        34           O1  tau(  34) = (   6.5676672   2.9758547  10.5865552  )
        35           O1  tau(  35) = (   1.2831373   4.4454538  12.5925867  )
        36           O1  tau(  36) = (   5.3039272   4.4828346  12.6569239  )
        37           Ti1 tau(  37) = (   0.0139245   5.9553196  12.4525254  )
        38           Ti1 tau(  38) = (   3.3396594   4.5312311  12.4471015  )
        39           O1  tau(  39) = (   0.0911754   2.9492527  14.7447760  )
        40           O1  tau(  40) = (   3.3148107   2.9226094  13.9462488  )
        41           O1  tau(  41) = (   4.6112453   4.5441982  15.8230962  )
        42           O1  tau(  42) = (   2.0803191   4.3866676  16.2083192  )
        43           Ti1 tau(  43) = (   3.2736722   5.9210238  15.6733724  )
        44           Ti1 tau(  44) = (   6.5729336   4.5444060  15.8763539  )
        45           O1  tau(  45) = (   3.2900926   2.9813045   4.7018136  )
        46           O1  tau(  46) = (   1.3039711   4.4726057   6.0039043  )
        47           O1  tau(  47) = (   5.2763189   4.4711207   6.0039473  )
        48           C1  tau(  48) = (   4.5191185   2.9521590  17.9045005  )
        49           O1  tau(  49) = (   5.9932199   2.9473452  17.4910416  )
        50           H1  tau(  50) = (   6.5492410   2.9805908  18.2871345  )
        51           H1  tau(  51) = (   4.3954453   2.0589761  18.5217578  )
        52           H1  tau(  52) = (   4.3955607   3.8462994  18.5052511  )

     number of k points=    10  Fermi-Dirac smearing, width (Ry)=  0.0073
                       cart. coord. in units 2pi/alat
        k(    1) = (   0.0000000   0.0000000   0.0000000), wk =   0.1250000
        k(    2) = (   0.0000000   0.0419351   0.0000000), wk =   0.2500000
        k(    3) = (   0.0000000  -0.0838702   0.0000000), wk =   0.1250000
        k(    4) = (   0.0379955   0.0000049   0.0000000), wk =   0.2500000
        k(    5) = (   0.0379955   0.0419400   0.0000000), wk =   0.2500000
        k(    6) = (   0.0379955  -0.0838652   0.0000000), wk =   0.2500000
        k(    7) = (   0.0379955  -0.0419301   0.0000000), wk =   0.2500000
        k(    8) = (  -0.0759910  -0.0000099   0.0000000), wk =   0.1250000
        k(    9) = (  -0.0759910   0.0419252   0.0000000), wk =   0.2500000
        k(   10) = (  -0.0759910  -0.0838800   0.0000000), wk =   0.1250000

     Initial potential from superposition of free atoms

     starting charge  374.99918, renormalised to  391.00000

     negative rho (up, down):  1.948E-02 0.000E+00

     %%%%%%%%%%%%%%%%%%%%%%%%%%%%%%%%%%%%%%%%%%%%%%%%%%%%%%%%%%%%%%%%%%%%%%%%
     %                                                                      %
     % You are using vdW-DF, which was implemented by the Thonhauser group. %
     % Please cite the following two papers that made this development      %
     % possible and the two reviews that describe the various versions:     %
     %                                                                      %
     %   T. Thonhauser et al., PRL 115, 136402 (2015).                      %
     %   T. Thonhauser et al., PRB 76, 125112 (2007).                       %
     %   K. Berland et al., Rep. Prog. Phys. 78, 066501 (2015).             %
     %   D.C. Langreth et al., J. Phys.: Condens. Matter 21, 084203 (2009). %
     %                                                                      %
     %                                                                      %
     % If you are calculating the stress with vdW-DF, please also cite:     %
     %                                                                      %
     %   R. Sabatini et al., J. Phys.: Condens. Matter 24, 424209 (2012).   %
     %                                                                      %
     %%%%%%%%%%%%%%%%%%%%%%%%%%%%%%%%%%%%%%%%%%%%%%%%%%%%%%%%%%%%%%%%%%%%%%%%

     Adding external electric field

     Computed dipole along edir(3) :
        Dipole               -5.2229 Ry au,        -13.2753 Debye
        Dipole field         -0.0099 Ry au,

        Potential amp.        0.9137 Ry
        Total length         46.3494 bohr

     Starting wfcs are  295 atomic wfcs
  @ DRIVER MODE: Message from server: STATUS
  @ DRIVER MODE: Message from server: POSDATA
  @ DRIVER MODE: Reading and sharing cell
  @ DRIVER MODE: Reading and sharing positions
  @ DRIVER MODE: Received positions

     Self-consistent Calculation

     iteration #  1     ecut=    29.40 Ry     beta= 0.05
     Davidson diagonalization with overlap
     c_bands:  1 eigenvalues not converged
     c_bands:  3 eigenvalues not converged
     c_bands:  2 eigenvalues not converged
     c_bands:  3 eigenvalues not converged
     c_bands:  4 eigenvalues not converged
     c_bands:  3 eigenvalues not converged
     c_bands:  1 eigenvalues not converged
     c_bands:  3 eigenvalues not converged
     ethr =  1.00E-05,  avg # of iterations = 19.6

[...]

     total energy              =   -2802.98663383 Ry
     estimated scf accuracy    <    1411.23387748 Ry

     iteration #  2     ecut=    29.40 Ry     beta= 0.05
     Davidson diagonalization with overlap
     ethr =  1.00E-02,  avg # of iterations = 16.7

[...]

     iteration # 63     ecut=    29.40 Ry     beta= 0.05
     Davidson diagonalization with overlap
     c_bands:  2 eigenvalues not converged
     ethr =  4.66E-11,  avg # of iterations = 14.0

[...]

     total energy              =   -2931.32991330 Ry
     estimated scf accuracy    <       0.00000009 Ry

     iteration # 64     ecut=    29.40 Ry     beta= 0.05
     Davidson diagonalization with overlap
     ethr =  2.23E-11,  avg # of iterations = 10.3

     negative rho (up, down):  1.894E-02 0.000E+00

     Adding external electric field

     Computed dipole along edir(3) :
        Dipole                0.9603 Ry au,          2.4408 Debye
        Dipole field          0.0018 Ry au,

        Potential amp.       -0.1680 Ry
        Total length         46.3494 bohr

     End of self-consistent calculation

          k = 0.0000 0.0000 0.0000 ( 18029 PWs)   bands (ev):

   -55.8476 -55.8085 -55.7654 -55.7509 -55.6963 -55.6867 -55.6775 -55.6672
   -55.6288 -55.6175 -55.5959 -55.5854 -55.5585 -55.5510 -54.8179 -54.7839
   -32.3688 -32.3195 -32.2346 -32.2127 -32.1567 -32.1294 -32.1170 -32.0842
   -32.0766 -32.0624 -32.0417 -32.0157 -32.0027 -31.9944 -31.9658 -31.9592
   -31.9415 -31.9398 -31.9213 -31.9087 -31.9071 -31.9009 -31.8761 -31.8563
   -31.8534 -31.8507 -31.8453 -31.8406 -31.8273 -31.8131 -31.8017 -31.8012
   -31.7995 -31.7931 -31.7835 -31.7830 -31.7599 -31.7425 -31.7406 -31.7274
   -31.6986 -31.6336 -31.2251 -31.1357 -31.1132 -31.0420 -30.9559 -30.8443
   -19.5685 -16.5525 -16.3308 -16.1526 -16.0553 -15.9930 -15.8293 -15.7476
   -15.5598 -15.4835 -15.4767 -15.4514 -15.3888 -15.3749 -15.3637 -15.3436
   -15.3425 -15.3117 -15.2485 -15.2357 -15.2289 -15.1996 -15.1296 -15.1196
   -14.9753 -14.9581 -14.9579 -14.9455 -14.8469 -14.7782 -13.3180 -13.2010
    -9.6348  -6.4758  -4.2194  -4.0184  -3.8649  -3.7615  -3.7543  -3.7189
    -3.5657  -3.4886  -3.2743  -3.1338  -3.0877  -3.0198  -2.9760  -2.9145
    -2.8332  -2.7661  -2.7198  -2.6736  -2.6605  -2.6351  -2.6236  -2.5747
    -2.5389  -2.5123  -2.4026  -2.3981  -2.3483  -2.2906  -2.2536  -2.2007
    -2.1621  -2.1438  -2.1210  -2.0914  -2.0614  -2.0425  -2.0225  -1.9679
    -1.9167  -1.8382  -1.8234  -1.5537  -1.4636  -1.3913  -1.3654  -1.2874
    -1.2618  -1.2403  -1.2107  -1.2092  -1.1823  -1.1037  -1.0982  -1.0053
    -0.9708  -0.8870  -0.8333  -0.7449  -0.7050  -0.6334  -0.6141  -0.5783
    -0.5599  -0.5440  -0.3991  -0.3797  -0.3543  -0.2352  -0.2162  -0.1603
    -0.1328  -0.0742  -0.0489   0.0160   0.0468   0.0938   0.1220   0.1414
     0.1628   0.1780   0.2235   0.3092   0.3857   0.4015   0.4263   0.4926
     0.6779   0.7076   0.8362   0.9015   1.1343   1.2069   1.2505   1.2962
     1.3927   1.7811   1.8365   3.3048   3.3598   3.4199   3.4248   3.4619
     3.5544   3.7357   3.7550   3.8096   3.8670

[...]

          k = 0.0380-0.0419 0.0000 ( 17876 PWs)   bands (ev):

[...]

          k =-0.0760-0.0000 0.0000 ( 17886 PWs)   bands (ev):

[...]

          k =-0.0760-0.0839 0.0000 ( 17948 PWs)   bands (ev):

   -55.8376 -55.8183 -55.7614 -55.7445 -55.7026 -55.6902 -55.6721 -55.6651
   -55.6228 -55.6200 -55.5939 -55.5854 -55.5691 -55.5533 -54.8009 -54.8008
   -32.2923 -32.1443 -32.1352 -32.1260 -32.1021 -32.0887 -32.0825 -32.0588
   -32.0208 -32.0089 -31.9958 -31.9905 -31.9769 -31.9704 -31.9668 -31.9633
   -31.9594 -31.9567 -31.9457 -31.9411 -31.9133 -31.9105 -31.8991 -31.8963
   -31.8907 -31.8849 -31.8820 -31.8719 -31.8647 -31.8626 -31.8539 -31.8338
   -31.8232 -31.8190 -31.8101 -31.8088 -31.7948 -31.7923 -31.7895 -31.7860
   -31.7783 -31.6351 -31.1261 -31.1257 -31.0387 -31.0376 -30.9991 -30.9985
   -19.5625 -16.1426 -15.9627 -15.8073 -15.7793 -15.7784 -15.6441 -15.6262
   -15.6047 -15.5710 -15.5326 -15.5043 -15.4790 -15.4727 -15.4291 -15.3737
   -15.3672 -15.3545 -15.3284 -15.2703 -15.2584 -15.2559 -15.2145 -15.1597
   -15.1371 -15.1275 -15.1195 -15.1057 -15.0757 -15.0541 -13.3051 -13.3005
    -9.6351  -6.4592  -4.2252  -3.8881  -3.2844  -3.2131  -3.0112  -3.0077
    -2.9249  -2.8856  -2.8743  -2.8326  -2.7662  -2.7600  -2.7418  -2.6738
    -2.6488  -2.6459  -2.6067  -2.5981  -2.5770  -2.5688  -2.5473  -2.5219
    -2.4873  -2.4478  -2.4309  -2.4213  -2.4026  -2.3939  -2.3876  -2.3450
    -2.3246  -2.2143  -2.1340  -2.0230  -2.0180  -1.9716  -1.9564  -1.9344
    -1.8988  -1.8844  -1.8785  -1.8432  -1.7622  -1.6184  -1.5188  -1.4999
    -1.4602  -1.4336  -1.4009  -1.3797  -1.2829  -1.2700  -1.2175  -1.1892
    -1.1841  -1.0681  -1.0596  -0.9620  -0.9260  -0.8168  -0.8078  -0.7816
    -0.7594  -0.7246  -0.6996  -0.6305  -0.6110  -0.5696  -0.5519  -0.4864
    -0.4485  -0.4315  -0.3545  -0.3156  -0.2537  -0.2052  -0.1708  -0.0205
     0.1600   0.1779   0.2094   0.3201   0.3583   0.4313   0.4873   0.5024
     0.5722   0.6059   0.6745   0.7055   0.7676   0.8072   1.2609   1.5678
     1.5783   1.6411   1.6547   3.5975   3.6455   3.7704   3.7867   3.8187
     3.8238   3.8344   3.8565   3.9183   3.9538

     the Fermi energy is     3.2951 ev

!    total energy              =   -2931.32995441 Ry
     estimated scf accuracy    <       0.00000005 Ry
     smearing contrib. (-TS)   =      -0.02177117 Ry
     internal energy E=F+TS    =   -2931.30818324 Ry

     The total energy is F=E-TS. E is the sum of the following terms:
     one-electron contribution =  -24940.54213553 Ry
     hartree contribution      =   12556.71878786 Ry
     xc contribution           =    -482.05134792 Ry
     ewald contribution        =    9934.56477219 Ry
     electric field correction =       0.00174017 Ry

     convergence has been achieved in  64 iterations

     Forces acting on atoms (cartesian axes, Ry/au):

     atom    1 type  1   force =     0.00041318   -0.00074712    0.09646251
     atom    2 type  1   force =     0.00023317   -0.00292455   -0.17614826
     atom    3 type  2   force =    -0.00037927   -0.00272509   -0.03080825
     atom    4 type  2   force =    -0.00048802    0.00065251    0.04965217
     atom    5 type  2   force =    -0.01528497   -0.00088231    0.00151670
     atom    6 type  2   force =     0.01482676    0.00155714    0.00316054
     atom    7 type  1   force =    -0.00059357   -0.00031063   -0.00010090
     atom    8 type  1   force =    -0.00056853    0.00059875    0.00065266
     atom    9 type  2   force =    -0.00018338    0.00027011    0.00046282
     atom   10 type  2   force =     0.00000160    0.00008161   -0.00065288
     atom   11 type  2   force =     0.00023327    0.00030668    0.00017823
     atom   12 type  2   force =    -0.00017722    0.00013150   -0.00020632
     atom   13 type  1   force =     0.00016987   -0.00018226    0.00050106
     atom   14 type  1   force =     0.00032941   -0.00057648    0.00041263
     atom   15 type  2   force =     0.00003931    0.00061465   -0.00027426
     atom   16 type  2   force =    -0.00016001   -0.00011966    0.00022325
     atom   17 type  2   force =     0.00004446    0.00008261    0.00009400
     atom   18 type  2   force =    -0.00008012    0.00015884    0.00012591
     atom   19 type  1   force =     0.00034458   -0.00040943    0.00119675
     atom   20 type  1   force =     0.00009417    0.00018979    0.00027463
     atom   21 type  2   force =     0.00016284    0.00023119    0.10302057
     atom   22 type  2   force =     0.00024675    0.00042458   -0.00013211
     atom   23 type  2   force =    -0.07095109    0.00144374   -0.02885332
     atom   24 type  2   force =     0.07107404    0.00185559   -0.02886744
     atom   25 type  1   force =     0.00033990    0.00079345    0.11231510
     atom   26 type  1   force =    -0.00012011    0.00363308   -0.17643965
     atom   27 type  2   force =    -0.00014960    0.00020458   -0.02746769
     atom   28 type  2   force =    -0.00030717    0.00087274    0.04911143
     atom   29 type  2   force =    -0.01334046   -0.00250244    0.00129138
     atom   30 type  2   force =     0.01437294   -0.00068414    0.00299533
     atom   31 type  1   force =     0.00020938   -0.00032140    0.00021971
     atom   32 type  1   force =    -0.00074907    0.00066556   -0.00044004
     atom   33 type  2   force =    -0.00025809   -0.00029414   -0.00025332
     atom   34 type  2   force =     0.00012191    0.00017111    0.00003318
     atom   35 type  2   force =    -0.00015626   -0.00007027    0.00030755
     atom   36 type  2   force =     0.00022433   -0.00009083    0.00031207
     atom   37 type  1   force =    -0.00025125   -0.00020487    0.00033114
     atom   38 type  1   force =     0.00028051    0.00034582    0.00031009
     atom   39 type  2   force =     0.00018404    0.00019866   -0.00022293
     atom   40 type  2   force =    -0.00010554   -0.00054477   -0.00084590
     atom   41 type  2   force =    -0.00023462   -0.00006130    0.00031032
     atom   42 type  2   force =     0.00006138   -0.00007374    0.00031405
     atom   43 type  1   force =     0.00035130    0.00036966    0.00014402
     atom   44 type  1   force =     0.00054622    0.00040756   -0.00024019
     atom   45 type  2   force =     0.00015785    0.00016550    0.10344167
     atom   46 type  2   force =    -0.07076639   -0.00174740   -0.02884099
     atom   47 type  2   force =     0.07088146   -0.00133805   -0.02886351
     atom   48 type  3   force =     0.00045437   -0.00875944   -0.00384337
     atom   49 type  2   force =    -0.00011646    0.00064791   -0.00000733
     atom   50 type  4   force =     0.00042764   -0.00032612   -0.00007195
     atom   51 type  4   force =    -0.00043955   -0.00069052   -0.00078042
     atom   52 type  4   force =    -0.00096591    0.00951198    0.00498958

     Total force =     0.369535     Total SCF correction =     0.000638
  @ DRIVER MODE: Message from server: STATUS
  @ DRIVER MODE: Message from server: GETFORCE
  @ DRIVER MODE: Returning v,forces,stress,ensemble

     Writing output data file ./calc.save/
  @ DRIVER MODE: Message from server: EXIT
  @ DRIVE MODE: Exiting

     General routines

     Parallel routines

   This run was terminated on:   5:48:20   9Sep2021

   JOB DONE.