     Program PWSCF v.6.7GPU starts on 22Sep2021 at 16:59:24

     R & G space division:  proc/nbgrp/npool/nimage =      10
     Reading input from /storage/home/hcoda1/3/ntian30/research/carbon/CxH_vib/H2O_calc/ads_slab/CH2HO_a/out_0002/pw.inp
Warning: card &CELL ignored
Warning: card   CELL_DYNAMICS='IPI', ignored
Warning: card / ignored

     Current dimensions of program PWSCF are:
     Max number of different atomic species (ntypx) = 10
     Max number of k-points (npk) =  40000
     Max angular momentum in pseudopotentials (lmaxx) =  3
     Presently no symmetry can be used with electric field

     Message from routine cell_base_init:
     DEPRECATED: use true lattice parameter, not A to a.u. conversion factor

     IMPORTANT: XC functional enforced from input :
     Exchange-correlation= BEEF-VDW
                           (   1   4  43  14   2   0   0)
     Any further DFT definition will be discarded
     Please, verify this is what you really want

  @ DRIVER MODE: Connecting to
 qe_1139763_2937324.sched-torque.pace.gatech.eduor70lkl3_scratch
  using UNIX socket
  @ DRIVER MODE: Message from server: STATUS
  @ DRIVER MODE: Message from server: INIT
  @ DRIVER MODE: Receiving replica           0          -1
  @ DRIVER MODE: Receiving encoded integer          25
  @ DRIVER MODE:  SCF:  T  FORCE:  T  STRESS:  F  VC:  F  ENSEMBLE:  F
  @ DRIVER MODE:  SCF:  T  FORCE:  T  STRESS:  F  VC:  F  ENSEMBLE:  F

     Using Slab Decomposition

     bravais-lattice index     =            0
     lattice parameter (alat)  =       1.8897  a.u.
     unit-cell volume          =    6658.9804 (a.u.)^3
     number of atoms/cell      =           52
     number of atomic types    =            4
     number of electrons       =       391.00
     number of Kohn-Sham states=          205
     kinetic-energy cutoff     =      29.3995  Ry
     charge density cutoff     =     293.9946  Ry
     scf convergence threshold =      7.3E-08
     mixing beta               =       0.0500
     number of iterations used =            8  plain     mixing
     Exchange-correlation= BEEF-VDW
                           (   1   4  43  14   2   0   0)

     celldm(1)=   1.889726  celldm(2)=   0.000000  celldm(3)=   0.000000
     celldm(4)=   0.000000  celldm(5)=   0.000000  celldm(6)=   0.000000

     crystal axes: (cart. coord. in units of alat)
               a(1) = (   6.579727   0.000000   0.000000 )
               a(2) = (  -0.000775   5.961596   0.000000 )
               a(3) = (   0.000000   0.000000  25.155947 )

     reciprocal axes: (cart. coord. in units 2 pi/alat)
               b(1) = (  0.151982  0.000020  0.000000 )
               b(2) = (  0.000000  0.167740  0.000000 )
               b(3) = (  0.000000  0.000000  0.039752 )

     PseudoPot. # 1 for Ti read from file:
     /storage/coda1/p-amedford6/0/shared/rich_project_chbe-medford/medford-share/data/pseudos_module/espresso/nninc/pbe/van/Ti.UPF
     MD5 check sum: 8e4df49b7f0d34bbd5052bf3f5ea0213
     Pseudo is Ultrasoft, Zval = 12.0
     Generated by new atomic code, or converted to UPF format
     Using radial grid of  851 points,  6 beta functions with:
                l(1) =   0
                l(2) =   0
                l(3) =   1
                l(4) =   1
                l(5) =   2
                l(6) =   2
     Q(r) pseudized with  8 coefficients,  rinner =    1.000   1.000   1.000
                                                       1.000   1.000

     PseudoPot. # 2 for O  read from file:
     /storage/coda1/p-amedford6/0/shared/rich_project_chbe-medford/medford-share/data/pseudos_module/espresso/nninc/pbe/van/O.UPF
     MD5 check sum: 78c19812648e8988a0fe644b0f25305e
     Pseudo is Ultrasoft, Zval =  6.0
     Generated by new atomic code, or converted to UPF format
     Using radial grid of  737 points,  4 beta functions with:
                l(1) =   0
                l(2) =   0
                l(3) =   1
                l(4) =   1
     Q(r) pseudized with  8 coefficients,  rinner =    0.800   0.800   0.800

     PseudoPot. # 3 for C  read from file:
     /storage/coda1/p-amedford6/0/shared/rich_project_chbe-medford/medford-share/data/pseudos_module/espresso/nninc/pbe/van/C.UPF
     MD5 check sum: 1a69bf6b8db32088f5b2163dbdb77a27
     Pseudo is Ultrasoft, Zval =  4.0
     Generated by new atomic code, or converted to UPF format
     Using radial grid of  721 points,  4 beta functions with:
                l(1) =   0
                l(2) =   0
                l(3) =   1
                l(4) =   1
     Q(r) pseudized with  8 coefficients,  rinner =    0.800   0.800   0.800

     PseudoPot. # 4 for H  read from file:
     /storage/coda1/p-amedford6/0/shared/rich_project_chbe-medford/medford-share/data/pseudos_module/espresso/nninc/pbe/van/H.UPF
     MD5 check sum: b5ee9d7bfd3a09ee7748110bda690ff7
     Pseudo is Ultrasoft, Zval =  1.0
     Generated by new atomic code, or converted to UPF format
     Using radial grid of  615 points,  1 beta functions with:
                l(1) =   0
     Q(r) pseudized with  8 coefficients,  rinner =    0.800

     atomic species   valence    mass     pseudopotential
        Ti1           12.00    47.86700     Ti( 1.00)
        O1             6.00    15.99900     O ( 1.00)
        C1             4.00    12.01100     C ( 1.00)
        H1             1.00     1.00800     H ( 1.00)

     No symmetry found

   Cartesian axes

     site n.     atom                  positions (alat units)
         1           Ti1 tau(   1) = (   0.0004258   2.9801865   6.0000000  )
         2           Ti1 tau(   2) = (   3.2906075   1.4906267   6.0002472  )
         3           O1  tau(   3) = (   0.0006271   0.0005054   7.9858123  )
         4           O1  tau(   4) = (   3.2906025   0.0005020   7.3038282  )
         5           O1  tau(   5) = (   4.5942328   1.4918067   9.2879030  )
         6           O1  tau(   6) = (   1.9868534   1.4903216   9.2879459  )
         7           Ti1 tau(   7) = (   3.2576197   2.8654215   9.2214558  )
         8           Ti1 tau(   8) = (   6.5344909   1.4429808   9.3601258  )
         9           O1  tau(   9) = (   3.2692782   5.9266415  11.3199434  )
        10           O1  tau(  10) = (   6.5685443   5.9434748  10.5851361  )
        11           O1  tau(  11) = (   1.2543606   1.4786140  12.6270584  )
        12           O1  tau(  12) = (   5.2804994   1.4734118  12.6291387  )
        13           Ti1 tau(  13) = (   6.5561640   2.8465321  12.8092297  )
        14           Ti1 tau(  14) = (   3.2590950   1.2910582  12.6820668  )
        15           O1  tau(  15) = (   6.5637791   5.9505241  14.6246090  )
        16           O1  tau(  16) = (   3.2632455   0.0300109  13.9168947  )
        17           O1  tau(  17) = (   4.5093043   1.5331652  16.1230905  )
        18           O1  tau(  18) = (   1.9844652   1.5452522  16.1286669  )
        19           Ti1 tau(  19) = (   3.2766647   3.0056044  15.6806532  )
        20           Ti1 tau(  20) = (   0.0376264   1.5104518  16.1289793  )
        21           O1  tau(  21) = (   3.2904802   0.0005063   4.7018136  )
        22           O1  tau(  22) = (   6.5370995   5.9187843  17.1758003  )
        23           O1  tau(  23) = (   1.3043587   1.4918075   6.0039043  )
        24           O1  tau(  24) = (   5.2767064   1.4903225   6.0039473  )
        25           Ti1 tau(  25) = (   0.0000382   5.9609847   6.0000000  )
        26           Ti1 tau(  26) = (   3.2902200   4.4714249   6.0002472  )
        27           O1  tau(  27) = (   0.0002396   2.9813036   7.9858123  )
        28           O1  tau(  28) = (   3.2902150   2.9813002   7.3038282  )
        29           O1  tau(  29) = (   4.5938453   4.4726049   9.2879030  )
        30           O1  tau(  30) = (   1.9864658   4.4711199   9.2879459  )
        31           Ti1 tau(  31) = (   3.2565375   5.8496818   9.1814359  )
        32           Ti1 tau(  32) = (   6.5349656   4.3900073   9.3400910  )
        33           O1  tau(  33) = (   3.2728704   3.0037829  11.2907943  )
        34           O1  tau(  34) = (   6.5689136   2.9626257  10.5472476  )
        35           O1  tau(  35) = (   1.2549189   4.4436098  12.6280720  )
        36           O1  tau(  36) = (   5.2752285   4.4450423  12.6314263  )
        37           Ti1 tau(  37) = (   6.5445616   5.8332433  12.5976854  )
        38           Ti1 tau(  38) = (   3.2543598   4.3897341  12.4334224  )
        39           O1  tau(  39) = (   6.5579435   2.9355163  14.7117218  )
        40           O1  tau(  40) = (   3.2602875   2.9656724  13.9017019  )
        41           O1  tau(  41) = (   4.5395605   4.4315404  16.0360363  )
        42           O1  tau(  42) = (   2.0063696   4.4444213  16.0824092  )
        43           Ti1 tau(  43) = (   3.2990179   0.0081159  16.3450624  )
        44           Ti1 tau(  44) = (   6.5722952   4.6241161  15.8901152  )
        45           O1  tau(  45) = (   3.2900926   2.9813045   4.7018136  )
        46           O1  tau(  46) = (   1.3039711   4.4726057   6.0039043  )
        47           O1  tau(  47) = (   5.2763189   4.4711207   6.0039473  )
        48           C1  tau(  48) = (   6.5466691   2.9215611  17.7332970  )
        49           H1  tau(  49) = (   0.8393079   3.1163452  18.3454380  )
        50           H1  tau(  50) = (   5.6239513   3.1093896  18.3013171  )
        51           O1  tau(  51) = (   3.3457726   5.9061862  18.1608053  )
        52           H1  tau(  52) = (   4.0847859   0.3069366  18.6733355  )

     number of k points=    10  Fermi-Dirac smearing, width (Ry)=  0.0073
                       cart. coord. in units 2pi/alat
        k(    1) = (   0.0000000   0.0000000   0.0000000), wk =   0.1250000
        k(    2) = (   0.0000000   0.0419351   0.0000000), wk =   0.2500000
        k(    3) = (   0.0000000  -0.0838702   0.0000000), wk =   0.1250000
        k(    4) = (   0.0379955   0.0000049   0.0000000), wk =   0.2500000
        k(    5) = (   0.0379955   0.0419400   0.0000000), wk =   0.2500000
        k(    6) = (   0.0379955  -0.0838652   0.0000000), wk =   0.2500000
        k(    7) = (   0.0379955  -0.0419301   0.0000000), wk =   0.2500000
        k(    8) = (  -0.0759910  -0.0000099   0.0000000), wk =   0.1250000
        k(    9) = (  -0.0759910   0.0419252   0.0000000), wk =   0.2500000
        k(   10) = (  -0.0759910  -0.0838800   0.0000000), wk =   0.1250000

     Initial potential from superposition of free atoms

     starting charge  374.99918, renormalised to  391.00000

     negative rho (up, down):  1.929E-02 0.000E+00

     %%%%%%%%%%%%%%%%%%%%%%%%%%%%%%%%%%%%%%%%%%%%%%%%%%%%%%%%%%%%%%%%%%%%%%%%
     %                                                                      %
     % You are using vdW-DF, which was implemented by the Thonhauser group. %
     % Please cite the following two papers that made this development      %
     % possible and the two reviews that describe the various versions:     %
     %                                                                      %
     %   T. Thonhauser et al., PRL 115, 136402 (2015).                      %
     %   T. Thonhauser et al., PRB 76, 125112 (2007).                       %
     %   K. Berland et al., Rep. Prog. Phys. 78, 066501 (2015).             %
     %   D.C. Langreth et al., J. Phys.: Condens. Matter 21, 084203 (2009). %
     %                                                                      %
     %                                                                      %
     % If you are calculating the stress with vdW-DF, please also cite:     %
     %                                                                      %
     %   R. Sabatini et al., J. Phys.: Condens. Matter 24, 424209 (2012).   %
     %                                                                      %
     %%%%%%%%%%%%%%%%%%%%%%%%%%%%%%%%%%%%%%%%%%%%%%%%%%%%%%%%%%%%%%%%%%%%%%%%

     Adding external electric field

     Computed dipole along edir(3) :
        Dipole               -4.4316 Ry au,        -11.2641 Debye
        Dipole field         -0.0084 Ry au,

        Potential amp.        0.7752 Ry
        Total length         46.3494 bohr

     Starting wfcs are  295 atomic wfcs
  @ DRIVER MODE: Message from server: STATUS
  @ DRIVER MODE: Message from server: POSDATA
  @ DRIVER MODE: Reading and sharing cell
  @ DRIVER MODE: Reading and sharing positions
  @ DRIVER MODE: Received positions

     Self-consistent Calculation

     iteration #  1     ecut=    29.40 Ry     beta= 0.05
     Davidson diagonalization with overlap
     c_bands:  5 eigenvalues not converged
     c_bands:  2 eigenvalues not converged
     c_bands:  2 eigenvalues not converged
     c_bands:  2 eigenvalues not converged
     c_bands:  3 eigenvalues not converged
     c_bands:  1 eigenvalues not converged
     c_bands:  3 eigenvalues not converged
     c_bands:  1 eigenvalues not converged
     c_bands:  3 eigenvalues not converged
     ethr =  1.00E-05,  avg # of iterations = 20.0

[...]

     total energy              =   -2883.42572831 Ry
     estimated scf accuracy    <     547.26130376 Ry

     iteration #  2     ecut=    29.40 Ry     beta= 0.05
     Davidson diagonalization with overlap
     ethr =  1.00E-02,  avg # of iterations = 14.2

[...]

     iteration # 36     ecut=    29.40 Ry     beta= 0.05
     Davidson diagonalization with overlap
     c_bands:  1 eigenvalues not converged
     ethr =  4.15E-08,  avg # of iterations =  5.9

[...]

     total energy              =   -2931.27731138 Ry
     estimated scf accuracy    <       0.00000042 Ry

     iteration # 56     ecut=    29.40 Ry     beta= 0.05
     Davidson diagonalization with overlap
     ethr =  5.35E-11,  avg # of iterations =  4.4

     negative rho (up, down):  1.858E-02 0.000E+00

     Adding external electric field

     Computed dipole along edir(3) :
        Dipole                0.4342 Ry au,          1.1036 Debye
        Dipole field          0.0008 Ry au,

        Potential amp.       -0.0760 Ry
        Total length         46.3494 bohr

     End of self-consistent calculation

          k = 0.0000 0.0000 0.0000 ( 18029 PWs)   bands (ev):

   -56.6095 -56.5594 -56.1478 -56.0380 -55.9958 -55.9389 -55.9124 -55.8969
   -55.8543 -55.8128 -55.7832 -55.7264 -55.6792 -55.6101 -55.2189 -55.1850
   -33.0213 -32.8744 -32.8201 -32.7882 -32.6925 -32.6474 -32.4988 -32.4861
   -32.4664 -32.4032 -32.3723 -32.3508 -32.3076 -32.2852 -32.2666 -32.2428
   -32.2389 -32.2238 -32.2099 -32.1442 -32.1415 -32.1282 -32.1255 -32.1119
   -32.0995 -32.0943 -32.0896 -32.0865 -32.0609 -32.0405 -32.0171 -31.9997
   -31.9941 -31.9845 -31.9833 -31.9737 -31.9268 -31.8708 -31.8443 -31.8387
   -31.8219 -31.7892 -31.6134 -31.5593 -31.5349 -31.4301 -31.3451 -31.2344
   -16.9541 -16.7671 -16.6236 -16.4001 -16.2557 -16.1516 -15.9355 -15.9252
   -15.8034 -15.7860 -15.7614 -15.6299 -15.6168 -15.6003 -15.5602 -15.5391
   -15.5312 -15.5293 -15.5179 -15.4915 -15.4593 -15.4384 -15.3985 -15.3168
   -15.2417 -15.2343 -15.1990 -15.1434 -15.0799 -14.8605 -13.7217 -13.6134
    -8.9114  -4.6507  -4.2917  -4.0789  -3.9706  -3.8929  -3.7865  -3.6330
    -3.4340  -3.2953  -3.2459  -3.2089  -3.1605  -3.1438  -3.1251  -3.0794
    -3.0330  -2.9809  -2.9516  -2.8898  -2.8653  -2.8259  -2.7890  -2.7639
    -2.7487  -2.7302  -2.7240  -2.5889  -2.5244  -2.5143  -2.4674  -2.4654
    -2.4073  -2.3900  -2.3665  -2.3173  -2.2830  -2.1880  -2.1295  -2.0969
    -2.0504  -1.8293  -1.8111  -1.7453  -1.6709  -1.6180  -1.5599  -1.5172
    -1.4634  -1.4355  -1.3730  -1.3333  -1.2865  -1.2624  -1.2224  -1.1555
    -1.1354  -1.1015  -1.0394  -0.9633  -0.9176  -0.8506  -0.7827  -0.7477
    -0.6905  -0.6818  -0.6509  -0.5590  -0.4775  -0.4578  -0.4242  -0.3816
    -0.3672  -0.2948  -0.2811  -0.2387  -0.2234  -0.1455  -0.1309  -0.1015
    -0.0692  -0.0457  -0.0252   0.0415   0.1637   0.2317   0.2748   0.3132
     0.3271   0.4135   0.4341   0.5220   0.6773   0.7974   0.8367   1.0071
     1.0596   1.3482   1.3942   1.9245   2.6921   2.8565   3.1422   3.2451
     3.2809   3.3573   3.4017   3.4333   3.6313

[...]

          k = 0.0380-0.0419 0.0000 ( 17876 PWs)   bands (ev):

[...]

          k =-0.0760-0.0000 0.0000 ( 17886 PWs)   bands (ev):

[...]

          k =-0.0760-0.0839 0.0000 ( 17948 PWs)   bands (ev):

   -56.6030 -56.5658 -56.1471 -56.0356 -55.9898 -55.9447 -55.9145 -55.8975
   -55.8455 -55.8216 -55.7815 -55.7202 -55.6854 -55.6116 -55.2022 -55.2016
   -32.8702 -32.8538 -32.8241 -32.8219 -32.7548 -32.7230 -32.4241 -32.3803
   -32.3676 -32.3515 -32.3345 -32.2913 -32.2683 -32.2614 -32.2506 -32.2308
   -32.2153 -32.2028 -32.1921 -32.1830 -32.1637 -32.1629 -32.1405 -32.1368
   -32.1356 -32.1244 -32.1096 -32.1056 -32.0727 -32.0682 -32.0550 -32.0422
   -32.0033 -31.9956 -31.9878 -31.9876 -31.9543 -31.9305 -31.9108 -31.8724
   -31.8251 -31.8126 -31.5481 -31.5478 -31.4290 -31.4271 -31.3873 -31.3864
   -16.9421 -16.1454 -16.0839 -16.0744 -16.0612 -16.0313 -15.9898 -15.9183
   -15.9163 -15.8187 -15.7918 -15.7479 -15.7099 -15.6977 -15.6519 -15.6388
   -15.6267 -15.5636 -15.5215 -15.5026 -15.4870 -15.4745 -15.4537 -15.4287
   -15.4173 -15.3971 -15.3295 -15.2478 -15.2173 -15.0027 -13.7178 -13.7165
    -8.9192  -4.6419  -3.3825  -3.3280  -3.2494  -3.2306  -3.2184  -3.1504
    -3.0943  -3.0889  -3.0312  -3.0179  -2.9745  -2.9451  -2.9154  -2.9092
    -2.9022  -2.8925  -2.8790  -2.8553  -2.8011  -2.7982  -2.7805  -2.7713
    -2.7550  -2.7391  -2.7065  -2.6657  -2.6359  -2.6108  -2.5296  -2.4258
    -2.4200  -2.3851  -2.3549  -2.3223  -2.2804  -2.2586  -2.1831  -2.1757
    -2.1597  -2.1105  -2.0116  -1.7813  -1.7717  -1.7160  -1.6832  -1.6748
    -1.6112  -1.5428  -1.5358  -1.4513  -1.4482  -1.4349  -1.3346  -1.3163
    -1.2838  -1.2648  -1.2391  -1.2101  -1.1072  -1.0854  -1.0779  -1.0462
    -1.0009  -0.9800  -0.8882  -0.8698  -0.8520  -0.8237  -0.7419  -0.6896
    -0.6501  -0.6322  -0.4944  -0.4466  -0.4357  -0.2862  -0.2291  -0.1971
    -0.1748  -0.0876   0.0159   0.0559   0.1129   0.1599   0.2194   0.3261
     0.3382   0.3612   0.4247   0.4644   0.4728   0.4880   0.5644   1.1916
     1.1923   1.2005   1.2074   2.0834   3.2334   3.2587   3.2709   3.3043
     3.5168   3.5402   3.5514   3.6093   3.6504

     the Fermi energy is     2.0043 ev

!    total energy              =   -2931.27736715 Ry
     estimated scf accuracy    <       0.00000004 Ry
     smearing contrib. (-TS)   =      -0.01004691 Ry
     internal energy E=F+TS    =   -2931.26732024 Ry

     The total energy is F=E-TS. E is the sum of the following terms:
     one-electron contribution =  -24332.06048041 Ry
     hartree contribution      =   12249.81884808 Ry
     xc contribution           =    -481.70047039 Ry
     ewald contribution        =    9632.67442673 Ry
     electric field correction =       0.00035575 Ry

     convergence has been achieved in  56 iterations

     Forces acting on atoms (cartesian axes, Ry/au):

     atom    1 type  1   force =     0.00036179   -0.00078045    0.13235227
     atom    2 type  1   force =     0.00014331    0.00690133   -0.15728487
     atom    3 type  2   force =    -0.00018617    0.00281882   -0.05347725
     atom    4 type  2   force =    -0.00072913   -0.00116748    0.04119273
     atom    5 type  2   force =    -0.01141025   -0.00238275    0.00285048
     atom    6 type  2   force =     0.00919102   -0.00643611    0.00178126
     atom    7 type  1   force =     0.00043429    0.00029782   -0.00039752
     atom    8 type  1   force =     0.00019138   -0.00003020    0.00093198
     atom    9 type  2   force =    -0.00002324    0.00044210    0.00039715
     atom   10 type  2   force =     0.00025533    0.00023204   -0.00010832
     atom   11 type  2   force =     0.00051107    0.00034451    0.00026252
     atom   12 type  2   force =    -0.00015129    0.00027496   -0.00025320
     atom   13 type  1   force =    -0.00026238   -0.00046918   -0.00092038
     atom   14 type  1   force =     0.00019957    0.00050258   -0.00025263
     atom   15 type  2   force =     0.00025115   -0.00022043    0.00144347
     atom   16 type  2   force =     0.00048918   -0.00018637    0.00007666
     atom   17 type  2   force =     0.00050398   -0.00011183   -0.00023232
     atom   18 type  2   force =    -0.00085942   -0.00044073   -0.00038686
     atom   19 type  1   force =     0.00106293   -0.00004729   -0.00017058
     atom   20 type  1   force =    -0.00006295    0.00028244   -0.00024055
     atom   21 type  2   force =     0.00020967    0.00008673    0.09898541
     atom   22 type  2   force =     0.00002447    0.00088522   -0.00107081
     atom   23 type  2   force =    -0.08049291    0.00137133   -0.03417588
     atom   24 type  2   force =     0.08056674    0.00190180   -0.03418755
     atom   25 type  1   force =     0.00030344   -0.00010611    0.14243089
     atom   26 type  1   force =     0.00016787   -0.00836780   -0.15755330
     atom   27 type  2   force =    -0.00039279   -0.00117250   -0.05197409
     atom   28 type  2   force =    -0.00064163   -0.00038230    0.04299009
     atom   29 type  2   force =    -0.01011803    0.00503657    0.00017818
     atom   30 type  2   force =     0.00779366    0.00128043   -0.00110528
     atom   31 type  1   force =     0.00010217    0.00001012   -0.00027395
     atom   32 type  1   force =     0.00009186   -0.00043803    0.00095874
     atom   33 type  2   force =     0.00003631   -0.00034103   -0.00007483
     atom   34 type  2   force =     0.00024411    0.00012689   -0.00024319
     atom   35 type  2   force =    -0.00050231    0.00034137    0.00017971
     atom   36 type  2   force =     0.00131024    0.00030474   -0.00024786
     atom   37 type  1   force =     0.00001516   -0.00020572   -0.00041903
     atom   38 type  1   force =     0.00028190   -0.00009141   -0.00018488
     atom   39 type  2   force =    -0.00007065    0.00008841    0.00014142
     atom   40 type  2   force =     0.00039752    0.00010330   -0.00036234
     atom   41 type  2   force =    -0.00091147    0.00000139   -0.00003071
     atom   42 type  2   force =     0.00046544    0.00039999   -0.00026290
     atom   43 type  1   force =     0.00104965    0.00043741    0.00032488
     atom   44 type  1   force =    -0.00038400    0.00041238   -0.00025318
     atom   45 type  2   force =     0.00020013   -0.00000201    0.09855520
     atom   46 type  2   force =    -0.08048079   -0.00109911   -0.03416068
     atom   47 type  2   force =     0.08057019   -0.00056080   -0.03424423
     atom   48 type  3   force =    -0.01747977    0.00020075   -0.00057464
     atom   49 type  4   force =     0.00803468    0.00158838    0.00539298
     atom   50 type  4   force =     0.00860983   -0.00147112   -0.00498013
     atom   51 type  2   force =    -0.00001788    0.00056712   -0.00135288
     atom   52 type  4   force =     0.00110704   -0.00073023    0.00003083

     Total force =     0.384351     Total SCF correction =     0.000717
  @ DRIVER MODE: Message from server: STATUS
  @ DRIVER MODE: Message from server: GETFORCE
  @ DRIVER MODE: Returning v,forces,stress,ensemble

     Writing output data file ./calc.save/
  @ DRIVER MODE: Message from server: EXIT
  @ DRIVE MODE: Exiting

     General routines

     Parallel routines

   This run was terminated on:  17:14:59  22Sep2021

   JOB DONE.