     Program PWSCF v.6.7GPU starts on 18Oct2021 at 23:50:59

     R & G space division:  proc/nbgrp/npool/nimage =       8
     Reading input from /storage/home/hcoda1/3/ntian30/research/carbon/CxH_vib/Thiel_calc/ads_slab/H3N_perslab/out_0024/pw.inp
Warning: card &CELL ignored
Warning: card   CELL_DYNAMICS='IPI', ignored
Warning: card / ignored

     Current dimensions of program PWSCF are:
     Max number of different atomic species (ntypx) = 10
     Max number of k-points (npk) =  40000
     Max angular momentum in pseudopotentials (lmaxx) =  3
     Presently no symmetry can be used with electric field

     Message from routine cell_base_init:
     DEPRECATED: use true lattice parameter, not A to a.u. conversion factor

     IMPORTANT: XC functional enforced from input :
     Exchange-correlation= BEEF-VDW
                           (   1   4  43  14   2   0   0)
     Any further DFT definition will be discarded
     Please, verify this is what you really want

  @ DRIVER MODE: Connecting to
 qe_1139763_3255141.sched-torque.pace.gatech.eduk1cu9opk_scratch
  using UNIX socket
  @ DRIVER MODE: Message from server: STATUS
  @ DRIVER MODE: Message from server: INIT
  @ DRIVER MODE: Receiving replica           0          -1
  @ DRIVER MODE: Receiving encoded integer          25
  @ DRIVER MODE:  SCF:  T  FORCE:  T  STRESS:  F  VC:  F  ENSEMBLE:  F
  @ DRIVER MODE:  SCF:  T  FORCE:  T  STRESS:  F  VC:  F  ENSEMBLE:  F

     Using Slab Decomposition

     bravais-lattice index     =            0
     lattice parameter (alat)  =       1.8897  a.u.
     unit-cell volume          =    9988.4706 (a.u.)^3
     number of atoms/cell      =           57
     number of atomic types    =            4
     number of electrons       =       434.00
     number of Kohn-Sham states=          227
     kinetic-energy cutoff     =      29.3995  Ry
     charge density cutoff     =     293.9946  Ry
     scf convergence threshold =      7.3E-08
     mixing beta               =       0.0500
     number of iterations used =            8  plain     mixing
     Exchange-correlation= BEEF-VDW
                           (   1   4  43  14   2   0   0)

     celldm(1)=   1.889726  celldm(2)=   0.000000  celldm(3)=   0.000000
     celldm(4)=   0.000000  celldm(5)=   0.000000  celldm(6)=   0.000000

     crystal axes: (cart. coord. in units of alat)
               a(1) = (   6.579727   0.000000   0.000000 )
               a(2) = (  -0.001163   8.942395   0.000000 )
               a(3) = (   0.000000   0.000000  25.155947 )

     reciprocal axes: (cart. coord. in units 2 pi/alat)
               b(1) = (  0.151982  0.000020  0.000000 )
               b(2) = (  0.000000  0.111827  0.000000 )
               b(3) = (  0.000000  0.000000  0.039752 )

     PseudoPot. # 1 for O  read from file:
     /storage/coda1/p-amedford6/0/shared/rich_project_chbe-medford/medford-share/data/pseudos_module/espresso/nninc/pbe/van/O.UPF
     MD5 check sum: 78c19812648e8988a0fe644b0f25305e
     Pseudo is Ultrasoft, Zval =  6.0
     Generated by new atomic code, or converted to UPF format
     Using radial grid of  737 points,  4 beta functions with:
                l(1) =   0
                l(2) =   0
                l(3) =   1
                l(4) =   1
     Q(r) pseudized with  8 coefficients,  rinner =    0.800   0.800   0.800

     PseudoPot. # 2 for Ti read from file:
     /storage/coda1/p-amedford6/0/shared/rich_project_chbe-medford/medford-share/data/pseudos_module/espresso/nninc/pbe/van/Ti.UPF
     MD5 check sum: 8e4df49b7f0d34bbd5052bf3f5ea0213
     Pseudo is Ultrasoft, Zval = 12.0
     Generated by new atomic code, or converted to UPF format
     Using radial grid of  851 points,  6 beta functions with:
                l(1) =   0
                l(2) =   0
                l(3) =   1
                l(4) =   1
                l(5) =   2
                l(6) =   2
     Q(r) pseudized with  8 coefficients,  rinner =    1.000   1.000   1.000
                                                       1.000   1.000

     PseudoPot. # 3 for N  read from file:
     /storage/coda1/p-amedford6/0/shared/rich_project_chbe-medford/medford-share/data/pseudos_module/espresso/nninc/pbe/van/N.UPF
     MD5 check sum: 90d10febe142ad51ac9d5be1deb811c4
     Pseudo is Ultrasoft, Zval =  5.0
     Generated by new atomic code, or converted to UPF format
     Using radial grid of  729 points,  4 beta functions with:
                l(1) =   0
                l(2) =   0
                l(3) =   1
                l(4) =   1
     Q(r) pseudized with  8 coefficients,  rinner =    0.800   0.800   0.800

     PseudoPot. # 4 for H  read from file:
     /storage/coda1/p-amedford6/0/shared/rich_project_chbe-medford/medford-share/data/pseudos_module/espresso/nninc/pbe/van/H.UPF
     MD5 check sum: b5ee9d7bfd3a09ee7748110bda690ff7
     Pseudo is Ultrasoft, Zval =  1.0
     Generated by new atomic code, or converted to UPF format
     Using radial grid of  615 points,  1 beta functions with:
                l(1) =   0
     Q(r) pseudized with  8 coefficients,  rinner =    0.800

     atomic species   valence    mass     pseudopotential
        O1             6.00    15.99900     O ( 1.00)
        Ti1           12.00    47.86700     Ti( 1.00)
        N1             5.00    14.00700     N ( 1.00)
        H1             1.00     1.00800     H ( 1.00)

     No symmetry found

   Cartesian axes

     site n.     atom                  positions (alat units)
         1           O1  tau(   1) = (   0.0007354   0.0005023  10.5931620  )
         2           O1  tau(   2) = (   3.2892737   8.9266665  13.9077113  )
         3           O1  tau(   3) = (   0.0003737   0.0634608  17.2091987  )
         4           O1  tau(   4) = (   0.0006271   0.0005054   7.9858123  )
         5           O1  tau(   5) = (   3.2894549   8.9236348  11.1922400  )
         6           O1  tau(   6) = (   0.0007594   0.0424130  14.5914122  )
         7           O1  tau(   7) = (   1.9868534   1.4903216   9.2879459  )
         8           O1  tau(   8) = (   5.2335215   1.6100056  12.5826540  )
         9           O1  tau(   9) = (   2.0120305   1.5790738  16.0735584  )
        10           Ti1 tau(  10) = (   0.0007404   1.4906270   9.2895810  )
        11           Ti1 tau(  11) = (   3.2904007   1.3515224  12.5049090  )
        12           Ti1 tau(  12) = (   0.0008134   1.3014534  15.8121839  )
        13           O1  tau(  13) = (   4.5942328   1.4918067   9.2879030  )
        14           O1  tau(  14) = (   1.3469525   1.6100319  12.5826758  )
        15           O1  tau(  15) = (   4.5681566   1.5786403  16.0735304  )
        16           Ti1 tau(  16) = (   3.2902859   2.9801868   9.2893338  )
        17           Ti1 tau(  17) = (   0.0004417   2.8262804  12.4730395  )
        18           Ti1 tau(  18) = (   3.2905157   2.9388596  15.7158142  )
        19           O1  tau(  19) = (   0.0003479   2.9813005  10.5931620  )
        20           O1  tau(  20) = (   3.2902015   2.9695883  13.9046685  )
        21           O1  tau(  21) = (   0.0002396   2.9813036   7.9858123  )
        22           O1  tau(  22) = (   3.2902718   2.9641339  11.1914307  )
        23           O1  tau(  23) = (  -0.0000899   3.0294973  14.7210216  )
        24           O1  tau(  24) = (   1.9864658   4.4711199   9.2879459  )
        25           O1  tau(  25) = (   5.2357187   4.5858611  12.5822034  )
        26           O1  tau(  26) = (   2.0270018   4.4833747  16.1008177  )
        27           Ti1 tau(  27) = (   0.0003529   4.4714252   9.2895810  )
        28           Ti1 tau(  28) = (   3.2904530   4.3245040  12.5108242  )
        29           Ti1 tau(  29) = (   0.0003810   4.5948835  15.7280669  )
        30           O1  tau(  30) = (   4.5938453   4.4726049   9.2879030  )
        31           O1  tau(  31) = (   1.3445752   4.5857260  12.5820564  )
        32           O1  tau(  32) = (   4.5522270   4.4834529  16.1006533  )
        33           Ti1 tau(  33) = (   3.2898983   5.9609850   9.2893338  )
        34           Ti1 tau(  34) = (   0.0007043   5.8101956  12.4536477  )
        35           Ti1 tau(  35) = (   3.2895928   5.9233606  15.7233983  )
        36           O1  tau(  36) = (  -0.0000397   5.9620987  10.5931620  )
        37           O1  tau(  37) = (   3.2897410   5.9500339  13.9181164  )
        38           O1  tau(  38) = (  -0.0004871   5.9201338  17.2318970  )
        39           O1  tau(  39) = (  -0.0001480   5.9621018   7.9858123  )
        40           O1  tau(  40) = (   3.2899950   5.9414595  11.1912600  )
        41           O1  tau(  41) = (   0.0000049   5.9985156  14.6402937  )
        42           O1  tau(  42) = (   1.9860782   7.4519181   9.2879459  )
        43           O1  tau(  43) = (   5.2353497   7.5549275  12.5688660  )
        44           O1  tau(  44) = (   2.0314850   7.4951575  16.0543809  )
        45           Ti1 tau(  45) = (  -0.0000347   7.4522234   9.2895810  )
        46           Ti1 tau(  46) = (   3.2900928   7.3055020  12.5043323  )
        47           Ti1 tau(  47) = (  -0.0004111   7.4010535  16.2820301  )
        48           O1  tau(  48) = (   4.5934577   7.4534031   9.2879030  )
        49           O1  tau(  49) = (   1.3438456   7.5546912  12.5687420  )
        50           O1  tau(  50) = (   4.5473438   7.4951267  16.0540408  )
        51           Ti1 tau(  51) = (   3.2895107   8.9417832   9.2893338  )
        52           Ti1 tau(  52) = (   0.0000527   8.7739242  12.4740011  )
        53           Ti1 tau(  53) = (   3.2894619   8.8771818  15.7086625  )
        54           N1  tau(  54) = (   6.5792827   2.9851808  17.9254469  )
        55           H1  tau(  55) = (   6.5791554   2.0483488  18.3259764  )
        56           H1  tau(  56) = (   5.7637502   3.4703839  18.2861980  )
        57           H1  tau(  57) = (   0.8147632   3.4704782  18.2967735  )

     number of k points=    10  Fermi-Dirac smearing, width (Ry)=  0.0073
                       cart. coord. in units 2pi/alat
        k(    1) = (   0.0000000   0.0000000   0.0000000), wk =   0.1250000
        k(    2) = (   0.0000000   0.0279567   0.0000000), wk =   0.2500000
        k(    3) = (   0.0000000  -0.0559134   0.0000000), wk =   0.1250000
        k(    4) = (   0.0379955   0.0000049   0.0000000), wk =   0.2500000
        k(    5) = (   0.0379955   0.0279617   0.0000000), wk =   0.2500000
        k(    6) = (   0.0379955  -0.0559085   0.0000000), wk =   0.2500000
        k(    7) = (   0.0379955  -0.0279518   0.0000000), wk =   0.2500000
        k(    8) = (  -0.0759910  -0.0000099   0.0000000), wk =   0.1250000
        k(    9) = (  -0.0759910   0.0279468   0.0000000), wk =   0.2500000
        k(   10) = (  -0.0759910  -0.0559233   0.0000000), wk =   0.1250000

     Initial potential from superposition of free atoms

     starting charge  415.99912, renormalised to  434.00000

     negative rho (up, down):  3.931E-02 0.000E+00

     %%%%%%%%%%%%%%%%%%%%%%%%%%%%%%%%%%%%%%%%%%%%%%%%%%%%%%%%%%%%%%%%%%%%%%%%
     %                                                                      %
     % You are using vdW-DF, which was implemented by the Thonhauser group. %
     % Please cite the following two papers that made this development      %
     % possible and the two reviews that describe the various versions:     %
     %                                                                      %
     %   T. Thonhauser et al., PRL 115, 136402 (2015).                      %
     %   T. Thonhauser et al., PRB 76, 125112 (2007).                       %
     %   K. Berland et al., Rep. Prog. Phys. 78, 066501 (2015).             %
     %   D.C. Langreth et al., J. Phys.: Condens. Matter 21, 084203 (2009). %
     %                                                                      %
     %                                                                      %
     % If you are calculating the stress with vdW-DF, please also cite:     %
     %                                                                      %
     %   R. Sabatini et al., J. Phys.: Condens. Matter 24, 424209 (2012).   %
     %                                                                      %
     %%%%%%%%%%%%%%%%%%%%%%%%%%%%%%%%%%%%%%%%%%%%%%%%%%%%%%%%%%%%%%%%%%%%%%%%

     Adding external electric field

     Computed dipole along edir(3) :
        Dipole               -2.8177 Ry au,         -7.1618 Debye
        Dipole field         -0.0035 Ry au,

        Potential amp.        0.3286 Ry
        Total length         46.3494 bohr

     Starting wfcs are  327 atomic wfcs
  @ DRIVER MODE: Message from server: STATUS
  @ DRIVER MODE: Message from server: POSDATA
  @ DRIVER MODE: Reading and sharing cell
  @ DRIVER MODE: Reading and sharing positions
  @ DRIVER MODE: Received positions

     Self-consistent Calculation

     iteration #  1     ecut=    29.40 Ry     beta= 0.05
     Davidson diagonalization with overlap
     c_bands:  2 eigenvalues not converged
     c_bands:  2 eigenvalues not converged
     c_bands:  2 eigenvalues not converged
     c_bands:  2 eigenvalues not converged
     c_bands:  5 eigenvalues not converged
     c_bands:  2 eigenvalues not converged
     c_bands:  1 eigenvalues not converged
     c_bands:  1 eigenvalues not converged
     c_bands:  2 eigenvalues not converged
     ethr =  1.00E-05,  avg # of iterations = 20.0

[...]

     total energy              =   -3273.63629777 Ry
     estimated scf accuracy    <      14.14216475 Ry

     iteration #  2     ecut=    29.40 Ry     beta= 0.05
     Davidson diagonalization with overlap
     ethr =  3.26E-03,  avg # of iterations =  1.0

[...]

     iteration # 53     ecut=    29.40 Ry     beta= 0.05
     Davidson diagonalization with overlap
     c_bands:  2 eigenvalues not converged
     ethr =  1.65E-06,  avg # of iterations = 15.0

[...]

     total energy              =   -3272.09282130 Ry
     estimated scf accuracy    <       0.00000008 Ry

     iteration # 77     ecut=    29.40 Ry     beta= 0.05
     Davidson diagonalization with overlap
     ethr =  1.79E-11,  avg # of iterations =  7.2

     negative rho (up, down):  3.697E-02 0.000E+00

     Adding external electric field

     Computed dipole along edir(3) :
        Dipole                1.2597 Ry au,          3.2018 Debye
        Dipole field          0.0016 Ry au,

        Potential amp.       -0.1469 Ry
        Total length         46.3494 bohr

     End of self-consistent calculation

          k = 0.0000 0.0000 0.0000 ( 26871 PWs)   bands (ev):

   -58.0012 -57.9988 -57.9763 -57.9758 -57.9753 -57.8727 -57.8227 -57.7981
   -57.7967 -57.7748 -57.7543 -57.7322 -57.6247 -57.5608 -57.4309 -57.0000
   -56.9769 -56.9692 -34.4029 -34.3804 -34.3799 -34.3699 -34.3661 -34.3346
   -34.3167 -34.3136 -34.3013 -34.2699 -34.2427 -34.2290 -34.2178 -34.1940
   -34.1935 -34.1836 -34.1684 -34.1574 -34.1252 -34.1214 -34.0978 -34.0974
   -34.0921 -34.0852 -34.0776 -34.0466 -34.0314 -34.0294 -34.0222 -34.0021
   -33.9990 -33.9912 -33.9799 -33.9782 -33.9748 -33.9690 -33.9458 -33.9386
   -33.9177 -33.8643 -33.8317 -33.7725 -33.7087 -33.7058 -33.6115 -33.3165
   -33.3152 -33.3069 -33.3013 -33.2942 -33.2250 -33.1640 -33.1554 -33.0242
   -18.8505 -18.4272 -18.2675 -18.2483 -18.2273 -18.2013 -18.0928 -18.0872
   -17.8477 -17.8166 -17.7877 -17.7805 -17.7179 -17.6801 -17.6711 -17.6605
   -17.6323 -17.6275 -17.6189 -17.5717 -17.5263 -17.4828 -17.4585 -17.4379
   -17.4215 -17.4196 -17.3879 -17.3311 -17.3121 -17.2558 -17.1145 -16.9531
   -16.8478 -15.4657 -15.4098 -15.4056  -7.5620  -7.4239  -6.1776  -5.9187
    -5.9062  -5.8277  -5.4553  -5.4445  -5.3547  -5.3487  -5.3332  -5.2644
    -5.2526  -5.2430  -5.2242  -5.1944  -5.1330  -5.1129  -5.0808  -4.9465
    -4.9447  -4.9175  -4.9000  -4.8434  -4.8053  -4.8000  -4.7766  -4.7560
    -4.7262  -4.6726  -4.6576  -4.6204  -4.6131  -4.5046  -4.4401  -4.3107
    -4.2936  -4.2894  -4.2703  -4.2233  -4.1850  -4.1584  -4.1303  -4.0781
    -4.0459  -3.9880  -3.9549  -3.9126  -3.8117  -3.7451  -3.7214  -3.6611
    -3.5658  -3.5282  -3.4187  -3.3961  -3.3306  -3.3141  -3.2508  -3.2368
    -3.1659  -3.1533  -3.1120  -3.0950  -3.0351  -2.9835  -2.9659  -2.9280
    -2.8850  -2.7700  -2.7570  -2.7486  -2.7269  -2.6920  -2.6676  -2.6373
    -2.6272  -2.5879  -2.5337  -2.4867  -2.4594  -2.4169  -2.4077  -2.3567
    -2.3075  -2.2993  -2.2238  -2.2033  -2.1801  -2.1575  -2.0689  -2.0140
    -1.8548  -1.8254  -1.8199  -1.7842  -1.7392  -1.6892  -1.6420  -1.4713
    -1.2321  -1.0299  -0.7429  -0.7024  -0.7011  -0.4435  -0.4376  -0.3111
     0.9736   1.2316   1.2651   1.4478   1.4523   1.5415   1.5901   1.5903
     1.6561   1.6866   1.7432

[...]

          k = 0.0380-0.0280 0.0000 ( 26873 PWs)   bands (ev):

[...]

          k =-0.0760-0.0000 0.0000 ( 26902 PWs)   bands (ev):

[...]

          k =-0.0760-0.0559 0.0000 ( 26868 PWs)   bands (ev):

   -57.9978 -57.9928 -57.9923 -57.9774 -57.9670 -57.8725 -57.8150 -57.8130
   -57.7891 -57.7716 -57.7598 -57.7302 -57.6245 -57.5610 -57.4308 -56.9943
   -56.9878 -56.9640 -34.4736 -34.4442 -34.3858 -34.3770 -34.3329 -34.3318
   -34.3273 -34.3266 -34.2778 -34.2406 -34.2050 -34.1893 -34.1889 -34.1727
   -34.1645 -34.1421 -34.1419 -34.1343 -34.1308 -34.1225 -34.1178 -34.0843
   -34.0742 -34.0694 -34.0667 -34.0605 -34.0539 -34.0378 -34.0296 -34.0252
   -34.0195 -34.0110 -34.0105 -33.9930 -33.9884 -33.9735 -33.9608 -33.9455
   -33.9165 -33.8362 -33.8192 -33.7765 -33.7096 -33.7070 -33.6415 -33.4028
   -33.3174 -33.3115 -33.2888 -33.2074 -33.1994 -33.1381 -33.1248 -33.1172
   -18.5321 -18.5162 -18.2078 -18.1224 -18.1066 -18.0823 -18.0693 -18.0195
   -17.9381 -17.8802 -17.8758 -17.8174 -17.7784 -17.7685 -17.7317 -17.7255
   -17.7091 -17.6979 -17.6666 -17.6378 -17.6360 -17.5363 -17.4520 -17.4200
   -17.4058 -17.3706 -17.3542 -17.3499 -17.2955 -17.2347 -17.1484 -17.0624
   -16.7432 -15.4657 -15.4606 -15.3454  -7.5706  -7.4385  -5.7877  -5.7776
    -5.7673  -5.7016  -5.3798  -5.3016  -5.2699  -5.2554  -5.1711  -5.1646
    -5.1628  -5.1491  -5.1459  -5.1226  -5.0941  -5.0814  -5.0284  -5.0196
    -5.0165  -4.9529  -4.9127  -4.9038  -4.8848  -4.8590  -4.7443  -4.7371
    -4.6330  -4.6041  -4.5445  -4.5101  -4.4975  -4.4677  -4.3909  -4.3870
    -4.3501  -4.3153  -4.1603  -4.1514  -4.1368  -4.1304  -4.0585  -3.9991
    -3.9736  -3.9409  -3.7090  -3.6500  -3.6401  -3.6301  -3.6164  -3.6090
    -3.5899  -3.5526  -3.5204  -3.4831  -3.4605  -3.4398  -3.4373  -3.3436
    -3.3048  -3.2644  -3.1627  -3.1407  -3.1324  -3.1041  -3.0995  -3.0744
    -3.0686  -3.0490  -3.0319  -2.9540  -2.9181  -2.9004  -2.8482  -2.7801
    -2.7630  -2.7602  -2.5870  -2.5358  -2.5256  -2.5062  -2.4731  -2.3804
    -2.3768  -2.2409  -2.2143  -2.1711  -2.0984  -2.0690  -2.0202  -2.0017
    -1.9882  -1.9674  -1.7761  -1.7587  -1.6850  -1.6257  -1.5745  -1.5534
    -1.5436  -1.3275  -0.9157  -0.6332  -0.6147  -0.5956  -0.4438  -0.4412
     1.1488   1.2056   1.2199   1.3224   1.3261   1.3387   1.3951   1.4548
     1.4852   1.5648   1.7082

     the Fermi energy is     1.0791 ev

!    total energy              =   -3272.09282873 Ry
     estimated scf accuracy    <       0.00000007 Ry
     smearing contrib. (-TS)   =      -0.03207324 Ry
     internal energy E=F+TS    =   -3272.06075549 Ry

     The total energy is F=E-TS. E is the sum of the following terms:
     one-electron contribution =  -34295.90936928 Ry
     hartree contribution      =   17207.96687446 Ry
     xc contribution           =    -536.11240728 Ry
     ewald contribution        =   14351.99215021 Ry
     electric field correction =       0.00199640 Ry

     convergence has been achieved in  77 iterations

     Forces acting on atoms (cartesian axes, Ry/au):

     atom    1 type  1   force =     0.00003266    0.00589472    0.05805673
     atom    2 type  1   force =    -0.00001322    0.00194487   -0.00321750
     atom    3 type  1   force =     0.00000471   -0.00327026   -0.00025667
     atom    4 type  1   force =     0.00005338   -0.00049123    0.10637990
     atom    5 type  1   force =    -0.00002192   -0.00000319    0.00970623
     atom    6 type  1   force =     0.00000689   -0.00097844    0.00084647
     atom    7 type  1   force =     0.06847577   -0.00032359   -0.02942202
     atom    8 type  1   force =     0.00472579   -0.02819290    0.00238571
     atom    9 type  1   force =     0.01005820   -0.02084031    0.00041850
     atom   10 type  2   force =    -0.00006554   -0.00345679   -0.18018506
     atom   11 type  2   force =     0.00008463    0.01996140   -0.00725347
     atom   12 type  2   force =     0.00005988    0.02092055   -0.00336936
     atom   13 type  1   force =    -0.06857196   -0.00077593   -0.02939753
     atom   14 type  1   force =    -0.00464503   -0.02830081    0.00239459
     atom   15 type  1   force =    -0.00991570   -0.02076087    0.00051912
     atom   16 type  2   force =     0.00013468   -0.00169336    0.06500750
     atom   17 type  2   force =    -0.00016231    0.03518026    0.00380263
     atom   18 type  2   force =    -0.00015431    0.01000635   -0.00293634
     atom   19 type  1   force =     0.00001352    0.00479449    0.06364677
     atom   20 type  1   force =    -0.00000762    0.00173991   -0.00597343
     atom   21 type  1   force =     0.00005563    0.00136309    0.10696090
     atom   22 type  1   force =    -0.00001753   -0.00018378    0.00916379
     atom   23 type  1   force =     0.00000031   -0.00453543    0.00170620
     atom   24 type  1   force =     0.06775224   -0.00034173   -0.02933922
     atom   25 type  1   force =     0.00461591   -0.02913855    0.00294858
     atom   26 type  1   force =     0.00819718    0.00332852   -0.00419139
     atom   27 type  2   force =    -0.00008229   -0.00409806   -0.18531308
     atom   28 type  2   force =     0.00008920    0.02022641   -0.00747827
     atom   29 type  2   force =     0.00010794   -0.00036800    0.01364270
     atom   30 type  1   force =    -0.06784551   -0.00079931   -0.02931621
     atom   31 type  1   force =    -0.00455555   -0.02921968    0.00296729
     atom   32 type  1   force =    -0.00800917    0.00322405   -0.00402052
     atom   33 type  2   force =     0.00011397   -0.00147427    0.06548023
     atom   34 type  2   force =    -0.00014912    0.03609936    0.00380777
     atom   35 type  2   force =    -0.00006585   -0.00252687    0.00356225
     atom   36 type  1   force =     0.00003760    0.00368741    0.05587375
     atom   37 type  1   force =    -0.00001566    0.00000063   -0.00178440
     atom   38 type  1   force =    -0.00002109   -0.00316513   -0.00045478
     atom   39 type  1   force =     0.00005338   -0.00022704    0.10718754
     atom   40 type  1   force =    -0.00002336    0.00004446    0.00942601
     atom   41 type  1   force =     0.00000836    0.00226007    0.00077653
     atom   42 type  1   force =     0.06797087   -0.00084664   -0.02927958
     atom   43 type  1   force =     0.00402366   -0.02908007    0.00273165
     atom   44 type  1   force =     0.01151966   -0.01066403    0.00420362
     atom   45 type  2   force =    -0.00009010    0.00395843   -0.18333835
     atom   46 type  2   force =     0.00007154    0.02027704   -0.00792020
     atom   47 type  2   force =    -0.00000139    0.00993728   -0.01344909
     atom   48 type  1   force =    -0.06806885   -0.00129220   -0.02926005
     atom   49 type  1   force =    -0.00392694   -0.02917065    0.00273448
     atom   50 type  1   force =    -0.01150188   -0.01066270    0.00421751
     atom   51 type  2   force =     0.00011456   -0.00124245    0.06591847
     atom   52 type  2   force =    -0.00014892    0.03607521    0.00354728
     atom   53 type  2   force =    -0.00002837    0.02503301    0.00682647
     atom   54 type  3   force =     0.00495642    0.00356562    0.00286859
     atom   55 type  4   force =    -0.00054747   -0.00016851   -0.00009168
     atom   56 type  4   force =    -0.00084177    0.00046070    0.00014078
     atom   57 type  4   force =    -0.00384006   -0.00169106   -0.00260835

     Total force =     0.453400     Total SCF correction =     0.000750
  @ DRIVER MODE: Message from server: STATUS
  @ DRIVER MODE: Message from server: GETFORCE
  @ DRIVER MODE: Returning v,forces,stress,ensemble

     Writing output data file ./calc.save/
  @ DRIVER MODE: Message from server: EXIT
  @ DRIVE MODE: Exiting

     General routines

     Parallel routines

   This run was terminated on:   0:27:36  19Oct2021

   JOB DONE.