     Program PWSCF v.6.7GPU starts on 23Sep2021 at  2:40:26

     R & G space division:  proc/nbgrp/npool/nimage =      10
     Reading input from /storage/home/hcoda1/3/ntian30/research/carbon/CxH_vib/H2O_calc/ads_slab/CHNNHHHO_a/out_0031/pw.inp
Warning: card &CELL ignored
Warning: card   CELL_DYNAMICS='IPI', ignored
Warning: card / ignored

     Current dimensions of program PWSCF are:
     Max number of different atomic species (ntypx) = 10
     Max number of k-points (npk) =  40000
     Max angular momentum in pseudopotentials (lmaxx) =  3
     Presently no symmetry can be used with electric field

     Message from routine cell_base_init:
     DEPRECATED: use true lattice parameter, not A to a.u. conversion factor

     IMPORTANT: XC functional enforced from input :
     Exchange-correlation= BEEF-VDW
                           (   1   4  43  14   2   0   0)
     Any further DFT definition will be discarded
     Please, verify this is what you really want

  @ DRIVER MODE: Connecting to
 qe_1139763_2937315.sched-torque.pace.gatech.edun5jw1uv4_scratch
  using UNIX socket
  @ DRIVER MODE: Message from server: STATUS
  @ DRIVER MODE: Message from server: INIT
  @ DRIVER MODE: Receiving replica           0          -1
  @ DRIVER MODE: Receiving encoded integer          25
  @ DRIVER MODE:  SCF:  T  FORCE:  T  STRESS:  F  VC:  F  ENSEMBLE:  F
  @ DRIVER MODE:  SCF:  T  FORCE:  T  STRESS:  F  VC:  F  ENSEMBLE:  F

     Using Slab Decomposition

     bravais-lattice index     =            0
     lattice parameter (alat)  =       1.8897  a.u.
     unit-cell volume          =    6658.9804 (a.u.)^3
     number of atoms/cell      =           55
     number of atomic types    =            5
     number of electrons       =       402.00
     number of Kohn-Sham states=          211
     kinetic-energy cutoff     =      29.3995  Ry
     charge density cutoff     =     293.9946  Ry
     scf convergence threshold =      7.3E-08
     mixing beta               =       0.0500
     number of iterations used =            8  plain     mixing
     Exchange-correlation= BEEF-VDW
                           (   1   4  43  14   2   0   0)

     celldm(1)=   1.889726  celldm(2)=   0.000000  celldm(3)=   0.000000
     celldm(4)=   0.000000  celldm(5)=   0.000000  celldm(6)=   0.000000

     crystal axes: (cart. coord. in units of alat)
               a(1) = (   6.579727   0.000000   0.000000 )
               a(2) = (  -0.000775   5.961596   0.000000 )
               a(3) = (   0.000000   0.000000  25.155947 )

     reciprocal axes: (cart. coord. in units 2 pi/alat)
               b(1) = (  0.151982  0.000020  0.000000 )
               b(2) = (  0.000000  0.167740  0.000000 )
               b(3) = (  0.000000  0.000000  0.039752 )

     PseudoPot. # 1 for Ti read from file:
     /storage/coda1/p-amedford6/0/shared/rich_project_chbe-medford/medford-share/data/pseudos_module/espresso/nninc/pbe/van/Ti.UPF
     MD5 check sum: 8e4df49b7f0d34bbd5052bf3f5ea0213
     Pseudo is Ultrasoft, Zval = 12.0
     Generated by new atomic code, or converted to UPF format
     Using radial grid of  851 points,  6 beta functions with:
                l(1) =   0
                l(2) =   0
                l(3) =   1
                l(4) =   1
                l(5) =   2
                l(6) =   2
     Q(r) pseudized with  8 coefficients,  rinner =    1.000   1.000   1.000
                                                       1.000   1.000

     PseudoPot. # 2 for O  read from file:
     /storage/coda1/p-amedford6/0/shared/rich_project_chbe-medford/medford-share/data/pseudos_module/espresso/nninc/pbe/van/O.UPF
     MD5 check sum: 78c19812648e8988a0fe644b0f25305e
     Pseudo is Ultrasoft, Zval =  6.0
     Generated by new atomic code, or converted to UPF format
     Using radial grid of  737 points,  4 beta functions with:
                l(1) =   0
                l(2) =   0
                l(3) =   1
                l(4) =   1
     Q(r) pseudized with  8 coefficients,  rinner =    0.800   0.800   0.800

     PseudoPot. # 3 for N  read from file:
     /storage/coda1/p-amedford6/0/shared/rich_project_chbe-medford/medford-share/data/pseudos_module/espresso/nninc/pbe/van/N.UPF
     MD5 check sum: 90d10febe142ad51ac9d5be1deb811c4
     Pseudo is Ultrasoft, Zval =  5.0
     Generated by new atomic code, or converted to UPF format
     Using radial grid of  729 points,  4 beta functions with:
                l(1) =   0
                l(2) =   0
                l(3) =   1
                l(4) =   1
     Q(r) pseudized with  8 coefficients,  rinner =    0.800   0.800   0.800

     PseudoPot. # 4 for C  read from file:
     /storage/coda1/p-amedford6/0/shared/rich_project_chbe-medford/medford-share/data/pseudos_module/espresso/nninc/pbe/van/C.UPF
     MD5 check sum: 1a69bf6b8db32088f5b2163dbdb77a27
     Pseudo is Ultrasoft, Zval =  4.0
     Generated by new atomic code, or converted to UPF format
     Using radial grid of  721 points,  4 beta functions with:
                l(1) =   0
                l(2) =   0
                l(3) =   1
                l(4) =   1
     Q(r) pseudized with  8 coefficients,  rinner =    0.800   0.800   0.800

     PseudoPot. # 5 for H  read from file:
     /storage/coda1/p-amedford6/0/shared/rich_project_chbe-medford/medford-share/data/pseudos_module/espresso/nninc/pbe/van/H.UPF
     MD5 check sum: b5ee9d7bfd3a09ee7748110bda690ff7
     Pseudo is Ultrasoft, Zval =  1.0
     Generated by new atomic code, or converted to UPF format
     Using radial grid of  615 points,  1 beta functions with:
                l(1) =   0
     Q(r) pseudized with  8 coefficients,  rinner =    0.800

     atomic species   valence    mass     pseudopotential
        Ti1           12.00    47.86700     Ti( 1.00)
        O1             6.00    15.99900     O ( 1.00)
        N1             5.00    14.00700     N ( 1.00)
        C1             4.00    12.01100     C ( 1.00)
        H1             1.00     1.00800     H ( 1.00)

     No symmetry found

   Cartesian axes

     site n.     atom                  positions (alat units)
         1           Ti1 tau(   1) = (   0.0004258   2.9801865   6.0000000  )
         2           Ti1 tau(   2) = (   3.2906075   1.4906267   6.0002472  )
         3           O1  tau(   3) = (   0.0006271   0.0005054   7.9858123  )
         4           O1  tau(   4) = (   3.2906025   0.0005020   7.3038282  )
         5           O1  tau(   5) = (   4.5942328   1.4918067   9.2879030  )
         6           O1  tau(   6) = (   1.9868534   1.4903216   9.2879459  )
         7           Ti1 tau(   7) = (   3.2907910   2.8959150   9.1758416  )
         8           Ti1 tau(   8) = (   0.0015273   1.4827037   9.2680791  )
         9           O1  tau(   9) = (   3.3019041   5.9340972  11.2780832  )
        10           O1  tau(  10) = (   0.0116148   5.9584955  10.6183126  )
        11           O1  tau(  11) = (   1.2869077   1.4717189  12.6473688  )
        12           O1  tau(  12) = (   5.3188397   1.4655789  12.6430575  )
        13           Ti1 tau(  13) = (   0.0521173   3.0639968  12.7333969  )
        14           Ti1 tau(  14) = (   3.2906581   1.3001642  12.6471297  )
        15           O1  tau(  15) = (   0.0021475   5.9326859  14.6872502  )
        16           O1  tau(  16) = (   3.3040199   0.0265785  13.8678754  )
        17           O1  tau(  17) = (   4.6240569   1.6264218  16.1080407  )
        18           O1  tau(  18) = (   2.0715169   1.5429601  15.9546445  )
        19           Ti1 tau(  19) = (   3.3363059   2.9874148  15.6109769  )
        20           Ti1 tau(  20) = (   0.0492893   1.4028208  15.7974426  )
        21           O1  tau(  21) = (   3.2904802   0.0005063   4.7018136  )
        22           O1  tau(  22) = (   0.0944532   0.0627470  17.1934044  )
        23           O1  tau(  23) = (   1.3043587   1.4918075   6.0039043  )
        24           O1  tau(  24) = (   5.2767064   1.4903225   6.0039473  )
        25           Ti1 tau(  25) = (   0.0000382   5.9609847   6.0000000  )
        26           Ti1 tau(  26) = (   3.2902200   4.4714249   6.0002472  )
        27           O1  tau(  27) = (   0.0002396   2.9813036   7.9858123  )
        28           O1  tau(  28) = (   3.2902150   2.9813002   7.3038282  )
        29           O1  tau(  29) = (   4.5938453   4.4726049   9.2879030  )
        30           O1  tau(  30) = (   1.9864658   4.4711199   9.2879459  )
        31           Ti1 tau(  31) = (   3.2891106   5.8743827   9.1763621  )
        32           Ti1 tau(  32) = (   0.0006254   4.4649316   9.2693709  )
        33           O1  tau(  33) = (   3.3033179   3.0104581  11.2528581  )
        34           O1  tau(  34) = (   0.0092240   2.9805883  10.6323155  )
        35           O1  tau(  35) = (   1.3074756   4.4469578  12.6382572  )
        36           O1  tau(  36) = (   5.3202433   4.4545580  12.6357595  )
        37           Ti1 tau(  37) = (   6.5572640   0.0741000  12.5519234  )
        38           Ti1 tau(  38) = (   3.3179412   4.3950854  12.4030220  )
        39           O1  tau(  39) = (   0.0383827   2.9948909  14.7437145  )
        40           O1  tau(  40) = (   3.3238341   2.9662938  13.8354460  )
        41           O1  tau(  41) = (   4.5722604   4.5101538  15.9256862  )
        42           O1  tau(  42) = (   2.0839069   4.4665637  16.0501180  )
        43           Ti1 tau(  43) = (   3.2507700   5.9423238  16.2547716  )
        44           Ti1 tau(  44) = (   6.5063516   4.5631136  16.2071476  )
        45           O1  tau(  45) = (   3.2900926   2.9813045   4.7018136  )
        46           O1  tau(  46) = (   1.3039711   4.4726057   6.0039043  )
        47           O1  tau(  47) = (   5.2763189   4.4711207   6.0039473  )
        48           N1  tau(  48) = (   0.4124544   2.9287237  17.8391456  )
        49           C1  tau(  49) = (   1.3780350   3.0145335  18.6736463  )
        50           H1  tau(  50) = (   2.3027514   2.5668077  18.2879847  )
        51           N1  tau(  51) = (   5.7762606   3.6115528  18.1636368  )
        52           H1  tau(  52) = (   5.8537390   4.1179332  19.0469945  )
        53           H1  tau(  53) = (   5.0030290   2.9392956  18.1702355  )
        54           O1  tau(  54) = (   3.2882145   0.0116813  18.0866318  )
        55           H1  tau(  55) = (   2.5950809   5.5738040  18.6371346  )

     number of k points=    10  Fermi-Dirac smearing, width (Ry)=  0.0073
                       cart. coord. in units 2pi/alat
        k(    1) = (   0.0000000   0.0000000   0.0000000), wk =   0.1250000
        k(    2) = (   0.0000000   0.0419351   0.0000000), wk =   0.2500000
        k(    3) = (   0.0000000  -0.0838702   0.0000000), wk =   0.1250000
        k(    4) = (   0.0379955   0.0000049   0.0000000), wk =   0.2500000
        k(    5) = (   0.0379955   0.0419400   0.0000000), wk =   0.2500000
        k(    6) = (   0.0379955  -0.0838652   0.0000000), wk =   0.2500000
        k(    7) = (   0.0379955  -0.0419301   0.0000000), wk =   0.2500000
        k(    8) = (  -0.0759910  -0.0000099   0.0000000), wk =   0.1250000
        k(    9) = (  -0.0759910   0.0419252   0.0000000), wk =   0.2500000
        k(   10) = (  -0.0759910  -0.0838800   0.0000000), wk =   0.1250000

     Initial potential from superposition of free atoms

     starting charge  385.99915, renormalised to  402.00000

     negative rho (up, down):  1.703E-02 0.000E+00

     %%%%%%%%%%%%%%%%%%%%%%%%%%%%%%%%%%%%%%%%%%%%%%%%%%%%%%%%%%%%%%%%%%%%%%%%
     %                                                                      %
     % You are using vdW-DF, which was implemented by the Thonhauser group. %
     % Please cite the following two papers that made this development      %
     % possible and the two reviews that describe the various versions:     %
     %                                                                      %
     %   T. Thonhauser et al., PRL 115, 136402 (2015).                      %
     %   T. Thonhauser et al., PRB 76, 125112 (2007).                       %
     %   K. Berland et al., Rep. Prog. Phys. 78, 066501 (2015).             %
     %   D.C. Langreth et al., J. Phys.: Condens. Matter 21, 084203 (2009). %
     %                                                                      %
     %                                                                      %
     % If you are calculating the stress with vdW-DF, please also cite:     %
     %                                                                      %
     %   R. Sabatini et al., J. Phys.: Condens. Matter 24, 424209 (2012).   %
     %                                                                      %
     %%%%%%%%%%%%%%%%%%%%%%%%%%%%%%%%%%%%%%%%%%%%%%%%%%%%%%%%%%%%%%%%%%%%%%%%

     Adding external electric field

     Computed dipole along edir(3) :
        Dipole              -11.1544 Ry au,        -28.3516 Debye
        Dipole field         -0.0210 Ry au,

        Potential amp.        1.9513 Ry
        Total length         46.3494 bohr

     Starting wfcs are  304 atomic wfcs
  @ DRIVER MODE: Message from server: STATUS
  @ DRIVER MODE: Message from server: POSDATA
  @ DRIVER MODE: Reading and sharing cell
  @ DRIVER MODE: Reading and sharing positions
  @ DRIVER MODE: Received positions

     Self-consistent Calculation

     iteration #  1     ecut=    29.40 Ry     beta= 0.05
     Davidson diagonalization with overlap
     c_bands:  2 eigenvalues not converged
     c_bands:  3 eigenvalues not converged
     c_bands:  1 eigenvalues not converged
     c_bands:  1 eigenvalues not converged
     c_bands:  5 eigenvalues not converged
     c_bands:  3 eigenvalues not converged
     c_bands:  1 eigenvalues not converged
     ethr =  1.00E-05,  avg # of iterations = 28.8

[...]

     total energy              =   -2400.33413639 Ry
     estimated scf accuracy    <    6416.21758317 Ry

     iteration #  2     ecut=    29.40 Ry     beta= 0.05
     Davidson diagonalization with overlap
     ethr =  1.00E-02,  avg # of iterations = 24.1

[...]

     iteration # 37     ecut=    29.40 Ry     beta= 0.05
     Davidson diagonalization with overlap
     c_bands:  1 eigenvalues not converged
     ethr =  9.10E-07,  avg # of iterations =  7.4

[...]

     total energy              =   -2972.60985680 Ry
     estimated scf accuracy    <       0.00000011 Ry

     iteration # 63     ecut=    29.40 Ry     beta= 0.05
     Davidson diagonalization with overlap
     ethr =  2.81E-11,  avg # of iterations =  5.2

     negative rho (up, down):  1.638E-02 0.000E+00

     Adding external electric field

     Computed dipole along edir(3) :
        Dipole                0.2192 Ry au,          0.5571 Debye
        Dipole field          0.0004 Ry au,

        Potential amp.       -0.0383 Ry
        Total length         46.3494 bohr

     End of self-consistent calculation

          k = 0.0000 0.0000 0.0000 ( 18029 PWs)   bands (ev):

   -56.4670 -56.4332 -56.0101 -55.9742 -55.7585 -55.7040 -55.6456 -55.6372
   -55.6039 -55.5135 -55.5066 -55.4507 -55.4068 -55.2825 -55.2112 -55.1772
   -32.9134 -32.7582 -32.7309 -32.6269 -32.5379 -32.5346 -32.4916 -32.2418
   -32.2278 -32.2058 -32.1590 -32.1540 -32.1281 -32.1087 -32.0250 -32.0122
   -31.9931 -31.9797 -31.9620 -31.9236 -31.9182 -31.9097 -31.9064 -31.8841
   -31.8649 -31.8629 -31.8592 -31.8058 -31.7890 -31.7690 -31.7467 -31.7226
   -31.7105 -31.6948 -31.6777 -31.6735 -31.6451 -31.6063 -31.5963 -31.5768
   -31.5474 -31.5462 -31.5224 -31.5141 -31.4906 -31.4254 -31.3411 -31.2290
   -17.8957 -16.7387 -16.4751 -16.4023 -16.2034 -16.0131 -15.9199 -15.9044
   -15.8850 -15.7644 -15.7638 -15.6127 -15.5323 -15.4769 -15.4143 -15.4029
   -15.3339 -15.3169 -15.2535 -15.2260 -15.2131 -15.1881 -15.1389 -15.0766
   -15.0660 -15.0395 -14.8529 -14.8280 -14.8125 -14.6274 -14.5344 -13.7087
   -13.5971 -13.1977  -7.8368  -6.1444  -4.2570  -4.2521  -4.1351  -3.9337
    -3.7346  -3.6729  -3.5773  -3.4345  -3.4040  -3.1616  -3.1464  -3.1048
    -3.0161  -2.9887  -2.9614  -2.9013  -2.8432  -2.8237  -2.7634  -2.6859
    -2.6835  -2.6733  -2.6418  -2.6192  -2.5150  -2.4759  -2.4135  -2.3741
    -2.3480  -2.3375  -2.2982  -2.2432  -2.2157  -2.1634  -2.1455  -2.0652
    -2.0340  -1.9475  -1.8878  -1.8699  -1.8156  -1.7591  -1.7544  -1.6990
    -1.5675  -1.4575  -1.3907  -1.3487  -1.2947  -1.2395  -1.2096  -1.1543
    -1.0897  -1.0666  -1.0432  -1.0062  -0.9453  -0.9168  -0.8699  -0.8156
    -0.7392  -0.6721  -0.6261  -0.6048  -0.4995  -0.4344  -0.3963  -0.3803
    -0.3436  -0.2893  -0.2342  -0.1945  -0.1841  -0.1614  -0.1006   0.0235
     0.0339   0.0931   0.1480   0.1813   0.1939   0.2095   0.2713   0.3385
     0.4126   0.4557   0.4682   0.5260   0.5905   0.6291   0.7437   0.8133
     0.8397   0.8805   0.9565   1.0327   1.0478   1.3544   1.3678   1.3970
     2.5150   2.7680   2.8990   3.0784   3.1991   3.3343   3.6530   3.6699
     3.6816   3.7027   3.7941

[...]

          k = 0.0380-0.0419 0.0000 ( 17876 PWs)   bands (ev):

[...]

          k =-0.0760-0.0000 0.0000 ( 17886 PWs)   bands (ev):

[...]

          k =-0.0760-0.0839 0.0000 ( 17948 PWs)   bands (ev):

   -56.4503 -56.4498 -55.9985 -55.9857 -55.7526 -55.7099 -55.6370 -55.6357
   -55.6124 -55.5112 -55.5080 -55.4491 -55.4088 -55.2841 -55.1947 -55.1936
   -32.7439 -32.7435 -32.7296 -32.7295 -32.5794 -32.5785 -32.3204 -32.3094
   -32.1903 -32.1841 -32.1759 -32.1743 -32.0604 -32.0279 -31.9815 -31.9743
   -31.9613 -31.9563 -31.9477 -31.9394 -31.9363 -31.9284 -31.9083 -31.8712
   -31.8630 -31.8573 -31.8544 -31.8401 -31.8208 -31.7958 -31.7821 -31.7722
   -31.7255 -31.7093 -31.7014 -31.6811 -31.6509 -31.6320 -31.6302 -31.6006
   -31.5496 -31.5358 -31.5350 -31.4947 -31.4220 -31.4206 -31.3839 -31.3830
   -17.8863 -16.4559 -16.1443 -16.1334 -16.0158 -16.0102 -15.8579 -15.8377
   -15.8195 -15.7458 -15.6814 -15.6603 -15.5124 -15.4998 -15.4636 -15.4281
   -15.3999 -15.3624 -15.3580 -15.3343 -15.3017 -15.2362 -15.2146 -15.1898
   -15.1793 -15.1028 -14.9233 -14.8998 -14.8970 -14.8223 -14.6839 -13.7006
   -13.6999 -13.2089  -7.8007  -6.0722  -4.3758  -4.0827  -3.3148  -3.2509
    -3.1757  -3.1397  -3.1294  -3.0569  -3.0415  -2.9267  -2.8983  -2.8595
    -2.8331  -2.8226  -2.8027  -2.7517  -2.7294  -2.6844  -2.6679  -2.6665
    -2.6345  -2.5943  -2.5744  -2.5511  -2.5403  -2.4704  -2.4408  -2.3979
    -2.3811  -2.3693  -2.3221  -2.2615  -2.2431  -2.1867  -2.1745  -2.1418
    -2.1050  -2.0442  -2.0057  -1.9632  -1.8654  -1.8443  -1.7759  -1.6584
    -1.6373  -1.5533  -1.5252  -1.5038  -1.4815  -1.4039  -1.3713  -1.3382
    -1.2507  -1.2240  -1.2159  -1.1895  -1.1563  -1.1315  -1.0748  -1.0127
    -0.9175  -0.8538  -0.8423  -0.8232  -0.7842  -0.7576  -0.7169  -0.6247
    -0.6034  -0.5683  -0.5583  -0.5167  -0.4043  -0.3782  -0.2284  -0.1911
    -0.1018  -0.0742  -0.0549  -0.0136   0.1083   0.1359   0.1862   0.2066
     0.2658   0.3107   0.3609   0.4514   0.5534   0.5658   0.6976   0.7243
     0.7451   0.8181   0.9518   0.9926   1.2076   1.2122   1.2138   1.2160
     2.4944   3.3208   3.3233   3.3566   3.3689   3.5720   3.5922   3.7180
     3.8026   3.8102   3.8118

     the Fermi energy is     2.6947 ev

!    total energy              =   -2972.60990070 Ry
     estimated scf accuracy    <       0.00000007 Ry
     smearing contrib. (-TS)   =      -0.01174704 Ry
     internal energy E=F+TS    =   -2972.59815365 Ry

     The total energy is F=E-TS. E is the sum of the following terms:
     one-electron contribution =  -24036.49395465 Ry
     hartree contribution      =   12109.63959497 Ry
     xc contribution           =    -493.06994191 Ry
     ewald contribution        =    9447.32605727 Ry
     electric field correction =       0.00009067 Ry

     convergence has been achieved in  63 iterations

     Forces acting on atoms (cartesian axes, Ry/au):

     atom    1 type  1   force =    -0.00003843   -0.00046692    0.10841917
     atom    2 type  1   force =     0.00001549    0.00008519   -0.16404671
     atom    3 type  2   force =     0.00013170    0.00046848   -0.04118875
     atom    4 type  2   force =     0.00009485   -0.00056821    0.03214735
     atom    5 type  2   force =    -0.00381071   -0.00332813   -0.00776258
     atom    6 type  2   force =     0.00587123   -0.00273725   -0.00758824
     atom    7 type  1   force =     0.00016679   -0.00552089    0.03630280
     atom    8 type  1   force =     0.00012732    0.02543918    0.06349051
     atom    9 type  2   force =     0.00013988    0.00039913    0.00013922
     atom   10 type  2   force =    -0.00195227    0.00076114   -0.03777933
     atom   11 type  2   force =     0.00010196   -0.00016073   -0.00017455
     atom   12 type  2   force =    -0.00073876    0.00020007   -0.00018050
     atom   13 type  1   force =     0.00045705    0.00044750    0.00084705
     atom   14 type  1   force =    -0.00056410   -0.00026303    0.00013104
     atom   15 type  2   force =    -0.00013738    0.00004556    0.00078428
     atom   16 type  2   force =    -0.00012343    0.00031923   -0.00016145
     atom   17 type  2   force =    -0.00110621    0.00047470   -0.00001008
     atom   18 type  2   force =     0.00060934   -0.00007524   -0.00032113
     atom   19 type  1   force =     0.00028157   -0.00076137   -0.00009473
     atom   20 type  1   force =    -0.00045691   -0.00003986   -0.00017936
     atom   21 type  2   force =     0.00009700    0.00018747    0.10011214
     atom   22 type  2   force =    -0.00009714   -0.00030188    0.00036375
     atom   23 type  2   force =    -0.07741981    0.00001392   -0.03031934
     atom   24 type  2   force =     0.07741520    0.00043160   -0.03036407
     atom   25 type  1   force =    -0.00001309   -0.00031691    0.10860683
     atom   26 type  1   force =    -0.00004088   -0.00109544   -0.16408025
     atom   27 type  2   force =     0.00011611   -0.00017884   -0.03919917
     atom   28 type  2   force =     0.00011462    0.00117848    0.02836276
     atom   29 type  2   force =    -0.00231380    0.00468237   -0.01049460
     atom   30 type  2   force =     0.00438911    0.00496526   -0.01045278
     atom   31 type  1   force =     0.00005195    0.00319316    0.01912914
     atom   32 type  1   force =     0.00036475   -0.02766840    0.06523503
     atom   33 type  2   force =    -0.00003535   -0.00078840   -0.00040879
     atom   34 type  2   force =    -0.00062779    0.00085844   -0.05567982
     atom   35 type  2   force =    -0.00035986   -0.00023229   -0.00026386
     atom   36 type  2   force =    -0.00005829   -0.00003315   -0.00018938
     atom   37 type  1   force =     0.00029769   -0.00053771    0.00010295
     atom   38 type  1   force =    -0.00036467   -0.00014770    0.00024213
     atom   39 type  2   force =    -0.00017352    0.00034941   -0.00014377
     atom   40 type  2   force =    -0.00016586   -0.00026354   -0.00029906
     atom   41 type  2   force =    -0.00031896    0.00015754    0.00001940
     atom   42 type  2   force =    -0.00045458    0.00003224    0.00009062
     atom   43 type  1   force =     0.00028749    0.00029221   -0.00008236
     atom   44 type  1   force =    -0.00040640    0.00021913   -0.00052778
     atom   45 type  2   force =     0.00010226    0.00001206    0.09991414
     atom   46 type  2   force =    -0.07745108   -0.00001108   -0.03032879
     atom   47 type  2   force =     0.07747286    0.00041901   -0.03036845
     atom   48 type  3   force =    -0.00136946   -0.00056696   -0.00012173
     atom   49 type  4   force =    -0.00013506   -0.00017306   -0.00042703
     atom   50 type  5   force =    -0.00023715   -0.00003389   -0.00026383
     atom   51 type  3   force =    -0.00764182   -0.00710165    0.00002875
     atom   52 type  5   force =     0.00031405    0.00026703   -0.00027234
     atom   53 type  5   force =     0.00998473    0.00744404   -0.00017161
     atom   54 type  2   force =     0.00079664    0.00069527   -0.00129727
     atom   55 type  5   force =    -0.00118886   -0.00066633    0.00077445

     Total force =     0.383209     Total SCF correction =     0.000519
  @ DRIVER MODE: Message from server: STATUS
  @ DRIVER MODE: Message from server: GETFORCE
  @ DRIVER MODE: Returning v,forces,stress,ensemble

     Writing output data file ./calc.save/
  @ DRIVER MODE: Message from server: EXIT
  @ DRIVE MODE: Exiting

     General routines

     Parallel routines

   This run was terminated on:   2:57:36  23Sep2021

   JOB DONE.