     Program PWSCF v.6.7GPU starts on 23Sep2021 at  2:43: 3

     R & G space division:  proc/nbgrp/npool/nimage =       8
     Reading input from /storage/home/hcoda1/3/ntian30/research/carbon/CxH_vib/H2O_calc/ads_slab/CH3OHHO_e/out_0012/pw.inp
Warning: card &CELL ignored
Warning: card   CELL_DYNAMICS='IPI', ignored
Warning: card / ignored

     Current dimensions of program PWSCF are:
     Max number of different atomic species (ntypx) = 10
     Max number of k-points (npk) =  40000
     Max angular momentum in pseudopotentials (lmaxx) =  3
     Presently no symmetry can be used with electric field

     Message from routine cell_base_init:
     DEPRECATED: use true lattice parameter, not A to a.u. conversion factor

     IMPORTANT: XC functional enforced from input :
     Exchange-correlation= BEEF-VDW
                           (   1   4  43  14   2   0   0)
     Any further DFT definition will be discarded
     Please, verify this is what you really want

  @ DRIVER MODE: Connecting to
 qe_1139763_2941008.sched-torque.pace.gatech.edufbkynade_scratch
  using UNIX socket
  @ DRIVER MODE: Message from server: STATUS
  @ DRIVER MODE: Message from server: INIT
  @ DRIVER MODE: Receiving replica           0          -1
  @ DRIVER MODE: Receiving encoded integer          25
  @ DRIVER MODE:  SCF:  T  FORCE:  T  STRESS:  F  VC:  F  ENSEMBLE:  F
  @ DRIVER MODE:  SCF:  T  FORCE:  T  STRESS:  F  VC:  F  ENSEMBLE:  F

     Using Slab Decomposition

     bravais-lattice index     =            0
     lattice parameter (alat)  =       1.8897  a.u.
     unit-cell volume          =    6658.9804 (a.u.)^3
     number of atoms/cell      =           55
     number of atomic types    =            4
     number of electrons       =       399.00
     number of Kohn-Sham states=          209
     kinetic-energy cutoff     =      29.3995  Ry
     charge density cutoff     =     293.9946  Ry
     scf convergence threshold =      7.3E-08
     mixing beta               =       0.0500
     number of iterations used =            8  plain     mixing
     Exchange-correlation= BEEF-VDW
                           (   1   4  43  14   2   0   0)

     celldm(1)=   1.889726  celldm(2)=   0.000000  celldm(3)=   0.000000
     celldm(4)=   0.000000  celldm(5)=   0.000000  celldm(6)=   0.000000

     crystal axes: (cart. coord. in units of alat)
               a(1) = (   6.579727   0.000000   0.000000 )
               a(2) = (  -0.000775   5.961596   0.000000 )
               a(3) = (   0.000000   0.000000  25.155947 )

     reciprocal axes: (cart. coord. in units 2 pi/alat)
               b(1) = (  0.151982  0.000020  0.000000 )
               b(2) = (  0.000000  0.167740  0.000000 )
               b(3) = (  0.000000  0.000000  0.039752 )

     PseudoPot. # 1 for Ti read from file:
     /storage/coda1/p-amedford6/0/shared/rich_project_chbe-medford/medford-share/data/pseudos_module/espresso/nninc/pbe/van/Ti.UPF
     MD5 check sum: 8e4df49b7f0d34bbd5052bf3f5ea0213
     Pseudo is Ultrasoft, Zval = 12.0
     Generated by new atomic code, or converted to UPF format
     Using radial grid of  851 points,  6 beta functions with:
                l(1) =   0
                l(2) =   0
                l(3) =   1
                l(4) =   1
                l(5) =   2
                l(6) =   2
     Q(r) pseudized with  8 coefficients,  rinner =    1.000   1.000   1.000
                                                       1.000   1.000

     PseudoPot. # 2 for O  read from file:
     /storage/coda1/p-amedford6/0/shared/rich_project_chbe-medford/medford-share/data/pseudos_module/espresso/nninc/pbe/van/O.UPF
     MD5 check sum: 78c19812648e8988a0fe644b0f25305e
     Pseudo is Ultrasoft, Zval =  6.0
     Generated by new atomic code, or converted to UPF format
     Using radial grid of  737 points,  4 beta functions with:
                l(1) =   0
                l(2) =   0
                l(3) =   1
                l(4) =   1
     Q(r) pseudized with  8 coefficients,  rinner =    0.800   0.800   0.800

     PseudoPot. # 3 for C  read from file:
     /storage/coda1/p-amedford6/0/shared/rich_project_chbe-medford/medford-share/data/pseudos_module/espresso/nninc/pbe/van/C.UPF
     MD5 check sum: 1a69bf6b8db32088f5b2163dbdb77a27
     Pseudo is Ultrasoft, Zval =  4.0
     Generated by new atomic code, or converted to UPF format
     Using radial grid of  721 points,  4 beta functions with:
                l(1) =   0
                l(2) =   0
                l(3) =   1
                l(4) =   1
     Q(r) pseudized with  8 coefficients,  rinner =    0.800   0.800   0.800

     PseudoPot. # 4 for H  read from file:
     /storage/coda1/p-amedford6/0/shared/rich_project_chbe-medford/medford-share/data/pseudos_module/espresso/nninc/pbe/van/H.UPF
     MD5 check sum: b5ee9d7bfd3a09ee7748110bda690ff7
     Pseudo is Ultrasoft, Zval =  1.0
     Generated by new atomic code, or converted to UPF format
     Using radial grid of  615 points,  1 beta functions with:
                l(1) =   0
     Q(r) pseudized with  8 coefficients,  rinner =    0.800

     atomic species   valence    mass     pseudopotential
        Ti1           12.00    47.86700     Ti( 1.00)
        O1             6.00    15.99900     O ( 1.00)
        C1             4.00    12.01100     C ( 1.00)
        H1             1.00     1.00800     H ( 1.00)

     No symmetry found

   Cartesian axes

     site n.     atom                  positions (alat units)
         1           Ti1 tau(   1) = (   0.0004258   2.9801865   6.0000000  )
         2           Ti1 tau(   2) = (   3.2906075   1.4906267   6.0002472  )
         3           O1  tau(   3) = (   0.0006271   0.0005054   7.9858123  )
         4           O1  tau(   4) = (   3.2906025   0.0005020   7.3038282  )
         5           O1  tau(   5) = (   4.5942328   1.4918067   9.2879030  )
         6           O1  tau(   6) = (   1.9868534   1.4903216   9.2879459  )
         7           Ti1 tau(   7) = (   3.3364693   3.0244086   9.1899460  )
         8           Ti1 tau(   8) = (   0.0614121   1.5180315   9.2736979  )
         9           O1  tau(   9) = (   3.3192415   0.0109611  11.3574448  )
        10           O1  tau(  10) = (   0.0135824   0.0030625  10.5923660  )
        11           O1  tau(  11) = (   1.3113730   1.4888140  12.6397483  )
        12           O1  tau(  12) = (   5.3365169   1.4868518  12.6422516  )
        13           Ti1 tau(  13) = (   0.0249591   3.0356721  12.5595363  )
        14           Ti1 tau(  14) = (   3.3216347   1.5719315  12.4302660  )
        15           O1  tau(  15) = (   0.0475996   5.9320359  14.6592625  )
        16           O1  tau(  16) = (   3.3253441   5.8716044  14.0084122  )
        17           O1  tau(  17) = (   4.6294077   1.4993822  16.1384749  )
        18           O1  tau(  18) = (   2.0712093   1.5368213  16.0656395  )
        19           Ti1 tau(  19) = (   3.3420502   2.9337026  15.6791356  )
        20           Ti1 tau(  20) = (   0.0819182   1.3209985  15.9439250  )
        21           O1  tau(  21) = (   3.2904802   0.0005063   4.7018136  )
        22           O1  tau(  22) = (   0.1121901   0.0005398  17.1797988  )
        23           O1  tau(  23) = (   1.3043587   1.4918075   6.0039043  )
        24           O1  tau(  24) = (   5.2767064   1.4903225   6.0039473  )
        25           Ti1 tau(  25) = (   0.0000382   5.9609847   6.0000000  )
        26           Ti1 tau(  26) = (   3.2902200   4.4714249   6.0002472  )
        27           O1  tau(  27) = (   0.0002396   2.9813036   7.9858123  )
        28           O1  tau(  28) = (   3.2902150   2.9813002   7.3038282  )
        29           O1  tau(  29) = (   4.5938453   4.4726049   9.2879030  )
        30           O1  tau(  30) = (   1.9864658   4.4711199   9.2879459  )
        31           Ti1 tau(  31) = (   3.3365859   0.0383882   9.1683042  )
        32           Ti1 tau(  32) = (   0.0607984   4.4756772   9.2727477  )
        33           O1  tau(  33) = (   3.3154497   2.9528697  11.3100477  )
        34           O1  tau(  34) = (   0.0130381   2.9821538  10.6068333  )
        35           O1  tau(  35) = (   1.3079814   4.4632751  12.6339740  )
        36           O1  tau(  36) = (   5.3374838   4.4678533  12.6371107  )
        37           Ti1 tau(  37) = (   0.0367351   0.0553833  12.4739561  )
        38           Ti1 tau(  38) = (   3.3178111   4.6524667  12.7070490  )
        39           O1  tau(  39) = (   0.0226182   2.9861015  14.7894940  )
        40           O1  tau(  40) = (   3.3464301   2.9603322  13.9061577  )
        41           O1  tau(  41) = (   4.6320376   4.4053937  16.1659747  )
        42           O1  tau(  42) = (   2.0651706   4.3480327  16.1155179  )
        43           Ti1 tau(  43) = (   3.4032537   5.9185344  16.2710929  )
        44           Ti1 tau(  44) = (   0.0646745   4.5145260  15.8553686  )
        45           O1  tau(  45) = (   3.2900926   2.9813045   4.7018136  )
        46           O1  tau(  46) = (   1.3039711   4.4726057   6.0039043  )
        47           O1  tau(  47) = (   5.2763189   4.4711207   6.0039473  )
        48           C1  tau(  48) = (   5.9353497   3.0583042  18.8699169  )
        49           O1  tau(  49) = (   0.1856485   3.0014673  17.6777584  )
        50           H1  tau(  50) = (   4.9577780   2.6849493  18.5881267  )
        51           H1  tau(  51) = (   1.1185258   3.1466834  17.9024234  )
        52           H1  tau(  52) = (   6.3707541   2.4080388  19.6265123  )
        53           H1  tau(  53) = (   5.8722695   4.0904670  19.2075282  )
        54           O1  tau(  54) = (   3.1419305   5.9539177  18.1124628  )
        55           H1  tau(  55) = (   2.2021640   0.0520986  18.3490109  )

     number of k points=    10  Fermi-Dirac smearing, width (Ry)=  0.0073
                       cart. coord. in units 2pi/alat
        k(    1) = (   0.0000000   0.0000000   0.0000000), wk =   0.1250000
        k(    2) = (   0.0000000   0.0419351   0.0000000), wk =   0.2500000
        k(    3) = (   0.0000000  -0.0838702   0.0000000), wk =   0.1250000
        k(    4) = (   0.0379955   0.0000049   0.0000000), wk =   0.2500000
        k(    5) = (   0.0379955   0.0419400   0.0000000), wk =   0.2500000
        k(    6) = (   0.0379955  -0.0838652   0.0000000), wk =   0.2500000
        k(    7) = (   0.0379955  -0.0419301   0.0000000), wk =   0.2500000
        k(    8) = (  -0.0759910  -0.0000099   0.0000000), wk =   0.1250000
        k(    9) = (  -0.0759910   0.0419252   0.0000000), wk =   0.2500000
        k(   10) = (  -0.0759910  -0.0838800   0.0000000), wk =   0.1250000

     Initial potential from superposition of free atoms

     starting charge  382.99916, renormalised to  399.00000

     negative rho (up, down):  1.653E-02 0.000E+00

     %%%%%%%%%%%%%%%%%%%%%%%%%%%%%%%%%%%%%%%%%%%%%%%%%%%%%%%%%%%%%%%%%%%%%%%%
     %                                                                      %
     % You are using vdW-DF, which was implemented by the Thonhauser group. %
     % Please cite the following two papers that made this development      %
     % possible and the two reviews that describe the various versions:     %
     %                                                                      %
     %   T. Thonhauser et al., PRL 115, 136402 (2015).                      %
     %   T. Thonhauser et al., PRB 76, 125112 (2007).                       %
     %   K. Berland et al., Rep. Prog. Phys. 78, 066501 (2015).             %
     %   D.C. Langreth et al., J. Phys.: Condens. Matter 21, 084203 (2009). %
     %                                                                      %
     %                                                                      %
     % If you are calculating the stress with vdW-DF, please also cite:     %
     %                                                                      %
     %   R. Sabatini et al., J. Phys.: Condens. Matter 24, 424209 (2012).   %
     %                                                                      %
     %%%%%%%%%%%%%%%%%%%%%%%%%%%%%%%%%%%%%%%%%%%%%%%%%%%%%%%%%%%%%%%%%%%%%%%%

     Adding external electric field

     Computed dipole along edir(3) :
        Dipole              -10.2369 Ry au,        -26.0196 Debye
        Dipole field         -0.0193 Ry au,

        Potential amp.        1.7908 Ry
        Total length         46.3494 bohr

     Starting wfcs are  301 atomic wfcs
  @ DRIVER MODE: Message from server: STATUS
  @ DRIVER MODE: Message from server: POSDATA
  @ DRIVER MODE: Reading and sharing cell
  @ DRIVER MODE: Reading and sharing positions
  @ DRIVER MODE: Received positions

     Self-consistent Calculation

     iteration #  1     ecut=    29.40 Ry     beta= 0.05
     Davidson diagonalization with overlap
     c_bands:  3 eigenvalues not converged
     c_bands:  3 eigenvalues not converged
     c_bands:  4 eigenvalues not converged
     c_bands:  1 eigenvalues not converged
     c_bands:  5 eigenvalues not converged
     c_bands:  5 eigenvalues not converged
     c_bands:  4 eigenvalues not converged
     c_bands:  4 eigenvalues not converged
     c_bands:  4 eigenvalues not converged
     ethr =  1.00E-05,  avg # of iterations = 21.1

[...]

     total energy              =   -2463.81762626 Ry
     estimated scf accuracy    <    5598.56241447 Ry

     iteration #  2     ecut=    29.40 Ry     beta= 0.05
     Davidson diagonalization with overlap
     ethr =  1.00E-02,  avg # of iterations = 24.3

[...]

     iteration # 61     ecut=    29.40 Ry     beta= 0.05
     Davidson diagonalization with overlap
     ethr =  1.13E-10,  avg # of iterations = 10.2

[...]

     total energy              =   -2966.27801210 Ry
     estimated scf accuracy    <       0.00000012 Ry

     iteration # 64     ecut=    29.40 Ry     beta= 0.05
     Davidson diagonalization with overlap
     c_bands:  2 eigenvalues not converged
     ethr =  2.96E-11,  avg # of iterations = 14.6

     negative rho (up, down):  1.670E-02 0.000E+00

     Adding external electric field

     Computed dipole along edir(3) :
        Dipole                1.0363 Ry au,          2.6339 Debye
        Dipole field          0.0020 Ry au,

        Potential amp.       -0.1813 Ry
        Total length         46.3494 bohr

     End of self-consistent calculation

          k = 0.0000 0.0000 0.0000 ( 18029 PWs)   bands (ev):

   -55.7065 -55.6381 -55.6032 -55.5239 -55.5010 -55.4729 -55.4406 -55.4335
   -55.4298 -55.4165 -55.4041 -55.3769 -55.2908 -55.2187 -54.5963 -54.5623
   -32.1171 -32.1001 -32.0181 -32.0085 -31.9639 -31.9559 -31.9280 -31.9239
   -31.8984 -31.8817 -31.8725 -31.8005 -31.7975 -31.7915 -31.7643 -31.7467
   -31.7392 -31.7274 -31.7182 -31.7049 -31.7011 -31.6967 -31.6526 -31.6518
   -31.6504 -31.6426 -31.6379 -31.6307 -31.6188 -31.6030 -31.5977 -31.5878
   -31.5818 -31.5667 -31.5623 -31.5529 -31.5431 -31.5186 -31.4795 -31.4627
   -31.4305 -31.4232 -31.0024 -30.9166 -30.8940 -30.8195 -30.7331 -30.6215
   -20.1008 -16.5181 -16.2913 -16.1118 -15.9105 -15.8475 -15.7885 -15.6006
   -15.5249 -15.3840 -15.2384 -15.2270 -15.1725 -15.1720 -15.1630 -15.1401
   -15.1091 -15.0650 -15.0555 -15.0495 -15.0439 -14.9886 -14.9466 -14.9381
   -14.9318 -14.8909 -14.7627 -14.7225 -14.6661 -14.4953 -14.4524 -13.0963
   -12.9802 -10.9365  -6.7856  -4.9774  -4.7791  -4.0117  -3.6434  -3.5428
    -3.5248  -3.4622  -3.4058  -3.1936  -3.0587  -3.0219  -2.9089  -2.7830
    -2.7423  -2.6698  -2.6594  -2.5716  -2.5489  -2.5201  -2.4915  -2.4369
    -2.4080  -2.3999  -2.3836  -2.3144  -2.3059  -2.1754  -2.1716  -2.0984
    -2.0298  -2.0092  -1.9901  -1.9705  -1.9407  -1.9387  -1.8939  -1.8733
    -1.8512  -1.8132  -1.7456  -1.7256  -1.6647  -1.6267  -1.3879  -1.2298
    -1.2069  -1.1386  -1.1199  -1.0830  -1.0527  -1.0374  -1.0308  -0.9927
    -0.9768  -0.8686  -0.7706  -0.7585  -0.6993  -0.6599  -0.6588  -0.5252
    -0.4760  -0.4033  -0.3774  -0.3520  -0.3293  -0.2366  -0.1940  -0.1763
    -0.1131  -0.0826   0.0284   0.0683   0.0859   0.1248   0.1801   0.2483
     0.2792   0.3152   0.3230   0.3554   0.4044   0.4297   0.4618   0.4889
     0.5275   0.6324   0.6720   0.6873   0.8327   0.8330   0.9200   1.0475
     1.0954   1.3765   1.4286   1.4666   1.6215   1.9962   2.0423   3.4807
     3.5981   3.6083   3.6266   3.6970   3.7871   3.9429   3.9711   4.0427
     4.1366

[...]

          k = 0.0380-0.0419 0.0000 ( 17876 PWs)   bands (ev):

[...]

          k =-0.0760-0.0000 0.0000 ( 17886 PWs)   bands (ev):

[...]

          k =-0.0760-0.0839 0.0000 ( 17948 PWs)   bands (ev):

   -55.7058 -55.6245 -55.6166 -55.5170 -55.4963 -55.4795 -55.4346 -55.4339
   -55.4279 -55.4162 -55.4073 -55.3863 -55.2869 -55.2225 -54.5795 -54.5790
   -32.0197 -31.9589 -31.9498 -31.9364 -31.9286 -31.9232 -31.9207 -31.9067
   -31.8399 -31.8386 -31.8034 -31.7740 -31.7688 -31.7614 -31.7450 -31.7444
   -31.7394 -31.7364 -31.7343 -31.7237 -31.7212 -31.7189 -31.7067 -31.7051
   -31.6782 -31.6753 -31.6421 -31.6367 -31.6361 -31.6352 -31.6250 -31.6213
   -31.6147 -31.6126 -31.6056 -31.6046 -31.6027 -31.5659 -31.5463 -31.4838
   -31.4697 -31.4272 -30.9068 -30.9066 -30.8162 -30.8147 -30.7765 -30.7756
   -20.0973 -16.4927 -15.9086 -15.7628 -15.6003 -15.5822 -15.5044 -15.4089
   -15.3923 -15.3626 -15.3534 -15.3334 -15.3077 -15.3056 -15.2577 -15.2024
   -15.1606 -15.1377 -15.1334 -15.0873 -15.0779 -15.0743 -15.0186 -15.0060
   -14.9967 -14.9580 -14.8982 -14.8708 -14.7916 -14.7631 -14.6104 -13.0824
   -13.0818 -10.9387  -6.7862  -4.9595  -4.7715  -3.9747  -3.0571  -2.9821
    -2.8710  -2.8222  -2.7422  -2.6814  -2.6330  -2.6141  -2.5721  -2.5516
    -2.4813  -2.4478  -2.4404  -2.4183  -2.4161  -2.3896  -2.3743  -2.3621
    -2.3384  -2.3085  -2.2944  -2.2805  -2.2618  -2.2415  -2.2197  -2.2015
    -2.1884  -2.1776  -2.1574  -2.0502  -2.0265  -1.9904  -1.8358  -1.8224
    -1.7597  -1.7275  -1.6965  -1.6913  -1.6588  -1.6497  -1.6048  -1.4947
    -1.4698  -1.4228  -1.3443  -1.2749  -1.2682  -1.2233  -1.1700  -1.1313
    -1.1017  -1.0553  -1.0517  -1.0050  -0.8653  -0.8390  -0.7992  -0.6757
    -0.6036  -0.5884  -0.5743  -0.5572  -0.5310  -0.4839  -0.4785  -0.4222
    -0.4002  -0.3287  -0.3261  -0.3022  -0.2775  -0.1712  -0.0560   0.0352
     0.0690   0.1259   0.1658   0.1996   0.2828   0.3555   0.4388   0.5252
     0.5512   0.5619   0.6834   0.7107   0.7616   0.8145   0.8302   0.8898
     0.9227   0.9656   0.9938   1.7896   1.8030   1.8588   1.8636   3.6685
     3.9183   3.9697   3.9882   4.0007   4.0342   4.0541   4.1009   4.1189
     4.1461

     the Fermi energy is     3.4942 ev

!    total energy              =   -2966.27805097 Ry
     estimated scf accuracy    <       0.00000006 Ry
     smearing contrib. (-TS)   =      -0.02072727 Ry
     internal energy E=F+TS    =   -2966.25732369 Ry

     The total energy is F=E-TS. E is the sum of the following terms:
     one-electron contribution =  -24035.83004936 Ry
     hartree contribution      =   12110.36305147 Ry
     xc contribution           =    -490.95093888 Ry
     ewald contribution        =    9450.15858661 Ry
     electric field correction =       0.00202647 Ry

     convergence has been achieved in  64 iterations

     Forces acting on atoms (cartesian axes, Ry/au):

     atom    1 type  1   force =    -0.00039310    0.00004856    0.09455358
     atom    2 type  1   force =    -0.00032463    0.00498914   -0.17463984
     atom    3 type  2   force =     0.00082360   -0.00023481   -0.02593020
     atom    4 type  2   force =     0.00125435    0.00074860    0.05284513
     atom    5 type  2   force =    -0.01096273   -0.00285244    0.00050379
     atom    6 type  2   force =     0.01163479   -0.00410151    0.00188096
     atom    7 type  1   force =     0.00052284    0.00038530   -0.00013983
     atom    8 type  1   force =    -0.00045087    0.00020383    0.00076802
     atom    9 type  2   force =    -0.00044329    0.00028192   -0.00024783
     atom   10 type  2   force =     0.00031739   -0.00035135   -0.00042462
     atom   11 type  2   force =     0.00060523    0.00031924   -0.00021685
     atom   12 type  2   force =    -0.00037350   -0.00046244   -0.00036775
     atom   13 type  1   force =    -0.00130329   -0.00081171    0.00025918
     atom   14 type  1   force =     0.00030017    0.00009860    0.00057885
     atom   15 type  2   force =     0.00048548    0.00060016    0.00032698
     atom   16 type  2   force =    -0.00050371    0.00051403    0.00053977
     atom   17 type  2   force =     0.00009649    0.00035212    0.00000037
     atom   18 type  2   force =    -0.00047584    0.00010619    0.00041578
     atom   19 type  1   force =    -0.00031817    0.00111301   -0.00010949
     atom   20 type  1   force =    -0.00022411   -0.00034746   -0.00037967
     atom   21 type  2   force =    -0.00001487    0.00005381    0.10306159
     atom   22 type  2   force =    -0.00037366   -0.00060372   -0.00078366
     atom   23 type  2   force =    -0.07205669    0.00004790   -0.02789639
     atom   24 type  2   force =     0.07191572    0.00053582   -0.02800425
     atom   25 type  1   force =    -0.00044058    0.00000157    0.10113922
     atom   26 type  1   force =    -0.00006075   -0.00461114   -0.17489357
     atom   27 type  2   force =     0.00089790    0.00114393   -0.02441838
     atom   28 type  2   force =     0.00113620    0.00014994    0.05241327
     atom   29 type  2   force =    -0.01184606    0.00306463    0.00197185
     atom   30 type  2   force =     0.01325387    0.00116281    0.00310590
     atom   31 type  1   force =     0.00058142    0.00002052   -0.00054794
     atom   32 type  1   force =    -0.00036541    0.00069586    0.00047748
     atom   33 type  2   force =    -0.00020378    0.00093155    0.00018199
     atom   34 type  2   force =     0.00013898   -0.00012855   -0.00092119
     atom   35 type  2   force =     0.00033430    0.00007742    0.00055474
     atom   36 type  2   force =     0.00009878    0.00016680    0.00049141
     atom   37 type  1   force =    -0.00146716   -0.00061190    0.00021470
     atom   38 type  1   force =     0.00078569   -0.00025886   -0.00012583
     atom   39 type  2   force =     0.00047455   -0.00023068    0.00157287
     atom   40 type  2   force =    -0.00010965    0.00034921    0.00051120
     atom   41 type  2   force =    -0.00043296   -0.00002854   -0.00072526
     atom   42 type  2   force =    -0.00030893   -0.00035772   -0.00045854
     atom   43 type  1   force =     0.00000659   -0.00025405   -0.00016859
     atom   44 type  1   force =    -0.00026649   -0.00032136   -0.00078367
     atom   45 type  2   force =    -0.00001380    0.00013099    0.10263620
     atom   46 type  2   force =    -0.07202582   -0.00056222   -0.02787740
     atom   47 type  2   force =     0.07187815   -0.00007004   -0.02796147
     atom   48 type  3   force =    -0.00057886   -0.00054317    0.00429756
     atom   49 type  2   force =    -0.00164669   -0.00165613   -0.01260405
     atom   50 type  4   force =     0.00005534   -0.00014853   -0.00013426
     atom   51 type  4   force =     0.00348688    0.00072125    0.00266699
     atom   52 type  4   force =    -0.00109494    0.00013440    0.00123098
     atom   53 type  4   force =    -0.00147094    0.00058647    0.00084106
     atom   54 type  2   force =     0.00105630    0.00006566    0.00028442
     atom   55 type  4   force =    -0.00158973   -0.00025292    0.00043469

     Total force =     0.364657     Total SCF correction =     0.000474
  @ DRIVER MODE: Message from server: STATUS
  @ DRIVER MODE: Message from server: GETFORCE
  @ DRIVER MODE: Returning v,forces,stress,ensemble

     Writing output data file ./calc.save/
  @ DRIVER MODE: Message from server: EXIT
  @ DRIVE MODE: Exiting

     General routines

     Parallel routines

   This run was terminated on:   3: 5:47  23Sep2021

   JOB DONE.