     Program PWSCF v.6.7GPU starts on  9Sep2021 at  2:15:14

     R & G space division:  proc/nbgrp/npool/nimage =      10
     Reading input from /storage/home/hcoda1/3/ntian30/research/carbon/CxH_vib/CH3_calc/ads_slab/CH3N2_c/out_0014/pw.inp
Warning: card &CELL ignored
Warning: card   CELL_DYNAMICS='IPI', ignored
Warning: card / ignored

     Current dimensions of program PWSCF are:
     Max number of different atomic species (ntypx) = 10
     Max number of k-points (npk) =  40000
     Max angular momentum in pseudopotentials (lmaxx) =  3
     Presently no symmetry can be used with electric field

     Message from routine cell_base_init:
     DEPRECATED: use true lattice parameter, not A to a.u. conversion factor

     IMPORTANT: XC functional enforced from input :
     Exchange-correlation= BEEF-VDW
                           (   1   4  43  14   2   0   0)
     Any further DFT definition will be discarded
     Please, verify this is what you really want

  @ DRIVER MODE: Connecting to
 qe_1139763_2767397.sched-torque.pace.gatech.edu73j15mbo_scratch
  using UNIX socket
  @ DRIVER MODE: Message from server: STATUS
  @ DRIVER MODE: Message from server: INIT
  @ DRIVER MODE: Receiving replica           0          -1
  @ DRIVER MODE: Receiving encoded integer          25
  @ DRIVER MODE:  SCF:  T  FORCE:  T  STRESS:  F  VC:  F  ENSEMBLE:  F
  @ DRIVER MODE:  SCF:  T  FORCE:  T  STRESS:  F  VC:  F  ENSEMBLE:  F

     Using Slab Decomposition

     bravais-lattice index     =            0
     lattice parameter (alat)  =       1.8897  a.u.
     unit-cell volume          =    6658.9804 (a.u.)^3
     number of atoms/cell      =           53
     number of atomic types    =            5
     number of electrons       =       395.00
     number of Kohn-Sham states=          207
     kinetic-energy cutoff     =      29.3995  Ry
     charge density cutoff     =     293.9946  Ry
     scf convergence threshold =      7.3E-08
     mixing beta               =       0.0500
     number of iterations used =            8  plain     mixing
     Exchange-correlation= BEEF-VDW
                           (   1   4  43  14   2   0   0)

     celldm(1)=   1.889726  celldm(2)=   0.000000  celldm(3)=   0.000000
     celldm(4)=   0.000000  celldm(5)=   0.000000  celldm(6)=   0.000000

     crystal axes: (cart. coord. in units of alat)
               a(1) = (   6.579727   0.000000   0.000000 )
               a(2) = (  -0.000775   5.961596   0.000000 )
               a(3) = (   0.000000   0.000000  25.155947 )

     reciprocal axes: (cart. coord. in units 2 pi/alat)
               b(1) = (  0.151982  0.000020  0.000000 )
               b(2) = (  0.000000  0.167740  0.000000 )
               b(3) = (  0.000000  0.000000  0.039752 )

     PseudoPot. # 1 for Ti read from file:
     /storage/coda1/p-amedford6/0/shared/rich_project_chbe-medford/medford-share/data/pseudos_module/espresso/nninc/pbe/van/Ti.UPF
     MD5 check sum: 8e4df49b7f0d34bbd5052bf3f5ea0213
     Pseudo is Ultrasoft, Zval = 12.0
     Generated by new atomic code, or converted to UPF format
     Using radial grid of  851 points,  6 beta functions with:
                l(1) =   0
                l(2) =   0
                l(3) =   1
                l(4) =   1
                l(5) =   2
                l(6) =   2
     Q(r) pseudized with  8 coefficients,  rinner =    1.000   1.000   1.000
                                                       1.000   1.000

     PseudoPot. # 2 for O  read from file:
     /storage/coda1/p-amedford6/0/shared/rich_project_chbe-medford/medford-share/data/pseudos_module/espresso/nninc/pbe/van/O.UPF
     MD5 check sum: 78c19812648e8988a0fe644b0f25305e
     Pseudo is Ultrasoft, Zval =  6.0
     Generated by new atomic code, or converted to UPF format
     Using radial grid of  737 points,  4 beta functions with:
                l(1) =   0
                l(2) =   0
                l(3) =   1
                l(4) =   1
     Q(r) pseudized with  8 coefficients,  rinner =    0.800   0.800   0.800

     PseudoPot. # 3 for N  read from file:
     /storage/coda1/p-amedford6/0/shared/rich_project_chbe-medford/medford-share/data/pseudos_module/espresso/nninc/pbe/van/N.UPF
     MD5 check sum: 90d10febe142ad51ac9d5be1deb811c4
     Pseudo is Ultrasoft, Zval =  5.0
     Generated by new atomic code, or converted to UPF format
     Using radial grid of  729 points,  4 beta functions with:
                l(1) =   0
                l(2) =   0
                l(3) =   1
                l(4) =   1
     Q(r) pseudized with  8 coefficients,  rinner =    0.800   0.800   0.800

     PseudoPot. # 4 for C  read from file:
     /storage/coda1/p-amedford6/0/shared/rich_project_chbe-medford/medford-share/data/pseudos_module/espresso/nninc/pbe/van/C.UPF
     MD5 check sum: 1a69bf6b8db32088f5b2163dbdb77a27
     Pseudo is Ultrasoft, Zval =  4.0
     Generated by new atomic code, or converted to UPF format
     Using radial grid of  721 points,  4 beta functions with:
                l(1) =   0
                l(2) =   0
                l(3) =   1
                l(4) =   1
     Q(r) pseudized with  8 coefficients,  rinner =    0.800   0.800   0.800

     PseudoPot. # 5 for H  read from file:
     /storage/coda1/p-amedford6/0/shared/rich_project_chbe-medford/medford-share/data/pseudos_module/espresso/nninc/pbe/van/H.UPF
     MD5 check sum: b5ee9d7bfd3a09ee7748110bda690ff7
     Pseudo is Ultrasoft, Zval =  1.0
     Generated by new atomic code, or converted to UPF format
     Using radial grid of  615 points,  1 beta functions with:
                l(1) =   0
     Q(r) pseudized with  8 coefficients,  rinner =    0.800

     atomic species   valence    mass     pseudopotential
        Ti1           12.00    47.86700     Ti( 1.00)
        O1             6.00    15.99900     O ( 1.00)
        N1             5.00    14.00700     N ( 1.00)
        C1             4.00    12.01100     C ( 1.00)
        H1             1.00     1.00800     H ( 1.00)

     No symmetry found

   Cartesian axes

     site n.     atom                  positions (alat units)
         1           Ti1 tau(   1) = (   0.0004258   2.9801865   6.0000000  )
         2           Ti1 tau(   2) = (   3.2906075   1.4906267   6.0002472  )
         3           O1  tau(   3) = (   0.0006271   0.0005054   7.9858123  )
         4           O1  tau(   4) = (   3.2906025   0.0005020   7.3038282  )
         5           O1  tau(   5) = (   4.5942328   1.4918067   9.2879030  )
         6           O1  tau(   6) = (   1.9868534   1.4903216   9.2879459  )
         7           Ti1 tau(   7) = (   3.2907910   2.8959150   9.1758416  )
         8           Ti1 tau(   8) = (   0.0015273   1.4827037   9.2680791  )
         9           O1  tau(   9) = (   3.2868105   5.9447858  11.3346005  )
        10           O1  tau(  10) = (   0.0116148   5.9584955  10.6183126  )
        11           O1  tau(  11) = (   1.2897616   1.4699164  12.6258314  )
        12           O1  tau(  12) = (   5.2713851   1.4716199  12.6109895  )
        13           Ti1 tau(  13) = (   0.0629619   2.9460495  12.6207869  )
        14           Ti1 tau(  14) = (   3.3778125   1.4702366  12.4807322  )
        15           O1  tau(  15) = (   6.5741670   5.9392046  14.6271830  )
        16           O1  tau(  16) = (   3.2925211   5.9405975  13.9303826  )
        17           O1  tau(  17) = (   4.5331425   1.4971777  16.0590535  )
        18           O1  tau(  18) = (   2.0416154   1.4974824  16.0477615  )
        19           Ti1 tau(  19) = (   3.2901388   2.9722967  15.7036181  )
        20           Ti1 tau(  20) = (   6.5714728   1.5019933  15.8140906  )
        21           O1  tau(  21) = (   3.2904802   0.0005063   4.7018136  )
        22           O1  tau(  22) = (   6.5775371   0.0159386  17.1814867  )
        23           O1  tau(  23) = (   1.3043587   1.4918075   6.0039043  )
        24           O1  tau(  24) = (   5.2767064   1.4903225   6.0039473  )
        25           Ti1 tau(  25) = (   0.0000382   5.9609847   6.0000000  )
        26           Ti1 tau(  26) = (   3.2902200   4.4714249   6.0002472  )
        27           O1  tau(  27) = (   0.0002396   2.9813036   7.9858123  )
        28           O1  tau(  28) = (   3.2902150   2.9813002   7.3038282  )
        29           O1  tau(  29) = (   4.5938453   4.4726049   9.2879030  )
        30           O1  tau(  30) = (   1.9864658   4.4711199   9.2879459  )
        31           Ti1 tau(  31) = (   3.2891106   5.8743827   9.1763621  )
        32           Ti1 tau(  32) = (   0.0006254   4.4649316   9.2693709  )
        33           O1  tau(  33) = (   3.2909631   2.9655588  11.3316111  )
        34           O1  tau(  34) = (   0.0092240   2.9805883  10.6323155  )
        35           O1  tau(  35) = (   1.2884032   4.4536117  12.6269208  )
        36           O1  tau(  36) = (   5.2752684   4.4605011  12.6109535  )
        37           Ti1 tau(  37) = (   0.0626277   5.9200555  12.5524633  )
        38           Ti1 tau(  38) = (   3.3797810   4.4486816  12.4846537  )
        39           O1  tau(  39) = (   6.5720240   2.9440667  14.6479771  )
        40           O1  tau(  40) = (   3.2941106   2.9728877  13.9057494  )
        41           O1  tau(  41) = (   4.5311790   4.4530262  16.1020043  )
        42           O1  tau(  42) = (   2.0427069   4.4534008  16.0946336  )
        43           Ti1 tau(  43) = (   3.2818950   5.9508925  15.7274921  )
        44           Ti1 tau(  44) = (   6.5750914   4.6476268  16.0792144  )
        45           O1  tau(  45) = (   3.2900926   2.9813045   4.7018136  )
        46           O1  tau(  46) = (   1.3039711   4.4726057   6.0039043  )
        47           O1  tau(  47) = (   5.2763189   4.4711207   6.0039473  )
        48           N1  tau(  48) = (   0.0795740   2.6614725  18.6386781  )
        49           N1  tau(  49) = (   0.0132033   2.8794178  17.4383708  )
        50           C1  tau(  50) = (   0.1610961   3.8031638  19.5808395  )
        51           H1  tau(  51) = (   6.4701351   4.7592986  19.1328852  )
        52           H1  tau(  52) = (   6.0910372   3.5604803  20.4266230  )
        53           H1  tau(  53) = (   1.1812797   3.8285794  19.9476819  )

     number of k points=    10  Fermi-Dirac smearing, width (Ry)=  0.0073
                       cart. coord. in units 2pi/alat
        k(    1) = (   0.0000000   0.0000000   0.0000000), wk =   0.1250000
        k(    2) = (   0.0000000   0.0419351   0.0000000), wk =   0.2500000
        k(    3) = (   0.0000000  -0.0838702   0.0000000), wk =   0.1250000
        k(    4) = (   0.0379955   0.0000049   0.0000000), wk =   0.2500000
        k(    5) = (   0.0379955   0.0419400   0.0000000), wk =   0.2500000
        k(    6) = (   0.0379955  -0.0838652   0.0000000), wk =   0.2500000
        k(    7) = (   0.0379955  -0.0419301   0.0000000), wk =   0.2500000
        k(    8) = (  -0.0759910  -0.0000099   0.0000000), wk =   0.1250000
        k(    9) = (  -0.0759910   0.0419252   0.0000000), wk =   0.2500000
        k(   10) = (  -0.0759910  -0.0838800   0.0000000), wk =   0.1250000

     Initial potential from superposition of free atoms

     starting charge  378.99916, renormalised to  395.00000

     negative rho (up, down):  1.506E-02 0.000E+00

     %%%%%%%%%%%%%%%%%%%%%%%%%%%%%%%%%%%%%%%%%%%%%%%%%%%%%%%%%%%%%%%%%%%%%%%%
     %                                                                      %
     % You are using vdW-DF, which was implemented by the Thonhauser group. %
     % Please cite the following two papers that made this development      %
     % possible and the two reviews that describe the various versions:     %
     %                                                                      %
     %   T. Thonhauser et al., PRL 115, 136402 (2015).                      %
     %   T. Thonhauser et al., PRB 76, 125112 (2007).                       %
     %   K. Berland et al., Rep. Prog. Phys. 78, 066501 (2015).             %
     %   D.C. Langreth et al., J. Phys.: Condens. Matter 21, 084203 (2009). %
     %                                                                      %
     %                                                                      %
     % If you are calculating the stress with vdW-DF, please also cite:     %
     %                                                                      %
     %   R. Sabatini et al., J. Phys.: Condens. Matter 24, 424209 (2012).   %
     %                                                                      %
     %%%%%%%%%%%%%%%%%%%%%%%%%%%%%%%%%%%%%%%%%%%%%%%%%%%%%%%%%%%%%%%%%%%%%%%%

     Adding external electric field

     Computed dipole along edir(3) :
        Dipole               -8.8495 Ry au,        -22.4931 Debye
        Dipole field         -0.0167 Ry au,

        Potential amp.        1.5481 Ry
        Total length         46.3494 bohr

     Starting wfcs are  299 atomic wfcs
  @ DRIVER MODE: Message from server: STATUS
  @ DRIVER MODE: Message from server: POSDATA
  @ DRIVER MODE: Reading and sharing cell
  @ DRIVER MODE: Reading and sharing positions
  @ DRIVER MODE: Received positions

     Self-consistent Calculation

     iteration #  1     ecut=    29.40 Ry     beta= 0.05
     Davidson diagonalization with overlap
     c_bands:  1 eigenvalues not converged
     c_bands:  2 eigenvalues not converged
     c_bands:  1 eigenvalues not converged
     c_bands:  3 eigenvalues not converged
     c_bands:  3 eigenvalues not converged
     c_bands:  1 eigenvalues not converged
     ethr =  1.00E-05,  avg # of iterations = 19.0

[...]

     total energy              =   -2605.55458953 Ry
     estimated scf accuracy    <    3700.35626896 Ry

     iteration #  2     ecut=    29.40 Ry     beta= 0.05
     Davidson diagonalization with overlap
     ethr =  1.00E-02,  avg # of iterations = 22.2

[...]

     iteration # 63     ecut=    29.40 Ry     beta= 0.05
     Davidson diagonalization with overlap
     c_bands:  1 eigenvalues not converged
     ethr =  5.56E-10,  avg # of iterations = 16.7

[...]

     total energy              =   -2939.15464501 Ry
     estimated scf accuracy    <       0.00000008 Ry

     iteration # 76     ecut=    29.40 Ry     beta= 0.05
     Davidson diagonalization with overlap
     ethr =  1.92E-11,  avg # of iterations = 11.6

     negative rho (up, down):  1.565E-02 0.000E+00

     Adding external electric field

     Computed dipole along edir(3) :
        Dipole                0.7060 Ry au,          1.7945 Debye
        Dipole field          0.0013 Ry au,

        Potential amp.       -0.1235 Ry
        Total length         46.3494 bohr

     End of self-consistent calculation

          k = 0.0000 0.0000 0.0000 ( 18029 PWs)   bands (ev):

   -55.8962 -55.8806 -55.8622 -55.8447 -55.7961 -55.7307 -55.7046 -55.7042
   -55.6941 -55.6702 -55.6692 -55.6356 -55.2865 -55.0953 -54.8731 -54.8390
   -32.4348 -32.3786 -32.2308 -32.2282 -32.2030 -32.1995 -32.1892 -32.1598
   -32.1386 -32.1247 -32.1030 -32.0671 -32.0613 -32.0483 -32.0340 -32.0203
   -32.0181 -32.0005 -31.9855 -31.9532 -31.9448 -31.9403 -31.8994 -31.8943
   -31.8920 -31.8886 -31.8805 -31.8757 -31.8714 -31.8447 -31.8440 -31.8351
   -31.8337 -31.8221 -31.8107 -31.7814 -31.7781 -31.5667 -31.4598 -31.3575
   -31.3556 -31.3112 -31.2802 -31.1919 -31.1694 -31.0969 -31.0104 -30.8994
   -18.4500 -16.6334 -16.3687 -16.1398 -16.0461 -16.0137 -15.8956 -15.7333
   -15.6158 -15.5608 -15.4634 -15.4440 -15.4313 -15.3991 -15.3807 -15.3753
   -15.3414 -15.3373 -15.3190 -15.3037 -15.2553 -15.2316 -15.2098 -15.1105
   -15.0643 -15.0307 -15.0152 -14.9522 -14.9471 -14.4418 -13.3758 -13.2594
   -11.3599  -6.9294  -4.3450  -4.0032  -3.9214  -3.8481  -3.8354  -3.8014
    -3.7443  -3.6240  -3.4996  -3.4373  -3.1265  -3.0788  -3.0628  -3.0456
    -3.0078  -2.8004  -2.7485  -2.7092  -2.6850  -2.6771  -2.6660  -2.6584
    -2.6467  -2.6082  -2.5060  -2.4365  -2.4323  -2.3436  -2.2940  -2.2707
    -2.2080  -2.1874  -2.1656  -2.1435  -2.1314  -2.1105  -2.0906  -2.0793
    -1.9761  -1.8833  -1.7469  -1.6952  -1.6774  -1.6649  -1.6384  -1.5032
    -1.3702  -1.3386  -1.3275  -1.3204  -1.2874  -1.2756  -1.1923  -1.0630
    -1.0526  -1.0116  -0.9612  -0.9029  -0.8774  -0.7756  -0.7387  -0.6619
    -0.6569  -0.6398  -0.5862  -0.5371  -0.3769  -0.3351  -0.3088  -0.2867
    -0.2623  -0.1916  -0.1701  -0.0530  -0.0365  -0.0187   0.0415   0.0649
     0.0776   0.0875   0.1053   0.1235   0.1409   0.3081   0.3805   0.4334
     0.4564   0.5145   0.6392   0.7083   0.7630   0.8635   1.0745   1.1487
     1.2416   1.3409   1.7200   1.7656   2.6491   3.2435   3.3242   3.3734
     3.3882   3.4851   3.5190   3.6951   3.6963   3.7254   3.7952

[...]

          k = 0.0380-0.0419 0.0000 ( 17876 PWs)   bands (ev):

[...]

          k =-0.0760-0.0000 0.0000 ( 17886 PWs)   bands (ev):

[...]

          k =-0.0760-0.0839 0.0000 ( 17948 PWs)   bands (ev):

   -55.8795 -55.8787 -55.8628 -55.8623 -55.7927 -55.7187 -55.7079 -55.7062
   -55.6881 -55.6857 -55.6532 -55.6518 -55.2850 -55.0966 -54.8561 -54.8559
   -32.2394 -32.2375 -32.1941 -32.1936 -32.1750 -32.1742 -32.1700 -32.1346
   -32.0891 -32.0861 -32.0800 -32.0795 -32.0428 -32.0134 -32.0057 -32.0051
   -31.9990 -31.9987 -31.9980 -31.9979 -31.9936 -31.9919 -31.9895 -31.9384
   -31.9246 -31.9125 -31.9115 -31.9003 -31.8872 -31.8867 -31.8842 -31.8832
   -31.8676 -31.8669 -31.8578 -31.8551 -31.6950 -31.5684 -31.4680 -31.4148
   -31.3574 -31.3367 -31.1822 -31.1820 -31.0931 -31.0928 -31.0538 -31.0536
   -18.4458 -16.0691 -16.0431 -15.8432 -15.8102 -15.8060 -15.7915 -15.6828
   -15.5980 -15.5910 -15.5882 -15.5216 -15.4916 -15.4759 -15.4353 -15.4225
   -15.4153 -15.4036 -15.3933 -15.3562 -15.3489 -15.3317 -15.3242 -15.2400
   -15.2122 -15.2081 -15.1823 -15.0645 -14.9331 -14.6178 -13.3613 -13.3610
   -11.3576  -6.9410  -4.2543  -3.9274  -3.8102  -3.3585  -3.3297  -3.0895
    -3.0507  -3.0370  -2.9839  -2.8222  -2.7920  -2.7661  -2.7546  -2.7230
    -2.7178  -2.7055  -2.7006  -2.6807  -2.6393  -2.6199  -2.6012  -2.5825
    -2.5631  -2.5492  -2.5338  -2.5167  -2.5071  -2.4678  -2.4442  -2.4326
    -2.4140  -2.4022  -2.2452  -2.1227  -2.0882  -2.0337  -2.0235  -2.0019
    -1.9622  -1.9584  -1.9467  -1.8822  -1.8123  -1.6530  -1.6110  -1.5948
    -1.5803  -1.5524  -1.5007  -1.4611  -1.3733  -1.2997  -1.2755  -1.2707
    -1.2021  -1.1153  -1.1083  -1.0600  -1.0180  -1.0088  -0.9534  -0.8885
    -0.8582  -0.8540  -0.8002  -0.7298  -0.7138  -0.6641  -0.6572  -0.6128
    -0.5577  -0.5517  -0.5286  -0.4876  -0.4057  -0.3820  -0.2434  -0.1636
    -0.0408   0.0732   0.1675   0.1817   0.2617   0.3137   0.3974   0.4150
     0.4254   0.4347   0.4778   0.5614   0.6366   0.6513   0.6972   0.8181
     1.5124   1.5132   1.5853   1.5856   2.7064   3.4908   3.5356   3.5778
     3.6099   3.7161   3.7486   3.7719   3.7730   3.8012   3.9134

     the Fermi energy is     3.2388 ev

!    total energy              =   -2939.15465524 Ry
     estimated scf accuracy    <       0.00000005 Ry
     smearing contrib. (-TS)   =      -0.02244931 Ry
     internal energy E=F+TS    =   -2939.13220593 Ry

     The total energy is F=E-TS. E is the sum of the following terms:
     one-electron contribution =  -24176.15267366 Ry
     hartree contribution      =   12175.31582717 Ry
     xc contribution           =    -485.18478677 Ry
     ewald contribution        =    9546.88848668 Ry
     electric field correction =       0.00094066 Ry

     convergence has been achieved in  76 iterations

     Forces acting on atoms (cartesian axes, Ry/au):

     atom    1 type  1   force =     0.00011700   -0.00024492    0.09666275
     atom    2 type  1   force =    -0.00012380   -0.00049402   -0.17521375
     atom    3 type  2   force =     0.00000053   -0.00010001   -0.02499875
     atom    4 type  2   force =     0.00005268   -0.00150236    0.05297844
     atom    5 type  2   force =    -0.01215250   -0.00109000    0.00360127
     atom    6 type  2   force =     0.01370366   -0.00028219    0.00227422
     atom    7 type  1   force =    -0.00117209    0.00036567   -0.01149390
     atom    8 type  1   force =     0.00056319    0.00939688    0.02850739
     atom    9 type  2   force =     0.00019545    0.00052975   -0.00015743
     atom   10 type  2   force =    -0.00114416    0.00028743   -0.01824623
     atom   11 type  2   force =    -0.00011186    0.00000422   -0.00013543
     atom   12 type  2   force =     0.00013044    0.00020947    0.00019073
     atom   13 type  1   force =     0.00009600   -0.00029872    0.00017146
     atom   14 type  1   force =     0.00021563    0.00016952    0.00021530
     atom   15 type  2   force =     0.00021717   -0.00004547   -0.00012299
     atom   16 type  2   force =    -0.00033250    0.00034038    0.00037872
     atom   17 type  2   force =    -0.00021435    0.00041048   -0.00018879
     atom   18 type  2   force =     0.00004536    0.00018631    0.00028551
     atom   19 type  1   force =    -0.00005399    0.00016239    0.00005588
     atom   20 type  1   force =    -0.00063218   -0.00033204    0.00018679
     atom   21 type  2   force =     0.00008769    0.00001445    0.10325143
     atom   22 type  2   force =    -0.00023625    0.00026712    0.00070710
     atom   23 type  2   force =    -0.07145891   -0.00007262   -0.02770706
     atom   24 type  2   force =     0.07142676    0.00034853   -0.02771418
     atom   25 type  1   force =     0.00007513   -0.00022460    0.09639419
     atom   26 type  1   force =    -0.00022962   -0.00026607   -0.17562748
     atom   27 type  2   force =     0.00007009   -0.00025346   -0.02400646
     atom   28 type  2   force =     0.00009715   -0.00125896    0.05284222
     atom   29 type  2   force =    -0.01240057    0.00004550    0.00351188
     atom   30 type  2   force =     0.01386791    0.00033873    0.00215781
     atom   31 type  1   force =    -0.00113446    0.00332914   -0.01190738
     atom   32 type  1   force =     0.00065594   -0.01116354    0.02910777
     atom   33 type  2   force =     0.00010884   -0.00020014   -0.00041936
     atom   34 type  2   force =    -0.00089940   -0.00093845   -0.02482999
     atom   35 type  2   force =    -0.00038599    0.00027719    0.00002957
     atom   36 type  2   force =     0.00070983    0.00029257    0.00034035
     atom   37 type  1   force =    -0.00000960   -0.00022923    0.00005910
     atom   38 type  1   force =    -0.00001069    0.00010198    0.00001122
     atom   39 type  2   force =     0.00029693    0.00034452   -0.00046951
     atom   40 type  2   force =    -0.00030620    0.00010228    0.00016651
     atom   41 type  2   force =    -0.00038862    0.00050701    0.00017269
     atom   42 type  2   force =     0.00008947    0.00046559    0.00039927
     atom   43 type  1   force =    -0.00003218    0.00037688    0.00041315
     atom   44 type  1   force =    -0.00037532    0.00029645    0.00076367
     atom   45 type  2   force =     0.00008149   -0.00002608    0.10326060
     atom   46 type  2   force =    -0.07147991   -0.00003244   -0.02771743
     atom   47 type  2   force =     0.07144830    0.00038797   -0.02774766
     atom   48 type  3   force =     0.00222862   -0.00108516   -0.00065604
     atom   49 type  3   force =     0.00043136    0.00027492    0.00009172
     atom   50 type  4   force =    -0.01785955    0.00125153   -0.00007910
     atom   51 type  5   force =     0.00268078   -0.00146295    0.00059329
     atom   52 type  5   force =     0.00381643    0.00054366   -0.00349390
     atom   53 type  5   force =     0.00963486   -0.00002507    0.00315082

     Total force =     0.368932     Total SCF correction =     0.000697
  @ DRIVER MODE: Message from server: STATUS
  @ DRIVER MODE: Message from server: GETFORCE
  @ DRIVER MODE: Returning v,forces,stress,ensemble

     Writing output data file ./calc.save/
  @ DRIVER MODE: Message from server: EXIT
  @ DRIVE MODE: Exiting

     General routines

     Parallel routines

   This run was terminated on:   2:34:28   9Sep2021

   JOB DONE.