     Program PWSCF v.6.7GPU starts on 15Sep2021 at 18:44: 3

     R & G space division:  proc/nbgrp/npool/nimage =      10
     Reading input from /storage/home/hcoda1/3/ntian30/research/carbon/CxH_vib/H2O_calc/ads_slab/CHN2H2O_c/out_0010/pw.inp
Warning: card &CELL ignored
Warning: card   CELL_DYNAMICS='IPI', ignored
Warning: card / ignored

     Current dimensions of program PWSCF are:
     Max number of different atomic species (ntypx) = 10
     Max number of k-points (npk) =  40000
     Max angular momentum in pseudopotentials (lmaxx) =  3
     Presently no symmetry can be used with electric field

     Message from routine cell_base_init:
     DEPRECATED: use true lattice parameter, not A to a.u. conversion factor

     IMPORTANT: XC functional enforced from input :
     Exchange-correlation= BEEF-VDW
                           (   1   4  43  14   2   0   0)
     Any further DFT definition will be discarded
     Please, verify this is what you really want

  @ DRIVER MODE: Connecting to
 qe_1139763_2852625.sched-torque.pace.gatech.edumugo686k_scratch
  using UNIX socket
  @ DRIVER MODE: Message from server: STATUS
  @ DRIVER MODE: Message from server: INIT
  @ DRIVER MODE: Receiving replica           0          -1
  @ DRIVER MODE: Receiving encoded integer          25
  @ DRIVER MODE:  SCF:  T  FORCE:  T  STRESS:  F  VC:  F  ENSEMBLE:  F
  @ DRIVER MODE:  SCF:  T  FORCE:  T  STRESS:  F  VC:  F  ENSEMBLE:  F

     Using Slab Decomposition

     bravais-lattice index     =            0
     lattice parameter (alat)  =       1.8897  a.u.
     unit-cell volume          =    6658.9804 (a.u.)^3
     number of atoms/cell      =           54
     number of atomic types    =            5
     number of electrons       =       401.00
     number of Kohn-Sham states=          210
     kinetic-energy cutoff     =      29.3995  Ry
     charge density cutoff     =     293.9946  Ry
     scf convergence threshold =      7.3E-08
     mixing beta               =       0.0500
     number of iterations used =            8  plain     mixing
     Exchange-correlation= BEEF-VDW
                           (   1   4  43  14   2   0   0)

     celldm(1)=   1.889726  celldm(2)=   0.000000  celldm(3)=   0.000000
     celldm(4)=   0.000000  celldm(5)=   0.000000  celldm(6)=   0.000000

     crystal axes: (cart. coord. in units of alat)
               a(1) = (   6.579727   0.000000   0.000000 )
               a(2) = (  -0.000775   5.961596   0.000000 )
               a(3) = (   0.000000   0.000000  25.155947 )

     reciprocal axes: (cart. coord. in units 2 pi/alat)
               b(1) = (  0.151982  0.000020  0.000000 )
               b(2) = (  0.000000  0.167740  0.000000 )
               b(3) = (  0.000000  0.000000  0.039752 )

     PseudoPot. # 1 for Ti read from file:
     /storage/coda1/p-amedford6/0/shared/rich_project_chbe-medford/medford-share/data/pseudos_module/espresso/nninc/pbe/van/Ti.UPF
     MD5 check sum: 8e4df49b7f0d34bbd5052bf3f5ea0213
     Pseudo is Ultrasoft, Zval = 12.0
     Generated by new atomic code, or converted to UPF format
     Using radial grid of  851 points,  6 beta functions with:
                l(1) =   0
                l(2) =   0
                l(3) =   1
                l(4) =   1
                l(5) =   2
                l(6) =   2
     Q(r) pseudized with  8 coefficients,  rinner =    1.000   1.000   1.000
                                                       1.000   1.000

     PseudoPot. # 2 for O  read from file:
     /storage/coda1/p-amedford6/0/shared/rich_project_chbe-medford/medford-share/data/pseudos_module/espresso/nninc/pbe/van/O.UPF
     MD5 check sum: 78c19812648e8988a0fe644b0f25305e
     Pseudo is Ultrasoft, Zval =  6.0
     Generated by new atomic code, or converted to UPF format
     Using radial grid of  737 points,  4 beta functions with:
                l(1) =   0
                l(2) =   0
                l(3) =   1
                l(4) =   1
     Q(r) pseudized with  8 coefficients,  rinner =    0.800   0.800   0.800

     PseudoPot. # 3 for C  read from file:
     /storage/coda1/p-amedford6/0/shared/rich_project_chbe-medford/medford-share/data/pseudos_module/espresso/nninc/pbe/van/C.UPF
     MD5 check sum: 1a69bf6b8db32088f5b2163dbdb77a27
     Pseudo is Ultrasoft, Zval =  4.0
     Generated by new atomic code, or converted to UPF format
     Using radial grid of  721 points,  4 beta functions with:
                l(1) =   0
                l(2) =   0
                l(3) =   1
                l(4) =   1
     Q(r) pseudized with  8 coefficients,  rinner =    0.800   0.800   0.800

     PseudoPot. # 4 for H  read from file:
     /storage/coda1/p-amedford6/0/shared/rich_project_chbe-medford/medford-share/data/pseudos_module/espresso/nninc/pbe/van/H.UPF
     MD5 check sum: b5ee9d7bfd3a09ee7748110bda690ff7
     Pseudo is Ultrasoft, Zval =  1.0
     Generated by new atomic code, or converted to UPF format
     Using radial grid of  615 points,  1 beta functions with:
                l(1) =   0
     Q(r) pseudized with  8 coefficients,  rinner =    0.800

     PseudoPot. # 5 for N  read from file:
     /storage/coda1/p-amedford6/0/shared/rich_project_chbe-medford/medford-share/data/pseudos_module/espresso/nninc/pbe/van/N.UPF
     MD5 check sum: 90d10febe142ad51ac9d5be1deb811c4
     Pseudo is Ultrasoft, Zval =  5.0
     Generated by new atomic code, or converted to UPF format
     Using radial grid of  729 points,  4 beta functions with:
                l(1) =   0
                l(2) =   0
                l(3) =   1
                l(4) =   1
     Q(r) pseudized with  8 coefficients,  rinner =    0.800   0.800   0.800

     atomic species   valence    mass     pseudopotential
        Ti1           12.00    47.86700     Ti( 1.00)
        O1             6.00    15.99900     O ( 1.00)
        C1             4.00    12.01100     C ( 1.00)
        H1             1.00     1.00800     H ( 1.00)
        N1             5.00    14.00700     N ( 1.00)

     No symmetry found

   Cartesian axes

     site n.     atom                  positions (alat units)
         1           Ti1 tau(   1) = (   0.0004258   2.9801865   6.0000000  )
         2           Ti1 tau(   2) = (   3.2906075   1.4906267   6.0002472  )
         3           O1  tau(   3) = (   0.0006271   0.0005054   7.9858123  )
         4           O1  tau(   4) = (   3.2906025   0.0005020   7.3038282  )
         5           O1  tau(   5) = (   4.5942328   1.4918067   9.2879030  )
         6           O1  tau(   6) = (   1.9868534   1.4903216   9.2879459  )
         7           Ti1 tau(   7) = (   3.2907910   2.8959150   9.1758416  )
         8           Ti1 tau(   8) = (   0.0015273   1.4827037   9.2680791  )
         9           O1  tau(   9) = (   3.2982821   5.9591942  11.3418950  )
        10           O1  tau(  10) = (   0.0116148   5.9584955  10.6183126  )
        11           O1  tau(  11) = (   1.2990089   1.4837789  12.6285733  )
        12           O1  tau(  12) = (   5.2904647   1.4888503  12.6163117  )
        13           Ti1 tau(  13) = (   0.0603338   2.9457994  12.6026339  )
        14           Ti1 tau(  14) = (   3.3706290   1.4705258  12.5092779  )
        15           O1  tau(  15) = (   6.5788109   0.0160518  14.6499261  )
        16           O1  tau(  16) = (   3.3158691   0.0087694  13.9605792  )
        17           O1  tau(  17) = (   4.5613999   1.5213109  16.0555727  )
        18           O1  tau(  18) = (   2.0390476   1.5587733  16.0026688  )
        19           Ti1 tau(  19) = (   3.2958454   3.0042652  15.6812246  )
        20           Ti1 tau(  20) = (   0.0477533   1.5223793  15.8108347  )
        21           O1  tau(  21) = (   3.2904802   0.0005063   4.7018136  )
        22           O1  tau(  22) = (   0.0778492   0.0082781  17.2116806  )
        23           O1  tau(  23) = (   1.3043587   1.4918075   6.0039043  )
        24           O1  tau(  24) = (   5.2767064   1.4903225   6.0039473  )
        25           Ti1 tau(  25) = (   0.0000382   5.9609847   6.0000000  )
        26           Ti1 tau(  26) = (   3.2902200   4.4714249   6.0002472  )
        27           O1  tau(  27) = (   0.0002396   2.9813036   7.9858123  )
        28           O1  tau(  28) = (   3.2902150   2.9813002   7.3038282  )
        29           O1  tau(  29) = (   4.5938453   4.4726049   9.2879030  )
        30           O1  tau(  30) = (   1.9864658   4.4711199   9.2879459  )
        31           Ti1 tau(  31) = (   3.2891106   5.8743827   9.1763621  )
        32           Ti1 tau(  32) = (   0.0006254   4.4649316   9.2693709  )
        33           O1  tau(  33) = (   3.3003553   2.9806904  11.3444413  )
        34           O1  tau(  34) = (   0.0092240   2.9805883  10.6323155  )
        35           O1  tau(  35) = (   1.2971990   4.4717445  12.6361083  )
        36           O1  tau(  36) = (   5.2938362   4.4783115  12.6231241  )
        37           Ti1 tau(  37) = (   0.0537182   5.9220384  12.5388396  )
        38           Ti1 tau(  38) = (   3.3696634   4.4695314  12.5002334  )
        39           O1  tau(  39) = (   0.0023790   2.9538485  14.6690360  )
        40           O1  tau(  40) = (   3.3142834   2.9899978  13.8932647  )
        41           O1  tau(  41) = (   4.5682027   4.4688565  16.0600133  )
        42           O1  tau(  42) = (   2.0418658   4.4415600  16.0251682  )
        43           Ti1 tau(  43) = (   3.3511655   0.0130708  15.8150828  )
        44           Ti1 tau(  44) = (   0.0311020   4.6533438  16.0685068  )
        45           O1  tau(  45) = (   3.2900926   2.9813045   4.7018136  )
        46           O1  tau(  46) = (   1.3039711   4.4726057   6.0039043  )
        47           O1  tau(  47) = (   5.2763189   4.4711207   6.0039473  )
        48           C1  tau(  48) = (   0.0453995   2.9433715  17.6444507  )
        49           H1  tau(  49) = (   0.9770157   2.9392850  18.2072415  )
        50           N1  tau(  50) = (   5.5932985   2.7872967  18.4085793  )
        51           N1  tau(  51) = (   4.6087457   2.6299947  18.9712495  )
        52           O1  tau(  52) = (   3.0556172   5.9408547  18.1262901  )
        53           H1  tau(  53) = (   3.4776725   0.7204629  18.5958315  )
        54           H1  tau(  54) = (   2.0935776   0.0631959  18.2589326  )

     number of k points=    10  Fermi-Dirac smearing, width (Ry)=  0.0073
                       cart. coord. in units 2pi/alat
        k(    1) = (   0.0000000   0.0000000   0.0000000), wk =   0.1250000
        k(    2) = (   0.0000000   0.0419351   0.0000000), wk =   0.2500000
        k(    3) = (   0.0000000  -0.0838702   0.0000000), wk =   0.1250000
        k(    4) = (   0.0379955   0.0000049   0.0000000), wk =   0.2500000
        k(    5) = (   0.0379955   0.0419400   0.0000000), wk =   0.2500000
        k(    6) = (   0.0379955  -0.0838652   0.0000000), wk =   0.2500000
        k(    7) = (   0.0379955  -0.0419301   0.0000000), wk =   0.2500000
        k(    8) = (  -0.0759910  -0.0000099   0.0000000), wk =   0.1250000
        k(    9) = (  -0.0759910   0.0419252   0.0000000), wk =   0.2500000
        k(   10) = (  -0.0759910  -0.0838800   0.0000000), wk =   0.1250000

     Initial potential from superposition of free atoms

     starting charge  384.99916, renormalised to  401.00000

     negative rho (up, down):  1.776E-02 0.000E+00

     %%%%%%%%%%%%%%%%%%%%%%%%%%%%%%%%%%%%%%%%%%%%%%%%%%%%%%%%%%%%%%%%%%%%%%%%
     %                                                                      %
     % You are using vdW-DF, which was implemented by the Thonhauser group. %
     % Please cite the following two papers that made this development      %
     % possible and the two reviews that describe the various versions:     %
     %                                                                      %
     %   T. Thonhauser et al., PRL 115, 136402 (2015).                      %
     %   T. Thonhauser et al., PRB 76, 125112 (2007).                       %
     %   K. Berland et al., Rep. Prog. Phys. 78, 066501 (2015).             %
     %   D.C. Langreth et al., J. Phys.: Condens. Matter 21, 084203 (2009). %
     %                                                                      %
     %                                                                      %
     % If you are calculating the stress with vdW-DF, please also cite:     %
     %                                                                      %
     %   R. Sabatini et al., J. Phys.: Condens. Matter 24, 424209 (2012).   %
     %                                                                      %
     %%%%%%%%%%%%%%%%%%%%%%%%%%%%%%%%%%%%%%%%%%%%%%%%%%%%%%%%%%%%%%%%%%%%%%%%

     Adding external electric field

     Computed dipole along edir(3) :
        Dipole              -11.5984 Ry au,        -29.4801 Debye
        Dipole field         -0.0219 Ry au,

        Potential amp.        2.0290 Ry
        Total length         46.3494 bohr

     Starting wfcs are  303 atomic wfcs
  @ DRIVER MODE: Message from server: STATUS
  @ DRIVER MODE: Message from server: POSDATA
  @ DRIVER MODE: Reading and sharing cell
  @ DRIVER MODE: Reading and sharing positions
  @ DRIVER MODE: Received positions

     Self-consistent Calculation

     iteration #  1     ecut=    29.40 Ry     beta= 0.05
     Davidson diagonalization with overlap
     c_bands:  3 eigenvalues not converged
     c_bands:  1 eigenvalues not converged
     c_bands:  3 eigenvalues not converged
     c_bands:  3 eigenvalues not converged
     c_bands:  5 eigenvalues not converged
     c_bands:  2 eigenvalues not converged
     c_bands:  3 eigenvalues not converged
     c_bands:  1 eigenvalues not converged
     c_bands:  5 eigenvalues not converged
     ethr =  1.00E-05,  avg # of iterations = 23.5

[...]

     total energy              =   -2415.42179910 Ry
     estimated scf accuracy    <    6267.15682869 Ry

     iteration #  2     ecut=    29.40 Ry     beta= 0.05
     Davidson diagonalization with overlap
     ethr =  1.00E-02,  avg # of iterations = 30.9

[...]

     iteration # 69     ecut=    29.40 Ry     beta= 0.05
     Davidson diagonalization with overlap
     c_bands:  1 eigenvalues not converged
     ethr =  5.41E-11,  avg # of iterations = 14.3

[...]

     total energy              =   -2971.50216052 Ry
     estimated scf accuracy    <       0.00000009 Ry

     iteration # 72     ecut=    29.40 Ry     beta= 0.05
     Davidson diagonalization with overlap
     ethr =  2.26E-11,  avg # of iterations =  5.1

     negative rho (up, down):  1.756E-02 0.000E+00

     Adding external electric field

     Computed dipole along edir(3) :
        Dipole                0.5796 Ry au,          1.4733 Debye
        Dipole field          0.0011 Ry au,

        Potential amp.       -0.1014 Ry
        Total length         46.3494 bohr

     End of self-consistent calculation

          k = 0.0000 0.0000 0.0000 ( 18029 PWs)   bands (ev):

   -55.8809 -55.8469 -55.8465 -55.8410 -55.8099 -55.7241 -55.6950 -55.6867
   -55.6612 -55.6609 -55.6513 -55.6273 -55.4127 -55.2218 -54.8624 -54.8284
   -32.3892 -32.3645 -32.2467 -32.2193 -32.1937 -32.1733 -32.1510 -32.1445
   -32.1247 -32.0723 -32.0672 -32.0649 -32.0332 -32.0268 -32.0218 -31.9959
   -31.9864 -31.9785 -31.9715 -31.9438 -31.9381 -31.9206 -31.8992 -31.8885
   -31.8857 -31.8739 -31.8734 -31.8595 -31.8528 -31.8480 -31.8369 -31.8339
   -31.8293 -31.8249 -31.8143 -31.8025 -31.7731 -31.6613 -31.6274 -31.4819
   -31.4663 -31.4345 -31.2696 -31.1810 -31.1586 -31.0864 -30.9999 -30.8888
   -20.5013 -18.7843 -16.5836 -16.3534 -16.1294 -16.0385 -15.9935 -15.7834
   -15.6742 -15.6186 -15.4949 -15.4317 -15.4229 -15.4154 -15.3944 -15.3843
   -15.3278 -15.3177 -15.3051 -15.2995 -15.2716 -15.2348 -15.2190 -15.2177
   -15.1461 -15.0429 -15.0219 -14.9989 -14.9967 -14.9386 -14.4979 -13.6089
   -13.3645 -13.2480  -6.6240  -5.8302  -4.7079  -4.4897  -3.9573  -3.8234
    -3.7880  -3.7518  -3.7160  -3.5208  -3.4857  -3.3767  -3.2296  -3.1305
    -3.0613  -3.0267  -2.9721  -2.8954  -2.8270  -2.7646  -2.7289  -2.6866
    -2.6774  -2.6417  -2.6352  -2.6171  -2.5970  -2.4971  -2.4616  -2.4134
    -2.3485  -2.2467  -2.2264  -2.1948  -2.1893  -2.1541  -2.1465  -2.1250
    -2.1079  -2.0982  -2.0229  -1.9268  -1.8773  -1.7849  -1.6727  -1.5355
    -1.5317  -1.4877  -1.3601  -1.3467  -1.3166  -1.2900  -1.2746  -1.2316
    -1.1430  -1.0868  -1.0406  -0.9773  -0.9040  -0.8149  -0.7725  -0.7211
    -0.6570  -0.6402  -0.6323  -0.6135  -0.5757  -0.4697  -0.4460  -0.3685
    -0.3660  -0.2803  -0.2488  -0.1887  -0.1580  -0.1200  -0.0812  -0.0076
     0.0124   0.0379   0.0558   0.0830   0.0915   0.1332   0.1660   0.1705
     0.3660   0.3918   0.4507   0.4604   0.5213   0.6417   0.6600   0.7743
     0.8913   1.0870   1.1601   1.2531   1.3518   1.7314   1.7772   1.7838
     3.2425   3.3401   3.3787   3.3877   3.4752   3.4868   3.7036   3.7495
     3.7571   3.8119

[...]

          k = 0.0380-0.0419 0.0000 ( 17876 PWs)   bands (ev):

[...]

          k =-0.0760-0.0000 0.0000 ( 17886 PWs)   bands (ev):

[...]

          k =-0.0760-0.0839 0.0000 ( 17948 PWs)   bands (ev):

   -55.8641 -55.8636 -55.8399 -55.8311 -55.8247 -55.7128 -55.6980 -55.6783
   -55.6770 -55.6527 -55.6461 -55.6425 -55.4113 -55.2230 -54.8454 -54.8452
   -32.2061 -32.1838 -32.1799 -32.1797 -32.1589 -32.1585 -32.1307 -32.1037
   -32.0911 -32.0637 -32.0557 -32.0510 -32.0376 -32.0071 -31.9992 -31.9925
   -31.9850 -31.9845 -31.9837 -31.9826 -31.9807 -31.9785 -31.9594 -31.9264
   -31.9142 -31.9094 -31.9015 -31.8802 -31.8796 -31.8761 -31.8689 -31.8614
   -31.8576 -31.8537 -31.8511 -31.8486 -31.7852 -31.6646 -31.6207 -31.5386
   -31.4842 -31.4577 -31.1713 -31.1712 -31.0825 -31.0823 -31.0432 -31.0431
   -20.5006 -18.7835 -16.0443 -15.9280 -15.8464 -15.8056 -15.7377 -15.7017
   -15.6545 -15.5901 -15.5600 -15.5568 -15.5018 -15.4862 -15.4454 -15.4314
   -15.4068 -15.4004 -15.3845 -15.3362 -15.3242 -15.3158 -15.3071 -15.3034
   -15.2630 -15.2284 -15.2032 -15.1988 -15.0929 -14.9622 -14.6725 -13.6177
   -13.3499 -13.3496  -6.6218  -5.8254  -4.6666  -4.4637  -3.6261  -3.3291
    -3.3197  -3.1043  -3.0474  -2.9918  -2.9841  -2.9408  -2.8182  -2.7905
    -2.7421  -2.7338  -2.6948  -2.6895  -2.6847  -2.6650  -2.6315  -2.6121
    -2.6069  -2.5559  -2.5501  -2.5432  -2.5256  -2.5149  -2.5075  -2.4830
    -2.4560  -2.4405  -2.4237  -2.3942  -2.3112  -2.2806  -2.1131  -2.0718
    -2.0241  -2.0156  -1.9846  -1.9640  -1.9520  -1.9307  -1.8871  -1.7297
    -1.6524  -1.5847  -1.5738  -1.5641  -1.4895  -1.4730  -1.3615  -1.3243
    -1.2915  -1.2571  -1.1827  -1.1045  -1.0964  -1.0748  -0.9704  -0.9629
    -0.9291  -0.8857  -0.8470  -0.8360  -0.8273  -0.7497  -0.6939  -0.6220
    -0.6158  -0.5916  -0.5786  -0.5522  -0.5271  -0.4333  -0.3662  -0.3097
    -0.2759  -0.1891  -0.1594   0.0632   0.0856   0.1954   0.2085   0.2765
     0.3179   0.4264   0.4346   0.4826   0.5053   0.5305   0.5926   0.6585
     0.6684   0.6954   0.8134   1.5232   1.5245   1.5968   1.5972   1.6987
     3.5615   3.5933   3.6259   3.6357   3.7453   3.7660   3.7859   3.7887
     3.9040   3.9244

     the Fermi energy is     3.2502 ev

!    total energy              =   -2971.50217660 Ry
     estimated scf accuracy    <       0.00000007 Ry
     smearing contrib. (-TS)   =      -0.02121444 Ry
     internal energy E=F+TS    =   -2971.48096215 Ry

     The total energy is F=E-TS. E is the sum of the following terms:
     one-electron contribution =  -24213.92012830 Ry
     hartree contribution      =   12197.63877872 Ry
     xc contribution           =    -492.39547327 Ry
     ewald contribution        =    9537.19522665 Ry
     electric field correction =       0.00063404 Ry

     convergence has been achieved in  72 iterations

     Forces acting on atoms (cartesian axes, Ry/au):

     atom    1 type  1   force =     0.00019558   -0.00029538    0.09587591
     atom    2 type  1   force =    -0.00004644   -0.00047904   -0.17571715
     atom    3 type  2   force =     0.00007238   -0.00014261   -0.02406006
     atom    4 type  2   force =     0.00005921   -0.00155574    0.05355867
     atom    5 type  2   force =    -0.01129304   -0.00085054    0.00336995
     atom    6 type  2   force =     0.01316590   -0.00018598    0.00285953
     atom    7 type  1   force =    -0.00059924    0.00053018   -0.00603399
     atom    8 type  1   force =     0.00022009    0.00882411    0.02325728
     atom    9 type  2   force =    -0.00020952    0.00014150   -0.00009342
     atom   10 type  2   force =    -0.00059980    0.00120426   -0.01589532
     atom   11 type  2   force =    -0.00017679    0.00013694   -0.00003038
     atom   12 type  2   force =    -0.00019577   -0.00007840   -0.00016260
     atom   13 type  1   force =    -0.00000249    0.00057868    0.00018635
     atom   14 type  1   force =    -0.00005624    0.00003165   -0.00002512
     atom   15 type  2   force =    -0.00026342   -0.00014399   -0.00007509
     atom   16 type  2   force =    -0.00022237    0.00023829   -0.00010155
     atom   17 type  2   force =    -0.00027067   -0.00000582    0.00017705
     atom   18 type  2   force =    -0.00042589    0.00021541   -0.00008041
     atom   19 type  1   force =    -0.00010746   -0.00037868   -0.00012544
     atom   20 type  1   force =    -0.00015146   -0.00033643    0.00027379
     atom   21 type  2   force =     0.00006367   -0.00004402    0.10323113
     atom   22 type  2   force =     0.00020173    0.00002500   -0.00020712
     atom   23 type  2   force =    -0.07142788   -0.00011446   -0.02768127
     atom   24 type  2   force =     0.07141007    0.00030678   -0.02771625
     atom   25 type  1   force =     0.00002695   -0.00023678    0.09564108
     atom   26 type  1   force =    -0.00015518   -0.00037367   -0.17587341
     atom   27 type  2   force =     0.00010244   -0.00020016   -0.02306856
     atom   28 type  2   force =     0.00012481   -0.00122067    0.05307352
     atom   29 type  2   force =    -0.01154296    0.00061866    0.00328278
     atom   30 type  2   force =     0.01328451    0.00092798    0.00278715
     atom   31 type  1   force =    -0.00047191    0.00378251   -0.01063315
     atom   32 type  1   force =     0.00008337   -0.01102093    0.02366523
     atom   33 type  2   force =     0.00011276   -0.00003794    0.00002712
     atom   34 type  2   force =     0.00007932    0.00061912   -0.02083369
     atom   35 type  2   force =    -0.00018300   -0.00022933    0.00000931
     atom   36 type  2   force =    -0.00038531    0.00001232   -0.00008637
     atom   37 type  1   force =     0.00032665   -0.00052602   -0.00005715
     atom   38 type  1   force =     0.00001055   -0.00000361   -0.00019121
     atom   39 type  2   force =    -0.00034299    0.00001064    0.00001166
     atom   40 type  2   force =     0.00003428   -0.00015480   -0.00029593
     atom   41 type  2   force =    -0.00037108   -0.00019253   -0.00003206
     atom   42 type  2   force =     0.00005452   -0.00005403   -0.00000880
     atom   43 type  1   force =     0.00026953   -0.00042099   -0.00006568
     atom   44 type  1   force =    -0.00031068   -0.00019389    0.00010153
     atom   45 type  2   force =     0.00006306   -0.00008430    0.10322869
     atom   46 type  2   force =    -0.07143816   -0.00011037   -0.02770411
     atom   47 type  2   force =     0.07143751    0.00032387   -0.02772816
     atom   48 type  3   force =    -0.00028318    0.00029923    0.00023309
     atom   49 type  4   force =     0.00025432   -0.00017218    0.00033878
     atom   50 type  5   force =     0.00127253    0.00081720   -0.00024758
     atom   51 type  5   force =    -0.00114687   -0.00001218   -0.00008341
     atom   52 type  2   force =    -0.00063678   -0.00000754   -0.00016075
     atom   53 type  4   force =     0.00019825    0.00005304    0.00052061
     atom   54 type  4   force =     0.00019259    0.00016562   -0.00063504

     Total force =     0.366815     Total SCF correction =     0.000873
  @ DRIVER MODE: Message from server: STATUS
  @ DRIVER MODE: Message from server: GETFORCE
  @ DRIVER MODE: Returning v,forces,stress,ensemble

     Writing output data file ./calc.save/
  @ DRIVER MODE: Message from server: EXIT
  @ DRIVE MODE: Exiting

     General routines

     Parallel routines

   This run was terminated on:  19: 2:45  15Sep2021

   JOB DONE.