     Program PWSCF v.6.7GPU starts on 16Sep2021 at  5:55: 0

     R & G space division:  proc/nbgrp/npool/nimage =      10
     Reading input from /storage/home/hcoda1/3/ntian30/research/carbon/CxH_vib/H2O_calc/ads_slab/CH2NNHHH2O_a/out_0042/pw.inp
Warning: card &CELL ignored
Warning: card   CELL_DYNAMICS='IPI', ignored
Warning: card / ignored

     Current dimensions of program PWSCF are:
     Max number of different atomic species (ntypx) = 10
     Max number of k-points (npk) =  40000
     Max angular momentum in pseudopotentials (lmaxx) =  3
     Presently no symmetry can be used with electric field

     Message from routine cell_base_init:
     DEPRECATED: use true lattice parameter, not A to a.u. conversion factor

     IMPORTANT: XC functional enforced from input :
     Exchange-correlation= BEEF-VDW
                           (   1   4  43  14   2   0   0)
     Any further DFT definition will be discarded
     Please, verify this is what you really want

  @ DRIVER MODE: Connecting to
 qe_1139763_2852611.sched-torque.pace.gatech.edusm6fvh5j_scratch
  using UNIX socket
  @ DRIVER MODE: Message from server: STATUS
  @ DRIVER MODE: Message from server: INIT
  @ DRIVER MODE: Receiving replica           0          -1
  @ DRIVER MODE: Receiving encoded integer          25
  @ DRIVER MODE:  SCF:  T  FORCE:  T  STRESS:  F  VC:  F  ENSEMBLE:  F
  @ DRIVER MODE:  SCF:  T  FORCE:  T  STRESS:  F  VC:  F  ENSEMBLE:  F

     Using Slab Decomposition

     bravais-lattice index     =            0
     lattice parameter (alat)  =       1.8897  a.u.
     unit-cell volume          =    6658.9804 (a.u.)^3
     number of atoms/cell      =           57
     number of atomic types    =            5
     number of electrons       =       404.00
     number of Kohn-Sham states=          212
     kinetic-energy cutoff     =      29.3995  Ry
     charge density cutoff     =     293.9946  Ry
     scf convergence threshold =      7.3E-08
     mixing beta               =       0.0500
     number of iterations used =            8  plain     mixing
     Exchange-correlation= BEEF-VDW
                           (   1   4  43  14   2   0   0)

     celldm(1)=   1.889726  celldm(2)=   0.000000  celldm(3)=   0.000000
     celldm(4)=   0.000000  celldm(5)=   0.000000  celldm(6)=   0.000000

     crystal axes: (cart. coord. in units of alat)
               a(1) = (   6.579727   0.000000   0.000000 )
               a(2) = (  -0.000775   5.961596   0.000000 )
               a(3) = (   0.000000   0.000000  25.155947 )

     reciprocal axes: (cart. coord. in units 2 pi/alat)
               b(1) = (  0.151982  0.000020  0.000000 )
               b(2) = (  0.000000  0.167740  0.000000 )
               b(3) = (  0.000000  0.000000  0.039752 )

     PseudoPot. # 1 for Ti read from file:
     /storage/coda1/p-amedford6/0/shared/rich_project_chbe-medford/medford-share/data/pseudos_module/espresso/nninc/pbe/van/Ti.UPF
     MD5 check sum: 8e4df49b7f0d34bbd5052bf3f5ea0213
     Pseudo is Ultrasoft, Zval = 12.0
     Generated by new atomic code, or converted to UPF format
     Using radial grid of  851 points,  6 beta functions with:
                l(1) =   0
                l(2) =   0
                l(3) =   1
                l(4) =   1
                l(5) =   2
                l(6) =   2
     Q(r) pseudized with  8 coefficients,  rinner =    1.000   1.000   1.000
                                                       1.000   1.000

     PseudoPot. # 2 for O  read from file:
     /storage/coda1/p-amedford6/0/shared/rich_project_chbe-medford/medford-share/data/pseudos_module/espresso/nninc/pbe/van/O.UPF
     MD5 check sum: 78c19812648e8988a0fe644b0f25305e
     Pseudo is Ultrasoft, Zval =  6.0
     Generated by new atomic code, or converted to UPF format
     Using radial grid of  737 points,  4 beta functions with:
                l(1) =   0
                l(2) =   0
                l(3) =   1
                l(4) =   1
     Q(r) pseudized with  8 coefficients,  rinner =    0.800   0.800   0.800

     PseudoPot. # 3 for N  read from file:
     /storage/coda1/p-amedford6/0/shared/rich_project_chbe-medford/medford-share/data/pseudos_module/espresso/nninc/pbe/van/N.UPF
     MD5 check sum: 90d10febe142ad51ac9d5be1deb811c4
     Pseudo is Ultrasoft, Zval =  5.0
     Generated by new atomic code, or converted to UPF format
     Using radial grid of  729 points,  4 beta functions with:
                l(1) =   0
                l(2) =   0
                l(3) =   1
                l(4) =   1
     Q(r) pseudized with  8 coefficients,  rinner =    0.800   0.800   0.800

     PseudoPot. # 4 for C  read from file:
     /storage/coda1/p-amedford6/0/shared/rich_project_chbe-medford/medford-share/data/pseudos_module/espresso/nninc/pbe/van/C.UPF
     MD5 check sum: 1a69bf6b8db32088f5b2163dbdb77a27
     Pseudo is Ultrasoft, Zval =  4.0
     Generated by new atomic code, or converted to UPF format
     Using radial grid of  721 points,  4 beta functions with:
                l(1) =   0
                l(2) =   0
                l(3) =   1
                l(4) =   1
     Q(r) pseudized with  8 coefficients,  rinner =    0.800   0.800   0.800

     PseudoPot. # 5 for H  read from file:
     /storage/coda1/p-amedford6/0/shared/rich_project_chbe-medford/medford-share/data/pseudos_module/espresso/nninc/pbe/van/H.UPF
     MD5 check sum: b5ee9d7bfd3a09ee7748110bda690ff7
     Pseudo is Ultrasoft, Zval =  1.0
     Generated by new atomic code, or converted to UPF format
     Using radial grid of  615 points,  1 beta functions with:
                l(1) =   0
     Q(r) pseudized with  8 coefficients,  rinner =    0.800

     atomic species   valence    mass     pseudopotential
        Ti1           12.00    47.86700     Ti( 1.00)
        O1             6.00    15.99900     O ( 1.00)
        N1             5.00    14.00700     N ( 1.00)
        C1             4.00    12.01100     C ( 1.00)
        H1             1.00     1.00800     H ( 1.00)

     No symmetry found

   Cartesian axes

     site n.     atom                  positions (alat units)
         1           Ti1 tau(   1) = (   0.0004258   2.9801865   6.0000000  )
         2           Ti1 tau(   2) = (   3.2906075   1.4906267   6.0002472  )
         3           O1  tau(   3) = (   0.0006271   0.0005054   7.9858123  )
         4           O1  tau(   4) = (   3.2906025   0.0005020   7.3038282  )
         5           O1  tau(   5) = (   4.5942328   1.4918067   9.2879030  )
         6           O1  tau(   6) = (   1.9868534   1.4903216   9.2879459  )
         7           Ti1 tau(   7) = (   3.2907910   2.8959150   9.1758416  )
         8           Ti1 tau(   8) = (   0.0015273   1.4827037   9.2680791  )
         9           O1  tau(   9) = (   3.3121314   5.9338840  11.3691909  )
        10           O1  tau(  10) = (   0.0116148   5.9584955  10.6183126  )
        11           O1  tau(  11) = (   1.3134021   1.4784130  12.6451072  )
        12           O1  tau(  12) = (   5.3172625   1.4801399  12.6491864  )
        13           Ti1 tau(  13) = (   0.0380378   2.9573341  12.5222382  )
        14           Ti1 tau(  14) = (   3.3404755   1.4532591  12.5245293  )
        15           O1  tau(  15) = (   0.0239237   0.0366503  14.6894071  )
        16           O1  tau(  16) = (   3.3255740   5.9570089  14.0129324  )
        17           O1  tau(  17) = (   4.5846449   1.4795273  16.1858442  )
        18           O1  tau(  18) = (   2.0539891   1.4908220  16.1938258  )
        19           Ti1 tau(  19) = (   3.3028508   2.9322526  15.7076921  )
        20           Ti1 tau(  20) = (   0.0088316   1.3655950  16.0522487  )
        21           O1  tau(  21) = (   3.2904802   0.0005063   4.7018136  )
        22           O1  tau(  22) = (   0.0586005   5.8320325  17.2288864  )
        23           O1  tau(  23) = (   1.3043587   1.4918075   6.0039043  )
        24           O1  tau(  24) = (   5.2767064   1.4903225   6.0039473  )
        25           Ti1 tau(  25) = (   0.0000382   5.9609847   6.0000000  )
        26           Ti1 tau(  26) = (   3.2902200   4.4714249   6.0002472  )
        27           O1  tau(  27) = (   0.0002396   2.9813036   7.9858123  )
        28           O1  tau(  28) = (   3.2902150   2.9813002   7.3038282  )
        29           O1  tau(  29) = (   4.5938453   4.4726049   9.2879030  )
        30           O1  tau(  30) = (   1.9864658   4.4711199   9.2879459  )
        31           Ti1 tau(  31) = (   3.2891106   5.8743827   9.1763621  )
        32           Ti1 tau(  32) = (   0.0006254   4.4649316   9.2693709  )
        33           O1  tau(  33) = (   3.3142679   2.9660735  11.3641874  )
        34           O1  tau(  34) = (   0.0092240   2.9805883  10.6323155  )
        35           O1  tau(  35) = (   1.3108675   4.4558178  12.6782323  )
        36           O1  tau(  36) = (   5.3175068   4.4537340  12.6790822  )
        37           Ti1 tau(  37) = (   0.0418451   5.9490355  12.4996082  )
        38           Ti1 tau(  38) = (   3.3402151   4.4429940  12.5219265  )
        39           O1  tau(  39) = (   0.0332256   2.9148708  14.9327709  )
        40           O1  tau(  40) = (   3.3156017   2.9437717  13.9283311  )
        41           O1  tau(  41) = (   4.5915719   4.3868214  16.1197993  )
        42           O1  tau(  42) = (   2.0539401   4.4017640  16.0846163  )
        43           Ti1 tau(  43) = (   3.3369130   5.9116756  15.8392261  )
        44           Ti1 tau(  44) = (   0.0533093   4.5818758  15.8415549  )
        45           O1  tau(  45) = (   3.2900926   2.9813045   4.7018136  )
        46           O1  tau(  46) = (   1.3039711   4.4726057   6.0039043  )
        47           O1  tau(  47) = (   5.2763189   4.4711207   6.0039473  )
        48           N1  tau(  48) = (   6.5287229   2.7802708  18.1865785  )
        49           C1  tau(  49) = (   0.9724842   2.7744648  18.9576868  )
        50           H1  tau(  50) = (   0.9153086   3.0669255  20.0057840  )
        51           H1  tau(  51) = (   1.9225290   2.4867234  18.5393133  )
        52           N1  tau(  52) = (   5.2958906   3.1014149  18.7352402  )
        53           H1  tau(  53) = (   5.3913054   3.6367428  19.5974321  )
        54           H1  tau(  54) = (   4.7863746   3.6605970  18.0622289  )
        55           O1  tau(  55) = (   3.2511457   5.8152340  18.3397965  )
        56           H1  tau(  56) = (   3.7467739   0.6636339  18.5518981  )
        57           H1  tau(  57) = (   2.3053106   0.0674530  18.4201010  )

     number of k points=    10  Fermi-Dirac smearing, width (Ry)=  0.0073
                       cart. coord. in units 2pi/alat
        k(    1) = (   0.0000000   0.0000000   0.0000000), wk =   0.1250000
        k(    2) = (   0.0000000   0.0419351   0.0000000), wk =   0.2500000
        k(    3) = (   0.0000000  -0.0838702   0.0000000), wk =   0.1250000
        k(    4) = (   0.0379955   0.0000049   0.0000000), wk =   0.2500000
        k(    5) = (   0.0379955   0.0419400   0.0000000), wk =   0.2500000
        k(    6) = (   0.0379955  -0.0838652   0.0000000), wk =   0.2500000
        k(    7) = (   0.0379955  -0.0419301   0.0000000), wk =   0.2500000
        k(    8) = (  -0.0759910  -0.0000099   0.0000000), wk =   0.1250000
        k(    9) = (  -0.0759910   0.0419252   0.0000000), wk =   0.2500000
        k(   10) = (  -0.0759910  -0.0838800   0.0000000), wk =   0.1250000

     Initial potential from superposition of free atoms

     starting charge  387.99913, renormalised to  404.00000

     negative rho (up, down):  1.527E-02 0.000E+00

     %%%%%%%%%%%%%%%%%%%%%%%%%%%%%%%%%%%%%%%%%%%%%%%%%%%%%%%%%%%%%%%%%%%%%%%%
     %                                                                      %
     % You are using vdW-DF, which was implemented by the Thonhauser group. %
     % Please cite the following two papers that made this development      %
     % possible and the two reviews that describe the various versions:     %
     %                                                                      %
     %   T. Thonhauser et al., PRL 115, 136402 (2015).                      %
     %   T. Thonhauser et al., PRB 76, 125112 (2007).                       %
     %   K. Berland et al., Rep. Prog. Phys. 78, 066501 (2015).             %
     %   D.C. Langreth et al., J. Phys.: Condens. Matter 21, 084203 (2009). %
     %                                                                      %
     %                                                                      %
     % If you are calculating the stress with vdW-DF, please also cite:     %
     %                                                                      %
     %   R. Sabatini et al., J. Phys.: Condens. Matter 24, 424209 (2012).   %
     %                                                                      %
     %%%%%%%%%%%%%%%%%%%%%%%%%%%%%%%%%%%%%%%%%%%%%%%%%%%%%%%%%%%%%%%%%%%%%%%%

     Adding external electric field

     Computed dipole along edir(3) :
        Dipole              -14.3252 Ry au,        -36.4110 Debye
        Dipole field         -0.0270 Ry au,

        Potential amp.        2.5060 Ry
        Total length         46.3494 bohr

     Starting wfcs are  306 atomic wfcs
  @ DRIVER MODE: Message from server: STATUS
  @ DRIVER MODE: Message from server: POSDATA
  @ DRIVER MODE: Reading and sharing cell
  @ DRIVER MODE: Reading and sharing positions
  @ DRIVER MODE: Received positions

     Self-consistent Calculation

     iteration #  1     ecut=    29.40 Ry     beta= 0.05
     Davidson diagonalization with overlap
     c_bands:  4 eigenvalues not converged
     c_bands:  3 eigenvalues not converged
     c_bands:  5 eigenvalues not converged
     c_bands:  1 eigenvalues not converged
     c_bands:  2 eigenvalues not converged
     c_bands:  1 eigenvalues not converged
     c_bands:  2 eigenvalues not converged
     c_bands:  4 eigenvalues not converged
     c_bands:  5 eigenvalues not converged
     ethr =  1.00E-05,  avg # of iterations = 24.6

[...]

     total energy              =   -2233.92177939 Ry
     estimated scf accuracy    <    8445.34981374 Ry

     iteration #  2     ecut=    29.40 Ry     beta= 0.05
     Davidson diagonalization with overlap
     ethr =  1.00E-02,  avg # of iterations = 24.6

[...]

     iteration # 64     ecut=    29.40 Ry     beta= 0.05
     Davidson diagonalization with overlap
     c_bands:  1 eigenvalues not converged
     ethr =  3.84E-09,  avg # of iterations = 11.0

[...]

     total energy              =   -2975.20590051 Ry
     estimated scf accuracy    <       0.00000011 Ry

     iteration # 76     ecut=    29.40 Ry     beta= 0.05
     Davidson diagonalization with overlap
     ethr =  2.59E-11,  avg # of iterations =  6.7

     negative rho (up, down):  1.520E-02 0.000E+00

     Adding external electric field

     Computed dipole along edir(3) :
        Dipole                1.4023 Ry au,          3.5643 Debye
        Dipole field          0.0026 Ry au,

        Potential amp.       -0.2453 Ry
        Total length         46.3494 bohr

     End of self-consistent calculation

          k = 0.0000 0.0000 0.0000 ( 18029 PWs)   bands (ev):

   -55.1881 -55.1521 -55.1485 -55.1144 -55.1005 -55.0686 -55.0343 -55.0306
   -55.0069 -54.9776 -54.9719 -54.9685 -54.9440 -54.8727 -54.1718 -54.1377
   -31.7533 -31.6401 -31.5980 -31.5573 -31.5065 -31.4963 -31.4893 -31.4822
   -31.4375 -31.4030 -31.3995 -31.3931 -31.3906 -31.3646 -31.3417 -31.3329
   -31.3319 -31.3257 -31.3063 -31.3004 -31.2805 -31.2762 -31.2615 -31.2477
   -31.2367 -31.2342 -31.2130 -31.2074 -31.2055 -31.1988 -31.1930 -31.1752
   -31.1705 -31.1601 -31.1551 -31.1420 -31.1210 -31.1170 -31.1057 -31.0882
   -31.0880 -31.0025 -30.5808 -30.4875 -30.4654 -30.3973 -30.3105 -30.1995
   -18.9185 -18.5535 -16.0136 -15.7483 -15.6121 -15.5021 -15.3868 -15.2569
   -15.2094 -15.0782 -15.0188 -14.9053 -14.8746 -14.8350 -14.8156 -14.8106
   -14.7526 -14.7254 -14.7184 -14.6932 -14.6830 -14.6616 -14.6223 -14.6160
   -14.5801 -14.5682 -14.5653 -14.4202 -14.3427 -14.2783 -13.9668 -13.6914
   -12.6740 -12.5567  -8.8136  -6.7067  -6.4753  -6.0720  -4.1537  -3.3569
    -3.2014  -3.1882  -3.1261  -3.0851  -3.0743  -3.0106  -2.9389  -2.7357
    -2.6008  -2.5735  -2.4547  -2.3885  -2.3841  -2.3310  -2.1882  -2.1833
    -2.1281  -2.0883  -2.0386  -2.0184  -1.9952  -1.9715  -1.9373  -1.9179
    -1.8913  -1.7566  -1.7365  -1.6629  -1.6004  -1.5898  -1.5318  -1.5079
    -1.4889  -1.4840  -1.4751  -1.4632  -1.4229  -1.4101  -1.3669  -1.3097
    -1.2070  -1.1192  -1.0265  -0.9465  -0.8845  -0.8227  -0.7610  -0.7517
    -0.6748  -0.6622  -0.5714  -0.5476  -0.5176  -0.4045  -0.3422  -0.3376
    -0.2744  -0.1728  -0.1439  -0.1281  -0.0567   0.0216   0.0405   0.0480
     0.0562   0.1809   0.2329   0.2662   0.2989   0.3693   0.3910   0.4398
     0.4869   0.4937   0.5730   0.6323   0.6863   0.7348   0.7537   0.7774
     0.7955   0.8049   0.8225   0.9038   0.9263   0.9592   1.0128   1.1685
     1.3283   1.4269   1.4435   1.7610   1.7744   1.8513   2.0357   2.4266
     2.4745   3.9079   3.9849   4.0441   4.0501   4.0592   4.1452   4.3897
     4.4052   4.4181   4.4303   4.4742

[...]

          k = 0.0380-0.0419 0.0000 ( 17876 PWs)   bands (ev):

[...]

          k =-0.0760-0.0000 0.0000 ( 17886 PWs)   bands (ev):

[...]

          k =-0.0760-0.0839 0.0000 ( 17948 PWs)   bands (ev):

   -55.1709 -55.1690 -55.1314 -55.1313 -55.0981 -55.0577 -55.0416 -55.0323
   -54.9924 -54.9858 -54.9706 -54.9614 -54.9604 -54.8746 -54.1547 -54.1547
   -31.5627 -31.5525 -31.5229 -31.4552 -31.4552 -31.4486 -31.4398 -31.4229
   -31.4228 -31.4015 -31.3908 -31.3881 -31.3757 -31.3496 -31.3255 -31.3199
   -31.3197 -31.3195 -31.3170 -31.3077 -31.3020 -31.2834 -31.2705 -31.2675
   -31.2537 -31.2509 -31.2509 -31.2495 -31.2396 -31.2358 -31.2259 -31.2241
   -31.2165 -31.2056 -31.1998 -31.1900 -31.1884 -31.1518 -31.1413 -31.1408
   -31.0963 -31.0888 -30.4780 -30.4780 -30.3934 -30.3932 -30.3539 -30.3539
   -18.9161 -18.5529 -15.5303 -15.4840 -15.3289 -15.1945 -15.1913 -15.1508
   -15.0948 -15.0219 -15.0026 -14.9590 -14.9488 -14.9294 -14.8936 -14.8863
   -14.8600 -14.7893 -14.7798 -14.7714 -14.7374 -14.6986 -14.6879 -14.6865
   -14.6697 -14.6399 -14.6367 -14.5393 -14.5371 -14.4441 -14.3064 -13.7067
   -12.6583 -12.6581  -8.7775  -6.7064  -6.4255  -6.1008  -4.1960  -3.2130
    -2.9373  -2.7484  -2.6429  -2.5412  -2.4138  -2.4084  -2.3229  -2.3144
    -2.2335  -2.1993  -2.1870  -2.1709  -2.0800  -2.0665  -2.0556  -2.0347
    -2.0182  -2.0002  -1.9684  -1.9619  -1.9384  -1.9121  -1.9017  -1.9000
    -1.8810  -1.8479  -1.8167  -1.7977  -1.7770  -1.7465  -1.7350  -1.6676
    -1.6272  -1.5393  -1.5041  -1.3896  -1.3878  -1.3657  -1.3110  -1.2906
    -1.2695  -1.2205  -1.2114  -1.1646  -1.0225  -0.9365  -0.9256  -0.8872
    -0.8385  -0.7897  -0.7428  -0.7270  -0.6612  -0.6405  -0.5469  -0.5322
    -0.4299  -0.3888  -0.3767  -0.3606  -0.2784  -0.2143  -0.1671  -0.1475
    -0.1430  -0.0919  -0.0780  -0.0648   0.0068   0.0541   0.0779   0.0924
     0.1340   0.3031   0.3627   0.3763   0.4950   0.5439   0.6456   0.7084
     0.7834   0.8046   0.8410   0.9312   0.9380   1.0144   1.1090   1.1230
     1.1599   1.2037   1.2526   1.2753   1.2802   2.2086   2.2100   2.2944
     2.2946   4.0520   4.1276   4.1863   4.2339   4.2419   4.3636   4.4252
     4.4680   4.4900   4.4922   4.5670

     the Fermi energy is     3.9660 ev

!    total energy              =   -2975.20591766 Ry
     estimated scf accuracy    <       0.00000005 Ry
     smearing contrib. (-TS)   =      -0.03732357 Ry
     internal energy E=F+TS    =   -2975.16859409 Ry

     The total energy is F=E-TS. E is the sum of the following terms:
     one-electron contribution =  -23537.74882881 Ry
     hartree contribution      =   11866.89858818 Ry
     xc contribution           =    -494.97651793 Ry
     ewald contribution        =    9190.65445341 Ry
     electric field correction =       0.00371106 Ry

     convergence has been achieved in  76 iterations

     Forces acting on atoms (cartesian axes, Ry/au):

     atom    1 type  1   force =     0.00006889   -0.00020335    0.09355430
     atom    2 type  1   force =    -0.00020927   -0.00021447   -0.17803187
     atom    3 type  2   force =     0.00011095   -0.00021472   -0.02066836
     atom    4 type  2   force =     0.00004914   -0.00197833    0.05807484
     atom    5 type  2   force =    -0.01003132   -0.00167074    0.00693357
     atom    6 type  2   force =     0.01217767   -0.00103832    0.00744613
     atom    7 type  1   force =     0.00022405    0.00247797   -0.01209492
     atom    8 type  1   force =    -0.00049606    0.00204116   -0.00193492
     atom    9 type  2   force =     0.00006966    0.00006259   -0.00005510
     atom   10 type  2   force =    -0.00044228   -0.00136753   -0.00317807
     atom   11 type  2   force =     0.00016441   -0.00007529   -0.00008042
     atom   12 type  2   force =    -0.00067410   -0.00011569    0.00008132
     atom   13 type  1   force =     0.00051154    0.00098361    0.00027715
     atom   14 type  1   force =    -0.00140307    0.00027733    0.00018784
     atom   15 type  2   force =    -0.00016503    0.00097917    0.00021289
     atom   16 type  2   force =    -0.00002458   -0.00041785    0.00012145
     atom   17 type  2   force =     0.00067557    0.00001252   -0.00022929
     atom   18 type  2   force =     0.00053480    0.00015407   -0.00031587
     atom   19 type  1   force =    -0.00096407    0.00112496    0.00062652
     atom   20 type  1   force =     0.00056948   -0.00004885   -0.00091370
     atom   21 type  2   force =     0.00001256   -0.00002018    0.10385614
     atom   22 type  2   force =     0.00009586    0.00090304   -0.00001059
     atom   23 type  2   force =    -0.07053667   -0.00011954   -0.02696670
     atom   24 type  2   force =     0.07047352    0.00031014   -0.02702821
     atom   25 type  1   force =     0.00001962   -0.00018479    0.09301718
     atom   26 type  1   force =    -0.00009971   -0.00048740   -0.17795024
     atom   27 type  2   force =     0.00017116   -0.00035542   -0.01955279
     atom   28 type  2   force =     0.00011038   -0.00160288    0.05715349
     atom   29 type  2   force =    -0.01007155   -0.00085985    0.00631153
     atom   30 type  2   force =     0.01213500   -0.00061485    0.00686942
     atom   31 type  1   force =     0.00031839    0.00503965   -0.01527169
     atom   32 type  1   force =    -0.00038979   -0.00269246   -0.00236070
     atom   33 type  2   force =    -0.00003179   -0.00026131   -0.00005724
     atom   34 type  2   force =     0.00046257    0.00032908   -0.00055282
     atom   35 type  2   force =    -0.00011077   -0.00037379   -0.00007543
     atom   36 type  2   force =    -0.00045228   -0.00036617    0.00023792
     atom   37 type  1   force =     0.00027064   -0.00103536    0.00054248
     atom   38 type  1   force =    -0.00121648    0.00024554    0.00131335
     atom   39 type  2   force =    -0.00010577   -0.00047802    0.00024582
     atom   40 type  2   force =     0.00002559   -0.00042793    0.00040356
     atom   41 type  2   force =    -0.00029510    0.00012572   -0.00015958
     atom   42 type  2   force =     0.00127950   -0.00025656    0.00007200
     atom   43 type  1   force =    -0.00105647   -0.00089617   -0.00009686
     atom   44 type  1   force =     0.00071778    0.00054344    0.00001488
     atom   45 type  2   force =     0.00004096   -0.00002046    0.10378519
     atom   46 type  2   force =    -0.07057156   -0.00007525   -0.02697280
     atom   47 type  2   force =     0.07047789    0.00039103   -0.02700606
     atom   48 type  3   force =    -0.00100871    0.00049176    0.00010696
     atom   49 type  4   force =     0.00041930    0.00056508   -0.00010521
     atom   50 type  5   force =    -0.00044772    0.00004986   -0.00055907
     atom   51 type  5   force =    -0.00044222   -0.00011333   -0.00005644
     atom   52 type  3   force =     0.00437919   -0.00390943    0.00848418
     atom   53 type  5   force =     0.00069010   -0.00016959    0.00035550
     atom   54 type  5   force =    -0.00510858    0.00546559   -0.00824796
     atom   55 type  2   force =    -0.00051868    0.00071468   -0.00005773
     atom   56 type  5   force =    -0.00036957   -0.00037442    0.00080294
     atom   57 type  5   force =    -0.00001299   -0.00024767   -0.00049789

     Total force =     0.366031     Total SCF correction =     0.000453
  @ DRIVER MODE: Message from server: STATUS
  @ DRIVER MODE: Message from server: GETFORCE
  @ DRIVER MODE: Returning v,forces,stress,ensemble

     Writing output data file ./calc.save/
  @ DRIVER MODE: Message from server: EXIT
  @ DRIVE MODE: Exiting

     General routines

     Parallel routines

   This run was terminated on:   6:15:56  16Sep2021

   JOB DONE.