     Program PWSCF v.6.7GPU starts on 24Aug2021 at  5:20:54

     R & G space division:  proc/nbgrp/npool/nimage =       6
     Reading input from /storage/home/hcoda1/3/ntian30/research/carbon/CH_vib/ads_slab/CHNNH3_a/out_0033/pw.inp
Warning: card &CELL ignored
Warning: card   CELL_DYNAMICS='IPI', ignored
Warning: card / ignored

     Current dimensions of program PWSCF are:
     Max number of different atomic species (ntypx) = 10
     Max number of k-points (npk) =  40000
     Max angular momentum in pseudopotentials (lmaxx) =  3
     Presently no symmetry can be used with electric field

     Message from routine cell_base_init:
     DEPRECATED: use true lattice parameter, not A to a.u. conversion factor

     IMPORTANT: XC functional enforced from input :
     Exchange-correlation= BEEF-VDW
                           (   1   4  43  14   2   0   0)
     Any further DFT definition will be discarded
     Please, verify this is what you really want

  @ DRIVER MODE: Connecting to
 qe_1139763_2632800.sched-torque.pace.gatech.eduxmzu1_hk_scratch
  using UNIX socket
  @ DRIVER MODE: Message from server: STATUS
  @ DRIVER MODE: Message from server: INIT
  @ DRIVER MODE: Receiving replica           0          -1
  @ DRIVER MODE: Receiving encoded integer          25
  @ DRIVER MODE:  SCF:  T  FORCE:  T  STRESS:  F  VC:  F  ENSEMBLE:  F
  @ DRIVER MODE:  SCF:  T  FORCE:  T  STRESS:  F  VC:  F  ENSEMBLE:  F

     Using Slab Decomposition

     bravais-lattice index     =            0
     lattice parameter (alat)  =       1.8897  a.u.
     unit-cell volume          =    6658.9804 (a.u.)^3
     number of atoms/cell      =           54
     number of atomic types    =            5
     number of electrons       =       396.00
     number of Kohn-Sham states=          208
     kinetic-energy cutoff     =      29.3995  Ry
     charge density cutoff     =     293.9946  Ry
     scf convergence threshold =      7.3E-08
     mixing beta               =       0.0500
     number of iterations used =            8  plain     mixing
     Exchange-correlation= BEEF-VDW
                           (   1   4  43  14   2   0   0)

     celldm(1)=   1.889726  celldm(2)=   0.000000  celldm(3)=   0.000000
     celldm(4)=   0.000000  celldm(5)=   0.000000  celldm(6)=   0.000000

     crystal axes: (cart. coord. in units of alat)
               a(1) = (   6.579727   0.000000   0.000000 )
               a(2) = (  -0.000775   5.961596   0.000000 )
               a(3) = (   0.000000   0.000000  25.155947 )

     reciprocal axes: (cart. coord. in units 2 pi/alat)
               b(1) = (  0.151982  0.000020  0.000000 )
               b(2) = (  0.000000  0.167740  0.000000 )
               b(3) = (  0.000000  0.000000  0.039752 )

     PseudoPot. # 1 for Ti read from file:
     /storage/coda1/p-amedford6/0/shared/rich_project_chbe-medford/medford-share/data/pseudos_module/espresso/nninc/pbe/van/Ti.UPF
     MD5 check sum: 8e4df49b7f0d34bbd5052bf3f5ea0213
     Pseudo is Ultrasoft, Zval = 12.0
     Generated by new atomic code, or converted to UPF format
     Using radial grid of  851 points,  6 beta functions with:
                l(1) =   0
                l(2) =   0
                l(3) =   1
                l(4) =   1
                l(5) =   2
                l(6) =   2
     Q(r) pseudized with  8 coefficients,  rinner =    1.000   1.000   1.000
                                                       1.000   1.000

     PseudoPot. # 2 for O  read from file:
     /storage/coda1/p-amedford6/0/shared/rich_project_chbe-medford/medford-share/data/pseudos_module/espresso/nninc/pbe/van/O.UPF
     MD5 check sum: 78c19812648e8988a0fe644b0f25305e
     Pseudo is Ultrasoft, Zval =  6.0
     Generated by new atomic code, or converted to UPF format
     Using radial grid of  737 points,  4 beta functions with:
                l(1) =   0
                l(2) =   0
                l(3) =   1
                l(4) =   1
     Q(r) pseudized with  8 coefficients,  rinner =    0.800   0.800   0.800

     PseudoPot. # 3 for N  read from file:
     /storage/coda1/p-amedford6/0/shared/rich_project_chbe-medford/medford-share/data/pseudos_module/espresso/nninc/pbe/van/N.UPF
     MD5 check sum: 90d10febe142ad51ac9d5be1deb811c4
     Pseudo is Ultrasoft, Zval =  5.0
     Generated by new atomic code, or converted to UPF format
     Using radial grid of  729 points,  4 beta functions with:
                l(1) =   0
                l(2) =   0
                l(3) =   1
                l(4) =   1
     Q(r) pseudized with  8 coefficients,  rinner =    0.800   0.800   0.800

     PseudoPot. # 4 for C  read from file:
     /storage/coda1/p-amedford6/0/shared/rich_project_chbe-medford/medford-share/data/pseudos_module/espresso/nninc/pbe/van/C.UPF
     MD5 check sum: 1a69bf6b8db32088f5b2163dbdb77a27
     Pseudo is Ultrasoft, Zval =  4.0
     Generated by new atomic code, or converted to UPF format
     Using radial grid of  721 points,  4 beta functions with:
                l(1) =   0
                l(2) =   0
                l(3) =   1
                l(4) =   1
     Q(r) pseudized with  8 coefficients,  rinner =    0.800   0.800   0.800

     PseudoPot. # 5 for H  read from file:
     /storage/coda1/p-amedford6/0/shared/rich_project_chbe-medford/medford-share/data/pseudos_module/espresso/nninc/pbe/van/H.UPF
     MD5 check sum: b5ee9d7bfd3a09ee7748110bda690ff7
     Pseudo is Ultrasoft, Zval =  1.0
     Generated by new atomic code, or converted to UPF format
     Using radial grid of  615 points,  1 beta functions with:
                l(1) =   0
     Q(r) pseudized with  8 coefficients,  rinner =    0.800

     atomic species   valence    mass     pseudopotential
        Ti1           12.00    47.86700     Ti( 1.00)
        O1             6.00    15.99900     O ( 1.00)
        N1             5.00    14.00700     N ( 1.00)
        C1             4.00    12.01100     C ( 1.00)
        H1             1.00     1.00800     H ( 1.00)

     No symmetry found

   Cartesian axes

     site n.     atom                  positions (alat units)
         1           Ti1 tau(   1) = (   0.0004258   2.9801865   6.0000000  )
         2           Ti1 tau(   2) = (   3.2906075   1.4906267   6.0002472  )
         3           O1  tau(   3) = (   0.0006271   0.0005054   7.9858123  )
         4           O1  tau(   4) = (   3.2906025   0.0005020   7.3038282  )
         5           O1  tau(   5) = (   4.5942328   1.4918067   9.2879030  )
         6           O1  tau(   6) = (   1.9868534   1.4903216   9.2879459  )
         7           Ti1 tau(   7) = (   3.2907910   2.8959150   9.1758416  )
         8           Ti1 tau(   8) = (   0.0015273   1.4827037   9.2680791  )
         9           O1  tau(   9) = (   3.2881108   5.9505233  11.3735460  )
        10           O1  tau(  10) = (   0.0116148   5.9584955  10.6183126  )
        11           O1  tau(  11) = (   1.2866665   1.4805866  12.6825740  )
        12           O1  tau(  12) = (   5.2924821   1.4818622  12.6792165  )
        13           Ti1 tau(  13) = (   0.0021322   2.9639872  12.5157261  )
        14           Ti1 tau(  14) = (   3.2862601   1.4710115  12.5283183  )
        15           O1  tau(  15) = (   6.5551702   5.8950557  14.7042857  )
        16           O1  tau(  16) = (   3.2890300   5.9388001  13.9877656  )
        17           O1  tau(  17) = (   4.5349758   1.4880922  16.1718967  )
        18           O1  tau(  18) = (   2.0258431   1.4790072  16.1496753  )
        19           Ti1 tau(  19) = (   3.2732025   2.9690136  15.7622034  )
        20           Ti1 tau(  20) = (   6.5610264   1.3286824  15.8731419  )
        21           O1  tau(  21) = (   3.2904802   0.0005063   4.7018136  )
        22           O1  tau(  22) = (   6.5785393   0.0648448  17.2431192  )
        23           O1  tau(  23) = (   1.3043587   1.4918075   6.0039043  )
        24           O1  tau(  24) = (   5.2767064   1.4903225   6.0039473  )
        25           Ti1 tau(  25) = (   0.0000382   5.9609847   6.0000000  )
        26           Ti1 tau(  26) = (   3.2902200   4.4714249   6.0002472  )
        27           O1  tau(  27) = (   0.0002396   2.9813036   7.9858123  )
        28           O1  tau(  28) = (   3.2902150   2.9813002   7.3038282  )
        29           O1  tau(  29) = (   4.5938453   4.4726049   9.2879030  )
        30           O1  tau(  30) = (   1.9864658   4.4711199   9.2879459  )
        31           Ti1 tau(  31) = (   3.2891106   5.8743827   9.1763621  )
        32           Ti1 tau(  32) = (   0.0006254   4.4649316   9.2693709  )
        33           O1  tau(  33) = (   3.2883663   2.9615298  11.3703760  )
        34           O1  tau(  34) = (   0.0092240   2.9805883  10.6323155  )
        35           O1  tau(  35) = (   1.2870507   4.4533538  12.6624524  )
        36           O1  tau(  36) = (   5.2892318   4.4513974  12.6520950  )
        37           Ti1 tau(  37) = (   6.5724215   5.9362995  12.5032772  )
        38           Ti1 tau(  38) = (   3.2850067   4.4496593  12.5237361  )
        39           O1  tau(  39) = (   6.5755915   2.9911963  14.9688396  )
        40           O1  tau(  40) = (   3.2879019   2.9755095  13.9706832  )
        41           O1  tau(  41) = (   4.5370027   4.4458050  16.2043726  )
        42           O1  tau(  42) = (   2.0318725   4.4540161  16.1993262  )
        43           Ti1 tau(  43) = (   3.2771836   5.9440081  15.7837661  )
        44           Ti1 tau(  44) = (   6.5399960   4.5546841  16.0715688  )
        45           O1  tau(  45) = (   3.2900926   2.9813045   4.7018136  )
        46           O1  tau(  46) = (   1.3039711   4.4726057   6.0039043  )
        47           O1  tau(  47) = (   5.2763189   4.4711207   6.0039473  )
        48           N1  tau(  48) = (   0.1065663   3.2111123  17.9981644  )
        49           C1  tau(  49) = (   0.5134299   2.5375629  18.8400175  )
        50           H1  tau(  50) = (   1.0173682   1.8396193  19.5020221  )
        51           N1  tau(  51) = (   2.4304062   0.3108210  19.4519584  )
        52           H1  tau(  52) = (   3.2527645   0.6626300  18.9680575  )
        53           H1  tau(  53) = (   1.8610457   5.7741108  18.7610151  )
        54           H1  tau(  54) = (   2.7602249   5.5844085  20.1185638  )

     number of k points=    10  Fermi-Dirac smearing, width (Ry)=  0.0073
                       cart. coord. in units 2pi/alat
        k(    1) = (   0.0000000   0.0000000   0.0000000), wk =   0.1250000
        k(    2) = (   0.0000000   0.0419351   0.0000000), wk =   0.2500000
        k(    3) = (   0.0000000  -0.0838702   0.0000000), wk =   0.1250000
        k(    4) = (   0.0379955   0.0000049   0.0000000), wk =   0.2500000
        k(    5) = (   0.0379955   0.0419400   0.0000000), wk =   0.2500000
        k(    6) = (   0.0379955  -0.0838652   0.0000000), wk =   0.2500000
        k(    7) = (   0.0379955  -0.0419301   0.0000000), wk =   0.2500000
        k(    8) = (  -0.0759910  -0.0000099   0.0000000), wk =   0.1250000
        k(    9) = (  -0.0759910   0.0419252   0.0000000), wk =   0.2500000
        k(   10) = (  -0.0759910  -0.0838800   0.0000000), wk =   0.1250000

     Initial potential from superposition of free atoms

     starting charge  379.99915, renormalised to  396.00000

     negative rho (up, down):  1.529E-02 0.000E+00

     %%%%%%%%%%%%%%%%%%%%%%%%%%%%%%%%%%%%%%%%%%%%%%%%%%%%%%%%%%%%%%%%%%%%%%%%
     %                                                                      %
     % You are using vdW-DF, which was implemented by the Thonhauser group. %
     % Please cite the following two papers that made this development      %
     % possible and the two reviews that describe the various versions:     %
     %                                                                      %
     %   T. Thonhauser et al., PRL 115, 136402 (2015).                      %
     %   T. Thonhauser et al., PRB 76, 125112 (2007).                       %
     %   K. Berland et al., Rep. Prog. Phys. 78, 066501 (2015).             %
     %   D.C. Langreth et al., J. Phys.: Condens. Matter 21, 084203 (2009). %
     %                                                                      %
     %                                                                      %
     % If you are calculating the stress with vdW-DF, please also cite:     %
     %                                                                      %
     %   R. Sabatini et al., J. Phys.: Condens. Matter 24, 424209 (2012).   %
     %                                                                      %
     %%%%%%%%%%%%%%%%%%%%%%%%%%%%%%%%%%%%%%%%%%%%%%%%%%%%%%%%%%%%%%%%%%%%%%%%

     Adding external electric field

     Computed dipole along edir(3) :
        Dipole              -10.2017 Ry au,        -25.9301 Debye
        Dipole field         -0.0193 Ry au,

        Potential amp.        1.7846 Ry
        Total length         46.3494 bohr

     Starting wfcs are  300 atomic wfcs
  @ DRIVER MODE: Message from server: STATUS
  @ DRIVER MODE: Message from server: POSDATA
  @ DRIVER MODE: Reading and sharing cell
  @ DRIVER MODE: Reading and sharing positions
  @ DRIVER MODE: Received positions

     Self-consistent Calculation

     iteration #  1     ecut=    29.40 Ry     beta= 0.05
     Davidson diagonalization with overlap
     c_bands:  1 eigenvalues not converged
     c_bands:  2 eigenvalues not converged
     c_bands:  2 eigenvalues not converged
     c_bands:  1 eigenvalues not converged
     c_bands:  2 eigenvalues not converged
     c_bands:  2 eigenvalues not converged
     c_bands:  2 eigenvalues not converged
     c_bands:  3 eigenvalues not converged
     c_bands:  2 eigenvalues not converged
     c_bands:  1 eigenvalues not converged
     ethr =  1.00E-05,  avg # of iterations = 20.0

[...]

     total energy              =   -2542.64297621 Ry
     estimated scf accuracy    <    4464.54701349 Ry

     iteration #  2     ecut=    29.40 Ry     beta= 0.05
     Davidson diagonalization with overlap
     ethr =  1.00E-02,  avg # of iterations = 28.6

[...]

     iteration # 83     ecut=    29.40 Ry     beta= 0.05
     Davidson diagonalization with overlap
     ethr =  6.17E-11,  avg # of iterations =  9.9

[...]

     total energy              =   -2940.42012621 Ry
     estimated scf accuracy    <       0.00000018 Ry

     iteration # 84     ecut=    29.40 Ry     beta= 0.05
     Davidson diagonalization with overlap
     c_bands:  2 eigenvalues not converged
     ethr =  4.54E-11,  avg # of iterations =  9.5

     negative rho (up, down):  1.581E-02 0.000E+00

     Adding external electric field

     Computed dipole along edir(3) :
        Dipole                1.3071 Ry au,          3.3224 Debye
        Dipole field          0.0025 Ry au,

        Potential amp.       -0.2287 Ry
        Total length         46.3494 bohr

     End of self-consistent calculation

          k = 0.0000 0.0000 0.0000 ( 18029 PWs)   bands (ev):

   -55.3715 -55.3355 -55.3233 -55.2891 -55.2478 -55.2422 -55.2171 -55.2130
   -55.1889 -55.1723 -55.1546 -55.1526 -55.1189 -55.0879 -54.3509 -54.3168
   -31.9391 -31.8155 -31.8053 -31.7358 -31.6816 -31.6784 -31.6710 -31.6578
   -31.6122 -31.6024 -31.5799 -31.5721 -31.5679 -31.5412 -31.5264 -31.5205
   -31.5078 -31.4967 -31.4860 -31.4837 -31.4757 -31.4614 -31.4369 -31.4258
   -31.4256 -31.4194 -31.3915 -31.3914 -31.3804 -31.3784 -31.3706 -31.3516
   -31.3500 -31.3446 -31.3387 -31.3366 -31.3028 -31.2892 -31.2868 -31.2806
   -31.2636 -31.2118 -30.7601 -30.6662 -30.6441 -30.5767 -30.4899 -30.3788
   -16.9964 -16.1927 -15.9250 -15.7776 -15.6658 -15.5663 -15.4431 -15.4239
   -15.2929 -15.2050 -15.0850 -15.0408 -15.0183 -15.0046 -14.9894 -14.9834
   -14.9118 -14.9068 -14.8818 -14.8633 -14.8623 -14.8481 -14.8074 -14.8054
   -14.7651 -14.7446 -14.6950 -14.6072 -14.5259 -14.4570 -14.1634 -12.8536
   -12.7362  -8.1805  -4.9805  -4.8771  -4.3201  -3.5334  -3.3839  -3.2870
    -3.2683  -3.2626  -3.1192  -3.0702  -2.9629  -2.8784  -2.7618  -2.6983
    -2.6237  -2.5718  -2.5579  -2.5398  -2.3638  -2.3310  -2.2882  -2.2418
    -2.2103  -2.1761  -2.1549  -2.1276  -2.1149  -2.1084  -2.0754  -1.9316
    -1.8907  -1.8410  -1.7904  -1.7670  -1.7107  -1.6929  -1.6561  -1.6497
    -1.6444  -1.5989  -1.5801  -1.5503  -1.4590  -1.3913  -1.2767  -1.2184
    -1.0774  -1.0063  -0.9518  -0.9380  -0.8567  -0.8534  -0.8261  -0.7484
    -0.7412  -0.7085  -0.5875  -0.4888  -0.4519  -0.4010  -0.3525  -0.3239
    -0.2820  -0.1971  -0.1464  -0.1334  -0.1235  -0.0327   0.0252   0.0368
     0.1114   0.1570   0.1737   0.1789   0.2929   0.3069   0.3731   0.4219
     0.4516   0.5204   0.5685   0.5731   0.5831   0.6179   0.6196   0.7108
     0.7322   0.7407   0.8152   0.9606   1.1807   1.2369   1.2446   1.5783
     1.5808   1.6717   1.8556   2.2477   2.2958   3.7273   3.7994   3.8728
     3.8795   3.9045   3.9651   4.2038   4.2077   4.2311   4.2328   4.2616

[...]

          k = 0.0380-0.0419 0.0000 ( 17876 PWs)   bands (ev):

[...]

          k =-0.0760-0.0000 0.0000 ( 17886 PWs)   bands (ev):

[...]

          k =-0.0760-0.0839 0.0000 ( 17948 PWs)   bands (ev):

   -55.3550 -55.3518 -55.3064 -55.3059 -55.2374 -55.2331 -55.2277 -55.2147
   -55.1766 -55.1726 -55.1704 -55.1361 -55.1356 -55.0904 -54.3339 -54.3337
   -31.7440 -31.7415 -31.7256 -31.6471 -31.6307 -31.6304 -31.6253 -31.5976
   -31.5974 -31.5780 -31.5715 -31.5670 -31.5585 -31.5107 -31.5057 -31.5037
   -31.5024 -31.5022 -31.4962 -31.4914 -31.4693 -31.4658 -31.4452 -31.4436
   -31.4423 -31.4377 -31.4265 -31.4260 -31.4256 -31.4200 -31.4054 -31.4035
   -31.4000 -31.3858 -31.3833 -31.3676 -31.3652 -31.3649 -31.3166 -31.3164
   -31.3034 -31.2944 -30.6568 -30.6567 -30.5727 -30.5725 -30.5333 -30.5332
   -16.9888 -15.6985 -15.5965 -15.5779 -15.3860 -15.3696 -15.3381 -15.3340
   -15.1823 -15.1529 -15.1453 -15.1279 -15.0795 -15.0714 -15.0659 -15.0543
   -14.9751 -14.9641 -14.9620 -14.9449 -14.8839 -14.8739 -14.8710 -14.8612
   -14.8593 -14.8187 -14.8151 -14.7213 -14.7184 -14.6334 -14.5260 -12.8377
   -12.8377  -8.1823  -4.9817  -4.8731  -4.3218  -2.9967  -2.8955  -2.8542
    -2.8421  -2.8029  -2.5980  -2.5657  -2.5373  -2.4804  -2.4129  -2.3714
    -2.3609  -2.3410  -2.2814  -2.2329  -2.2282  -2.2102  -2.1901  -2.1883
    -2.1647  -2.1374  -2.0972  -2.0871  -2.0680  -2.0498  -2.0211  -2.0017
    -1.9732  -1.9547  -1.9326  -1.9260  -1.8169  -1.8030  -1.7266  -1.6924
    -1.6365  -1.5732  -1.5681  -1.4708  -1.4635  -1.4067  -1.3973  -1.3804
    -1.2615  -1.1759  -1.1217  -1.1108  -1.1032  -0.9918  -0.9416  -0.9113
    -0.8768  -0.8536  -0.7754  -0.7122  -0.6921  -0.6517  -0.5761  -0.5660
    -0.5065  -0.3933  -0.3635  -0.3429  -0.3256  -0.3200  -0.2663  -0.2545
    -0.1817  -0.1356  -0.1017  -0.0913  -0.0580  -0.0250   0.1552   0.1673
     0.2079   0.3227   0.3826   0.4962   0.5710   0.5855   0.6653   0.6999
     0.7434   0.8039   0.8953   0.9366   0.9411   1.0199   1.0455   1.0880
     1.0961   2.0288   2.0291   2.1157   2.1159   3.8653   3.9789   3.9885
     4.0351   4.1350   4.1599   4.2468   4.2658   4.3126   4.3144   4.3823

     the Fermi energy is     3.7900 ev

!    total energy              =   -2940.42013283 Ry
     estimated scf accuracy    <       0.00000006 Ry
     smearing contrib. (-TS)   =      -0.03734217 Ry
     internal energy E=F+TS    =   -2940.38279067 Ry

     The total energy is F=E-TS. E is the sum of the following terms:
     one-electron contribution =  -23617.26801421 Ry
     hartree contribution      =   11900.46758977 Ry
     xc contribution           =    -485.96983209 Ry
     ewald contribution        =    9262.38424147 Ry
     electric field correction =       0.00322440 Ry

     convergence has been achieved in  84 iterations

     Forces acting on atoms (cartesian axes, Ry/au):

     atom    1 type  1   force =     0.00013841   -0.00014914    0.09349708
     atom    2 type  1   force =    -0.00005327   -0.00032380   -0.17806224
     atom    3 type  2   force =     0.00009473   -0.00033172   -0.02051871
     atom    4 type  2   force =     0.00002592   -0.00189792    0.05839811
     atom    5 type  2   force =    -0.01038300   -0.00109129    0.00771902
     atom    6 type  2   force =     0.01183723   -0.00048061    0.00667331
     atom    7 type  1   force =    -0.00029180    0.00214216   -0.01418569
     atom    8 type  1   force =     0.00032899    0.00049219   -0.00326055
     atom    9 type  2   force =    -0.00006698    0.00009089   -0.00001183
     atom   10 type  2   force =    -0.00246776    0.00082425    0.00005665
     atom   11 type  2   force =    -0.00017450   -0.00028745    0.00028485
     atom   12 type  2   force =    -0.00012143   -0.00014080   -0.00057699
     atom   13 type  1   force =    -0.00001661   -0.00006846   -0.00001836
     atom   14 type  1   force =     0.00008951    0.00018451    0.00005767
     atom   15 type  2   force =     0.00029715    0.00005018   -0.00026096
     atom   16 type  2   force =     0.00028053   -0.00000984   -0.00004978
     atom   17 type  2   force =     0.00017078   -0.00015685   -0.00050045
     atom   18 type  2   force =     0.00023226    0.00034706   -0.00011342
     atom   19 type  1   force =    -0.00003820   -0.00000089   -0.00007855
     atom   20 type  1   force =    -0.00059450    0.00030994   -0.00019846
     atom   21 type  2   force =     0.00010118    0.00000322    0.10391278
     atom   22 type  2   force =     0.00040175    0.00041368    0.00000173
     atom   23 type  2   force =    -0.07037763   -0.00011156   -0.02692383
     atom   24 type  2   force =     0.07035609    0.00035469   -0.02697136
     atom   25 type  1   force =     0.00019996   -0.00015864    0.09278599
     atom   26 type  1   force =    -0.00009608   -0.00030071   -0.17826698
     atom   27 type  2   force =     0.00012864   -0.00023904   -0.01951540
     atom   28 type  2   force =     0.00007434   -0.00167673    0.05797962
     atom   29 type  2   force =    -0.01079665   -0.00122056    0.00799129
     atom   30 type  2   force =     0.01213888   -0.00083550    0.00703075
     atom   31 type  1   force =    -0.00034874    0.00574132   -0.01494054
     atom   32 type  1   force =     0.00039135   -0.00106213   -0.00338491
     atom   33 type  2   force =    -0.00030862    0.00005659   -0.00019745
     atom   34 type  2   force =    -0.00155437   -0.00230079    0.00038212
     atom   35 type  2   force =    -0.00007832    0.00014001   -0.00004823
     atom   36 type  2   force =     0.00009780    0.00010582    0.00010827
     atom   37 type  1   force =     0.00024862   -0.00002613   -0.00005209
     atom   38 type  1   force =     0.00004766    0.00013302   -0.00017153
     atom   39 type  2   force =     0.00010032    0.00018134    0.00007893
     atom   40 type  2   force =     0.00014355    0.00001910   -0.00003325
     atom   41 type  2   force =    -0.00003055    0.00018637    0.00003176
     atom   42 type  2   force =     0.00039013    0.00001007    0.00022231
     atom   43 type  1   force =    -0.00028924    0.00027008    0.00033580
     atom   44 type  1   force =    -0.00023976   -0.00023106   -0.00013704
     atom   45 type  2   force =     0.00009756   -0.00002125    0.10384314
     atom   46 type  2   force =    -0.07037380   -0.00004916   -0.02690404
     atom   47 type  2   force =     0.07033052    0.00036549   -0.02693295
     atom   48 type  3   force =    -0.00101216    0.00061206   -0.00004372
     atom   49 type  4   force =     0.00060709    0.00037086    0.00010641
     atom   50 type  5   force =     0.00021419   -0.00039600   -0.00008016
     atom   51 type  3   force =    -0.00597410   -0.00432700   -0.00464887
     atom   52 type  5   force =     0.00006650   -0.00068636   -0.00070287
     atom   53 type  5   force =     0.00513781    0.00605522    0.00420072
     atom   54 type  5   force =     0.00091860   -0.00087873    0.00209291

     Total force =     0.366203     Total SCF correction =     0.000701
  @ DRIVER MODE: Message from server: STATUS
  @ DRIVER MODE: Message from server: GETFORCE
  @ DRIVER MODE: Returning v,forces,stress,ensemble

     Writing output data file ./calc.save/
  @ DRIVER MODE: Message from server: EXIT
  @ DRIVE MODE: Exiting

     General routines

     Parallel routines

   This run was terminated on:   5:54:45  24Aug2021

   JOB DONE.