     Program PWSCF v.6.7GPU starts on 15Jul2021 at 17:57: 4

     R & G space division:  proc/nbgrp/npool/nimage =      16
     Reading input from /storage/home/hcoda1/3/ntian30/research/carbon/15Jul_vib/ads_slab/CH3NNH3_a/out_0003/pw.inp
Warning: card &CELL ignored
Warning: card   CELL_DYNAMICS='IPI', ignored
Warning: card / ignored

     Current dimensions of program PWSCF are:
     Max number of different atomic species (ntypx) = 10
     Max number of k-points (npk) =  40000
     Max angular momentum in pseudopotentials (lmaxx) =  3
     Presently no symmetry can be used with electric field

     Message from routine cell_base_init:
     DEPRECATED: use true lattice parameter, not A to a.u. conversion factor

     IMPORTANT: XC functional enforced from input :
     Exchange-correlation= BEEF-VDW
                           (   1   4  43  14   2   0   0)
     Any further DFT definition will be discarded
     Please, verify this is what you really want

  @ DRIVER MODE: Connecting to
 qe_1139763_2351650.sched-torque.pace.gatech.eduo3l6nko6_scratch
  using UNIX socket
  @ DRIVER MODE: Message from server: STATUS
  @ DRIVER MODE: Message from server: INIT
  @ DRIVER MODE: Receiving replica           0          -1
  @ DRIVER MODE: Receiving encoded integer          25
  @ DRIVER MODE:  SCF:  T  FORCE:  T  STRESS:  F  VC:  F  ENSEMBLE:  F
  @ DRIVER MODE:  SCF:  T  FORCE:  T  STRESS:  F  VC:  F  ENSEMBLE:  F

     Using Slab Decomposition

     bravais-lattice index     =            0
     lattice parameter (alat)  =       1.8897  a.u.
     unit-cell volume          =    6658.9804 (a.u.)^3
     number of atoms/cell      =           56
     number of atomic types    =            5
     number of electrons       =       398.00
     number of Kohn-Sham states=          209
     kinetic-energy cutoff     =      29.3995  Ry
     charge density cutoff     =     293.9946  Ry
     scf convergence threshold =      7.3E-08
     mixing beta               =       0.0500
     number of iterations used =            8  plain     mixing
     Exchange-correlation= BEEF-VDW
                           (   1   4  43  14   2   0   0)

     celldm(1)=   1.889726  celldm(2)=   0.000000  celldm(3)=   0.000000
     celldm(4)=   0.000000  celldm(5)=   0.000000  celldm(6)=   0.000000

     crystal axes: (cart. coord. in units of alat)
               a(1) = (   6.579727   0.000000   0.000000 )
               a(2) = (  -0.000775   5.961596   0.000000 )
               a(3) = (   0.000000   0.000000  25.155947 )

     reciprocal axes: (cart. coord. in units 2 pi/alat)
               b(1) = (  0.151982  0.000020  0.000000 )
               b(2) = (  0.000000  0.167740  0.000000 )
               b(3) = (  0.000000  0.000000  0.039752 )

     PseudoPot. # 1 for Ti read from file:
     /storage/coda1/p-amedford6/0/shared/rich_project_chbe-medford/medford-share/data/pseudos_module/espresso/nninc/pbe/van/Ti.UPF
     MD5 check sum: 8e4df49b7f0d34bbd5052bf3f5ea0213
     Pseudo is Ultrasoft, Zval = 12.0
     Generated by new atomic code, or converted to UPF format
     Using radial grid of  851 points,  6 beta functions with:
                l(1) =   0
                l(2) =   0
                l(3) =   1
                l(4) =   1
                l(5) =   2
                l(6) =   2
     Q(r) pseudized with  8 coefficients,  rinner =    1.000   1.000   1.000
                                                       1.000   1.000

     PseudoPot. # 2 for O  read from file:
     /storage/coda1/p-amedford6/0/shared/rich_project_chbe-medford/medford-share/data/pseudos_module/espresso/nninc/pbe/van/O.UPF
     MD5 check sum: 78c19812648e8988a0fe644b0f25305e
     Pseudo is Ultrasoft, Zval =  6.0
     Generated by new atomic code, or converted to UPF format
     Using radial grid of  737 points,  4 beta functions with:
                l(1) =   0
                l(2) =   0
                l(3) =   1
                l(4) =   1
     Q(r) pseudized with  8 coefficients,  rinner =    0.800   0.800   0.800

     PseudoPot. # 3 for N  read from file:
     /storage/coda1/p-amedford6/0/shared/rich_project_chbe-medford/medford-share/data/pseudos_module/espresso/nninc/pbe/van/N.UPF
     MD5 check sum: 90d10febe142ad51ac9d5be1deb811c4
     Pseudo is Ultrasoft, Zval =  5.0
     Generated by new atomic code, or converted to UPF format
     Using radial grid of  729 points,  4 beta functions with:
                l(1) =   0
                l(2) =   0
                l(3) =   1
                l(4) =   1
     Q(r) pseudized with  8 coefficients,  rinner =    0.800   0.800   0.800

     PseudoPot. # 4 for C  read from file:
     /storage/coda1/p-amedford6/0/shared/rich_project_chbe-medford/medford-share/data/pseudos_module/espresso/nninc/pbe/van/C.UPF
     MD5 check sum: 1a69bf6b8db32088f5b2163dbdb77a27
     Pseudo is Ultrasoft, Zval =  4.0
     Generated by new atomic code, or converted to UPF format
     Using radial grid of  721 points,  4 beta functions with:
                l(1) =   0
                l(2) =   0
                l(3) =   1
                l(4) =   1
     Q(r) pseudized with  8 coefficients,  rinner =    0.800   0.800   0.800

     PseudoPot. # 5 for H  read from file:
     /storage/coda1/p-amedford6/0/shared/rich_project_chbe-medford/medford-share/data/pseudos_module/espresso/nninc/pbe/van/H.UPF
     MD5 check sum: b5ee9d7bfd3a09ee7748110bda690ff7
     Pseudo is Ultrasoft, Zval =  1.0
     Generated by new atomic code, or converted to UPF format
     Using radial grid of  615 points,  1 beta functions with:
                l(1) =   0
     Q(r) pseudized with  8 coefficients,  rinner =    0.800

     atomic species   valence    mass     pseudopotential
        Ti1           12.00    47.86700     Ti( 1.00)
        O1             6.00    15.99900     O ( 1.00)
        N1             5.00    14.00700     N ( 1.00)
        C1             4.00    12.01100     C ( 1.00)
        H1             1.00     1.00800     H ( 1.00)

     Starting magnetic structure
     atomic species   magnetization
        Ti1          0.000
        O1           0.000
        N1           0.000
        C1           0.025
        H1           0.000

     No symmetry found

   Cartesian axes

     site n.     atom                  positions (alat units)
         1           Ti1 tau(   1) = (   0.0004258   2.9801865   6.0000000  )
         2           Ti1 tau(   2) = (   3.2906075   1.4906267   6.0002472  )
         3           O1  tau(   3) = (   0.0006271   0.0005054   7.9858123  )
         4           O1  tau(   4) = (   3.2906025   0.0005020   7.3038282  )
         5           O1  tau(   5) = (   4.5942328   1.4918067   9.2879030  )
         6           O1  tau(   6) = (   1.9868534   1.4903216   9.2879459  )
         7           Ti1 tau(   7) = (   3.2907910   2.8959150   9.1758416  )
         8           Ti1 tau(   8) = (   0.0015273   1.4827037   9.2680791  )
         9           O1  tau(   9) = (   3.3019049   5.9598586  11.2958584  )
        10           O1  tau(  10) = (   0.0116148   5.9584955  10.6183126  )
        11           O1  tau(  11) = (   1.3346742   1.4914638  12.6145280  )
        12           O1  tau(  12) = (   5.3113054   1.4894223  12.6320738  )
        13           Ti1 tau(  13) = (   6.4919192   2.9607050  12.7581921  )
        14           Ti1 tau(  14) = (   3.1808934   1.4809541  12.4628303  )
        15           O1  tau(  15) = (   0.0259758   5.9327586  14.5948705  )
        16           O1  tau(  16) = (   3.3179433   0.0111293  13.8771559  )
        17           O1  tau(  17) = (   4.5450242   1.5254396  16.0425357  )
        18           O1  tau(  18) = (   2.0945915   1.5254857  16.0466093  )
        19           Ti1 tau(  19) = (   3.3175380   3.0118254  15.6854273  )
        20           Ti1 tau(  20) = (   0.0287691   1.6153805  16.0968480  )
        21           O1  tau(  21) = (   3.2904802   0.0005063   4.7018136  )
        22           O1  tau(  22) = (   0.0272082   0.0527987  17.2096484  )
        23           O1  tau(  23) = (   1.3043587   1.4918075   6.0039043  )
        24           O1  tau(  24) = (   5.2767064   1.4903225   6.0039473  )
        25           Ti1 tau(  25) = (   0.0000382   5.9609847   6.0000000  )
        26           Ti1 tau(  26) = (   3.2902200   4.4714249   6.0002472  )
        27           O1  tau(  27) = (   0.0002396   2.9813036   7.9858123  )
        28           O1  tau(  28) = (   3.2902150   2.9813002   7.3038282  )
        29           O1  tau(  29) = (   4.5938453   4.4726049   9.2879030  )
        30           O1  tau(  30) = (   1.9864658   4.4711199   9.2879459  )
        31           Ti1 tau(  31) = (   3.2891106   5.8743827   9.1763621  )
        32           Ti1 tau(  32) = (   0.0006254   4.4649316   9.2693709  )
        33           O1  tau(  33) = (   3.3007599   2.9794320  11.2948048  )
        34           O1  tau(  34) = (   0.0092240   2.9805883  10.6323155  )
        35           O1  tau(  35) = (   1.3367187   4.4652043  12.6121808  )
        36           O1  tau(  36) = (   5.3110114   4.4536366  12.6300246  )
        37           Ti1 tau(  37) = (   6.5175235   5.9394146  12.7678677  )
        38           Ti1 tau(  38) = (   3.1810223   4.4618757  12.4682998  )
        39           O1  tau(  39) = (   0.0141956   2.9656780  14.6533049  )
        40           O1  tau(  40) = (   3.3125561   2.9946134  13.8784269  )
        41           O1  tau(  41) = (   4.5469694   4.5079638  16.0550352  )
        42           O1  tau(  42) = (   2.0896055   4.5089645  16.0567747  )
        43           Ti1 tau(  43) = (   3.3249511   0.0336637  15.6879192  )
        44           Ti1 tau(  44) = (   0.0309337   4.5948497  16.1324869  )
        45           O1  tau(  45) = (   3.2900926   2.9813045   4.7018136  )
        46           O1  tau(  46) = (   1.3039711   4.4726057   6.0039043  )
        47           O1  tau(  47) = (   5.2763189   4.4711207   6.0039473  )
        48           N1  tau(  48) = (   0.0510883   3.0000077  17.3315927  )
        49           C1  tau(  49) = (   0.2149723   3.0659314  18.7643681  )
        50           H1  tau(  50) = (   6.1109748   3.7957518  19.2115106  )
        51           H1  tau(  51) = (   0.0391147   2.0919789  19.2277120  )
        52           H1  tau(  52) = (   1.2341903   3.3897193  19.0223879  )
        53           N1  tau(  53) = (   4.7717085   1.8344328  21.5424420  )
        54           H1  tau(  54) = (   4.4711387   2.7986659  21.4441960  )
        55           H1  tau(  55) = (   4.1840297   1.2822813  20.9257432  )
        56           H1  tau(  56) = (   4.5427024   1.5537098  22.4892962  )

     number of k points=    10  Fermi-Dirac smearing, width (Ry)=  0.0073
                       cart. coord. in units 2pi/alat
        k(    1) = (   0.0000000   0.0000000   0.0000000), wk =   0.0625000
        k(    2) = (   0.0000000   0.0419351   0.0000000), wk =   0.1250000
        k(    3) = (   0.0000000  -0.0838702   0.0000000), wk =   0.0625000
        k(    4) = (   0.0379955   0.0000049   0.0000000), wk =   0.1250000
        k(    5) = (   0.0379955   0.0419400   0.0000000), wk =   0.1250000
[...]
     % Please cite the following two papers that made this development      %
     % possible and the two reviews that describe the various versions:     %
     %                                                                      %
     %   T. Thonhauser et al., PRL 115, 136402 (2015).                      %
     %   T. Thonhauser et al., PRB 76, 125112 (2007).                       %
     %   K. Berland et al., Rep. Prog. Phys. 78, 066501 (2015).             %
     %   D.C. Langreth et al., J. Phys.: Condens. Matter 21, 084203 (2009). %
     %                                                                      %
     %                                                                      %
     % If you are calculating the stress with vdW-DF, please also cite:     %
     %                                                                      %
     %   R. Sabatini et al., J. Phys.: Condens. Matter 24, 424209 (2012).   %
     %                                                                      %
     %%%%%%%%%%%%%%%%%%%%%%%%%%%%%%%%%%%%%%%%%%%%%%%%%%%%%%%%%%%%%%%%%%%%%%%%

     Adding external electric field

     Computed dipole along edir(3) :
        Dipole              -11.2917 Ry au,        -28.7007 Debye
        Dipole field         -0.0213 Ry au,

        Potential amp.        1.9753 Ry
        Total length         46.3494 bohr

[...]

     Starting wfcs are  302 atomic wfcs
  @ DRIVER MODE: Message from server: STATUS
  @ DRIVER MODE: Message from server: POSDATA
  @ DRIVER MODE: Reading and sharing cell
  @ DRIVER MODE: Reading and sharing positions
  @ DRIVER MODE: Received positions

     Self-consistent Calculation

     iteration #  1     ecut=    29.40 Ry     beta= 0.05
     Davidson diagonalization with overlap
     c_bands:  1 eigenvalues not converged
     c_bands:  1 eigenvalues not converged
     c_bands:  2 eigenvalues not converged
     c_bands:  1 eigenvalues not converged
     c_bands:  1 eigenvalues not converged
     c_bands:  1 eigenvalues not converged
     c_bands:  2 eigenvalues not converged
     c_bands:  2 eigenvalues not converged
     c_bands:  1 eigenvalues not converged
     c_bands:  1 eigenvalues not converged
     c_bands:  2 eigenvalues not converged
     c_bands:  1 eigenvalues not converged
     c_bands:  1 eigenvalues not converged
     c_bands:  1 eigenvalues not converged
     c_bands:  2 eigenvalues not converged
     c_bands:  2 eigenvalues not converged
     ethr =  1.00E-05,  avg # of iterations = 19.6

[...]

     total energy              =   -2520.82301142 Ry
     estimated scf accuracy    <    4704.43050679 Ry

     total magnetization       =     0.00 Bohr mag/cell
     absolute magnetization    =     0.01 Bohr mag/cell

     iteration #  2     ecut=    29.40 Ry     beta= 0.05
     Davidson diagonalization with overlap
     ethr =  1.00E-02,  avg # of iterations = 21.7

[...]

     iteration # 36     ecut=    29.40 Ry     beta= 0.05
     Davidson diagonalization with overlap
     c_bands:  2 eigenvalues not converged
     c_bands:  2 eigenvalues not converged
     c_bands:  2 eigenvalues not converged
     ethr =  2.11E-06,  avg # of iterations = 15.0

[...]

     total energy              =   -2942.90773369 Ry
     estimated scf accuracy    <       0.00000021 Ry

[...]

     iteration # 80     ecut=    29.40 Ry     beta= 0.05
     Davidson diagonalization with overlap
     ethr =  3.38E-11,  avg # of iterations =  6.7

     negative rho (up, down):  5.681E-03 5.681E-03

[...]

     Adding external electric field

     Computed dipole along edir(3) :
        Dipole                0.4184 Ry au,          1.0634 Debye
        Dipole field          0.0008 Ry au,

        Potential amp.       -0.0732 Ry
        Total length         46.3494 bohr

     Magnetic moment per site  (integrated on atomic sphere of radius R)
     atom   1 (R=0.735)  charge=  8.0052  magn= -0.0002
     atom   2 (R=0.735)  charge=  8.0011  magn=  0.0000
     atom   3 (R=0.735)  charge=  4.9958  magn=  0.0000
     atom   4 (R=0.735)  charge=  5.0345  magn=  0.0000
     atom   5 (R=0.735)  charge=  4.9982  magn= -0.0000
     atom   6 (R=0.735)  charge=  4.9994  magn= -0.0000
     atom   7 (R=0.735)  charge=  7.9947  magn= -0.0000
     atom   8 (R=0.735)  charge=  7.9823  magn= -0.0000
     atom   9 (R=0.735)  charge=  5.0128  magn=  0.0000
     atom  10 (R=0.735)  charge=  4.9434  magn=  0.0000
     atom  11 (R=0.735)  charge=  4.9999  magn=  0.0000
     atom  12 (R=0.735)  charge=  5.0035  magn=  0.0000
     atom  13 (R=0.735)  charge=  7.9933  magn= -0.0000
     atom  14 (R=0.735)  charge=  8.0007  magn= -0.0000
     atom  15 (R=0.735)  charge=  4.9893  magn=  0.0000
     atom  16 (R=0.735)  charge=  5.0146  magn=  0.0000
     atom  17 (R=0.735)  charge=  4.9900  magn=  0.0000
     atom  18 (R=0.735)  charge=  4.9888  magn=  0.0000
     atom  19 (R=0.735)  charge=  8.0209  magn= -0.0000
     atom  20 (R=0.735)  charge=  8.0258  magn= -0.0001
     atom  21 (R=0.735)  charge=  4.8827  magn= -0.0000
     atom  22 (R=0.735)  charge=  4.9719  magn=  0.0000
     atom  23 (R=0.735)  charge=  4.9884  magn=  0.0001
     atom  24 (R=0.735)  charge=  4.9885  magn=  0.0001
     atom  25 (R=0.735)  charge=  8.0053  magn= -0.0002
     atom  26 (R=0.735)  charge=  8.0012  magn=  0.0000
     atom  27 (R=0.735)  charge=  4.9957  magn=  0.0000
     atom  28 (R=0.735)  charge=  5.0347  magn=  0.0000
     atom  29 (R=0.735)  charge=  4.9989  magn= -0.0000
     atom  30 (R=0.735)  charge=  5.0001  magn= -0.0000
     atom  31 (R=0.735)  charge=  7.9947  magn= -0.0000
     atom  32 (R=0.735)  charge=  7.9826  magn= -0.0000
     atom  33 (R=0.735)  charge=  5.0125  magn=  0.0000
     atom  34 (R=0.735)  charge=  4.9424  magn=  0.0000
     atom  35 (R=0.735)  charge=  5.0006  magn=  0.0000
     atom  36 (R=0.735)  charge=  5.0043  magn=  0.0000
     atom  37 (R=0.735)  charge=  7.9990  magn= -0.0000
     atom  38 (R=0.735)  charge=  8.0004  magn= -0.0000
     atom  39 (R=0.735)  charge=  4.9853  magn=  0.0000
     atom  40 (R=0.735)  charge=  5.0160  magn=  0.0000
     atom  41 (R=0.735)  charge=  4.9884  magn=  0.0000
     atom  42 (R=0.735)  charge=  4.9879  magn=  0.0000
     atom  43 (R=0.735)  charge=  8.0214  magn= -0.0000
     atom  44 (R=0.735)  charge=  8.0209  magn= -0.0000
     atom  45 (R=0.735)  charge=  4.8827  magn= -0.0000
     atom  46 (R=0.735)  charge=  4.9884  magn=  0.0001
     atom  47 (R=0.735)  charge=  4.9885  magn=  0.0001
     atom  48 (R=0.418)  charge=  1.3139  magn=  0.0001
     atom  49 (R=0.451)  charge=  0.8533  magn= -0.0000
     atom  50 (R=0.418)  charge=  0.4371  magn=  0.0000
     atom  51 (R=0.418)  charge=  0.4391  magn=  0.0000
     atom  52 (R=0.418)  charge=  0.4339  magn=  0.0000
     atom  53 (R=0.418)  charge=  1.3298  magn=  0.0000
     atom  54 (R=0.418)  charge=  0.4522  magn= -0.0000
     atom  55 (R=0.418)  charge=  0.4511  magn= -0.0000
     atom  56 (R=0.418)  charge=  0.4538  magn=  0.0000

     End of self-consistent calculation

 ------ SPIN UP ------------

          k = 0.0000 0.0000 0.0000 ( 18029 PWs)   bands (ev):

   -56.6326 -56.5990 -55.7563 -55.7443 -55.7213 -55.7114 -55.6092 -55.5739
   -55.3910 -55.3552 -55.2982 -55.2890 -55.2642 -55.1933 -54.7412 -54.5913
   -33.0605 -32.9072 -32.8791 -32.8084 -32.7173 -32.6865 -32.2269 -32.2207
   -32.1519 -32.0402 -31.9939 -31.9699 -31.9514 -31.9302 -31.8965 -31.8920
   -31.8893 -31.8852 -31.8596 -31.8547 -31.8455 -31.8167 -31.7919 -31.7768
   -31.7638 -31.7455 -31.7355 -31.7107 -31.6903 -31.6365 -31.6217 -31.6123
   -31.5321 -31.5292 -31.5089 -31.4645 -31.4569 -31.4254 -31.4210 -31.3972
   -31.3737 -31.3146 -31.2321 -30.9831 -30.9723 -30.8588 -30.8136 -30.7356
   -16.7976 -16.3641 -16.1330 -15.9958 -15.9289 -15.8739 -15.8305 -15.7017
   -15.6357 -15.6285 -15.5877 -15.5570 -15.4863 -15.3474 -15.2488 -15.1948
   -15.1501 -15.0295 -14.9701 -14.9358 -14.9248 -14.8811 -14.8715 -14.6793
   -14.6571 -14.5637 -14.5403 -14.4217 -14.1838 -13.7963 -13.7025 -13.6862
   -12.7958  -7.4980  -4.3629  -3.8601  -3.7693  -3.7445  -3.6207  -3.5351
    -3.4271  -3.4145  -3.3250  -3.2141  -3.1689  -3.1216  -3.0053  -3.0026
    -2.8555  -2.8118  -2.8087  -2.8059  -2.7589  -2.6957  -2.6681  -2.6402
    -2.6320  -2.5958  -2.4747  -2.3800  -2.3065  -2.2848  -2.2781  -2.2434
    -2.1669  -2.1377  -2.1307  -2.1271  -2.0170  -1.8756  -1.8657  -1.8427
    -1.8012  -1.7981  -1.7544  -1.7387  -1.6222  -1.5324  -1.4321  -1.4138
    -1.3700  -1.3143  -1.3072  -1.2203  -1.1379  -1.0475  -1.0430  -0.9377
    -0.8887  -0.8710  -0.7798  -0.7211  -0.6825  -0.6551  -0.6435  -0.5430
    -0.5230  -0.5103  -0.4264  -0.4145  -0.3665  -0.2771  -0.2544  -0.2459
    -0.1630  -0.1603  -0.0642  -0.0237   0.0173   0.0523   0.1688   0.1864
     0.2834   0.3124   0.3401   0.4522   0.4700   0.5345   0.6101   0.6712
     0.6991   0.7238   0.7546   0.7734   0.8505   0.9606   0.9680   1.0727
     1.1049   1.2765   1.3154   1.3909   1.6033   1.6348   2.3014   2.6421
     2.8017   3.1000   3.2882   3.4014   3.6167   3.6325   3.6375   3.8089
     3.8604

[...]

          k =-0.0760-0.0000 0.0000 ( 17886 PWs)   bands (ev):

[...]

 ------ SPIN DOWN ----------

[...]

          k = 0.0380-0.0419 0.0000 ( 17876 PWs)   bands (ev):

[...]

          k =-0.0760-0.0839 0.0000 ( 17948 PWs)   bands (ev):

   -56.6165 -56.6162 -55.7412 -55.7353 -55.7285 -55.7280 -55.5920 -55.5910
   -55.3772 -55.3689 -55.2857 -55.2812 -55.2811 -55.1966 -54.7391 -54.5935
   -32.8937 -32.8934 -32.8778 -32.8776 -32.7621 -32.7619 -32.0568 -32.0544
   -32.0453 -32.0386 -31.9850 -31.9840 -31.9409 -31.9404 -31.9394 -31.9383
   -31.9306 -31.9277 -31.9254 -31.9238 -31.8444 -31.8424 -31.7933 -31.7906
   -31.7280 -31.7177 -31.6588 -31.6509 -31.6253 -31.6253 -31.6152 -31.5756
   -31.5714 -31.5442 -31.5101 -31.5065 -31.5064 -31.4674 -31.4674 -31.4597
   -31.4387 -31.3996 -31.1209 -30.9753 -30.9709 -30.9405 -30.8159 -30.7817
   -16.1461 -16.1440 -16.1112 -16.1110 -15.8423 -15.8387 -15.7948 -15.7923
   -15.6181 -15.6120 -15.4065 -15.3977 -15.3907 -15.3891 -15.2613 -15.2553
   -15.1883 -15.1786 -15.0855 -15.0815 -15.0234 -15.0168 -14.9728 -14.9531
   -14.6411 -14.6351 -14.5124 -14.4970 -14.3287 -13.7897 -13.7897 -13.7017
   -12.8118  -7.4880  -3.7766  -3.7527  -3.2450  -3.2447  -3.1807  -3.1796
    -3.0570  -3.0530  -2.9758  -2.9751  -2.8757  -2.8744  -2.7635  -2.7319
    -2.7289  -2.7272  -2.7117  -2.6604  -2.5755  -2.5708  -2.5613  -2.5478
    -2.4902  -2.4883  -2.4609  -2.3976  -2.3836  -2.3527  -2.3149  -2.2002
    -2.1903  -2.1774  -2.1455  -2.0837  -2.0771  -2.0639  -2.0213  -1.9883
    -1.9107  -1.8374  -1.8020  -1.6883  -1.6841  -1.6712  -1.6590  -1.5062
    -1.4671  -1.4353  -1.4296  -1.4217  -1.3730  -1.2806  -1.2729  -1.1401
    -1.1386  -1.0636  -0.9818  -0.9612  -0.9331  -0.8043  -0.7601  -0.7258
    -0.7182  -0.6894  -0.6690  -0.6471  -0.6034  -0.4679  -0.4574  -0.4172
    -0.3829  -0.3594  -0.3263  -0.2696  -0.1840  -0.1065  -0.1058  -0.0517
     0.0198   0.0799   0.1665   0.1759   0.1829   0.4631   0.5408   0.6312
     0.7082   0.7737   0.8385   0.8679   0.9231   0.9689   1.1029   1.1059
     1.1247   1.1250   1.1856   1.1897   1.3741   1.6430   2.1915   3.2144
     3.2147   3.2815   3.2820   3.6057   3.6114   3.7199   3.7291   3.8378
     3.8432

     the Fermi energy is     2.4813 ev

!    total energy              =   -2942.90774219 Ry
     estimated scf accuracy    <       0.00000005 Ry
     smearing contrib. (-TS)   =      -0.00484670 Ry
     internal energy E=F+TS    =   -2942.90289549 Ry

     The total energy is F=E-TS. E is the sum of the following terms:
     one-electron contribution =  -23242.43532020 Ry
     hartree contribution      =   11711.43473325 Ry
     xc contribution           =    -487.47267046 Ry
     ewald contribution        =    9075.57003160 Ry
     electric field correction =       0.00033033 Ry

     total magnetization       =    -0.00 Bohr mag/cell
     absolute magnetization    =     0.00 Bohr mag/cell

     convergence has been achieved in  80 iterations

     Forces acting on atoms (cartesian axes, Ry/au):

     atom    1 type  1   force =     0.00004272   -0.00040786    0.12411892
     atom    2 type  1   force =    -0.00010829   -0.00057126   -0.16063702
     atom    3 type  2   force =     0.00023519   -0.00026859   -0.06806472
     atom    4 type  2   force =     0.00001276   -0.00029124    0.02754850
     atom    5 type  2   force =    -0.01615166    0.00175295   -0.00937652
     atom    6 type  2   force =     0.01818365    0.00219060   -0.00900093
     atom    7 type  1   force =     0.00115369   -0.00378207    0.02180461
     atom    8 type  1   force =    -0.00057726   -0.00288796    0.11115855
     atom    9 type  2   force =    -0.00017861    0.00031214   -0.00052026
     atom   10 type  2   force =    -0.00196016    0.00128396   -0.07325266
     atom   11 type  2   force =     0.00023804   -0.00015588    0.00014958
     atom   12 type  2   force =    -0.00027616    0.00013529    0.00017624
     atom   13 type  1   force =    -0.00005992    0.00008654   -0.00003602
     atom   14 type  1   force =    -0.00057101    0.00045482    0.00048288
     atom   15 type  2   force =     0.00027436   -0.00115980    0.00066137
     atom   16 type  2   force =    -0.00048962   -0.00040681    0.00050562
     atom   17 type  2   force =    -0.00127332    0.00007181   -0.00015445
     atom   18 type  2   force =     0.00070318    0.00007769   -0.00015026
     atom   19 type  1   force =     0.00038594   -0.00139683    0.00003856
     atom   20 type  1   force =    -0.00016514   -0.00096393   -0.00179145
     atom   21 type  2   force =     0.00004977   -0.00000695    0.09969252
     atom   22 type  2   force =     0.00027349   -0.00211570   -0.00037580
     atom   23 type  2   force =    -0.07918857    0.00000076   -0.03245138
     atom   24 type  2   force =     0.07907390    0.00043816   -0.03247479
     atom   25 type  1   force =     0.00001607   -0.00040985    0.12362932
     atom   26 type  1   force =    -0.00010464   -0.00046758   -0.16076713
     atom   27 type  2   force =     0.00032933   -0.00048811   -0.06711844
     atom   28 type  2   force =     0.00002760   -0.00011938    0.02727544
     atom   29 type  2   force =    -0.01662816    0.00127704   -0.00948179
     atom   30 type  2   force =     0.01855806    0.00165536   -0.00911836
     atom   31 type  1   force =     0.00116692   -0.00138861    0.02123742
     atom   32 type  1   force =    -0.00053066    0.00032126    0.11181571
     atom   33 type  2   force =    -0.00015830   -0.00025557    0.00000430
     atom   34 type  2   force =    -0.00132136    0.00066943   -0.07279460
     atom   35 type  2   force =    -0.00076597   -0.00039401   -0.00005944
     atom   36 type  2   force =     0.00009205    0.00006286    0.00007315
     atom   37 type  1   force =     0.00002544    0.00062063    0.00012665
     atom   38 type  1   force =    -0.00020531    0.00001329   -0.00008475
     atom   39 type  2   force =     0.00012996    0.00034228    0.00029488
     atom   40 type  2   force =    -0.00018288   -0.00042375    0.00025150
     atom   41 type  2   force =     0.00067567   -0.00022073    0.00034385
     atom   42 type  2   force =    -0.00021587   -0.00011611    0.00030358
     atom   43 type  1   force =    -0.00022442    0.00066398    0.00013286
     atom   44 type  1   force =    -0.00022494    0.00040311    0.00045067
     atom   45 type  2   force =     0.00002481   -0.00003161    0.09971995
     atom   46 type  2   force =    -0.07919420    0.00005380   -0.03245154
     atom   47 type  2   force =     0.07907306    0.00047681   -0.03246565
     atom   48 type  3   force =     0.00099001    0.00658242    0.00058789
     atom   49 type  4   force =     0.00012065   -0.00206947   -0.00018928
     atom   50 type  5   force =    -0.00024534    0.00081245    0.00010153
     atom   51 type  5   force =     0.00037901    0.00074588    0.00071365
     atom   52 type  5   force =    -0.00029913   -0.00021579   -0.00034228
     atom   53 type  3   force =     0.00001936   -0.00087276   -0.00009704
     atom   54 type  5   force =    -0.00003133    0.00021049   -0.00054508
     atom   55 type  5   force =     0.00014747    0.00031601   -0.00083740
     atom   56 type  5   force =    -0.00106994   -0.00014363    0.00123932

     Total force =     0.424567     Total SCF correction =     0.000777
  @ DRIVER MODE: Message from server: STATUS
  @ DRIVER MODE: Message from server: GETFORCE
  @ DRIVER MODE: Returning v,forces,stress,ensemble

     Writing output data file ./calc.save/
  @ DRIVER MODE: Message from server: EXIT
  @ DRIVE MODE: Exiting

     General routines

     Parallel routines

   This run was terminated on:  18:31: 9  15Jul2021

   JOB DONE.