     Program PWSCF v.6.7GPU starts on 23Sep2021 at  7:28:12

     R & G space division:  proc/nbgrp/npool/nimage =       8
     Reading input from /storage/home/hcoda1/3/ntian30/research/carbon/CxH_vib/H2O_calc/ads_slab/CH3OHHO_e/out_0024/pw.inp
Warning: card &CELL ignored
Warning: card   CELL_DYNAMICS='IPI', ignored
Warning: card / ignored

     Current dimensions of program PWSCF are:
     Max number of different atomic species (ntypx) = 10
     Max number of k-points (npk) =  40000
     Max angular momentum in pseudopotentials (lmaxx) =  3
     Presently no symmetry can be used with electric field

     Message from routine cell_base_init:
     DEPRECATED: use true lattice parameter, not A to a.u. conversion factor

     IMPORTANT: XC functional enforced from input :
     Exchange-correlation= BEEF-VDW
                           (   1   4  43  14   2   0   0)
     Any further DFT definition will be discarded
     Please, verify this is what you really want

  @ DRIVER MODE: Connecting to
 qe_1139763_2941008.sched-torque.pace.gatech.eduk0fzrp6y_scratch
  using UNIX socket
  @ DRIVER MODE: Message from server: STATUS
  @ DRIVER MODE: Message from server: INIT
  @ DRIVER MODE: Receiving replica           0          -1
  @ DRIVER MODE: Receiving encoded integer          25
  @ DRIVER MODE:  SCF:  T  FORCE:  T  STRESS:  F  VC:  F  ENSEMBLE:  F
  @ DRIVER MODE:  SCF:  T  FORCE:  T  STRESS:  F  VC:  F  ENSEMBLE:  F

     Using Slab Decomposition

     bravais-lattice index     =            0
     lattice parameter (alat)  =       1.8897  a.u.
     unit-cell volume          =    6658.9804 (a.u.)^3
     number of atoms/cell      =           55
     number of atomic types    =            4
     number of electrons       =       399.00
     number of Kohn-Sham states=          209
     kinetic-energy cutoff     =      29.3995  Ry
     charge density cutoff     =     293.9946  Ry
     scf convergence threshold =      7.3E-08
     mixing beta               =       0.0500
     number of iterations used =            8  plain     mixing
     Exchange-correlation= BEEF-VDW
                           (   1   4  43  14   2   0   0)

     celldm(1)=   1.889726  celldm(2)=   0.000000  celldm(3)=   0.000000
     celldm(4)=   0.000000  celldm(5)=   0.000000  celldm(6)=   0.000000

     crystal axes: (cart. coord. in units of alat)
               a(1) = (   6.579727   0.000000   0.000000 )
               a(2) = (  -0.000775   5.961596   0.000000 )
               a(3) = (   0.000000   0.000000  25.155947 )

     reciprocal axes: (cart. coord. in units 2 pi/alat)
               b(1) = (  0.151982  0.000020  0.000000 )
               b(2) = (  0.000000  0.167740  0.000000 )
               b(3) = (  0.000000  0.000000  0.039752 )

     PseudoPot. # 1 for Ti read from file:
     /storage/coda1/p-amedford6/0/shared/rich_project_chbe-medford/medford-share/data/pseudos_module/espresso/nninc/pbe/van/Ti.UPF
     MD5 check sum: 8e4df49b7f0d34bbd5052bf3f5ea0213
     Pseudo is Ultrasoft, Zval = 12.0
     Generated by new atomic code, or converted to UPF format
     Using radial grid of  851 points,  6 beta functions with:
                l(1) =   0
                l(2) =   0
                l(3) =   1
                l(4) =   1
                l(5) =   2
                l(6) =   2
     Q(r) pseudized with  8 coefficients,  rinner =    1.000   1.000   1.000
                                                       1.000   1.000

     PseudoPot. # 2 for O  read from file:
     /storage/coda1/p-amedford6/0/shared/rich_project_chbe-medford/medford-share/data/pseudos_module/espresso/nninc/pbe/van/O.UPF
     MD5 check sum: 78c19812648e8988a0fe644b0f25305e
     Pseudo is Ultrasoft, Zval =  6.0
     Generated by new atomic code, or converted to UPF format
     Using radial grid of  737 points,  4 beta functions with:
                l(1) =   0
                l(2) =   0
                l(3) =   1
                l(4) =   1
     Q(r) pseudized with  8 coefficients,  rinner =    0.800   0.800   0.800

     PseudoPot. # 3 for C  read from file:
     /storage/coda1/p-amedford6/0/shared/rich_project_chbe-medford/medford-share/data/pseudos_module/espresso/nninc/pbe/van/C.UPF
     MD5 check sum: 1a69bf6b8db32088f5b2163dbdb77a27
     Pseudo is Ultrasoft, Zval =  4.0
     Generated by new atomic code, or converted to UPF format
     Using radial grid of  721 points,  4 beta functions with:
                l(1) =   0
                l(2) =   0
                l(3) =   1
                l(4) =   1
     Q(r) pseudized with  8 coefficients,  rinner =    0.800   0.800   0.800

     PseudoPot. # 4 for H  read from file:
     /storage/coda1/p-amedford6/0/shared/rich_project_chbe-medford/medford-share/data/pseudos_module/espresso/nninc/pbe/van/H.UPF
     MD5 check sum: b5ee9d7bfd3a09ee7748110bda690ff7
     Pseudo is Ultrasoft, Zval =  1.0
     Generated by new atomic code, or converted to UPF format
     Using radial grid of  615 points,  1 beta functions with:
                l(1) =   0
     Q(r) pseudized with  8 coefficients,  rinner =    0.800

     atomic species   valence    mass     pseudopotential
        Ti1           12.00    47.86700     Ti( 1.00)
        O1             6.00    15.99900     O ( 1.00)
        C1             4.00    12.01100     C ( 1.00)
        H1             1.00     1.00800     H ( 1.00)

     No symmetry found

   Cartesian axes

     site n.     atom                  positions (alat units)
         1           Ti1 tau(   1) = (   0.0004258   2.9801865   6.0000000  )
         2           Ti1 tau(   2) = (   3.2906075   1.4906267   6.0002472  )
         3           O1  tau(   3) = (   0.0006271   0.0005054   7.9858123  )
         4           O1  tau(   4) = (   3.2906025   0.0005020   7.3038282  )
         5           O1  tau(   5) = (   4.5942328   1.4918067   9.2879030  )
         6           O1  tau(   6) = (   1.9868534   1.4903216   9.2879459  )
         7           Ti1 tau(   7) = (   3.3364693   3.0244086   9.1899460  )
         8           Ti1 tau(   8) = (   0.0614121   1.5180315   9.2736979  )
         9           O1  tau(   9) = (   3.3192415   0.0109611  11.3574448  )
        10           O1  tau(  10) = (   0.0135824   0.0030625  10.5923660  )
        11           O1  tau(  11) = (   1.3113730   1.4888140  12.6397483  )
        12           O1  tau(  12) = (   5.3365169   1.4868518  12.6422516  )
        13           Ti1 tau(  13) = (   0.0249591   3.0356721  12.5595363  )
        14           Ti1 tau(  14) = (   3.3216347   1.5719315  12.4302660  )
        15           O1  tau(  15) = (   0.0475996   5.9320359  14.6592625  )
        16           O1  tau(  16) = (   3.3253441   5.8716044  14.0084122  )
        17           O1  tau(  17) = (   4.6294077   1.4993822  16.1384749  )
        18           O1  tau(  18) = (   2.0712093   1.5368213  16.0656395  )
        19           Ti1 tau(  19) = (   3.3420502   2.9337026  15.6791356  )
        20           Ti1 tau(  20) = (   0.0819182   1.3209985  15.9439250  )
        21           O1  tau(  21) = (   3.2904802   0.0005063   4.7018136  )
        22           O1  tau(  22) = (   0.1121901   0.0005398  17.1797988  )
        23           O1  tau(  23) = (   1.3043587   1.4918075   6.0039043  )
        24           O1  tau(  24) = (   5.2767064   1.4903225   6.0039473  )
        25           Ti1 tau(  25) = (   0.0000382   5.9609847   6.0000000  )
        26           Ti1 tau(  26) = (   3.2902200   4.4714249   6.0002472  )
        27           O1  tau(  27) = (   0.0002396   2.9813036   7.9858123  )
        28           O1  tau(  28) = (   3.2902150   2.9813002   7.3038282  )
        29           O1  tau(  29) = (   4.5938453   4.4726049   9.2879030  )
        30           O1  tau(  30) = (   1.9864658   4.4711199   9.2879459  )
        31           Ti1 tau(  31) = (   3.3365859   0.0383882   9.1683042  )
        32           Ti1 tau(  32) = (   0.0607984   4.4756772   9.2727477  )
        33           O1  tau(  33) = (   3.3154497   2.9528697  11.3100477  )
        34           O1  tau(  34) = (   0.0130381   2.9821538  10.6068333  )
        35           O1  tau(  35) = (   1.3079814   4.4632751  12.6339740  )
        36           O1  tau(  36) = (   5.3374838   4.4678533  12.6371107  )
        37           Ti1 tau(  37) = (   0.0367351   0.0553833  12.4739561  )
        38           Ti1 tau(  38) = (   3.3178111   4.6524667  12.7070490  )
        39           O1  tau(  39) = (   0.0226182   2.9861015  14.7894940  )
        40           O1  tau(  40) = (   3.3464301   2.9603322  13.9061577  )
        41           O1  tau(  41) = (   4.6320376   4.4053937  16.1659747  )
        42           O1  tau(  42) = (   2.0651706   4.3480327  16.1155179  )
        43           Ti1 tau(  43) = (   3.4032537   5.9185344  16.2710929  )
        44           Ti1 tau(  44) = (   0.0646745   4.5145260  15.8553686  )
        45           O1  tau(  45) = (   3.2900926   2.9813045   4.7018136  )
        46           O1  tau(  46) = (   1.3039711   4.4726057   6.0039043  )
        47           O1  tau(  47) = (   5.2763189   4.4711207   6.0039473  )
        48           C1  tau(  48) = (   5.9353497   3.0583042  18.8699169  )
        49           O1  tau(  49) = (   0.1856485   3.0014673  17.6677584  )
        50           H1  tau(  50) = (   4.9577780   2.6849493  18.5881267  )
        51           H1  tau(  51) = (   1.1185258   3.1466834  17.9124234  )
        52           H1  tau(  52) = (   6.3707541   2.4080388  19.6265123  )
        53           H1  tau(  53) = (   5.8722695   4.0904670  19.2075282  )
        54           O1  tau(  54) = (   3.1419305   5.9539177  18.1124628  )
        55           H1  tau(  55) = (   2.2021640   0.0520986  18.3490109  )

     number of k points=    10  Fermi-Dirac smearing, width (Ry)=  0.0073
                       cart. coord. in units 2pi/alat
        k(    1) = (   0.0000000   0.0000000   0.0000000), wk =   0.1250000
        k(    2) = (   0.0000000   0.0419351   0.0000000), wk =   0.2500000
        k(    3) = (   0.0000000  -0.0838702   0.0000000), wk =   0.1250000
        k(    4) = (   0.0379955   0.0000049   0.0000000), wk =   0.2500000
        k(    5) = (   0.0379955   0.0419400   0.0000000), wk =   0.2500000
        k(    6) = (   0.0379955  -0.0838652   0.0000000), wk =   0.2500000
        k(    7) = (   0.0379955  -0.0419301   0.0000000), wk =   0.2500000
        k(    8) = (  -0.0759910  -0.0000099   0.0000000), wk =   0.1250000
        k(    9) = (  -0.0759910   0.0419252   0.0000000), wk =   0.2500000
        k(   10) = (  -0.0759910  -0.0838800   0.0000000), wk =   0.1250000

     Initial potential from superposition of free atoms

     starting charge  382.99916, renormalised to  399.00000

     negative rho (up, down):  1.653E-02 0.000E+00

     %%%%%%%%%%%%%%%%%%%%%%%%%%%%%%%%%%%%%%%%%%%%%%%%%%%%%%%%%%%%%%%%%%%%%%%%
     %                                                                      %
     % You are using vdW-DF, which was implemented by the Thonhauser group. %
     % Please cite the following two papers that made this development      %
     % possible and the two reviews that describe the various versions:     %
     %                                                                      %
     %   T. Thonhauser et al., PRL 115, 136402 (2015).                      %
     %   T. Thonhauser et al., PRB 76, 125112 (2007).                       %
     %   K. Berland et al., Rep. Prog. Phys. 78, 066501 (2015).             %
     %   D.C. Langreth et al., J. Phys.: Condens. Matter 21, 084203 (2009). %
     %                                                                      %
     %                                                                      %
     % If you are calculating the stress with vdW-DF, please also cite:     %
     %                                                                      %
     %   R. Sabatini et al., J. Phys.: Condens. Matter 24, 424209 (2012).   %
     %                                                                      %
     %%%%%%%%%%%%%%%%%%%%%%%%%%%%%%%%%%%%%%%%%%%%%%%%%%%%%%%%%%%%%%%%%%%%%%%%

     Adding external electric field

     Computed dipole along edir(3) :
        Dipole              -10.2329 Ry au,        -26.0096 Debye
        Dipole field         -0.0193 Ry au,

        Potential amp.        1.7901 Ry
        Total length         46.3494 bohr

     Starting wfcs are  301 atomic wfcs
  @ DRIVER MODE: Message from server: STATUS
  @ DRIVER MODE: Message from server: POSDATA
  @ DRIVER MODE: Reading and sharing cell
  @ DRIVER MODE: Reading and sharing positions
  @ DRIVER MODE: Received positions

     Self-consistent Calculation

     iteration #  1     ecut=    29.40 Ry     beta= 0.05
     Davidson diagonalization with overlap
     c_bands:  3 eigenvalues not converged
     c_bands:  3 eigenvalues not converged
     c_bands:  4 eigenvalues not converged
     c_bands:  1 eigenvalues not converged
     c_bands:  5 eigenvalues not converged
     c_bands:  5 eigenvalues not converged
     c_bands:  4 eigenvalues not converged
     c_bands:  4 eigenvalues not converged
     c_bands:  4 eigenvalues not converged
     ethr =  1.00E-05,  avg # of iterations = 21.1

[...]

     total energy              =   -2463.85979732 Ry
     estimated scf accuracy    <    5598.12926812 Ry

     iteration #  2     ecut=    29.40 Ry     beta= 0.05
     Davidson diagonalization with overlap
     ethr =  1.00E-02,  avg # of iterations = 25.7

[...]

     iteration # 61     ecut=    29.40 Ry     beta= 0.05
     Davidson diagonalization with overlap
     c_bands:  1 eigenvalues not converged
     ethr =  6.58E-10,  avg # of iterations =  8.5

[...]

     total energy              =   -2966.27810823 Ry
     estimated scf accuracy    <       0.00000034 Ry

     iteration # 68     ecut=    29.40 Ry     beta= 0.05
     Davidson diagonalization with overlap
     ethr =  4.10E-11,  avg # of iterations =  9.2

     negative rho (up, down):  1.670E-02 0.000E+00

     Adding external electric field

     Computed dipole along edir(3) :
        Dipole                1.0478 Ry au,          2.6631 Debye
        Dipole field          0.0020 Ry au,

        Potential amp.       -0.1833 Ry
        Total length         46.3494 bohr

     End of self-consistent calculation

          k = 0.0000 0.0000 0.0000 ( 18029 PWs)   bands (ev):

   -55.7001 -55.6300 -55.5951 -55.5161 -55.4923 -55.4651 -55.4326 -55.4251
   -55.4216 -55.4085 -55.3962 -55.3689 -55.2831 -55.2109 -54.5881 -54.5541
   -32.1088 -32.0917 -32.0111 -32.0007 -31.9571 -31.9480 -31.9199 -31.9181
   -31.8904 -31.8737 -31.8645 -31.7922 -31.7895 -31.7835 -31.7566 -31.7386
   -31.7309 -31.7194 -31.7097 -31.6965 -31.6932 -31.6886 -31.6448 -31.6438
   -31.6423 -31.6347 -31.6298 -31.6227 -31.6110 -31.5946 -31.5897 -31.5798
   -31.5739 -31.5587 -31.5545 -31.5450 -31.5349 -31.5106 -31.4718 -31.4549
   -31.4227 -31.4153 -30.9942 -30.9083 -30.8858 -30.8112 -30.7249 -30.6133
   -20.0581 -16.5162 -16.2833 -16.1036 -15.9023 -15.8389 -15.7803 -15.5922
   -15.5167 -15.3760 -15.2315 -15.2191 -15.1639 -15.1632 -15.1548 -15.1319
   -15.1010 -15.0569 -15.0475 -15.0414 -15.0357 -14.9805 -14.9385 -14.9298
   -14.9236 -14.8828 -14.7544 -14.7143 -14.6580 -14.4873 -14.4448 -13.0877
   -12.9716 -10.9165  -6.7672  -4.9677  -4.7728  -4.0105  -3.6353  -3.5346
    -3.5167  -3.4540  -3.3982  -3.1857  -3.0679  -3.0140  -2.9015  -2.7748
    -2.7362  -2.6842  -2.6560  -2.5643  -2.5424  -2.5119  -2.4881  -2.4292
    -2.3999  -2.3916  -2.3806  -2.3077  -2.2979  -2.1676  -2.1636  -2.0910
    -2.0224  -2.0013  -1.9825  -1.9644  -1.9326  -1.9321  -1.8859  -1.8654
    -1.8439  -1.8112  -1.7404  -1.7194  -1.6588  -1.6187  -1.3846  -1.2236
    -1.2010  -1.1311  -1.1135  -1.0817  -1.0447  -1.0294  -1.0242  -0.9851
    -0.9687  -0.8605  -0.7644  -0.7524  -0.6916  -0.6525  -0.6509  -0.5172
    -0.4695  -0.3954  -0.3695  -0.3445  -0.3216  -0.2288  -0.1862  -0.1685
    -0.1051  -0.0752   0.0367   0.0761   0.0939   0.1327   0.1879   0.2563
     0.2864   0.3233   0.3312   0.3636   0.4124   0.4370   0.4699   0.4968
     0.5357   0.6405   0.6798   0.6953   0.8391   0.8404   0.9280   1.0558
     1.1036   1.3849   1.4371   1.4748   1.6299   2.0047   2.0507   3.4888
     3.6056   3.6164   3.6347   3.7051   3.7951   3.9509   3.9788   4.0501
     4.1472

[...]

          k = 0.0380-0.0419 0.0000 ( 17876 PWs)   bands (ev):

[...]

          k =-0.0760-0.0000 0.0000 ( 17886 PWs)   bands (ev):

[...]

          k =-0.0760-0.0839 0.0000 ( 17948 PWs)   bands (ev):

   -55.6994 -55.6164 -55.6085 -55.5092 -55.4875 -55.4717 -55.4264 -55.4255
   -55.4200 -55.4083 -55.3993 -55.3783 -55.2792 -55.2147 -54.5713 -54.5708
   -32.0111 -31.9521 -31.9430 -31.9281 -31.9204 -31.9172 -31.9126 -31.8987
   -31.8321 -31.8306 -31.7955 -31.7656 -31.7609 -31.7533 -31.7367 -31.7363
   -31.7313 -31.7284 -31.7261 -31.7157 -31.7134 -31.7110 -31.6989 -31.6971
   -31.6697 -31.6674 -31.6339 -31.6287 -31.6280 -31.6271 -31.6170 -31.6130
   -31.6067 -31.6046 -31.5977 -31.5966 -31.5947 -31.5582 -31.5385 -31.4761
   -31.4619 -31.4193 -30.8986 -30.8984 -30.8080 -30.8065 -30.7682 -30.7673
   -20.0544 -16.4914 -15.8992 -15.7547 -15.5922 -15.5741 -15.4964 -15.4010
   -15.3839 -15.3555 -15.3456 -15.3252 -15.2996 -15.2973 -15.2481 -15.1942
   -15.1524 -15.1295 -15.1252 -15.0792 -15.0697 -15.0662 -15.0105 -14.9979
   -14.9886 -14.9499 -14.8901 -14.8618 -14.7836 -14.7564 -14.6024 -13.0739
   -13.0732 -10.9186  -6.7685  -4.9489  -4.7655  -3.9734  -3.0489  -2.9758
    -2.9082  -2.8153  -2.7342  -2.6773  -2.6261  -2.6072  -2.5640  -2.5439
    -2.4733  -2.4394  -2.4320  -2.4104  -2.4081  -2.3816  -2.3656  -2.3530
    -2.3303  -2.3006  -2.2864  -2.2725  -2.2540  -2.2335  -2.2132  -2.1933
    -2.1806  -2.1700  -2.1504  -2.0428  -2.0190  -1.9825  -1.8290  -1.8174
    -1.7520  -1.7196  -1.6890  -1.6837  -1.6511  -1.6431  -1.6003  -1.4904
    -1.4628  -1.4153  -1.3595  -1.2675  -1.2629  -1.2153  -1.1628  -1.1234
    -1.0941  -1.0471  -1.0441  -0.9991  -0.8573  -0.8307  -0.7920  -0.6680
    -0.5956  -0.5802  -0.5661  -0.5494  -0.5231  -0.4761  -0.4707  -0.4142
    -0.3926  -0.3206  -0.3186  -0.2941  -0.2699  -0.1632  -0.0484   0.0426
     0.0775   0.1338   0.1735   0.2063   0.2893   0.3636   0.4468   0.5331
     0.5595   0.5701   0.6915   0.7184   0.7694   0.8220   0.8382   0.8979
     0.9308   0.9737   1.0019   1.7981   1.8114   1.8672   1.8720   3.6765
     3.9259   3.9779   3.9962   4.0089   4.0424   4.0627   4.1096   4.1279
     4.1528

     the Fermi energy is     3.5021 ev

!    total energy              =   -2966.27814331 Ry
     estimated scf accuracy    <       0.00000007 Ry
     smearing contrib. (-TS)   =      -0.02073027 Ry
     internal energy E=F+TS    =   -2966.25741304 Ry

     The total energy is F=E-TS. E is the sum of the following terms:
     one-electron contribution =  -24038.44751657 Ry
     hartree contribution      =   12111.76139421 Ry
     xc contribution           =    -490.94185133 Ry
     ewald contribution        =    9451.36848898 Ry
     electric field correction =       0.00207167 Ry

     convergence has been achieved in  68 iterations

     Forces acting on atoms (cartesian axes, Ry/au):

     atom    1 type  1   force =    -0.00039152    0.00005913    0.09458773
     atom    2 type  1   force =    -0.00032315    0.00498899   -0.17464899
     atom    3 type  2   force =     0.00082260   -0.00023467   -0.02593690
     atom    4 type  2   force =     0.00125490    0.00074873    0.05281535
     atom    5 type  2   force =    -0.01096820   -0.00285289    0.00049097
     atom    6 type  2   force =     0.01163183   -0.00409956    0.00186810
     atom    7 type  1   force =     0.00051858    0.00037787   -0.00017656
     atom    8 type  1   force =    -0.00044686    0.00020339    0.00075124
     atom    9 type  2   force =    -0.00044463    0.00027567   -0.00022827
     atom   10 type  2   force =     0.00031862   -0.00035094   -0.00044100
     atom   11 type  2   force =     0.00060614    0.00032176   -0.00021606
     atom   12 type  2   force =    -0.00037318   -0.00046108   -0.00036791
     atom   13 type  1   force =    -0.00129944   -0.00080502    0.00032268
     atom   14 type  1   force =     0.00029055    0.00010244    0.00058022
     atom   15 type  2   force =     0.00047679    0.00068704    0.00021925
     atom   16 type  2   force =    -0.00047787    0.00051912    0.00056400
     atom   17 type  2   force =     0.00011675    0.00034375    0.00010687
     atom   18 type  2   force =    -0.00024854   -0.00009653    0.00032386
     atom   19 type  1   force =    -0.00061812    0.00118790   -0.00016795
     atom   20 type  1   force =     0.00000425   -0.00029923   -0.00076869
     atom   21 type  2   force =    -0.00001726    0.00005466    0.10308687
     atom   22 type  2   force =    -0.00038431   -0.00057138   -0.00043374
     atom   23 type  2   force =    -0.07204715    0.00005342   -0.02790830
     atom   24 type  2   force =     0.07190586    0.00053940   -0.02801548
     atom   25 type  1   force =    -0.00043753   -0.00000304    0.10117597
     atom   26 type  1   force =    -0.00006441   -0.00461513   -0.17490858
     atom   27 type  2   force =     0.00089708    0.00114719   -0.02442805
     atom   28 type  2   force =     0.00113681    0.00015156    0.05238403
     atom   29 type  2   force =    -0.01185672    0.00306092    0.00195935
     atom   30 type  2   force =     0.01325207    0.00116069    0.00309226
     atom   31 type  1   force =     0.00058130    0.00002352   -0.00056979
     atom   32 type  1   force =    -0.00035754    0.00070008    0.00045578
     atom   33 type  2   force =    -0.00020221    0.00092654    0.00019957
     atom   34 type  2   force =     0.00014060   -0.00012766   -0.00094719
     atom   35 type  2   force =     0.00033678    0.00007579    0.00055420
     atom   36 type  2   force =     0.00009557    0.00016821    0.00049001
     atom   37 type  1   force =    -0.00145618   -0.00060828    0.00030392
     atom   38 type  1   force =     0.00077693   -0.00026733   -0.00010293
     atom   39 type  2   force =     0.00042316   -0.00021469    0.00127904
     atom   40 type  2   force =    -0.00010529    0.00035081    0.00052252
     atom   41 type  2   force =    -0.00045730   -0.00000175   -0.00063641
     atom   42 type  2   force =     0.00008002   -0.00005695   -0.00067785
     atom   43 type  1   force =    -0.00014204   -0.00033569   -0.00071807
     atom   44 type  1   force =     0.00003471   -0.00050914   -0.00108854
     atom   45 type  2   force =    -0.00001133    0.00013429    0.10266815
     atom   46 type  2   force =    -0.07202130   -0.00056608   -0.02789117
     atom   47 type  2   force =     0.07187503   -0.00007658   -0.02797418
     atom   48 type  3   force =    -0.00121930   -0.00113564   -0.00146760
     atom   49 type  2   force =     0.00432572    0.00054665    0.00215040
     atom   50 type  4   force =     0.00000761   -0.00009484    0.00013990
     atom   51 type  4   force =    -0.00408764   -0.00089334   -0.00339382
     atom   52 type  4   force =    -0.00007225   -0.00003481   -0.00003062
     atom   53 type  4   force =    -0.00082189    0.00058170   -0.00005435
     atom   54 type  2   force =     0.00102672    0.00007399    0.00079595
     atom   55 type  4   force =    -0.00158384   -0.00025295    0.00031080

     Total force =     0.364490     Total SCF correction =     0.001077
  @ DRIVER MODE: Message from server: STATUS
  @ DRIVER MODE: Message from server: GETFORCE
  @ DRIVER MODE: Returning v,forces,stress,ensemble

     Writing output data file ./calc.save/
  @ DRIVER MODE: Message from server: EXIT
  @ DRIVE MODE: Exiting

     General routines

     Parallel routines

   This run was terminated on:   7:50: 1  23Sep2021

   JOB DONE.