     Program PWSCF v.6.7GPU starts on 17Jul2021 at  9:32:42

     R & G space division:  proc/nbgrp/npool/nimage =      16
     Reading input from /storage/home/hcoda1/3/ntian30/research/carbon/15Jul_vib/ads_slab/CH3NNHHH_a/out_0050/pw.inp
Warning: card &CELL ignored
Warning: card   CELL_DYNAMICS='IPI', ignored
Warning: card / ignored

     Current dimensions of program PWSCF are:
     Max number of different atomic species (ntypx) = 10
     Max number of k-points (npk) =  40000
     Max angular momentum in pseudopotentials (lmaxx) =  3
     Presently no symmetry can be used with electric field

     Message from routine cell_base_init:
     DEPRECATED: use true lattice parameter, not A to a.u. conversion factor

     IMPORTANT: XC functional enforced from input :
     Exchange-correlation= BEEF-VDW
                           (   1   4  43  14   2   0   0)
     Any further DFT definition will be discarded
     Please, verify this is what you really want

  @ DRIVER MODE: Connecting to
 qe_1139763_2351652.sched-torque.pace.gatech.eduk05wf3lp_scratch
  using UNIX socket
  @ DRIVER MODE: Message from server: STATUS
  @ DRIVER MODE: Message from server: INIT
  @ DRIVER MODE: Receiving replica           0          -1
  @ DRIVER MODE: Receiving encoded integer          25
  @ DRIVER MODE:  SCF:  T  FORCE:  T  STRESS:  F  VC:  F  ENSEMBLE:  F
  @ DRIVER MODE:  SCF:  T  FORCE:  T  STRESS:  F  VC:  F  ENSEMBLE:  F

     Using Slab Decomposition

     bravais-lattice index     =            0
     lattice parameter (alat)  =       1.8897  a.u.
     unit-cell volume          =    6658.9804 (a.u.)^3
     number of atoms/cell      =           56
     number of atomic types    =            5
     number of electrons       =       398.00
     number of Kohn-Sham states=          209
     kinetic-energy cutoff     =      29.3995  Ry
     charge density cutoff     =     293.9946  Ry
     scf convergence threshold =      7.3E-08
     mixing beta               =       0.0500
     number of iterations used =            8  plain     mixing
     Exchange-correlation= BEEF-VDW
                           (   1   4  43  14   2   0   0)

     celldm(1)=   1.889726  celldm(2)=   0.000000  celldm(3)=   0.000000
     celldm(4)=   0.000000  celldm(5)=   0.000000  celldm(6)=   0.000000

     crystal axes: (cart. coord. in units of alat)
               a(1) = (   6.579727   0.000000   0.000000 )
               a(2) = (  -0.000775   5.961596   0.000000 )
               a(3) = (   0.000000   0.000000  25.155947 )

     reciprocal axes: (cart. coord. in units 2 pi/alat)
               b(1) = (  0.151982  0.000020  0.000000 )
               b(2) = (  0.000000  0.167740  0.000000 )
               b(3) = (  0.000000  0.000000  0.039752 )

     PseudoPot. # 1 for Ti read from file:
     /storage/coda1/p-amedford6/0/shared/rich_project_chbe-medford/medford-share/data/pseudos_module/espresso/nninc/pbe/van/Ti.UPF
     MD5 check sum: 8e4df49b7f0d34bbd5052bf3f5ea0213
     Pseudo is Ultrasoft, Zval = 12.0
     Generated by new atomic code, or converted to UPF format
     Using radial grid of  851 points,  6 beta functions with:
                l(1) =   0
                l(2) =   0
                l(3) =   1
                l(4) =   1
                l(5) =   2
                l(6) =   2
     Q(r) pseudized with  8 coefficients,  rinner =    1.000   1.000   1.000
                                                       1.000   1.000

     PseudoPot. # 2 for O  read from file:
     /storage/coda1/p-amedford6/0/shared/rich_project_chbe-medford/medford-share/data/pseudos_module/espresso/nninc/pbe/van/O.UPF
     MD5 check sum: 78c19812648e8988a0fe644b0f25305e
     Pseudo is Ultrasoft, Zval =  6.0
     Generated by new atomic code, or converted to UPF format
     Using radial grid of  737 points,  4 beta functions with:
                l(1) =   0
                l(2) =   0
                l(3) =   1
                l(4) =   1
     Q(r) pseudized with  8 coefficients,  rinner =    0.800   0.800   0.800

     PseudoPot. # 3 for N  read from file:
     /storage/coda1/p-amedford6/0/shared/rich_project_chbe-medford/medford-share/data/pseudos_module/espresso/nninc/pbe/van/N.UPF
     MD5 check sum: 90d10febe142ad51ac9d5be1deb811c4
     Pseudo is Ultrasoft, Zval =  5.0
     Generated by new atomic code, or converted to UPF format
     Using radial grid of  729 points,  4 beta functions with:
                l(1) =   0
                l(2) =   0
                l(3) =   1
                l(4) =   1
     Q(r) pseudized with  8 coefficients,  rinner =    0.800   0.800   0.800

     PseudoPot. # 4 for C  read from file:
     /storage/coda1/p-amedford6/0/shared/rich_project_chbe-medford/medford-share/data/pseudos_module/espresso/nninc/pbe/van/C.UPF
     MD5 check sum: 1a69bf6b8db32088f5b2163dbdb77a27
     Pseudo is Ultrasoft, Zval =  4.0
     Generated by new atomic code, or converted to UPF format
     Using radial grid of  721 points,  4 beta functions with:
                l(1) =   0
                l(2) =   0
                l(3) =   1
                l(4) =   1
     Q(r) pseudized with  8 coefficients,  rinner =    0.800   0.800   0.800

     PseudoPot. # 5 for H  read from file:
     /storage/coda1/p-amedford6/0/shared/rich_project_chbe-medford/medford-share/data/pseudos_module/espresso/nninc/pbe/van/H.UPF
     MD5 check sum: b5ee9d7bfd3a09ee7748110bda690ff7
     Pseudo is Ultrasoft, Zval =  1.0
     Generated by new atomic code, or converted to UPF format
     Using radial grid of  615 points,  1 beta functions with:
                l(1) =   0
     Q(r) pseudized with  8 coefficients,  rinner =    0.800

     atomic species   valence    mass     pseudopotential
        Ti1           12.00    47.86700     Ti( 1.00)
        O1             6.00    15.99900     O ( 1.00)
        N1             5.00    14.00700     N ( 1.00)
        C1             4.00    12.01100     C ( 1.00)
        H1             1.00     1.00800     H ( 1.00)

     Starting magnetic structure
     atomic species   magnetization
        Ti1          0.000
        O1           0.000
        N1           0.000
        C1           0.025
        H1           0.000

     No symmetry found

   Cartesian axes

     site n.     atom                  positions (alat units)
         1           Ti1 tau(   1) = (   0.0004258   2.9801865   6.0000000  )
         2           Ti1 tau(   2) = (   3.2906075   1.4906267   6.0002472  )
         3           O1  tau(   3) = (   0.0006271   0.0005054   7.9858123  )
         4           O1  tau(   4) = (   3.2906025   0.0005020   7.3038282  )
         5           O1  tau(   5) = (   4.5942328   1.4918067   9.2879030  )
         6           O1  tau(   6) = (   1.9868534   1.4903216   9.2879459  )
         7           Ti1 tau(   7) = (   3.2907910   2.8959150   9.1758416  )
         8           Ti1 tau(   8) = (   0.0015273   1.4827037   9.2680791  )
         9           O1  tau(   9) = (   3.2969863   5.9453513  11.3493076  )
        10           O1  tau(  10) = (   0.0116148   5.9584955  10.6183126  )
        11           O1  tau(  11) = (   1.3059050   1.4736943  12.6642453  )
        12           O1  tau(  12) = (   5.3003793   1.4775083  12.6459419  )
        13           Ti1 tau(  13) = (   0.0167275   2.9625105  12.5508078  )
        14           Ti1 tau(  14) = (   3.3131340   1.4712512  12.4909780  )
        15           O1  tau(  15) = (   6.5517612   5.9325698  14.7566896  )
        16           O1  tau(  16) = (   3.3302114   5.9429442  13.9823395  )
        17           O1  tau(  17) = (   4.5243935   1.5056208  16.2316672  )
        18           O1  tau(  18) = (   2.0170937   1.4633510  16.1378485  )
        19           Ti1 tau(  19) = (   3.2500237   2.9242626  15.6920970  )
        20           Ti1 tau(  20) = (   6.5441017   1.2779805  16.1516014  )
        21           O1  tau(  21) = (   3.2904802   0.0005063   4.7018136  )
        22           O1  tau(  22) = (   6.5540411   5.9581837  17.3465722  )
        23           O1  tau(  23) = (   1.3043587   1.4918075   6.0039043  )
        24           O1  tau(  24) = (   5.2767064   1.4903225   6.0039473  )
        25           Ti1 tau(  25) = (   0.0000382   5.9609847   6.0000000  )
        26           Ti1 tau(  26) = (   3.2902200   4.4714249   6.0002472  )
        27           O1  tau(  27) = (   0.0002396   2.9813036   7.9858123  )
        28           O1  tau(  28) = (   3.2902150   2.9813002   7.3038282  )
        29           O1  tau(  29) = (   4.5938453   4.4726049   9.2879030  )
        30           O1  tau(  30) = (   1.9864658   4.4711199   9.2879459  )
        31           Ti1 tau(  31) = (   3.2891106   5.8743827   9.1763621  )
        32           Ti1 tau(  32) = (   0.0006254   4.4649316   9.2693709  )
        33           O1  tau(  33) = (   3.2962403   2.9651072  11.3429128  )
        34           O1  tau(  34) = (   0.0092240   2.9805883  10.6323155  )
        35           O1  tau(  35) = (   1.3076126   4.4641214  12.6643835  )
        36           O1  tau(  36) = (   5.2981430   4.4591552  12.6429889  )
        37           Ti1 tau(  37) = (   0.0194730   5.9489450  12.5196332  )
        38           Ti1 tau(  38) = (   3.3150505   4.4522436  12.4946186  )
        39           O1  tau(  39) = (   6.5702761   2.9869041  14.8038460  )
        40           O1  tau(  40) = (   3.3119818   2.9576719  13.9204832  )
        41           O1  tau(  41) = (   4.5223198   4.3950437  16.2490866  )
        42           O1  tau(  42) = (   2.0356696   4.4339808  16.1311045  )
        43           Ti1 tau(  43) = (   3.3057863   5.9493229  15.7677403  )
        44           Ti1 tau(  44) = (   0.0958844   4.4293496  15.8701971  )
        45           O1  tau(  45) = (   3.2900926   2.9813045   4.7018136  )
        46           O1  tau(  46) = (   1.3039711   4.4726057   6.0039043  )
        47           O1  tau(  47) = (   5.2763189   4.4711207   6.0039473  )
        48           N1  tau(  48) = (   0.0620580   3.0375546  17.6897758  )
        49           C1  tau(  49) = (   1.1116374   2.9693208  18.6984743  )
        50           H1  tau(  50) = (   1.2951007   3.9532040  19.1583453  )
        51           H1  tau(  51) = (   0.8627774   2.2426413  19.4871689  )
        52           H1  tau(  52) = (   2.0263963   2.6228967  18.2308865  )
        53           N1  tau(  53) = (   5.4279256   3.3744730  18.4033390  )
        54           H1  tau(  54) = (   5.6103604   4.1199394  19.0852601  )
        55           H1  tau(  55) = (   4.7934260   3.8076565  17.6395878  )
        56           H1  tau(  56) = (   5.0190149   2.5598412  18.8678436  )

     number of k points=    10  Fermi-Dirac smearing, width (Ry)=  0.0073
                       cart. coord. in units 2pi/alat
        k(    1) = (   0.0000000   0.0000000   0.0000000), wk =   0.0625000
        k(    2) = (   0.0000000   0.0419351   0.0000000), wk =   0.1250000
        k(    3) = (   0.0000000  -0.0838702   0.0000000), wk =   0.0625000
        k(    4) = (   0.0379955   0.0000049   0.0000000), wk =   0.1250000
        k(    5) = (   0.0379955   0.0419400   0.0000000), wk =   0.1250000
[...]
     % possible and the two reviews that describe the various versions:     %
     %                                                                      %
     %   T. Thonhauser et al., PRL 115, 136402 (2015).                      %
     %   T. Thonhauser et al., PRB 76, 125112 (2007).                       %
     %   K. Berland et al., Rep. Prog. Phys. 78, 066501 (2015).             %
     %   D.C. Langreth et al., J. Phys.: Condens. Matter 21, 084203 (2009). %
     %                                                                      %
     %                                                                      %
     % If you are calculating the stress with vdW-DF, please also cite:     %
     %                                                                      %
     %   R. Sabatini et al., J. Phys.: Condens. Matter 24, 424209 (2012).   %
     %                                                                      %
     %%%%%%%%%%%%%%%%%%%%%%%%%%%%%%%%%%%%%%%%%%%%%%%%%%%%%%%%%%%%%%%%%%%%%%%%

     Adding external electric field

     Computed dipole along edir(3) :
        Dipole              -10.5729 Ry au,        -26.8736 Debye
        Dipole field         -0.0200 Ry au,

        Potential amp.        1.8496 Ry
        Total length         46.3494 bohr

[...]

     Starting wfcs are  302 atomic wfcs
  @ DRIVER MODE: Message from server: STATUS
  @ DRIVER MODE: Message from server: POSDATA
  @ DRIVER MODE: Reading and sharing cell
  @ DRIVER MODE: Reading and sharing positions
  @ DRIVER MODE: Received positions

     Self-consistent Calculation

     iteration #  1     ecut=    29.40 Ry     beta= 0.05
     Davidson diagonalization with overlap
     c_bands:  4 eigenvalues not converged
     c_bands:  2 eigenvalues not converged
     c_bands:  1 eigenvalues not converged
     c_bands:  4 eigenvalues not converged
     c_bands:  5 eigenvalues not converged
     c_bands:  5 eigenvalues not converged
     c_bands:  1 eigenvalues not converged
     c_bands:  5 eigenvalues not converged
     c_bands:  3 eigenvalues not converged
     c_bands:  4 eigenvalues not converged
     c_bands:  2 eigenvalues not converged
     c_bands:  1 eigenvalues not converged
     c_bands:  4 eigenvalues not converged
     c_bands:  5 eigenvalues not converged
     c_bands:  5 eigenvalues not converged
     c_bands:  5 eigenvalues not converged
     c_bands:  3 eigenvalues not converged
     ethr =  1.00E-05,  avg # of iterations = 20.0

[...]

     total energy              =   -2443.27084181 Ry
     estimated scf accuracy    <    5586.04872454 Ry

     total magnetization       =     0.00 Bohr mag/cell
     absolute magnetization    =     0.01 Bohr mag/cell

     iteration #  2     ecut=    29.40 Ry     beta= 0.05
     Davidson diagonalization with overlap
     ethr =  1.00E-02,  avg # of iterations = 23.4

[...]

     iteration #102     ecut=    29.40 Ry     beta= 0.05
     Davidson diagonalization with overlap
     ethr =  4.86E-10,  avg # of iterations =  5.2

[...]

     total energy              =   -2942.82551389 Ry
     estimated scf accuracy    <       0.00000007 Ry

[...]

     iteration #118     ecut=    29.40 Ry     beta= 0.05
     Davidson diagonalization with overlap
     c_bands:  1 eigenvalues not converged
     c_bands:  1 eigenvalues not converged
     c_bands:  2 eigenvalues not converged
     ethr =  1.88E-11,  avg # of iterations = 14.6

     negative rho (up, down):  7.277E-03 7.278E-03

[...]

     Adding external electric field

     Computed dipole along edir(3) :
        Dipole                1.6198 Ry au,          4.1172 Debye
        Dipole field          0.0031 Ry au,

        Potential amp.       -0.2834 Ry
        Total length         46.3494 bohr

     Magnetic moment per site  (integrated on atomic sphere of radius R)
     atom   1 (R=0.723)  charge=  7.9140  magn= -0.0010
     atom   2 (R=0.723)  charge=  7.8964  magn=  0.0001
     atom   3 (R=0.633)  charge=  4.2081  magn=  0.0002
     atom   4 (R=0.633)  charge=  4.2373  magn= -0.0000
     atom   5 (R=0.633)  charge=  4.2137  magn=  0.0000
     atom   6 (R=0.633)  charge=  4.2139  magn=  0.0000
     atom   7 (R=0.723)  charge=  7.8964  magn= -0.0001
     atom   8 (R=0.723)  charge=  7.8945  magn= -0.0015
     atom   9 (R=0.633)  charge=  4.2238  magn=  0.0003
     atom  10 (R=0.633)  charge=  4.2125  magn=  0.0002
     atom  11 (R=0.633)  charge=  4.2093  magn=  0.0003
     atom  12 (R=0.633)  charge=  4.2111  magn=  0.0003
     atom  13 (R=0.723)  charge=  7.8927  magn= -0.0016
     atom  14 (R=0.723)  charge=  7.9040  magn= -0.0019
     atom  15 (R=0.633)  charge=  4.2098  magn=  0.0001
     atom  16 (R=0.633)  charge=  4.2161  magn=  0.0000
     atom  17 (R=0.633)  charge=  4.2035  magn= -0.0001
     atom  18 (R=0.633)  charge=  4.2034  magn= -0.0001
     atom  19 (R=0.723)  charge=  7.9505  magn=  0.0001
     atom  20 (R=0.723)  charge=  7.9298  magn= -0.0000
     atom  21 (R=0.633)  charge=  4.1284  magn= -0.0001
     atom  22 (R=0.633)  charge=  4.1764  magn= -0.0000
     atom  23 (R=0.633)  charge=  4.2074  magn=  0.0001
     atom  24 (R=0.633)  charge=  4.2074  magn=  0.0001
     atom  25 (R=0.723)  charge=  7.9141  magn= -0.0010
     atom  26 (R=0.723)  charge=  7.8964  magn=  0.0001
     atom  27 (R=0.633)  charge=  4.2077  magn=  0.0002
     atom  28 (R=0.633)  charge=  4.2375  magn= -0.0000
     atom  29 (R=0.633)  charge=  4.2143  magn=  0.0001
     atom  30 (R=0.633)  charge=  4.2144  magn=  0.0001
     atom  31 (R=0.723)  charge=  7.8969  magn= -0.0001
     atom  32 (R=0.723)  charge=  7.8947  magn= -0.0015
     atom  33 (R=0.633)  charge=  4.2222  magn=  0.0003
     atom  34 (R=0.633)  charge=  4.2053  magn=  0.0002
     atom  35 (R=0.633)  charge=  4.2090  magn=  0.0003
     atom  36 (R=0.633)  charge=  4.2115  magn=  0.0003
     atom  37 (R=0.723)  charge=  7.8964  magn= -0.0015
     atom  38 (R=0.723)  charge=  7.9034  magn= -0.0019
     atom  39 (R=0.633)  charge=  4.1926  magn=  0.0000
     atom  40 (R=0.633)  charge=  4.2343  magn=  0.0001
     atom  41 (R=0.633)  charge=  4.2025  magn= -0.0001
     atom  42 (R=0.633)  charge=  4.2135  magn= -0.0001
     atom  43 (R=0.723)  charge=  7.9399  magn=  0.0004
     atom  44 (R=0.723)  charge=  7.9261  magn= -0.0001
     atom  45 (R=0.633)  charge=  4.1284  magn= -0.0001
     atom  46 (R=0.633)  charge=  4.2074  magn=  0.0001
     atom  47 (R=0.633)  charge=  4.2074  magn=  0.0001
     atom  48 (R=0.422)  charge=  1.3243  magn= -0.0000
     atom  49 (R=0.447)  charge=  0.8385  magn=  0.0000
     atom  50 (R=0.422)  charge=  0.4454  magn= -0.0000
     atom  51 (R=0.422)  charge=  0.4468  magn= -0.0000
     atom  52 (R=0.422)  charge=  0.4519  magn= -0.0000
     atom  53 (R=0.422)  charge=  1.3643  magn=  0.0000
     atom  54 (R=0.422)  charge=  0.4487  magn=  0.0000
     atom  55 (R=0.422)  charge=  0.3955  magn=  0.0000
     atom  56 (R=0.422)  charge=  0.4518  magn=  0.0000

     End of self-consistent calculation

 ------ SPIN UP ------------

          k = 0.0000 0.0000 0.0000 ( 18029 PWs)   bands (ev):

   -55.1315 -55.0948 -55.0943 -55.0602 -55.0143 -55.0011 -54.9762 -54.9349
   -54.9213 -54.9141 -54.8998 -54.8883 -54.8554 -54.7851 -54.1073 -54.0732
   -31.7123 -31.5843 -31.5008 -31.4698 -31.4253 -31.4239 -31.4225 -31.3931
   -31.3892 -31.3839 -31.3572 -31.3411 -31.3388 -31.3089 -31.2919 -31.2659
   -31.2501 -31.2469 -31.2370 -31.2327 -31.2058 -31.1986 -31.1912 -31.1662
   -31.1510 -31.1434 -31.1379 -31.1313 -31.1297 -31.1178 -31.1165 -31.1113
   -31.0934 -31.0850 -31.0797 -31.0517 -31.0496 -31.0382 -31.0300 -31.0274
   -31.0163 -30.9744 -30.5156 -30.4236 -30.4014 -30.3321 -30.2454 -30.1345
   -18.9513 -15.9980 -15.7438 -15.6079 -15.3731 -15.3210 -15.2646 -15.0599
   -15.0556 -14.9847 -14.9694 -14.9206 -14.9008 -14.8335 -14.7492 -14.7297
   -14.6602 -14.6585 -14.6292 -14.6190 -14.6166 -14.5540 -14.5446 -14.5147
   -14.5017 -14.4768 -14.3586 -14.2739 -14.2155 -13.9670 -13.5992 -12.6094
   -12.4922  -9.7511  -7.7503  -7.2220  -5.4577  -3.8201  -3.3350  -3.2783
    -3.1614  -3.1311  -3.0543  -3.0248  -2.8399  -2.8193  -2.4774  -2.4427
    -2.3915  -2.3735  -2.3530  -2.3345  -2.1677  -2.1412  -2.0681  -2.0353
    -2.0170  -1.9761  -1.9590  -1.9488  -1.9153  -1.9102  -1.9005  -1.6933
    -1.6368  -1.5418  -1.5194  -1.4987  -1.4605  -1.4250  -1.4157  -1.4125
    -1.4068  -1.3933  -1.3813  -1.3005  -1.2436  -1.1614  -1.1525  -1.1168
    -1.0127  -0.9684  -0.7658  -0.7512  -0.7052  -0.6631  -0.6002  -0.5800
    -0.5124  -0.4816  -0.4630  -0.3414  -0.3127  -0.2733  -0.2450  -0.1772
    -0.1480  -0.1012  -0.0189   0.0536   0.0897   0.1080   0.1665   0.2966
     0.3082   0.3375   0.3987   0.4625   0.5028   0.5228   0.5414   0.5781
     0.6284   0.7541   0.7985   0.8186   0.8227   0.8567   0.8792   0.9303
     0.9548   1.0155   1.0212   1.1385   1.2080   1.4359   1.4701   1.4956
     1.8281   1.8512   1.9157   2.1017   2.4898   2.5370   3.9727   4.0332
     4.0879   4.1063   4.1249   4.2135   4.2481   4.4353   4.4629   4.4657
     4.4688

[...]

          k =-0.0760-0.0000 0.0000 ( 17886 PWs)   bands (ev):

[...]

 ------ SPIN DOWN ----------

[...]

          k = 0.0380-0.0419 0.0000 ( 17876 PWs)   bands (ev):

[...]

          k =-0.0760-0.0839 0.0000 ( 17948 PWs)   bands (ev):

   -55.1202 -55.1146 -55.0788 -55.0788 -55.0073 -54.9966 -54.9902 -54.9191
   -54.9173 -54.9150 -54.9087 -54.9073 -54.8518 -54.7891 -54.0901 -54.0899
   -31.5182 -31.5154 -31.4377 -31.4163 -31.4000 -31.4000 -31.3714 -31.3713
   -31.3463 -31.3409 -31.3374 -31.3371 -31.3025 -31.2658 -31.2620 -31.2576
   -31.2543 -31.2503 -31.2496 -31.2434 -31.2104 -31.2085 -31.2061 -31.2037
   -31.1981 -31.1981 -31.1831 -31.1825 -31.1537 -31.1490 -31.1336 -31.1296
   -31.1278 -31.1271 -31.1263 -31.1171 -31.0931 -31.0898 -31.0870 -31.0644
   -31.0395 -31.0219 -30.4139 -30.4138 -30.3280 -30.3279 -30.2886 -30.2886
   -18.9465 -15.5049 -15.3951 -15.2881 -15.2218 -15.1791 -15.1278 -15.1101
   -15.0993 -15.0548 -15.0252 -14.9560 -14.8910 -14.8381 -14.8371 -14.8027
   -14.7238 -14.7100 -14.7030 -14.6925 -14.6359 -14.6292 -14.5977 -14.5768
   -14.5737 -14.5438 -14.4702 -14.4677 -14.3819 -14.1761 -13.6352 -12.5944
   -12.5942  -9.7206  -7.7478  -7.1670  -5.4604  -3.8418  -3.4335  -2.7536
    -2.6424  -2.4321  -2.4061  -2.3459  -2.3266  -2.2439  -2.1809  -2.1585
    -2.1351  -2.1012  -2.0981  -2.0749  -2.0524  -1.9994  -1.9700  -1.9581
    -1.9524  -1.9376  -1.9248  -1.9052  -1.8486  -1.8382  -1.8308  -1.7882
    -1.7773  -1.7455  -1.7393  -1.7003  -1.6837  -1.6092  -1.5150  -1.4907
    -1.4322  -1.3309  -1.3160  -1.3104  -1.2182  -1.2090  -1.1795  -1.1485
    -1.0942  -0.9951  -0.9402  -0.8633  -0.8600  -0.8310  -0.7434  -0.6797
    -0.6461  -0.6366  -0.5977  -0.5403  -0.5179  -0.4830  -0.4004  -0.3589
    -0.3319  -0.2984  -0.2032  -0.1420  -0.1183  -0.0865  -0.0830   0.0057
     0.0391   0.0760   0.0968   0.1349   0.1617   0.2245   0.2483   0.3587
     0.4265   0.4584   0.5775   0.6018   0.6654   0.7978   0.8697   0.9101
     0.9620   1.0205   1.0481   1.1788   1.1859   1.2060   1.3047   1.3450
     1.3518   1.3650   2.2742   2.2752   2.3567   2.3568   4.1024   4.1891
     4.2307   4.2682   4.3765   4.4868   4.5052   4.5485   4.5490   4.6235
     4.6295

     the Fermi energy is     4.0233 ev

!    total energy              =   -2942.82551429 Ry
     estimated scf accuracy    <       0.00000007 Ry
     smearing contrib. (-TS)   =      -0.03684262 Ry
     internal energy E=F+TS    =   -2942.78867167 Ry

     The total energy is F=E-TS. E is the sum of the following terms:
     one-electron contribution =  -23972.34088252 Ry
     hartree contribution      =   12081.75680196 Ry
     xc contribution           =    -487.77681865 Ry
     ewald contribution        =    9435.56727597 Ry
     electric field correction =       0.00495157 Ry

     total magnetization       =    -0.02 Bohr mag/cell
     absolute magnetization    =     0.03 Bohr mag/cell

     convergence has been achieved in 118 iterations

     Forces acting on atoms (cartesian axes, Ry/au):

     atom    1 type  1   force =     0.00015149   -0.00022495    0.09431650
     atom    2 type  1   force =    -0.00009462   -0.00033126   -0.17740274
     atom    3 type  2   force =     0.00005520   -0.00016670   -0.02137075
     atom    4 type  2   force =    -0.00001505   -0.00172621    0.05658221
     atom    5 type  2   force =    -0.01054682   -0.00127659    0.00624241
     atom    6 type  2   force =     0.01221460   -0.00074296    0.00571417
     atom    7 type  1   force =    -0.00032840    0.00172150   -0.01617345
     atom    8 type  1   force =    -0.00011132    0.00438450    0.00561272
     atom    9 type  2   force =     0.00001005   -0.00004330   -0.00003983
     atom   10 type  2   force =    -0.00074249   -0.00022156   -0.00044157
     atom   11 type  2   force =     0.00034142    0.00012412   -0.00019251
     atom   12 type  2   force =    -0.00051403    0.00000189   -0.00012954
     atom   13 type  1   force =     0.00004278   -0.00035141    0.00012885
     atom   14 type  1   force =     0.00055851    0.00011801   -0.00033199
     atom   15 type  2   force =    -0.00040103    0.00025291   -0.00015784
     atom   16 type  2   force =    -0.00032898    0.00019143   -0.00002493
     atom   17 type  2   force =    -0.00017056    0.00008928    0.00044687
     atom   18 type  2   force =     0.00010262    0.00033155   -0.00005837
     atom   19 type  1   force =     0.00013834    0.00002161    0.00002570
     atom   20 type  1   force =     0.00009358    0.00055522   -0.00054812
     atom   21 type  2   force =     0.00003756    0.00004149    0.10363201
     atom   22 type  2   force =    -0.00006319   -0.00083910   -0.00022213
     atom   23 type  2   force =    -0.07083066   -0.00010230   -0.02720018
     atom   24 type  2   force =     0.07069393    0.00033988   -0.02722919
     atom   25 type  1   force =    -0.00009510   -0.00019440    0.09373790
     atom   26 type  1   force =    -0.00015217   -0.00032223   -0.17733355
     atom   27 type  2   force =     0.00008748   -0.00034882   -0.02047002
     atom   28 type  2   force =     0.00003136   -0.00144111    0.05589160
     atom   29 type  2   force =    -0.01090950   -0.00073444    0.00609154
     atom   30 type  2   force =     0.01246117   -0.00029032    0.00557013
     atom   31 type  1   force =    -0.00017420    0.00462563   -0.01720196
     atom   32 type  1   force =    -0.00003827   -0.00480184    0.00559510
     atom   33 type  2   force =     0.00005701    0.00012124    0.00027506
     atom   34 type  2   force =     0.00005742   -0.00085305   -0.00297168
     atom   35 type  2   force =     0.00022527    0.00003295    0.00007988
     atom   36 type  2   force =    -0.00042010    0.00015806   -0.00006543
     atom   37 type  1   force =    -0.00012786   -0.00011045   -0.00018058
     atom   38 type  1   force =     0.00043204   -0.00028563    0.00036700
     atom   39 type  2   force =    -0.00045451    0.00011325    0.00074849
     atom   40 type  2   force =    -0.00011644    0.00018936   -0.00019429
     atom   41 type  2   force =     0.00019416    0.00024537    0.00045611
     atom   42 type  2   force =    -0.00004006    0.00023422   -0.00004488
     atom   43 type  1   force =    -0.00045666    0.00060484   -0.00009275
     atom   44 type  1   force =    -0.00011655    0.00026222   -0.00021044
     atom   45 type  2   force =     0.00002688    0.00001123    0.10363011
     atom   46 type  2   force =    -0.07083184   -0.00003262   -0.02719175
     atom   47 type  2   force =     0.07069939    0.00037966   -0.02719811
     atom   48 type  3   force =     0.00113345   -0.00020896   -0.00054725
     atom   49 type  4   force =    -0.00039352    0.00024238   -0.00072321
     atom   50 type  5   force =     0.00004031    0.00003129    0.00005875
     atom   51 type  5   force =    -0.00025366   -0.00035042    0.00008964
     atom   52 type  5   force =    -0.00036720   -0.00002814    0.00013891
     atom   53 type  3   force =     0.00376700    0.00441737   -0.00038059
     atom   54 type  5   force =     0.00024641    0.00032460   -0.00033403
     atom   55 type  5   force =    -0.00064819   -0.00029719   -0.00093212
     atom   56 type  5   force =    -0.00415642   -0.00384104    0.00216414

     Total force =     0.365696     Total SCF correction =     0.000449
  @ DRIVER MODE: Message from server: STATUS
  @ DRIVER MODE: Message from server: GETFORCE
  @ DRIVER MODE: Returning v,forces,stress,ensemble

     Writing output data file ./calc.save/
  @ DRIVER MODE: Message from server: EXIT
  @ DRIVE MODE: Exiting

     General routines

     Parallel routines

   This run was terminated on:  10:21:35  17Jul2021

   JOB DONE.