     Program PWSCF v.6.7GPU starts on 15Sep2021 at 17:49:48

     R & G space division:  proc/nbgrp/npool/nimage =      10
     Reading input from /storage/home/hcoda1/3/ntian30/research/carbon/CxH_vib/H2O_calc/ads_slab/CHNHHH2O_a/out_0007/pw.inp
Warning: card &CELL ignored
Warning: card   CELL_DYNAMICS='IPI', ignored
Warning: card / ignored

     Current dimensions of program PWSCF are:
     Max number of different atomic species (ntypx) = 10
     Max number of k-points (npk) =  40000
     Max angular momentum in pseudopotentials (lmaxx) =  3
     Presently no symmetry can be used with electric field

     Message from routine cell_base_init:
     DEPRECATED: use true lattice parameter, not A to a.u. conversion factor

     IMPORTANT: XC functional enforced from input :
     Exchange-correlation= BEEF-VDW
                           (   1   4  43  14   2   0   0)
     Any further DFT definition will be discarded
     Please, verify this is what you really want

  @ DRIVER MODE: Connecting to
 qe_1139763_2852629.sched-torque.pace.gatech.edugacxs_hy_scratch
  using UNIX socket
  @ DRIVER MODE: Message from server: STATUS
  @ DRIVER MODE: Message from server: INIT
  @ DRIVER MODE: Receiving replica           0          -1
  @ DRIVER MODE: Receiving encoded integer          25
  @ DRIVER MODE:  SCF:  T  FORCE:  T  STRESS:  F  VC:  F  ENSEMBLE:  F
  @ DRIVER MODE:  SCF:  T  FORCE:  T  STRESS:  F  VC:  F  ENSEMBLE:  F

     Using Slab Decomposition

     bravais-lattice index     =            0
     lattice parameter (alat)  =       1.8897  a.u.
     unit-cell volume          =    6658.9804 (a.u.)^3
     number of atoms/cell      =           55
     number of atomic types    =            5
     number of electrons       =       398.00
     number of Kohn-Sham states=          209
     kinetic-energy cutoff     =      29.3995  Ry
     charge density cutoff     =     293.9946  Ry
     scf convergence threshold =      7.3E-08
     mixing beta               =       0.0500
     number of iterations used =            8  plain     mixing
     Exchange-correlation= BEEF-VDW
                           (   1   4  43  14   2   0   0)

     celldm(1)=   1.889726  celldm(2)=   0.000000  celldm(3)=   0.000000
     celldm(4)=   0.000000  celldm(5)=   0.000000  celldm(6)=   0.000000

     crystal axes: (cart. coord. in units of alat)
               a(1) = (   6.579727   0.000000   0.000000 )
               a(2) = (  -0.000775   5.961596   0.000000 )
               a(3) = (   0.000000   0.000000  25.155947 )

     reciprocal axes: (cart. coord. in units 2 pi/alat)
               b(1) = (  0.151982  0.000020  0.000000 )
               b(2) = (  0.000000  0.167740  0.000000 )
               b(3) = (  0.000000  0.000000  0.039752 )

     PseudoPot. # 1 for Ti read from file:
     /storage/coda1/p-amedford6/0/shared/rich_project_chbe-medford/medford-share/data/pseudos_module/espresso/nninc/pbe/van/Ti.UPF
     MD5 check sum: 8e4df49b7f0d34bbd5052bf3f5ea0213
     Pseudo is Ultrasoft, Zval = 12.0
     Generated by new atomic code, or converted to UPF format
     Using radial grid of  851 points,  6 beta functions with:
                l(1) =   0
                l(2) =   0
                l(3) =   1
                l(4) =   1
                l(5) =   2
                l(6) =   2
     Q(r) pseudized with  8 coefficients,  rinner =    1.000   1.000   1.000
                                                       1.000   1.000

     PseudoPot. # 2 for O  read from file:
     /storage/coda1/p-amedford6/0/shared/rich_project_chbe-medford/medford-share/data/pseudos_module/espresso/nninc/pbe/van/O.UPF
     MD5 check sum: 78c19812648e8988a0fe644b0f25305e
     Pseudo is Ultrasoft, Zval =  6.0
     Generated by new atomic code, or converted to UPF format
     Using radial grid of  737 points,  4 beta functions with:
                l(1) =   0
                l(2) =   0
                l(3) =   1
                l(4) =   1
     Q(r) pseudized with  8 coefficients,  rinner =    0.800   0.800   0.800

     PseudoPot. # 3 for N  read from file:
     /storage/coda1/p-amedford6/0/shared/rich_project_chbe-medford/medford-share/data/pseudos_module/espresso/nninc/pbe/van/N.UPF
     MD5 check sum: 90d10febe142ad51ac9d5be1deb811c4
     Pseudo is Ultrasoft, Zval =  5.0
     Generated by new atomic code, or converted to UPF format
     Using radial grid of  729 points,  4 beta functions with:
                l(1) =   0
                l(2) =   0
                l(3) =   1
                l(4) =   1
     Q(r) pseudized with  8 coefficients,  rinner =    0.800   0.800   0.800

     PseudoPot. # 4 for C  read from file:
     /storage/coda1/p-amedford6/0/shared/rich_project_chbe-medford/medford-share/data/pseudos_module/espresso/nninc/pbe/van/C.UPF
     MD5 check sum: 1a69bf6b8db32088f5b2163dbdb77a27
     Pseudo is Ultrasoft, Zval =  4.0
     Generated by new atomic code, or converted to UPF format
     Using radial grid of  721 points,  4 beta functions with:
                l(1) =   0
                l(2) =   0
                l(3) =   1
                l(4) =   1
     Q(r) pseudized with  8 coefficients,  rinner =    0.800   0.800   0.800

     PseudoPot. # 5 for H  read from file:
     /storage/coda1/p-amedford6/0/shared/rich_project_chbe-medford/medford-share/data/pseudos_module/espresso/nninc/pbe/van/H.UPF
     MD5 check sum: b5ee9d7bfd3a09ee7748110bda690ff7
     Pseudo is Ultrasoft, Zval =  1.0
     Generated by new atomic code, or converted to UPF format
     Using radial grid of  615 points,  1 beta functions with:
                l(1) =   0
     Q(r) pseudized with  8 coefficients,  rinner =    0.800

     atomic species   valence    mass     pseudopotential
        Ti1           12.00    47.86700     Ti( 1.00)
        O1             6.00    15.99900     O ( 1.00)
        N1             5.00    14.00700     N ( 1.00)
        C1             4.00    12.01100     C ( 1.00)
        H1             1.00     1.00800     H ( 1.00)

     No symmetry found

   Cartesian axes

     site n.     atom                  positions (alat units)
         1           Ti1 tau(   1) = (   0.0004258   2.9801865   6.0000000  )
         2           Ti1 tau(   2) = (   3.2906075   1.4906267   6.0002472  )
         3           O1  tau(   3) = (   0.0006271   0.0005054   7.9858123  )
         4           O1  tau(   4) = (   3.2906025   0.0005020   7.3038282  )
         5           O1  tau(   5) = (   4.5942328   1.4918067   9.2879030  )
         6           O1  tau(   6) = (   1.9868534   1.4903216   9.2879459  )
         7           Ti1 tau(   7) = (   3.2907910   2.8959150   9.1758416  )
         8           Ti1 tau(   8) = (   0.0015273   1.4827037   9.2680791  )
         9           O1  tau(   9) = (   3.2943807   5.9438157  11.3430345  )
        10           O1  tau(  10) = (   0.0116148   5.9584955  10.6183126  )
        11           O1  tau(  11) = (   1.2953376   1.4759649  12.6292060  )
        12           O1  tau(  12) = (   5.2846356   1.4785235  12.6176154  )
        13           Ti1 tau(  13) = (   0.0556596   2.9564334  12.6140783  )
        14           Ti1 tau(  14) = (   3.3658323   1.4657407  12.4949608  )
        15           O1  tau(  15) = (   6.5664030   0.0209144  14.6477191  )
        16           O1  tau(  16) = (   3.3113265   5.9542485  13.9698242  )
        17           O1  tau(  17) = (   4.5454210   1.5146250  16.1225105  )
        18           O1  tau(  18) = (   2.0305911   1.5113983  16.0894517  )
        19           Ti1 tau(  19) = (   3.2587399   2.9544808  15.6767922  )
        20           Ti1 tau(  20) = (   6.5654577   1.5458692  15.9193722  )
        21           O1  tau(  21) = (   3.2904802   0.0005063   4.7018136  )
        22           O1  tau(  22) = (   0.0418464   5.8849155  17.2380659  )
        23           O1  tau(  23) = (   1.3043587   1.4918075   6.0039043  )
        24           O1  tau(  24) = (   5.2767064   1.4903225   6.0039473  )
        25           Ti1 tau(  25) = (   0.0000382   5.9609847   6.0000000  )
        26           Ti1 tau(  26) = (   3.2902200   4.4714249   6.0002472  )
        27           O1  tau(  27) = (   0.0002396   2.9813036   7.9858123  )
        28           O1  tau(  28) = (   3.2902150   2.9813002   7.3038282  )
        29           O1  tau(  29) = (   4.5938453   4.4726049   9.2879030  )
        30           O1  tau(  30) = (   1.9864658   4.4711199   9.2879459  )
        31           Ti1 tau(  31) = (   3.2891106   5.8743827   9.1763621  )
        32           Ti1 tau(  32) = (   0.0006254   4.4649316   9.2693709  )
        33           O1  tau(  33) = (   3.2978316   2.9705197  11.3397625  )
        34           O1  tau(  34) = (   0.0092240   2.9805883  10.6323155  )
        35           O1  tau(  35) = (   1.2936985   4.4655287  12.6460247  )
        36           O1  tau(  36) = (   5.2856521   4.4646452  12.6308247  )
        37           Ti1 tau(  37) = (   0.0515089   5.9379728  12.5308627  )
        38           Ti1 tau(  38) = (   3.3654372   4.4547101  12.4935900  )
        39           O1  tau(  39) = (   6.5748852   2.9443291  14.6951209  )
        40           O1  tau(  40) = (   3.2957406   2.9584624  13.8938737  )
        41           O1  tau(  41) = (   4.5486474   4.4154460  16.0876977  )
        42           O1  tau(  42) = (   2.0388008   4.4257786  16.0448984  )
        43           Ti1 tau(  43) = (   3.3137362   5.9209902  15.7922403  )
        44           Ti1 tau(  44) = (   0.0032603   4.6697478  15.9558853  )
        45           O1  tau(  45) = (   3.2900926   2.9813045   4.7018136  )
        46           O1  tau(  46) = (   1.3039711   4.4726057   6.0039043  )
        47           O1  tau(  47) = (   5.2763189   4.4711207   6.0039473  )
        48           N1  tau(  48) = (   5.6270067   3.1633449  18.6203826  )
        49           C1  tau(  49) = (   0.0137924   2.7940403  17.7774691  )
        50           H1  tau(  50) = (   0.9584034   2.6460975  18.3247808  )
        51           H1  tau(  51) = (   4.7713523   3.5531088  18.2436842  )
        52           H1  tau(  52) = (   5.8168525   3.4166350  19.5804594  )
        53           O1  tau(  53) = (   3.2115967   5.9081562  18.2546127  )
        54           H1  tau(  54) = (   3.8106726   0.6855978  18.4519937  )
        55           H1  tau(  55) = (   2.3006756   0.2828797  18.3268221  )

     number of k points=    10  Fermi-Dirac smearing, width (Ry)=  0.0073
                       cart. coord. in units 2pi/alat
        k(    1) = (   0.0000000   0.0000000   0.0000000), wk =   0.1250000
        k(    2) = (   0.0000000   0.0419351   0.0000000), wk =   0.2500000
        k(    3) = (   0.0000000  -0.0838702   0.0000000), wk =   0.1250000
        k(    4) = (   0.0379955   0.0000049   0.0000000), wk =   0.2500000
        k(    5) = (   0.0379955   0.0419400   0.0000000), wk =   0.2500000
        k(    6) = (   0.0379955  -0.0838652   0.0000000), wk =   0.2500000
        k(    7) = (   0.0379955  -0.0419301   0.0000000), wk =   0.2500000
        k(    8) = (  -0.0759910  -0.0000099   0.0000000), wk =   0.1250000
        k(    9) = (  -0.0759910   0.0419252   0.0000000), wk =   0.2500000
        k(   10) = (  -0.0759910  -0.0838800   0.0000000), wk =   0.1250000

     Initial potential from superposition of free atoms

     starting charge  381.99915, renormalised to  398.00000

     negative rho (up, down):  1.708E-02 0.000E+00

     %%%%%%%%%%%%%%%%%%%%%%%%%%%%%%%%%%%%%%%%%%%%%%%%%%%%%%%%%%%%%%%%%%%%%%%%
     %                                                                      %
     % You are using vdW-DF, which was implemented by the Thonhauser group. %
     % Please cite the following two papers that made this development      %
     % possible and the two reviews that describe the various versions:     %
     %                                                                      %
     %   T. Thonhauser et al., PRL 115, 136402 (2015).                      %
     %   T. Thonhauser et al., PRB 76, 125112 (2007).                       %
     %   K. Berland et al., Rep. Prog. Phys. 78, 066501 (2015).             %
     %   D.C. Langreth et al., J. Phys.: Condens. Matter 21, 084203 (2009). %
     %                                                                      %
     %                                                                      %
     % If you are calculating the stress with vdW-DF, please also cite:     %
     %                                                                      %
     %   R. Sabatini et al., J. Phys.: Condens. Matter 24, 424209 (2012).   %
     %                                                                      %
     %%%%%%%%%%%%%%%%%%%%%%%%%%%%%%%%%%%%%%%%%%%%%%%%%%%%%%%%%%%%%%%%%%%%%%%%

     Adding external electric field

     Computed dipole along edir(3) :
        Dipole              -10.1352 Ry au,        -25.7611 Debye
        Dipole field         -0.0191 Ry au,

        Potential amp.        1.7730 Ry
        Total length         46.3494 bohr

     Starting wfcs are  301 atomic wfcs
  @ DRIVER MODE: Message from server: STATUS
  @ DRIVER MODE: Message from server: POSDATA
  @ DRIVER MODE: Reading and sharing cell
  @ DRIVER MODE: Reading and sharing positions
  @ DRIVER MODE: Received positions

     Self-consistent Calculation

     iteration #  1     ecut=    29.40 Ry     beta= 0.05
     Davidson diagonalization with overlap
     c_bands:  2 eigenvalues not converged
     c_bands:  1 eigenvalues not converged
     c_bands:  1 eigenvalues not converged
     c_bands:  3 eigenvalues not converged
     c_bands:  1 eigenvalues not converged
     c_bands:  3 eigenvalues not converged
     c_bands:  3 eigenvalues not converged
     c_bands:  3 eigenvalues not converged
     c_bands:  1 eigenvalues not converged
     ethr =  1.00E-05,  avg # of iterations = 19.8

[...]

     total energy              =   -2497.70979569 Ry
     estimated scf accuracy    <    5094.11811863 Ry

     iteration #  2     ecut=    29.40 Ry     beta= 0.05
     Davidson diagonalization with overlap
     ethr =  1.00E-02,  avg # of iterations = 25.2

[...]

     iteration # 45     ecut=    29.40 Ry     beta= 0.05
     Davidson diagonalization with overlap
     c_bands:  1 eigenvalues not converged
     c_bands:  1 eigenvalues not converged
     ethr =  6.04E-07,  avg # of iterations = 15.5

[...]

     total energy              =   -2953.88234919 Ry
     estimated scf accuracy    <       0.00000035 Ry

     iteration # 68     ecut=    29.40 Ry     beta= 0.05
     Davidson diagonalization with overlap
     ethr =  2.46E-11,  avg # of iterations =  8.8

     negative rho (up, down):  1.665E-02 0.000E+00

     Adding external electric field

     Computed dipole along edir(3) :
        Dipole                1.3056 Ry au,          3.3184 Debye
        Dipole field          0.0025 Ry au,

        Potential amp.       -0.2284 Ry
        Total length         46.3494 bohr

     End of self-consistent calculation

          k = 0.0000 0.0000 0.0000 ( 18029 PWs)   bands (ev):

   -55.4349 -55.4286 -55.4099 -55.4008 -55.3925 -55.2915 -55.2494 -55.2429
   -55.2286 -55.2259 -55.2082 -55.1925 -54.8550 -54.7647 -54.4214 -54.3874
   -31.9847 -31.9188 -31.8111 -31.7865 -31.7463 -31.7416 -31.7262 -31.7165
   -31.6784 -31.6761 -31.6464 -31.6311 -31.6204 -31.6088 -31.5879 -31.5753
   -31.5661 -31.5406 -31.5368 -31.5013 -31.4928 -31.4900 -31.4561 -31.4447
   -31.4379 -31.4356 -31.4276 -31.4275 -31.4267 -31.4014 -31.4007 -31.3950
   -31.3785 -31.3740 -31.3498 -31.3467 -31.3354 -31.1870 -31.0742 -31.0222
   -30.9621 -30.9255 -30.8289 -30.7396 -30.7172 -30.6456 -30.5590 -30.4480
   -19.0671 -16.5328 -16.1940 -15.9321 -15.7514 -15.6188 -15.5915 -15.4176
   -15.2824 -15.1802 -15.1183 -15.0646 -15.0445 -14.9946 -14.9937 -14.9791
   -14.9757 -14.9449 -14.8966 -14.8760 -14.8559 -14.8156 -14.8062 -14.7887
   -14.7411 -14.7043 -14.6063 -14.5741 -14.5484 -14.5077 -14.0305 -12.9238
   -12.8072  -9.0343  -6.8805  -6.7339  -4.2572  -3.5641  -3.4014  -3.3472
    -3.3412  -3.3136  -3.2310  -3.0841  -2.9491  -2.7147  -2.6518  -2.6163
    -2.5839  -2.5466  -2.4339  -2.3839  -2.3689  -2.3040  -2.2541  -2.2466
    -2.2336  -2.2121  -2.1971  -2.1424  -2.1285  -2.0294  -1.9823  -1.9234
    -1.8560  -1.8180  -1.7700  -1.7520  -1.7107  -1.7060  -1.6920  -1.6756
    -1.6585  -1.6443  -1.5894  -1.5233  -1.4455  -1.2606  -1.2348  -1.1147
    -1.0838  -1.0509  -1.0123  -0.9231  -0.8965  -0.8739  -0.8342  -0.7439
    -0.7206  -0.6724  -0.5833  -0.4939  -0.4507  -0.4228  -0.3423  -0.3119
    -0.2794  -0.2120  -0.2043  -0.1928  -0.1207  -0.0638   0.0425   0.0808
     0.1153   0.1302   0.1439   0.2306   0.2695   0.3252   0.3698   0.4223
     0.4596   0.4744   0.5092   0.5322   0.5460   0.5734   0.5853   0.7674
     0.8095   0.8383   0.8663   0.9497   1.0552   1.1182   1.2066   1.2741
     1.5234   1.6009   1.6532   1.7914   2.1731   2.2193   3.6359   3.7650
     3.7828   3.8008   3.8324   3.8933   3.9582   4.1471   4.1694   4.1898
     4.2191

[...]

          k = 0.0380-0.0419 0.0000 ( 17876 PWs)   bands (ev):

[...]

          k =-0.0760-0.0000 0.0000 ( 17886 PWs)   bands (ev):

[...]

          k =-0.0760-0.0839 0.0000 ( 17948 PWs)   bands (ev):

   -55.4184 -55.4172 -55.4123 -55.4092 -55.4076 -55.2826 -55.2582 -55.2301
   -55.2276 -55.2227 -55.2110 -55.2080 -54.8518 -54.7678 -54.4044 -54.4043
   -31.7942 -31.7836 -31.7344 -31.7336 -31.7199 -31.7121 -31.7110 -31.6956
   -31.6801 -31.6389 -31.6313 -31.6260 -31.6166 -31.5985 -31.5620 -31.5515
   -31.5473 -31.5468 -31.5447 -31.5385 -31.5379 -31.5373 -31.5351 -31.4952
   -31.4740 -31.4682 -31.4573 -31.4437 -31.4384 -31.4341 -31.4332 -31.4321
   -31.4255 -31.4222 -31.4027 -31.3975 -31.2488 -31.1889 -31.0670 -31.0403
   -31.0234 -30.9616 -30.7300 -30.7298 -30.6417 -30.6415 -30.6024 -30.6023
   -19.0661 -16.5243 -15.6835 -15.5535 -15.4251 -15.3674 -15.3613 -15.3043
   -15.3005 -15.1880 -15.1776 -15.1481 -15.1227 -15.1076 -15.0792 -15.0606
   -14.9969 -14.9757 -14.9724 -14.9425 -14.9127 -14.8999 -14.8968 -14.8808
   -14.8765 -14.8225 -14.7663 -14.7632 -14.6530 -14.5513 -14.1880 -12.9090
   -12.9088  -9.0436  -6.8605  -6.7569  -4.2249  -3.2396  -2.9673  -2.7868
    -2.6805  -2.6243  -2.5606  -2.5417  -2.3760  -2.3607  -2.3509  -2.3162
    -2.2991  -2.2766  -2.2658  -2.2610  -2.2361  -2.2240  -2.2050  -2.1801
    -2.1416  -2.1238  -2.1152  -2.1079  -2.0924  -2.0736  -2.0502  -2.0327
    -2.0274  -1.9977  -1.9596  -1.9470  -1.8986  -1.7443  -1.7036  -1.6613
    -1.5908  -1.5842  -1.5336  -1.5146  -1.4885  -1.4601  -1.4007  -1.3759
    -1.2301  -1.1621  -1.1449  -1.1294  -1.1159  -0.9945  -0.9534  -0.8839
    -0.8571  -0.7891  -0.7579  -0.7456  -0.7002  -0.5973  -0.5845  -0.5339
    -0.5230  -0.4253  -0.4007  -0.3903  -0.3575  -0.3123  -0.2447  -0.2011
    -0.1872  -0.1777  -0.1430  -0.1367  -0.0962   0.0233   0.0839   0.1434
     0.2149   0.3160   0.4283   0.4421   0.5905   0.6181   0.6322   0.7386
     0.8229   0.8553   0.8759   0.8986   0.9053   1.0252   1.0784   1.0879
     1.0894   1.2401   1.9631   1.9644   2.0389   2.0393   3.7450   3.9432
     3.9642   4.0061   4.0535   4.1850   4.1941   4.2285   4.2297   4.3115
     4.3455

     the Fermi energy is     3.6955 ev

!    total energy              =   -2953.88239681 Ry
     estimated scf accuracy    <       0.00000003 Ry
     smearing contrib. (-TS)   =      -0.03295408 Ry
     internal energy E=F+TS    =   -2953.84944273 Ry

     The total energy is F=E-TS. E is the sum of the following terms:
     one-electron contribution =  -24258.69966869 Ry
     hartree contribution      =   12222.96478918 Ry
     xc contribution           =    -488.84632186 Ry
     ewald contribution        =    9570.72854206 Ry
     electric field correction =       0.00321658 Ry

     convergence has been achieved in  68 iterations

     Forces acting on atoms (cartesian axes, Ry/au):

     atom    1 type  1   force =     0.00020345   -0.00020315    0.09616171
     atom    2 type  1   force =    -0.00011657   -0.00027919   -0.17609621
     atom    3 type  2   force =     0.00002520    0.00002276   -0.02489227
     atom    4 type  2   force =     0.00003546   -0.00159944    0.05417794
     atom    5 type  2   force =    -0.01179635   -0.00148564    0.00428041
     atom    6 type  2   force =     0.01355608   -0.00071614    0.00348793
     atom    7 type  1   force =    -0.00083319    0.00087273   -0.01026744
     atom    8 type  1   force =     0.00025556    0.01223614    0.02351944
     atom    9 type  2   force =    -0.00035575   -0.00007971   -0.00023395
     atom   10 type  2   force =    -0.00087989   -0.00045082   -0.01481104
     atom   11 type  2   force =     0.00042286    0.00007688    0.00020723
     atom   12 type  2   force =    -0.00038456   -0.00007532    0.00006033
     atom   13 type  1   force =    -0.00066731   -0.00005870   -0.00173299
     atom   14 type  1   force =     0.00056988    0.00018062    0.00024152
     atom   15 type  2   force =     0.00045087    0.00047916    0.00028614
     atom   16 type  2   force =    -0.00028298    0.00004557    0.00047426
     atom   17 type  2   force =    -0.00030931   -0.00035284   -0.00039359
     atom   18 type  2   force =    -0.00018960   -0.00002445    0.00019607
     atom   19 type  1   force =     0.00089472   -0.00002625    0.00032034
     atom   20 type  1   force =    -0.00059851   -0.00079773   -0.00030292
     atom   21 type  2   force =     0.00006064    0.00004454    0.10334480
     atom   22 type  2   force =     0.00039686    0.00080605    0.00019532
     atom   23 type  2   force =    -0.07131565   -0.00007521   -0.02764687
     atom   24 type  2   force =     0.07127593    0.00035895   -0.02768401
     atom   25 type  1   force =    -0.00006786   -0.00014162    0.09568153
     atom   26 type  1   force =    -0.00020208   -0.00031294   -0.17603403
     atom   27 type  2   force =     0.00012395   -0.00040600   -0.02390303
     atom   28 type  2   force =     0.00009683   -0.00126827    0.05363985
     atom   29 type  2   force =    -0.01203161    0.00045070    0.00380931
     atom   30 type  2   force =     0.01367165    0.00068832    0.00309228
     atom   31 type  1   force =    -0.00060873    0.00370442   -0.01331207
     atom   32 type  1   force =     0.00020570   -0.01324249    0.02339328
     atom   33 type  2   force =    -0.00007742   -0.00005897   -0.00029095
     atom   34 type  2   force =    -0.00008049    0.00021696   -0.01828898
     atom   35 type  2   force =     0.00034104   -0.00048553    0.00028512
     atom   36 type  2   force =    -0.00029916   -0.00016071    0.00014004
     atom   37 type  1   force =    -0.00084677   -0.00023391   -0.00024876
     atom   38 type  1   force =     0.00046809    0.00008973    0.00058142
     atom   39 type  2   force =     0.00003890    0.00088993    0.00016142
     atom   40 type  2   force =    -0.00023069   -0.00017431   -0.00051384
     atom   41 type  2   force =     0.00045435    0.00041918    0.00024002
     atom   42 type  2   force =    -0.00116609    0.00007672    0.00028984
     atom   43 type  1   force =     0.00081779    0.00026732   -0.00040188
     atom   44 type  1   force =    -0.00047799   -0.00082761   -0.00038065
     atom   45 type  2   force =     0.00006093    0.00003817    0.10329710
     atom   46 type  2   force =    -0.07129845   -0.00001927   -0.02761287
     atom   47 type  2   force =     0.07124814    0.00040149   -0.02763262
     atom   48 type  3   force =    -0.00918604    0.00457341    0.00485883
     atom   49 type  4   force =     0.01887412   -0.00352535   -0.00121812
     atom   50 type  5   force =    -0.00750968    0.00085827   -0.00399013
     atom   51 type  5   force =    -0.00055365    0.00051797    0.00073450
     atom   52 type  5   force =     0.00008930    0.00002000    0.00039709
     atom   53 type  2   force =    -0.00144026   -0.00113655   -0.00046269
     atom   54 type  5   force =    -0.00079785    0.00078990    0.00039383
     atom   55 type  5   force =    -0.00003380   -0.00090774    0.00040303

     Total force =     0.368412     Total SCF correction =     0.000434
  @ DRIVER MODE: Message from server: STATUS
  @ DRIVER MODE: Message from server: GETFORCE
  @ DRIVER MODE: Returning v,forces,stress,ensemble

     Writing output data file ./calc.save/
  @ DRIVER MODE: Message from server: EXIT
  @ DRIVE MODE: Exiting

     General routines

     Parallel routines

   This run was terminated on:  18: 8:24  15Sep2021

   JOB DONE.