     Program PWSCF v.6.7GPU starts on 23Aug2021 at 17:38:19

     R & G space division:  proc/nbgrp/npool/nimage =       6
     Reading input from /storage/home/hcoda1/3/ntian30/research/carbon/CH_vib/ads_slab/CH_a/out_0011/pw.inp
Warning: card &CELL ignored
Warning: card   CELL_DYNAMICS='IPI', ignored
Warning: card / ignored

     Current dimensions of program PWSCF are:
     Max number of different atomic species (ntypx) = 10
     Max number of k-points (npk) =  40000
     Max angular momentum in pseudopotentials (lmaxx) =  3
     Presently no symmetry can be used with electric field

     Message from routine cell_base_init:
     DEPRECATED: use true lattice parameter, not A to a.u. conversion factor

     IMPORTANT: XC functional enforced from input :
     Exchange-correlation= BEEF-VDW
                           (   1   4  43  14   2   0   0)
     Any further DFT definition will be discarded
     Please, verify this is what you really want

  @ DRIVER MODE: Connecting to
 qe_1139763_2632798.sched-torque.pace.gatech.edu6nga2h2b_scratch
  using UNIX socket
  @ DRIVER MODE: Message from server: STATUS
  @ DRIVER MODE: Message from server: INIT
  @ DRIVER MODE: Receiving replica           0          -1
  @ DRIVER MODE: Receiving encoded integer          25
  @ DRIVER MODE:  SCF:  T  FORCE:  T  STRESS:  F  VC:  F  ENSEMBLE:  F
  @ DRIVER MODE:  SCF:  T  FORCE:  T  STRESS:  F  VC:  F  ENSEMBLE:  F

     Using Slab Decomposition

     bravais-lattice index     =            0
     lattice parameter (alat)  =       1.8897  a.u.
     unit-cell volume          =    6658.9804 (a.u.)^3
     number of atoms/cell      =           49
     number of atomic types    =            4
     number of electrons       =       383.00
     number of Kohn-Sham states=          201
     kinetic-energy cutoff     =      29.3995  Ry
     charge density cutoff     =     293.9946  Ry
     scf convergence threshold =      7.3E-08
     mixing beta               =       0.0500
     number of iterations used =            8  plain     mixing
     Exchange-correlation= BEEF-VDW
                           (   1   4  43  14   2   0   0)

     celldm(1)=   1.889726  celldm(2)=   0.000000  celldm(3)=   0.000000
     celldm(4)=   0.000000  celldm(5)=   0.000000  celldm(6)=   0.000000

     crystal axes: (cart. coord. in units of alat)
               a(1) = (   6.579727   0.000000   0.000000 )
               a(2) = (  -0.000775   5.961596   0.000000 )
               a(3) = (   0.000000   0.000000  25.155947 )

     reciprocal axes: (cart. coord. in units 2 pi/alat)
               b(1) = (  0.151982  0.000020  0.000000 )
               b(2) = (  0.000000  0.167740  0.000000 )
               b(3) = (  0.000000  0.000000  0.039752 )

     PseudoPot. # 1 for Ti read from file:
     /storage/coda1/p-amedford6/0/shared/rich_project_chbe-medford/medford-share/data/pseudos_module/espresso/nninc/pbe/van/Ti.UPF
     MD5 check sum: 8e4df49b7f0d34bbd5052bf3f5ea0213
     Pseudo is Ultrasoft, Zval = 12.0
     Generated by new atomic code, or converted to UPF format
     Using radial grid of  851 points,  6 beta functions with:
                l(1) =   0
                l(2) =   0
                l(3) =   1
                l(4) =   1
                l(5) =   2
                l(6) =   2
     Q(r) pseudized with  8 coefficients,  rinner =    1.000   1.000   1.000
                                                       1.000   1.000

     PseudoPot. # 2 for O  read from file:
     /storage/coda1/p-amedford6/0/shared/rich_project_chbe-medford/medford-share/data/pseudos_module/espresso/nninc/pbe/van/O.UPF
     MD5 check sum: 78c19812648e8988a0fe644b0f25305e
     Pseudo is Ultrasoft, Zval =  6.0
     Generated by new atomic code, or converted to UPF format
     Using radial grid of  737 points,  4 beta functions with:
                l(1) =   0
                l(2) =   0
                l(3) =   1
                l(4) =   1
     Q(r) pseudized with  8 coefficients,  rinner =    0.800   0.800   0.800

     PseudoPot. # 3 for C  read from file:
     /storage/coda1/p-amedford6/0/shared/rich_project_chbe-medford/medford-share/data/pseudos_module/espresso/nninc/pbe/van/C.UPF
     MD5 check sum: 1a69bf6b8db32088f5b2163dbdb77a27
     Pseudo is Ultrasoft, Zval =  4.0
     Generated by new atomic code, or converted to UPF format
     Using radial grid of  721 points,  4 beta functions with:
                l(1) =   0
                l(2) =   0
                l(3) =   1
                l(4) =   1
     Q(r) pseudized with  8 coefficients,  rinner =    0.800   0.800   0.800

     PseudoPot. # 4 for H  read from file:
     /storage/coda1/p-amedford6/0/shared/rich_project_chbe-medford/medford-share/data/pseudos_module/espresso/nninc/pbe/van/H.UPF
     MD5 check sum: b5ee9d7bfd3a09ee7748110bda690ff7
     Pseudo is Ultrasoft, Zval =  1.0
     Generated by new atomic code, or converted to UPF format
     Using radial grid of  615 points,  1 beta functions with:
                l(1) =   0
     Q(r) pseudized with  8 coefficients,  rinner =    0.800

     atomic species   valence    mass     pseudopotential
        Ti1           12.00    47.86700     Ti( 1.00)
        O1             6.00    15.99900     O ( 1.00)
        C1             4.00    12.01100     C ( 1.00)
        H1             1.00     1.00800     H ( 1.00)

     No symmetry found

   Cartesian axes

     site n.     atom                  positions (alat units)
         1           Ti1 tau(   1) = (   0.0004258   2.9801865   6.0000000  )
         2           Ti1 tau(   2) = (   3.2906075   1.4906267   6.0002472  )
         3           O1  tau(   3) = (   0.0006271   0.0005054   7.9858123  )
         4           O1  tau(   4) = (   3.2906025   0.0005020   7.3038282  )
         5           O1  tau(   5) = (   4.5942328   1.4918067   9.2879030  )
         6           O1  tau(   6) = (   1.9868534   1.4903216   9.2879459  )
         7           Ti1 tau(   7) = (   3.2921849   2.8658251   9.1648892  )
         8           Ti1 tau(   8) = (   0.0073351   1.4983988   9.3831490  )
         9           O1  tau(   9) = (   3.2842540   0.0070318  11.3521760  )
        10           O1  tau(  10) = (   0.0010487   0.0043113  10.5580200  )
        11           O1  tau(  11) = (   1.2736759   1.5124129  12.6486185  )
        12           O1  tau(  12) = (   5.2630300   1.5084811  12.6300625  )
        13           Ti1 tau(  13) = (   0.0799159   2.9885021  12.8537609  )
        14           Ti1 tau(  14) = (   3.3962166   1.4899997  12.4930974  )
        15           O1  tau(  15) = (   6.5670857   5.9608082  14.6055349  )
        16           O1  tau(  16) = (   3.2779887   0.0262294  13.9455360  )
        17           O1  tau(  17) = (   4.5047259   1.5524619  16.1062024  )
        18           O1  tau(  18) = (   2.0328015   1.5482461  16.0993997  )
        19           Ti1 tau(  19) = (   3.2588990   3.0258902  15.7259251  )
        20           Ti1 tau(  20) = (   6.5443225   1.5921241  16.1654916  )
        21           O1  tau(  21) = (   3.2904802   0.0005063   4.7018136  )
        22           O1  tau(  22) = (   6.5577444   0.0567680  17.2452940  )
        23           O1  tau(  23) = (   1.3043587   1.4918075   6.0039043  )
        24           O1  tau(  24) = (   5.2767064   1.4903225   6.0039473  )
        25           Ti1 tau(  25) = (   0.0000382   5.9609847   6.0000000  )
        26           Ti1 tau(  26) = (   3.2902200   4.4714249   6.0002472  )
        27           O1  tau(  27) = (   0.0002396   2.9813036   7.9858123  )
        28           O1  tau(  28) = (   3.2902150   2.9813002   7.3038282  )
        29           O1  tau(  29) = (   4.5938453   4.4726049   9.2879030  )
        30           O1  tau(  30) = (   1.9864658   4.4711199   9.2879459  )
        31           Ti1 tau(  31) = (   3.2960881   5.8478476   9.1648656  )
        32           Ti1 tau(  32) = (   0.0086818   4.4758218   9.3788328  )
        33           O1  tau(  33) = (   3.2854246   2.9850844  11.3450670  )
        34           O1  tau(  34) = (   0.0004502   2.9836692  10.5560002  )
        35           O1  tau(  35) = (   1.2751814   4.4662498  12.6462591  )
        36           O1  tau(  36) = (   5.2612828   4.4711168  12.6263095  )
        37           Ti1 tau(  37) = (   0.0650160   0.0072273  12.8037121  )
        38           Ti1 tau(  38) = (   3.3952379   4.4681493  12.4860303  )
        39           O1  tau(  39) = (   6.5700874   2.9943110  14.6990684  )
        40           O1  tau(  40) = (   3.2774739   3.0059374  13.9302241  )
        41           O1  tau(  41) = (   4.5038310   4.5165569  16.1051355  )
        42           O1  tau(  42) = (   2.0336826   4.5180826  16.0999700  )
        43           Ti1 tau(  43) = (   3.2582433   0.0441072  15.7465997  )
        44           Ti1 tau(  44) = (   6.5393581   4.6163053  16.1595090  )
        45           O1  tau(  45) = (   3.2900926   2.9813045   4.7018136  )
        46           O1  tau(  46) = (   1.3039711   4.4726057   6.0039043  )
        47           O1  tau(  47) = (   5.2763189   4.4711207   6.0039473  )
        48           C1  tau(  48) = (   6.5669965   3.0274956  17.5143990  )
        49           H1  tau(  49) = (   0.0036594   3.1884539  18.5831066  )

     number of k points=    10  Fermi-Dirac smearing, width (Ry)=  0.0073
                       cart. coord. in units 2pi/alat
        k(    1) = (   0.0000000   0.0000000   0.0000000), wk =   0.1250000
        k(    2) = (   0.0000000   0.0419351   0.0000000), wk =   0.2500000
        k(    3) = (   0.0000000  -0.0838702   0.0000000), wk =   0.1250000
        k(    4) = (   0.0379955   0.0000049   0.0000000), wk =   0.2500000
        k(    5) = (   0.0379955   0.0419400   0.0000000), wk =   0.2500000
        k(    6) = (   0.0379955  -0.0838652   0.0000000), wk =   0.2500000
        k(    7) = (   0.0379955  -0.0419301   0.0000000), wk =   0.2500000
        k(    8) = (  -0.0759910  -0.0000099   0.0000000), wk =   0.1250000
        k(    9) = (  -0.0759910   0.0419252   0.0000000), wk =   0.2500000
        k(   10) = (  -0.0759910  -0.0838800   0.0000000), wk =   0.1250000

     Initial potential from superposition of free atoms

     starting charge  366.99920, renormalised to  383.00000

     negative rho (up, down):  2.158E-02 0.000E+00

     %%%%%%%%%%%%%%%%%%%%%%%%%%%%%%%%%%%%%%%%%%%%%%%%%%%%%%%%%%%%%%%%%%%%%%%%
     %                                                                      %
     % You are using vdW-DF, which was implemented by the Thonhauser group. %
     % Please cite the following two papers that made this development      %
     % possible and the two reviews that describe the various versions:     %
     %                                                                      %
     %   T. Thonhauser et al., PRL 115, 136402 (2015).                      %
     %   T. Thonhauser et al., PRB 76, 125112 (2007).                       %
     %   K. Berland et al., Rep. Prog. Phys. 78, 066501 (2015).             %
     %   D.C. Langreth et al., J. Phys.: Condens. Matter 21, 084203 (2009). %
     %                                                                      %
     %                                                                      %
     % If you are calculating the stress with vdW-DF, please also cite:     %
     %                                                                      %
     %   R. Sabatini et al., J. Phys.: Condens. Matter 24, 424209 (2012).   %
     %                                                                      %
     %%%%%%%%%%%%%%%%%%%%%%%%%%%%%%%%%%%%%%%%%%%%%%%%%%%%%%%%%%%%%%%%%%%%%%%%

     Adding external electric field

     Computed dipole along edir(3) :
        Dipole                0.0509 Ry au,          0.1294 Debye
        Dipole field          0.0001 Ry au,

        Potential amp.       -0.0089 Ry
        Total length         46.3494 bohr

     Starting wfcs are  289 atomic wfcs
  @ DRIVER MODE: Message from server: STATUS
  @ DRIVER MODE: Message from server: POSDATA
  @ DRIVER MODE: Reading and sharing cell
  @ DRIVER MODE: Reading and sharing positions
  @ DRIVER MODE: Received positions

     Self-consistent Calculation

     iteration #  1     ecut=    29.40 Ry     beta= 0.05
     Davidson diagonalization with overlap
     c_bands:  1 eigenvalues not converged
     c_bands:  1 eigenvalues not converged
     c_bands:  1 eigenvalues not converged
     c_bands:  1 eigenvalues not converged
     c_bands:  1 eigenvalues not converged
     c_bands:  1 eigenvalues not converged
     c_bands:  1 eigenvalues not converged
     ethr =  1.00E-05,  avg # of iterations = 19.6

[...]

     total energy              =   -2897.81096281 Ry
     estimated scf accuracy    <      11.76266440 Ry

     iteration #  2     ecut=    29.40 Ry     beta= 0.05
     Davidson diagonalization with overlap
     ethr =  3.07E-03,  avg # of iterations =  1.0

[...]

     iteration # 45     ecut=    29.40 Ry     beta= 0.05
     Davidson diagonalization with overlap
     c_bands:  1 eigenvalues not converged
     c_bands:  1 eigenvalues not converged
     c_bands:  1 eigenvalues not converged
     ethr =  1.02E-06,  avg # of iterations =  7.7

[...]

     total energy              =   -2896.37504148 Ry
     estimated scf accuracy    <       0.00000013 Ry

     iteration # 77     ecut=    29.40 Ry     beta= 0.05
     Davidson diagonalization with overlap
     ethr =  2.26E-11,  avg # of iterations =  3.2

     negative rho (up, down):  2.071E-02 0.000E+00

     Adding external electric field

     Computed dipole along edir(3) :
        Dipole                0.3689 Ry au,          0.9378 Debye
        Dipole field          0.0007 Ry au,

        Potential amp.       -0.0645 Ry
        Total length         46.3494 bohr

     End of self-consistent calculation

          k = 0.0000 0.0000 0.0000 ( 18029 PWs)   bands (ev):

   -56.6406 -56.6068 -56.3431 -56.3062 -56.2276 -56.1666 -56.0430 -56.0401
   -56.0058 -55.9453 -55.9360 -55.9090 -55.4380 -55.4040 -55.3540 -55.2686
   -33.0690 -32.8871 -32.8863 -32.8586 -32.8327 -32.7414 -32.6958 -32.6805
   -32.6499 -32.5577 -32.5450 -32.5378 -32.5235 -32.5202 -32.5129 -32.4961
   -32.4731 -32.4556 -32.4449 -32.3498 -32.3119 -32.2888 -32.2870 -32.2764
   -32.2625 -32.2593 -32.1974 -32.1939 -32.1680 -32.1619 -32.1545 -32.1304
   -32.1224 -32.1127 -32.0991 -32.0415 -31.8964 -31.8383 -31.7633 -31.7395
   -31.6568 -31.6260 -31.5875 -31.5718 -31.5613 -31.4854 -31.4597 -31.3418
   -16.9976 -16.8095 -16.5774 -16.4421 -16.3521 -16.2792 -16.0123 -16.0102
   -15.9640 -15.8917 -15.8638 -15.8012 -15.7979 -15.7717 -15.7608 -15.7513
   -15.7327 -15.6846 -15.6683 -15.6405 -15.6072 -15.5661 -15.4440 -15.4244
   -15.4083 -15.2941 -15.2444 -15.2062 -15.0232 -13.9309 -13.8168  -7.8208
    -4.4001  -4.3416  -4.1873  -4.1643  -4.0709  -3.8269  -3.6997  -3.4772
    -3.4360  -3.4054  -3.3905  -3.3242  -3.2651  -3.1588  -3.1417  -3.1221
    -3.0800  -3.0715  -3.0494  -3.0362  -3.0107  -2.9704  -2.8875  -2.8488
    -2.8294  -2.7502  -2.7228  -2.6456  -2.6192  -2.5750  -2.5496  -2.4904
    -2.4838  -2.4201  -2.3496  -2.2911  -2.1397  -2.0993  -2.0907  -2.0838
    -2.0131  -1.9041  -1.7632  -1.7289  -1.6620  -1.6604  -1.6425  -1.6057
    -1.5147  -1.4967  -1.4110  -1.3046  -1.2953  -1.2448  -1.1911  -1.1503
    -1.1335  -1.1330  -1.0759  -1.0450  -1.0078  -0.8832  -0.8536  -0.7340
    -0.7166  -0.6817  -0.6443  -0.6393  -0.5888  -0.5306  -0.4773  -0.4469
    -0.4255  -0.3785  -0.3681  -0.3330  -0.3103  -0.2555  -0.1407  -0.1168
    -0.1063  -0.0416   0.1436   0.1689   0.2118   0.3011   0.3496   0.5114
     0.5321   0.5907   0.7988   0.8354   1.1812   1.2613   1.5395   2.2805
     2.6271   2.8220   3.0824   3.1187   3.1361   3.1678   3.3425   3.3782
     3.5220

[...]

          k = 0.0380-0.0419 0.0000 ( 17876 PWs)   bands (ev):

[...]

          k =-0.0760-0.0000 0.0000 ( 17886 PWs)   bands (ev):

[...]

          k =-0.0760-0.0839 0.0000 ( 17948 PWs)   bands (ev):

   -56.6258 -56.6215 -56.3290 -56.3202 -56.2222 -56.1719 -56.0401 -56.0254
   -56.0203 -55.9388 -55.9316 -55.9226 -55.4209 -55.4209 -55.3503 -55.2722
   -32.8881 -32.8846 -32.8752 -32.8698 -32.7871 -32.7834 -32.6941 -32.6873
   -32.6053 -32.5945 -32.5374 -32.5273 -32.5252 -32.5170 -32.4918 -32.4647
   -32.4281 -32.3738 -32.3606 -32.3530 -32.3491 -32.2847 -32.2758 -32.2699
   -32.2676 -32.2590 -32.2518 -32.2433 -32.2315 -32.2261 -32.1837 -32.1751
   -32.1429 -32.1417 -32.1345 -32.1335 -31.7943 -31.7524 -31.7524 -31.6525
   -31.6524 -31.6353 -31.6243 -31.6144 -31.6144 -31.5645 -31.5058 -31.3819
   -16.4534 -16.4346 -16.2208 -16.2116 -16.1129 -16.1125 -16.1116 -16.1093
   -16.0090 -16.0062 -15.9344 -15.9201 -15.8641 -15.8562 -15.8209 -15.8190
   -15.7978 -15.7945 -15.7526 -15.7459 -15.6173 -15.6152 -15.5093 -15.5055
   -15.4665 -15.4260 -15.3863 -15.3759 -15.1597 -13.9192 -13.9188  -7.8233
    -3.7514  -3.7205  -3.4361  -3.4323  -3.2507  -3.2474  -3.2464  -3.2267
    -3.1829  -3.1527  -3.1431  -3.1182  -3.0871  -3.0437  -3.0329  -3.0131
    -3.0084  -3.0026  -2.9900  -2.9887  -2.9657  -2.9566  -2.9044  -2.8830
    -2.8724  -2.8628  -2.8136  -2.8122  -2.7095  -2.5863  -2.5382  -2.5341
    -2.4850  -2.4508  -2.3671  -2.3645  -2.3358  -2.3195  -2.2731  -2.1698
    -2.0378  -2.0353  -1.9938  -1.9597  -1.8959  -1.8185  -1.7165  -1.6503
    -1.6189  -1.5893  -1.5232  -1.4657  -1.4576  -1.4385  -1.4279  -1.4197
    -1.4058  -1.3096  -1.2973  -1.2259  -1.1887  -1.1786  -1.1688  -1.1362
    -1.1105  -1.0468  -0.9511  -0.9484  -0.9364  -0.9085  -0.8052  -0.7601
    -0.7031  -0.6518  -0.6062  -0.3580  -0.3555  -0.2016  -0.0928  -0.0307
     0.0345   0.0587   0.1013   0.1667   0.2286   0.2338   0.2608   0.2632
     0.3590   0.3615   0.9769   0.9773   1.0359   1.0370   1.7711   2.2232
     3.1072   3.1503   3.1679   3.1732   3.1982   3.2261   3.2444   3.2548
     3.5891

     the Fermi energy is     2.1456 ev

!    total energy              =   -2896.37504863 Ry
     estimated scf accuracy    <       0.00000007 Ry
     smearing contrib. (-TS)   =      -0.01052666 Ry
     internal energy E=F+TS    =   -2896.36452197 Ry

     The total energy is F=E-TS. E is the sum of the following terms:
     one-electron contribution =  -24784.16744580 Ry
     hartree contribution      =   12470.11356849 Ry
     xc contribution           =    -472.98831541 Ry
     ewald contribution        =    9890.67741388 Ry
     electric field correction =       0.00025687 Ry

     convergence has been achieved in  77 iterations

     Forces acting on atoms (cartesian axes, Ry/au):

     atom    1 type  1   force =     0.00018620   -0.00055805    0.14917498
     atom    2 type  1   force =    -0.00002643   -0.00030952   -0.17024960
     atom    3 type  2   force =     0.00005960    0.00011994   -0.06123361
     atom    4 type  2   force =     0.00010948   -0.00167369    0.04074718
     atom    5 type  2   force =    -0.02326962    0.00030412    0.00410470
     atom    6 type  2   force =     0.02298953    0.00151285    0.00331116
     atom    7 type  1   force =    -0.00054984    0.00074303    0.00018041
     atom    8 type  1   force =     0.00020436    0.00084581   -0.00021001
     atom    9 type  2   force =    -0.00006191    0.00009752   -0.00050112
     atom   10 type  2   force =    -0.00002985   -0.00051009    0.00033882
     atom   11 type  2   force =    -0.00022647    0.00046774    0.00028842
     atom   12 type  2   force =     0.00033689    0.00011858    0.00023512
     atom   13 type  1   force =     0.00033299    0.00065118   -0.00095983
     atom   14 type  1   force =    -0.00045736    0.00097054   -0.00030501
     atom   15 type  2   force =     0.00013087   -0.00005208   -0.00021214
     atom   16 type  2   force =     0.00013352   -0.00026169   -0.00006228
     atom   17 type  2   force =     0.00073430    0.00016454    0.00011060
     atom   18 type  2   force =    -0.00065902    0.00026243    0.00009233
     atom   19 type  1   force =     0.00000824   -0.00107393    0.00056365
     atom   20 type  1   force =     0.00006165   -0.00034947    0.00078556
     atom   21 type  2   force =     0.00008011   -0.00018337    0.10246411
     atom   22 type  2   force =    -0.00005352    0.00038306   -0.00025760
     atom   23 type  2   force =    -0.07444341    0.00019609   -0.03477904
     atom   24 type  2   force =     0.07440100    0.00062557   -0.03482888
     atom   25 type  1   force =    -0.00004266   -0.00050782    0.15021839
     atom   26 type  1   force =    -0.00002129   -0.00070677   -0.17019648
     atom   27 type  2   force =     0.00007286    0.00063765   -0.06044322
     atom   28 type  2   force =     0.00002935   -0.00161941    0.04019221
     atom   29 type  2   force =    -0.02284685    0.00143874    0.00428023
     atom   30 type  2   force =     0.02311811    0.00223457    0.00347877
     atom   31 type  1   force =    -0.00054410    0.00012875   -0.00079363
     atom   32 type  1   force =     0.00023036   -0.00111040    0.00050596
     atom   33 type  2   force =     0.00025576   -0.00007994    0.00119321
     atom   34 type  2   force =    -0.00004236    0.00059133   -0.00022705
     atom   35 type  2   force =    -0.00096413   -0.00042048    0.00003659
     atom   36 type  2   force =     0.00100149   -0.00022615    0.00010854
     atom   37 type  1   force =    -0.00004240   -0.00007384   -0.00025325
     atom   38 type  1   force =    -0.00070205   -0.00076568    0.00031522
     atom   39 type  2   force =    -0.00004361   -0.00018752   -0.00017523
     atom   40 type  2   force =     0.00009446   -0.00016039   -0.00077099
     atom   41 type  2   force =     0.00072794   -0.00035850    0.00048943
     atom   42 type  2   force =    -0.00073112   -0.00044778    0.00051868
     atom   43 type  1   force =    -0.00001348    0.00082833   -0.00092127
     atom   44 type  1   force =     0.00017108   -0.00046691    0.00053092
     atom   45 type  2   force =     0.00007158   -0.00018341    0.10245093
     atom   46 type  2   force =    -0.07443266   -0.00013677   -0.03478544
     atom   47 type  2   force =     0.07438625    0.00030747   -0.03483851
     atom   48 type  3   force =    -0.00017934   -0.00272684   -0.01151883
     atom   49 type  4   force =     0.00045549    0.00152065    0.01180689

     Total force =     0.404904     Total SCF correction =     0.000559
  @ DRIVER MODE: Message from server: STATUS
  @ DRIVER MODE: Message from server: GETFORCE
  @ DRIVER MODE: Returning v,forces,stress,ensemble

     Writing output data file ./calc.save/
  @ DRIVER MODE: Message from server: EXIT
  @ DRIVE MODE: Exiting

     General routines

     Parallel routines

   This run was terminated on:  18: 7:49  23Aug2021

   JOB DONE.