     Program PWSCF v.6.7GPU starts on 10Sep2021 at 22:26: 8

     R & G space division:  proc/nbgrp/npool/nimage =      10
     Reading input from /storage/home/hcoda1/3/ntian30/research/carbon/CxH_vib/CH2_calc/ads_slab/CH2N2H_e/out_0015/pw.inp
Warning: card &CELL ignored
Warning: card   CELL_DYNAMICS='IPI', ignored
Warning: card / ignored

     Current dimensions of program PWSCF are:
     Max number of different atomic species (ntypx) = 10
     Max number of k-points (npk) =  40000
     Max angular momentum in pseudopotentials (lmaxx) =  3
     Presently no symmetry can be used with electric field

     Message from routine cell_base_init:
     DEPRECATED: use true lattice parameter, not A to a.u. conversion factor

     IMPORTANT: XC functional enforced from input :
     Exchange-correlation= BEEF-VDW
                           (   1   4  43  14   2   0   0)
     Any further DFT definition will be discarded
     Please, verify this is what you really want

  @ DRIVER MODE: Connecting to
 qe_1139763_2792041.sched-torque.pace.gatech.edugqibejld_scratch
  using UNIX socket
  @ DRIVER MODE: Message from server: STATUS
  @ DRIVER MODE: Message from server: INIT
  @ DRIVER MODE: Receiving replica           0          -1
  @ DRIVER MODE: Receiving encoded integer          25
  @ DRIVER MODE:  SCF:  T  FORCE:  T  STRESS:  F  VC:  F  ENSEMBLE:  F
  @ DRIVER MODE:  SCF:  T  FORCE:  T  STRESS:  F  VC:  F  ENSEMBLE:  F

     Using Slab Decomposition

     bravais-lattice index     =            0
     lattice parameter (alat)  =       1.8897  a.u.
     unit-cell volume          =    6658.9804 (a.u.)^3
     number of atoms/cell      =           53
     number of atomic types    =            5
     number of electrons       =       395.00
     number of Kohn-Sham states=          207
     kinetic-energy cutoff     =      29.3995  Ry
     charge density cutoff     =     293.9946  Ry
     scf convergence threshold =      7.3E-08
     mixing beta               =       0.0500
     number of iterations used =            8  plain     mixing
     Exchange-correlation= BEEF-VDW
                           (   1   4  43  14   2   0   0)

     celldm(1)=   1.889726  celldm(2)=   0.000000  celldm(3)=   0.000000
     celldm(4)=   0.000000  celldm(5)=   0.000000  celldm(6)=   0.000000

     crystal axes: (cart. coord. in units of alat)
               a(1) = (   6.579727   0.000000   0.000000 )
               a(2) = (  -0.000775   5.961596   0.000000 )
               a(3) = (   0.000000   0.000000  25.155947 )

     reciprocal axes: (cart. coord. in units 2 pi/alat)
               b(1) = (  0.151982  0.000020  0.000000 )
               b(2) = (  0.000000  0.167740  0.000000 )
               b(3) = (  0.000000  0.000000  0.039752 )

     PseudoPot. # 1 for Ti read from file:
     /storage/coda1/p-amedford6/0/shared/rich_project_chbe-medford/medford-share/data/pseudos_module/espresso/nninc/pbe/van/Ti.UPF
     MD5 check sum: 8e4df49b7f0d34bbd5052bf3f5ea0213
     Pseudo is Ultrasoft, Zval = 12.0
     Generated by new atomic code, or converted to UPF format
     Using radial grid of  851 points,  6 beta functions with:
                l(1) =   0
                l(2) =   0
                l(3) =   1
                l(4) =   1
                l(5) =   2
                l(6) =   2
     Q(r) pseudized with  8 coefficients,  rinner =    1.000   1.000   1.000
                                                       1.000   1.000

     PseudoPot. # 2 for O  read from file:
     /storage/coda1/p-amedford6/0/shared/rich_project_chbe-medford/medford-share/data/pseudos_module/espresso/nninc/pbe/van/O.UPF
     MD5 check sum: 78c19812648e8988a0fe644b0f25305e
     Pseudo is Ultrasoft, Zval =  6.0
     Generated by new atomic code, or converted to UPF format
     Using radial grid of  737 points,  4 beta functions with:
                l(1) =   0
                l(2) =   0
                l(3) =   1
                l(4) =   1
     Q(r) pseudized with  8 coefficients,  rinner =    0.800   0.800   0.800

     PseudoPot. # 3 for N  read from file:
     /storage/coda1/p-amedford6/0/shared/rich_project_chbe-medford/medford-share/data/pseudos_module/espresso/nninc/pbe/van/N.UPF
     MD5 check sum: 90d10febe142ad51ac9d5be1deb811c4
     Pseudo is Ultrasoft, Zval =  5.0
     Generated by new atomic code, or converted to UPF format
     Using radial grid of  729 points,  4 beta functions with:
                l(1) =   0
                l(2) =   0
                l(3) =   1
                l(4) =   1
     Q(r) pseudized with  8 coefficients,  rinner =    0.800   0.800   0.800

     PseudoPot. # 4 for C  read from file:
     /storage/coda1/p-amedford6/0/shared/rich_project_chbe-medford/medford-share/data/pseudos_module/espresso/nninc/pbe/van/C.UPF
     MD5 check sum: 1a69bf6b8db32088f5b2163dbdb77a27
     Pseudo is Ultrasoft, Zval =  4.0
     Generated by new atomic code, or converted to UPF format
     Using radial grid of  721 points,  4 beta functions with:
                l(1) =   0
                l(2) =   0
                l(3) =   1
                l(4) =   1
     Q(r) pseudized with  8 coefficients,  rinner =    0.800   0.800   0.800

     PseudoPot. # 5 for H  read from file:
     /storage/coda1/p-amedford6/0/shared/rich_project_chbe-medford/medford-share/data/pseudos_module/espresso/nninc/pbe/van/H.UPF
     MD5 check sum: b5ee9d7bfd3a09ee7748110bda690ff7
     Pseudo is Ultrasoft, Zval =  1.0
     Generated by new atomic code, or converted to UPF format
     Using radial grid of  615 points,  1 beta functions with:
                l(1) =   0
     Q(r) pseudized with  8 coefficients,  rinner =    0.800

     atomic species   valence    mass     pseudopotential
        Ti1           12.00    47.86700     Ti( 1.00)
        O1             6.00    15.99900     O ( 1.00)
        N1             5.00    14.00700     N ( 1.00)
        C1             4.00    12.01100     C ( 1.00)
        H1             1.00     1.00800     H ( 1.00)

     No symmetry found

   Cartesian axes

     site n.     atom                  positions (alat units)
         1           Ti1 tau(   1) = (   0.0004258   2.9801865   6.0000000  )
         2           Ti1 tau(   2) = (   3.2906075   1.4906267   6.0002472  )
         3           O1  tau(   3) = (   0.0006271   0.0005054   7.9858123  )
         4           O1  tau(   4) = (   3.2906025   0.0005020   7.3038282  )
         5           O1  tau(   5) = (   4.5942328   1.4918067   9.2879030  )
         6           O1  tau(   6) = (   1.9868534   1.4903216   9.2879459  )
         7           Ti1 tau(   7) = (   3.2907910   2.8959150   9.1758416  )
         8           Ti1 tau(   8) = (   0.0015273   1.4827037   9.2680791  )
         9           O1  tau(   9) = (   3.2922140   0.0036562  11.3253104  )
        10           O1  tau(  10) = (   0.0116148   5.9584955  10.6183126  )
        11           O1  tau(  11) = (   1.2860832   1.4889729  12.6258215  )
        12           O1  tau(  12) = (   5.2729595   1.4828594  12.6177116  )
        13           Ti1 tau(  13) = (   0.0641184   3.0073180  12.5883652  )
        14           Ti1 tau(  14) = (   3.3767723   1.4911129  12.4765728  )
        15           O1  tau(  15) = (   6.5781935   5.9569561  14.6821271  )
        16           O1  tau(  16) = (   3.2819581   0.0025077  13.9050320  )
        17           O1  tau(  17) = (   4.5172158   1.5234625  16.0337941  )
        18           O1  tau(  18) = (   2.0475084   1.5263597  16.0453316  )
        19           Ti1 tau(  19) = (   3.2743797   3.0127756  15.6984511  )
        20           Ti1 tau(  20) = (   6.5512008   1.5842238  15.7855373  )
        21           O1  tau(  21) = (   3.2904802   0.0005063   4.7018136  )
        22           O1  tau(  22) = (   6.5742344   0.0609322  17.2932839  )
        23           O1  tau(  23) = (   1.3043587   1.4918075   6.0039043  )
        24           O1  tau(  24) = (   5.2767064   1.4903225   6.0039473  )
        25           Ti1 tau(  25) = (   0.0000382   5.9609847   6.0000000  )
        26           Ti1 tau(  26) = (   3.2902200   4.4714249   6.0002472  )
        27           O1  tau(  27) = (   0.0002396   2.9813036   7.9858123  )
        28           O1  tau(  28) = (   3.2902150   2.9813002   7.3038282  )
        29           O1  tau(  29) = (   4.5938453   4.4726049   9.2879030  )
        30           O1  tau(  30) = (   1.9864658   4.4711199   9.2879459  )
        31           Ti1 tau(  31) = (   3.2891106   5.8743827   9.1763621  )
        32           Ti1 tau(  32) = (   0.0006254   4.4649316   9.2693709  )
        33           O1  tau(  33) = (   3.2917412   2.9831059  11.3263362  )
        34           O1  tau(  34) = (   0.0092240   2.9805883  10.6323155  )
        35           O1  tau(  35) = (   1.2859270   4.4784489  12.6216084  )
        36           O1  tau(  36) = (   5.2779610   4.4756213  12.6128944  )
        37           Ti1 tau(  37) = (   0.0616295   0.0157230  12.5710002  )
        38           Ti1 tau(  38) = (   3.3796684   4.4726909  12.4790056  )
        39           O1  tau(  39) = (   6.5693437   2.9756239  14.6354252  )
        40           O1  tau(  40) = (   3.2842310   3.0020566  13.9003041  )
        41           O1  tau(  41) = (   4.5171552   4.5052370  16.0986928  )
        42           O1  tau(  42) = (   2.0408908   4.5012300  16.0971631  )
        43           Ti1 tau(  43) = (   3.2680294   0.0293594  15.7040856  )
        44           Ti1 tau(  44) = (   6.5592110   4.6908586  16.1766550  )
        45           O1  tau(  45) = (   3.2900926   2.9813045   4.7018136  )
        46           O1  tau(  46) = (   1.3039711   4.4726057   6.0039043  )
        47           O1  tau(  47) = (   5.2763189   4.4711207   6.0039473  )
        48           N1  tau(  48) = (   0.0931655   2.5901963  18.5587852  )
        49           N1  tau(  49) = (   6.5755498   2.9338716  17.3126873  )
        50           C1  tau(  50) = (   0.1889803   3.3362807  19.6294495  )
        51           H1  tau(  51) = (   0.2540540   2.8541835  20.5836859  )
        52           H1  tau(  52) = (   0.1890997   4.4171571  19.5098884  )
        53           H1  tau(  53) = (   0.0969130   1.5623892  18.6894177  )

     number of k points=    10  Fermi-Dirac smearing, width (Ry)=  0.0073
                       cart. coord. in units 2pi/alat
        k(    1) = (   0.0000000   0.0000000   0.0000000), wk =   0.1250000
        k(    2) = (   0.0000000   0.0419351   0.0000000), wk =   0.2500000
        k(    3) = (   0.0000000  -0.0838702   0.0000000), wk =   0.1250000
        k(    4) = (   0.0379955   0.0000049   0.0000000), wk =   0.2500000
        k(    5) = (   0.0379955   0.0419400   0.0000000), wk =   0.2500000
        k(    6) = (   0.0379955  -0.0838652   0.0000000), wk =   0.2500000
        k(    7) = (   0.0379955  -0.0419301   0.0000000), wk =   0.2500000
        k(    8) = (  -0.0759910  -0.0000099   0.0000000), wk =   0.1250000
        k(    9) = (  -0.0759910   0.0419252   0.0000000), wk =   0.2500000
        k(   10) = (  -0.0759910  -0.0838800   0.0000000), wk =   0.1250000

     Initial potential from superposition of free atoms

     starting charge  378.99916, renormalised to  395.00000

     negative rho (up, down):  1.523E-02 0.000E+00

     %%%%%%%%%%%%%%%%%%%%%%%%%%%%%%%%%%%%%%%%%%%%%%%%%%%%%%%%%%%%%%%%%%%%%%%%
     %                                                                      %
     % You are using vdW-DF, which was implemented by the Thonhauser group. %
     % Please cite the following two papers that made this development      %
     % possible and the two reviews that describe the various versions:     %
     %                                                                      %
     %   T. Thonhauser et al., PRL 115, 136402 (2015).                      %
     %   T. Thonhauser et al., PRB 76, 125112 (2007).                       %
     %   K. Berland et al., Rep. Prog. Phys. 78, 066501 (2015).             %
     %   D.C. Langreth et al., J. Phys.: Condens. Matter 21, 084203 (2009). %
     %                                                                      %
     %                                                                      %
     % If you are calculating the stress with vdW-DF, please also cite:     %
     %                                                                      %
     %   R. Sabatini et al., J. Phys.: Condens. Matter 24, 424209 (2012).   %
     %                                                                      %
     %%%%%%%%%%%%%%%%%%%%%%%%%%%%%%%%%%%%%%%%%%%%%%%%%%%%%%%%%%%%%%%%%%%%%%%%

     Adding external electric field

     Computed dipole along edir(3) :
        Dipole               -8.7485 Ry au,        -22.2364 Debye
        Dipole field         -0.0165 Ry au,

        Potential amp.        1.5304 Ry
        Total length         46.3494 bohr

     Starting wfcs are  299 atomic wfcs
  @ DRIVER MODE: Message from server: STATUS
  @ DRIVER MODE: Message from server: POSDATA
  @ DRIVER MODE: Reading and sharing cell
  @ DRIVER MODE: Reading and sharing positions
  @ DRIVER MODE: Received positions

     Self-consistent Calculation

     iteration #  1     ecut=    29.40 Ry     beta= 0.05
     Davidson diagonalization with overlap
     c_bands:  2 eigenvalues not converged
     c_bands:  1 eigenvalues not converged
     c_bands:  1 eigenvalues not converged
     c_bands:  3 eigenvalues not converged
     c_bands:  2 eigenvalues not converged
     c_bands:  1 eigenvalues not converged
     c_bands:  1 eigenvalues not converged
     ethr =  1.00E-05,  avg # of iterations = 19.1

[...]

     total energy              =   -2617.08869114 Ry
     estimated scf accuracy    <    3576.58524880 Ry

     iteration #  2     ecut=    29.40 Ry     beta= 0.05
     Davidson diagonalization with overlap
     ethr =  1.00E-02,  avg # of iterations = 22.2

[...]

     iteration # 73     ecut=    29.40 Ry     beta= 0.05
     Davidson diagonalization with overlap
     c_bands:  1 eigenvalues not converged
     ethr =  1.05E-10,  avg # of iterations = 11.1

[...]

     total energy              =   -2939.15563266 Ry
     estimated scf accuracy    <       0.00000007 Ry

     iteration # 78     ecut=    29.40 Ry     beta= 0.05
     Davidson diagonalization with overlap
     ethr =  1.87E-11,  avg # of iterations =  6.6

     negative rho (up, down):  1.570E-02 0.000E+00

     Adding external electric field

     Computed dipole along edir(3) :
        Dipole                1.1260 Ry au,          2.8619 Debye
        Dipole field          0.0021 Ry au,

        Potential amp.       -0.1970 Ry
        Total length         46.3494 bohr

     End of self-consistent calculation

          k = 0.0000 0.0000 0.0000 ( 18029 PWs)   bands (ev):

   -55.5831 -55.5799 -55.5491 -55.5439 -55.4510 -55.4319 -55.4147 -55.3968
   -55.3967 -55.3629 -55.3579 -55.3242 -54.9534 -54.8649 -54.5612 -54.5272
   -32.1346 -32.0660 -31.9519 -31.8952 -31.8927 -31.8842 -31.8759 -31.8491
   -31.8269 -31.8072 -31.7754 -31.7658 -31.7591 -31.7353 -31.7328 -31.7198
   -31.6879 -31.6774 -31.6680 -31.6545 -31.6515 -31.6402 -31.6056 -31.5993
   -31.5894 -31.5858 -31.5815 -31.5733 -31.5624 -31.5599 -31.5355 -31.5256
   -31.5117 -31.5065 -31.4988 -31.4708 -31.4600 -31.1926 -31.1845 -31.1456
   -31.0976 -31.0440 -30.9682 -30.8801 -30.8577 -30.7851 -30.6986 -30.5874
   -18.9624 -16.3382 -16.0615 -15.8141 -15.7337 -15.7171 -15.6012 -15.4287
   -15.3123 -15.2611 -15.1581 -15.1572 -15.1205 -15.0863 -15.0384 -15.0350
   -15.0302 -15.0032 -14.9946 -14.9740 -14.9437 -14.9254 -14.8863 -14.7871
   -14.7686 -14.7189 -14.6903 -14.6641 -14.6438 -14.2604 -13.0634 -12.9470
   -12.7456  -8.8595  -6.3705  -4.8455  -3.7135  -3.6719  -3.5557  -3.4908
    -3.4516  -3.4115  -3.2220  -3.1830  -3.1384  -2.8322  -2.7717  -2.7532
    -2.7431  -2.7134  -2.4887  -2.4501  -2.3987  -2.3680  -2.3565  -2.3539
    -2.3523  -2.3227  -2.3042  -2.1634  -2.1286  -2.0387  -1.9993  -1.9925
    -1.9840  -1.8964  -1.8646  -1.8378  -1.8278  -1.8180  -1.7900  -1.7810
    -1.7724  -1.6385  -1.5594  -1.4076  -1.3871  -1.3468  -1.2157  -1.1914
    -1.0597  -1.0426  -1.0135  -0.9767  -0.9573  -0.8880  -0.7682  -0.7464
    -0.7108  -0.6963  -0.6050  -0.5669  -0.4993  -0.4652  -0.4406  -0.3943
    -0.3542  -0.3451  -0.3232  -0.1961  -0.0670  -0.0096  -0.0002   0.0269
     0.0954   0.1332   0.1939   0.2437   0.2534   0.2901   0.3415   0.3861
     0.3980   0.4004   0.4157   0.4536   0.5949   0.6114   0.6768   0.7221
     0.7654   0.8803   0.9322   1.0685   1.1601   1.3185   1.3883   1.4611
     1.5335   1.6533   2.0315   2.0427   2.0776   3.5472   3.6359   3.6800
     3.6853   3.7912   3.8862   3.9984   4.0182   4.0392   4.0941

[...]

          k = 0.0380-0.0419 0.0000 ( 17876 PWs)   bands (ev):

[...]

          k =-0.0760-0.0000 0.0000 ( 17886 PWs)   bands (ev):

[...]

          k =-0.0760-0.0839 0.0000 ( 17948 PWs)   bands (ev):

   -55.5662 -55.5658 -55.5622 -55.5614 -55.4384 -55.4273 -55.4175 -55.4110
   -55.3798 -55.3794 -55.3418 -55.3406 -54.9507 -54.8675 -54.5442 -54.5440
   -31.9380 -31.9363 -31.8815 -31.8811 -31.8616 -31.8609 -31.8343 -31.8340
   -31.7994 -31.7870 -31.7630 -31.7568 -31.7221 -31.7140 -31.6990 -31.6970
   -31.6946 -31.6921 -31.6857 -31.6854 -31.6820 -31.6794 -31.6518 -31.6440
   -31.6258 -31.6234 -31.6165 -31.6111 -31.5803 -31.5789 -31.5735 -31.5720
   -31.5573 -31.5568 -31.5565 -31.5546 -31.3629 -31.2287 -31.1934 -31.1601
   -31.0998 -31.0879 -30.8705 -30.8703 -30.7811 -30.7809 -30.7420 -30.7419
   -18.9586 -15.7684 -15.7537 -15.5273 -15.5119 -15.5010 -15.4920 -15.3447
   -15.3177 -15.2795 -15.2765 -15.2050 -15.1593 -15.1429 -15.1272 -15.1246
   -15.1061 -15.0981 -15.0494 -15.0427 -15.0413 -15.0233 -15.0168 -14.9024
   -14.8984 -14.8905 -14.8381 -14.7893 -14.6723 -14.3881 -13.0488 -13.0487
   -12.7516  -8.8594  -6.3652  -4.8065  -3.6862  -3.3009  -3.0561  -3.0447
    -2.7548  -2.7437  -2.7415  -2.6983  -2.5059  -2.5011  -2.4871  -2.4550
    -2.4215  -2.4102  -2.4004  -2.3862  -2.3806  -2.3322  -2.3102  -2.2651
    -2.2524  -2.2487  -2.2474  -2.2119  -2.2015  -2.1599  -2.1493  -2.1257
    -2.1134  -2.0823  -2.0507  -1.9039  -1.8174  -1.7984  -1.7245  -1.7176
    -1.6854  -1.6482  -1.6346  -1.5902  -1.5552  -1.4390  -1.3266  -1.2844
    -1.2699  -1.1700  -1.1337  -1.0956  -1.0429  -0.9686  -0.9606  -0.9313
    -0.8661  -0.7933  -0.7766  -0.7543  -0.6900  -0.6649  -0.5923  -0.5714
    -0.5460  -0.5411  -0.4848  -0.4203  -0.4033  -0.3514  -0.3434  -0.3023
    -0.2678  -0.2386  -0.2193  -0.0799  -0.0785  -0.0387   0.0963   0.1522
     0.3846   0.4342   0.4542   0.5256   0.6255   0.6739   0.6874   0.7292
     0.7384   0.7537   0.8135   0.9438   0.9493   1.0179   1.0588   1.1597
     1.8251   1.8255   1.8974   1.8976   1.9015   3.8433   3.8695   3.8825
     3.9061   4.0542   4.0640   4.0837   4.0844   4.2053   4.2265

     the Fermi energy is     3.5487 ev

!    total energy              =   -2939.15564075 Ry
     estimated scf accuracy    <       0.00000003 Ry
     smearing contrib. (-TS)   =      -0.02147411 Ry
     internal energy E=F+TS    =   -2939.13416664 Ry

     The total energy is F=E-TS. E is the sum of the following terms:
     one-electron contribution =  -24213.01037907 Ry
     hartree contribution      =   12196.38455875 Ry
     xc contribution           =    -485.25798052 Ry
     ewald contribution        =    9562.74724171 Ry
     electric field correction =       0.00239249 Ry

     convergence has been achieved in  78 iterations

     Forces acting on atoms (cartesian axes, Ry/au):

     atom    1 type  1   force =     0.00008065   -0.00017990    0.09641381
     atom    2 type  1   force =    -0.00018387   -0.00072939   -0.17540713
     atom    3 type  2   force =     0.00004592   -0.00013547   -0.02409180
     atom    4 type  2   force =     0.00007613   -0.00141192    0.05268142
     atom    5 type  2   force =    -0.01131112   -0.00007266    0.00339780
     atom    6 type  2   force =     0.01296343    0.00064086    0.00224206
     atom    7 type  1   force =    -0.00119707    0.00046508   -0.01223724
     atom    8 type  1   force =     0.00043106    0.00233037    0.02520016
     atom    9 type  2   force =    -0.00025113    0.00019312    0.00003055
     atom   10 type  2   force =    -0.00120424    0.00198553   -0.01303505
     atom   11 type  2   force =     0.00057828    0.00016034    0.00025361
     atom   12 type  2   force =    -0.00049540    0.00006417    0.00013056
     atom   13 type  1   force =    -0.00050414    0.00027528    0.00015485
     atom   14 type  1   force =     0.00060409   -0.00037139   -0.00030587
     atom   15 type  2   force =    -0.00006660    0.00032154    0.00005892
     atom   16 type  2   force =    -0.00002331    0.00017970    0.00059592
     atom   17 type  2   force =    -0.00056107   -0.00005412   -0.00005093
     atom   18 type  2   force =     0.00020927   -0.00013878   -0.00028557
     atom   19 type  1   force =     0.00011952    0.00078605    0.00041680
     atom   20 type  1   force =     0.00000486    0.00036809   -0.00004026
     atom   21 type  2   force =     0.00009995   -0.00012436    0.10316866
     atom   22 type  2   force =    -0.00024690    0.00015760    0.00004736
     atom   23 type  2   force =    -0.07149951   -0.00021631   -0.02773805
     atom   24 type  2   force =     0.07150258    0.00024818   -0.02774692
     atom   25 type  1   force =     0.00012395   -0.00025176    0.09594214
     atom   26 type  1   force =    -0.00011284   -0.00043904   -0.17555511
     atom   27 type  2   force =     0.00009690   -0.00012840   -0.02333422
     atom   28 type  2   force =     0.00011000   -0.00121604    0.05264702
     atom   29 type  2   force =    -0.01155831   -0.00030076    0.00347713
     atom   30 type  2   force =     0.01314338    0.00016283    0.00228166
     atom   31 type  1   force =    -0.00120683    0.00345454   -0.01235626
     atom   32 type  1   force =     0.00054515   -0.00378510    0.02549007
     atom   33 type  2   force =     0.00002368   -0.00017647   -0.00002502
     atom   34 type  2   force =    -0.00098477    0.00046583   -0.02166885
     atom   35 type  2   force =     0.00014159    0.00001388    0.00019587
     atom   36 type  2   force =    -0.00014155    0.00002313    0.00008171
     atom   37 type  1   force =    -0.00044741   -0.00032110    0.00012877
     atom   38 type  1   force =     0.00043551    0.00028336   -0.00029343
     atom   39 type  2   force =    -0.00002011   -0.00046239    0.00034499
     atom   40 type  2   force =    -0.00013167   -0.00008206    0.00015112
     atom   41 type  2   force =    -0.00085884   -0.00014270   -0.00026604
     atom   42 type  2   force =     0.00093630    0.00004898   -0.00003216
     atom   43 type  1   force =    -0.00001130   -0.00079684    0.00002467
     atom   44 type  1   force =    -0.00003751   -0.00004946    0.00034067
     atom   45 type  2   force =     0.00010390   -0.00010890    0.10318214
     atom   46 type  2   force =    -0.07149938   -0.00014978   -0.02772379
     atom   47 type  2   force =     0.07150668    0.00029731   -0.02773213
     atom   48 type  3   force =    -0.00017055   -0.01139521   -0.00600076
     atom   49 type  3   force =     0.00017207    0.00090873   -0.00049391
     atom   50 type  4   force =     0.00011214    0.02739244    0.00147990
     atom   51 type  5   force =     0.00052050   -0.00524418    0.00470948
     atom   52 type  5   force =     0.00022542   -0.01291066    0.00202386
     atom   53 type  5   force =    -0.00018746    0.00016823   -0.00087318

     Total force =     0.368287     Total SCF correction =     0.000370
  @ DRIVER MODE: Message from server: STATUS
  @ DRIVER MODE: Message from server: GETFORCE
  @ DRIVER MODE: Returning v,forces,stress,ensemble

     Writing output data file ./calc.save/
  @ DRIVER MODE: Message from server: EXIT
  @ DRIVE MODE: Exiting

     General routines

     Parallel routines

   This run was terminated on:  22:46:31  10Sep2021

   JOB DONE.