     Program PWSCF v.7.0 starts on 16Aug2022 at 14:45:48

     R & G space division:  proc/nbgrp/npool/nimage =       6

     Reading input from /storage/coda1/p-amedford6/0/ntian30/BEEF_carbon_assisted/ACS_sus_calc/ads_slab/N2H6/BEEF_carbon_assisted.log/pw.inp
Warning: card &CELL ignored
Warning: card   CELL_DYNAMICS='IPI', ignored
Warning: card / ignored

     Current dimensions of program PWSCF are:
     Max number of different atomic species (ntypx) = 10
     Max number of k-points (npk) =  40000
     Max angular momentum in pseudopotentials (lmaxx) =  4
     Presently no symmetry can be used with electric field

     Message from routine cell_base_init:
     DEPRECATED: use true lattice parameter, not A to a.u. conversion factor

     IMPORTANT: XC functional enforced from input :
     Exchange-correlation= BEEF-VDW
                           (   1   4  43  14   2   0   0)
     Any further DFT definition will be discarded
     Please, verify this is what you really want

  @ DRIVER MODE: Connecting to
 qe_1139763_4802583.sched-torque.pace.gatech.edupqscft21_scratch
  using UNIX socket
  @ DRIVER MODE: Message from server: STATUS
  @ DRIVER MODE: Message from server: INIT
  @ DRIVER MODE: Receiving replica           0          -1
  @ DRIVER MODE: Receiving parameter string
 lscf : 1, lforce : 1, lstress : 0, lmovecell : 0, lensemb : 0,

     Using Slab Decomposition

     bravais-lattice index     =            0
     lattice parameter (alat)  =       1.8897  a.u.
     unit-cell volume          =    6658.9804 (a.u.)^3
     number of atoms/cell      =           55
     number of atomic types    =            4
     number of electrons       =       394.00
     number of Kohn-Sham states=          207
     kinetic-energy cutoff     =      29.3995  Ry
     charge density cutoff     =     293.9946  Ry
     scf convergence threshold =      7.3E-08
     mixing beta               =       0.0500
     number of iterations used =            8  plain     mixing
     energy convergence thresh.=      1.0E-04
     force convergence thresh. =      1.0E-03
     Exchange-correlation= BEEF-VDW
                           (   1   4  43  14   2   0   0)
     nstep                     =           50

     celldm(1)=   1.889726  celldm(2)=   0.000000  celldm(3)=   0.000000
     celldm(4)=   0.000000  celldm(5)=   0.000000  celldm(6)=   0.000000

     crystal axes: (cart. coord. in units of alat)
               a(1) = (   6.579727   0.000000   0.000000 )
               a(2) = (  -0.000775   5.961596   0.000000 )
               a(3) = (   0.000000   0.000000  25.155947 )

     reciprocal axes: (cart. coord. in units 2 pi/alat)
               b(1) = (  0.151982  0.000020  0.000000 )
               b(2) = (  0.000000  0.167740  0.000000 )
               b(3) = (  0.000000  0.000000  0.039752 )

     PseudoPot. # 1 for Ti read from file:
     /storage/coda1/p-amedford6/0/shared/rich_project_chbe-medford/medford-share/data/pseudos_module/espresso/nninc/pbe/van/Ti.UPF
     MD5 check sum: 8e4df49b7f0d34bbd5052bf3f5ea0213
     Pseudo is Ultrasoft, Zval = 12.0
     Generated by new atomic code, or converted to UPF format
     Using radial grid of  851 points,  6 beta functions with:
                l(1) =   0
                l(2) =   0
                l(3) =   1
                l(4) =   1
                l(5) =   2
                l(6) =   2
     Q(r) pseudized with  8 coefficients,  rinner =    1.000   1.000   1.000
                                                       1.000   1.000

     PseudoPot. # 2 for O  read from file:
     /storage/coda1/p-amedford6/0/shared/rich_project_chbe-medford/medford-share/data/pseudos_module/espresso/nninc/pbe/van/O.UPF
     MD5 check sum: 78c19812648e8988a0fe644b0f25305e
     Pseudo is Ultrasoft, Zval =  6.0
     Generated by new atomic code, or converted to UPF format
     Using radial grid of  737 points,  4 beta functions with:
                l(1) =   0
                l(2) =   0
                l(3) =   1
                l(4) =   1
     Q(r) pseudized with  8 coefficients,  rinner =    0.800   0.800   0.800

     PseudoPot. # 3 for N  read from file:
     /storage/coda1/p-amedford6/0/shared/rich_project_chbe-medford/medford-share/data/pseudos_module/espresso/nninc/pbe/van/N.UPF
     MD5 check sum: 90d10febe142ad51ac9d5be1deb811c4
     Pseudo is Ultrasoft, Zval =  5.0
     Generated by new atomic code, or converted to UPF format
     Using radial grid of  729 points,  4 beta functions with:
                l(1) =   0
                l(2) =   0
                l(3) =   1
                l(4) =   1
     Q(r) pseudized with  8 coefficients,  rinner =    0.800   0.800   0.800

     PseudoPot. # 4 for H  read from file:
     /storage/coda1/p-amedford6/0/shared/rich_project_chbe-medford/medford-share/data/pseudos_module/espresso/nninc/pbe/van/H.UPF
     MD5 check sum: b5ee9d7bfd3a09ee7748110bda690ff7
     Pseudo is Ultrasoft, Zval =  1.0
     Generated by new atomic code, or converted to UPF format
     Using radial grid of  615 points,  1 beta functions with:
                l(1) =   0
     Q(r) pseudized with  8 coefficients,  rinner =    0.800

     atomic species   valence    mass     pseudopotential
        Ti1           12.00    47.86700     Ti( 1.00)
        O1             6.00    15.99900     O ( 1.00)
        N1             5.00    14.00700     N ( 1.00)
        H1             1.00     1.00800     H ( 1.00)

     Starting magnetic structure
     atomic species   magnetization
        Ti1          0.083
        O1           0.167
        N1           0.200
        H1           1.000

     No symmetry found

   Cartesian axes

     site n.     atom                  positions (alat units)
         1           Ti1 tau(   1) = (   0.0004258   2.9801865   6.0000000  )
         2           Ti1 tau(   2) = (   3.2906075   1.4906267   6.0002472  )
         3           O1  tau(   3) = (   0.0006271   0.0005054   7.9858123  )
         4           O1  tau(   4) = (   3.2906025   0.0005020   7.3038282  )
         5           O1  tau(   5) = (   4.5942328   1.4918067   9.2879030  )
         6           O1  tau(   6) = (   1.9868534   1.4903216   9.2879459  )
         7           Ti1 tau(   7) = (   3.2905188   2.9817269   9.1608671  )
         8           Ti1 tau(   8) = (   0.0008727   1.4903491   9.2579811  )
         9           O1  tau(   9) = (   3.2897677   5.9391746  11.3820438  )
        10           O1  tau(  10) = (  -0.0000005   5.9544960  10.6146985  )
        11           O1  tau(  11) = (   1.2884133   1.4789655  12.6516217  )
        12           O1  tau(  12) = (   5.2921206   1.4788385  12.6515509  )
        13           Ti1 tau(  13) = (   0.0005720   2.9629092  12.4975245  )
        14           Ti1 tau(  14) = (   3.2903801   1.4745319  12.5205501  )
        15           O1  tau(  15) = (   0.0004407   0.0388239  14.7059933  )
        16           O1  tau(  16) = (   3.2897445   5.9465346  14.0037610  )
        17           O1  tau(  17) = (   4.5472543   1.4569283  16.2215039  )
        18           O1  tau(  18) = (   2.0329396   1.4568822  16.2213506  )
        19           Ti1 tau(  19) = (   3.2899346   2.9358424  15.7577366  )
        20           Ti1 tau(  20) = (   0.0004932   1.4309995  16.0137732  )
        21           O1  tau(  21) = (   3.2904802   0.0005063   4.7018136  )
        22           O1  tau(  22) = (  -0.0003511   5.7889056  17.2622344  )
        23           O1  tau(  23) = (   1.3043587   1.4918075   6.0039043  )
        24           O1  tau(  24) = (   5.2767064   1.4903225   6.0039473  )
        25           Ti1 tau(  25) = (   0.0000382   5.9609847   6.0000000  )
        26           Ti1 tau(  26) = (   3.2902200   4.4714249   6.0002472  )
        27           O1  tau(  27) = (   0.0002396   2.9813036   7.9858123  )
        28           O1  tau(  28) = (   3.2902150   2.9813002   7.3038282  )
        29           O1  tau(  29) = (   4.5938453   4.4726049   9.2879030  )
        30           O1  tau(  30) = (   1.9864658   4.4711199   9.2879459  )
        31           Ti1 tau(  31) = (   3.2908958   0.0009406   9.1591437  )
        32           Ti1 tau(  32) = (   0.0004876   4.4725358   9.2579169  )
        33           O1  tau(  33) = (   3.2901541   2.9707129  11.3740276  )
        34           O1  tau(  34) = (   0.0003862   2.9798045  10.6274311  )
        35           O1  tau(  35) = (   1.2860740   4.4511954  12.6821393  )
        36           O1  tau(  36) = (   5.2936768   4.4510845  12.6820400  )
        37           Ti1 tau(  37) = (   0.0001324   5.9497034  12.4914426  )
        38           Ti1 tau(  38) = (   3.2900283   4.4525324  12.5305491  )
        39           O1  tau(  39) = (   0.0000299   2.9046373  14.9484161  )
        40           O1  tau(  40) = (   3.2901113   2.9423191  13.9685580  )
        41           O1  tau(  41) = (   4.5465916   4.4073028  16.1601725  )
        42           O1  tau(  42) = (   2.0329218   4.4072560  16.1600144  )
        43           Ti1 tau(  43) = (   3.2897320   5.9176933  15.7983882  )
        44           Ti1 tau(  44) = (   0.0000796   4.6311109  15.9036278  )
        45           O1  tau(  45) = (   3.2900926   2.9813045   4.7018136  )
        46           O1  tau(  46) = (   1.3039711   4.4726057   6.0039043  )
        47           O1  tau(  47) = (   5.2763189   4.4711207   6.0039473  )
        48           N1  tau(  48) = (   6.5791966   2.5420708  18.0661808  )
        49           H1  tau(  49) = (   6.5785613   1.6509345  18.5577087  )
        50           H1  tau(  50) = (   0.8131443   3.0604954  18.3807411  )
        51           H1  tau(  51) = (   5.7641953   3.0602838  18.3787844  )
        52           N1  tau(  52) = (  -0.0000615   4.8677125  20.5088556  )
        53           H1  tau(  53) = (   6.5774456   5.1124690  21.4935560  )
        54           H1  tau(  54) = (   0.8078797   5.3121143  20.0844266  )
        55           H1  tau(  55) = (   5.7710899   5.3082688  20.0816402  )

     number of k points=    10  Fermi-Dirac smearing, width (Ry)=  0.0073
                       cart. coord. in units 2pi/alat
        k(    1) = (   0.0000000   0.0000000   0.0000000), wk =   0.0625000
        k(    2) = (   0.0000000   0.0419351   0.0000000), wk =   0.1250000
        k(    3) = (   0.0000000  -0.0838702   0.0000000), wk =   0.0625000
        k(    4) = (   0.0379955   0.0000049   0.0000000), wk =   0.1250000
        k(    5) = (   0.0379955   0.0419400   0.0000000), wk =   0.1250000
        k(    6) = (   0.0379955  -0.0838652   0.0000000), wk =   0.1250000
        k(    7) = (   0.0379955  -0.0419301   0.0000000), wk =   0.1250000
        k(    8) = (  -0.0759910  -0.0000099   0.0000000), wk =   0.0625000
        k(    9) = (  -0.0759910   0.0419252   0.0000000), wk =   0.1250000
        k(   10) = (  -0.0759910  -0.0838800   0.0000000), wk =   0.0625000

     Initial potential from superposition of free atoms

     starting charge     377.9992, renormalised to     394.0000

     negative rho (up, down):  6.621E-03 7.697E-03

     %%%%%%%%%%%%%%%%%%%%%%%%%%%%%%%%%%%%%%%%%%%%%%%%%%%%%%%%%%%%%%%%%%%%%%%%
[...]
     atom  19 (R=0.736)  charge=  8.0518  magn=  0.0486
     atom  20 (R=0.736)  charge=  8.0313  magn=  0.0239
     atom  21 (R=0.736)  charge=  4.8881  magn= -0.0034
     atom  22 (R=0.736)  charge=  4.9699  magn= -0.0018
     atom  23 (R=0.736)  charge=  5.0008  magn= -0.0101
     atom  24 (R=0.736)  charge=  5.0009  magn= -0.0101
     atom  25 (R=0.736)  charge=  8.0339  magn=  0.0991
     atom  26 (R=0.736)  charge=  8.0134  magn=  0.0046
     atom  27 (R=0.736)  charge=  5.0065  magn= -0.0116
     atom  28 (R=0.736)  charge=  5.0450  magn= -0.0012
     atom  29 (R=0.736)  charge=  5.0073  magn= -0.0027
     atom  30 (R=0.736)  charge=  5.0073  magn= -0.0027
     atom  31 (R=0.736)  charge=  8.0122  magn=  0.0076
     atom  32 (R=0.736)  charge=  8.0153  magn=  0.0791
     atom  33 (R=0.736)  charge=  5.0147  magn= -0.0025
     atom  34 (R=0.736)  charge=  5.0131  magn= -0.0057
     atom  35 (R=0.736)  charge=  5.0049  magn= -0.0029
     atom  36 (R=0.736)  charge=  5.0048  magn= -0.0029
     atom  37 (R=0.736)  charge=  8.0165  magn=  0.0254
     atom  38 (R=0.736)  charge=  8.0187  magn=  0.0203
     atom  39 (R=0.736)  charge=  4.9985  magn= -0.0021
     atom  40 (R=0.736)  charge=  5.0247  magn= -0.0041
     atom  41 (R=0.736)  charge=  4.9913  magn= -0.0034
     atom  42 (R=0.736)  charge=  4.9913  magn= -0.0034
     atom  43 (R=0.736)  charge=  8.0492  magn=  0.0516
     atom  44 (R=0.736)  charge=  8.0659  magn=  0.0109
     atom  45 (R=0.736)  charge=  4.8881  magn= -0.0034
     atom  46 (R=0.736)  charge=  5.0008  magn= -0.0101
     atom  47 (R=0.736)  charge=  5.0009  magn= -0.0101
     atom  48 (R=0.419)  charge=  1.3436  magn= -0.0002
     atom  49 (R=0.419)  charge=  0.4425  magn=  0.0000
     atom  50 (R=0.419)  charge=  0.4476  magn=  0.0000
     atom  51 (R=0.419)  charge=  0.4473  magn=  0.0000
     atom  52 (R=0.419)  charge=  1.3338  magn=  0.0000
     atom  53 (R=0.419)  charge=  0.4539  magn= -0.0000
     atom  54 (R=0.419)  charge=  0.4511  magn=  0.0000
     atom  55 (R=0.419)  charge=  0.4509  magn=  0.0000

     End of self-consistent calculation

 ------ SPIN UP ------------

          k = 0.0000 0.0000 0.0000 ( 18029 PWs)   bands (ev):

   -55.3073 -55.3038 -55.2710 -55.2698 -55.2297 -55.2082 -55.1828 -55.1485
   -55.1283 -55.1231 -55.1211 -55.0917 -55.0892 -54.9652 -54.3250 -54.2909
   -31.8677 -31.7552 -31.7538 -31.6613 -31.6418 -31.6316 -31.6251 -31.6072
   -31.5959 -31.5607 -31.5516 -31.5151 -31.5129 -31.4990 -31.4828 -31.4753
   -31.4700 -31.4563 -31.4532 -31.4430 -31.4119 -31.4077 -31.3892 -31.3769
   -31.3768 -31.3753 -31.3619 -31.3482 -31.3395 -31.3302 -31.3153 -31.3051
   -31.3020 -31.2771 -31.2711 -31.2674 -31.2624 -31.2491 -31.2475 -31.2174
   -31.1696 -31.1650 -30.7347 -30.6362 -30.6139 -30.5533 -30.4668 -30.3535
   -16.1143 -15.8719 -15.7440 -15.5877 -15.4892 -15.4579 -15.3583 -15.3334
   -15.2210 -15.1380 -15.0156 -14.9827 -14.9368 -14.9311 -14.9236 -14.9030
   -14.9018 -14.8135 -14.8096 -14.7968 -14.7929 -14.7626 -14.7615 -14.7375
   -14.7073 -14.6565 -14.6416 -14.5189 -14.4246 -14.3680 -14.1285 -12.8183
   -12.6989  -5.6516  -5.5119  -4.9558  -4.8064  -3.4513  -3.2970  -3.2634
    -3.2070  -3.1965  -3.0473  -2.8851  -2.7370  -2.7183  -2.5658  -2.5331
    -2.4856  -2.4641  -2.3121  -2.2857  -2.2404  -2.2148  -2.1635  -2.1505
    -2.1481  -2.1304  -2.0557  -2.0446  -2.0329  -1.8955  -1.8674  -1.7644
    -1.7206  -1.6712  -1.6502  -1.6442  -1.6085  -1.5906  -1.5548  -1.5433
    -1.5279  -1.4986  -1.4905  -1.3256  -1.3017  -1.2044  -1.1434  -1.0508
    -1.0307  -0.8857  -0.8592  -0.7686  -0.7461  -0.7275  -0.7158  -0.6752
    -0.6345  -0.5248  -0.4356  -0.4135  -0.3526  -0.3306  -0.2865  -0.2049
    -0.0956  -0.0601  -0.0330  -0.0328   0.0832   0.1117   0.1540   0.2200
     0.2389   0.2422   0.2624   0.3530   0.3698   0.4652   0.4917   0.4963
     0.5501   0.6343   0.6386   0.6547   0.6609   0.7011   0.7583   0.7650
     0.8675   0.8865   1.0063   1.2179   1.2916   1.3170   1.5957   1.6566
     1.7066   1.8689   2.2938   2.3429   3.7356   3.8494   3.8514   3.8892
     3.9222   3.9824   4.2714   4.2970   4.3021   4.3171   4.3508

[...]

          k =-0.0760-0.0000 0.0000 ( 17886 PWs)   bands (ev):

[...]

 ------ SPIN DOWN ----------

[...]

          k = 0.0380-0.0419 0.0000 ( 17876 PWs)   bands (ev):

[...]

          k =-0.0760-0.0839 0.0000 ( 17948 PWs)   bands (ev):

   -55.2554 -55.2488 -55.1852 -55.1228 -55.1201 -55.1118 -55.1100 -55.1098
   -55.0940 -55.0911 -55.0390 -54.9656 -54.9647 -54.9467 -54.2996 -54.2995
   -31.6498 -31.6453 -31.6407 -31.5439 -31.5201 -31.4971 -31.4970 -31.4733
   -31.4696 -31.4650 -31.4509 -31.4446 -31.4084 -31.4064 -31.4004 -31.3961
   -31.3926 -31.3901 -31.3859 -31.3846 -31.3831 -31.3650 -31.3502 -31.3449
   -31.3431 -31.3160 -31.3124 -31.3061 -31.3020 -31.3011 -31.2991 -31.2704
   -31.2677 -31.2340 -31.2285 -31.2250 -31.2171 -31.2131 -31.2127 -31.1489
   -31.1412 -31.1405 -30.6165 -30.6164 -30.5429 -30.5428 -30.5013 -30.5012
   -15.6367 -15.5256 -15.5145 -15.4798 -15.3226 -15.3007 -15.2671 -15.2519
   -15.1330 -15.0950 -15.0759 -15.0614 -15.0287 -15.0237 -15.0171 -14.9812
   -14.8993 -14.8806 -14.8763 -14.8640 -14.8137 -14.7948 -14.7897 -14.7822
   -14.7810 -14.7466 -14.7432 -14.7045 -14.6971 -14.6919 -14.3798 -12.8061
   -12.8060  -5.6305  -5.5142  -4.9216  -4.8149  -2.7946  -2.7380  -2.7322
    -2.5333  -2.4762  -2.4570  -2.4427  -2.3531  -2.3117  -2.2875  -2.2617
    -2.2301  -2.1912  -2.1872  -2.1637  -2.1553  -2.1433  -2.0962  -2.0791
    -2.0546  -1.9972  -1.9724  -1.9632  -1.9518  -1.9389  -1.9338  -1.9133
    -1.9123  -1.8869  -1.8711  -1.8203  -1.6723  -1.6570  -1.5772  -1.5091
    -1.5023  -1.5005  -1.4132  -1.3912  -1.3361  -1.3354  -1.3219  -1.0874
    -1.0650  -1.0638  -1.0588  -1.0272  -0.9112  -0.9016  -0.8282  -0.8010
    -0.7792  -0.6784  -0.6660  -0.6040  -0.6034  -0.4980  -0.4920  -0.4359
    -0.3045  -0.3005  -0.2845  -0.2571  -0.2554  -0.2138  -0.2097  -0.1024
    -0.0617  -0.0157  -0.0041   0.0286   0.1827   0.2301   0.2460   0.2707
     0.4047   0.4231   0.5587   0.5642   0.6193   0.7285   0.7581   0.8020
     0.8301   0.9782   0.9884   1.0091   1.0961   1.1100   1.1521   1.1586
     2.0544   2.0559   2.1601   2.1604   4.0269   4.1021   4.1066   4.1452
     4.2538   4.3619   4.3744   4.3855   4.4194   4.4223   4.5427

     the Fermi energy is     3.8720 ev

!    total energy              =   -2931.48088861 Ry
     estimated scf accuracy    <       0.00000007 Ry
     smearing contrib. (-TS)   =      -0.03510419 Ry
     internal energy E=F+TS    =   -2931.44578442 Ry

     total magnetization       =     0.82 Bohr mag/cell
     absolute magnetization    =     1.13 Bohr mag/cell

     convergence has been achieved in 114 iterations

     Forces acting on atoms (cartesian axes, Ry/au):

     atom    1 type  1   force =     0.00008936   -0.00009287    0.09055522
     atom    2 type  1   force =    -0.00005051    0.00053440   -0.18311115
     atom    3 type  2   force =     0.00005376   -0.00006120   -0.02281489
     atom    4 type  2   force =     0.00001855   -0.00006023    0.05325651
     atom    5 type  2   force =    -0.01344259   -0.00097149    0.00617749
     atom    6 type  2   force =     0.01338904   -0.00048006    0.00616675
     atom    7 type  1   force =     0.00000216    0.00067705   -0.00379167
     atom    8 type  1   force =     0.00001759   -0.00010577    0.00066299
     atom    9 type  2   force =    -0.00003167   -0.00016719   -0.00036325
     atom   10 type  2   force =     0.00001834   -0.00006138    0.00054504
     atom   11 type  2   force =     0.00015726    0.00017267    0.00024693
     atom   12 type  2   force =    -0.00007438    0.00016881    0.00022448
     atom   13 type  1   force =    -0.00020106   -0.00019896   -0.00054438
     atom   14 type  1   force =     0.00014746    0.00043284   -0.00080946
     atom   15 type  2   force =     0.00002311   -0.00061643    0.00011432
     atom   16 type  2   force =    -0.00002841   -0.00000181   -0.00004198
     atom   17 type  2   force =     0.00076152    0.00007218    0.00059168
     atom   18 type  2   force =    -0.00079406    0.00006663    0.00059106
     atom   19 type  1   force =     0.00005936   -0.00010888    0.00046301
     atom   20 type  1   force =    -0.00003011   -0.00072391    0.00028931
     atom   21 type  2   force =     0.00005765    0.00012778    0.10494414
     atom   22 type  2   force =     0.00000846    0.00014231    0.00099668
     atom   23 type  2   force =    -0.06815160   -0.00021706   -0.02629056
     atom   24 type  2   force =     0.06806045    0.00021799   -0.02633370
     atom   25 type  1   force =     0.00009598    0.00004235    0.09019069
     atom   26 type  1   force =    -0.00005410   -0.00042631   -0.18325018
     atom   27 type  2   force =     0.00005102   -0.00090409   -0.02194741
     atom   28 type  2   force =     0.00001913   -0.00006736    0.05303007
     atom   29 type  2   force =    -0.01371664   -0.00073347    0.00540448
     atom   30 type  2   force =     0.01365302   -0.00024127    0.00538964
     atom   31 type  1   force =     0.00001061   -0.00069854   -0.00356614
     atom   32 type  1   force =     0.00001503   -0.00010593    0.00075656
     atom   33 type  2   force =    -0.00003005   -0.00015884    0.00031663
     atom   34 type  2   force =     0.00001987    0.00007044    0.00031119
     atom   35 type  2   force =     0.00013503   -0.00013254    0.00031281
     atom   36 type  2   force =    -0.00005759   -0.00014561    0.00028716
     atom   37 type  1   force =    -0.00019576    0.00003988    0.00033819
     atom   38 type  1   force =     0.00014272   -0.00030439   -0.00077748
     atom   39 type  2   force =     0.00001330    0.00019609   -0.00016215
     atom   40 type  2   force =    -0.00003087   -0.00000409    0.00061097
     atom   41 type  2   force =     0.00086940   -0.00021758    0.00030640
     atom   42 type  2   force =    -0.00091341   -0.00021199    0.00031692
     atom   43 type  1   force =     0.00006765    0.00019207    0.00070683
     atom   44 type  1   force =    -0.00003805    0.00104868   -0.00105562
     atom   45 type  2   force =     0.00005831    0.00014559    0.10490948
     atom   46 type  2   force =    -0.06814870   -0.00009542   -0.02632517
     atom   47 type  2   force =     0.06805733    0.00033981   -0.02636968
     atom   48 type  3   force =    -0.00050291   -0.00003066   -0.00025764
     atom   49 type  4   force =     0.00002077   -0.00005701    0.00078445
     atom   50 type  4   force =     0.00094974    0.00098951    0.00003982
     atom   51 type  4   force =    -0.00049584    0.00071237   -0.00015887
     atom   52 type  3   force =    -0.00001259    0.00077926    0.00044052
     atom   53 type  4   force =    -0.00001819    0.00123209   -0.00147351
     atom   54 type  4   force =     0.00008332   -0.00000671   -0.00041974
     atom   55 type  4   force =    -0.00010726    0.00000824   -0.00041383

     Total force =     0.366556     Total SCF correction =     0.000590
  @ DRIVER MODE: Message from server: STATUS
  @ DRIVER MODE: Message from server: GETFORCE
  @ DRIVER MODE: Returning v,forces,stress

     Writing config to output data dir ./calc.save/
  @ DRIVER MODE: Message from server: STATUS
  @ DRIVER MODE: Message from server: INIT
  @ DRIVER MODE: Receiving replica           0           0
  @ DRIVER MODE: Receiving parameter string
 lscf : 0, lforce : 0, lstress : 0, lmovecell : 0, lensemb : 1,
  @ DRIVER MODE: Message from server: STATUS
  @ DRIVER MODE: Message from server: POSDATA
  @ DRIVER MODE: Reading and sharing cell
  @ DRIVER MODE: Reading and sharing positions
  @ DRIVER MODE: Received positions
     NEW-OLD atomic charge density approx. for the potential

[...]

     Adding external electric field

     Computed dipole along edir(3) :
        Dipole                1.3670 Ry au,          3.4745 Debye
        Dipole field          0.0026 Ry au,

        Potential amp.       -0.2391 Ry
        Total length         46.3494 bohr

     Generating pointlists ...
  @ DRIVER MODE: BEEF-vdw

[...]

     negative rho (up, down):  7.175E-03 7.176E-03

     negative rho (up, down):  7.175E-03 7.176E-03
 BEEFens 2000 ensemble energies
             -0.347682952562539E+02
             -0.201375806794756E+01
             -0.715991861058357E+01
              0.241311378588516E+02
             -0.119527643290588E+02
             -0.923486571446247E+01
             -0.241456093083006E+02
             -0.504558069350056E+02
             -0.215119750724016E+02
             -0.226455405758207E+02
             -0.210345356319189E+02
              0.427589521342650E+01
              0.199104470625728E+01
             -0.107895990822013E+01
              0.173317282713147E+01
              0.265732077178013E+02
             -0.102467620001864E+02
             -0.720389758492252E+01
              0.117622750235025E+02
             -0.620834611031317E+02
              0.311195288443034E+02
             -0.133301143377829E+02
             -0.241837942940908E+01
             -0.561406333325660E+01
             -0.944622226181366E+00
             -0.212857736168712E+01
              0.481459666168548E+02
             -0.150666733280083E+02
             -0.402653852496775E+01
             -0.304420917854692E+02
              0.393240267810344E+02
             -0.432951331853927E+01
             -0.214185921908905E+02
              0.112398184329200E+02
             -0.205646618928131E+01
              0.130664547600981E+02
             -0.537445146000465E+00
              0.272412610847165E+01
              0.189946099608318E+02
             -0.547861373115208E+02
              0.305362807070334E+02
              0.814525840613827E+01
             -0.628522408368795E+01
             -0.175109610186784E+02
              0.691113906465537E+01
             -0.109926492611274E+02
              0.249759583170954E+02
              0.199398750266770E+02
             -0.128357225644896E+02
             -0.163988433835307E+02
             -0.173333949716134E+02
             -0.208521861096058E+02
              0.106052928450394E+02
             -0.271618756566704E+02
              0.832595380516454E+01
              0.347008001966043E+02
              0.400174007140994E+02
              0.186384507039553E+02
              0.832753979003208E+01
              0.174018076884214E+02
[...]
             -0.409122765094635E+02
              0.280167130963434E+01
             -0.143963939249065E+01
             -0.569626719264181E+01
              0.505605827839588E-01
             -0.364099793031539E+02
             -0.700344855256233E+01
              0.495457201224885E+01
              0.744908557380357E+01
              0.272991967806871E+02
             -0.238555675115676E+02
              0.311106439406520E+02
             -0.222856826844022E+02
              0.143446531649836E+02
              0.225536374965357E+02

 BEEF-vdW xc energy contributions
           1 :   -410.156733725779
           2 :    357.103196776502
           3 :   -271.671076690062
           4 :    182.716941740285
           5 :   -113.022279313768
           6 :    71.4477223103192
           7 :   -54.1224303159303
           8 :    50.9861714048214
           9 :   -52.6512026500744
          10 :    53.8841927412774
          11 :   -53.4391137744356
          12 :    51.8739274537452
          13 :   -49.6522398355939
          14 :    46.5426183777237
          15 :   -42.1808420784042
          16 :    36.7588264978802
          17 :   -31.2010311494846
          18 :    26.6889784780639
          19 :   -24.0438298647481
          20 :    23.3634650548864
          21 :   -24.1323219304811
          22 :    25.5688837412410
          23 :   -26.9777084040141
          24 :    27.8781325516956
          25 :   -27.9793534247971
          26 :    27.1098023808986
          27 :   -25.2513002844312
          28 :    22.6133015745000
          29 :   -19.6669047782518
          30 :    17.0285133812344
          31 :   -48.2168793813710
          32 :   -32.6870663734958
  @ DRIVER MODE: Message from server: STATUS
  @ DRIVER MODE: Message from server: GETFORCE
  @ DRIVER MODE: Returning v,forces,stress
  @ DRIVE MODE: Returning Ensemble Energies
  @ DRIVE MODE: Returning Ensemble Energies
  @ DRIVE MODE: Returning Ensemble Energies
  @ DRIVE MODE: Returning Ensemble Energies
  @ DRIVE MODE: Returning Ensemble Energies

     Writing config to output data dir ./calc.save/
  @ DRIVE MODE: Returning Ensemble Energies
  @ DRIVER MODE: Message from server: EXIT
  @ DRIVE MODE: Exiting

     General routines

     Parallel routines

   This run was terminated on:  16:18:21  16Aug2022

   JOB DONE.