     Program PWSCF v.6.7GPU starts on 16Jul2021 at 22:44:29

     R & G space division:  proc/nbgrp/npool/nimage =      16
     Reading input from /storage/home/hcoda1/3/ntian30/research/carbon/15Jul_vib/ads_slab/CH3NNHHH_a/out_0037/pw.inp
Warning: card &CELL ignored
Warning: card   CELL_DYNAMICS='IPI', ignored
Warning: card / ignored

     Current dimensions of program PWSCF are:
     Max number of different atomic species (ntypx) = 10
     Max number of k-points (npk) =  40000
     Max angular momentum in pseudopotentials (lmaxx) =  3
     Presently no symmetry can be used with electric field

     Message from routine cell_base_init:
     DEPRECATED: use true lattice parameter, not A to a.u. conversion factor

     IMPORTANT: XC functional enforced from input :
     Exchange-correlation= BEEF-VDW
                           (   1   4  43  14   2   0   0)
     Any further DFT definition will be discarded
     Please, verify this is what you really want

  @ DRIVER MODE: Connecting to
 qe_1139763_2351652.sched-torque.pace.gatech.eduyyr4yss3_scratch
  using UNIX socket
  @ DRIVER MODE: Message from server: STATUS
  @ DRIVER MODE: Message from server: INIT
  @ DRIVER MODE: Receiving replica           0          -1
  @ DRIVER MODE: Receiving encoded integer          25
  @ DRIVER MODE:  SCF:  T  FORCE:  T  STRESS:  F  VC:  F  ENSEMBLE:  F
  @ DRIVER MODE:  SCF:  T  FORCE:  T  STRESS:  F  VC:  F  ENSEMBLE:  F

     Using Slab Decomposition

     bravais-lattice index     =            0
     lattice parameter (alat)  =       1.8897  a.u.
     unit-cell volume          =    6658.9804 (a.u.)^3
     number of atoms/cell      =           56
     number of atomic types    =            5
     number of electrons       =       398.00
     number of Kohn-Sham states=          209
     kinetic-energy cutoff     =      29.3995  Ry
     charge density cutoff     =     293.9946  Ry
     scf convergence threshold =      7.3E-08
     mixing beta               =       0.0500
     number of iterations used =            8  plain     mixing
     Exchange-correlation= BEEF-VDW
                           (   1   4  43  14   2   0   0)

     celldm(1)=   1.889726  celldm(2)=   0.000000  celldm(3)=   0.000000
     celldm(4)=   0.000000  celldm(5)=   0.000000  celldm(6)=   0.000000

     crystal axes: (cart. coord. in units of alat)
               a(1) = (   6.579727   0.000000   0.000000 )
               a(2) = (  -0.000775   5.961596   0.000000 )
               a(3) = (   0.000000   0.000000  25.155947 )

     reciprocal axes: (cart. coord. in units 2 pi/alat)
               b(1) = (  0.151982  0.000020  0.000000 )
               b(2) = (  0.000000  0.167740  0.000000 )
               b(3) = (  0.000000  0.000000  0.039752 )

     PseudoPot. # 1 for Ti read from file:
     /storage/coda1/p-amedford6/0/shared/rich_project_chbe-medford/medford-share/data/pseudos_module/espresso/nninc/pbe/van/Ti.UPF
     MD5 check sum: 8e4df49b7f0d34bbd5052bf3f5ea0213
     Pseudo is Ultrasoft, Zval = 12.0
     Generated by new atomic code, or converted to UPF format
     Using radial grid of  851 points,  6 beta functions with:
                l(1) =   0
                l(2) =   0
                l(3) =   1
                l(4) =   1
                l(5) =   2
                l(6) =   2
     Q(r) pseudized with  8 coefficients,  rinner =    1.000   1.000   1.000
                                                       1.000   1.000

     PseudoPot. # 2 for O  read from file:
     /storage/coda1/p-amedford6/0/shared/rich_project_chbe-medford/medford-share/data/pseudos_module/espresso/nninc/pbe/van/O.UPF
     MD5 check sum: 78c19812648e8988a0fe644b0f25305e
     Pseudo is Ultrasoft, Zval =  6.0
     Generated by new atomic code, or converted to UPF format
     Using radial grid of  737 points,  4 beta functions with:
                l(1) =   0
                l(2) =   0
                l(3) =   1
                l(4) =   1
     Q(r) pseudized with  8 coefficients,  rinner =    0.800   0.800   0.800

     PseudoPot. # 3 for N  read from file:
     /storage/coda1/p-amedford6/0/shared/rich_project_chbe-medford/medford-share/data/pseudos_module/espresso/nninc/pbe/van/N.UPF
     MD5 check sum: 90d10febe142ad51ac9d5be1deb811c4
     Pseudo is Ultrasoft, Zval =  5.0
     Generated by new atomic code, or converted to UPF format
     Using radial grid of  729 points,  4 beta functions with:
                l(1) =   0
                l(2) =   0
                l(3) =   1
                l(4) =   1
     Q(r) pseudized with  8 coefficients,  rinner =    0.800   0.800   0.800

     PseudoPot. # 4 for C  read from file:
     /storage/coda1/p-amedford6/0/shared/rich_project_chbe-medford/medford-share/data/pseudos_module/espresso/nninc/pbe/van/C.UPF
     MD5 check sum: 1a69bf6b8db32088f5b2163dbdb77a27
     Pseudo is Ultrasoft, Zval =  4.0
     Generated by new atomic code, or converted to UPF format
     Using radial grid of  721 points,  4 beta functions with:
                l(1) =   0
                l(2) =   0
                l(3) =   1
                l(4) =   1
     Q(r) pseudized with  8 coefficients,  rinner =    0.800   0.800   0.800

     PseudoPot. # 5 for H  read from file:
     /storage/coda1/p-amedford6/0/shared/rich_project_chbe-medford/medford-share/data/pseudos_module/espresso/nninc/pbe/van/H.UPF
     MD5 check sum: b5ee9d7bfd3a09ee7748110bda690ff7
     Pseudo is Ultrasoft, Zval =  1.0
     Generated by new atomic code, or converted to UPF format
     Using radial grid of  615 points,  1 beta functions with:
                l(1) =   0
     Q(r) pseudized with  8 coefficients,  rinner =    0.800

     atomic species   valence    mass     pseudopotential
        Ti1           12.00    47.86700     Ti( 1.00)
        O1             6.00    15.99900     O ( 1.00)
        N1             5.00    14.00700     N ( 1.00)
        C1             4.00    12.01100     C ( 1.00)
        H1             1.00     1.00800     H ( 1.00)

     Starting magnetic structure
     atomic species   magnetization
        Ti1          0.000
        O1           0.000
        N1           0.000
        C1           0.025
        H1           0.000

     No symmetry found

   Cartesian axes

     site n.     atom                  positions (alat units)
         1           Ti1 tau(   1) = (   0.0004258   2.9801865   6.0000000  )
         2           Ti1 tau(   2) = (   3.2906075   1.4906267   6.0002472  )
         3           O1  tau(   3) = (   0.0006271   0.0005054   7.9858123  )
         4           O1  tau(   4) = (   3.2906025   0.0005020   7.3038282  )
         5           O1  tau(   5) = (   4.5942328   1.4918067   9.2879030  )
         6           O1  tau(   6) = (   1.9868534   1.4903216   9.2879459  )
         7           Ti1 tau(   7) = (   3.2907910   2.8959150   9.1758416  )
         8           Ti1 tau(   8) = (   0.0015273   1.4827037   9.2680791  )
         9           O1  tau(   9) = (   3.2969863   5.9453513  11.3493076  )
        10           O1  tau(  10) = (   0.0116148   5.9584955  10.6183126  )
        11           O1  tau(  11) = (   1.3059050   1.4736943  12.6642453  )
        12           O1  tau(  12) = (   5.3003793   1.4775083  12.6459419  )
        13           Ti1 tau(  13) = (   0.0167275   2.9625105  12.5508078  )
        14           Ti1 tau(  14) = (   3.3131340   1.4712512  12.4909780  )
        15           O1  tau(  15) = (   6.5517612   5.9325698  14.7566896  )
        16           O1  tau(  16) = (   3.3302114   5.9429442  13.9823395  )
        17           O1  tau(  17) = (   4.5243935   1.5056208  16.2316672  )
        18           O1  tau(  18) = (   2.0170937   1.4633510  16.1378485  )
        19           Ti1 tau(  19) = (   3.2500237   2.9242626  15.6920970  )
        20           Ti1 tau(  20) = (   6.5441017   1.2779805  16.1516014  )
        21           O1  tau(  21) = (   3.2904802   0.0005063   4.7018136  )
        22           O1  tau(  22) = (   6.5540411   5.9581837  17.3465722  )
        23           O1  tau(  23) = (   1.3043587   1.4918075   6.0039043  )
        24           O1  tau(  24) = (   5.2767064   1.4903225   6.0039473  )
        25           Ti1 tau(  25) = (   0.0000382   5.9609847   6.0000000  )
        26           Ti1 tau(  26) = (   3.2902200   4.4714249   6.0002472  )
        27           O1  tau(  27) = (   0.0002396   2.9813036   7.9858123  )
        28           O1  tau(  28) = (   3.2902150   2.9813002   7.3038282  )
        29           O1  tau(  29) = (   4.5938453   4.4726049   9.2879030  )
        30           O1  tau(  30) = (   1.9864658   4.4711199   9.2879459  )
        31           Ti1 tau(  31) = (   3.2891106   5.8743827   9.1763621  )
        32           Ti1 tau(  32) = (   0.0006254   4.4649316   9.2693709  )
        33           O1  tau(  33) = (   3.2962403   2.9651072  11.3429128  )
        34           O1  tau(  34) = (   0.0092240   2.9805883  10.6323155  )
        35           O1  tau(  35) = (   1.3076126   4.4641214  12.6643835  )
        36           O1  tau(  36) = (   5.2981430   4.4591552  12.6429889  )
        37           Ti1 tau(  37) = (   0.0194730   5.9489450  12.5196332  )
        38           Ti1 tau(  38) = (   3.3150505   4.4522436  12.4946186  )
        39           O1  tau(  39) = (   6.5702761   2.9869041  14.8038460  )
        40           O1  tau(  40) = (   3.3119818   2.9576719  13.9204832  )
        41           O1  tau(  41) = (   4.5223198   4.3950437  16.2490866  )
        42           O1  tau(  42) = (   2.0356696   4.4339808  16.1311045  )
        43           Ti1 tau(  43) = (   3.3057863   5.9493229  15.7677403  )
        44           Ti1 tau(  44) = (   0.0958844   4.4293496  15.8701971  )
        45           O1  tau(  45) = (   3.2900926   2.9813045   4.7018136  )
        46           O1  tau(  46) = (   1.3039711   4.4726057   6.0039043  )
        47           O1  tau(  47) = (   5.2763189   4.4711207   6.0039473  )
        48           N1  tau(  48) = (   0.0620580   3.0375546  17.6897758  )
        49           C1  tau(  49) = (   1.1116374   2.9693208  18.6984743  )
        50           H1  tau(  50) = (   1.2951007   3.9532040  19.1583453  )
        51           H1  tau(  51) = (   0.8627774   2.2426413  19.4871689  )
        52           H1  tau(  52) = (   2.0263963   2.6228967  18.2308865  )
        53           N1  tau(  53) = (   5.4279256   3.3744730  18.4033390  )
        54           H1  tau(  54) = (   5.6003604   4.1199394  19.0852601  )
        55           H1  tau(  55) = (   4.7934260   3.8076565  17.6395878  )
        56           H1  tau(  56) = (   5.0090149   2.5598412  18.8678436  )

     number of k points=    10  Fermi-Dirac smearing, width (Ry)=  0.0073
                       cart. coord. in units 2pi/alat
        k(    1) = (   0.0000000   0.0000000   0.0000000), wk =   0.0625000
        k(    2) = (   0.0000000   0.0419351   0.0000000), wk =   0.1250000
        k(    3) = (   0.0000000  -0.0838702   0.0000000), wk =   0.0625000
        k(    4) = (   0.0379955   0.0000049   0.0000000), wk =   0.1250000
        k(    5) = (   0.0379955   0.0419400   0.0000000), wk =   0.1250000
[...]
     %   D.C. Langreth et al., J. Phys.: Condens. Matter 21, 084203 (2009). %
     %                                                                      %
     %                                                                      %
     % If you are calculating the stress with vdW-DF, please also cite:     %
     %                                                                      %
     %   R. Sabatini et al., J. Phys.: Condens. Matter 24, 424209 (2012).   %
     %                                                                      %
     %%%%%%%%%%%%%%%%%%%%%%%%%%%%%%%%%%%%%%%%%%%%%%%%%%%%%%%%%%%%%%%%%%%%%%%%

     Adding external electric field

     Computed dipole along edir(3) :
        Dipole              -10.5729 Ry au,        -26.8736 Debye
        Dipole field         -0.0200 Ry au,

        Potential amp.        1.8496 Ry
        Total length         46.3494 bohr

[...]

     Starting wfcs are  302 atomic wfcs
  @ DRIVER MODE: Message from server: STATUS
  @ DRIVER MODE: Message from server: POSDATA
  @ DRIVER MODE: Reading and sharing cell
  @ DRIVER MODE: Reading and sharing positions
  @ DRIVER MODE: Received positions

     Self-consistent Calculation

     iteration #  1     ecut=    29.40 Ry     beta= 0.05
     Davidson diagonalization with overlap
     c_bands:  4 eigenvalues not converged
     c_bands:  2 eigenvalues not converged
     c_bands:  1 eigenvalues not converged
     c_bands:  4 eigenvalues not converged
     c_bands:  5 eigenvalues not converged
     c_bands:  5 eigenvalues not converged
     c_bands:  1 eigenvalues not converged
     c_bands:  5 eigenvalues not converged
     c_bands:  3 eigenvalues not converged
     c_bands:  3 eigenvalues not converged
     c_bands:  3 eigenvalues not converged
     c_bands:  1 eigenvalues not converged
     c_bands:  4 eigenvalues not converged
     c_bands:  5 eigenvalues not converged
     c_bands:  5 eigenvalues not converged
     c_bands:  5 eigenvalues not converged
     c_bands:  3 eigenvalues not converged
     ethr =  1.00E-05,  avg # of iterations = 20.0

[...]

     total energy              =   -2443.27543358 Ry
     estimated scf accuracy    <    5586.04950702 Ry

     total magnetization       =     0.00 Bohr mag/cell
     absolute magnetization    =     0.01 Bohr mag/cell

     iteration #  2     ecut=    29.40 Ry     beta= 0.05
     Davidson diagonalization with overlap
     ethr =  1.00E-02,  avg # of iterations = 23.8

[...]

     iteration #146     ecut=    29.40 Ry     beta= 0.05
     Davidson diagonalization with overlap
     ethr =  1.59E-10,  avg # of iterations = 13.8

[...]

     total energy              =   -2942.82552642 Ry
     estimated scf accuracy    <       0.00000012 Ry

[...]

     iteration #151     ecut=    29.40 Ry     beta= 0.05
     Davidson diagonalization with overlap
     c_bands:  2 eigenvalues not converged
     c_bands:  2 eigenvalues not converged
     c_bands:  2 eigenvalues not converged
     c_bands:  1 eigenvalues not converged
     c_bands:  2 eigenvalues not converged
     c_bands:  2 eigenvalues not converged
     c_bands:  1 eigenvalues not converged
     c_bands:  2 eigenvalues not converged
     c_bands:  3 eigenvalues not converged
     c_bands:  1 eigenvalues not converged
     c_bands:  2 eigenvalues not converged
     c_bands:  2 eigenvalues not converged
     c_bands:  1 eigenvalues not converged
     ethr =  2.94E-11,  avg # of iterations = 19.6

     negative rho (up, down):  7.265E-03 7.269E-03

[...]

     Adding external electric field

     Computed dipole along edir(3) :
        Dipole                1.6178 Ry au,          4.1120 Debye
        Dipole field          0.0031 Ry au,

        Potential amp.       -0.2830 Ry
        Total length         46.3494 bohr

     Magnetic moment per site  (integrated on atomic sphere of radius R)
     atom   1 (R=0.723)  charge=  7.9141  magn= -0.0043
     atom   2 (R=0.723)  charge=  7.8963  magn= -0.0002
     atom   3 (R=0.633)  charge=  4.2080  magn=  0.0005
     atom   4 (R=0.633)  charge=  4.2373  magn=  0.0001
     atom   5 (R=0.633)  charge=  4.2138  magn=  0.0001
     atom   6 (R=0.633)  charge=  4.2139  magn=  0.0001
     atom   7 (R=0.723)  charge=  7.8964  magn= -0.0003
     atom   8 (R=0.723)  charge=  7.8946  magn= -0.0033
     atom   9 (R=0.633)  charge=  4.2238  magn=  0.0000
     atom  10 (R=0.633)  charge=  4.2125  magn=  0.0002
     atom  11 (R=0.633)  charge=  4.2093  magn=  0.0000
     atom  12 (R=0.633)  charge=  4.2111  magn=  0.0000
     atom  13 (R=0.723)  charge=  7.8927  magn= -0.0007
     atom  14 (R=0.723)  charge=  7.9040  magn= -0.0002
     atom  15 (R=0.633)  charge=  4.2098  magn=  0.0000
     atom  16 (R=0.633)  charge=  4.2161  magn=  0.0000
     atom  17 (R=0.633)  charge=  4.2035  magn=  0.0000
     atom  18 (R=0.633)  charge=  4.2034  magn=  0.0000
     atom  19 (R=0.723)  charge=  7.9504  magn= -0.0005
     atom  20 (R=0.723)  charge=  7.9298  magn= -0.0001
     atom  21 (R=0.633)  charge=  4.1284  magn=  0.0002
     atom  22 (R=0.633)  charge=  4.1764  magn=  0.0000
     atom  23 (R=0.633)  charge=  4.2073  magn=  0.0004
     atom  24 (R=0.633)  charge=  4.2074  magn=  0.0004
     atom  25 (R=0.723)  charge=  7.9141  magn= -0.0043
     atom  26 (R=0.723)  charge=  7.8964  magn= -0.0002
     atom  27 (R=0.633)  charge=  4.2076  magn=  0.0005
     atom  28 (R=0.633)  charge=  4.2375  magn=  0.0001
     atom  29 (R=0.633)  charge=  4.2143  magn=  0.0001
     atom  30 (R=0.633)  charge=  4.2144  magn=  0.0001
     atom  31 (R=0.723)  charge=  7.8969  magn= -0.0003
     atom  32 (R=0.723)  charge=  7.8948  magn= -0.0033
     atom  33 (R=0.633)  charge=  4.2222  magn=  0.0000
     atom  34 (R=0.633)  charge=  4.2053  magn=  0.0002
     atom  35 (R=0.633)  charge=  4.2090  magn=  0.0000
     atom  36 (R=0.633)  charge=  4.2115  magn=  0.0000
     atom  37 (R=0.723)  charge=  7.8964  magn= -0.0007
     atom  38 (R=0.723)  charge=  7.9034  magn= -0.0002
     atom  39 (R=0.633)  charge=  4.1926  magn=  0.0000
     atom  40 (R=0.633)  charge=  4.2343  magn=  0.0000
     atom  41 (R=0.633)  charge=  4.2025  magn=  0.0000
     atom  42 (R=0.633)  charge=  4.2135  magn=  0.0000
     atom  43 (R=0.723)  charge=  7.9399  magn= -0.0007
     atom  44 (R=0.723)  charge=  7.9262  magn= -0.0001
     atom  45 (R=0.633)  charge=  4.1284  magn=  0.0001
     atom  46 (R=0.633)  charge=  4.2073  magn=  0.0004
     atom  47 (R=0.633)  charge=  4.2074  magn=  0.0004
     atom  48 (R=0.423)  charge=  1.3300  magn=  0.0000
     atom  49 (R=0.447)  charge=  0.8385  magn= -0.0000
     atom  50 (R=0.423)  charge=  0.4471  magn=  0.0000
     atom  51 (R=0.423)  charge=  0.4484  magn=  0.0000
     atom  52 (R=0.423)  charge=  0.4536  magn=  0.0000
     atom  53 (R=0.423)  charge=  1.3698  magn=  0.0000
     atom  54 (R=0.423)  charge=  0.4517  magn= -0.0000
     atom  55 (R=0.423)  charge=  0.3974  magn= -0.0000
     atom  56 (R=0.423)  charge=  0.4505  magn=  0.0000

     End of self-consistent calculation

 ------ SPIN UP ------------

          k = 0.0000 0.0000 0.0000 ( 18029 PWs)   bands (ev):

   -55.1349 -55.0983 -55.0927 -55.0585 -55.0170 -55.0014 -54.9787 -54.9359
   -54.9210 -54.9150 -54.9010 -54.8879 -54.8567 -54.7858 -54.1082 -54.0742
   -31.7148 -31.5844 -31.5035 -31.4715 -31.4263 -31.4235 -31.4233 -31.3943
   -31.3905 -31.3817 -31.3592 -31.3444 -31.3368 -31.3124 -31.2947 -31.2695
   -31.2521 -31.2448 -31.2376 -31.2332 -31.2059 -31.2008 -31.1941 -31.1674
   -31.1487 -31.1460 -31.1390 -31.1321 -31.1301 -31.1204 -31.1167 -31.1122
   -31.0941 -31.0860 -31.0809 -31.0520 -31.0497 -31.0389 -31.0297 -31.0283
   -31.0170 -30.9753 -30.5166 -30.4245 -30.4024 -30.3330 -30.2463 -30.1354
   -18.9378 -15.9991 -15.7447 -15.6092 -15.3743 -15.3224 -15.2659 -15.0604
   -15.0570 -14.9859 -14.9707 -14.9219 -14.9022 -14.8349 -14.7503 -14.7308
   -14.6618 -14.6599 -14.6302 -14.6200 -14.6181 -14.5555 -14.5459 -14.5161
   -14.5033 -14.4781 -14.3597 -14.2754 -14.2170 -13.9673 -13.6048 -12.6112
   -12.4941  -9.7543  -7.7209  -7.2059  -5.4650  -3.8162  -3.3364  -3.2749
    -3.1621  -3.1325  -3.0555  -3.0259  -2.8410  -2.8205  -2.4787  -2.4440
    -2.3928  -2.3747  -2.3542  -2.3359  -2.1686  -2.1423  -2.0693  -2.0364
    -2.0179  -1.9772  -1.9605  -1.9500  -1.9165  -1.9114  -1.9018  -1.6947
    -1.6381  -1.5430  -1.5207  -1.5011  -1.4617  -1.4262  -1.4168  -1.4138
    -1.4080  -1.3945  -1.3823  -1.3017  -1.2441  -1.1626  -1.1536  -1.1180
    -1.0139  -0.9686  -0.7664  -0.7523  -0.7065  -0.6644  -0.6016  -0.5811
    -0.5136  -0.4829  -0.4642  -0.3425  -0.3139  -0.2742  -0.2460  -0.1783
    -0.1484  -0.1026  -0.0194   0.0526   0.0883   0.1065   0.1655   0.2956
     0.3070   0.3362   0.3974   0.4612   0.5016   0.5216   0.5402   0.5768
     0.6271   0.7527   0.7973   0.8173   0.8214   0.8553   0.8780   0.9291
     0.9538   1.0142   1.0197   1.1376   1.2069   1.4340   1.4684   1.4940
     1.8264   1.8498   1.9139   2.1000   2.4883   2.5357   3.9726   4.0316
     4.0877   4.1082   4.1248   4.2132   4.2445   4.4327   4.4600   4.4653
     4.4678

[...]

          k =-0.0760-0.0000 0.0000 ( 17886 PWs)   bands (ev):

[...]

 ------ SPIN DOWN ----------

[...]

          k = 0.0380-0.0419 0.0000 ( 17876 PWs)   bands (ev):

[...]

          k =-0.0760-0.0839 0.0000 ( 17948 PWs)   bands (ev):

   -55.1196 -55.1138 -55.0833 -55.0832 -55.0075 -54.9990 -54.9904 -54.9205
   -54.9189 -54.9165 -54.9117 -54.9102 -54.8531 -54.7897 -54.0916 -54.0914
   -31.5185 -31.5157 -31.4390 -31.4169 -31.4029 -31.4027 -31.3761 -31.3761
   -31.3462 -31.3403 -31.3374 -31.3369 -31.3037 -31.2680 -31.2616 -31.2571
   -31.2558 -31.2518 -31.2513 -31.2452 -31.2122 -31.2105 -31.2080 -31.2039
   -31.2031 -31.2030 -31.1850 -31.1831 -31.1551 -31.1504 -31.1351 -31.1311
   -31.1300 -31.1294 -31.1274 -31.1185 -31.0949 -31.0929 -31.0896 -31.0655
   -31.0403 -31.0226 -30.4155 -30.4154 -30.3296 -30.3294 -30.2902 -30.2902
   -18.9330 -15.5061 -15.3964 -15.2888 -15.2229 -15.1804 -15.1288 -15.1113
   -15.1005 -15.0557 -15.0261 -14.9571 -14.8923 -14.8392 -14.8382 -14.8038
   -14.7254 -14.7115 -14.7043 -14.6939 -14.6371 -14.6304 -14.5989 -14.5779
   -14.5748 -14.5452 -14.4713 -14.4689 -14.3830 -14.1759 -13.6409 -12.5955
   -12.5954  -9.7237  -7.7177  -7.1516  -5.4677  -3.8379  -3.4300  -2.7547
    -2.6437  -2.4335  -2.4074  -2.3473  -2.3280  -2.2453  -2.1820  -2.1598
    -2.1363  -2.1023  -2.0994  -2.0762  -2.0536  -2.0001  -1.9714  -1.9595
    -1.9537  -1.9389  -1.9261  -1.9062  -1.8497  -1.8395  -1.8322  -1.7895
    -1.7786  -1.7468  -1.7406  -1.7017  -1.6849  -1.6103  -1.5163  -1.4919
    -1.4331  -1.3319  -1.3174  -1.3117  -1.2193  -1.2103  -1.1808  -1.1498
    -1.0953  -0.9960  -0.9411  -0.8646  -0.8613  -0.8321  -0.7444  -0.6809
    -0.6472  -0.6376  -0.5984  -0.5410  -0.5189  -0.4844  -0.4016  -0.3602
    -0.3333  -0.2993  -0.2042  -0.1430  -0.1195  -0.0877  -0.0842   0.0047
     0.0379   0.0746   0.0954   0.1337   0.1604   0.2247   0.2471   0.3574
     0.4256   0.4573   0.5765   0.6006   0.6644   0.7966   0.8682   0.9087
     0.9613   1.0194   1.0468   1.1776   1.1848   1.2043   1.3034   1.3437
     1.3506   1.3636   2.2730   2.2741   2.3553   2.3556   4.1007   4.1877
     4.2311   4.2687   4.3756   4.4840   4.5026   4.5459   4.5464   4.6213
     4.6282

     the Fermi energy is     4.0219 ev

!    total energy              =   -2942.82552682 Ry
     estimated scf accuracy    <       0.00000006 Ry
     smearing contrib. (-TS)   =      -0.03684616 Ry
     internal energy E=F+TS    =   -2942.78868066 Ry

     The total energy is F=E-TS. E is the sum of the following terms:
     one-electron contribution =  -23972.23047431 Ry
     hartree contribution      =   12081.68249011 Ry
     xc contribution           =    -487.77412645 Ry
     ewald contribution        =    9435.52849105 Ry
     electric field correction =       0.00493894 Ry

     total magnetization       =    -0.03 Bohr mag/cell
     absolute magnetization    =     0.04 Bohr mag/cell

     convergence has been achieved in 151 iterations

     Forces acting on atoms (cartesian axes, Ry/au):

     atom    1 type  1   force =     0.00015116   -0.00022382    0.09431011
     atom    2 type  1   force =    -0.00009457   -0.00031756   -0.17739793
     atom    3 type  2   force =     0.00005493   -0.00016630   -0.02136529
     atom    4 type  2   force =    -0.00001525   -0.00172617    0.05658260
     atom    5 type  2   force =    -0.01054852   -0.00127580    0.00624092
     atom    6 type  2   force =     0.01221688   -0.00074195    0.00571290
     atom    7 type  1   force =    -0.00032780    0.00172367   -0.01619112
     atom    8 type  1   force =    -0.00010984    0.00438309    0.00561410
     atom    9 type  2   force =     0.00000940   -0.00004346   -0.00004251
     atom   10 type  2   force =    -0.00074457   -0.00022084   -0.00042624
     atom   11 type  2   force =     0.00033821    0.00012240   -0.00018167
     atom   12 type  2   force =    -0.00051114    0.00000040   -0.00011932
     atom   13 type  1   force =     0.00004355   -0.00035277    0.00013893
     atom   14 type  1   force =     0.00055836    0.00011994   -0.00031418
     atom   15 type  2   force =    -0.00039911    0.00024587   -0.00016234
     atom   16 type  2   force =    -0.00033129    0.00019277   -0.00004123
     atom   17 type  2   force =    -0.00020067    0.00007497    0.00039549
     atom   18 type  2   force =     0.00008819    0.00035099   -0.00007524
     atom   19 type  1   force =     0.00017665    0.00004991    0.00004373
     atom   20 type  1   force =     0.00006040    0.00042612   -0.00050175
     atom   21 type  2   force =     0.00003686    0.00004186    0.10360163
     atom   22 type  2   force =    -0.00005531   -0.00076322   -0.00037289
     atom   23 type  2   force =    -0.07081150   -0.00009762   -0.02720007
     atom   24 type  2   force =     0.07067371    0.00034320   -0.02722768
     atom   25 type  1   force =    -0.00009662   -0.00019595    0.09372999
     atom   26 type  1   force =    -0.00015409   -0.00033614   -0.17733031
     atom   27 type  2   force =     0.00008611   -0.00034921   -0.02046218
     atom   28 type  2   force =     0.00003124   -0.00144092    0.05589025
     atom   29 type  2   force =    -0.01091333   -0.00073640    0.00608965
     atom   30 type  2   force =     0.01246445   -0.00029280    0.00556801
     atom   31 type  1   force =    -0.00017466    0.00462473   -0.01721647
     atom   32 type  1   force =    -0.00003665   -0.00479991    0.00559623
     atom   33 type  2   force =     0.00005641    0.00012260    0.00027545
     atom   34 type  2   force =     0.00005706   -0.00085419   -0.00296130
     atom   35 type  2   force =     0.00022530    0.00003486    0.00008705
     atom   36 type  2   force =    -0.00041925    0.00015938   -0.00005833
     atom   37 type  1   force =    -0.00012771   -0.00010886   -0.00017326
     atom   38 type  1   force =     0.00043171   -0.00028853    0.00038433
     atom   39 type  2   force =    -0.00044910    0.00011366    0.00075565
     atom   40 type  2   force =    -0.00011850    0.00018690   -0.00019357
     atom   41 type  2   force =     0.00007249    0.00035487    0.00019812
     atom   42 type  2   force =    -0.00006194    0.00020960   -0.00004912
     atom   43 type  1   force =    -0.00041356    0.00058059   -0.00008039
     atom   44 type  1   force =    -0.00019185    0.00037176   -0.00020738
     atom   45 type  2   force =     0.00002607    0.00001168    0.10362130
     atom   46 type  2   force =    -0.07081159   -0.00003690   -0.02719132
     atom   47 type  2   force =     0.07068017    0.00037642   -0.02719896
     atom   48 type  3   force =     0.00014625    0.00012360    0.00126805
     atom   49 type  4   force =    -0.00018953    0.00033634   -0.00040761
     atom   50 type  5   force =     0.00003275   -0.00006122    0.00001416
     atom   51 type  5   force =    -0.00027130   -0.00030876    0.00000856
     atom   52 type  5   force =    -0.00034994   -0.00003799    0.00011079
     atom   53 type  3   force =    -0.00205494   -0.00127521   -0.00049467
     atom   54 type  5   force =     0.00283605    0.00196937    0.00128262
     atom   55 type  5   force =    -0.00016400   -0.00047685   -0.00124438
     atom   56 type  5   force =    -0.00040620   -0.00012216   -0.00063192

     Total force =     0.365593     Total SCF correction =     0.000589
  @ DRIVER MODE: Message from server: STATUS
  @ DRIVER MODE: Message from server: GETFORCE
  @ DRIVER MODE: Returning v,forces,stress,ensemble

     Writing output data file ./calc.save/
  @ DRIVER MODE: Message from server: EXIT
  @ DRIVE MODE: Exiting

     General routines

     Parallel routines

   This run was terminated on:  23:42:36  16Jul2021

   JOB DONE.