     Program PWSCF v.6.7GPU starts on 16Sep2021 at  5:14:28

     R & G space division:  proc/nbgrp/npool/nimage =      10
     Reading input from /storage/home/hcoda1/3/ntian30/research/carbon/CxH_vib/H2O_calc/ads_slab/CH2NHNH2O_a/out_0043/pw.inp
Warning: card &CELL ignored
Warning: card   CELL_DYNAMICS='IPI', ignored
Warning: card / ignored

     Current dimensions of program PWSCF are:
     Max number of different atomic species (ntypx) = 10
     Max number of k-points (npk) =  40000
     Max angular momentum in pseudopotentials (lmaxx) =  3
     Presently no symmetry can be used with electric field

     Message from routine cell_base_init:
     DEPRECATED: use true lattice parameter, not A to a.u. conversion factor

     IMPORTANT: XC functional enforced from input :
     Exchange-correlation= BEEF-VDW
                           (   1   4  43  14   2   0   0)
     Any further DFT definition will be discarded
     Please, verify this is what you really want

  @ DRIVER MODE: Connecting to
 qe_1139763_2852610.sched-torque.pace.gatech.eduvaz4abpf_scratch
  using UNIX socket
  @ DRIVER MODE: Message from server: STATUS
  @ DRIVER MODE: Message from server: INIT
  @ DRIVER MODE: Receiving replica           0          -1
  @ DRIVER MODE: Receiving encoded integer          25
  @ DRIVER MODE:  SCF:  T  FORCE:  T  STRESS:  F  VC:  F  ENSEMBLE:  F
  @ DRIVER MODE:  SCF:  T  FORCE:  T  STRESS:  F  VC:  F  ENSEMBLE:  F

     Using Slab Decomposition

     bravais-lattice index     =            0
     lattice parameter (alat)  =       1.8897  a.u.
     unit-cell volume          =    6658.9804 (a.u.)^3
     number of atoms/cell      =           56
     number of atomic types    =            5
     number of electrons       =       403.00
     number of Kohn-Sham states=          211
     kinetic-energy cutoff     =      29.3995  Ry
     charge density cutoff     =     293.9946  Ry
     scf convergence threshold =      7.3E-08
     mixing beta               =       0.0500
     number of iterations used =            8  plain     mixing
     Exchange-correlation= BEEF-VDW
                           (   1   4  43  14   2   0   0)

     celldm(1)=   1.889726  celldm(2)=   0.000000  celldm(3)=   0.000000
     celldm(4)=   0.000000  celldm(5)=   0.000000  celldm(6)=   0.000000

     crystal axes: (cart. coord. in units of alat)
               a(1) = (   6.579727   0.000000   0.000000 )
               a(2) = (  -0.000775   5.961596   0.000000 )
               a(3) = (   0.000000   0.000000  25.155947 )

     reciprocal axes: (cart. coord. in units 2 pi/alat)
               b(1) = (  0.151982  0.000020  0.000000 )
               b(2) = (  0.000000  0.167740  0.000000 )
               b(3) = (  0.000000  0.000000  0.039752 )

     PseudoPot. # 1 for Ti read from file:
     /storage/coda1/p-amedford6/0/shared/rich_project_chbe-medford/medford-share/data/pseudos_module/espresso/nninc/pbe/van/Ti.UPF
     MD5 check sum: 8e4df49b7f0d34bbd5052bf3f5ea0213
     Pseudo is Ultrasoft, Zval = 12.0
     Generated by new atomic code, or converted to UPF format
     Using radial grid of  851 points,  6 beta functions with:
                l(1) =   0
                l(2) =   0
                l(3) =   1
                l(4) =   1
                l(5) =   2
                l(6) =   2
     Q(r) pseudized with  8 coefficients,  rinner =    1.000   1.000   1.000
                                                       1.000   1.000

     PseudoPot. # 2 for O  read from file:
     /storage/coda1/p-amedford6/0/shared/rich_project_chbe-medford/medford-share/data/pseudos_module/espresso/nninc/pbe/van/O.UPF
     MD5 check sum: 78c19812648e8988a0fe644b0f25305e
     Pseudo is Ultrasoft, Zval =  6.0
     Generated by new atomic code, or converted to UPF format
     Using radial grid of  737 points,  4 beta functions with:
                l(1) =   0
                l(2) =   0
                l(3) =   1
                l(4) =   1
     Q(r) pseudized with  8 coefficients,  rinner =    0.800   0.800   0.800

     PseudoPot. # 3 for H  read from file:
     /storage/coda1/p-amedford6/0/shared/rich_project_chbe-medford/medford-share/data/pseudos_module/espresso/nninc/pbe/van/H.UPF
     MD5 check sum: b5ee9d7bfd3a09ee7748110bda690ff7
     Pseudo is Ultrasoft, Zval =  1.0
     Generated by new atomic code, or converted to UPF format
     Using radial grid of  615 points,  1 beta functions with:
                l(1) =   0
     Q(r) pseudized with  8 coefficients,  rinner =    0.800

     PseudoPot. # 4 for N  read from file:
     /storage/coda1/p-amedford6/0/shared/rich_project_chbe-medford/medford-share/data/pseudos_module/espresso/nninc/pbe/van/N.UPF
     MD5 check sum: 90d10febe142ad51ac9d5be1deb811c4
     Pseudo is Ultrasoft, Zval =  5.0
     Generated by new atomic code, or converted to UPF format
     Using radial grid of  729 points,  4 beta functions with:
                l(1) =   0
                l(2) =   0
                l(3) =   1
                l(4) =   1
     Q(r) pseudized with  8 coefficients,  rinner =    0.800   0.800   0.800

     PseudoPot. # 5 for C  read from file:
     /storage/coda1/p-amedford6/0/shared/rich_project_chbe-medford/medford-share/data/pseudos_module/espresso/nninc/pbe/van/C.UPF
     MD5 check sum: 1a69bf6b8db32088f5b2163dbdb77a27
     Pseudo is Ultrasoft, Zval =  4.0
     Generated by new atomic code, or converted to UPF format
     Using radial grid of  721 points,  4 beta functions with:
                l(1) =   0
                l(2) =   0
                l(3) =   1
                l(4) =   1
     Q(r) pseudized with  8 coefficients,  rinner =    0.800   0.800   0.800

     atomic species   valence    mass     pseudopotential
        Ti1           12.00    47.86700     Ti( 1.00)
        O1             6.00    15.99900     O ( 1.00)
        H1             1.00     1.00800     H ( 1.00)
        N1             5.00    14.00700     N ( 1.00)
        C1             4.00    12.01100     C ( 1.00)

     No symmetry found

   Cartesian axes

     site n.     atom                  positions (alat units)
         1           Ti1 tau(   1) = (   0.0004258   2.9801865   6.0000000  )
         2           Ti1 tau(   2) = (   3.2906075   1.4906267   6.0002472  )
         3           O1  tau(   3) = (   0.0006271   0.0005054   7.9858123  )
         4           O1  tau(   4) = (   3.2906025   0.0005020   7.3038282  )
         5           O1  tau(   5) = (   4.5942328   1.4918067   9.2879030  )
         6           O1  tau(   6) = (   1.9868534   1.4903216   9.2879459  )
         7           Ti1 tau(   7) = (   3.2907910   2.8959150   9.1758416  )
         8           Ti1 tau(   8) = (   0.0015273   1.4827037   9.2680791  )
         9           O1  tau(   9) = (   3.2960012   0.0062018  11.3595187  )
        10           O1  tau(  10) = (   0.0116148   5.9584955  10.6183126  )
        11           O1  tau(  11) = (   1.2731109   1.5057875  12.6314550  )
        12           O1  tau(  12) = (   5.2959999   1.4755877  12.6679080  )
        13           Ti1 tau(  13) = (   0.0553992   2.9538365  12.5526742  )
        14           Ti1 tau(  14) = (   3.3268292   1.5427496  12.5634199  )
        15           O1  tau(  15) = (   0.1371361   5.9015051  14.6217027  )
        16           O1  tau(  16) = (   3.1880369   0.0098958  13.9252199  )
        17           O1  tau(  17) = (   4.6462182   1.4014471  15.8552565  )
        18           O1  tau(  18) = (   2.0822703   1.5558083  16.1249119  )
        19           Ti1 tau(  19) = (   3.3548958   3.0525267  15.8597497  )
        20           Ti1 tau(  20) = (   0.0948755   1.3182250  15.7908873  )
        21           O1  tau(  21) = (   3.2904802   0.0005063   4.7018136  )
        22           O1  tau(  22) = (   0.0722171   0.0319689  17.1393915  )
        23           O1  tau(  23) = (   1.3043587   1.4918075   6.0039043  )
        24           O1  tau(  24) = (   5.2767064   1.4903225   6.0039473  )
        25           Ti1 tau(  25) = (   0.0000382   5.9609847   6.0000000  )
        26           Ti1 tau(  26) = (   3.2902200   4.4714249   6.0002472  )
        27           O1  tau(  27) = (   0.0002396   2.9813036   7.9858123  )
        28           O1  tau(  28) = (   3.2902150   2.9813002   7.3038282  )
        29           O1  tau(  29) = (   4.5938453   4.4726049   9.2879030  )
        30           O1  tau(  30) = (   1.9864658   4.4711199   9.2879459  )
        31           Ti1 tau(  31) = (   3.2891106   5.8743827   9.1763621  )
        32           Ti1 tau(  32) = (   0.0006254   4.4649316   9.2693709  )
        33           O1  tau(  33) = (   3.2982667   2.9897935  11.3544942  )
        34           O1  tau(  34) = (   0.0092240   2.9805883  10.6323155  )
        35           O1  tau(  35) = (   1.2737041   4.4504026  12.6113924  )
        36           O1  tau(  36) = (   5.2903739   4.4874249  12.6576873  )
        37           Ti1 tau(  37) = (   6.5697415   5.9260651  12.4959683  )
        38           Ti1 tau(  38) = (   3.3125242   4.5024033  12.5372123  )
        39           O1  tau(  39) = (   0.0674008   2.9793056  14.8363759  )
        40           O1  tau(  40) = (   3.2999477   2.9756493  13.9369993  )
        41           O1  tau(  41) = (   4.6108370   4.5787535  15.7719701  )
        42           O1  tau(  42) = (   2.0428421   4.3627697  16.1441833  )
        43           Ti1 tau(  43) = (   3.3552955   0.0804576  15.7648105  )
        44           Ti1 tau(  44) = (   6.5672415   4.5273692  15.9765751  )
        45           O1  tau(  45) = (   3.2900926   2.9813045   4.7018136  )
        46           O1  tau(  46) = (   1.3039711   4.4726057   6.0039043  )
        47           O1  tau(  47) = (   5.2763189   4.4711207   6.0039473  )
        48           H1  tau(  48) = (   4.1035413   2.4672077  18.5646977  )
        49           N1  tau(  49) = (   5.6961598   3.2907635  17.7856741  )
        50           C1  tau(  50) = (   6.4968133   2.7471819  18.6454045  )
        51           H1  tau(  51) = (   6.1325458   2.1374441  19.4677963  )
        52           H1  tau(  52) = (   0.9799315   2.9096255  18.5325614  )
        53           N1  tau(  53) = (   4.3409097   3.1788467  17.8642182  )
        54           O1  tau(  54) = (   3.3174094   5.8609012  18.0981057  )
        55           H1  tau(  55) = (   3.6636973   4.9388346  18.2201127  )
        56           H1  tau(  56) = (   2.3597147   5.7972335  18.2603650  )

     number of k points=    10  Fermi-Dirac smearing, width (Ry)=  0.0073
                       cart. coord. in units 2pi/alat
        k(    1) = (   0.0000000   0.0000000   0.0000000), wk =   0.1250000
        k(    2) = (   0.0000000   0.0419351   0.0000000), wk =   0.2500000
        k(    3) = (   0.0000000  -0.0838702   0.0000000), wk =   0.1250000
        k(    4) = (   0.0379955   0.0000049   0.0000000), wk =   0.2500000
        k(    5) = (   0.0379955   0.0419400   0.0000000), wk =   0.2500000
        k(    6) = (   0.0379955  -0.0838652   0.0000000), wk =   0.2500000
        k(    7) = (   0.0379955  -0.0419301   0.0000000), wk =   0.2500000
        k(    8) = (  -0.0759910  -0.0000099   0.0000000), wk =   0.1250000
        k(    9) = (  -0.0759910   0.0419252   0.0000000), wk =   0.2500000
        k(   10) = (  -0.0759910  -0.0838800   0.0000000), wk =   0.1250000

     Initial potential from superposition of free atoms

     starting charge  386.99914, renormalised to  403.00000

     negative rho (up, down):  1.703E-02 0.000E+00

     %%%%%%%%%%%%%%%%%%%%%%%%%%%%%%%%%%%%%%%%%%%%%%%%%%%%%%%%%%%%%%%%%%%%%%%%
     %                                                                      %
     % You are using vdW-DF, which was implemented by the Thonhauser group. %
     % Please cite the following two papers that made this development      %
     % possible and the two reviews that describe the various versions:     %
     %                                                                      %
     %   T. Thonhauser et al., PRL 115, 136402 (2015).                      %
     %   T. Thonhauser et al., PRB 76, 125112 (2007).                       %
     %   K. Berland et al., Rep. Prog. Phys. 78, 066501 (2015).             %
     %   D.C. Langreth et al., J. Phys.: Condens. Matter 21, 084203 (2009). %
     %                                                                      %
     %                                                                      %
     % If you are calculating the stress with vdW-DF, please also cite:     %
     %                                                                      %
     %   R. Sabatini et al., J. Phys.: Condens. Matter 24, 424209 (2012).   %
     %                                                                      %
     %%%%%%%%%%%%%%%%%%%%%%%%%%%%%%%%%%%%%%%%%%%%%%%%%%%%%%%%%%%%%%%%%%%%%%%%

     Adding external electric field

     Computed dipole along edir(3) :
        Dipole              -12.3736 Ry au,        -31.4507 Debye
        Dipole field         -0.0234 Ry au,

        Potential amp.        2.1646 Ry
        Total length         46.3494 bohr

     Starting wfcs are  305 atomic wfcs
  @ DRIVER MODE: Message from server: STATUS
  @ DRIVER MODE: Message from server: POSDATA
  @ DRIVER MODE: Reading and sharing cell
  @ DRIVER MODE: Reading and sharing positions
  @ DRIVER MODE: Received positions

     Self-consistent Calculation

     iteration #  1     ecut=    29.40 Ry     beta= 0.05
     Davidson diagonalization with overlap
     c_bands:  4 eigenvalues not converged
     c_bands:  3 eigenvalues not converged
     c_bands:  3 eigenvalues not converged
     c_bands:  1 eigenvalues not converged
     c_bands:  1 eigenvalues not converged
     c_bands:  4 eigenvalues not converged
     c_bands:  3 eigenvalues not converged
     ethr =  1.00E-05,  avg # of iterations = 27.4

[...]

     total energy              =   -2355.29037764 Ry
     estimated scf accuracy    <    7011.01844918 Ry

     iteration #  2     ecut=    29.40 Ry     beta= 0.05
     Davidson diagonalization with overlap
     ethr =  1.00E-02,  avg # of iterations = 25.5

[...]

     iteration # 50     ecut=    29.40 Ry     beta= 0.05
     Davidson diagonalization with overlap
     c_bands:  1 eigenvalues not converged
     ethr =  8.72E-11,  avg # of iterations = 14.1

[...]

     total energy              =   -2973.97641933 Ry
     estimated scf accuracy    <       0.00000017 Ry

     iteration # 53     ecut=    29.40 Ry     beta= 0.05
     Davidson diagonalization with overlap
     ethr =  1.94E-11,  avg # of iterations = 12.2

     negative rho (up, down):  1.700E-02 0.000E+00

     Adding external electric field

     Computed dipole along edir(3) :
        Dipole                0.9083 Ry au,          2.3086 Debye
        Dipole field          0.0017 Ry au,

        Potential amp.       -0.1589 Ry
        Total length         46.3494 bohr

     End of self-consistent calculation

          k = 0.0000 0.0000 0.0000 ( 18029 PWs)   bands (ev):

   -55.6368 -55.6027 -55.5185 -55.4827 -55.4763 -55.4633 -55.4416 -55.4294
   -55.4243 -55.4068 -55.3902 -55.3897 -55.3562 -55.2389 -54.6229 -54.5889
   -32.1225 -32.0243 -31.9709 -31.9653 -31.9574 -31.9280 -31.9141 -31.8961
   -31.8825 -31.7894 -31.7834 -31.7774 -31.7497 -31.7443 -31.7392 -31.7048
   -31.6942 -31.6811 -31.6761 -31.6682 -31.6615 -31.6598 -31.6442 -31.6412
   -31.6350 -31.6256 -31.6231 -31.6186 -31.6130 -31.6072 -31.6023 -31.5930
   -31.5831 -31.5808 -31.5802 -31.5784 -31.5724 -31.5371 -31.5288 -31.5137
   -31.4397 -31.3672 -31.0299 -30.9414 -30.9190 -30.8468 -30.7604 -30.6491
   -18.4723 -17.7368 -16.3001 -16.1095 -15.8842 -15.7823 -15.7425 -15.5692
   -15.4386 -15.3959 -15.2693 -15.2037 -15.1798 -15.1611 -15.1473 -15.1148
   -15.0914 -15.0676 -15.0656 -15.0465 -15.0222 -14.9995 -14.9714 -14.9535
   -14.9112 -14.7856 -14.7777 -14.7661 -14.7283 -14.6909 -14.2914 -13.1232
   -13.0066 -12.3712  -7.9241  -6.2077  -5.4242  -4.8373  -3.6714  -3.5795
    -3.5467  -3.5237  -3.4479  -3.3303  -3.2297  -3.0362  -2.9292  -2.8989
    -2.8829  -2.7886  -2.7090  -2.6671  -2.5632  -2.5308  -2.5208  -2.4763
    -2.4209  -2.4064  -2.3764  -2.3631  -2.3274  -2.1941  -2.1752  -2.1373
    -2.0251  -2.0086  -2.0010  -1.9587  -1.9544  -1.9241  -1.9138  -1.8960
    -1.8795  -1.8682  -1.8003  -1.7186  -1.6870  -1.6365  -1.5818  -1.5791
    -1.2744  -1.2574  -1.1907  -1.1588  -1.0880  -1.0551  -1.0400  -1.0255
    -0.9957  -0.8947  -0.8043  -0.7854  -0.7224  -0.6612  -0.5621  -0.5473
    -0.4468  -0.3978  -0.3921  -0.3789  -0.3471  -0.2892  -0.2313  -0.1753
    -0.1248  -0.0428   0.0121   0.0204   0.0627   0.1066   0.1363   0.1946
     0.2569   0.2844   0.3175   0.3328   0.3740   0.4341   0.4557   0.4683
     0.5470   0.5870   0.6121   0.7101   0.7194   0.7583   0.8300   1.0148
     1.0603   1.1997   1.3384   1.4017   1.4674   1.5938   1.8725   1.9718
     2.0180   3.4532   3.5872   3.6081   3.6436   3.7154   3.7617   3.9349
     4.0305   4.0524   4.1135

[...]

          k = 0.0380-0.0419 0.0000 ( 17876 PWs)   bands (ev):

[...]

          k =-0.0760-0.0000 0.0000 ( 17886 PWs)   bands (ev):

[...]

          k =-0.0760-0.0839 0.0000 ( 17948 PWs)   bands (ev):

   -55.6198 -55.6196 -55.5037 -55.4971 -55.4611 -55.4570 -55.4463 -55.4460
   -55.4102 -55.4045 -55.4044 -55.3737 -55.3724 -55.2407 -54.6059 -54.6057
   -31.9378 -31.9376 -31.9135 -31.9134 -31.8833 -31.8475 -31.8187 -31.8001
   -31.7895 -31.7744 -31.7652 -31.7527 -31.7484 -31.7396 -31.7392 -31.7322
   -31.7316 -31.7193 -31.7167 -31.7098 -31.6837 -31.6814 -31.6762 -31.6703
   -31.6556 -31.6532 -31.6523 -31.6387 -31.6328 -31.6308 -31.6275 -31.6270
   -31.6231 -31.6203 -31.6199 -31.6154 -31.6138 -31.6028 -31.5870 -31.5362
   -31.4496 -31.4466 -30.9318 -30.9316 -30.8427 -30.8425 -30.8037 -30.8036
   -18.4654 -17.7369 -15.8509 -15.6070 -15.5934 -15.5569 -15.5379 -15.4187
   -15.3736 -15.3697 -15.3488 -15.2936 -15.2583 -15.2211 -15.1897 -15.1720
   -15.1485 -15.1373 -15.0961 -15.0926 -15.0854 -15.0635 -15.0225 -15.0116
   -14.9872 -14.9667 -14.9621 -14.9498 -14.9174 -14.7494 -14.6393 -13.1084
   -13.1083 -12.3871  -7.8841  -6.1922  -5.4831  -4.7591  -3.1437  -3.0711
    -3.0329  -2.8000  -2.7563  -2.7418  -2.7014  -2.6417  -2.5883  -2.5715
    -2.5528  -2.5253  -2.5156  -2.4620  -2.4363  -2.4106  -2.3863  -2.3699
    -2.3609  -2.3473  -2.3212  -2.3019  -2.2809  -2.2694  -2.2466  -2.2358
    -2.2135  -2.2053  -2.1912  -2.1691  -2.0808  -1.9985  -1.8976  -1.8378
    -1.7940  -1.7935  -1.7631  -1.7346  -1.7065  -1.7015  -1.6624  -1.6332
    -1.5629  -1.5030  -1.3192  -1.3053  -1.2608  -1.1778  -1.1750  -1.1276
    -1.1199  -1.0687  -1.0403  -0.9934  -0.9438  -0.9121  -0.8232  -0.6695
    -0.6209  -0.6010  -0.5951  -0.5801  -0.5393  -0.5246  -0.4727  -0.4552
    -0.4389  -0.3738  -0.3418  -0.3381  -0.2877  -0.2694  -0.1566  -0.0598
    -0.0315   0.0225   0.0620   0.1815   0.2941   0.3634   0.4640   0.4786
     0.4971   0.5507   0.6589   0.6686   0.7137   0.7755   0.8414   0.8472
     0.8776   0.9415   0.9536   0.9903   1.7647   1.7663   1.8214   1.8380
     1.8381   3.8617   3.9025   3.9531   3.9592   3.9832   4.0333   4.0409
     4.0711   4.1217   4.1374

     the Fermi energy is     3.4856 ev

!    total energy              =   -2973.97651288 Ry
     estimated scf accuracy    <       0.00000003 Ry
     smearing contrib. (-TS)   =      -0.01978283 Ry
     internal energy E=F+TS    =   -2973.95673005 Ry

     The total energy is F=E-TS. E is the sum of the following terms:
     one-electron contribution =  -24367.69296183 Ry
     hartree contribution      =   12278.40440358 Ry
     xc contribution           =    -494.13470517 Ry
     ewald contribution        =    9609.46497655 Ry
     electric field correction =       0.00155681 Ry

     convergence has been achieved in  53 iterations

     Forces acting on atoms (cartesian axes, Ry/au):

     atom    1 type  1   force =     0.00015826   -0.00031368    0.09442997
     atom    2 type  1   force =    -0.00007281   -0.00077024   -0.17586276
     atom    3 type  2   force =     0.00005891   -0.00019539   -0.02182195
     atom    4 type  2   force =     0.00003981   -0.00134391    0.05332951
     atom    5 type  2   force =    -0.00870946   -0.00018129    0.00366510
     atom    6 type  2   force =     0.01037678    0.00047163    0.00301618
     atom    7 type  1   force =    -0.00044809    0.00082723   -0.00104681
     atom    8 type  1   force =     0.00044885    0.00750269    0.00862175
     atom    9 type  2   force =     0.00046967    0.00015052    0.00006015
     atom   10 type  2   force =    -0.00263029    0.00131773   -0.01723806
     atom   11 type  2   force =    -0.00009159    0.00009035   -0.00040605
     atom   12 type  2   force =     0.00030902    0.00007408   -0.00008301
     atom   13 type  1   force =    -0.00042338   -0.00037427   -0.00023153
     atom   14 type  1   force =     0.00036787    0.00009735    0.00021362
     atom   15 type  2   force =     0.00013182   -0.00006566   -0.00027736
     atom   16 type  2   force =     0.00020983    0.00019228    0.00013327
     atom   17 type  2   force =    -0.00012471   -0.00013080    0.00008463
     atom   18 type  2   force =     0.00006208   -0.00007175   -0.00006464
     atom   19 type  1   force =    -0.00036511    0.00023204   -0.00064839
     atom   20 type  1   force =     0.00015428   -0.00018991    0.00008641
     atom   21 type  2   force =     0.00006621   -0.00000442    0.10325455
     atom   22 type  2   force =    -0.00022768   -0.00043358   -0.00012709
     atom   23 type  2   force =    -0.07154977   -0.00011062   -0.02736030
     atom   24 type  2   force =     0.07148533    0.00037450   -0.02737504
     atom   25 type  1   force =     0.00004292   -0.00021381    0.09441709
     atom   26 type  1   force =    -0.00013175   -0.00029608   -0.17599081
     atom   27 type  2   force =     0.00003784   -0.00018871   -0.02072249
     atom   28 type  2   force =     0.00009357   -0.00112581    0.05371851
     atom   29 type  2   force =    -0.00879086   -0.00002264    0.00343290
     atom   30 type  2   force =     0.01030488    0.00036402    0.00286175
     atom   31 type  1   force =    -0.00033012    0.00467061    0.00188953
     atom   32 type  1   force =     0.00042539   -0.00852482    0.00857207
     atom   33 type  2   force =    -0.00003851    0.00002923   -0.00000710
     atom   34 type  2   force =    -0.00403429   -0.00111990   -0.01183345
     atom   35 type  2   force =     0.00013586    0.00007630    0.00033461
     atom   36 type  2   force =     0.00053792    0.00005859   -0.00022496
     atom   37 type  1   force =     0.00061898   -0.00018879   -0.00001871
     atom   38 type  1   force =     0.00022972   -0.00017202   -0.00012861
     atom   39 type  2   force =    -0.00012813   -0.00002168   -0.00020855
     atom   40 type  2   force =     0.00046180    0.00000502    0.00040012
     atom   41 type  2   force =    -0.00018716    0.00047383    0.00006671
     atom   42 type  2   force =     0.00016402    0.00025217   -0.00003478
     atom   43 type  1   force =    -0.00017817   -0.00013306   -0.00038274
     atom   44 type  1   force =     0.00020557    0.00053708    0.00096238
     atom   45 type  2   force =     0.00005383    0.00000155    0.10332370
     atom   46 type  2   force =    -0.07154524   -0.00004446   -0.02735290
     atom   47 type  2   force =     0.07148571    0.00034993   -0.02737583
     atom   48 type  3   force =     0.00049964   -0.00057632   -0.00069963
     atom   49 type  4   force =    -0.00012363    0.00027036   -0.00040400
     atom   50 type  5   force =     0.00005580   -0.00160209   -0.00095886
     atom   51 type  3   force =    -0.00042250    0.00043236    0.00099585
     atom   52 type  3   force =    -0.00006162   -0.00026740    0.00002684
     atom   53 type  4   force =    -0.00007631   -0.00020041    0.00085697
     atom   54 type  2   force =    -0.00277778    0.00238656    0.00081641
     atom   55 type  3   force =     0.00358905   -0.00389788   -0.00010083
     atom   56 type  3   force =     0.00018771    0.00154339   -0.00058335

     Total force =     0.363866     Total SCF correction =     0.000506
  @ DRIVER MODE: Message from server: STATUS
  @ DRIVER MODE: Message from server: GETFORCE
  @ DRIVER MODE: Returning v,forces,stress,ensemble

     Writing output data file ./calc.save/
  @ DRIVER MODE: Message from server: EXIT
  @ DRIVE MODE: Exiting

     General routines

     Parallel routines

   This run was terminated on:   5:31: 0  16Sep2021

   JOB DONE.