     Program PWSCF v.6.7GPU starts on 23Sep2021 at  0:54:45

     R & G space division:  proc/nbgrp/npool/nimage =      10
     Reading input from /storage/home/hcoda1/3/ntian30/research/carbon/CxH_vib/H2O_calc/ads_slab/CH3NHHH2O_a/out_0028/pw.inp
Warning: card &CELL ignored
Warning: card   CELL_DYNAMICS='IPI', ignored
Warning: card / ignored

     Current dimensions of program PWSCF are:
     Max number of different atomic species (ntypx) = 10
     Max number of k-points (npk) =  40000
     Max angular momentum in pseudopotentials (lmaxx) =  3
     Presently no symmetry can be used with electric field

     Message from routine cell_base_init:
     DEPRECATED: use true lattice parameter, not A to a.u. conversion factor

     IMPORTANT: XC functional enforced from input :
     Exchange-correlation= BEEF-VDW
                           (   1   4  43  14   2   0   0)
     Any further DFT definition will be discarded
     Please, verify this is what you really want

  @ DRIVER MODE: Connecting to
 qe_1139763_2937309.sched-torque.pace.gatech.edutex4gwbf_scratch
  using UNIX socket
  @ DRIVER MODE: Message from server: STATUS
  @ DRIVER MODE: Message from server: INIT
  @ DRIVER MODE: Receiving replica           0          -1
  @ DRIVER MODE: Receiving encoded integer          25
  @ DRIVER MODE:  SCF:  T  FORCE:  T  STRESS:  F  VC:  F  ENSEMBLE:  F
  @ DRIVER MODE:  SCF:  T  FORCE:  T  STRESS:  F  VC:  F  ENSEMBLE:  F

     Using Slab Decomposition

     bravais-lattice index     =            0
     lattice parameter (alat)  =       1.8897  a.u.
     unit-cell volume          =    6658.9804 (a.u.)^3
     number of atoms/cell      =           57
     number of atomic types    =            5
     number of electrons       =       400.00
     number of Kohn-Sham states=          210
     kinetic-energy cutoff     =      29.3995  Ry
     charge density cutoff     =     293.9946  Ry
     scf convergence threshold =      7.3E-08
     mixing beta               =       0.0500
     number of iterations used =            8  plain     mixing
     Exchange-correlation= BEEF-VDW
                           (   1   4  43  14   2   0   0)

     celldm(1)=   1.889726  celldm(2)=   0.000000  celldm(3)=   0.000000
     celldm(4)=   0.000000  celldm(5)=   0.000000  celldm(6)=   0.000000

     crystal axes: (cart. coord. in units of alat)
               a(1) = (   6.579727   0.000000   0.000000 )
               a(2) = (  -0.000775   5.961596   0.000000 )
               a(3) = (   0.000000   0.000000  25.155947 )

     reciprocal axes: (cart. coord. in units 2 pi/alat)
               b(1) = (  0.151982  0.000020  0.000000 )
               b(2) = (  0.000000  0.167740  0.000000 )
               b(3) = (  0.000000  0.000000  0.039752 )

     PseudoPot. # 1 for Ti read from file:
     /storage/coda1/p-amedford6/0/shared/rich_project_chbe-medford/medford-share/data/pseudos_module/espresso/nninc/pbe/van/Ti.UPF
     MD5 check sum: 8e4df49b7f0d34bbd5052bf3f5ea0213
     Pseudo is Ultrasoft, Zval = 12.0
     Generated by new atomic code, or converted to UPF format
     Using radial grid of  851 points,  6 beta functions with:
                l(1) =   0
                l(2) =   0
                l(3) =   1
                l(4) =   1
                l(5) =   2
                l(6) =   2
     Q(r) pseudized with  8 coefficients,  rinner =    1.000   1.000   1.000
                                                       1.000   1.000

     PseudoPot. # 2 for O  read from file:
     /storage/coda1/p-amedford6/0/shared/rich_project_chbe-medford/medford-share/data/pseudos_module/espresso/nninc/pbe/van/O.UPF
     MD5 check sum: 78c19812648e8988a0fe644b0f25305e
     Pseudo is Ultrasoft, Zval =  6.0
     Generated by new atomic code, or converted to UPF format
     Using radial grid of  737 points,  4 beta functions with:
                l(1) =   0
                l(2) =   0
                l(3) =   1
                l(4) =   1
     Q(r) pseudized with  8 coefficients,  rinner =    0.800   0.800   0.800

     PseudoPot. # 3 for N  read from file:
     /storage/coda1/p-amedford6/0/shared/rich_project_chbe-medford/medford-share/data/pseudos_module/espresso/nninc/pbe/van/N.UPF
     MD5 check sum: 90d10febe142ad51ac9d5be1deb811c4
     Pseudo is Ultrasoft, Zval =  5.0
     Generated by new atomic code, or converted to UPF format
     Using radial grid of  729 points,  4 beta functions with:
                l(1) =   0
                l(2) =   0
                l(3) =   1
                l(4) =   1
     Q(r) pseudized with  8 coefficients,  rinner =    0.800   0.800   0.800

     PseudoPot. # 4 for C  read from file:
     /storage/coda1/p-amedford6/0/shared/rich_project_chbe-medford/medford-share/data/pseudos_module/espresso/nninc/pbe/van/C.UPF
     MD5 check sum: 1a69bf6b8db32088f5b2163dbdb77a27
     Pseudo is Ultrasoft, Zval =  4.0
     Generated by new atomic code, or converted to UPF format
     Using radial grid of  721 points,  4 beta functions with:
                l(1) =   0
                l(2) =   0
                l(3) =   1
                l(4) =   1
     Q(r) pseudized with  8 coefficients,  rinner =    0.800   0.800   0.800

     PseudoPot. # 5 for H  read from file:
     /storage/coda1/p-amedford6/0/shared/rich_project_chbe-medford/medford-share/data/pseudos_module/espresso/nninc/pbe/van/H.UPF
     MD5 check sum: b5ee9d7bfd3a09ee7748110bda690ff7
     Pseudo is Ultrasoft, Zval =  1.0
     Generated by new atomic code, or converted to UPF format
     Using radial grid of  615 points,  1 beta functions with:
                l(1) =   0
     Q(r) pseudized with  8 coefficients,  rinner =    0.800

     atomic species   valence    mass     pseudopotential
        Ti1           12.00    47.86700     Ti( 1.00)
        O1             6.00    15.99900     O ( 1.00)
        N1             5.00    14.00700     N ( 1.00)
        C1             4.00    12.01100     C ( 1.00)
        H1             1.00     1.00800     H ( 1.00)

     No symmetry found

   Cartesian axes

     site n.     atom                  positions (alat units)
         1           Ti1 tau(   1) = (   0.0004258   2.9801865   6.0000000  )
         2           Ti1 tau(   2) = (   3.2906075   1.4906267   6.0002472  )
         3           O1  tau(   3) = (   0.0006271   0.0005054   7.9858123  )
         4           O1  tau(   4) = (   3.2906025   0.0005020   7.3038282  )
         5           O1  tau(   5) = (   4.5942328   1.4918067   9.2879030  )
         6           O1  tau(   6) = (   1.9868534   1.4903216   9.2879459  )
         7           Ti1 tau(   7) = (   3.2907910   2.8959150   9.1758416  )
         8           Ti1 tau(   8) = (   0.0015273   1.4827037   9.2680791  )
         9           O1  tau(   9) = (   3.2912042   0.0294118  11.3810798  )
        10           O1  tau(  10) = (   0.0116148   5.9584955  10.6183126  )
        11           O1  tau(  11) = (   1.2906363   1.5151137  12.6946382  )
        12           O1  tau(  12) = (   5.2977377   1.5118052  12.6897239  )
        13           Ti1 tau(  13) = (   0.0154927   3.0055723  12.5114375  )
        14           Ti1 tau(  14) = (   3.3120461   1.5076926  12.5412499  )
        15           O1  tau(  15) = (   0.0087391   5.9056098  14.6936070  )
        16           O1  tau(  16) = (   3.3000944   0.0090435  14.0218108  )
        17           O1  tau(  17) = (   4.5606481   1.5918460  16.0876707  )
        18           O1  tau(  18) = (   2.0070218   1.5857768  16.0794533  )
        19           Ti1 tau(  19) = (   3.2835068   3.0412122  15.7371975  )
        20           Ti1 tau(  20) = (   0.0166266   1.3536260  15.8406240  )
        21           O1  tau(  21) = (   3.2904802   0.0005063   4.7018136  )
        22           O1  tau(  22) = (   6.5628702   0.1917167  17.2472498  )
        23           O1  tau(  23) = (   1.3043587   1.4918075   6.0039043  )
        24           O1  tau(  24) = (   5.2767064   1.4903225   6.0039473  )
        25           Ti1 tau(  25) = (   0.0000382   5.9609847   6.0000000  )
        26           Ti1 tau(  26) = (   3.2902200   4.4714249   6.0002472  )
        27           O1  tau(  27) = (   0.0002396   2.9813036   7.9858123  )
        28           O1  tau(  28) = (   3.2902150   2.9813002   7.3038282  )
        29           O1  tau(  29) = (   4.5938453   4.4726049   9.2879030  )
        30           O1  tau(  30) = (   1.9864658   4.4711199   9.2879459  )
        31           Ti1 tau(  31) = (   3.2891106   5.8743827   9.1763621  )
        32           Ti1 tau(  32) = (   0.0006254   4.4649316   9.2693709  )
        33           O1  tau(  33) = (   3.2975917   2.9887808  11.3748511  )
        34           O1  tau(  34) = (   0.0092240   2.9805883  10.6323155  )
        35           O1  tau(  35) = (   1.2927870   4.4849180  12.6503915  )
        36           O1  tau(  36) = (   5.2959677   4.4879952  12.6460094  )
        37           Ti1 tau(  37) = (   0.0189062   0.0134437  12.4995343  )
        38           Ti1 tau(  38) = (   3.3131396   4.4925875  12.5257625  )
        39           O1  tau(  39) = (   6.5658147   3.0796170  14.9398047  )
        40           O1  tau(  40) = (   3.2912769   3.0351834  13.9531456  )
        41           O1  tau(  41) = (   4.5372935   4.5058929  16.2491503  )
        42           O1  tau(  42) = (   2.0060561   4.4992570  16.2466123  )
        43           Ti1 tau(  43) = (   3.3106529   0.0781036  15.8389635  )
        44           Ti1 tau(  44) = (   0.0259428   4.5566345  16.0434284  )
        45           O1  tau(  45) = (   3.2900926   2.9813045   4.7018136  )
        46           O1  tau(  46) = (   1.3039711   4.4726057   6.0039043  )
        47           O1  tau(  47) = (   5.2763189   4.4711207   6.0039473  )
        48           N1  tau(  48) = (   6.3514164   3.3085518  18.1544664  )
        49           C1  tau(  49) = (   0.8695967   3.1501053  19.1301808  )
        50           H1  tau(  50) = (   1.3785670   4.1052268  19.2416751  )
        51           H1  tau(  51) = (   0.5086663   2.8389580  20.1145987  )
        52           H1  tau(  52) = (   1.5779067   2.4219510  18.7640910  )
        53           H1  tau(  53) = (   5.7211048   4.0382881  18.4729098  )
        54           H1  tau(  54) = (   5.7931489   2.4557210  18.1309407  )
        55           O1  tau(  55) = (   3.2817172   0.3149129  18.3340421  )
        56           H1  tau(  56) = (   4.0380937   5.6864266  18.4726034  )
        57           H1  tau(  57) = (   2.4816286   5.7371253  18.4434621  )

     number of k points=    10  Fermi-Dirac smearing, width (Ry)=  0.0073
                       cart. coord. in units 2pi/alat
        k(    1) = (   0.0000000   0.0000000   0.0000000), wk =   0.1250000
        k(    2) = (   0.0000000   0.0419351   0.0000000), wk =   0.2500000
        k(    3) = (   0.0000000  -0.0838702   0.0000000), wk =   0.1250000
        k(    4) = (   0.0379955   0.0000049   0.0000000), wk =   0.2500000
        k(    5) = (   0.0379955   0.0419400   0.0000000), wk =   0.2500000
        k(    6) = (   0.0379955  -0.0838652   0.0000000), wk =   0.2500000
        k(    7) = (   0.0379955  -0.0419301   0.0000000), wk =   0.2500000
        k(    8) = (  -0.0759910  -0.0000099   0.0000000), wk =   0.1250000
        k(    9) = (  -0.0759910   0.0419252   0.0000000), wk =   0.2500000
        k(   10) = (  -0.0759910  -0.0838800   0.0000000), wk =   0.1250000

     Initial potential from superposition of free atoms

     starting charge  383.99913, renormalised to  400.00000

     negative rho (up, down):  1.554E-02 0.000E+00

     %%%%%%%%%%%%%%%%%%%%%%%%%%%%%%%%%%%%%%%%%%%%%%%%%%%%%%%%%%%%%%%%%%%%%%%%
     %                                                                      %
     % You are using vdW-DF, which was implemented by the Thonhauser group. %
     % Please cite the following two papers that made this development      %
     % possible and the two reviews that describe the various versions:     %
     %                                                                      %
     %   T. Thonhauser et al., PRL 115, 136402 (2015).                      %
     %   T. Thonhauser et al., PRB 76, 125112 (2007).                       %
     %   K. Berland et al., Rep. Prog. Phys. 78, 066501 (2015).             %
     %   D.C. Langreth et al., J. Phys.: Condens. Matter 21, 084203 (2009). %
     %                                                                      %
     %                                                                      %
     % If you are calculating the stress with vdW-DF, please also cite:     %
     %                                                                      %
     %   R. Sabatini et al., J. Phys.: Condens. Matter 24, 424209 (2012).   %
     %                                                                      %
     %%%%%%%%%%%%%%%%%%%%%%%%%%%%%%%%%%%%%%%%%%%%%%%%%%%%%%%%%%%%%%%%%%%%%%%%

     Adding external electric field

     Computed dipole along edir(3) :
        Dipole              -12.0858 Ry au,        -30.7189 Debye
        Dipole field         -0.0228 Ry au,

        Potential amp.        2.1142 Ry
        Total length         46.3494 bohr

     Starting wfcs are  303 atomic wfcs
  @ DRIVER MODE: Message from server: STATUS
  @ DRIVER MODE: Message from server: POSDATA
  @ DRIVER MODE: Reading and sharing cell
  @ DRIVER MODE: Reading and sharing positions
  @ DRIVER MODE: Received positions

     Self-consistent Calculation

     iteration #  1     ecut=    29.40 Ry     beta= 0.05
     Davidson diagonalization with overlap
     c_bands:  2 eigenvalues not converged
     c_bands:  2 eigenvalues not converged
     c_bands:  3 eigenvalues not converged
     c_bands:  4 eigenvalues not converged
     c_bands:  2 eigenvalues not converged
     c_bands:  1 eigenvalues not converged
     c_bands:  4 eigenvalues not converged
     c_bands:  4 eigenvalues not converged
     c_bands:  5 eigenvalues not converged
     ethr =  1.00E-05,  avg # of iterations = 22.0

[...]

     total energy              =   -2384.85229923 Ry
     estimated scf accuracy    <    6450.05930982 Ry

     iteration #  2     ecut=    29.40 Ry     beta= 0.05
     Davidson diagonalization with overlap
     ethr =  1.00E-02,  avg # of iterations = 25.5

[...]

     iteration # 64     ecut=    29.40 Ry     beta= 0.05
     Davidson diagonalization with overlap
     c_bands:  1 eigenvalues not converged
     ethr =  6.51E-10,  avg # of iterations = 10.1

[...]

     total energy              =   -2956.45481086 Ry
     estimated scf accuracy    <       0.00000008 Ry

     iteration # 71     ecut=    29.40 Ry     beta= 0.05
     Davidson diagonalization with overlap
     ethr =  2.06E-11,  avg # of iterations =  9.2

     negative rho (up, down):  1.589E-02 0.000E+00

     Adding external electric field

     Computed dipole along edir(3) :
        Dipole                1.4055 Ry au,          3.5725 Debye
        Dipole field          0.0027 Ry au,

        Potential amp.       -0.2459 Ry
        Total length         46.3494 bohr

     End of self-consistent calculation

          k = 0.0000 0.0000 0.0000 ( 18029 PWs)   bands (ev):

   -55.2155 -55.1783 -55.1728 -55.1469 -55.1387 -55.1183 -55.0968 -55.0619
   -55.0416 -55.0068 -55.0035 -54.9942 -54.9698 -54.9344 -54.2033 -54.1692
   -31.7790 -31.6892 -31.6654 -31.5856 -31.5304 -31.5252 -31.5167 -31.5090
   -31.4618 -31.4383 -31.4266 -31.4176 -31.4132 -31.4113 -31.3875 -31.3843
   -31.3620 -31.3608 -31.3534 -31.3381 -31.3254 -31.3176 -31.3022 -31.2930
   -31.2867 -31.2742 -31.2719 -31.2429 -31.2300 -31.2277 -31.2223 -31.2022
   -31.1995 -31.1918 -31.1877 -31.1706 -31.1548 -31.1403 -31.1327 -31.1315
   -31.1146 -31.1123 -30.6128 -30.5183 -30.4963 -30.4291 -30.3423 -30.2315
   -19.2335 -16.1562 -16.0246 -15.7759 -15.6341 -15.5396 -15.4195 -15.3040
   -15.2394 -15.1255 -15.0673 -14.9320 -14.9166 -14.9048 -14.8802 -14.8468
   -14.8082 -14.7607 -14.7592 -14.7354 -14.7151 -14.7063 -14.6645 -14.6572
   -14.6178 -14.5962 -14.5952 -14.4598 -14.3786 -14.3083 -14.1225 -12.7060
   -12.5886 -10.2899  -7.0275  -6.2717  -4.8289  -3.9615  -3.4024  -3.3419
    -3.2375  -3.1491  -3.1254  -3.1133  -2.9762  -2.8841  -2.7469  -2.6663
    -2.6344  -2.4980  -2.4245  -2.4134  -2.3806  -2.2655  -2.2132  -2.1868
    -2.1540  -2.0824  -2.0342  -2.0237  -2.0059  -1.9749  -1.9598  -1.9255
    -1.8717  -1.7869  -1.7556  -1.6527  -1.6150  -1.5854  -1.5753  -1.5507
    -1.5340  -1.5092  -1.5028  -1.4422  -1.4388  -1.4089  -1.3628  -1.2480
    -1.0854  -1.0223  -0.9506  -0.8582  -0.8099  -0.7963  -0.7277  -0.7172
    -0.7030  -0.5994  -0.5678  -0.5541  -0.4569  -0.4255  -0.3867  -0.3143
    -0.2428  -0.2149  -0.2019  -0.0864  -0.0214  -0.0034   0.0163   0.0234
     0.1132   0.1863   0.2339   0.2855   0.3264   0.3336   0.3995   0.4315
     0.4993   0.5513   0.5692   0.6563   0.7014   0.7138   0.7202   0.7534
     0.7653   0.8271   0.8634   0.8877   0.9744   1.0895   1.2421   1.3834
     1.3911   1.7241   1.7250   1.8193   2.0031   2.3957   2.4440   3.8775
     3.9501   4.0093   4.0228   4.0282   4.1134   4.3598   4.3820   4.3877
     4.3978   4.4263

[...]

          k = 0.0380-0.0419 0.0000 ( 17876 PWs)   bands (ev):

[...]

          k =-0.0760-0.0000 0.0000 ( 17886 PWs)   bands (ev):

[...]

          k =-0.0760-0.0839 0.0000 ( 17948 PWs)   bands (ev):

   -55.2019 -55.1916 -55.1557 -55.1556 -55.1452 -55.1161 -55.0826 -55.0761
   -55.0270 -55.0209 -54.9964 -54.9870 -54.9864 -54.9358 -54.1864 -54.1859
   -31.6078 -31.5878 -31.5789 -31.4805 -31.4804 -31.4765 -31.4690 -31.4471
   -31.4470 -31.4273 -31.4195 -31.4128 -31.4054 -31.3908 -31.3734 -31.3586
   -31.3558 -31.3535 -31.3515 -31.3494 -31.3420 -31.3395 -31.3224 -31.3164
   -31.2958 -31.2955 -31.2768 -31.2755 -31.2754 -31.2732 -31.2684 -31.2602
   -31.2526 -31.2399 -31.2340 -31.2196 -31.2164 -31.1986 -31.1719 -31.1676
   -31.1666 -31.1459 -30.5091 -30.5087 -30.4255 -30.4251 -30.3858 -30.3855
   -19.2326 -16.1104 -15.5980 -15.4841 -15.3582 -15.2485 -15.2277 -15.1812
   -15.1324 -15.0821 -15.0302 -15.0016 -14.9808 -14.9720 -14.9291 -14.9188
   -14.8996 -14.8340 -14.8185 -14.8074 -14.7835 -14.7363 -14.7279 -14.7203
   -14.7163 -14.6705 -14.6664 -14.6183 -14.5751 -14.5713 -14.3911 -12.6901
   -12.6900 -10.2916  -7.0538  -6.2050  -4.8296  -3.9755  -3.2429  -2.9810
    -2.7495  -2.6977  -2.6092  -2.4657  -2.4218  -2.3770  -2.3458  -2.2843
    -2.2336  -2.2187  -2.2068  -2.1307  -2.1036  -2.0957  -2.0628  -2.0511
    -2.0409  -2.0028  -1.9821  -1.9568  -1.9483  -1.9376  -1.9349  -1.9252
    -1.8680  -1.8551  -1.8442  -1.8404  -1.7817  -1.7705  -1.7555  -1.7413
    -1.5968  -1.5786  -1.4278  -1.4243  -1.4020  -1.3497  -1.3380  -1.2975
    -1.2541  -1.2448  -1.2180  -0.9738  -0.9648  -0.9615  -0.9306  -0.8962
    -0.8584  -0.7967  -0.7677  -0.6978  -0.6896  -0.5736  -0.5574  -0.4424
    -0.4336  -0.4210  -0.3389  -0.2893  -0.2410  -0.2021  -0.1850  -0.1744
    -0.1577  -0.1211  -0.1188  -0.0215   0.0146   0.0454   0.0588   0.0983
     0.2750   0.3038   0.3195   0.4635   0.4711   0.6306   0.6815   0.7097
     0.8001   0.8603   0.8947   0.9386   1.0745   1.0877   1.1057   1.1599
     1.1831   1.2323   1.2454   2.1754   2.1768   2.2639   2.2640   4.0226
     4.1319   4.1410   4.1988   4.3100   4.3190   4.3925   4.4236   4.4612
     4.4649   4.5290

     the Fermi energy is     3.9397 ev

!    total energy              =   -2956.45482737 Ry
     estimated scf accuracy    <       0.00000005 Ry
     smearing contrib. (-TS)   =      -0.03685517 Ry
     internal energy E=F+TS    =   -2956.41797220 Ry

     The total energy is F=E-TS. E is the sum of the following terms:
     one-electron contribution =  -23693.64796479 Ry
     hartree contribution      =   11942.32044047 Ry
     xc contribution           =    -490.61747240 Ry
     ewald contribution        =    9285.52329651 Ry
     electric field correction =       0.00372802 Ry

     convergence has been achieved in  71 iterations

     Forces acting on atoms (cartesian axes, Ry/au):

     atom    1 type  1   force =    -0.00000461   -0.00026750    0.09334694
     atom    2 type  1   force =    -0.00006937   -0.00035198   -0.17814291
     atom    3 type  2   force =     0.00004506   -0.00030551   -0.02032784
     atom    4 type  2   force =    -0.00003445   -0.00185041    0.05914207
     atom    5 type  2   force =    -0.01020924   -0.00060687    0.00752984
     atom    6 type  2   force =     0.01173696    0.00022250    0.00685932
     atom    7 type  1   force =    -0.00030766    0.00187377   -0.01236078
     atom    8 type  1   force =     0.00016307    0.00082600   -0.00449617
     atom    9 type  2   force =     0.00038567   -0.00015655   -0.00080004
     atom   10 type  2   force =    -0.00141683    0.00414769   -0.00108363
     atom   11 type  2   force =    -0.00087695   -0.00030324    0.00019423
     atom   12 type  2   force =     0.00088731   -0.00005710    0.00005434
     atom   13 type  1   force =    -0.00012772   -0.00022093    0.00010591
     atom   14 type  1   force =    -0.00004662   -0.00010326    0.00003706
     atom   15 type  2   force =    -0.00066491   -0.00003129   -0.00006012
     atom   16 type  2   force =    -0.00010875    0.00022641   -0.00040946
     atom   17 type  2   force =     0.00029086   -0.00070965   -0.00001753
     atom   18 type  2   force =     0.00079726   -0.00060722   -0.00025132
     atom   19 type  1   force =    -0.00077530    0.00013597    0.00141085
     atom   20 type  1   force =     0.00077399   -0.00076574    0.00041603
     atom   21 type  2   force =     0.00002127   -0.00010868    0.10394402
     atom   22 type  2   force =     0.00008189   -0.00062695    0.00029437
     atom   23 type  2   force =    -0.07039887   -0.00020905   -0.02691495
     atom   24 type  2   force =     0.07023485    0.00023106   -0.02696722
     atom   25 type  1   force =    -0.00005036   -0.00020946    0.09286354
     atom   26 type  1   force =    -0.00020253   -0.00053242   -0.17840769
     atom   27 type  2   force =     0.00007160   -0.00013946   -0.01930417
     atom   28 type  2   force =     0.00005542   -0.00157285    0.05815105
     atom   29 type  2   force =    -0.01091286   -0.00006988    0.00845032
     atom   30 type  2   force =     0.01231772    0.00011943    0.00773598
     atom   31 type  1   force =    -0.00029339    0.00668763   -0.01502888
     atom   32 type  1   force =     0.00011132   -0.00072573   -0.00469698
     atom   33 type  2   force =    -0.00022031    0.00035174   -0.00051603
     atom   34 type  2   force =    -0.00111146   -0.00023212   -0.00040035
     atom   35 type  2   force =    -0.00020273   -0.00012083   -0.00015632
     atom   36 type  2   force =     0.00028157   -0.00036479   -0.00025535
     atom   37 type  1   force =     0.00023695   -0.00018276    0.00021675
     atom   38 type  1   force =    -0.00011296    0.00068337    0.00064470
     atom   39 type  2   force =     0.00013392   -0.00110816    0.00101695
     atom   40 type  2   force =     0.00026311    0.00100039   -0.00061098
     atom   41 type  2   force =    -0.00021241    0.00019189   -0.00028087
     atom   42 type  2   force =     0.00118191    0.00016115   -0.00045674
     atom   43 type  1   force =    -0.00112998    0.00004945    0.00034511
     atom   44 type  1   force =     0.00034049   -0.00116820    0.00104971
     atom   45 type  2   force =     0.00001521   -0.00011546    0.10389969
     atom   46 type  2   force =    -0.07036266   -0.00012527   -0.02687955
     atom   47 type  2   force =     0.07021837    0.00028729   -0.02694790
     atom   48 type  3   force =     0.00066844    0.00010883   -0.00055367
     atom   49 type  4   force =    -0.00451596    0.00645697    0.00244838
     atom   50 type  5   force =    -0.00083715   -0.00010395    0.00050716
     atom   51 type  5   force =     0.00026754   -0.00087814   -0.00077550
     atom   52 type  5   force =     0.00492109   -0.00687828   -0.00311684
     atom   53 type  5   force =     0.00003994    0.00009565   -0.00063320
     atom   54 type  5   force =     0.00007173   -0.00019513   -0.00068264
     atom   55 type  2   force =     0.00033537   -0.00083686    0.00061901
     atom   56 type  5   force =    -0.00074919   -0.00016262    0.00015576
     atom   57 type  5   force =    -0.00099465   -0.00085292    0.00009653

     Total force =     0.366418     Total SCF correction =     0.000735
  @ DRIVER MODE: Message from server: STATUS
  @ DRIVER MODE: Message from server: GETFORCE
  @ DRIVER MODE: Returning v,forces,stress,ensemble

     Writing output data file ./calc.save/
  @ DRIVER MODE: Message from server: EXIT
  @ DRIVE MODE: Exiting

     General routines

     Parallel routines

   This run was terminated on:   1:14: 2  23Sep2021

   JOB DONE.