     Program PWSCF v.6.7GPU starts on  2Aug2021 at 16:52:56

     R & G space division:  proc/nbgrp/npool/nimage =      16
     Reading input from /storage/home/hcoda1/3/ntian30/research/carbon/02Aug_vib_paired/ads_slab/CH3NH_b/out_0015/pw.inp
Warning: card &CELL ignored
Warning: card   CELL_DYNAMICS='IPI', ignored
Warning: card / ignored

     Current dimensions of program PWSCF are:
     Max number of different atomic species (ntypx) = 10
     Max number of k-points (npk) =  40000
     Max angular momentum in pseudopotentials (lmaxx) =  3
     Presently no symmetry can be used with electric field

     Message from routine cell_base_init:
     DEPRECATED: use true lattice parameter, not A to a.u. conversion factor

     IMPORTANT: XC functional enforced from input :
     Exchange-correlation= BEEF-VDW
                           (   1   4  43  14   2   0   0)
     Any further DFT definition will be discarded
     Please, verify this is what you really want

  @ DRIVER MODE: Connecting to
 qe_1139763_2482541.sched-torque.pace.gatech.edu0dvac9_l_scratch
  using UNIX socket
  @ DRIVER MODE: Message from server: STATUS
  @ DRIVER MODE: Message from server: INIT
  @ DRIVER MODE: Receiving replica           0          -1
  @ DRIVER MODE: Receiving encoded integer          25
  @ DRIVER MODE:  SCF:  T  FORCE:  T  STRESS:  F  VC:  F  ENSEMBLE:  F
  @ DRIVER MODE:  SCF:  T  FORCE:  T  STRESS:  F  VC:  F  ENSEMBLE:  F

     Using Slab Decomposition

     bravais-lattice index     =            0
     lattice parameter (alat)  =       1.8897  a.u.
     unit-cell volume          =    6658.9804 (a.u.)^3
     number of atoms/cell      =           53
     number of atomic types    =            5
     number of electrons       =       391.00
     number of Kohn-Sham states=          205
     kinetic-energy cutoff     =      29.3995  Ry
     charge density cutoff     =     293.9946  Ry
     scf convergence threshold =      7.3E-08
     mixing beta               =       0.0500
     number of iterations used =            8  plain     mixing
     Exchange-correlation= BEEF-VDW
                           (   1   4  43  14   2   0   0)

     celldm(1)=   1.889726  celldm(2)=   0.000000  celldm(3)=   0.000000
     celldm(4)=   0.000000  celldm(5)=   0.000000  celldm(6)=   0.000000

     crystal axes: (cart. coord. in units of alat)
               a(1) = (   6.579727   0.000000   0.000000 )
               a(2) = (  -0.000775   5.961596   0.000000 )
               a(3) = (   0.000000   0.000000  25.155947 )

     reciprocal axes: (cart. coord. in units 2 pi/alat)
               b(1) = (  0.151982  0.000020  0.000000 )
               b(2) = (  0.000000  0.167740  0.000000 )
               b(3) = (  0.000000  0.000000  0.039752 )

     PseudoPot. # 1 for Ti read from file:
     /storage/coda1/p-amedford6/0/shared/rich_project_chbe-medford/medford-share/data/pseudos_module/espresso/nninc/pbe/van/Ti.UPF
     MD5 check sum: 8e4df49b7f0d34bbd5052bf3f5ea0213
     Pseudo is Ultrasoft, Zval = 12.0
     Generated by new atomic code, or converted to UPF format
     Using radial grid of  851 points,  6 beta functions with:
                l(1) =   0
                l(2) =   0
                l(3) =   1
                l(4) =   1
                l(5) =   2
                l(6) =   2
     Q(r) pseudized with  8 coefficients,  rinner =    1.000   1.000   1.000
                                                       1.000   1.000

     PseudoPot. # 2 for O  read from file:
     /storage/coda1/p-amedford6/0/shared/rich_project_chbe-medford/medford-share/data/pseudos_module/espresso/nninc/pbe/van/O.UPF
     MD5 check sum: 78c19812648e8988a0fe644b0f25305e
     Pseudo is Ultrasoft, Zval =  6.0
     Generated by new atomic code, or converted to UPF format
     Using radial grid of  737 points,  4 beta functions with:
                l(1) =   0
                l(2) =   0
                l(3) =   1
                l(4) =   1
     Q(r) pseudized with  8 coefficients,  rinner =    0.800   0.800   0.800

     PseudoPot. # 3 for H  read from file:
     /storage/coda1/p-amedford6/0/shared/rich_project_chbe-medford/medford-share/data/pseudos_module/espresso/nninc/pbe/van/H.UPF
     MD5 check sum: b5ee9d7bfd3a09ee7748110bda690ff7
     Pseudo is Ultrasoft, Zval =  1.0
     Generated by new atomic code, or converted to UPF format
     Using radial grid of  615 points,  1 beta functions with:
                l(1) =   0
     Q(r) pseudized with  8 coefficients,  rinner =    0.800

     PseudoPot. # 4 for N  read from file:
     /storage/coda1/p-amedford6/0/shared/rich_project_chbe-medford/medford-share/data/pseudos_module/espresso/nninc/pbe/van/N.UPF
     MD5 check sum: 90d10febe142ad51ac9d5be1deb811c4
     Pseudo is Ultrasoft, Zval =  5.0
     Generated by new atomic code, or converted to UPF format
     Using radial grid of  729 points,  4 beta functions with:
                l(1) =   0
                l(2) =   0
                l(3) =   1
                l(4) =   1
     Q(r) pseudized with  8 coefficients,  rinner =    0.800   0.800   0.800

     PseudoPot. # 5 for C  read from file:
     /storage/coda1/p-amedford6/0/shared/rich_project_chbe-medford/medford-share/data/pseudos_module/espresso/nninc/pbe/van/C.UPF
     MD5 check sum: 1a69bf6b8db32088f5b2163dbdb77a27
     Pseudo is Ultrasoft, Zval =  4.0
     Generated by new atomic code, or converted to UPF format
     Using radial grid of  721 points,  4 beta functions with:
                l(1) =   0
                l(2) =   0
                l(3) =   1
                l(4) =   1
     Q(r) pseudized with  8 coefficients,  rinner =    0.800   0.800   0.800

     atomic species   valence    mass     pseudopotential
        Ti1           12.00    47.86700     Ti( 1.00)
        O1             6.00    15.99900     O ( 1.00)
        H1             1.00     1.00800     H ( 1.00)
        N1             5.00    14.00700     N ( 1.00)
        C1             4.00    12.01100     C ( 1.00)

     No symmetry found

   Cartesian axes

     site n.     atom                  positions (alat units)
         1           Ti1 tau(   1) = (   0.0004258   2.9801865   6.0000000  )
         2           Ti1 tau(   2) = (   3.2906075   1.4906267   6.0002472  )
         3           O1  tau(   3) = (   0.0006271   0.0005054   7.9858123  )
         4           O1  tau(   4) = (   3.2906025   0.0005020   7.3038282  )
         5           O1  tau(   5) = (   4.5942328   1.4918067   9.2879030  )
         6           O1  tau(   6) = (   1.9868534   1.4903216   9.2879459  )
         7           Ti1 tau(   7) = (   3.2907910   2.8959150   9.1758416  )
         8           Ti1 tau(   8) = (   0.0015273   1.4827037   9.2680791  )
         9           O1  tau(   9) = (   3.2906183   5.9580730  11.3246990  )
        10           O1  tau(  10) = (   0.0116148   5.9584955  10.6183126  )
        11           O1  tau(  11) = (   1.3160896   1.4863360  12.6200149  )
        12           O1  tau(  12) = (   5.2947061   1.4800608  12.6053981  )
        13           Ti1 tau(  13) = (   6.5224157   2.9421717  12.6196007  )
        14           Ti1 tau(  14) = (   3.2076970   1.4879367  12.4696142  )
        15           O1  tau(  15) = (   6.5517659   0.0158556  14.6493665  )
        16           O1  tau(  16) = (   3.3109316   0.0069331  13.9179417  )
        17           O1  tau(  17) = (   4.5083530   1.5297238  16.0872293  )
        18           O1  tau(  18) = (   2.0274073   1.5273405  16.0409094  )
        19           Ti1 tau(  19) = (   3.2920608   3.0081397  15.6838061  )
        20           Ti1 tau(  20) = (   0.0536170   1.5416865  15.8648894  )
        21           O1  tau(  21) = (   3.2904802   0.0005063   4.7018136  )
        22           O1  tau(  22) = (   0.0122827   0.0301012  17.2134340  )
        23           O1  tau(  23) = (   1.3043587   1.4918075   6.0039043  )
        24           O1  tau(  24) = (   5.2767064   1.4903225   6.0039473  )
        25           Ti1 tau(  25) = (   0.0000382   5.9609847   6.0000000  )
        26           Ti1 tau(  26) = (   3.2902200   4.4714249   6.0002472  )
        27           O1  tau(  27) = (   0.0002396   2.9813036   7.9858123  )
        28           O1  tau(  28) = (   3.2902150   2.9813002   7.3038282  )
        29           O1  tau(  29) = (   4.5938453   4.4726049   9.2879030  )
        30           O1  tau(  30) = (   1.9864658   4.4711199   9.2879459  )
        31           Ti1 tau(  31) = (   3.2891106   5.8743827   9.1763621  )
        32           Ti1 tau(  32) = (   0.0006254   4.4649316   9.2693709  )
        33           O1  tau(  33) = (   3.2866862   2.9837957  11.3234553  )
        34           O1  tau(  34) = (   0.0092240   2.9805883  10.6323155  )
        35           O1  tau(  35) = (   1.3095649   4.4762946  12.6335636  )
        36           O1  tau(  36) = (   5.2963019   4.4650584  12.6194355  )
        37           Ti1 tau(  37) = (   6.5192018   5.9199268  12.5733442  )
        38           Ti1 tau(  38) = (   3.2055211   4.4685508  12.4747853  )
        39           O1  tau(  39) = (   6.5624772   2.9349094  14.6472044  )
        40           O1  tau(  40) = (   3.3065106   2.9879112  13.8942307  )
        41           O1  tau(  41) = (   4.5199725   4.4841037  16.0899424  )
        42           O1  tau(  42) = (   2.0389375   4.4882992  16.0664246  )
        43           Ti1 tau(  43) = (   3.3279474   0.0221627  15.7114356  )
        44           Ti1 tau(  44) = (   0.0314192   4.6578676  16.1055029  )
        45           O1  tau(  45) = (   3.2900926   2.9813045   4.7018136  )
        46           O1  tau(  46) = (   1.3039711   4.4726057   6.0039043  )
        47           O1  tau(  47) = (   5.2763189   4.4711207   6.0039473  )
        48           H1  tau(  48) = (   5.5751926   2.9245997  17.7795037  )
        49           N1  tau(  49) = (   6.5345126   2.9709300  17.4463781  )
        50           C1  tau(  50) = (   0.8205834   2.9092471  18.6315588  )
        51           H1  tau(  51) = (   0.6379014   3.7726647  19.2931901  )
        52           H1  tau(  52) = (   0.6616828   1.9903841  19.1881566  )
        53           H1  tau(  53) = (   1.8691752   2.9530840  18.3388921  )

     number of k points=    10  Fermi-Dirac smearing, width (Ry)=  0.0073
                       cart. coord. in units 2pi/alat
        k(    1) = (   0.0000000   0.0000000   0.0000000), wk =   0.1250000
        k(    2) = (   0.0000000   0.0419351   0.0000000), wk =   0.2500000
        k(    3) = (   0.0000000  -0.0838702   0.0000000), wk =   0.1250000
        k(    4) = (   0.0379955   0.0000049   0.0000000), wk =   0.2500000
        k(    5) = (   0.0379955   0.0419400   0.0000000), wk =   0.2500000
        k(    6) = (   0.0379955  -0.0838652   0.0000000), wk =   0.2500000
        k(    7) = (   0.0379955  -0.0419301   0.0000000), wk =   0.2500000
        k(    8) = (  -0.0759910  -0.0000099   0.0000000), wk =   0.1250000
        k(    9) = (  -0.0759910   0.0419252   0.0000000), wk =   0.2500000
        k(   10) = (  -0.0759910  -0.0838800   0.0000000), wk =   0.1250000

     Initial potential from superposition of free atoms

     starting charge  374.99916, renormalised to  391.00000

     negative rho (up, down):  1.779E-02 0.000E+00

     %%%%%%%%%%%%%%%%%%%%%%%%%%%%%%%%%%%%%%%%%%%%%%%%%%%%%%%%%%%%%%%%%%%%%%%%
     %                                                                      %
     % You are using vdW-DF, which was implemented by the Thonhauser group. %
     % Please cite the following two papers that made this development      %
     % possible and the two reviews that describe the various versions:     %
     %                                                                      %
     %   T. Thonhauser et al., PRL 115, 136402 (2015).                      %
     %   T. Thonhauser et al., PRB 76, 125112 (2007).                       %
     %   K. Berland et al., Rep. Prog. Phys. 78, 066501 (2015).             %
     %   D.C. Langreth et al., J. Phys.: Condens. Matter 21, 084203 (2009). %
     %                                                                      %
     %                                                                      %
     % If you are calculating the stress with vdW-DF, please also cite:     %
     %                                                                      %
     %   R. Sabatini et al., J. Phys.: Condens. Matter 24, 424209 (2012).   %
     %                                                                      %
     %%%%%%%%%%%%%%%%%%%%%%%%%%%%%%%%%%%%%%%%%%%%%%%%%%%%%%%%%%%%%%%%%%%%%%%%

     Adding external electric field

     Computed dipole along edir(3) :
        Dipole               -5.8162 Ry au,        -14.7834 Debye
        Dipole field         -0.0110 Ry au,

        Potential amp.        1.0175 Ry
        Total length         46.3494 bohr

     Starting wfcs are  296 atomic wfcs
  @ DRIVER MODE: Message from server: STATUS
  @ DRIVER MODE: Message from server: POSDATA
  @ DRIVER MODE: Reading and sharing cell
  @ DRIVER MODE: Reading and sharing positions
  @ DRIVER MODE: Received positions

     Self-consistent Calculation

     iteration #  1     ecut=    29.40 Ry     beta= 0.05
     Davidson diagonalization with overlap
     c_bands:  3 eigenvalues not converged
     c_bands:  1 eigenvalues not converged
     c_bands:  1 eigenvalues not converged
     c_bands:  3 eigenvalues not converged
     c_bands:  4 eigenvalues not converged
     c_bands:  2 eigenvalues not converged
     c_bands:  1 eigenvalues not converged
     c_bands:  1 eigenvalues not converged
     c_bands:  2 eigenvalues not converged
     ethr =  1.00E-05,  avg # of iterations = 19.5

[...]

     total energy              =   -2770.79007267 Ry
     estimated scf accuracy    <    1640.15951572 Ry

     iteration #  2     ecut=    29.40 Ry     beta= 0.05
     Davidson diagonalization with overlap
     ethr =  1.00E-02,  avg # of iterations = 18.8

[...]

     iteration # 59     ecut=    29.40 Ry     beta= 0.05
     Davidson diagonalization with overlap
     c_bands:  3 eigenvalues not converged
     ethr =  2.30E-11,  avg # of iterations = 12.8

[...]

     total energy              =   -2920.42385948 Ry
     estimated scf accuracy    <       0.00000009 Ry

     iteration # 60     ecut=    29.40 Ry     beta= 0.05
     Davidson diagonalization with overlap
     ethr =  2.18E-11,  avg # of iterations =  2.0

     negative rho (up, down):  1.813E-02 0.000E+00

     Adding external electric field

     Computed dipole along edir(3) :
        Dipole                0.6849 Ry au,          1.7408 Debye
        Dipole field          0.0013 Ry au,

        Potential amp.       -0.1198 Ry
        Total length         46.3494 bohr

     End of self-consistent calculation

          k = 0.0000 0.0000 0.0000 ( 18029 PWs)   bands (ev):

   -55.9956 -55.9887 -55.9615 -55.9526 -55.9033 -55.8388 -55.8388 -55.8044
   -55.7998 -55.7659 -55.7606 -55.7270 -55.5385 -55.2742 -54.9682 -54.9342
   -32.5477 -32.4768 -32.3507 -32.3406 -32.3162 -32.2991 -32.2888 -32.2517
   -32.2369 -32.2366 -32.2125 -32.2051 -32.1715 -32.1480 -32.1407 -32.1347
   -32.1312 -32.0988 -32.0785 -32.0530 -32.0493 -32.0417 -32.0263 -31.9994
   -31.9923 -31.9915 -31.9862 -31.9783 -31.9638 -31.9581 -31.9546 -31.9442
   -31.9369 -31.9296 -31.9138 -31.9072 -31.8732 -31.8079 -31.7099 -31.5484
   -31.5440 -31.4690 -31.3752 -31.2873 -31.2649 -31.1919 -31.1054 -30.9944
   -16.7566 -16.4731 -16.2936 -16.1505 -16.1186 -16.0331 -15.8321 -15.7052
   -15.6933 -15.5896 -15.5566 -15.5298 -15.5234 -15.4971 -15.4921 -15.4312
   -15.4293 -15.4154 -15.4061 -15.3495 -15.3250 -15.2715 -15.1920 -15.1590
   -15.1537 -15.1257 -15.0442 -15.0390 -14.5858 -14.1736 -13.4709 -13.3546
    -8.9298  -4.3613  -4.1277  -3.9533  -3.9137  -3.8981  -3.8486  -3.5942
    -3.5794  -3.3308  -3.2260  -3.1939  -3.1786  -3.1697  -3.1497  -3.1386
    -2.8924  -2.8241  -2.8103  -2.7890  -2.7806  -2.7746  -2.7627  -2.7615
    -2.7222  -2.6587  -2.5343  -2.4984  -2.4208  -2.3835  -2.3526  -2.3051
    -2.2616  -2.2546  -2.2436  -2.2247  -2.2116  -2.1880  -2.1717  -2.0379
    -1.9723  -1.8371  -1.8020  -1.7832  -1.5965  -1.5368  -1.4719  -1.4343
    -1.4212  -1.4140  -1.3821  -1.3007  -1.2088  -1.1529  -1.1422  -1.0864
    -1.0090  -0.9976  -0.8897  -0.8842  -0.8572  -0.7664  -0.7566  -0.7452
    -0.7264  -0.6573  -0.5598  -0.4806  -0.4355  -0.4053  -0.3751  -0.3054
    -0.2753  -0.1728  -0.1571  -0.1109  -0.1041  -0.0625  -0.0171  -0.0079
     0.0009   0.0088   0.0340   0.1766   0.2874   0.3431   0.3817   0.3878
     0.5431   0.5705   0.6676   0.7561   0.9806   1.0535   1.1468   1.2464
     1.3234   1.6245   1.6699   3.1473   3.2261   3.2797   3.2883   3.3909
     3.3965   3.5972   3.6064   3.6193   3.6868

[...]

          k = 0.0380-0.0419 0.0000 ( 17876 PWs)   bands (ev):

[...]

          k =-0.0760-0.0000 0.0000 ( 17886 PWs)   bands (ev):

[...]

          k =-0.0760-0.0839 0.0000 ( 17948 PWs)   bands (ev):

   -55.9789 -55.9781 -55.9718 -55.9693 -55.8983 -55.8437 -55.8223 -55.8209
   -55.7835 -55.7817 -55.7444 -55.7434 -55.5375 -55.2751 -54.9512 -54.9511
   -32.3526 -32.3491 -32.2924 -32.2918 -32.2821 -32.2745 -32.2737 -32.2611
   -32.1993 -32.1982 -32.1932 -32.1889 -32.1655 -32.1343 -32.1195 -32.1154
   -32.1022 -32.1000 -32.0985 -32.0978 -32.0948 -32.0841 -32.0817 -32.0497
   -32.0421 -32.0409 -32.0112 -32.0002 -31.9807 -31.9803 -31.9769 -31.9760
   -31.9593 -31.9586 -31.9566 -31.9538 -31.8776 -31.8103 -31.7053 -31.6132
   -31.5459 -31.4936 -31.2776 -31.2776 -31.1880 -31.1879 -31.1487 -31.1487
   -16.2103 -16.1752 -15.9384 -15.9271 -15.9205 -15.9047 -15.7589 -15.7120
   -15.7004 -15.6933 -15.6704 -15.6476 -15.5896 -15.5610 -15.5321 -15.5234
   -15.5172 -15.5153 -15.4536 -15.4484 -15.4252 -15.4183 -15.3047 -15.3010
   -15.2914 -15.2153 -15.1610 -15.0212 -14.7476 -14.1970 -13.4565 -13.4564
    -8.9347  -4.3729  -3.5044  -3.4643  -3.2809  -3.2459  -3.1792  -3.1626
    -3.1381  -3.0697  -2.9057  -2.8889  -2.8777  -2.8626  -2.8203  -2.8141
    -2.8035  -2.7908  -2.7842  -2.7653  -2.7321  -2.6988  -2.6608  -2.6534
    -2.6449  -2.6197  -2.6086  -2.5867  -2.5753  -2.5444  -2.5354  -2.5176
    -2.4880  -2.2262  -2.2066  -2.1956  -2.1248  -2.1181  -2.0846  -2.0664
    -2.0566  -2.0435  -1.9864  -1.8827  -1.7259  -1.6942  -1.6824  -1.6695
    -1.5861  -1.5767  -1.4239  -1.4030  -1.3817  -1.3440  -1.2906  -1.2680
    -1.2276  -1.1692  -1.1523  -1.0877  -1.0709  -1.0119  -0.9565  -0.9543
    -0.9338  -0.8578  -0.7759  -0.7610  -0.7475  -0.7081  -0.6987  -0.6116
    -0.5881  -0.4947  -0.4806  -0.4226  -0.3936  -0.2954  -0.1414  -0.0116
     0.0419   0.0678   0.1254   0.2238   0.2673   0.2805   0.3241   0.3303
     0.3919   0.4321   0.5454   0.5512   0.6260   0.7173   1.2594   1.4179
     1.4185   1.4896   1.4898   3.4101   3.4155   3.4626   3.4919   3.6473
     3.6520   3.6746   3.6757   3.7997   3.8168

     the Fermi energy is     3.1402 ev

!    total energy              =   -2920.42390523 Ry
     estimated scf accuracy    <       0.00000006 Ry
     smearing contrib. (-TS)   =      -0.02203252 Ry
     internal energy E=F+TS    =   -2920.40187271 Ry

     The total energy is F=E-TS. E is the sum of the following terms:
     one-electron contribution =  -24701.73489062 Ry
     hartree contribution      =   12435.46496683 Ry
     xc contribution           =    -480.87083812 Ry
     ewald contribution        =    9826.73800400 Ry
     electric field correction =       0.00088521 Ry

     convergence has been achieved in  60 iterations

     Forces acting on atoms (cartesian axes, Ry/au):

     atom    1 type  1   force =     0.00012723   -0.00026672    0.09687782
     atom    2 type  1   force =     0.00002503   -0.00054130   -0.17507100
     atom    3 type  2   force =     0.00013482   -0.00007525   -0.02543544
     atom    4 type  2   force =    -0.00000928   -0.00136573    0.05234327
     atom    5 type  2   force =    -0.01238349   -0.00013459    0.00302916
     atom    6 type  2   force =     0.01380809    0.00023012    0.00239067
     atom    7 type  1   force =     0.00057974    0.00033485   -0.01264350
     atom    8 type  1   force =     0.00045934    0.00596238    0.03110013
     atom    9 type  2   force =    -0.00033721    0.00024658    0.00042572
     atom   10 type  2   force =    -0.00269476    0.00069441   -0.01622968
     atom   11 type  2   force =    -0.00041299    0.00012220    0.00016079
     atom   12 type  2   force =     0.00013595    0.00013779    0.00019668
     atom   13 type  1   force =    -0.00012044    0.00024818    0.00021307
     atom   14 type  1   force =    -0.00003112   -0.00022145   -0.00018151
     atom   15 type  2   force =     0.00019513   -0.00005661    0.00035338
     atom   16 type  2   force =    -0.00007284    0.00026910    0.00019826
     atom   17 type  2   force =    -0.00014629   -0.00024988   -0.00029115
     atom   18 type  2   force =     0.00035735   -0.00013993    0.00016281
     atom   19 type  1   force =    -0.00003474    0.00010404   -0.00005130
     atom   20 type  1   force =    -0.00005445    0.00000095   -0.00059750
     atom   21 type  2   force =     0.00007290   -0.00005884    0.10308767
     atom   22 type  2   force =    -0.00011699   -0.00000664    0.00025860
     atom   23 type  2   force =    -0.07160577   -0.00016764   -0.02781549
     atom   24 type  2   force =     0.07152447    0.00031675   -0.02787281
     atom   25 type  1   force =     0.00011089   -0.00024330    0.09668439
     atom   26 type  1   force =     0.00011814   -0.00027500   -0.17524623
     atom   27 type  2   force =     0.00013216   -0.00023210   -0.02449821
     atom   28 type  2   force =     0.00002974   -0.00112774    0.05226712
     atom   29 type  2   force =    -0.01250523    0.00013878    0.00268743
     atom   30 type  2   force =     0.01381865    0.00068825    0.00202654
     atom   31 type  1   force =     0.00052052    0.00291369   -0.01340197
     atom   32 type  1   force =     0.00028542   -0.00822069    0.03148306
     atom   33 type  2   force =    -0.00005462   -0.00007069   -0.00008556
     atom   34 type  2   force =    -0.00184202    0.00056192   -0.02454479
     atom   35 type  2   force =    -0.00013972    0.00010398    0.00004147
     atom   36 type  2   force =    -0.00025556    0.00019329    0.00010754
     atom   37 type  1   force =    -0.00005036    0.00032403    0.00024850
     atom   38 type  1   force =    -0.00022860   -0.00005893   -0.00017575
     atom   39 type  2   force =     0.00005068    0.00021437   -0.00009228
     atom   40 type  2   force =    -0.00017281    0.00027499   -0.00017750
     atom   41 type  2   force =     0.00012389    0.00004173    0.00025750
     atom   42 type  2   force =    -0.00012218   -0.00003366    0.00043303
     atom   43 type  1   force =    -0.00021134   -0.00012339    0.00046757
     atom   44 type  1   force =     0.00037692   -0.00027399    0.00020125
     atom   45 type  2   force =     0.00005194   -0.00006877    0.10306585
     atom   46 type  2   force =    -0.07161367   -0.00008111   -0.02781203
     atom   47 type  2   force =     0.07154507    0.00034316   -0.02789067
     atom   48 type  3   force =    -0.00054491    0.00023211   -0.00002383
     atom   49 type  4   force =     0.00049946   -0.00264981   -0.00014261
     atom   50 type  5   force =     0.00172654    0.02057919   -0.00040869
     atom   51 type  3   force =     0.00078758   -0.00855650   -0.00428559
     atom   52 type  3   force =    -0.00111244   -0.00807711    0.00381385
     atom   53 type  3   force =    -0.00072385   -0.00189948    0.00039195

     Total force =     0.369161     Total SCF correction =     0.000735
  @ DRIVER MODE: Message from server: STATUS
  @ DRIVER MODE: Message from server: GETFORCE
  @ DRIVER MODE: Returning v,forces,stress,ensemble

     Writing output data file ./calc.save/
  @ DRIVER MODE: Message from server: EXIT
  @ DRIVE MODE: Exiting

     General routines

     Parallel routines

   This run was terminated on:  17: 5:22   2Aug2021

   JOB DONE.