     Program PWSCF v.6.7GPU starts on 12Oct2021 at 18:25:55

     R & G space division:  proc/nbgrp/npool/nimage =       8
     Reading input from /storage/home/hcoda1/3/ntian30/research/carbon/ACS_vib/ads_slab/N2H6/out_0024/pw.inp
Warning: card &CELL ignored
Warning: card   CELL_DYNAMICS='IPI', ignored
Warning: card / ignored

     Current dimensions of program PWSCF are:
     Max number of different atomic species (ntypx) = 10
     Max number of k-points (npk) =  40000
     Max angular momentum in pseudopotentials (lmaxx) =  3
     Presently no symmetry can be used with electric field

     Message from routine cell_base_init:
     DEPRECATED: use true lattice parameter, not A to a.u. conversion factor

     IMPORTANT: XC functional enforced from input :
     Exchange-correlation= BEEF-VDW
                           (   1   4  43  14   2   0   0)
     Any further DFT definition will be discarded
     Please, verify this is what you really want

  @ DRIVER MODE: Connecting to
 qe_1139763_3181315.sched-torque.pace.gatech.edupoyugleo_scratch
  using UNIX socket
  @ DRIVER MODE: Message from server: STATUS
  @ DRIVER MODE: Message from server: INIT
  @ DRIVER MODE: Receiving replica           0          -1
  @ DRIVER MODE: Receiving encoded integer          25
  @ DRIVER MODE:  SCF:  T  FORCE:  T  STRESS:  F  VC:  F  ENSEMBLE:  F
  @ DRIVER MODE:  SCF:  T  FORCE:  T  STRESS:  F  VC:  F  ENSEMBLE:  F

     Using Slab Decomposition

     bravais-lattice index     =            0
     lattice parameter (alat)  =       1.8897  a.u.
     unit-cell volume          =    6658.9804 (a.u.)^3
     number of atoms/cell      =           55
     number of atomic types    =            4
     number of electrons       =       394.00
     number of Kohn-Sham states=          207
     kinetic-energy cutoff     =      29.3995  Ry
     charge density cutoff     =     293.9946  Ry
     scf convergence threshold =      7.3E-08
     mixing beta               =       0.0500
     number of iterations used =            8  plain     mixing
     Exchange-correlation= BEEF-VDW
                           (   1   4  43  14   2   0   0)

     celldm(1)=   1.889726  celldm(2)=   0.000000  celldm(3)=   0.000000
     celldm(4)=   0.000000  celldm(5)=   0.000000  celldm(6)=   0.000000

     crystal axes: (cart. coord. in units of alat)
               a(1) = (   6.579727   0.000000   0.000000 )
               a(2) = (  -0.000775   5.961596   0.000000 )
               a(3) = (   0.000000   0.000000  25.155947 )

     reciprocal axes: (cart. coord. in units 2 pi/alat)
               b(1) = (  0.151982  0.000020  0.000000 )
               b(2) = (  0.000000  0.167740  0.000000 )
               b(3) = (  0.000000  0.000000  0.039752 )

     PseudoPot. # 1 for Ti read from file:
     /storage/coda1/p-amedford6/0/shared/rich_project_chbe-medford/medford-share/data/pseudos_module/espresso/nninc/pbe/van/Ti.UPF
     MD5 check sum: 8e4df49b7f0d34bbd5052bf3f5ea0213
     Pseudo is Ultrasoft, Zval = 12.0
     Generated by new atomic code, or converted to UPF format
     Using radial grid of  851 points,  6 beta functions with:
                l(1) =   0
                l(2) =   0
                l(3) =   1
                l(4) =   1
                l(5) =   2
                l(6) =   2
     Q(r) pseudized with  8 coefficients,  rinner =    1.000   1.000   1.000
                                                       1.000   1.000

     PseudoPot. # 2 for O  read from file:
     /storage/coda1/p-amedford6/0/shared/rich_project_chbe-medford/medford-share/data/pseudos_module/espresso/nninc/pbe/van/O.UPF
     MD5 check sum: 78c19812648e8988a0fe644b0f25305e
     Pseudo is Ultrasoft, Zval =  6.0
     Generated by new atomic code, or converted to UPF format
     Using radial grid of  737 points,  4 beta functions with:
                l(1) =   0
                l(2) =   0
                l(3) =   1
                l(4) =   1
     Q(r) pseudized with  8 coefficients,  rinner =    0.800   0.800   0.800

     PseudoPot. # 3 for N  read from file:
     /storage/coda1/p-amedford6/0/shared/rich_project_chbe-medford/medford-share/data/pseudos_module/espresso/nninc/pbe/van/N.UPF
     MD5 check sum: 90d10febe142ad51ac9d5be1deb811c4
     Pseudo is Ultrasoft, Zval =  5.0
     Generated by new atomic code, or converted to UPF format
     Using radial grid of  729 points,  4 beta functions with:
                l(1) =   0
                l(2) =   0
                l(3) =   1
                l(4) =   1
     Q(r) pseudized with  8 coefficients,  rinner =    0.800   0.800   0.800

     PseudoPot. # 4 for H  read from file:
     /storage/coda1/p-amedford6/0/shared/rich_project_chbe-medford/medford-share/data/pseudos_module/espresso/nninc/pbe/van/H.UPF
     MD5 check sum: b5ee9d7bfd3a09ee7748110bda690ff7
     Pseudo is Ultrasoft, Zval =  1.0
     Generated by new atomic code, or converted to UPF format
     Using radial grid of  615 points,  1 beta functions with:
                l(1) =   0
     Q(r) pseudized with  8 coefficients,  rinner =    0.800

     atomic species   valence    mass     pseudopotential
        Ti1           12.00    47.86700     Ti( 1.00)
        O1             6.00    15.99900     O ( 1.00)
        N1             5.00    14.00700     N ( 1.00)
        H1             1.00     1.00800     H ( 1.00)

     No symmetry found

   Cartesian axes

     site n.     atom                  positions (alat units)
         1           Ti1 tau(   1) = (   0.0004258   2.9801865   6.0000000  )
         2           Ti1 tau(   2) = (   3.2906075   1.4906267   6.0002472  )
         3           O1  tau(   3) = (   0.0006271   0.0005054   7.9858123  )
         4           O1  tau(   4) = (   3.2906025   0.0005020   7.3038282  )
         5           O1  tau(   5) = (   4.5942328   1.4918067   9.2879030  )
         6           O1  tau(   6) = (   1.9868534   1.4903216   9.2879459  )
         7           Ti1 tau(   7) = (   3.2905188   2.9817269   9.1608671  )
         8           Ti1 tau(   8) = (   0.0008727   1.4903491   9.2579811  )
         9           O1  tau(   9) = (   3.2897677   5.9391746  11.3820438  )
        10           O1  tau(  10) = (  -0.0000005   5.9544960  10.6146985  )
        11           O1  tau(  11) = (   1.2884133   1.4789655  12.6516217  )
        12           O1  tau(  12) = (   5.2921206   1.4788385  12.6515509  )
        13           Ti1 tau(  13) = (   0.0005720   2.9629092  12.4975245  )
        14           Ti1 tau(  14) = (   3.2903801   1.4745319  12.5205501  )
        15           O1  tau(  15) = (   0.0004407   0.0388239  14.7059933  )
        16           O1  tau(  16) = (   3.2897445   5.9465346  14.0037610  )
        17           O1  tau(  17) = (   4.5472543   1.4569283  16.2215039  )
        18           O1  tau(  18) = (   2.0329396   1.4568822  16.2213506  )
        19           Ti1 tau(  19) = (   3.2899346   2.9358424  15.7577366  )
        20           Ti1 tau(  20) = (   0.0004932   1.4309995  16.0137732  )
        21           O1  tau(  21) = (   3.2904802   0.0005063   4.7018136  )
        22           O1  tau(  22) = (  -0.0003511   5.7889056  17.2622344  )
        23           O1  tau(  23) = (   1.3043587   1.4918075   6.0039043  )
        24           O1  tau(  24) = (   5.2767064   1.4903225   6.0039473  )
        25           Ti1 tau(  25) = (   0.0000382   5.9609847   6.0000000  )
        26           Ti1 tau(  26) = (   3.2902200   4.4714249   6.0002472  )
        27           O1  tau(  27) = (   0.0002396   2.9813036   7.9858123  )
        28           O1  tau(  28) = (   3.2902150   2.9813002   7.3038282  )
        29           O1  tau(  29) = (   4.5938453   4.4726049   9.2879030  )
        30           O1  tau(  30) = (   1.9864658   4.4711199   9.2879459  )
        31           Ti1 tau(  31) = (   3.2908958   0.0009406   9.1591437  )
        32           Ti1 tau(  32) = (   0.0004876   4.4725358   9.2579169  )
        33           O1  tau(  33) = (   3.2901541   2.9707129  11.3740276  )
        34           O1  tau(  34) = (   0.0003862   2.9798045  10.6274311  )
        35           O1  tau(  35) = (   1.2860740   4.4511954  12.6821393  )
        36           O1  tau(  36) = (   5.2936768   4.4510845  12.6820400  )
        37           Ti1 tau(  37) = (   0.0001324   5.9497034  12.4914426  )
        38           Ti1 tau(  38) = (   3.2900283   4.4525324  12.5305491  )
        39           O1  tau(  39) = (   0.0000299   2.9046373  14.9484161  )
        40           O1  tau(  40) = (   3.2901113   2.9423191  13.9685580  )
        41           O1  tau(  41) = (   4.5465916   4.4073028  16.1601725  )
        42           O1  tau(  42) = (   2.0329218   4.4072560  16.1600144  )
        43           Ti1 tau(  43) = (   3.2897320   5.9176933  15.7983882  )
        44           Ti1 tau(  44) = (   0.0000796   4.6311109  15.9036278  )
        45           O1  tau(  45) = (   3.2900926   2.9813045   4.7018136  )
        46           O1  tau(  46) = (   1.3039711   4.4726057   6.0039043  )
        47           O1  tau(  47) = (   5.2763189   4.4711207   6.0039473  )
        48           N1  tau(  48) = (   6.5791966   2.5420708  18.0661808  )
        49           H1  tau(  49) = (   6.5785613   1.6509345  18.5577087  )
        50           H1  tau(  50) = (   0.8131443   3.0604954  18.3807411  )
        51           H1  tau(  51) = (   5.7641953   3.0602838  18.3887844  )
        52           N1  tau(  52) = (  -0.0000615   4.8677125  20.5088556  )
        53           H1  tau(  53) = (   6.5774456   5.1124690  21.4935560  )
        54           H1  tau(  54) = (   0.8078797   5.3121143  20.0844266  )
        55           H1  tau(  55) = (   5.7710899   5.3082688  20.0816402  )

     number of k points=    10  Fermi-Dirac smearing, width (Ry)=  0.0073
                       cart. coord. in units 2pi/alat
        k(    1) = (   0.0000000   0.0000000   0.0000000), wk =   0.1250000
        k(    2) = (   0.0000000   0.0419351   0.0000000), wk =   0.2500000
        k(    3) = (   0.0000000  -0.0838702   0.0000000), wk =   0.1250000
        k(    4) = (   0.0379955   0.0000049   0.0000000), wk =   0.2500000
        k(    5) = (   0.0379955   0.0419400   0.0000000), wk =   0.2500000
        k(    6) = (   0.0379955  -0.0838652   0.0000000), wk =   0.2500000
        k(    7) = (   0.0379955  -0.0419301   0.0000000), wk =   0.2500000
        k(    8) = (  -0.0759910  -0.0000099   0.0000000), wk =   0.1250000
        k(    9) = (  -0.0759910   0.0419252   0.0000000), wk =   0.2500000
        k(   10) = (  -0.0759910  -0.0838800   0.0000000), wk =   0.1250000

     Initial potential from superposition of free atoms

     starting charge  377.99918, renormalised to  394.00000

     negative rho (up, down):  1.302E-02 0.000E+00

     %%%%%%%%%%%%%%%%%%%%%%%%%%%%%%%%%%%%%%%%%%%%%%%%%%%%%%%%%%%%%%%%%%%%%%%%
     %                                                                      %
     % You are using vdW-DF, which was implemented by the Thonhauser group. %
     % Please cite the following two papers that made this development      %
     % possible and the two reviews that describe the various versions:     %
     %                                                                      %
     %   T. Thonhauser et al., PRL 115, 136402 (2015).                      %
     %   T. Thonhauser et al., PRB 76, 125112 (2007).                       %
     %   K. Berland et al., Rep. Prog. Phys. 78, 066501 (2015).             %
     %   D.C. Langreth et al., J. Phys.: Condens. Matter 21, 084203 (2009). %
     %                                                                      %
     %                                                                      %
     % If you are calculating the stress with vdW-DF, please also cite:     %
     %                                                                      %
     %   R. Sabatini et al., J. Phys.: Condens. Matter 24, 424209 (2012).   %
     %                                                                      %
     %%%%%%%%%%%%%%%%%%%%%%%%%%%%%%%%%%%%%%%%%%%%%%%%%%%%%%%%%%%%%%%%%%%%%%%%

     Adding external electric field

     Computed dipole along edir(3) :
        Dipole               -9.7184 Ry au,        -24.7017 Debye
        Dipole field         -0.0183 Ry au,

        Potential amp.        1.7001 Ry
        Total length         46.3494 bohr

     Starting wfcs are  298 atomic wfcs
  @ DRIVER MODE: Message from server: STATUS
  @ DRIVER MODE: Message from server: POSDATA
  @ DRIVER MODE: Reading and sharing cell
  @ DRIVER MODE: Reading and sharing positions
  @ DRIVER MODE: Received positions

     Self-consistent Calculation

     iteration #  1     ecut=    29.40 Ry     beta= 0.05
     Davidson diagonalization with overlap
     c_bands:  1 eigenvalues not converged
     c_bands:  1 eigenvalues not converged
     c_bands:  1 eigenvalues not converged
     c_bands:  1 eigenvalues not converged
     ethr =  1.00E-05,  avg # of iterations = 18.0

[...]

     total energy              =   -2597.68590362 Ry
     estimated scf accuracy    <    3725.49291342 Ry

     iteration #  2     ecut=    29.40 Ry     beta= 0.05
     Davidson diagonalization with overlap
     ethr =  1.00E-02,  avg # of iterations = 21.9

[...]

     iteration # 73     ecut=    29.40 Ry     beta= 0.05
     Davidson diagonalization with overlap
     ethr =  4.61E-11,  avg # of iterations =  6.6

[...]

     total energy              =   -2931.48030728 Ry
     estimated scf accuracy    <       0.00000011 Ry

     iteration # 75     ecut=    29.40 Ry     beta= 0.05
     Davidson diagonalization with overlap
     c_bands:  1 eigenvalues not converged
     ethr =  2.74E-11,  avg # of iterations = 11.0

     negative rho (up, down):  1.427E-02 0.000E+00

     Adding external electric field

     Computed dipole along edir(3) :
        Dipole                1.3638 Ry au,          3.4665 Debye
        Dipole field          0.0026 Ry au,

        Potential amp.       -0.2386 Ry
        Total length         46.3494 bohr

     End of self-consistent calculation

          k = 0.0000 0.0000 0.0000 ( 18029 PWs)   bands (ev):

   -55.2803 -55.2438 -55.2323 -55.2019 -55.1982 -55.1655 -55.1515 -55.1171
   -55.1099 -55.0810 -55.0757 -55.0586 -55.0245 -54.9491 -54.3223 -54.2882
   -31.8483 -31.7350 -31.7316 -31.6378 -31.5980 -31.5870 -31.5839 -31.5704
   -31.5245 -31.5224 -31.4868 -31.4867 -31.4772 -31.4726 -31.4530 -31.4382
   -31.4332 -31.4202 -31.4160 -31.3893 -31.3838 -31.3743 -31.3638 -31.3523
   -31.3491 -31.3356 -31.3308 -31.3177 -31.2882 -31.2826 -31.2659 -31.2616
   -31.2557 -31.2526 -31.2490 -31.2418 -31.2085 -31.2040 -31.1908 -31.1728
   -31.1523 -31.1513 -30.7343 -30.6326 -30.6110 -30.5503 -30.4639 -30.3530
   -16.1117 -15.8741 -15.7439 -15.5862 -15.4958 -15.4529 -15.3563 -15.3313
   -15.2224 -15.1467 -15.0138 -14.9799 -14.9381 -14.9309 -14.9231 -14.9037
   -14.8977 -14.8270 -14.8133 -14.7972 -14.7886 -14.7662 -14.7648 -14.7456
   -14.7164 -14.6631 -14.6429 -14.5139 -14.4325 -14.3745 -14.1250 -12.8238
   -12.7045  -5.6407  -5.4861  -4.9593  -4.8094  -3.4427  -3.2886  -3.2542
    -3.2033  -3.1919  -3.0385  -2.8779  -2.7292  -2.7093  -2.5597  -2.5306
    -2.4786  -2.4568  -2.3054  -2.2801  -2.2354  -2.2096  -2.1600  -2.1495
    -2.1429  -2.1306  -2.0516  -2.0404  -2.0251  -1.8892  -1.8693  -1.7580
    -1.7176  -1.6617  -1.6485  -1.6434  -1.6093  -1.5915  -1.5507  -1.5400
    -1.5231  -1.4994  -1.4878  -1.3240  -1.2996  -1.1986  -1.1392  -1.0466
    -1.0306  -0.8865  -0.8511  -0.7625  -0.7444  -0.7260  -0.7117  -0.6790
    -0.6305  -0.5227  -0.4330  -0.4117  -0.3510  -0.3267  -0.2880  -0.2003
    -0.0966  -0.0680  -0.0355  -0.0327   0.0838   0.1084   0.1535   0.2199
     0.2349   0.2398   0.2640   0.3539   0.3684   0.4667   0.4903   0.4974
     0.5462   0.6351   0.6393   0.6536   0.6634   0.6897   0.7607   0.7672
     0.8670   0.8898   1.0063   1.2173   1.2889   1.3150   1.5938   1.6540
     1.7029   1.8656   2.2860   2.3383   3.8182   3.8848   3.9179   3.9508
     3.9871   4.0280   4.3153   4.3232   4.3356   4.3402   4.3769

[...]

          k = 0.0380-0.0419 0.0000 ( 17876 PWs)   bands (ev):

[...]

          k =-0.0760-0.0000 0.0000 ( 17886 PWs)   bands (ev):

[...]

          k =-0.0760-0.0839 0.0000 ( 17948 PWs)   bands (ev):

   -55.2649 -55.2590 -55.2153 -55.2151 -55.2004 -55.1620 -55.1352 -55.1334
   -55.0940 -55.0912 -55.0845 -55.0438 -55.0393 -54.9504 -54.3053 -54.3051
   -31.6536 -31.6493 -31.6493 -31.5691 -31.5465 -31.5464 -31.5394 -31.5078
   -31.5077 -31.4813 -31.4813 -31.4775 -31.4739 -31.4555 -31.4349 -31.4152
   -31.4103 -31.4087 -31.4085 -31.4027 -31.4013 -31.3986 -31.3597 -31.3586
   -31.3550 -31.3517 -31.3492 -31.3483 -31.3460 -31.3337 -31.3335 -31.3285
   -31.3260 -31.2914 -31.2894 -31.2738 -31.2710 -31.2657 -31.2290 -31.2280
   -31.2237 -31.1559 -30.6236 -30.6235 -30.5469 -30.5468 -30.5072 -30.5070
   -15.6309 -15.5188 -15.5068 -15.4730 -15.3197 -15.2987 -15.2614 -15.2466
   -15.1281 -15.0920 -15.0729 -15.0569 -15.0244 -15.0205 -15.0134 -14.9767
   -14.8930 -14.8732 -14.8678 -14.8556 -14.8177 -14.7914 -14.7861 -14.7795
   -14.7785 -14.7433 -14.7397 -14.6980 -14.6946 -14.6893 -14.3739 -12.8056
   -12.8056  -5.6209  -5.4887  -4.9245  -4.8185  -2.7918  -2.7355  -2.7355
    -2.5446  -2.4737  -2.4578  -2.4396  -2.3570  -2.3172  -2.2880  -2.2641
    -2.2337  -2.1910  -2.1876  -2.1662  -2.1575  -2.1435  -2.0963  -2.0779
    -2.0524  -1.9988  -1.9741  -1.9658  -1.9538  -1.9451  -1.9404  -1.9170
    -1.9148  -1.8886  -1.8776  -1.8219  -1.6705  -1.6548  -1.5765  -1.5093
    -1.5030  -1.5013  -1.4181  -1.3980  -1.3434  -1.3342  -1.3283  -1.0850
    -1.0636  -1.0627  -1.0574  -1.0261  -0.9111  -0.9016  -0.8291  -0.7998
    -0.7812  -0.6767  -0.6635  -0.6037  -0.6000  -0.4927  -0.4909  -0.4323
    -0.3040  -0.2975  -0.2842  -0.2596  -0.2578  -0.2160  -0.2118  -0.1047
    -0.0686  -0.0176  -0.0063   0.0260   0.1817   0.2312   0.2453   0.2736
     0.4070   0.4266   0.5616   0.5692   0.6241   0.7338   0.7634   0.8028
     0.8309   0.9798   0.9907   1.0121   1.1036   1.1176   1.1555   1.1620
     2.0537   2.0552   2.1565   2.1568   3.9785   4.0604   4.0857   4.1253
     4.2303   4.3286   4.3433   4.3446   4.3786   4.3818   4.4780

     the Fermi energy is     3.8817 ev

!    total energy              =   -2931.48032036 Ry
     estimated scf accuracy    <       0.00000005 Ry
     smearing contrib. (-TS)   =      -0.03684634 Ry
     internal energy E=F+TS    =   -2931.44347402 Ry

     The total energy is F=E-TS. E is the sum of the following terms:
     one-electron contribution =  -23480.62425830 Ry
     hartree contribution      =   11831.02475226 Ry
     xc contribution           =    -484.16577195 Ry
     ewald contribution        =    9202.31829394 Ry
     electric field correction =       0.00351003 Ry

     convergence has been achieved in  75 iterations

     Forces acting on atoms (cartesian axes, Ry/au):

     atom    1 type  1   force =     0.00008650   -0.00009238    0.09073674
     atom    2 type  1   force =    -0.00005498    0.00053293   -0.18274890
     atom    3 type  2   force =     0.00005427   -0.00002635   -0.02346699
     atom    4 type  2   force =     0.00001890   -0.00006010    0.05274722
     atom    5 type  2   force =    -0.01301940   -0.00096978    0.00604669
     atom    6 type  2   force =     0.01296625   -0.00047798    0.00603566
     atom    7 type  1   force =    -0.00000051    0.00067480   -0.00329818
     atom    8 type  1   force =     0.00002008   -0.00014864    0.00138365
     atom    9 type  2   force =    -0.00002856   -0.00017464   -0.00048540
     atom   10 type  2   force =     0.00001874   -0.00005734   -0.00022844
     atom   11 type  2   force =     0.00016904    0.00017511    0.00016220
     atom   12 type  2   force =    -0.00008488    0.00017126    0.00014133
     atom   13 type  1   force =    -0.00019793   -0.00019516    0.00003238
     atom   14 type  1   force =     0.00015057    0.00044138   -0.00097287
     atom   15 type  2   force =     0.00002632   -0.00052435    0.00010391
     atom   16 type  2   force =    -0.00003370    0.00001159    0.00042193
     atom   17 type  2   force =     0.00036627   -0.00004487    0.00045166
     atom   18 type  2   force =    -0.00053895    0.00004562    0.00056716
     atom   19 type  1   force =     0.00017553    0.00007226    0.00038339
     atom   20 type  1   force =    -0.00023498   -0.00086206    0.00022681
     atom   21 type  2   force =     0.00005625    0.00012493    0.10493110
     atom   22 type  2   force =     0.00002535    0.00023740    0.00111484
     atom   23 type  2   force =    -0.06830097   -0.00021028   -0.02628373
     atom   24 type  2   force =     0.06821334    0.00022583   -0.02633124
     atom   25 type  1   force =     0.00009570    0.00004291    0.09035464
     atom   26 type  1   force =    -0.00005612   -0.00044154   -0.18292076
     atom   27 type  2   force =     0.00005106   -0.00093626   -0.02258452
     atom   28 type  2   force =     0.00001798   -0.00006535    0.05252985
     atom   29 type  2   force =    -0.01331488   -0.00073372    0.00527109
     atom   30 type  2   force =     0.01325242   -0.00024122    0.00525628
     atom   31 type  1   force =     0.00000584   -0.00072175   -0.00308900
     atom   32 type  1   force =     0.00001287   -0.00006783    0.00149989
     atom   33 type  2   force =    -0.00003282   -0.00014168    0.00021392
     atom   34 type  2   force =     0.00002080    0.00007712   -0.00048203
     atom   35 type  2   force =     0.00014025   -0.00014134    0.00023500
     atom   36 type  2   force =    -0.00006230   -0.00015297    0.00020741
     atom   37 type  1   force =    -0.00019552    0.00005308    0.00093038
     atom   38 type  1   force =     0.00014379   -0.00027168   -0.00097598
     atom   39 type  2   force =     0.00003390    0.00025756   -0.00016983
     atom   40 type  2   force =    -0.00003440   -0.00001519    0.00105933
     atom   41 type  2   force =     0.00049788   -0.00010726    0.00018923
     atom   42 type  2   force =    -0.00063932   -0.00017827    0.00029218
     atom   43 type  1   force =     0.00015224    0.00005422    0.00066817
     atom   44 type  1   force =    -0.00014606    0.00088811   -0.00093325
     atom   45 type  2   force =     0.00005699    0.00014363    0.10490629
     atom   46 type  2   force =    -0.06830473   -0.00010298   -0.02632557
     atom   47 type  2   force =     0.06820930    0.00033464   -0.02636658
     atom   48 type  3   force =    -0.00491028    0.00271748    0.00232066
     atom   49 type  4   force =     0.00069867   -0.00048160    0.00065370
     atom   50 type  4   force =     0.00139755    0.00078453    0.00003094
     atom   51 type  4   force =     0.00313552   -0.00139407   -0.00259950
     atom   52 type  3   force =    -0.00003646    0.00071435    0.00045915
     atom   53 type  4   force =    -0.00002197    0.00122509   -0.00143243
     atom   54 type  4   force =     0.00009499   -0.00000990   -0.00044520
     atom   55 type  4   force =    -0.00011547    0.00004274   -0.00042437

     Total force =     0.366340     Total SCF correction =     0.000874
  @ DRIVER MODE: Message from server: STATUS
  @ DRIVER MODE: Message from server: GETFORCE
  @ DRIVER MODE: Returning v,forces,stress,ensemble

     Writing output data file ./calc.save/
  @ DRIVER MODE: Message from server: EXIT
  @ DRIVE MODE: Exiting

     General routines

     Parallel routines

   This run was terminated on:  19: 0:22  12Oct2021

   JOB DONE.