     Program PWSCF v.6.7GPU starts on 24Aug2021 at  6:12:16

     R & G space division:  proc/nbgrp/npool/nimage =       6
     Reading input from /storage/home/hcoda1/3/ntian30/research/carbon/CH_vib/ads_slab/CHNHHH_a/out_0032/pw.inp
Warning: card &CELL ignored
Warning: card   CELL_DYNAMICS='IPI', ignored
Warning: card / ignored

     Current dimensions of program PWSCF are:
     Max number of different atomic species (ntypx) = 10
     Max number of k-points (npk) =  40000
     Max angular momentum in pseudopotentials (lmaxx) =  3
     Presently no symmetry can be used with electric field

     Message from routine cell_base_init:
     DEPRECATED: use true lattice parameter, not A to a.u. conversion factor

     IMPORTANT: XC functional enforced from input :
     Exchange-correlation= BEEF-VDW
                           (   1   4  43  14   2   0   0)
     Any further DFT definition will be discarded
     Please, verify this is what you really want

  @ DRIVER MODE: Connecting to
 qe_1139763_2632793.sched-torque.pace.gatech.edu94rhuqqy_scratch
  using UNIX socket
  @ DRIVER MODE: Message from server: STATUS
  @ DRIVER MODE: Message from server: INIT
  @ DRIVER MODE: Receiving replica           0          -1
  @ DRIVER MODE: Receiving encoded integer          25
  @ DRIVER MODE:  SCF:  T  FORCE:  T  STRESS:  F  VC:  F  ENSEMBLE:  F
  @ DRIVER MODE:  SCF:  T  FORCE:  T  STRESS:  F  VC:  F  ENSEMBLE:  F

     Using Slab Decomposition

     bravais-lattice index     =            0
     lattice parameter (alat)  =       1.8897  a.u.
     unit-cell volume          =    6658.9804 (a.u.)^3
     number of atoms/cell      =           53
     number of atomic types    =            5
     number of electrons       =       391.00
     number of Kohn-Sham states=          205
     kinetic-energy cutoff     =      29.3995  Ry
     charge density cutoff     =     293.9946  Ry
     scf convergence threshold =      7.3E-08
     mixing beta               =       0.0500
     number of iterations used =            8  plain     mixing
     Exchange-correlation= BEEF-VDW
                           (   1   4  43  14   2   0   0)

     celldm(1)=   1.889726  celldm(2)=   0.000000  celldm(3)=   0.000000
     celldm(4)=   0.000000  celldm(5)=   0.000000  celldm(6)=   0.000000

     crystal axes: (cart. coord. in units of alat)
               a(1) = (   6.579727   0.000000   0.000000 )
               a(2) = (  -0.000775   5.961596   0.000000 )
               a(3) = (   0.000000   0.000000  25.155947 )

     reciprocal axes: (cart. coord. in units 2 pi/alat)
               b(1) = (  0.151982  0.000020  0.000000 )
               b(2) = (  0.000000  0.167740  0.000000 )
               b(3) = (  0.000000  0.000000  0.039752 )

     PseudoPot. # 1 for Ti read from file:
     /storage/coda1/p-amedford6/0/shared/rich_project_chbe-medford/medford-share/data/pseudos_module/espresso/nninc/pbe/van/Ti.UPF
     MD5 check sum: 8e4df49b7f0d34bbd5052bf3f5ea0213
     Pseudo is Ultrasoft, Zval = 12.0
     Generated by new atomic code, or converted to UPF format
     Using radial grid of  851 points,  6 beta functions with:
                l(1) =   0
                l(2) =   0
                l(3) =   1
                l(4) =   1
                l(5) =   2
                l(6) =   2
     Q(r) pseudized with  8 coefficients,  rinner =    1.000   1.000   1.000
                                                       1.000   1.000

     PseudoPot. # 2 for O  read from file:
     /storage/coda1/p-amedford6/0/shared/rich_project_chbe-medford/medford-share/data/pseudos_module/espresso/nninc/pbe/van/O.UPF
     MD5 check sum: 78c19812648e8988a0fe644b0f25305e
     Pseudo is Ultrasoft, Zval =  6.0
     Generated by new atomic code, or converted to UPF format
     Using radial grid of  737 points,  4 beta functions with:
                l(1) =   0
                l(2) =   0
                l(3) =   1
                l(4) =   1
     Q(r) pseudized with  8 coefficients,  rinner =    0.800   0.800   0.800

     PseudoPot. # 3 for N  read from file:
     /storage/coda1/p-amedford6/0/shared/rich_project_chbe-medford/medford-share/data/pseudos_module/espresso/nninc/pbe/van/N.UPF
     MD5 check sum: 90d10febe142ad51ac9d5be1deb811c4
     Pseudo is Ultrasoft, Zval =  5.0
     Generated by new atomic code, or converted to UPF format
     Using radial grid of  729 points,  4 beta functions with:
                l(1) =   0
                l(2) =   0
                l(3) =   1
                l(4) =   1
     Q(r) pseudized with  8 coefficients,  rinner =    0.800   0.800   0.800

     PseudoPot. # 4 for C  read from file:
     /storage/coda1/p-amedford6/0/shared/rich_project_chbe-medford/medford-share/data/pseudos_module/espresso/nninc/pbe/van/C.UPF
     MD5 check sum: 1a69bf6b8db32088f5b2163dbdb77a27
     Pseudo is Ultrasoft, Zval =  4.0
     Generated by new atomic code, or converted to UPF format
     Using radial grid of  721 points,  4 beta functions with:
                l(1) =   0
                l(2) =   0
                l(3) =   1
                l(4) =   1
     Q(r) pseudized with  8 coefficients,  rinner =    0.800   0.800   0.800

     PseudoPot. # 5 for H  read from file:
     /storage/coda1/p-amedford6/0/shared/rich_project_chbe-medford/medford-share/data/pseudos_module/espresso/nninc/pbe/van/H.UPF
     MD5 check sum: b5ee9d7bfd3a09ee7748110bda690ff7
     Pseudo is Ultrasoft, Zval =  1.0
     Generated by new atomic code, or converted to UPF format
     Using radial grid of  615 points,  1 beta functions with:
                l(1) =   0
     Q(r) pseudized with  8 coefficients,  rinner =    0.800

     atomic species   valence    mass     pseudopotential
        Ti1           12.00    47.86700     Ti( 1.00)
        O1             6.00    15.99900     O ( 1.00)
        N1             5.00    14.00700     N ( 1.00)
        C1             4.00    12.01100     C ( 1.00)
        H1             1.00     1.00800     H ( 1.00)

     No symmetry found

   Cartesian axes

     site n.     atom                  positions (alat units)
         1           Ti1 tau(   1) = (   0.0004258   2.9801865   6.0000000  )
         2           Ti1 tau(   2) = (   3.2906075   1.4906267   6.0002472  )
         3           O1  tau(   3) = (   0.0006271   0.0005054   7.9858123  )
         4           O1  tau(   4) = (   3.2906025   0.0005020   7.3038282  )
         5           O1  tau(   5) = (   4.5942328   1.4918067   9.2879030  )
         6           O1  tau(   6) = (   1.9868534   1.4903216   9.2879459  )
         7           Ti1 tau(   7) = (   3.2907910   2.8959150   9.1758416  )
         8           Ti1 tau(   8) = (   0.0015273   1.4827037   9.2680791  )
         9           O1  tau(   9) = (   3.3113122   5.9567026  11.3833813  )
        10           O1  tau(  10) = (   0.0116148   5.9584955  10.6183126  )
        11           O1  tau(  11) = (   1.3074368   1.4838846  12.6958875  )
        12           O1  tau(  12) = (   5.3165545   1.4905306  12.6890028  )
        13           Ti1 tau(  13) = (   0.0319163   2.9634337  12.5060949  )
        14           Ti1 tau(  14) = (   3.3348194   1.4676286  12.5406051  )
        15           O1  tau(  15) = (   6.5718004   5.8756060  14.7032446  )
        16           O1  tau(  16) = (   3.3285255   5.9545307  14.0046557  )
        17           O1  tau(  17) = (   4.5620449   1.5282301  16.1894795  )
        18           O1  tau(  18) = (   2.0507131   1.5111456  16.1254446  )
        19           Ti1 tau(  19) = (   3.3090684   3.0029381  15.7706148  )
        20           Ti1 tau(  20) = (   0.0350077   1.2886257  15.8758580  )
        21           O1  tau(  21) = (   3.2904802   0.0005063   4.7018136  )
        22           O1  tau(  22) = (   0.0240991   0.1326893  17.2553962  )
        23           O1  tau(  23) = (   1.3043587   1.4918075   6.0039043  )
        24           O1  tau(  24) = (   5.2767064   1.4903225   6.0039473  )
        25           Ti1 tau(  25) = (   0.0000382   5.9609847   6.0000000  )
        26           Ti1 tau(  26) = (   3.2902200   4.4714249   6.0002472  )
        27           O1  tau(  27) = (   0.0002396   2.9813036   7.9858123  )
        28           O1  tau(  28) = (   3.2902150   2.9813002   7.3038282  )
        29           O1  tau(  29) = (   4.5938453   4.4726049   9.2879030  )
        30           O1  tau(  30) = (   1.9864658   4.4711199   9.2879459  )
        31           Ti1 tau(  31) = (   3.2891106   5.8743827   9.1763621  )
        32           Ti1 tau(  32) = (   0.0006254   4.4649316   9.2693709  )
        33           O1  tau(  33) = (   3.3073171   2.9646269  11.3784001  )
        34           O1  tau(  34) = (   0.0092240   2.9805883  10.6323155  )
        35           O1  tau(  35) = (   1.3112202   4.4579144  12.6624112  )
        36           O1  tau(  36) = (   5.3138049   4.4530836  12.6532163  )
        37           Ti1 tau(  37) = (   0.0383750   5.9352221  12.5084026  )
        38           Ti1 tau(  38) = (   3.3346062   4.4465110  12.5317211  )
        39           O1  tau(  39) = (   0.0124192   3.0170750  14.9941726  )
        40           O1  tau(  40) = (   3.3221393   2.9969786  13.9787254  )
        41           O1  tau(  41) = (   4.5445774   4.4782521  16.2319081  )
        42           O1  tau(  42) = (   2.0501905   4.4790704  16.2078326  )
        43           Ti1 tau(  43) = (   3.3285819   0.0194352  15.8051934  )
        44           Ti1 tau(  44) = (   0.0611752   4.5099810  16.0683830  )
        45           O1  tau(  45) = (   3.2900926   2.9813045   4.7018136  )
        46           O1  tau(  46) = (   1.3039711   4.4726057   6.0039043  )
        47           O1  tau(  47) = (   5.2763189   4.4711207   6.0039473  )
        48           N1  tau(  48) = (   6.2166669   3.4226028  18.2351681  )
        49           C1  tau(  49) = (   0.7325778   3.1430902  19.0455235  )
        50           H1  tau(  50) = (   1.1688338   2.1628109  18.9760543  )
        51           H1  tau(  51) = (   5.7007151   4.2593073  18.4945226  )
        52           H1  tau(  52) = (   5.5741914   2.6425579  18.1107425  )
        53           H1  tau(  53) = (   1.2693429   3.9788434  19.4721980  )

     number of k points=    10  Fermi-Dirac smearing, width (Ry)=  0.0073
                       cart. coord. in units 2pi/alat
        k(    1) = (   0.0000000   0.0000000   0.0000000), wk =   0.1250000
        k(    2) = (   0.0000000   0.0419351   0.0000000), wk =   0.2500000
        k(    3) = (   0.0000000  -0.0838702   0.0000000), wk =   0.1250000
        k(    4) = (   0.0379955   0.0000049   0.0000000), wk =   0.2500000
        k(    5) = (   0.0379955   0.0419400   0.0000000), wk =   0.2500000
        k(    6) = (   0.0379955  -0.0838652   0.0000000), wk =   0.2500000
        k(    7) = (   0.0379955  -0.0419301   0.0000000), wk =   0.2500000
        k(    8) = (  -0.0759910  -0.0000099   0.0000000), wk =   0.1250000
        k(    9) = (  -0.0759910   0.0419252   0.0000000), wk =   0.2500000
        k(   10) = (  -0.0759910  -0.0838800   0.0000000), wk =   0.1250000

     Initial potential from superposition of free atoms

     starting charge  374.99916, renormalised to  391.00000

     negative rho (up, down):  1.698E-02 0.000E+00

     %%%%%%%%%%%%%%%%%%%%%%%%%%%%%%%%%%%%%%%%%%%%%%%%%%%%%%%%%%%%%%%%%%%%%%%%
     %                                                                      %
     % You are using vdW-DF, which was implemented by the Thonhauser group. %
     % Please cite the following two papers that made this development      %
     % possible and the two reviews that describe the various versions:     %
     %                                                                      %
     %   T. Thonhauser et al., PRL 115, 136402 (2015).                      %
     %   T. Thonhauser et al., PRB 76, 125112 (2007).                       %
     %   K. Berland et al., Rep. Prog. Phys. 78, 066501 (2015).             %
     %   D.C. Langreth et al., J. Phys.: Condens. Matter 21, 084203 (2009). %
     %                                                                      %
     %                                                                      %
     % If you are calculating the stress with vdW-DF, please also cite:     %
     %                                                                      %
     %   R. Sabatini et al., J. Phys.: Condens. Matter 24, 424209 (2012).   %
     %                                                                      %
     %%%%%%%%%%%%%%%%%%%%%%%%%%%%%%%%%%%%%%%%%%%%%%%%%%%%%%%%%%%%%%%%%%%%%%%%

     Adding external electric field

     Computed dipole along edir(3) :
        Dipole               -6.8871 Ry au,        -17.5052 Debye
        Dipole field         -0.0130 Ry au,

        Potential amp.        1.2048 Ry
        Total length         46.3494 bohr

     Starting wfcs are  296 atomic wfcs
  @ DRIVER MODE: Message from server: STATUS
  @ DRIVER MODE: Message from server: POSDATA
  @ DRIVER MODE: Reading and sharing cell
  @ DRIVER MODE: Reading and sharing positions
  @ DRIVER MODE: Received positions

     Self-consistent Calculation

     iteration #  1     ecut=    29.40 Ry     beta= 0.05
     Davidson diagonalization with overlap
     c_bands:  1 eigenvalues not converged
     c_bands:  2 eigenvalues not converged
     ethr =  1.00E-05,  avg # of iterations = 15.9

[...]

     total energy              =   -2713.96265004 Ry
     estimated scf accuracy    <    2276.07953709 Ry

     iteration #  2     ecut=    29.40 Ry     beta= 0.05
     Davidson diagonalization with overlap
     ethr =  1.00E-02,  avg # of iterations = 18.6

[...]

     iteration # 78     ecut=    29.40 Ry     beta= 0.05
     Davidson diagonalization with overlap
     c_bands:  1 eigenvalues not converged
     c_bands:  1 eigenvalues not converged
     c_bands:  1 eigenvalues not converged
     ethr =  6.47E-10,  avg # of iterations = 15.4

[...]

     total energy              =   -2920.25696966 Ry
     estimated scf accuracy    <       0.00000011 Ry

     iteration # 85     ecut=    29.40 Ry     beta= 0.05
     Davidson diagonalization with overlap
     ethr =  2.69E-11,  avg # of iterations =  7.5

     negative rho (up, down):  1.633E-02 0.000E+00

     Adding external electric field

     Computed dipole along edir(3) :
        Dipole                0.8996 Ry au,          2.2865 Debye
        Dipole field          0.0017 Ry au,

        Potential amp.       -0.1574 Ry
        Total length         46.3494 bohr

     End of self-consistent calculation

          k = 0.0000 0.0000 0.0000 ( 18029 PWs)   bands (ev):

   -55.7214 -55.6850 -55.6747 -55.6406 -55.6082 -55.6048 -55.5704 -55.5464
   -55.5383 -55.5119 -55.5068 -55.4731 -55.4523 -55.2898 -54.7062 -54.6722
   -32.2864 -32.1676 -32.0922 -32.0429 -32.0393 -32.0354 -32.0307 -32.0126
   -31.9638 -31.9540 -31.9338 -31.9287 -31.9198 -31.8902 -31.8753 -31.8747
   -31.8600 -31.8463 -31.8423 -31.8272 -31.8224 -31.7889 -31.7820 -31.7767
   -31.7486 -31.7365 -31.7362 -31.7318 -31.7260 -31.7189 -31.7067 -31.7048
   -31.6952 -31.6925 -31.6598 -31.6586 -31.6545 -31.6347 -31.6246 -31.6182
   -31.5094 -31.4625 -31.1158 -31.0212 -30.9991 -30.9321 -30.8453 -30.7345
   -16.6870 -16.5274 -16.2713 -16.1052 -16.0067 -15.9212 -15.7794 -15.7604
   -15.6444 -15.5677 -15.4252 -15.3882 -15.3754 -15.3588 -15.3360 -15.3239
   -15.2694 -15.2637 -15.2426 -15.2185 -15.2142 -15.1662 -15.1630 -15.1226
   -15.0993 -15.0373 -14.9672 -14.8837 -14.8114 -14.4804 -13.2093 -13.0918
    -9.5232  -6.8663  -4.9649  -3.8848  -3.7419  -3.6753  -3.6226  -3.6161
    -3.4719  -3.3006  -3.1474  -3.1322  -3.0805  -2.9899  -2.9261  -2.9118
    -2.8879  -2.7567  -2.7316  -2.6809  -2.6454  -2.5713  -2.5677  -2.5271
    -2.5136  -2.4686  -2.4627  -2.4367  -2.3042  -2.2895  -2.2522  -2.1887
    -2.1287  -2.1269  -2.0702  -2.0524  -2.0127  -2.0039  -1.9926  -1.9510
    -1.9453  -1.9105  -1.8081  -1.7459  -1.6135  -1.5794  -1.4334  -1.3634
    -1.3146  -1.2961  -1.2128  -1.1913  -1.1403  -1.1019  -1.0912  -1.0595
    -0.9461  -0.8600  -0.8091  -0.7546  -0.7217  -0.7059  -0.6167  -0.5239
    -0.5023  -0.4891  -0.4471  -0.3456  -0.3247  -0.2618  -0.2028  -0.1872
    -0.1780  -0.0818  -0.0508   0.0216   0.0723   0.0935   0.1649   0.1907
     0.2098   0.2151   0.2505   0.2617   0.3380   0.3544   0.3789   0.4659
     0.5916   0.8384   0.8868   0.9009   1.2170   1.2210   1.3161   1.4994
     1.8926   1.9410   3.3697   3.3875   3.4514   3.5206   3.5242   3.5886
     3.6114   3.8565   3.8777   3.8851   3.9018

[...]

          k = 0.0380-0.0419 0.0000 ( 17876 PWs)   bands (ev):

[...]

          k =-0.0760-0.0000 0.0000 ( 17886 PWs)   bands (ev):

[...]

          k =-0.0760-0.0839 0.0000 ( 17948 PWs)   bands (ev):

   -55.7062 -55.6999 -55.6577 -55.6575 -55.6037 -55.5882 -55.5869 -55.5426
   -55.5307 -55.5272 -55.4904 -55.4896 -55.4502 -55.2918 -54.6893 -54.6890
   -32.0931 -32.0884 -31.9971 -31.9827 -31.9826 -31.9790 -31.9518 -31.9491
   -31.9491 -31.9330 -31.9264 -31.9175 -31.9122 -31.8718 -31.8683 -31.8630
   -31.8590 -31.8544 -31.8489 -31.8456 -31.8296 -31.8096 -31.8014 -31.8007
   -31.7833 -31.7786 -31.7774 -31.7771 -31.7634 -31.7599 -31.7435 -31.7399
   -31.7395 -31.7249 -31.7230 -31.7202 -31.6730 -31.6705 -31.6695 -31.6306
   -31.5538 -31.5116 -31.0119 -31.0116 -30.9284 -30.9282 -30.8887 -30.8886
   -16.6555 -16.0107 -15.9457 -15.9075 -15.7595 -15.7185 -15.6836 -15.6719
   -15.5485 -15.5167 -15.4958 -15.4756 -15.4396 -15.4256 -15.4189 -15.3664
   -15.3403 -15.3203 -15.3160 -15.3020 -15.2398 -15.2334 -15.2285 -15.2213
   -15.1735 -15.1699 -15.0786 -15.0757 -15.0520 -14.7670 -13.1933 -13.1932
    -9.5251  -6.8479  -4.9442  -3.2138  -3.1851  -3.1607  -3.1248  -2.9796
    -2.9177  -2.9026  -2.8732  -2.8008  -2.7488  -2.7327  -2.6886  -2.6847
    -2.6312  -2.5978  -2.5731  -2.5592  -2.5530  -2.5393  -2.5178  -2.4809
    -2.4529  -2.4509  -2.4421  -2.3963  -2.3699  -2.3594  -2.3213  -2.3152
    -2.3073  -2.2797  -2.2161  -2.1159  -2.0861  -2.0583  -1.9621  -1.9309
    -1.9258  -1.8458  -1.8127  -1.7577  -1.7509  -1.7431  -1.5777  -1.5058
    -1.4698  -1.4664  -1.4440  -1.3168  -1.3021  -1.2237  -1.1999  -1.1874
    -1.0987  -1.0787  -1.0354  -1.0085  -0.9319  -0.9028  -0.8407  -0.7541
    -0.7155  -0.7085  -0.6792  -0.6754  -0.6264  -0.6153  -0.5301  -0.4915
    -0.4567  -0.4463  -0.3980  -0.2128  -0.1962  -0.1657  -0.0271   0.0240
     0.1490   0.1720   0.2334   0.3069   0.3473   0.3909   0.4276   0.5726
     0.5823   0.6151   0.6598   0.6710   0.7291   0.7379   1.6724   1.6729
     1.7608   1.7611   3.3838   3.6306   3.6330   3.6682   3.6910   3.8461
     3.8910   3.9347   3.9564   3.9596   3.9813

     the Fermi energy is     3.4379 ev

!    total energy              =   -2920.25697453 Ry
     estimated scf accuracy    <       0.00000006 Ry
     smearing contrib. (-TS)   =      -0.04245690 Ry
     internal energy E=F+TS    =   -2920.21451763 Ry

     The total energy is F=E-TS. E is the sum of the following terms:
     one-electron contribution =  -24059.24509897 Ry
     hartree contribution      =   12115.80665483 Ry
     xc contribution           =    -480.85441308 Ry
     ewald contribution        =    9504.07681246 Ry
     electric field correction =       0.00152712 Ry

     convergence has been achieved in  85 iterations

     Forces acting on atoms (cartesian axes, Ry/au):

     atom    1 type  1   force =    -0.00001558   -0.00019546    0.09315890
     atom    2 type  1   force =    -0.00011341   -0.00033962   -0.17839440
     atom    3 type  2   force =     0.00009182   -0.00039294   -0.02006551
     atom    4 type  2   force =     0.00004627   -0.00199977    0.05911933
     atom    5 type  2   force =    -0.01019400   -0.00082398    0.00742210
     atom    6 type  2   force =     0.01220427   -0.00043041    0.00773687
     atom    7 type  1   force =     0.00015185    0.00228540   -0.01370621
     atom    8 type  1   force =    -0.00035509   -0.00182467   -0.00452641
     atom    9 type  2   force =    -0.00034251    0.00036865   -0.00023084
     atom   10 type  2   force =    -0.00026798    0.00141377    0.00222677
     atom   11 type  2   force =    -0.00012019    0.00010656   -0.00010639
     atom   12 type  2   force =    -0.00028443   -0.00022642   -0.00062150
     atom   13 type  1   force =    -0.00048482    0.00090510   -0.00023244
     atom   14 type  1   force =    -0.00069828    0.00042412   -0.00047273
     atom   15 type  2   force =     0.00004241   -0.00019161    0.00014463
     atom   16 type  2   force =    -0.00041036   -0.00009813    0.00002595
     atom   17 type  2   force =    -0.00012186   -0.00029946   -0.00044051
     atom   18 type  2   force =    -0.00027697   -0.00016067    0.00044928
     atom   19 type  1   force =    -0.00061989   -0.00009081    0.00001074
     atom   20 type  1   force =    -0.00009625   -0.00029437   -0.00027161
     atom   21 type  2   force =     0.00002528   -0.00006210    0.10399884
     atom   22 type  2   force =    -0.00053104   -0.00001423    0.00006844
     atom   23 type  2   force =    -0.07034722   -0.00014455   -0.02686102
     atom   24 type  2   force =     0.07022347    0.00029505   -0.02694606
     atom   25 type  1   force =     0.00002438   -0.00014848    0.09256189
     atom   26 type  1   force =    -0.00014640   -0.00046321   -0.17846444
     atom   27 type  2   force =     0.00015910   -0.00028303   -0.01914931
     atom   28 type  2   force =     0.00005809   -0.00176847    0.05850149
     atom   29 type  2   force =    -0.01067745   -0.00130326    0.00789176
     atom   30 type  2   force =     0.01255495   -0.00083274    0.00815821
     atom   31 type  1   force =     0.00028623    0.00600034   -0.01443480
     atom   32 type  1   force =    -0.00036794    0.00121817   -0.00499690
     atom   33 type  2   force =    -0.00004900   -0.00046083   -0.00008066
     atom   34 type  2   force =     0.00078281   -0.00258550    0.00062618
     atom   35 type  2   force =    -0.00059212   -0.00028639   -0.00012650
     atom   36 type  2   force =     0.00058633    0.00005438    0.00004512
     atom   37 type  1   force =    -0.00046897   -0.00044052    0.00006504
     atom   38 type  1   force =    -0.00026372    0.00036086   -0.00083635
     atom   39 type  2   force =    -0.00063449    0.00035692   -0.00014248
     atom   40 type  2   force =    -0.00015205   -0.00036084   -0.00055414
     atom   41 type  2   force =    -0.00106327    0.00009912    0.00001411
     atom   42 type  2   force =     0.00007345   -0.00013785    0.00028679
     atom   43 type  1   force =     0.00049212   -0.00000899   -0.00044251
     atom   44 type  1   force =     0.00043803    0.00067272   -0.00009337
     atom   45 type  2   force =     0.00003737   -0.00007576    0.10394250
     atom   46 type  2   force =    -0.07031922   -0.00009339   -0.02684224
     atom   47 type  2   force =     0.07022185    0.00034640   -0.02689922
     atom   48 type  3   force =    -0.00015146    0.00250372    0.00023991
     atom   49 type  4   force =     0.00362153    0.00524146    0.00370095
     atom   50 type  5   force =     0.00023485   -0.00122407   -0.00051689
     atom   51 type  5   force =     0.00151299   -0.00093859   -0.00037115
     atom   52 type  5   force =     0.00001956    0.00054719    0.00010452
     atom   53 type  5   force =    -0.00372306   -0.00419886   -0.00367369

     Total force =     0.366440     Total SCF correction =     0.000515
  @ DRIVER MODE: Message from server: STATUS
  @ DRIVER MODE: Message from server: GETFORCE
  @ DRIVER MODE: Returning v,forces,stress,ensemble

     Writing output data file ./calc.save/
  @ DRIVER MODE: Message from server: EXIT
  @ DRIVE MODE: Exiting

     General routines

     Parallel routines

   This run was terminated on:   6:46:41  24Aug2021

   JOB DONE.