     Program PWSCF v.6.7GPU starts on 23Sep2021 at  6:52:11

     R & G space division:  proc/nbgrp/npool/nimage =      10
     Reading input from /storage/home/hcoda1/3/ntian30/research/carbon/CxH_vib/H2O_calc/ads_slab/CH3NNH3HO_a/out_0042/pw.inp
Warning: card &CELL ignored
Warning: card   CELL_DYNAMICS='IPI', ignored
Warning: card / ignored

     Current dimensions of program PWSCF are:
     Max number of different atomic species (ntypx) = 10
     Max number of k-points (npk) =  40000
     Max angular momentum in pseudopotentials (lmaxx) =  3
     Presently no symmetry can be used with electric field

     Message from routine cell_base_init:
     DEPRECATED: use true lattice parameter, not A to a.u. conversion factor

     IMPORTANT: XC functional enforced from input :
     Exchange-correlation= BEEF-VDW
                           (   1   4  43  14   2   0   0)
     Any further DFT definition will be discarded
     Please, verify this is what you really want

  @ DRIVER MODE: Connecting to
 qe_1139763_2937318.sched-torque.pace.gatech.eduw0wkq6zd_scratch
  using UNIX socket
  @ DRIVER MODE: Message from server: STATUS
  @ DRIVER MODE: Message from server: INIT
  @ DRIVER MODE: Receiving replica           0          -1
  @ DRIVER MODE: Receiving encoded integer          25
  @ DRIVER MODE:  SCF:  T  FORCE:  T  STRESS:  F  VC:  F  ENSEMBLE:  F
  @ DRIVER MODE:  SCF:  T  FORCE:  T  STRESS:  F  VC:  F  ENSEMBLE:  F

     Using Slab Decomposition

     bravais-lattice index     =            0
     lattice parameter (alat)  =       1.8897  a.u.
     unit-cell volume          =    6658.9804 (a.u.)^3
     number of atoms/cell      =           58
     number of atomic types    =            5
     number of electrons       =       405.00
     number of Kohn-Sham states=          212
     kinetic-energy cutoff     =      29.3995  Ry
     charge density cutoff     =     293.9946  Ry
     scf convergence threshold =      7.3E-08
     mixing beta               =       0.0500
     number of iterations used =            8  plain     mixing
     Exchange-correlation= BEEF-VDW
                           (   1   4  43  14   2   0   0)

     celldm(1)=   1.889726  celldm(2)=   0.000000  celldm(3)=   0.000000
     celldm(4)=   0.000000  celldm(5)=   0.000000  celldm(6)=   0.000000

     crystal axes: (cart. coord. in units of alat)
               a(1) = (   6.579727   0.000000   0.000000 )
               a(2) = (  -0.000775   5.961596   0.000000 )
               a(3) = (   0.000000   0.000000  25.155947 )

     reciprocal axes: (cart. coord. in units 2 pi/alat)
               b(1) = (  0.151982  0.000020  0.000000 )
               b(2) = (  0.000000  0.167740  0.000000 )
               b(3) = (  0.000000  0.000000  0.039752 )

     PseudoPot. # 1 for Ti read from file:
     /storage/coda1/p-amedford6/0/shared/rich_project_chbe-medford/medford-share/data/pseudos_module/espresso/nninc/pbe/van/Ti.UPF
     MD5 check sum: 8e4df49b7f0d34bbd5052bf3f5ea0213
     Pseudo is Ultrasoft, Zval = 12.0
     Generated by new atomic code, or converted to UPF format
     Using radial grid of  851 points,  6 beta functions with:
                l(1) =   0
                l(2) =   0
                l(3) =   1
                l(4) =   1
                l(5) =   2
                l(6) =   2
     Q(r) pseudized with  8 coefficients,  rinner =    1.000   1.000   1.000
                                                       1.000   1.000

     PseudoPot. # 2 for O  read from file:
     /storage/coda1/p-amedford6/0/shared/rich_project_chbe-medford/medford-share/data/pseudos_module/espresso/nninc/pbe/van/O.UPF
     MD5 check sum: 78c19812648e8988a0fe644b0f25305e
     Pseudo is Ultrasoft, Zval =  6.0
     Generated by new atomic code, or converted to UPF format
     Using radial grid of  737 points,  4 beta functions with:
                l(1) =   0
                l(2) =   0
                l(3) =   1
                l(4) =   1
     Q(r) pseudized with  8 coefficients,  rinner =    0.800   0.800   0.800

     PseudoPot. # 3 for N  read from file:
     /storage/coda1/p-amedford6/0/shared/rich_project_chbe-medford/medford-share/data/pseudos_module/espresso/nninc/pbe/van/N.UPF
     MD5 check sum: 90d10febe142ad51ac9d5be1deb811c4
     Pseudo is Ultrasoft, Zval =  5.0
     Generated by new atomic code, or converted to UPF format
     Using radial grid of  729 points,  4 beta functions with:
                l(1) =   0
                l(2) =   0
                l(3) =   1
                l(4) =   1
     Q(r) pseudized with  8 coefficients,  rinner =    0.800   0.800   0.800

     PseudoPot. # 4 for C  read from file:
     /storage/coda1/p-amedford6/0/shared/rich_project_chbe-medford/medford-share/data/pseudos_module/espresso/nninc/pbe/van/C.UPF
     MD5 check sum: 1a69bf6b8db32088f5b2163dbdb77a27
     Pseudo is Ultrasoft, Zval =  4.0
     Generated by new atomic code, or converted to UPF format
     Using radial grid of  721 points,  4 beta functions with:
                l(1) =   0
                l(2) =   0
                l(3) =   1
                l(4) =   1
     Q(r) pseudized with  8 coefficients,  rinner =    0.800   0.800   0.800

     PseudoPot. # 5 for H  read from file:
     /storage/coda1/p-amedford6/0/shared/rich_project_chbe-medford/medford-share/data/pseudos_module/espresso/nninc/pbe/van/H.UPF
     MD5 check sum: b5ee9d7bfd3a09ee7748110bda690ff7
     Pseudo is Ultrasoft, Zval =  1.0
     Generated by new atomic code, or converted to UPF format
     Using radial grid of  615 points,  1 beta functions with:
                l(1) =   0
     Q(r) pseudized with  8 coefficients,  rinner =    0.800

     atomic species   valence    mass     pseudopotential
        Ti1           12.00    47.86700     Ti( 1.00)
        O1             6.00    15.99900     O ( 1.00)
        N1             5.00    14.00700     N ( 1.00)
        C1             4.00    12.01100     C ( 1.00)
        H1             1.00     1.00800     H ( 1.00)

     No symmetry found

   Cartesian axes

     site n.     atom                  positions (alat units)
         1           Ti1 tau(   1) = (   0.0004258   2.9801865   6.0000000  )
         2           Ti1 tau(   2) = (   3.2906075   1.4906267   6.0002472  )
         3           O1  tau(   3) = (   0.0006271   0.0005054   7.9858123  )
         4           O1  tau(   4) = (   3.2906025   0.0005020   7.3038282  )
         5           O1  tau(   5) = (   4.5942328   1.4918067   9.2879030  )
         6           O1  tau(   6) = (   1.9868534   1.4903216   9.2879459  )
         7           Ti1 tau(   7) = (   3.2907910   2.8959150   9.1758416  )
         8           Ti1 tau(   8) = (   0.0015273   1.4827037   9.2680791  )
         9           O1  tau(   9) = (   3.2949357   5.9297256  11.2770696  )
        10           O1  tau(  10) = (   0.0116148   5.9584955  10.6183126  )
        11           O1  tau(  11) = (   1.2901270   1.4659759  12.6218969  )
        12           O1  tau(  12) = (   5.3029181   1.4690452  12.6271982  )
        13           Ti1 tau(  13) = (   6.5637346   3.0486055  12.7052252  )
        14           Ti1 tau(  14) = (   3.3207578   1.2909511  12.6638180  )
        15           O1  tau(  15) = (   0.0081040   5.9567798  14.6379979  )
        16           O1  tau(  16) = (   3.2944190   0.0149942  13.8863584  )
        17           O1  tau(  17) = (   4.5334936   1.5584448  16.0391558  )
        18           O1  tau(  18) = (   2.0244848   1.5379376  16.0854781  )
        19           Ti1 tau(  19) = (   3.2579824   3.0118882  15.6538344  )
        20           Ti1 tau(  20) = (   6.4918182   1.5199401  15.8876453  )
        21           O1  tau(  21) = (   3.2904802   0.0005063   4.7018136  )
        22           O1  tau(  22) = (   6.5166677   0.0216046  17.1949088  )
        23           O1  tau(  23) = (   1.3043587   1.4918075   6.0039043  )
        24           O1  tau(  24) = (   5.2767064   1.4903225   6.0039473  )
        25           Ti1 tau(  25) = (   0.0000382   5.9609847   6.0000000  )
        26           Ti1 tau(  26) = (   3.2902200   4.4714249   6.0002472  )
        27           O1  tau(  27) = (   0.0002396   2.9813036   7.9858123  )
        28           O1  tau(  28) = (   3.2902150   2.9813002   7.3038282  )
        29           O1  tau(  29) = (   4.5938453   4.4726049   9.2879030  )
        30           O1  tau(  30) = (   1.9864658   4.4711199   9.2879459  )
        31           Ti1 tau(  31) = (   3.2891106   5.8743827   9.1763621  )
        32           Ti1 tau(  32) = (   0.0006254   4.4649316   9.2693709  )
        33           O1  tau(  33) = (   3.2959121   3.0085915  11.2438341  )
        34           O1  tau(  34) = (   0.0092240   2.9805883  10.6323155  )
        35           O1  tau(  35) = (   1.2849535   4.4488585  12.6204231  )
        36           O1  tau(  36) = (   5.2878833   4.4365118  12.6243745  )
        37           Ti1 tau(  37) = (   0.0500071   0.0677371  12.6535751  )
        38           Ti1 tau(  38) = (   3.3027700   4.3871210  12.4110406  )
        39           O1  tau(  39) = (   6.5685058   2.9535060  14.6525041  )
        40           O1  tau(  40) = (   3.2696111   2.9719761  13.8704823  )
        41           O1  tau(  41) = (   4.5209813   4.4409030  16.0696701  )
        42           O1  tau(  42) = (   2.0131998   4.4599944  16.0916020  )
        43           Ti1 tau(  43) = (   3.2138439   0.0230873  16.3295100  )
        44           Ti1 tau(  44) = (   6.5234412   4.6200706  16.0754176  )
        45           O1  tau(  45) = (   3.2900926   2.9813045   4.7018136  )
        46           O1  tau(  46) = (   1.3039711   4.4726057   6.0039043  )
        47           O1  tau(  47) = (   5.2763189   4.4711207   6.0039473  )
        48           N1  tau(  48) = (   0.0251376   2.9556585  17.3246074  )
        49           N1  tau(  49) = (   6.3772498   2.5461882  22.2688425  )
        50           C1  tau(  50) = (   0.2111848   2.8484408  18.7116211  )
        51           H1  tau(  51) = (   0.3920758   3.8074029  19.2116250  )
        52           H1  tau(  52) = (   5.9044209   2.3708277  19.1722604  )
        53           H1  tau(  53) = (   1.0233575   2.1342068  18.9364007  )
        54           H1  tau(  54) = (   6.0930523   3.2289774  22.9728454  )
        55           H1  tau(  55) = (   0.2277240   1.7755739  22.7685771  )
        56           H1  tau(  56) = (   0.5282093   2.9785696  21.7129995  )
        57           O1  tau(  57) = (   3.3838229   0.0530270  18.1522483  )
        58           H1  tau(  58) = (   4.2718821   5.8932998  18.5223319  )

     number of k points=    10  Fermi-Dirac smearing, width (Ry)=  0.0073
                       cart. coord. in units 2pi/alat
        k(    1) = (   0.0000000   0.0000000   0.0000000), wk =   0.1250000
        k(    2) = (   0.0000000   0.0419351   0.0000000), wk =   0.2500000
        k(    3) = (   0.0000000  -0.0838702   0.0000000), wk =   0.1250000
        k(    4) = (   0.0379955   0.0000049   0.0000000), wk =   0.2500000
        k(    5) = (   0.0379955   0.0419400   0.0000000), wk =   0.2500000
        k(    6) = (   0.0379955  -0.0838652   0.0000000), wk =   0.2500000
        k(    7) = (   0.0379955  -0.0419301   0.0000000), wk =   0.2500000
        k(    8) = (  -0.0759910  -0.0000099   0.0000000), wk =   0.1250000
        k(    9) = (  -0.0759910   0.0419252   0.0000000), wk =   0.2500000
        k(   10) = (  -0.0759910  -0.0838800   0.0000000), wk =   0.1250000

     Initial potential from superposition of free atoms

     starting charge  388.99913, renormalised to  405.00000

     negative rho (up, down):  7.816E-03 0.000E+00

     %%%%%%%%%%%%%%%%%%%%%%%%%%%%%%%%%%%%%%%%%%%%%%%%%%%%%%%%%%%%%%%%%%%%%%%%
     %                                                                      %
     % You are using vdW-DF, which was implemented by the Thonhauser group. %
     % Please cite the following two papers that made this development      %
     % possible and the two reviews that describe the various versions:     %
     %                                                                      %
     %   T. Thonhauser et al., PRL 115, 136402 (2015).                      %
     %   T. Thonhauser et al., PRB 76, 125112 (2007).                       %
     %   K. Berland et al., Rep. Prog. Phys. 78, 066501 (2015).             %
     %   D.C. Langreth et al., J. Phys.: Condens. Matter 21, 084203 (2009). %
     %                                                                      %
     %                                                                      %
     % If you are calculating the stress with vdW-DF, please also cite:     %
     %                                                                      %
     %   R. Sabatini et al., J. Phys.: Condens. Matter 24, 424209 (2012).   %
     %                                                                      %
     %%%%%%%%%%%%%%%%%%%%%%%%%%%%%%%%%%%%%%%%%%%%%%%%%%%%%%%%%%%%%%%%%%%%%%%%

     Adding external electric field

     Computed dipole along edir(3) :
        Dipole              -15.1943 Ry au,        -38.6201 Debye
        Dipole field         -0.0287 Ry au,

        Potential amp.        2.6580 Ry
        Total length         46.3494 bohr

     Starting wfcs are  307 atomic wfcs
  @ DRIVER MODE: Message from server: STATUS
  @ DRIVER MODE: Message from server: POSDATA
  @ DRIVER MODE: Reading and sharing cell
  @ DRIVER MODE: Reading and sharing positions
  @ DRIVER MODE: Received positions

     Self-consistent Calculation

     iteration #  1     ecut=    29.40 Ry     beta= 0.05
     Davidson diagonalization with overlap
     c_bands:  4 eigenvalues not converged
     c_bands:  1 eigenvalues not converged
     c_bands:  1 eigenvalues not converged
     c_bands:  2 eigenvalues not converged
     c_bands:  1 eigenvalues not converged
     c_bands:  2 eigenvalues not converged
     ethr =  1.00E-05,  avg # of iterations = 31.5

[...]

     total energy              =   -2295.17179381 Ry
     estimated scf accuracy    <    7742.89953179 Ry

     iteration #  2     ecut=    29.40 Ry     beta= 0.05
     Davidson diagonalization with overlap
     ethr =  1.00E-02,  avg # of iterations = 23.3

[...]

     iteration # 52     ecut=    29.40 Ry     beta= 0.05
     Davidson diagonalization with overlap
     c_bands:  1 eigenvalues not converged
     ethr =  4.35E-07,  avg # of iterations =  8.8

[...]

     total energy              =   -2976.42347082 Ry
     estimated scf accuracy    <       0.00000025 Ry

     iteration # 75     ecut=    29.40 Ry     beta= 0.05
     Davidson diagonalization with overlap
     ethr =  6.05E-11,  avg # of iterations =  3.6

     negative rho (up, down):  9.576E-03 0.000E+00

     Adding external electric field

     Computed dipole along edir(3) :
        Dipole                0.6347 Ry au,          1.6133 Debye
        Dipole field          0.0012 Ry au,

        Potential amp.       -0.1110 Ry
        Total length         46.3494 bohr

     End of self-consistent calculation

          k = 0.0000 0.0000 0.0000 ( 18029 PWs)   bands (ev):

   -56.5659 -56.5324 -55.6417 -55.6066 -55.4258 -55.3593 -55.2308 -55.1169
   -55.0830 -55.0351 -55.0033 -54.9688 -54.9108 -54.8173 -54.7457 -54.6137
   -32.9847 -32.8364 -32.8083 -32.7454 -32.6552 -32.6117 -32.1235 -31.9007
   -31.8620 -31.8404 -31.7859 -31.7781 -31.7528 -31.6592 -31.6388 -31.5942
   -31.5624 -31.5463 -31.5226 -31.5100 -31.5048 -31.4946 -31.4640 -31.4627
   -31.4395 -31.4206 -31.3554 -31.3209 -31.2986 -31.2928 -31.2406 -31.2328
   -31.2159 -31.1942 -31.1816 -31.1664 -31.1592 -31.1292 -31.1234 -31.0918
   -31.0477 -31.0030 -31.0022 -30.9808 -30.9479 -30.8879 -30.8512 -30.8008
   -16.6692 -16.1111 -16.0875 -15.8824 -15.7598 -15.7546 -15.7114 -15.6426
   -15.4734 -15.4048 -15.3763 -15.3151 -15.1709 -15.0553 -14.9581 -14.7782
   -14.7046 -14.6993 -14.6805 -14.6729 -14.6560 -14.6351 -14.5762 -14.5177
   -14.4752 -14.4103 -14.3668 -14.2208 -14.0201 -13.9950 -13.9287 -13.6143
   -13.5073 -13.5028  -7.7379  -4.2446  -4.0177  -3.9856  -3.6981  -3.5779
    -3.4052  -3.2527  -3.2020  -3.1441  -3.0846  -3.0752  -2.9276  -2.9259
    -2.9142  -2.9072  -2.8292  -2.7705  -2.7056  -2.6187  -2.6032  -2.5085
    -2.4619  -2.3025  -2.2765  -2.1756  -2.1035  -2.0980  -2.0318  -2.0090
    -1.9617  -1.9166  -1.9072  -1.8725  -1.8289  -1.7821  -1.7637  -1.6524
    -1.6448  -1.5798  -1.5733  -1.5506  -1.4372  -1.4172  -1.3473  -1.2021
    -1.1808  -1.1775  -1.1303  -1.1130  -1.0314  -0.9353  -0.8680  -0.8414
    -0.7853  -0.6968  -0.6502  -0.6283  -0.5559  -0.5365  -0.4624  -0.4186
    -0.4057  -0.3853  -0.3431  -0.2288  -0.1419  -0.1091  -0.0553  -0.0299
     0.0028   0.0299   0.0489   0.0976   0.1673   0.2533   0.2742   0.4129
     0.4651   0.5018   0.5774   0.6117   0.6181   0.7074   0.7388   0.7684
     0.8149   0.8896   0.9042   0.9051   0.9641   1.0481   1.1028   1.1550
     1.1668   1.2031   1.2112   1.2621   1.3507   1.3713   1.4406   1.4956
     1.8195   1.8818   2.4840   2.7285   2.8999   3.1768   3.3687   3.6722
     3.7143   3.7323   3.7324   4.0381

[...]

          k = 0.0380-0.0419 0.0000 ( 17876 PWs)   bands (ev):

[...]

          k =-0.0760-0.0000 0.0000 ( 17886 PWs)   bands (ev):

[...]

          k =-0.0760-0.0839 0.0000 ( 17948 PWs)   bands (ev):

   -56.5498 -56.5484 -55.6293 -55.6189 -55.4212 -55.3638 -55.2299 -55.1005
   -55.0993 -55.0303 -55.0039 -54.9734 -54.9092 -54.8159 -54.7473 -54.6151
   -32.8229 -32.8214 -32.8026 -32.8012 -32.6994 -32.6983 -31.9480 -31.9388
   -31.8237 -31.8185 -31.8126 -31.8109 -31.7206 -31.6777 -31.6525 -31.6394
   -31.5897 -31.5880 -31.5017 -31.4744 -31.4647 -31.4530 -31.4521 -31.3695
   -31.3500 -31.3206 -31.3191 -31.3015 -31.2944 -31.2846 -31.2808 -31.2803
   -31.2519 -31.2328 -31.2149 -31.2002 -31.1963 -31.1584 -31.1581 -31.1022
   -31.0909 -31.0506 -31.0067 -30.9955 -30.9593 -30.9526 -30.8533 -30.8362
   -16.0754 -16.0276 -16.0257 -15.9822 -15.9807 -15.7189 -15.7145 -15.4641
   -15.4348 -15.2555 -15.1515 -15.1275 -15.0840 -15.0424 -14.9713 -14.9170
   -14.8874 -14.8553 -14.8293 -14.7672 -14.7374 -14.6328 -14.6001 -14.5527
   -14.5164 -14.4545 -14.4135 -14.3643 -14.1767 -14.1332 -13.9280 -13.6119
   -13.6114 -13.5277  -7.7370  -4.0189  -3.9954  -3.6892  -3.1586  -3.1036
    -3.0992  -3.0668  -3.0596  -2.9742  -2.8530  -2.8499  -2.7550  -2.6478
    -2.6213  -2.5984  -2.5379  -2.5285  -2.4284  -2.3786  -2.3737  -2.3594
    -2.3231  -2.2936  -2.2871  -2.2272  -2.0886  -2.0726  -2.0233  -1.9693
    -1.8948  -1.8863  -1.8770  -1.8402  -1.7986  -1.7732  -1.7622  -1.7350
    -1.7303  -1.7258  -1.6163  -1.5114  -1.4641  -1.3705  -1.3663  -1.3574
    -1.3196  -1.2924  -1.2590  -1.2526  -1.2238  -1.1437  -1.1175  -1.0477
    -0.9340  -0.9161  -0.8743  -0.8260  -0.7223  -0.7040  -0.6143  -0.5780
    -0.5666  -0.5071  -0.4782  -0.4621  -0.4039  -0.3647  -0.2330  -0.1932
    -0.1817  -0.1647  -0.1423  -0.1061  -0.0449   0.0165   0.0484   0.0504
     0.1549   0.2546   0.3425   0.4116   0.4210   0.4442   0.5307   0.6361
     0.6772   0.7018   0.7502   0.8738   0.9916   1.0212   1.1259   1.1522
     1.1615   1.2629   1.2809   1.2860   1.3061   1.3152   1.3502   1.4167
     1.4775   1.7643   2.3169   3.3210   3.3241   3.3822   3.3879   3.6987
     3.7010   3.8121   3.8172   4.1422

     the Fermi energy is     2.3939 ev

!    total energy              =   -2976.42348617 Ry
     estimated scf accuracy    <       0.00000007 Ry
     smearing contrib. (-TS)   =      -0.01084055 Ry
     internal energy E=F+TS    =   -2976.41264561 Ry

     The total energy is F=E-TS. E is the sum of the following terms:
     one-electron contribution =  -22707.37608415 Ry
     hartree contribution      =   11450.04210268 Ry
     xc contribution           =    -495.33776397 Ry
     ewald contribution        =    8776.25833954 Ry
     electric field correction =       0.00076029 Ry

     convergence has been achieved in  75 iterations

     Forces acting on atoms (cartesian axes, Ry/au):

     atom    1 type  1   force =     0.00002200   -0.00052321    0.12630209
     atom    2 type  1   force =    -0.00009440    0.00041301   -0.15470601
     atom    3 type  2   force =     0.00002809    0.00002679   -0.06829648
     atom    4 type  2   force =     0.00005949   -0.00011011    0.01703232
     atom    5 type  2   force =    -0.00486905   -0.00242890   -0.01324163
     atom    6 type  2   force =     0.00655204   -0.00180683   -0.01375906
     atom    7 type  1   force =    -0.00029384   -0.00661511    0.05921063
     atom    8 type  1   force =     0.00038678    0.00686929    0.10030584
     atom    9 type  2   force =    -0.00002295    0.00066452    0.00131036
     atom   10 type  2   force =    -0.00261412   -0.00001397   -0.06337882
     atom   11 type  2   force =     0.00043947   -0.00068595   -0.00028534
     atom   12 type  2   force =    -0.00085436   -0.00112499   -0.00109798
     atom   13 type  1   force =    -0.00029871    0.00071380   -0.00139315
     atom   14 type  1   force =    -0.00032956   -0.00038516   -0.00023596
     atom   15 type  2   force =    -0.00065752   -0.00039312   -0.00059479
     atom   16 type  2   force =     0.00019656    0.00093307   -0.00030803
     atom   17 type  2   force =     0.00078530    0.00009036   -0.00053743
     atom   18 type  2   force =    -0.00022986   -0.00015357   -0.00002474
     atom   19 type  1   force =    -0.00020095   -0.00012028   -0.00092136
     atom   20 type  1   force =     0.00068761    0.00083074   -0.00046105
     atom   21 type  2   force =     0.00006253    0.00015491    0.09781158
     atom   22 type  2   force =     0.00041251   -0.00032233    0.00145726
     atom   23 type  2   force =    -0.08276146    0.00005385   -0.03314221
     atom   24 type  2   force =     0.08270494    0.00050105   -0.03321869
     atom   25 type  1   force =     0.00006959   -0.00035684    0.12644973
     atom   26 type  1   force =    -0.00011181   -0.00149608   -0.15487860
     atom   27 type  2   force =     0.00011523   -0.00047011   -0.06667209
     atom   28 type  2   force =     0.00004902    0.00167367    0.01197214
     atom   29 type  2   force =    -0.00342147    0.00422065   -0.01621540
     atom   30 type  2   force =     0.00505092    0.00456419   -0.01661858
     atom   31 type  1   force =    -0.00015851    0.00217475    0.04254398
     atom   32 type  1   force =     0.00044295   -0.00893760    0.10088007
     atom   33 type  2   force =    -0.00048491   -0.00012666   -0.00038754
     atom   34 type  2   force =    -0.00212587   -0.00026385   -0.07624089
     atom   35 type  2   force =    -0.00010068    0.00069753    0.00086146
     atom   36 type  2   force =    -0.00049311    0.00051549    0.00038668
     atom   37 type  1   force =     0.00043412    0.00060134   -0.00019290
     atom   38 type  1   force =    -0.00042186   -0.00067071   -0.00066063
     atom   39 type  2   force =     0.00044970   -0.00031794   -0.00041462
     atom   40 type  2   force =     0.00036879   -0.00062745   -0.00000829
     atom   41 type  2   force =     0.00026482    0.00048333   -0.00002547
     atom   42 type  2   force =    -0.00020345   -0.00019047    0.00012762
     atom   43 type  1   force =     0.00051343    0.00135396   -0.00094810
     atom   44 type  1   force =    -0.00024832   -0.00104080    0.00084620
     atom   45 type  2   force =     0.00009450   -0.00001431    0.09764957
     atom   46 type  2   force =    -0.08280787    0.00003768   -0.03319518
     atom   47 type  2   force =     0.08271637    0.00045587   -0.03320150
     atom   48 type  3   force =     0.00001838    0.00039425    0.00038668
     atom   49 type  3   force =    -0.00367052    0.00616868    0.00724385
     atom   50 type  4   force =     0.00075597    0.00037692    0.00062315
     atom   51 type  5   force =    -0.00000817   -0.00029664   -0.00056400
     atom   52 type  5   force =     0.00009717    0.00091256   -0.00056194
     atom   53 type  5   force =    -0.00018056    0.00032836    0.00039433
     atom   54 type  5   force =     0.00338387   -0.00635612   -0.00839509
     atom   55 type  5   force =     0.00072779   -0.00045807   -0.00032989
     atom   56 type  5   force =     0.00008461    0.00066211    0.00082708
     atom   57 type  2   force =    -0.00185249   -0.00056286    0.00036007
     atom   58 type  5   force =     0.00154182   -0.00000271    0.00013076

     Total force =     0.420952     Total SCF correction =     0.000577
  @ DRIVER MODE: Message from server: STATUS
  @ DRIVER MODE: Message from server: GETFORCE
  @ DRIVER MODE: Returning v,forces,stress,ensemble

     Writing output data file ./calc.save/
  @ DRIVER MODE: Message from server: EXIT
  @ DRIVE MODE: Exiting

     General routines

     Parallel routines

   This run was terminated on:   7:12:12  23Sep2021

   JOB DONE.