     Program PWSCF v.6.7GPU starts on 16Sep2021 at  1:29:59

     R & G space division:  proc/nbgrp/npool/nimage =      10
     Reading input from /storage/home/hcoda1/3/ntian30/research/carbon/CxH_vib/H2O_calc/ads_slab/CH3NNHHHH2O_a/out_0028/pw.inp
Warning: card &CELL ignored
Warning: card   CELL_DYNAMICS='IPI', ignored
Warning: card / ignored

     Current dimensions of program PWSCF are:
     Max number of different atomic species (ntypx) = 10
     Max number of k-points (npk) =  40000
     Max angular momentum in pseudopotentials (lmaxx) =  3
     Presently no symmetry can be used with electric field

     Message from routine cell_base_init:
     DEPRECATED: use true lattice parameter, not A to a.u. conversion factor

     IMPORTANT: XC functional enforced from input :
     Exchange-correlation= BEEF-VDW
                           (   1   4  43  14   2   0   0)
     Any further DFT definition will be discarded
     Please, verify this is what you really want

  @ DRIVER MODE: Connecting to
 qe_1139763_2852622.sched-torque.pace.gatech.eduayznqpz3_scratch
  using UNIX socket
  @ DRIVER MODE: Message from server: STATUS
  @ DRIVER MODE: Message from server: INIT
  @ DRIVER MODE: Receiving replica           0          -1
  @ DRIVER MODE: Receiving encoded integer          25
  @ DRIVER MODE:  SCF:  T  FORCE:  T  STRESS:  F  VC:  F  ENSEMBLE:  F
  @ DRIVER MODE:  SCF:  T  FORCE:  T  STRESS:  F  VC:  F  ENSEMBLE:  F

     Using Slab Decomposition

     bravais-lattice index     =            0
     lattice parameter (alat)  =       1.8897  a.u.
     unit-cell volume          =    6658.9804 (a.u.)^3
     number of atoms/cell      =           59
     number of atomic types    =            5
     number of electrons       =       406.00
     number of Kohn-Sham states=          213
     kinetic-energy cutoff     =      29.3995  Ry
     charge density cutoff     =     293.9946  Ry
     scf convergence threshold =      7.3E-08
     mixing beta               =       0.0500
     number of iterations used =            8  plain     mixing
     Exchange-correlation= BEEF-VDW
                           (   1   4  43  14   2   0   0)

     celldm(1)=   1.889726  celldm(2)=   0.000000  celldm(3)=   0.000000
     celldm(4)=   0.000000  celldm(5)=   0.000000  celldm(6)=   0.000000

     crystal axes: (cart. coord. in units of alat)
               a(1) = (   6.579727   0.000000   0.000000 )
               a(2) = (  -0.000775   5.961596   0.000000 )
               a(3) = (   0.000000   0.000000  25.155947 )

     reciprocal axes: (cart. coord. in units 2 pi/alat)
               b(1) = (  0.151982  0.000020  0.000000 )
               b(2) = (  0.000000  0.167740  0.000000 )
               b(3) = (  0.000000  0.000000  0.039752 )

     PseudoPot. # 1 for Ti read from file:
     /storage/coda1/p-amedford6/0/shared/rich_project_chbe-medford/medford-share/data/pseudos_module/espresso/nninc/pbe/van/Ti.UPF
     MD5 check sum: 8e4df49b7f0d34bbd5052bf3f5ea0213
     Pseudo is Ultrasoft, Zval = 12.0
     Generated by new atomic code, or converted to UPF format
     Using radial grid of  851 points,  6 beta functions with:
                l(1) =   0
                l(2) =   0
                l(3) =   1
                l(4) =   1
                l(5) =   2
                l(6) =   2
     Q(r) pseudized with  8 coefficients,  rinner =    1.000   1.000   1.000
                                                       1.000   1.000

     PseudoPot. # 2 for O  read from file:
     /storage/coda1/p-amedford6/0/shared/rich_project_chbe-medford/medford-share/data/pseudos_module/espresso/nninc/pbe/van/O.UPF
     MD5 check sum: 78c19812648e8988a0fe644b0f25305e
     Pseudo is Ultrasoft, Zval =  6.0
     Generated by new atomic code, or converted to UPF format
     Using radial grid of  737 points,  4 beta functions with:
                l(1) =   0
                l(2) =   0
                l(3) =   1
                l(4) =   1
     Q(r) pseudized with  8 coefficients,  rinner =    0.800   0.800   0.800

     PseudoPot. # 3 for N  read from file:
     /storage/coda1/p-amedford6/0/shared/rich_project_chbe-medford/medford-share/data/pseudos_module/espresso/nninc/pbe/van/N.UPF
     MD5 check sum: 90d10febe142ad51ac9d5be1deb811c4
     Pseudo is Ultrasoft, Zval =  5.0
     Generated by new atomic code, or converted to UPF format
     Using radial grid of  729 points,  4 beta functions with:
                l(1) =   0
                l(2) =   0
                l(3) =   1
                l(4) =   1
     Q(r) pseudized with  8 coefficients,  rinner =    0.800   0.800   0.800

     PseudoPot. # 4 for C  read from file:
     /storage/coda1/p-amedford6/0/shared/rich_project_chbe-medford/medford-share/data/pseudos_module/espresso/nninc/pbe/van/C.UPF
     MD5 check sum: 1a69bf6b8db32088f5b2163dbdb77a27
     Pseudo is Ultrasoft, Zval =  4.0
     Generated by new atomic code, or converted to UPF format
     Using radial grid of  721 points,  4 beta functions with:
                l(1) =   0
                l(2) =   0
                l(3) =   1
                l(4) =   1
     Q(r) pseudized with  8 coefficients,  rinner =    0.800   0.800   0.800

     PseudoPot. # 5 for H  read from file:
     /storage/coda1/p-amedford6/0/shared/rich_project_chbe-medford/medford-share/data/pseudos_module/espresso/nninc/pbe/van/H.UPF
     MD5 check sum: b5ee9d7bfd3a09ee7748110bda690ff7
     Pseudo is Ultrasoft, Zval =  1.0
     Generated by new atomic code, or converted to UPF format
     Using radial grid of  615 points,  1 beta functions with:
                l(1) =   0
     Q(r) pseudized with  8 coefficients,  rinner =    0.800

     atomic species   valence    mass     pseudopotential
        Ti1           12.00    47.86700     Ti( 1.00)
        O1             6.00    15.99900     O ( 1.00)
        N1             5.00    14.00700     N ( 1.00)
        C1             4.00    12.01100     C ( 1.00)
        H1             1.00     1.00800     H ( 1.00)

     No symmetry found

   Cartesian axes

     site n.     atom                  positions (alat units)
         1           Ti1 tau(   1) = (   0.0004258   2.9801865   6.0000000  )
         2           Ti1 tau(   2) = (   3.2906075   1.4906267   6.0002472  )
         3           O1  tau(   3) = (   0.0006271   0.0005054   7.9858123  )
         4           O1  tau(   4) = (   3.2906025   0.0005020   7.3038282  )
         5           O1  tau(   5) = (   4.5942328   1.4918067   9.2879030  )
         6           O1  tau(   6) = (   1.9868534   1.4903216   9.2879459  )
         7           Ti1 tau(   7) = (   3.2907910   2.8959150   9.1758416  )
         8           Ti1 tau(   8) = (   0.0015273   1.4827037   9.2680791  )
         9           O1  tau(   9) = (   3.2800960   5.9426830  11.3808346  )
        10           O1  tau(  10) = (   0.0116148   5.9584955  10.6183126  )
        11           O1  tau(  11) = (   1.2797812   1.4911726  12.6624455  )
        12           O1  tau(  12) = (   5.2824698   1.4871998  12.6412817  )
        13           Ti1 tau(  13) = (   0.0041451   2.9720195  12.5119452  )
        14           Ti1 tau(  14) = (   3.3095611   1.4699318  12.5307708  )
        15           O1  tau(  15) = (   6.5436702   0.0697967  14.6864816  )
        16           O1  tau(  16) = (   3.2812162   5.9597207  14.0300411  )
        17           O1  tau(  17) = (   4.5129646   1.5046642  16.2361130  )
        18           O1  tau(  18) = (   1.9708392   1.5012857  16.1671103  )
        19           Ti1 tau(  19) = (   3.2655272   2.9480959  15.7331506  )
        20           Ti1 tau(  20) = (   6.5674642   1.4497656  15.9937491  )
        21           O1  tau(  21) = (   3.2904802   0.0005063   4.7018136  )
        22           O1  tau(  22) = (   6.5217933   5.8323795  17.2454964  )
        23           O1  tau(  23) = (   1.3043587   1.4918075   6.0039043  )
        24           O1  tau(  24) = (   5.2767064   1.4903225   6.0039473  )
        25           Ti1 tau(  25) = (   0.0000382   5.9609847   6.0000000  )
        26           Ti1 tau(  26) = (   3.2902200   4.4714249   6.0002472  )
        27           O1  tau(  27) = (   0.0002396   2.9813036   7.9858123  )
        28           O1  tau(  28) = (   3.2902150   2.9813002   7.3038282  )
        29           O1  tau(  29) = (   4.5938453   4.4726049   9.2879030  )
        30           O1  tau(  30) = (   1.9864658   4.4711199   9.2879459  )
        31           Ti1 tau(  31) = (   3.2891106   5.8743827   9.1763621  )
        32           Ti1 tau(  32) = (   0.0006254   4.4649316   9.2693709  )
        33           O1  tau(  33) = (   3.2830490   2.9749636  11.3746576  )
        34           O1  tau(  34) = (   0.0092240   2.9805883  10.6323155  )
        35           O1  tau(  35) = (   1.2760807   4.4612897  12.6946019  )
        36           O1  tau(  36) = (   5.2846406   4.4647657  12.6742532  )
        37           Ti1 tau(  37) = (   0.0173662   5.9591775  12.4970172  )
        38           Ti1 tau(  38) = (   3.3070294   4.4569304  12.5379467  )
        39           O1  tau(  39) = (   6.5190077   2.9374781  14.9220565  )
        40           O1  tau(  40) = (   3.2909943   2.9519766  13.9498127  )
        41           O1  tau(  41) = (   4.5146313   4.4149292  16.1460290  )
        42           O1  tau(  42) = (   1.9668235   4.4047650  16.1116202  )
        43           Ti1 tau(  43) = (   3.2426406   5.9218513  15.8539982  )
        44           Ti1 tau(  44) = (   6.5337747   4.6515477  15.8702276  )
        45           O1  tau(  45) = (   3.2900926   2.9813045   4.7018136  )
        46           O1  tau(  46) = (   1.3039711   4.4726057   6.0039043  )
        47           O1  tau(  47) = (   5.2763189   4.4711207   6.0039473  )
        48           N1  tau(  48) = (   1.0802268   3.0592680  18.8437747  )
        49           N1  tau(  49) = (   6.4825355   2.6367244  18.1156036  )
        50           C1  tau(  50) = (   0.7269815   3.7261681  20.0984356  )
        51           H1  tau(  51) = (   0.0344531   4.5672025  19.9493712  )
        52           H1  tau(  52) = (   0.2718923   3.0181313  20.7822053  )
        53           H1  tau(  53) = (   1.6424345   4.1087450  20.5485440  )
        54           H1  tau(  54) = (   5.7152520   3.3097272  18.2274121  )
        55           H1  tau(  55) = (   6.1788988   1.7551022  18.5268573  )
        56           H1  tau(  56) = (   1.5478348   3.7306874  18.2371031  )
        57           O1  tau(  57) = (   3.1661568   0.0027346  18.3937517  )
        58           H1  tau(  58) = (   4.0701885   0.3469208  18.4697374  )
        59           H1  tau(  59) = (   2.5798038   0.7742236  18.5044111  )

     number of k points=    10  Fermi-Dirac smearing, width (Ry)=  0.0073
                       cart. coord. in units 2pi/alat
        k(    1) = (   0.0000000   0.0000000   0.0000000), wk =   0.1250000
        k(    2) = (   0.0000000   0.0419351   0.0000000), wk =   0.2500000
        k(    3) = (   0.0000000  -0.0838702   0.0000000), wk =   0.1250000
        k(    4) = (   0.0379955   0.0000049   0.0000000), wk =   0.2500000
        k(    5) = (   0.0379955   0.0419400   0.0000000), wk =   0.2500000
        k(    6) = (   0.0379955  -0.0838652   0.0000000), wk =   0.2500000
        k(    7) = (   0.0379955  -0.0419301   0.0000000), wk =   0.2500000
        k(    8) = (  -0.0759910  -0.0000099   0.0000000), wk =   0.1250000
        k(    9) = (  -0.0759910   0.0419252   0.0000000), wk =   0.2500000
        k(   10) = (  -0.0759910  -0.0838800   0.0000000), wk =   0.1250000

     Initial potential from superposition of free atoms

     starting charge  389.99912, renormalised to  406.00000

     negative rho (up, down):  1.307E-02 0.000E+00

     %%%%%%%%%%%%%%%%%%%%%%%%%%%%%%%%%%%%%%%%%%%%%%%%%%%%%%%%%%%%%%%%%%%%%%%%
     %                                                                      %
     % You are using vdW-DF, which was implemented by the Thonhauser group. %
     % Please cite the following two papers that made this development      %
     % possible and the two reviews that describe the various versions:     %
     %                                                                      %
     %   T. Thonhauser et al., PRL 115, 136402 (2015).                      %
     %   T. Thonhauser et al., PRB 76, 125112 (2007).                       %
     %   K. Berland et al., Rep. Prog. Phys. 78, 066501 (2015).             %
     %   D.C. Langreth et al., J. Phys.: Condens. Matter 21, 084203 (2009). %
     %                                                                      %
     %                                                                      %
     % If you are calculating the stress with vdW-DF, please also cite:     %
     %                                                                      %
     %   R. Sabatini et al., J. Phys.: Condens. Matter 24, 424209 (2012).   %
     %                                                                      %
     %%%%%%%%%%%%%%%%%%%%%%%%%%%%%%%%%%%%%%%%%%%%%%%%%%%%%%%%%%%%%%%%%%%%%%%%

     Adding external electric field

     Computed dipole along edir(3) :
        Dipole              -16.1158 Ry au,        -40.9623 Debye
        Dipole field         -0.0304 Ry au,

        Potential amp.        2.8192 Ry
        Total length         46.3494 bohr

     Starting wfcs are  308 atomic wfcs
  @ DRIVER MODE: Message from server: STATUS
  @ DRIVER MODE: Message from server: POSDATA
  @ DRIVER MODE: Reading and sharing cell
  @ DRIVER MODE: Reading and sharing positions
  @ DRIVER MODE: Received positions

     Self-consistent Calculation

     iteration #  1     ecut=    29.40 Ry     beta= 0.05
     Davidson diagonalization with overlap
     c_bands:  2 eigenvalues not converged
     c_bands:  3 eigenvalues not converged
     c_bands:  2 eigenvalues not converged
     c_bands:  3 eigenvalues not converged
     c_bands:  4 eigenvalues not converged
     c_bands:  2 eigenvalues not converged
     c_bands:  1 eigenvalues not converged
     c_bands:  5 eigenvalues not converged
     c_bands:  1 eigenvalues not converged
     ethr =  1.00E-05,  avg # of iterations = 23.1

[...]

     total energy              =   -2140.63043612 Ry
     estimated scf accuracy    <    9598.82956792 Ry

     iteration #  2     ecut=    29.40 Ry     beta= 0.05
     Davidson diagonalization with overlap
     ethr =  1.00E-02,  avg # of iterations = 33.3

[...]

     iteration # 56     ecut=    29.40 Ry     beta= 0.05
     Davidson diagonalization with overlap
     c_bands:  1 eigenvalues not converged
     ethr =  9.70E-09,  avg # of iterations = 11.0

[...]

     total energy              =   -2977.70004289 Ry
     estimated scf accuracy    <       0.00000009 Ry

     iteration # 69     ecut=    29.40 Ry     beta= 0.05
     Davidson diagonalization with overlap
     ethr =  2.19E-11,  avg # of iterations =  4.7

     negative rho (up, down):  1.408E-02 0.000E+00

     Adding external electric field

     Computed dipole along edir(3) :
        Dipole                1.3416 Ry au,          3.4101 Debye
        Dipole field          0.0025 Ry au,

        Potential amp.       -0.2347 Ry
        Total length         46.3494 bohr

     End of self-consistent calculation

          k = 0.0000 0.0000 0.0000 ( 18029 PWs)   bands (ev):

   -55.1187 -55.0820 -55.0746 -55.0405 -55.0345 -55.0294 -54.9977 -54.9619
   -54.9435 -54.9087 -54.9050 -54.8879 -54.8713 -54.8372 -54.1041 -54.0700
   -31.6805 -31.5942 -31.5670 -31.4868 -31.4327 -31.4298 -31.4163 -31.4105
   -31.3635 -31.3405 -31.3302 -31.3193 -31.3123 -31.3097 -31.2915 -31.2830
   -31.2631 -31.2602 -31.2580 -31.2397 -31.2272 -31.2176 -31.2001 -31.1957
   -31.1884 -31.1766 -31.1736 -31.1445 -31.1318 -31.1286 -31.1239 -31.1035
   -31.1006 -31.0931 -31.0896 -31.0657 -31.0569 -31.0402 -31.0330 -31.0308
   -31.0160 -31.0146 -30.5135 -30.4192 -30.3972 -30.3299 -30.2431 -30.1322
   -18.8049 -17.8181 -15.9497 -15.6943 -15.5577 -15.4566 -15.3221 -15.2158
   -15.1344 -15.0203 -14.9705 -14.8549 -14.8230 -14.8184 -14.7788 -14.7475
   -14.6987 -14.6600 -14.6579 -14.6354 -14.6161 -14.6083 -14.5655 -14.5586
   -14.5190 -14.5172 -14.4973 -14.3611 -14.2795 -14.2096 -14.0269 -13.2021
   -12.6068 -12.4894  -9.7920  -6.5367  -6.4016  -5.4516  -4.9244  -3.5336
    -3.2833  -3.1386  -3.0856  -3.0503  -3.0150  -2.9598  -2.8810  -2.8151
    -2.6504  -2.5809  -2.5557  -2.4035  -2.3294  -2.3198  -2.2632  -2.1634
    -2.1387  -2.0919  -2.0497  -1.9851  -1.9477  -1.9243  -1.9025  -1.8673
    -1.8636  -1.8096  -1.7556  -1.6865  -1.5966  -1.5653  -1.5194  -1.4758
    -1.4538  -1.4512  -1.4108  -1.4044  -1.3939  -1.3493  -1.3433  -1.3131
    -1.2671  -1.1576  -1.0076  -0.9452  -0.8557  -0.7611  -0.7363  -0.7102
    -0.6901  -0.6278  -0.6054  -0.5761  -0.5007  -0.4523  -0.3729  -0.3267
    -0.3041  -0.2245  -0.1198  -0.1026  -0.0953  -0.0073   0.0848   0.0978
     0.1123   0.1220   0.2199   0.2853   0.3192   0.3608   0.4250   0.4342
     0.4921   0.5210   0.5724   0.6389   0.6719   0.7510   0.7904   0.8113
     0.8169   0.8394   0.8594   0.8707   0.9520   0.9609   0.9864   1.0751
     1.1796   1.3341   1.4800   1.4907   1.8241   1.8252   1.9186   2.1021
     2.4947   2.5430   3.9757   4.0514   4.1099   4.1209   4.1265   4.2114
     4.4606   4.4783   4.4898   4.4914   4.5264

[...]

          k = 0.0380-0.0419 0.0000 ( 17876 PWs)   bands (ev):

[...]

          k =-0.0760-0.0000 0.0000 ( 17886 PWs)   bands (ev):

[...]

          k =-0.0760-0.0839 0.0000 ( 17948 PWs)   bands (ev):

   -55.1042 -55.0963 -55.0575 -55.0575 -55.0317 -55.0282 -54.9849 -54.9746
   -54.9291 -54.9228 -54.8898 -54.8890 -54.8874 -54.8389 -54.0871 -54.0869
   -31.5095 -31.4902 -31.4804 -31.3822 -31.3821 -31.3764 -31.3699 -31.3487
   -31.3487 -31.3281 -31.3230 -31.3174 -31.3078 -31.2887 -31.2753 -31.2609
   -31.2564 -31.2554 -31.2517 -31.2454 -31.2433 -31.2395 -31.2275 -31.2264
   -31.1976 -31.1964 -31.1792 -31.1773 -31.1772 -31.1682 -31.1680 -31.1622
   -31.1539 -31.1415 -31.1359 -31.1205 -31.1187 -31.1025 -31.0691 -31.0680
   -31.0668 -31.0434 -30.4099 -30.4098 -30.3261 -30.3259 -30.2865 -30.2865
   -18.8034 -17.8147 -15.5297 -15.3911 -15.2521 -15.1485 -15.1335 -15.0799
   -15.0308 -14.9890 -14.9474 -14.9031 -14.8931 -14.8750 -14.8466 -14.8197
   -14.7953 -14.7361 -14.7197 -14.7042 -14.6819 -14.6351 -14.6273 -14.6244
   -14.6173 -14.5711 -14.5685 -14.5434 -14.4749 -14.4729 -14.2860 -13.2041
   -12.5909 -12.5908  -9.7889  -6.5882  -6.3242  -5.4486  -4.9353  -3.5070
    -2.9547  -2.8298  -2.6533  -2.6172  -2.4716  -2.3713  -2.3261  -2.2979
    -2.2442  -2.1985  -2.1385  -2.1235  -2.1050  -2.0464  -2.0209  -2.0021
    -1.9707  -1.9518  -1.9381  -1.9196  -1.9023  -1.8740  -1.8478  -1.8391
    -1.8344  -1.8063  -1.7897  -1.7504  -1.7435  -1.7358  -1.6926  -1.6806
    -1.6542  -1.5973  -1.4903  -1.4800  -1.3276  -1.3252  -1.2910  -1.2457
    -1.2256  -1.2155  -1.1550  -1.1471  -1.1348  -0.8991  -0.8718  -0.8618
    -0.8345  -0.7764  -0.7588  -0.6962  -0.6868  -0.6027  -0.5881  -0.4862
    -0.4704  -0.4143  -0.3306  -0.3226  -0.3104  -0.1990  -0.1496  -0.1120
    -0.0856  -0.0754  -0.0579  -0.0200  -0.0199   0.0699   0.1133   0.1437
     0.1589   0.1888   0.3534   0.4020   0.4110   0.5502   0.5639   0.7119
     0.7753   0.7896   0.8772   0.8976   0.9851   0.9952   1.0348   1.1744
     1.1859   1.2094   1.2562   1.2845   1.3365   1.3417   2.2749   2.2761
     2.3628   2.3630   4.1081   4.2334   4.2397   4.3004   4.4097   4.4430
     4.4890   4.5228   4.5603   4.5629   4.6334

     the Fermi energy is     4.0378 ev

!    total energy              =   -2977.70007606 Ry
     estimated scf accuracy    <       0.00000007 Ry
     smearing contrib. (-TS)   =      -0.03674714 Ry
     internal energy E=F+TS    =   -2977.66332892 Ry

     The total energy is F=E-TS. E is the sum of the following terms:
     one-electron contribution =  -23082.93653326 Ry
     hartree contribution      =   11640.62000609 Ry
     xc contribution           =    -496.62628663 Ry
     ewald contribution        =    8961.27608808 Ry
     electric field correction =       0.00339681 Ry

     convergence has been achieved in  69 iterations

     Forces acting on atoms (cartesian axes, Ry/au):

     atom    1 type  1   force =     0.00017919   -0.00019414    0.09313677
     atom    2 type  1   force =    -0.00010220   -0.00033275   -0.17819094
     atom    3 type  2   force =     0.00002132   -0.00018406   -0.02036973
     atom    4 type  2   force =    -0.00002734   -0.00200952    0.05898031
     atom    5 type  2   force =    -0.01060276   -0.00142550    0.00860720
     atom    6 type  2   force =     0.01186944   -0.00070725    0.00714088
     atom    7 type  1   force =    -0.00089383    0.00313284   -0.01229864
     atom    8 type  1   force =     0.00054640    0.00109996   -0.00451397
     atom    9 type  2   force =    -0.00007449   -0.00037203    0.00015522
     atom   10 type  2   force =    -0.00129654   -0.00052419   -0.00193138
     atom   11 type  2   force =    -0.00020836   -0.00021582   -0.00004553
     atom   12 type  2   force =     0.00059809   -0.00007034   -0.00023079
     atom   13 type  1   force =    -0.00103041   -0.00062670    0.00023301
     atom   14 type  1   force =     0.00011947   -0.00004146    0.00017326
     atom   15 type  2   force =    -0.00027599   -0.00050754   -0.00004687
     atom   16 type  2   force =    -0.00000762   -0.00007729    0.00068009
     atom   17 type  2   force =    -0.00029254    0.00025141    0.00053883
     atom   18 type  2   force =     0.00020137    0.00005056    0.00029512
     atom   19 type  1   force =     0.00023203    0.00002750    0.00056013
     atom   20 type  1   force =    -0.00018328   -0.00023929    0.00027322
     atom   21 type  2   force =     0.00007317   -0.00001853    0.10393107
     atom   22 type  2   force =     0.00006337   -0.00022219   -0.00115151
     atom   23 type  2   force =    -0.07036686   -0.00010282   -0.02686801
     atom   24 type  2   force =     0.07024337    0.00034511   -0.02690632
     atom   25 type  1   force =     0.00000220   -0.00021969    0.09277751
     atom   26 type  1   force =    -0.00019978   -0.00036910   -0.17829759
     atom   27 type  2   force =     0.00010414   -0.00028123   -0.01933951
     atom   28 type  2   force =     0.00003813   -0.00162146    0.05805489
     atom   29 type  2   force =    -0.01068112   -0.00080827    0.00800579
     atom   30 type  2   force =     0.01179831   -0.00047894    0.00653073
     atom   31 type  1   force =    -0.00072755    0.00505566   -0.01492489
     atom   32 type  1   force =     0.00040408   -0.00136789   -0.00479206
     atom   33 type  2   force =    -0.00010956    0.00021355    0.00030540
     atom   34 type  2   force =    -0.00128789    0.00141319   -0.00089813
     atom   35 type  2   force =     0.00020445    0.00013084    0.00002967
     atom   36 type  2   force =     0.00010819   -0.00001941   -0.00010669
     atom   37 type  1   force =    -0.00103779    0.00056084    0.00004169
     atom   38 type  1   force =     0.00015066   -0.00015331   -0.00004120
     atom   39 type  2   force =    -0.00002813   -0.00015685    0.00010376
     atom   40 type  2   force =    -0.00020547    0.00020566    0.00025969
     atom   41 type  2   force =    -0.00001355   -0.00016507    0.00038704
     atom   42 type  2   force =    -0.00014475   -0.00006052    0.00007873
     atom   43 type  1   force =     0.00011558    0.00031021    0.00039493
     atom   44 type  1   force =    -0.00010993    0.00024472   -0.00035939
     atom   45 type  2   force =     0.00003973   -0.00005002    0.10392675
     atom   46 type  2   force =    -0.07035761   -0.00006548   -0.02689854
     atom   47 type  2   force =     0.07026916    0.00036233   -0.02693549
     atom   48 type  3   force =    -0.00029856   -0.00030187    0.00016007
     atom   49 type  3   force =    -0.00091007   -0.00039191    0.00025785
     atom   50 type  4   force =     0.00349940    0.00667745   -0.00459828
     atom   51 type  5   force =     0.00052717    0.00031292   -0.00043084
     atom   52 type  5   force =    -0.00256982   -0.00725819    0.00474361
     atom   53 type  5   force =     0.00068633    0.00036716   -0.00044983
     atom   54 type  5   force =     0.00080451   -0.00021559   -0.00028966
     atom   55 type  5   force =     0.00042881    0.00084675   -0.00004312
     atom   56 type  5   force =     0.00004554    0.00033432    0.00033557
     atom   57 type  2   force =    -0.00032500    0.00068852   -0.00060264
     atom   58 type  5   force =     0.00075784   -0.00043400    0.00011799
     atom   59 type  5   force =     0.00023735   -0.00034129    0.00034479

     Total force =     0.366230     Total SCF correction =     0.000871
  @ DRIVER MODE: Message from server: STATUS
  @ DRIVER MODE: Message from server: GETFORCE
  @ DRIVER MODE: Returning v,forces,stress,ensemble

     Writing output data file ./calc.save/
  @ DRIVER MODE: Message from server: EXIT
  @ DRIVE MODE: Exiting

     General routines

     Parallel routines

   This run was terminated on:   1:49:58  16Sep2021

   JOB DONE.