     Program PWSCF v.6.7GPU starts on  9Sep2021 at  0:39:55

     R & G space division:  proc/nbgrp/npool/nimage =      10
     Reading input from /storage/home/hcoda1/3/ntian30/research/carbon/CxH_vib/CH_calc/ads_slab/CH_a/out_0011/pw.inp
Warning: card &CELL ignored
Warning: card   CELL_DYNAMICS='IPI', ignored
Warning: card / ignored

     Current dimensions of program PWSCF are:
     Max number of different atomic species (ntypx) = 10
     Max number of k-points (npk) =  40000
     Max angular momentum in pseudopotentials (lmaxx) =  3
     Presently no symmetry can be used with electric field

     Message from routine cell_base_init:
     DEPRECATED: use true lattice parameter, not A to a.u. conversion factor

     IMPORTANT: XC functional enforced from input :
     Exchange-correlation= BEEF-VDW
                           (   1   4  43  14   2   0   0)
     Any further DFT definition will be discarded
     Please, verify this is what you really want

  @ DRIVER MODE: Connecting to
 qe_1139763_2767381.sched-torque.pace.gatech.edueirepkpj_scratch
  using UNIX socket
  @ DRIVER MODE: Message from server: STATUS
  @ DRIVER MODE: Message from server: INIT
  @ DRIVER MODE: Receiving replica           0          -1
  @ DRIVER MODE: Receiving encoded integer          25
  @ DRIVER MODE:  SCF:  T  FORCE:  T  STRESS:  F  VC:  F  ENSEMBLE:  F
  @ DRIVER MODE:  SCF:  T  FORCE:  T  STRESS:  F  VC:  F  ENSEMBLE:  F

     Using Slab Decomposition

     bravais-lattice index     =            0
     lattice parameter (alat)  =       1.8897  a.u.
     unit-cell volume          =    6658.9804 (a.u.)^3
     number of atoms/cell      =           49
     number of atomic types    =            4
     number of electrons       =       383.00
     number of Kohn-Sham states=          201
     kinetic-energy cutoff     =      29.3995  Ry
     charge density cutoff     =     293.9946  Ry
     scf convergence threshold =      7.3E-08
     mixing beta               =       0.0500
     number of iterations used =            8  plain     mixing
     Exchange-correlation= BEEF-VDW
                           (   1   4  43  14   2   0   0)

     celldm(1)=   1.889726  celldm(2)=   0.000000  celldm(3)=   0.000000
     celldm(4)=   0.000000  celldm(5)=   0.000000  celldm(6)=   0.000000

     crystal axes: (cart. coord. in units of alat)
               a(1) = (   6.579727   0.000000   0.000000 )
               a(2) = (  -0.000775   5.961596   0.000000 )
               a(3) = (   0.000000   0.000000  25.155947 )

     reciprocal axes: (cart. coord. in units 2 pi/alat)
               b(1) = (  0.151982  0.000020  0.000000 )
               b(2) = (  0.000000  0.167740  0.000000 )
               b(3) = (  0.000000  0.000000  0.039752 )

     PseudoPot. # 1 for Ti read from file:
     /storage/coda1/p-amedford6/0/shared/rich_project_chbe-medford/medford-share/data/pseudos_module/espresso/nninc/pbe/van/Ti.UPF
     MD5 check sum: 8e4df49b7f0d34bbd5052bf3f5ea0213
     Pseudo is Ultrasoft, Zval = 12.0
     Generated by new atomic code, or converted to UPF format
     Using radial grid of  851 points,  6 beta functions with:
                l(1) =   0
                l(2) =   0
                l(3) =   1
                l(4) =   1
                l(5) =   2
                l(6) =   2
     Q(r) pseudized with  8 coefficients,  rinner =    1.000   1.000   1.000
                                                       1.000   1.000

     PseudoPot. # 2 for O  read from file:
     /storage/coda1/p-amedford6/0/shared/rich_project_chbe-medford/medford-share/data/pseudos_module/espresso/nninc/pbe/van/O.UPF
     MD5 check sum: 78c19812648e8988a0fe644b0f25305e
     Pseudo is Ultrasoft, Zval =  6.0
     Generated by new atomic code, or converted to UPF format
     Using radial grid of  737 points,  4 beta functions with:
                l(1) =   0
                l(2) =   0
                l(3) =   1
                l(4) =   1
     Q(r) pseudized with  8 coefficients,  rinner =    0.800   0.800   0.800

     PseudoPot. # 3 for C  read from file:
     /storage/coda1/p-amedford6/0/shared/rich_project_chbe-medford/medford-share/data/pseudos_module/espresso/nninc/pbe/van/C.UPF
     MD5 check sum: 1a69bf6b8db32088f5b2163dbdb77a27
     Pseudo is Ultrasoft, Zval =  4.0
     Generated by new atomic code, or converted to UPF format
     Using radial grid of  721 points,  4 beta functions with:
                l(1) =   0
                l(2) =   0
                l(3) =   1
                l(4) =   1
     Q(r) pseudized with  8 coefficients,  rinner =    0.800   0.800   0.800

     PseudoPot. # 4 for H  read from file:
     /storage/coda1/p-amedford6/0/shared/rich_project_chbe-medford/medford-share/data/pseudos_module/espresso/nninc/pbe/van/H.UPF
     MD5 check sum: b5ee9d7bfd3a09ee7748110bda690ff7
     Pseudo is Ultrasoft, Zval =  1.0
     Generated by new atomic code, or converted to UPF format
     Using radial grid of  615 points,  1 beta functions with:
                l(1) =   0
     Q(r) pseudized with  8 coefficients,  rinner =    0.800

     atomic species   valence    mass     pseudopotential
        Ti1           12.00    47.86700     Ti( 1.00)
        O1             6.00    15.99900     O ( 1.00)
        C1             4.00    12.01100     C ( 1.00)
        H1             1.00     1.00800     H ( 1.00)

     No symmetry found

   Cartesian axes

     site n.     atom                  positions (alat units)
         1           Ti1 tau(   1) = (   0.0004258   2.9801865   6.0000000  )
         2           Ti1 tau(   2) = (   3.2906075   1.4906267   6.0002472  )
         3           O1  tau(   3) = (   0.0006271   0.0005054   7.9858123  )
         4           O1  tau(   4) = (   3.2906025   0.0005020   7.3038282  )
         5           O1  tau(   5) = (   4.5942328   1.4918067   9.2879030  )
         6           O1  tau(   6) = (   1.9868534   1.4903216   9.2879459  )
         7           Ti1 tau(   7) = (   3.2921849   2.8658251   9.1648892  )
         8           Ti1 tau(   8) = (   0.0073351   1.4983988   9.3831490  )
         9           O1  tau(   9) = (   3.2842540   0.0070318  11.3521760  )
        10           O1  tau(  10) = (   0.0010487   0.0043113  10.5580200  )
        11           O1  tau(  11) = (   1.2736759   1.5124129  12.6486185  )
        12           O1  tau(  12) = (   5.2630300   1.5084811  12.6300625  )
        13           Ti1 tau(  13) = (   0.0799159   2.9885021  12.8537609  )
        14           Ti1 tau(  14) = (   3.3962166   1.4899997  12.4930974  )
        15           O1  tau(  15) = (   6.5670857   5.9608082  14.6055349  )
        16           O1  tau(  16) = (   3.2779887   0.0262294  13.9455360  )
        17           O1  tau(  17) = (   4.5047259   1.5524619  16.1062024  )
        18           O1  tau(  18) = (   2.0328015   1.5482461  16.0993997  )
        19           Ti1 tau(  19) = (   3.2588990   3.0258902  15.7259251  )
        20           Ti1 tau(  20) = (   6.5443225   1.5921241  16.1654916  )
        21           O1  tau(  21) = (   3.2904802   0.0005063   4.7018136  )
        22           O1  tau(  22) = (   6.5577444   0.0567680  17.2452940  )
        23           O1  tau(  23) = (   1.3043587   1.4918075   6.0039043  )
        24           O1  tau(  24) = (   5.2767064   1.4903225   6.0039473  )
        25           Ti1 tau(  25) = (   0.0000382   5.9609847   6.0000000  )
        26           Ti1 tau(  26) = (   3.2902200   4.4714249   6.0002472  )
        27           O1  tau(  27) = (   0.0002396   2.9813036   7.9858123  )
        28           O1  tau(  28) = (   3.2902150   2.9813002   7.3038282  )
        29           O1  tau(  29) = (   4.5938453   4.4726049   9.2879030  )
        30           O1  tau(  30) = (   1.9864658   4.4711199   9.2879459  )
        31           Ti1 tau(  31) = (   3.2960881   5.8478476   9.1648656  )
        32           Ti1 tau(  32) = (   0.0086818   4.4758218   9.3788328  )
        33           O1  tau(  33) = (   3.2854246   2.9850844  11.3450670  )
        34           O1  tau(  34) = (   0.0004502   2.9836692  10.5560002  )
        35           O1  tau(  35) = (   1.2751814   4.4662498  12.6462591  )
        36           O1  tau(  36) = (   5.2612828   4.4711168  12.6263095  )
        37           Ti1 tau(  37) = (   0.0650160   0.0072273  12.8037121  )
        38           Ti1 tau(  38) = (   3.3952379   4.4681493  12.4860303  )
        39           O1  tau(  39) = (   6.5700874   2.9943110  14.6990684  )
        40           O1  tau(  40) = (   3.2774739   3.0059374  13.9302241  )
        41           O1  tau(  41) = (   4.5038310   4.5165569  16.1051355  )
        42           O1  tau(  42) = (   2.0336826   4.5180826  16.0999700  )
        43           Ti1 tau(  43) = (   3.2582433   0.0441072  15.7465997  )
        44           Ti1 tau(  44) = (   6.5393581   4.6163053  16.1595090  )
        45           O1  tau(  45) = (   3.2900926   2.9813045   4.7018136  )
        46           O1  tau(  46) = (   1.3039711   4.4726057   6.0039043  )
        47           O1  tau(  47) = (   5.2763189   4.4711207   6.0039473  )
        48           C1  tau(  48) = (   6.5669965   3.0274956  17.5143990  )
        49           H1  tau(  49) = (   0.0036594   3.1884539  18.5831066  )

     number of k points=    10  Fermi-Dirac smearing, width (Ry)=  0.0073
                       cart. coord. in units 2pi/alat
        k(    1) = (   0.0000000   0.0000000   0.0000000), wk =   0.1250000
        k(    2) = (   0.0000000   0.0419351   0.0000000), wk =   0.2500000
        k(    3) = (   0.0000000  -0.0838702   0.0000000), wk =   0.1250000
        k(    4) = (   0.0379955   0.0000049   0.0000000), wk =   0.2500000
        k(    5) = (   0.0379955   0.0419400   0.0000000), wk =   0.2500000
        k(    6) = (   0.0379955  -0.0838652   0.0000000), wk =   0.2500000
        k(    7) = (   0.0379955  -0.0419301   0.0000000), wk =   0.2500000
        k(    8) = (  -0.0759910  -0.0000099   0.0000000), wk =   0.1250000
        k(    9) = (  -0.0759910   0.0419252   0.0000000), wk =   0.2500000
        k(   10) = (  -0.0759910  -0.0838800   0.0000000), wk =   0.1250000

     Initial potential from superposition of free atoms

     starting charge  366.99920, renormalised to  383.00000

     negative rho (up, down):  2.158E-02 0.000E+00

     %%%%%%%%%%%%%%%%%%%%%%%%%%%%%%%%%%%%%%%%%%%%%%%%%%%%%%%%%%%%%%%%%%%%%%%%
     %                                                                      %
     % You are using vdW-DF, which was implemented by the Thonhauser group. %
     % Please cite the following two papers that made this development      %
     % possible and the two reviews that describe the various versions:     %
     %                                                                      %
     %   T. Thonhauser et al., PRL 115, 136402 (2015).                      %
     %   T. Thonhauser et al., PRB 76, 125112 (2007).                       %
     %   K. Berland et al., Rep. Prog. Phys. 78, 066501 (2015).             %
     %   D.C. Langreth et al., J. Phys.: Condens. Matter 21, 084203 (2009). %
     %                                                                      %
     %                                                                      %
     % If you are calculating the stress with vdW-DF, please also cite:     %
     %                                                                      %
     %   R. Sabatini et al., J. Phys.: Condens. Matter 24, 424209 (2012).   %
     %                                                                      %
     %%%%%%%%%%%%%%%%%%%%%%%%%%%%%%%%%%%%%%%%%%%%%%%%%%%%%%%%%%%%%%%%%%%%%%%%

     Adding external electric field

     Computed dipole along edir(3) :
        Dipole                0.0509 Ry au,          0.1294 Debye
        Dipole field          0.0001 Ry au,

        Potential amp.       -0.0089 Ry
        Total length         46.3494 bohr

     Starting wfcs are  289 atomic wfcs
  @ DRIVER MODE: Message from server: STATUS
  @ DRIVER MODE: Message from server: POSDATA
  @ DRIVER MODE: Reading and sharing cell
  @ DRIVER MODE: Reading and sharing positions
  @ DRIVER MODE: Received positions

     Self-consistent Calculation

     iteration #  1     ecut=    29.40 Ry     beta= 0.05
     Davidson diagonalization with overlap
     c_bands:  1 eigenvalues not converged
     c_bands:  1 eigenvalues not converged
     c_bands:  1 eigenvalues not converged
     c_bands:  1 eigenvalues not converged
     c_bands:  1 eigenvalues not converged
     c_bands:  1 eigenvalues not converged
     c_bands:  1 eigenvalues not converged
     ethr =  1.00E-05,  avg # of iterations = 19.6

[...]

     total energy              =   -2897.81096281 Ry
     estimated scf accuracy    <      11.76266440 Ry

     iteration #  2     ecut=    29.40 Ry     beta= 0.05
     Davidson diagonalization with overlap
     ethr =  3.07E-03,  avg # of iterations =  1.0

[...]

     iteration # 45     ecut=    29.40 Ry     beta= 0.05
     Davidson diagonalization with overlap
     c_bands:  1 eigenvalues not converged
     c_bands:  1 eigenvalues not converged
     ethr =  1.00E-06,  avg # of iterations =  6.9

[...]

     total energy              =   -2896.37503540 Ry
     estimated scf accuracy    <       0.00000012 Ry

     iteration # 71     ecut=    29.40 Ry     beta= 0.05
     Davidson diagonalization with overlap
     ethr =  2.93E-11,  avg # of iterations =  6.0

     negative rho (up, down):  2.071E-02 0.000E+00

     Adding external electric field

     Computed dipole along edir(3) :
        Dipole                0.3689 Ry au,          0.9377 Debye
        Dipole field          0.0007 Ry au,

        Potential amp.       -0.0645 Ry
        Total length         46.3494 bohr

     End of self-consistent calculation

          k = 0.0000 0.0000 0.0000 ( 18029 PWs)   bands (ev):

   -56.6407 -56.6069 -56.3432 -56.3063 -56.2277 -56.1667 -56.0432 -56.0404
   -56.0061 -55.9457 -55.9362 -55.9094 -55.4379 -55.4040 -55.3538 -55.2683
   -33.0691 -32.8871 -32.8864 -32.8587 -32.8327 -32.7414 -32.6959 -32.6805
   -32.6500 -32.5578 -32.5452 -32.5380 -32.5237 -32.5203 -32.5131 -32.4962
   -32.4732 -32.4556 -32.4452 -32.3498 -32.3122 -32.2891 -32.2870 -32.2766
   -32.2627 -32.2596 -32.1977 -32.1942 -32.1683 -32.1621 -32.1548 -32.1308
   -32.1227 -32.1129 -32.0995 -32.0418 -31.8961 -31.8383 -31.7632 -31.7394
   -31.6568 -31.6258 -31.5873 -31.5718 -31.5609 -31.4851 -31.4597 -31.3415
   -16.9977 -16.8095 -16.5774 -16.4422 -16.3522 -16.2792 -16.0123 -16.0102
   -15.9641 -15.8917 -15.8639 -15.8012 -15.7980 -15.7718 -15.7609 -15.7513
   -15.7326 -15.6846 -15.6683 -15.6405 -15.6072 -15.5662 -15.4441 -15.4244
   -15.4083 -15.2941 -15.2445 -15.2063 -15.0231 -13.9308 -13.8167  -7.8210
    -4.4001  -4.3416  -4.1874  -4.1642  -4.0710  -3.8269  -3.6998  -3.4772
    -3.4361  -3.4054  -3.3905  -3.3243  -3.2651  -3.1588  -3.1418  -3.1221
    -3.0800  -3.0715  -3.0494  -3.0362  -3.0108  -2.9704  -2.8875  -2.8487
    -2.8294  -2.7501  -2.7228  -2.6456  -2.6192  -2.5750  -2.5496  -2.4904
    -2.4839  -2.4202  -2.3496  -2.2912  -2.1397  -2.0993  -2.0908  -2.0838
    -2.0131  -1.9040  -1.7632  -1.7289  -1.6621  -1.6604  -1.6426  -1.6058
    -1.5146  -1.4966  -1.4109  -1.3046  -1.2953  -1.2449  -1.1912  -1.1503
    -1.1335  -1.1330  -1.0759  -1.0451  -1.0078  -0.8831  -0.8536  -0.7340
    -0.7166  -0.6816  -0.6443  -0.6393  -0.5888  -0.5306  -0.4774  -0.4469
    -0.4255  -0.3785  -0.3682  -0.3330  -0.3103  -0.2555  -0.1407  -0.1169
    -0.1063  -0.0416   0.1435   0.1689   0.2118   0.3011   0.3495   0.5114
     0.5321   0.5908   0.7989   0.8354   1.1813   1.2613   1.5394   2.2804
     2.6271   2.8219   3.0823   3.1186   3.1360   3.1677   3.3424   3.3782
     3.5225

[...]

          k = 0.0380-0.0419 0.0000 ( 17876 PWs)   bands (ev):

[...]

          k =-0.0760-0.0000 0.0000 ( 17886 PWs)   bands (ev):

[...]

          k =-0.0760-0.0839 0.0000 ( 17948 PWs)   bands (ev):

   -56.6259 -56.6216 -56.3291 -56.3203 -56.2222 -56.1720 -56.0403 -56.0257
   -56.0206 -55.9390 -55.9320 -55.9230 -55.4209 -55.4209 -55.3501 -55.2719
   -32.8882 -32.8847 -32.8752 -32.8699 -32.7872 -32.7835 -32.6941 -32.6874
   -32.6054 -32.5946 -32.5374 -32.5274 -32.5253 -32.5171 -32.4918 -32.4647
   -32.4281 -32.3739 -32.3607 -32.3532 -32.3494 -32.2849 -32.2761 -32.2702
   -32.2679 -32.2593 -32.2521 -32.2435 -32.2318 -32.2264 -32.1839 -32.1753
   -32.1432 -32.1420 -32.1349 -32.1339 -31.7940 -31.7523 -31.7523 -31.6524
   -31.6524 -31.6349 -31.6241 -31.6144 -31.6144 -31.5642 -31.5056 -31.3816
   -16.4534 -16.4347 -16.2208 -16.2116 -16.1129 -16.1125 -16.1117 -16.1093
   -16.0091 -16.0063 -15.9343 -15.9200 -15.8641 -15.8562 -15.8210 -15.8191
   -15.7979 -15.7946 -15.7527 -15.7460 -15.6174 -15.6153 -15.5094 -15.5056
   -15.4666 -15.4261 -15.3864 -15.3759 -15.1595 -13.9191 -13.9187  -7.8235
    -3.7514  -3.7206  -3.4362  -3.4324  -3.2507  -3.2474  -3.2464  -3.2268
    -3.1829  -3.1528  -3.1432  -3.1183  -3.0871  -3.0437  -3.0329  -3.0131
    -3.0084  -3.0027  -2.9899  -2.9887  -2.9656  -2.9566  -2.9044  -2.8830
    -2.8725  -2.8629  -2.8137  -2.8123  -2.7094  -2.5863  -2.5382  -2.5341
    -2.4851  -2.4509  -2.3672  -2.3646  -2.3358  -2.3196  -2.2731  -2.1697
    -2.0379  -2.0354  -1.9938  -1.9598  -1.8959  -1.8184  -1.7165  -1.6503
    -1.6190  -1.5894  -1.5231  -1.4657  -1.4576  -1.4385  -1.4279  -1.4197
    -1.4058  -1.3096  -1.2973  -1.2259  -1.1887  -1.1786  -1.1688  -1.1362
    -1.1105  -1.0468  -0.9511  -0.9484  -0.9365  -0.9086  -0.8052  -0.7602
    -0.7031  -0.6519  -0.6063  -0.3580  -0.3555  -0.2016  -0.0928  -0.0306
     0.0345   0.0587   0.1013   0.1667   0.2286   0.2337   0.2607   0.2632
     0.3590   0.3615   0.9769   0.9774   1.0359   1.0370   1.7710   2.2232
     3.1071   3.1502   3.1678   3.1731   3.1981   3.2260   3.2443   3.2547
     3.5891

     the Fermi energy is     2.1456 ev

!    total energy              =   -2896.37504862 Ry
     estimated scf accuracy    <       0.00000005 Ry
     smearing contrib. (-TS)   =      -0.01052646 Ry
     internal energy E=F+TS    =   -2896.36452216 Ry

     The total energy is F=E-TS. E is the sum of the following terms:
     one-electron contribution =  -24784.17242990 Ry
     hartree contribution      =   12470.11865445 Ry
     xc contribution           =    -472.98841745 Ry
     ewald contribution        =    9890.67741389 Ry
     electric field correction =       0.00025685 Ry

     convergence has been achieved in  71 iterations

     Forces acting on atoms (cartesian axes, Ry/au):

     atom    1 type  1   force =     0.00018918   -0.00055722    0.14916282
     atom    2 type  1   force =    -0.00002394   -0.00030820   -0.17025521
     atom    3 type  2   force =     0.00005970    0.00011853   -0.06123137
     atom    4 type  2   force =     0.00010933   -0.00167379    0.04072924
     atom    5 type  2   force =    -0.02328276    0.00031096    0.00410579
     atom    6 type  2   force =     0.02300196    0.00151980    0.00331235
     atom    7 type  1   force =    -0.00054845    0.00074046    0.00017196
     atom    8 type  1   force =     0.00020525    0.00084642   -0.00021745
     atom    9 type  2   force =    -0.00006060    0.00009718   -0.00048231
     atom   10 type  2   force =    -0.00002979   -0.00051102    0.00032128
     atom   11 type  2   force =    -0.00023812    0.00047001    0.00029992
     atom   12 type  2   force =     0.00033485    0.00011892    0.00024618
     atom   13 type  1   force =     0.00033021    0.00064995   -0.00094023
     atom   14 type  1   force =    -0.00045487    0.00096984   -0.00029525
     atom   15 type  2   force =     0.00013159   -0.00004739   -0.00019952
     atom   16 type  2   force =     0.00013485   -0.00026114   -0.00004840
     atom   17 type  2   force =     0.00074278    0.00015743    0.00010727
     atom   18 type  2   force =    -0.00066539    0.00025556    0.00008952
     atom   19 type  1   force =     0.00001008   -0.00107572    0.00057173
     atom   20 type  1   force =     0.00006294   -0.00035999    0.00078097
     atom   21 type  2   force =     0.00008119   -0.00018342    0.10248783
     atom   22 type  2   force =    -0.00005414    0.00037835   -0.00033222
     atom   23 type  2   force =    -0.07442086    0.00019568   -0.03478775
     atom   24 type  2   force =     0.07437866    0.00062478   -0.03483803
     atom   25 type  1   force =    -0.00004094   -0.00050940    0.15020693
     atom   26 type  1   force =    -0.00002010   -0.00070682   -0.17020199
     atom   27 type  2   force =     0.00007298    0.00063709   -0.06044111
     atom   28 type  2   force =     0.00002938   -0.00162004    0.04017415
     atom   29 type  2   force =    -0.02285927    0.00144600    0.00428162
     atom   30 type  2   force =     0.02313014    0.00224129    0.00348029
     atom   31 type  1   force =    -0.00054457    0.00012572   -0.00080076
     atom   32 type  1   force =     0.00023134   -0.00111021    0.00050008
     atom   33 type  2   force =     0.00025711   -0.00007993    0.00121185
     atom   34 type  2   force =    -0.00004232    0.00058976   -0.00024710
     atom   35 type  2   force =    -0.00097486   -0.00042440    0.00004623
     atom   36 type  2   force =     0.00099893   -0.00022845    0.00011698
     atom   37 type  1   force =    -0.00004552   -0.00007190   -0.00022785
     atom   38 type  1   force =    -0.00070105   -0.00076789    0.00032423
     atom   39 type  2   force =    -0.00004232   -0.00019834   -0.00017243
     atom   40 type  2   force =     0.00009575   -0.00016157   -0.00075828
     atom   41 type  2   force =     0.00072800   -0.00035114    0.00048633
     atom   42 type  2   force =    -0.00072832   -0.00044051    0.00051478
     atom   43 type  1   force =    -0.00001042    0.00082952   -0.00090923
     atom   44 type  1   force =     0.00016981   -0.00046001    0.00052901
     atom   45 type  2   force =     0.00007184   -0.00018427    0.10247787
     atom   46 type  2   force =    -0.07441072   -0.00013781   -0.03479407
     atom   47 type  2   force =     0.07436488    0.00030678   -0.03484728
     atom   48 type  3   force =    -0.00017888   -0.00271748   -0.01150545
     atom   49 type  4   force =     0.00045550    0.00151802    0.01179604

     Total force =     0.404897     Total SCF correction =     0.000590
  @ DRIVER MODE: Message from server: STATUS
  @ DRIVER MODE: Message from server: GETFORCE
  @ DRIVER MODE: Returning v,forces,stress,ensemble

     Writing output data file ./calc.save/
  @ DRIVER MODE: Message from server: EXIT
  @ DRIVE MODE: Exiting

     General routines

     Parallel routines

   This run was terminated on:   0:55:45   9Sep2021

   JOB DONE.