     Program PWSCF v.6.7GPU starts on 26Sep2021 at  8:52:34

     R & G space division:  proc/nbgrp/npool/nimage =       8
     Reading input from /storage/home/hcoda1/3/ntian30/research/carbon/CxH_vib/H2O_calc/ads_slab/CH3OHN2HO_a/out_0032/pw.inp
Warning: card &CELL ignored
Warning: card   CELL_DYNAMICS='IPI', ignored
Warning: card / ignored

     Current dimensions of program PWSCF are:
     Max number of different atomic species (ntypx) = 10
     Max number of k-points (npk) =  40000
     Max angular momentum in pseudopotentials (lmaxx) =  3
     Presently no symmetry can be used with electric field

     Message from routine cell_base_init:
     DEPRECATED: use true lattice parameter, not A to a.u. conversion factor

     IMPORTANT: XC functional enforced from input :
     Exchange-correlation= BEEF-VDW
                           (   1   4  43  14   2   0   0)
     Any further DFT definition will be discarded
     Please, verify this is what you really want

  @ DRIVER MODE: Connecting to
 qe_1139763_2971668.sched-torque.pace.gatech.edunciuubys_scratch
  using UNIX socket
  @ DRIVER MODE: Message from server: STATUS
  @ DRIVER MODE: Message from server: INIT
  @ DRIVER MODE: Receiving replica           0          -1
  @ DRIVER MODE: Receiving encoded integer          25
  @ DRIVER MODE:  SCF:  T  FORCE:  T  STRESS:  F  VC:  F  ENSEMBLE:  F
  @ DRIVER MODE:  SCF:  T  FORCE:  T  STRESS:  F  VC:  F  ENSEMBLE:  F

     Using Slab Decomposition

     bravais-lattice index     =            0
     lattice parameter (alat)  =       1.8897  a.u.
     unit-cell volume          =    6658.9804 (a.u.)^3
     number of atoms/cell      =           57
     number of atomic types    =            5
     number of electrons       =       409.00
     number of Kohn-Sham states=          214
     kinetic-energy cutoff     =      29.3995  Ry
     charge density cutoff     =     293.9946  Ry
     scf convergence threshold =      7.3E-08
     mixing beta               =       0.0500
     number of iterations used =            8  plain     mixing
     Exchange-correlation= BEEF-VDW
                           (   1   4  43  14   2   0   0)

     celldm(1)=   1.889726  celldm(2)=   0.000000  celldm(3)=   0.000000
     celldm(4)=   0.000000  celldm(5)=   0.000000  celldm(6)=   0.000000

     crystal axes: (cart. coord. in units of alat)
               a(1) = (   6.579727   0.000000   0.000000 )
               a(2) = (  -0.000775   5.961596   0.000000 )
               a(3) = (   0.000000   0.000000  25.155947 )

     reciprocal axes: (cart. coord. in units 2 pi/alat)
               b(1) = (  0.151982  0.000020  0.000000 )
               b(2) = (  0.000000  0.167740  0.000000 )
               b(3) = (  0.000000  0.000000  0.039752 )

     PseudoPot. # 1 for Ti read from file:
     /storage/coda1/p-amedford6/0/shared/rich_project_chbe-medford/medford-share/data/pseudos_module/espresso/nninc/pbe/van/Ti.UPF
     MD5 check sum: 8e4df49b7f0d34bbd5052bf3f5ea0213
     Pseudo is Ultrasoft, Zval = 12.0
     Generated by new atomic code, or converted to UPF format
     Using radial grid of  851 points,  6 beta functions with:
                l(1) =   0
                l(2) =   0
                l(3) =   1
                l(4) =   1
                l(5) =   2
                l(6) =   2
     Q(r) pseudized with  8 coefficients,  rinner =    1.000   1.000   1.000
                                                       1.000   1.000

     PseudoPot. # 2 for O  read from file:
     /storage/coda1/p-amedford6/0/shared/rich_project_chbe-medford/medford-share/data/pseudos_module/espresso/nninc/pbe/van/O.UPF
     MD5 check sum: 78c19812648e8988a0fe644b0f25305e
     Pseudo is Ultrasoft, Zval =  6.0
     Generated by new atomic code, or converted to UPF format
     Using radial grid of  737 points,  4 beta functions with:
                l(1) =   0
                l(2) =   0
                l(3) =   1
                l(4) =   1
     Q(r) pseudized with  8 coefficients,  rinner =    0.800   0.800   0.800

     PseudoPot. # 3 for C  read from file:
     /storage/coda1/p-amedford6/0/shared/rich_project_chbe-medford/medford-share/data/pseudos_module/espresso/nninc/pbe/van/C.UPF
     MD5 check sum: 1a69bf6b8db32088f5b2163dbdb77a27
     Pseudo is Ultrasoft, Zval =  4.0
     Generated by new atomic code, or converted to UPF format
     Using radial grid of  721 points,  4 beta functions with:
                l(1) =   0
                l(2) =   0
                l(3) =   1
                l(4) =   1
     Q(r) pseudized with  8 coefficients,  rinner =    0.800   0.800   0.800

     PseudoPot. # 4 for H  read from file:
     /storage/coda1/p-amedford6/0/shared/rich_project_chbe-medford/medford-share/data/pseudos_module/espresso/nninc/pbe/van/H.UPF
     MD5 check sum: b5ee9d7bfd3a09ee7748110bda690ff7
     Pseudo is Ultrasoft, Zval =  1.0
     Generated by new atomic code, or converted to UPF format
     Using radial grid of  615 points,  1 beta functions with:
                l(1) =   0
     Q(r) pseudized with  8 coefficients,  rinner =    0.800

     PseudoPot. # 5 for N  read from file:
     /storage/coda1/p-amedford6/0/shared/rich_project_chbe-medford/medford-share/data/pseudos_module/espresso/nninc/pbe/van/N.UPF
     MD5 check sum: 90d10febe142ad51ac9d5be1deb811c4
     Pseudo is Ultrasoft, Zval =  5.0
     Generated by new atomic code, or converted to UPF format
     Using radial grid of  729 points,  4 beta functions with:
                l(1) =   0
                l(2) =   0
                l(3) =   1
                l(4) =   1
     Q(r) pseudized with  8 coefficients,  rinner =    0.800   0.800   0.800

     atomic species   valence    mass     pseudopotential
        Ti1           12.00    47.86700     Ti( 1.00)
        O1             6.00    15.99900     O ( 1.00)
        C1             4.00    12.01100     C ( 1.00)
        H1             1.00     1.00800     H ( 1.00)
        N1             5.00    14.00700     N ( 1.00)

     No symmetry found

   Cartesian axes

     site n.     atom                  positions (alat units)
         1           Ti1 tau(   1) = (   0.0004258   2.9801865   6.0000000  )
         2           Ti1 tau(   2) = (   3.2906075   1.4906267   6.0002472  )
         3           O1  tau(   3) = (   0.0006271   0.0005054   7.9858123  )
         4           O1  tau(   4) = (   3.2906025   0.0005020   7.3038282  )
         5           O1  tau(   5) = (   4.5942328   1.4918067   9.2879030  )
         6           O1  tau(   6) = (   1.9868534   1.4903216   9.2879459  )
         7           Ti1 tau(   7) = (   3.3371032   3.0268772   9.1887580  )
         8           Ti1 tau(   8) = (   0.0611061   1.5258697   9.2809523  )
         9           O1  tau(   9) = (   3.3143856   0.0188946  11.3581724  )
        10           O1  tau(  10) = (   0.0164151   0.0031400  10.5895864  )
        11           O1  tau(  11) = (   1.3088961   1.4994640  12.6347600  )
        12           O1  tau(  12) = (   5.3347766   1.4946156  12.6347356  )
        13           Ti1 tau(  13) = (   0.0202478   3.0292801  12.5720800  )
        14           Ti1 tau(  14) = (   3.3188568   1.5851219  12.4260843  )
        15           O1  tau(  15) = (   0.0445434   5.9450813  14.6510506  )
        16           O1  tau(  16) = (   3.3207065   5.8849141  14.0104376  )
        17           O1  tau(  17) = (   4.6249962   1.5116716  16.1313945  )
        18           O1  tau(  18) = (   2.0639035   1.5439872  16.0680944  )
        19           Ti1 tau(  19) = (   3.3360141   2.9454253  15.6763505  )
        20           Ti1 tau(  20) = (   0.0686920   1.3314864  15.9334539  )
        21           O1  tau(  21) = (   3.2904802   0.0005063   4.7018136  )
        22           O1  tau(  22) = (   0.0979609   0.0039778  17.1657837  )
        23           O1  tau(  23) = (   1.3043587   1.4918075   6.0039043  )
        24           O1  tau(  24) = (   5.2767064   1.4903225   6.0039473  )
        25           Ti1 tau(  25) = (   0.0000382   5.9609847   6.0000000  )
        26           Ti1 tau(  26) = (   3.2902200   4.4714249   6.0002472  )
        27           O1  tau(  27) = (   0.0002396   2.9813036   7.9858123  )
        28           O1  tau(  28) = (   3.2902150   2.9813002   7.3038282  )
        29           O1  tau(  29) = (   4.5938453   4.4726049   9.2879030  )
        30           O1  tau(  30) = (   1.9864658   4.4711199   9.2879459  )
        31           Ti1 tau(  31) = (   3.3368545   0.0404040   9.1664313  )
        32           Ti1 tau(  32) = (   0.0604674   4.4799263   9.2696248  )
        33           O1  tau(  33) = (   3.3137611   2.9662427  11.3084074  )
        34           O1  tau(  34) = (   0.0134136   2.9850836  10.6046154  )
        35           O1  tau(  35) = (   1.3054726   4.4719986  12.6384794  )
        36           O1  tau(  36) = (   5.3362180   4.4781181  12.6390536  )
        37           Ti1 tau(  37) = (   0.0365240   0.0487139  12.4702884  )
        38           Ti1 tau(  38) = (   3.3180881   4.6653017  12.7087268  )
        39           O1  tau(  39) = (   0.0228105   2.9918545  14.7761892  )
        40           O1  tau(  40) = (   3.3431522   2.9700269  13.9040455  )
        41           O1  tau(  41) = (   4.6265974   4.4152401  16.1544535  )
        42           O1  tau(  42) = (   2.0571238   4.3592187  16.1146037  )
        43           Ti1 tau(  43) = (   3.3848590   5.9294639  16.2700006  )
        44           Ti1 tau(  44) = (   0.0517009   4.5268197  15.8466567  )
        45           O1  tau(  45) = (   3.2900926   2.9813045   4.7018136  )
        46           O1  tau(  46) = (   1.3039711   4.4726057   6.0039043  )
        47           O1  tau(  47) = (   5.2763189   4.4711207   6.0039473  )
        48           C1  tau(  48) = (   5.9450987   3.0517216  18.8599509  )
        49           O1  tau(  49) = (   0.1802289   3.0084098  17.6484507  )
        50           H1  tau(  50) = (   4.9625852   2.6832861  18.5889656  )
        51           H1  tau(  51) = (   1.1163247   3.1442434  17.8758057  )
        52           H1  tau(  52) = (   6.3899442   2.3914015  19.6026461  )
        53           H1  tau(  53) = (   5.8946647   4.0795385  19.2151274  )
        54           N1  tau(  54) = (   5.7598779   3.1323611  22.9045362  )
        55           N1  tau(  55) = (   4.9845974   3.1850264  22.1203839  )
        56           O1  tau(  56) = (   3.1467188   0.0118795  18.1166202  )
        57           H1  tau(  57) = (   2.2164505   0.0865285  18.3868412  )

     number of k points=    10  Fermi-Dirac smearing, width (Ry)=  0.0073
                       cart. coord. in units 2pi/alat
        k(    1) = (   0.0000000   0.0000000   0.0000000), wk =   0.1250000
        k(    2) = (   0.0000000   0.0419351   0.0000000), wk =   0.2500000
        k(    3) = (   0.0000000  -0.0838702   0.0000000), wk =   0.1250000
        k(    4) = (   0.0379955   0.0000049   0.0000000), wk =   0.2500000
        k(    5) = (   0.0379955   0.0419400   0.0000000), wk =   0.2500000
        k(    6) = (   0.0379955  -0.0838652   0.0000000), wk =   0.2500000
        k(    7) = (   0.0379955  -0.0419301   0.0000000), wk =   0.2500000
        k(    8) = (  -0.0759910  -0.0000099   0.0000000), wk =   0.1250000
        k(    9) = (  -0.0759910   0.0419252   0.0000000), wk =   0.2500000
        k(   10) = (  -0.0759910  -0.0838800   0.0000000), wk =   0.1250000

     Initial potential from superposition of free atoms

     starting charge  392.99914, renormalised to  409.00000

     negative rho (up, down):  9.138E-03 0.000E+00

     %%%%%%%%%%%%%%%%%%%%%%%%%%%%%%%%%%%%%%%%%%%%%%%%%%%%%%%%%%%%%%%%%%%%%%%%
     %                                                                      %
     % You are using vdW-DF, which was implemented by the Thonhauser group. %
     % Please cite the following two papers that made this development      %
     % possible and the two reviews that describe the various versions:     %
     %                                                                      %
     %   T. Thonhauser et al., PRL 115, 136402 (2015).                      %
     %   T. Thonhauser et al., PRB 76, 125112 (2007).                       %
     %   K. Berland et al., Rep. Prog. Phys. 78, 066501 (2015).             %
     %   D.C. Langreth et al., J. Phys.: Condens. Matter 21, 084203 (2009). %
     %                                                                      %
     %                                                                      %
     % If you are calculating the stress with vdW-DF, please also cite:     %
     %                                                                      %
     %   R. Sabatini et al., J. Phys.: Condens. Matter 24, 424209 (2012).   %
     %                                                                      %
     %%%%%%%%%%%%%%%%%%%%%%%%%%%%%%%%%%%%%%%%%%%%%%%%%%%%%%%%%%%%%%%%%%%%%%%%

     Adding external electric field

     Computed dipole along edir(3) :
        Dipole              -18.8687 Ry au,        -47.9594 Debye
        Dipole field         -0.0356 Ry au,

        Potential amp.        3.3008 Ry
        Total length         46.3494 bohr

     Starting wfcs are  309 atomic wfcs
  @ DRIVER MODE: Message from server: STATUS
  @ DRIVER MODE: Message from server: POSDATA
  @ DRIVER MODE: Reading and sharing cell
  @ DRIVER MODE: Reading and sharing positions
  @ DRIVER MODE: Received positions

     Self-consistent Calculation

     iteration #  1     ecut=    29.40 Ry     beta= 0.05
     Davidson diagonalization with overlap
     c_bands:  5 eigenvalues not converged
     c_bands:  5 eigenvalues not converged
     c_bands:  1 eigenvalues not converged
     c_bands:  4 eigenvalues not converged
     c_bands:  1 eigenvalues not converged
     c_bands:  3 eigenvalues not converged
     ethr =  1.00E-05,  avg # of iterations = 27.3

[...]

     total energy              =   -2113.19505968 Ry
     estimated scf accuracy    <   10331.04477949 Ry

     iteration #  2     ecut=    29.40 Ry     beta= 0.05
     Davidson diagonalization with overlap
     ethr =  1.00E-02,  avg # of iterations = 29.1

[...]

     iteration # 55     ecut=    29.40 Ry     beta= 0.05
     Davidson diagonalization with overlap
     c_bands:  1 eigenvalues not converged
     ethr =  1.37E-09,  avg # of iterations = 14.6

[...]

     total energy              =   -3006.45829909 Ry
     estimated scf accuracy    <       0.00000013 Ry

     iteration # 66     ecut=    29.40 Ry     beta= 0.05
     Davidson diagonalization with overlap
     ethr =  2.63E-11,  avg # of iterations = 10.1

     negative rho (up, down):  1.064E-02 0.000E+00

     Adding external electric field

     Computed dipole along edir(3) :
        Dipole                1.0505 Ry au,          2.6700 Debye
        Dipole field          0.0020 Ry au,

        Potential amp.       -0.1838 Ry
        Total length         46.3494 bohr

     End of self-consistent calculation

          k = 0.0000 0.0000 0.0000 ( 18029 PWs)   bands (ev):

   -55.3289 -55.2532 -55.2179 -55.1438 -55.1220 -55.0872 -55.0511 -55.0466
   -55.0448 -55.0255 -55.0156 -54.9855 -54.8987 -54.8227 -54.2129 -54.1789
   -31.7312 -31.7225 -31.6351 -31.6234 -31.5825 -31.5688 -31.5443 -31.5423
   -31.5074 -31.4960 -31.4848 -31.4200 -31.4069 -31.4067 -31.3801 -31.3618
   -31.3533 -31.3362 -31.3352 -31.3239 -31.3167 -31.3120 -31.2660 -31.2639
   -31.2619 -31.2553 -31.2524 -31.2395 -31.2332 -31.2145 -31.2076 -31.1971
   -31.1955 -31.1754 -31.1708 -31.1630 -31.1618 -31.1276 -31.0874 -31.0680
   -31.0368 -31.0266 -30.6190 -30.5328 -30.5102 -30.4360 -30.3497 -30.2381
   -21.5059 -19.7113 -16.1358 -15.9053 -15.7261 -15.5241 -15.4673 -15.4009
   -15.2136 -15.1402 -14.9844 -14.8591 -14.8446 -14.7877 -14.7867 -14.7767
   -14.7476 -14.7227 -14.6774 -14.6660 -14.6606 -14.6571 -14.5955 -14.5531
   -14.5505 -14.5233 -14.5026 -14.3755 -14.3284 -14.2740 -14.1038 -14.0821
   -12.7125 -12.5963 -10.5730  -6.6857  -6.4111  -4.6667  -4.6294  -4.5868
    -4.4123  -3.6520  -3.3700  -3.2546  -3.1542  -3.1354  -3.0709  -3.0202
    -2.8049  -2.7021  -2.6357  -2.5229  -2.3959  -2.3604  -2.3108  -2.2778
    -2.1857  -2.1678  -2.1358  -2.1061  -2.0506  -2.0226  -2.0151  -2.0023
    -1.9266  -1.9200  -1.7902  -1.7852  -1.7289  -1.6368  -1.6191  -1.5962
    -1.5889  -1.5548  -1.5522  -1.5099  -1.4862  -1.4621  -1.4334  -1.3586
    -1.3391  -1.2757  -1.2389  -1.0062  -0.8518  -0.8272  -0.7472  -0.7308
    -0.6996  -0.6709  -0.6510  -0.6399  -0.6030  -0.5876  -0.4838  -0.3803
    -0.3716  -0.3121  -0.2745  -0.2696  -0.1340  -0.0892  -0.0149   0.0079
     0.0401   0.0612   0.1455   0.1943   0.2160   0.2824   0.3139   0.4194
     0.4568   0.4761   0.5173   0.5727   0.6332   0.6671   0.7065   0.7099
     0.7426   0.7918   0.8213   0.8559   0.8782   0.9253   1.0281   1.0654
     1.0760   1.2165   1.2275   1.3098   1.4346   1.4864   1.7596   1.8121
     1.8588   2.0044   2.3809   2.4278   3.8707   3.9732   3.9943   4.0156
     4.0833   4.1651   4.3306   4.3537   4.4179   4.5189

[...]

          k = 0.0380-0.0419 0.0000 ( 17876 PWs)   bands (ev):

[...]

          k =-0.0760-0.0000 0.0000 ( 17886 PWs)   bands (ev):

[...]

          k =-0.0760-0.0839 0.0000 ( 17948 PWs)   bands (ev):

   -55.3282 -55.2401 -55.2309 -55.1379 -55.1176 -55.0929 -55.0504 -55.0458
   -55.0372 -55.0289 -55.0165 -54.9947 -54.8950 -54.8263 -54.1961 -54.1956
   -31.6422 -31.5785 -31.5688 -31.5512 -31.5421 -31.5421 -31.5363 -31.5203
   -31.4582 -31.4535 -31.4146 -31.3933 -31.3816 -31.3765 -31.3601 -31.3579
   -31.3543 -31.3524 -31.3455 -31.3397 -31.3347 -31.3326 -31.3174 -31.3152
   -31.2965 -31.2857 -31.2564 -31.2499 -31.2470 -31.2429 -31.2350 -31.2337
   -31.2271 -31.2222 -31.2185 -31.2139 -31.2114 -31.1731 -31.1545 -31.0915
   -31.0740 -31.0305 -30.5231 -30.5228 -30.4328 -30.4313 -30.3930 -30.3921
   -21.5058 -19.7075 -16.1123 -15.5353 -15.3787 -15.2078 -15.1940 -15.1146
   -15.0231 -15.0054 -14.9747 -14.9616 -14.9444 -14.9199 -14.9118 -14.8766
   -14.8136 -14.7718 -14.7486 -14.7404 -14.6933 -14.6882 -14.6847 -14.6219
   -14.6145 -14.5964 -14.5718 -14.5119 -14.5029 -14.4023 -14.3877 -14.2150
   -12.6986 -12.6978 -10.5751  -6.6860  -6.4130  -4.6626  -4.6362  -4.5736
    -4.4049  -3.6174  -3.3604  -2.6836  -2.5995  -2.5432  -2.4316  -2.3531
    -2.2999  -2.2501  -2.2289  -2.1839  -2.1628  -2.0932  -2.0585  -2.0497
    -2.0304  -2.0282  -1.9977  -1.9823  -1.9696  -1.9483  -1.9200  -1.9027
    -1.8921  -1.8711  -1.8513  -1.8255  -1.8134  -1.8034  -1.7885  -1.7726
    -1.6618  -1.6450  -1.6125  -1.4496  -1.4383  -1.3691  -1.3375  -1.3110
    -1.3074  -1.2770  -1.2618  -1.2197  -1.1142  -1.0862  -1.0373  -0.9950
    -0.9029  -0.8870  -0.8361  -0.7853  -0.7394  -0.7108  -0.6803  -0.6650
    -0.6113  -0.4730  -0.4522  -0.4071  -0.2880  -0.2147  -0.1990  -0.1865
    -0.1647  -0.1416  -0.0951  -0.0869  -0.0250  -0.0125   0.0584   0.0624
     0.0914   0.1130   0.2155   0.3376   0.4162   0.4600   0.5049   0.5544
     0.5880   0.6703   0.7467   0.8330   0.9091   0.9386   0.9523   1.0701
     1.1024   1.1550   1.2010   1.2211   1.2795   1.3152   1.3554   1.3886
     2.1732   2.1868   2.2431   2.2488   4.0513   4.3013   4.3614   4.3786
     4.3882   4.4205   4.4418   4.4931   4.5098   4.5335

     the Fermi energy is     3.8808 ev

!    total energy              =   -3006.45833066 Ry
     estimated scf accuracy    <       0.00000002 Ry
     smearing contrib. (-TS)   =      -0.02082742 Ry
     internal energy E=F+TS    =   -3006.43750323 Ry

     The total energy is F=E-TS. E is the sum of the following terms:
     one-electron contribution =  -22317.81102486 Ry
     hartree contribution      =   11258.42891084 Ry
     xc contribution           =    -501.14648551 Ry
     ewald contribution        =    8554.08901393 Ry
     electric field correction =       0.00208237 Ry

     convergence has been achieved in  66 iterations

     Forces acting on atoms (cartesian axes, Ry/au):

     atom    1 type  1   force =    -0.00038249   -0.00017570    0.09499699
     atom    2 type  1   force =    -0.00034862    0.00512856   -0.17482285
     atom    3 type  2   force =     0.00070909    0.00013264   -0.02672739
     atom    4 type  2   force =     0.00128905    0.00083256    0.05205970
     atom    5 type  2   force =    -0.01097098   -0.00256254    0.00078208
     atom    6 type  2   force =     0.01193747   -0.00381176    0.00179125
     atom    7 type  1   force =    -0.00022023    0.00038546    0.00067462
     atom    8 type  1   force =     0.00013938    0.00023324    0.00016960
     atom    9 type  2   force =     0.00024926    0.00075946   -0.00064728
     atom   10 type  2   force =    -0.00039127    0.00016151    0.00014193
     atom   11 type  2   force =     0.00044078   -0.00015242    0.00010068
     atom   12 type  2   force =    -0.00084764   -0.00015216    0.00035553
     atom   13 type  1   force =     0.00042995    0.00034719   -0.00022532
     atom   14 type  1   force =    -0.00033850   -0.00069983    0.00093789
     atom   15 type  2   force =    -0.00014154   -0.00053919   -0.00099714
     atom   16 type  2   force =    -0.00027779   -0.00000288   -0.00023293
     atom   17 type  2   force =    -0.00097410    0.00032066    0.00001574
     atom   18 type  2   force =     0.00049622    0.00068566   -0.00008462
     atom   19 type  1   force =     0.00024277   -0.00080325    0.00021790
     atom   20 type  1   force =    -0.00022913    0.00015639    0.00040930
     atom   21 type  2   force =    -0.00000644    0.00007439    0.10301491
     atom   22 type  2   force =    -0.00002063   -0.00015196    0.00100842
     atom   23 type  2   force =    -0.07196087    0.00014003   -0.02804046
     atom   24 type  2   force =     0.07179647    0.00063916   -0.02814222
     atom   25 type  1   force =    -0.00035791    0.00026246    0.10243709
     atom   26 type  1   force =    -0.00010688   -0.00475050   -0.17507174
     atom   27 type  2   force =     0.00085012    0.00117057   -0.02484887
     atom   28 type  2   force =     0.00119636    0.00025473    0.05169237
     atom   29 type  2   force =    -0.01193205    0.00381523    0.00172483
     atom   30 type  2   force =     0.01376576    0.00146517    0.00245757
     atom   31 type  1   force =    -0.00029002   -0.00017091    0.00081383
     atom   32 type  1   force =     0.00028933    0.00028837    0.00061090
     atom   33 type  2   force =     0.00000593    0.00019723    0.00010133
     atom   34 type  2   force =    -0.00027297   -0.00032345   -0.00056740
     atom   35 type  2   force =    -0.00022725    0.00004702   -0.00048119
     atom   36 type  2   force =    -0.00038311    0.00009367   -0.00009972
     atom   37 type  1   force =    -0.00006926   -0.00035249    0.00003587
     atom   38 type  1   force =    -0.00056891    0.00027149    0.00000093
     atom   39 type  2   force =    -0.00025656   -0.00024897    0.00077178
     atom   40 type  2   force =    -0.00019956    0.00011805    0.00029448
     atom   41 type  2   force =    -0.00140802   -0.00025882   -0.00006442
     atom   42 type  2   force =     0.00107582   -0.00013421   -0.00049293
     atom   43 type  1   force =    -0.00019433    0.00052752    0.00018032
     atom   44 type  1   force =    -0.00008091    0.00008020    0.00010655
     atom   45 type  2   force =     0.00000162    0.00014142    0.10260402
     atom   46 type  2   force =    -0.07185578   -0.00062821   -0.02798885
     atom   47 type  2   force =     0.07171115   -0.00013613   -0.02806055
     atom   48 type  3   force =     0.00158503   -0.00031490    0.00012655
     atom   49 type  2   force =    -0.00101137   -0.00146802   -0.00045695
     atom   50 type  4   force =    -0.00024120    0.00055910    0.00010057
     atom   51 type  4   force =     0.00034476    0.00034684   -0.00069479
     atom   52 type  4   force =    -0.00023447   -0.00041317   -0.00059299
     atom   53 type  4   force =    -0.00192537   -0.00002810   -0.00071738
     atom   54 type  5   force =     0.00013866   -0.00007724    0.00034837
     atom   55 type  5   force =    -0.00046815    0.00005804   -0.00030771
     atom   56 type  2   force =     0.00078812   -0.00054666    0.00048617
     atom   57 type  4   force =    -0.00028877   -0.00079056   -0.00120438

     Total force =     0.364840     Total SCF correction =     0.000239
  @ DRIVER MODE: Message from server: STATUS
  @ DRIVER MODE: Message from server: GETFORCE
  @ DRIVER MODE: Returning v,forces,stress,ensemble

     Writing output data file ./calc.save/
  @ DRIVER MODE: Message from server: EXIT
  @ DRIVE MODE: Exiting

     General routines

     Parallel routines

   This run was terminated on:   9:22:20  26Sep2021

   JOB DONE.