     Program PWSCF v.6.7GPU starts on 22Sep2021 at 20:39:43

     R & G space division:  proc/nbgrp/npool/nimage =      10
     Reading input from /storage/home/hcoda1/3/ntian30/research/carbon/CxH_vib/H2O_calc/ads_slab/CHNHHHO_a/out_0015/pw.inp
Warning: card &CELL ignored
Warning: card   CELL_DYNAMICS='IPI', ignored
Warning: card / ignored

     Current dimensions of program PWSCF are:
     Max number of different atomic species (ntypx) = 10
     Max number of k-points (npk) =  40000
     Max angular momentum in pseudopotentials (lmaxx) =  3
     Presently no symmetry can be used with electric field

     Message from routine cell_base_init:
     DEPRECATED: use true lattice parameter, not A to a.u. conversion factor

     IMPORTANT: XC functional enforced from input :
     Exchange-correlation= BEEF-VDW
                           (   1   4  43  14   2   0   0)
     Any further DFT definition will be discarded
     Please, verify this is what you really want

  @ DRIVER MODE: Connecting to
 qe_1139763_2937313.sched-torque.pace.gatech.eduz7dftjbd_scratch
  using UNIX socket
  @ DRIVER MODE: Message from server: STATUS
  @ DRIVER MODE: Message from server: INIT
  @ DRIVER MODE: Receiving replica           0          -1
  @ DRIVER MODE: Receiving encoded integer          25
  @ DRIVER MODE:  SCF:  T  FORCE:  T  STRESS:  F  VC:  F  ENSEMBLE:  F
  @ DRIVER MODE:  SCF:  T  FORCE:  T  STRESS:  F  VC:  F  ENSEMBLE:  F

     Using Slab Decomposition

     bravais-lattice index     =            0
     lattice parameter (alat)  =       1.8897  a.u.
     unit-cell volume          =    6658.9804 (a.u.)^3
     number of atoms/cell      =           54
     number of atomic types    =            5
     number of electrons       =       397.00
     number of Kohn-Sham states=          208
     kinetic-energy cutoff     =      29.3995  Ry
     charge density cutoff     =     293.9946  Ry
     scf convergence threshold =      7.3E-08
     mixing beta               =       0.0500
     number of iterations used =            8  plain     mixing
     Exchange-correlation= BEEF-VDW
                           (   1   4  43  14   2   0   0)

     celldm(1)=   1.889726  celldm(2)=   0.000000  celldm(3)=   0.000000
     celldm(4)=   0.000000  celldm(5)=   0.000000  celldm(6)=   0.000000

     crystal axes: (cart. coord. in units of alat)
               a(1) = (   6.579727   0.000000   0.000000 )
               a(2) = (  -0.000775   5.961596   0.000000 )
               a(3) = (   0.000000   0.000000  25.155947 )

     reciprocal axes: (cart. coord. in units 2 pi/alat)
               b(1) = (  0.151982  0.000020  0.000000 )
               b(2) = (  0.000000  0.167740  0.000000 )
               b(3) = (  0.000000  0.000000  0.039752 )

     PseudoPot. # 1 for Ti read from file:
     /storage/coda1/p-amedford6/0/shared/rich_project_chbe-medford/medford-share/data/pseudos_module/espresso/nninc/pbe/van/Ti.UPF
     MD5 check sum: 8e4df49b7f0d34bbd5052bf3f5ea0213
     Pseudo is Ultrasoft, Zval = 12.0
     Generated by new atomic code, or converted to UPF format
     Using radial grid of  851 points,  6 beta functions with:
                l(1) =   0
                l(2) =   0
                l(3) =   1
                l(4) =   1
                l(5) =   2
                l(6) =   2
     Q(r) pseudized with  8 coefficients,  rinner =    1.000   1.000   1.000
                                                       1.000   1.000

     PseudoPot. # 2 for O  read from file:
     /storage/coda1/p-amedford6/0/shared/rich_project_chbe-medford/medford-share/data/pseudos_module/espresso/nninc/pbe/van/O.UPF
     MD5 check sum: 78c19812648e8988a0fe644b0f25305e
     Pseudo is Ultrasoft, Zval =  6.0
     Generated by new atomic code, or converted to UPF format
     Using radial grid of  737 points,  4 beta functions with:
                l(1) =   0
                l(2) =   0
                l(3) =   1
                l(4) =   1
     Q(r) pseudized with  8 coefficients,  rinner =    0.800   0.800   0.800

     PseudoPot. # 3 for N  read from file:
     /storage/coda1/p-amedford6/0/shared/rich_project_chbe-medford/medford-share/data/pseudos_module/espresso/nninc/pbe/van/N.UPF
     MD5 check sum: 90d10febe142ad51ac9d5be1deb811c4
     Pseudo is Ultrasoft, Zval =  5.0
     Generated by new atomic code, or converted to UPF format
     Using radial grid of  729 points,  4 beta functions with:
                l(1) =   0
                l(2) =   0
                l(3) =   1
                l(4) =   1
     Q(r) pseudized with  8 coefficients,  rinner =    0.800   0.800   0.800

     PseudoPot. # 4 for C  read from file:
     /storage/coda1/p-amedford6/0/shared/rich_project_chbe-medford/medford-share/data/pseudos_module/espresso/nninc/pbe/van/C.UPF
     MD5 check sum: 1a69bf6b8db32088f5b2163dbdb77a27
     Pseudo is Ultrasoft, Zval =  4.0
     Generated by new atomic code, or converted to UPF format
     Using radial grid of  721 points,  4 beta functions with:
                l(1) =   0
                l(2) =   0
                l(3) =   1
                l(4) =   1
     Q(r) pseudized with  8 coefficients,  rinner =    0.800   0.800   0.800

     PseudoPot. # 5 for H  read from file:
     /storage/coda1/p-amedford6/0/shared/rich_project_chbe-medford/medford-share/data/pseudos_module/espresso/nninc/pbe/van/H.UPF
     MD5 check sum: b5ee9d7bfd3a09ee7748110bda690ff7
     Pseudo is Ultrasoft, Zval =  1.0
     Generated by new atomic code, or converted to UPF format
     Using radial grid of  615 points,  1 beta functions with:
                l(1) =   0
     Q(r) pseudized with  8 coefficients,  rinner =    0.800

     atomic species   valence    mass     pseudopotential
        Ti1           12.00    47.86700     Ti( 1.00)
        O1             6.00    15.99900     O ( 1.00)
        N1             5.00    14.00700     N ( 1.00)
        C1             4.00    12.01100     C ( 1.00)
        H1             1.00     1.00800     H ( 1.00)

     No symmetry found

   Cartesian axes

     site n.     atom                  positions (alat units)
         1           Ti1 tau(   1) = (   0.0004258   2.9801865   6.0000000  )
         2           Ti1 tau(   2) = (   3.2906075   1.4906267   6.0002472  )
         3           O1  tau(   3) = (   0.0006271   0.0005054   7.9858123  )
         4           O1  tau(   4) = (   3.2906025   0.0005020   7.3038282  )
         5           O1  tau(   5) = (   4.5942328   1.4918067   9.2879030  )
         6           O1  tau(   6) = (   1.9868534   1.4903216   9.2879459  )
         7           Ti1 tau(   7) = (   3.2907910   2.8959150   9.1758416  )
         8           Ti1 tau(   8) = (   0.0015273   1.4827037   9.2680791  )
         9           O1  tau(   9) = (   3.2973591   5.9237820  11.3497511  )
        10           O1  tau(  10) = (   0.0116148   5.9584955  10.6183126  )
        11           O1  tau(  11) = (   1.2811460   1.4768824  12.6391447  )
        12           O1  tau(  12) = (   5.3079631   1.4871840  12.6405626  )
        13           Ti1 tau(  13) = (   6.5754896   2.9244875  12.5445406  )
        14           Ti1 tau(  14) = (   3.3102182   1.2813077  12.7057081  )
        15           O1  tau(  15) = (   6.5763362   0.0566486  14.6337039  )
        16           O1  tau(  16) = (   3.2990834   0.0566264  13.9960278  )
        17           O1  tau(  17) = (   4.5749688   1.5338778  16.1314031  )
        18           O1  tau(  18) = (   2.0677763   1.5208417  16.2171153  )
        19           Ti1 tau(  19) = (   3.2830944   2.9922577  15.6820260  )
        20           Ti1 tau(  20) = (   6.5002293   1.4748383  16.0237708  )
        21           O1  tau(  21) = (   3.2904802   0.0005063   4.7018136  )
        22           O1  tau(  22) = (   0.0234767   5.8639946  17.1540191  )
        23           O1  tau(  23) = (   1.3043587   1.4918075   6.0039043  )
        24           O1  tau(  24) = (   5.2767064   1.4903225   6.0039473  )
        25           Ti1 tau(  25) = (   0.0000382   5.9609847   6.0000000  )
        26           Ti1 tau(  26) = (   3.2902200   4.4714249   6.0002472  )
        27           O1  tau(  27) = (   0.0002396   2.9813036   7.9858123  )
        28           O1  tau(  28) = (   3.2902150   2.9813002   7.3038282  )
        29           O1  tau(  29) = (   4.5938453   4.4726049   9.2879030  )
        30           O1  tau(  30) = (   1.9864658   4.4711199   9.2879459  )
        31           Ti1 tau(  31) = (   3.2891106   5.8743827   9.1763621  )
        32           Ti1 tau(  32) = (   0.0006254   4.4649316   9.2693709  )
        33           O1  tau(  33) = (   3.2952530   2.9960894  11.3054589  )
        34           O1  tau(  34) = (   0.0092240   2.9805883  10.6323155  )
        35           O1  tau(  35) = (   1.2848436   4.4566134  12.6628561  )
        36           O1  tau(  36) = (   5.3073415   4.4462911  12.6631571  )
        37           Ti1 tau(  37) = (   0.0411484   5.9123939  12.5136797  )
        38           Ti1 tau(  38) = (   3.3147701   4.3652790  12.4361622  )
        39           O1  tau(  39) = (   0.0290229   2.9306538  14.8412286  )
        40           O1  tau(  40) = (   3.2875986   2.9640914  13.9120161  )
        41           O1  tau(  41) = (   4.5659564   4.3862643  16.1232528  )
        42           O1  tau(  42) = (   2.0245242   4.4195217  16.0560026  )
        43           Ti1 tau(  43) = (   3.2475481   5.9608109  16.2864591  )
        44           Ti1 tau(  44) = (   0.0132903   4.6514137  15.7972829  )
        45           O1  tau(  45) = (   3.2900926   2.9813045   4.7018136  )
        46           O1  tau(  46) = (   1.3039711   4.4726057   6.0039043  )
        47           O1  tau(  47) = (   5.2763189   4.4711207   6.0039473  )
        48           N1  tau(  48) = (   5.7184149   3.3872802  18.6644769  )
        49           C1  tau(  49) = (   6.5536674   2.6142045  18.0347456  )
        50           H1  tau(  50) = (   0.7520291   2.2254638  18.7052436  )
        51           H1  tau(  51) = (   4.9873861   3.8928837  18.1615307  )
        52           H1  tau(  52) = (   5.8197376   3.6397576  19.6419508  )
        53           O1  tau(  53) = (   3.3578172   5.8156178  18.1613732  )
        54           H1  tau(  54) = (   2.9124532   0.5526369  18.6599525  )

     number of k points=    10  Fermi-Dirac smearing, width (Ry)=  0.0073
                       cart. coord. in units 2pi/alat
        k(    1) = (   0.0000000   0.0000000   0.0000000), wk =   0.1250000
        k(    2) = (   0.0000000   0.0419351   0.0000000), wk =   0.2500000
        k(    3) = (   0.0000000  -0.0838702   0.0000000), wk =   0.1250000
        k(    4) = (   0.0379955   0.0000049   0.0000000), wk =   0.2500000
        k(    5) = (   0.0379955   0.0419400   0.0000000), wk =   0.2500000
        k(    6) = (   0.0379955  -0.0838652   0.0000000), wk =   0.2500000
        k(    7) = (   0.0379955  -0.0419301   0.0000000), wk =   0.2500000
        k(    8) = (  -0.0759910  -0.0000099   0.0000000), wk =   0.1250000
        k(    9) = (  -0.0759910   0.0419252   0.0000000), wk =   0.2500000
        k(   10) = (  -0.0759910  -0.0838800   0.0000000), wk =   0.1250000

     Initial potential from superposition of free atoms

     starting charge  380.99916, renormalised to  397.00000

     negative rho (up, down):  1.674E-02 0.000E+00

     %%%%%%%%%%%%%%%%%%%%%%%%%%%%%%%%%%%%%%%%%%%%%%%%%%%%%%%%%%%%%%%%%%%%%%%%
     %                                                                      %
     % You are using vdW-DF, which was implemented by the Thonhauser group. %
     % Please cite the following two papers that made this development      %
     % possible and the two reviews that describe the various versions:     %
     %                                                                      %
     %   T. Thonhauser et al., PRL 115, 136402 (2015).                      %
     %   T. Thonhauser et al., PRB 76, 125112 (2007).                       %
     %   K. Berland et al., Rep. Prog. Phys. 78, 066501 (2015).             %
     %   D.C. Langreth et al., J. Phys.: Condens. Matter 21, 084203 (2009). %
     %                                                                      %
     %                                                                      %
     % If you are calculating the stress with vdW-DF, please also cite:     %
     %                                                                      %
     %   R. Sabatini et al., J. Phys.: Condens. Matter 24, 424209 (2012).   %
     %                                                                      %
     %%%%%%%%%%%%%%%%%%%%%%%%%%%%%%%%%%%%%%%%%%%%%%%%%%%%%%%%%%%%%%%%%%%%%%%%

     Adding external electric field

     Computed dipole along edir(3) :
        Dipole               -9.3089 Ry au,        -23.6608 Debye
        Dipole field         -0.0176 Ry au,

        Potential amp.        1.6284 Ry
        Total length         46.3494 bohr

     Starting wfcs are  300 atomic wfcs
  @ DRIVER MODE: Message from server: STATUS
  @ DRIVER MODE: Message from server: POSDATA
  @ DRIVER MODE: Reading and sharing cell
  @ DRIVER MODE: Reading and sharing positions
  @ DRIVER MODE: Received positions

     Self-consistent Calculation

     iteration #  1     ecut=    29.40 Ry     beta= 0.05
     Davidson diagonalization with overlap
     c_bands:  1 eigenvalues not converged
     c_bands:  2 eigenvalues not converged
     c_bands:  1 eigenvalues not converged
     c_bands:  1 eigenvalues not converged
     c_bands:  1 eigenvalues not converged
     c_bands:  2 eigenvalues not converged
     c_bands:  1 eigenvalues not converged
     c_bands:  1 eigenvalues not converged
     c_bands:  2 eigenvalues not converged
     ethr =  1.00E-05,  avg # of iterations = 19.6

[...]

     total energy              =   -2539.08530678 Ry
     estimated scf accuracy    <    4593.62788876 Ry

     iteration #  2     ecut=    29.40 Ry     beta= 0.05
     Davidson diagonalization with overlap
     ethr =  1.00E-02,  avg # of iterations = 24.0

[...]

     iteration # 48     ecut=    29.40 Ry     beta= 0.05
     Davidson diagonalization with overlap
     c_bands:  1 eigenvalues not converged
     ethr =  1.71E-06,  avg # of iterations = 13.4

[...]

     total energy              =   -2952.67097064 Ry
     estimated scf accuracy    <       0.00000014 Ry

     iteration # 70     ecut=    29.40 Ry     beta= 0.05
     Davidson diagonalization with overlap
     ethr =  3.44E-11,  avg # of iterations = 11.2

     negative rho (up, down):  1.682E-02 0.000E+00

     Adding external electric field

     Computed dipole along edir(3) :
        Dipole                1.3058 Ry au,          3.3189 Debye
        Dipole field          0.0025 Ry au,

        Potential amp.       -0.2284 Ry
        Total length         46.3494 bohr

     End of self-consistent calculation

          k = 0.0000 0.0000 0.0000 ( 18029 PWs)   bands (ev):

   -55.6248 -55.5465 -55.5125 -55.3636 -55.3391 -55.3295 -55.3037 -55.2961
   -55.2790 -55.2286 -55.1411 -55.1067 -55.0297 -55.0042 -54.4979 -54.4639
   -32.0279 -31.9571 -31.8657 -31.8482 -31.8382 -31.8254 -31.8236 -31.7913
   -31.7627 -31.7187 -31.6989 -31.6696 -31.6501 -31.6268 -31.6210 -31.6095
   -31.6042 -31.5864 -31.5531 -31.5377 -31.5216 -31.5176 -31.5032 -31.5024
   -31.4916 -31.4807 -31.4763 -31.4762 -31.4471 -31.4358 -31.4261 -31.4031
   -31.3864 -31.3852 -31.3837 -31.3068 -31.2968 -31.2756 -31.2435 -31.2344
   -31.2235 -31.1526 -30.9027 -30.8192 -30.7966 -30.7205 -30.6343 -30.5223
   -17.3035 -16.4847 -16.1312 -15.9665 -15.7694 -15.6650 -15.5955 -15.4069
   -15.3226 -15.2655 -15.0739 -15.0709 -15.0399 -15.0218 -14.9954 -14.9664
   -14.9586 -14.9529 -14.9260 -14.8926 -14.8757 -14.8475 -14.8300 -14.7719
   -14.7439 -14.7274 -14.6674 -14.5717 -14.5079 -14.2950 -14.1471 -12.9958
   -12.8799  -9.6278  -7.3111  -4.7781  -4.0639  -3.5003  -3.4332  -3.3718
    -3.3228  -3.2476  -3.0160  -2.8685  -2.7636  -2.7350  -2.6499  -2.6171
    -2.5707  -2.4919  -2.4246  -2.4013  -2.3553  -2.3180  -2.2870  -2.2642
    -2.2392  -2.2172  -2.1622  -2.1234  -2.0464  -1.9977  -1.9285  -1.9063
    -1.8494  -1.8110  -1.8083  -1.7936  -1.7568  -1.7515  -1.7429  -1.7231
    -1.6163  -1.5845  -1.5345  -1.4920  -1.3274  -1.1401  -1.1201  -1.0249
    -0.9879  -0.9505  -0.9230  -0.9077  -0.8810  -0.8585  -0.7638  -0.7449
    -0.6634  -0.6014  -0.5569  -0.5070  -0.4067  -0.3391  -0.3108  -0.2658
    -0.2598  -0.2292  -0.2130  -0.1251  -0.0485  -0.0014   0.0115   0.0633
     0.1487   0.1667   0.2220   0.2524   0.2942   0.3284   0.4008   0.4269
     0.4491   0.4607   0.4784   0.5354   0.5745   0.6074   0.6770   0.7789
     0.7874   0.8612   0.8630   0.8732   1.0736   1.1623   1.1819   1.2642
     1.4878   1.5289   1.6206   1.7250   2.0935   2.1377   3.5567   3.7002
     3.7180   3.7829   3.8313   3.9436   3.9559   4.0415   4.1702   4.2562

[...]

          k = 0.0380-0.0419 0.0000 ( 17876 PWs)   bands (ev):

[...]

          k =-0.0760-0.0000 0.0000 ( 17886 PWs)   bands (ev):

[...]

          k =-0.0760-0.0839 0.0000 ( 17948 PWs)   bands (ev):

   -55.6242 -55.5297 -55.5291 -55.3467 -55.3462 -55.3257 -55.3169 -55.2965
   -55.2725 -55.2350 -55.1389 -55.1030 -55.0333 -55.0063 -54.4812 -54.4804
   -31.9027 -31.8434 -31.8431 -31.8370 -31.8261 -31.8239 -31.8234 -31.6996
   -31.6718 -31.6654 -31.6496 -31.6490 -31.6429 -31.6339 -31.6210 -31.6022
   -31.5954 -31.5927 -31.5585 -31.5578 -31.5402 -31.5387 -31.5244 -31.5218
   -31.5152 -31.5106 -31.5024 -31.5006 -31.4907 -31.4846 -31.4587 -31.4526
   -31.4069 -31.3886 -31.3807 -31.3637 -31.3107 -31.3004 -31.2831 -31.2442
   -31.2382 -31.2257 -30.8096 -30.8090 -30.7163 -30.7152 -30.6778 -30.6771
   -17.2992 -16.4750 -15.5931 -15.5829 -15.4726 -15.4559 -15.3536 -15.2865
   -15.2528 -15.2285 -15.2088 -15.1775 -15.1723 -15.1254 -15.0799 -15.0641
   -15.0334 -15.0077 -14.9905 -14.9533 -14.9230 -14.9063 -14.8824 -14.8447
   -14.8382 -14.8234 -14.8101 -14.6405 -14.5935 -14.4488 -14.4216 -12.9821
   -12.9817  -9.6295  -7.3105  -4.7728  -4.0606  -2.8582  -2.7989  -2.6826
    -2.6466  -2.5851  -2.5105  -2.4773  -2.4636  -2.3770  -2.3661  -2.3619
    -2.3234  -2.2987  -2.2801  -2.2519  -2.2483  -2.2393  -2.2043  -2.1973
    -2.1801  -2.1590  -2.1426  -2.1272  -2.1126  -2.1038  -2.0807  -2.0580
    -2.0315  -1.9883  -1.8309  -1.7935  -1.7657  -1.6495  -1.6399  -1.6220
    -1.6109  -1.5977  -1.5659  -1.4997  -1.4814  -1.4751  -1.3158  -1.2305
    -1.1901  -1.1253  -1.1031  -1.0763  -0.9867  -0.9733  -0.9454  -0.9080
    -0.8601  -0.7877  -0.6888  -0.6816  -0.6380  -0.5301  -0.4794  -0.4671
    -0.4641  -0.4140  -0.4037  -0.3869  -0.3464  -0.2743  -0.2580  -0.2327
    -0.2006  -0.1852  -0.1438  -0.0751   0.0273   0.1096   0.2145   0.2503
     0.3321   0.3580   0.3735   0.5244   0.5883   0.6269   0.6755   0.6829
     0.7855   0.7964   0.8106   0.8914   0.9892   1.0088   1.0696   1.0868
     1.1062   1.1442   1.8942   1.9022   1.9579   1.9582   3.7446   4.0323
     4.0838   4.0941   4.1147   4.1295   4.1356   4.1640   4.2205   4.2505

     the Fermi energy is     3.5815 ev

!    total energy              =   -2952.67098768 Ry
     estimated scf accuracy    <       0.00000006 Ry
     smearing contrib. (-TS)   =      -0.02000796 Ry
     internal energy E=F+TS    =   -2952.65097972 Ry

     The total energy is F=E-TS. E is the sum of the following terms:
     one-electron contribution =  -23943.32130989 Ry
     hartree contribution      =   12064.59393630 Ry
     xc contribution           =    -487.97486691 Ry
     ewald contribution        =    9414.04804319 Ry
     electric field correction =       0.00321758 Ry

     convergence has been achieved in  70 iterations

     Forces acting on atoms (cartesian axes, Ry/au):

     atom    1 type  1   force =     0.00004071   -0.00030685    0.09544397
     atom    2 type  1   force =    -0.00013962    0.00031266   -0.17425193
     atom    3 type  2   force =    -0.00001970   -0.00015376   -0.02259217
     atom    4 type  2   force =     0.00003787   -0.00185332    0.05174887
     atom    5 type  2   force =    -0.00668264   -0.00270123    0.00168332
     atom    6 type  2   force =     0.00823373   -0.00219466    0.00116284
     atom    7 type  1   force =    -0.00012465   -0.00382049    0.01182786
     atom    8 type  1   force =     0.00015763    0.00376795    0.01274383
     atom    9 type  2   force =     0.00020896    0.00038767    0.00081281
     atom   10 type  2   force =    -0.00197680   -0.00130089   -0.01615527
     atom   11 type  2   force =     0.00116518   -0.00021101   -0.00029484
     atom   12 type  2   force =    -0.00060830    0.00012734   -0.00025190
     atom   13 type  1   force =    -0.00022092   -0.00146303    0.00056921
     atom   14 type  1   force =     0.00009305   -0.00043039   -0.00006544
     atom   15 type  2   force =     0.00009275    0.00034536   -0.00088982
     atom   16 type  2   force =     0.00004862    0.00105981   -0.00046070
     atom   17 type  2   force =    -0.00019837    0.00018354    0.00012795
     atom   18 type  2   force =     0.00009987    0.00021597   -0.00013540
     atom   19 type  1   force =    -0.00026367    0.00000941    0.00023948
     atom   20 type  1   force =     0.00020230    0.00033786   -0.00055046
     atom   21 type  2   force =     0.00005906    0.00010606    0.10287067
     atom   22 type  2   force =    -0.00032520    0.00051709    0.00047585
     atom   23 type  2   force =    -0.07251364   -0.00013498   -0.02755506
     atom   24 type  2   force =     0.07241796    0.00027159   -0.02758355
     atom   25 type  1   force =     0.00009014   -0.00014182    0.09505591
     atom   26 type  1   force =    -0.00011150   -0.00128333   -0.17427628
     atom   27 type  2   force =     0.00015684   -0.00025984   -0.02134604
     atom   28 type  2   force =     0.00004864   -0.00014795    0.04735555
     atom   29 type  2   force =    -0.00545832    0.00230683   -0.00004914
     atom   30 type  2   force =     0.00703076    0.00274123   -0.00055912
     atom   31 type  1   force =    -0.00016638    0.00659775    0.00052578
     atom   32 type  1   force =     0.00008443   -0.00557792    0.01180754
     atom   33 type  2   force =    -0.00014548   -0.00039722    0.00010591
     atom   34 type  2   force =    -0.00121722    0.00016687   -0.01568799
     atom   35 type  2   force =    -0.00039243    0.00043636    0.00015190
     atom   36 type  2   force =     0.00104156    0.00059127    0.00041369
     atom   37 type  1   force =    -0.00023949    0.00177548    0.00022642
     atom   38 type  1   force =    -0.00005602    0.00024302    0.00038130
     atom   39 type  2   force =    -0.00010761    0.00008504   -0.00024855
     atom   40 type  2   force =     0.00037545   -0.00033398   -0.00019634
     atom   41 type  2   force =    -0.00049646    0.00037747    0.00029870
     atom   42 type  2   force =     0.00069428    0.00020122    0.00024530
     atom   43 type  1   force =     0.00022643    0.00017343    0.00035031
     atom   44 type  1   force =     0.00033926    0.00007055    0.00081439
     atom   45 type  2   force =     0.00006338   -0.00008847    0.10265969
     atom   46 type  2   force =    -0.07255742   -0.00004772   -0.02757923
     atom   47 type  2   force =     0.07248424    0.00040322   -0.02760397
     atom   48 type  3   force =     0.00110622   -0.00083787   -0.00000826
     atom   49 type  4   force =     0.00196220   -0.00247404    0.00094148
     atom   50 type  5   force =    -0.00366098    0.00231070   -0.00207914
     atom   51 type  5   force =     0.00069321    0.00044768   -0.00016709
     atom   52 type  5   force =    -0.00046333    0.00035004    0.00046678
     atom   53 type  2   force =    -0.00005627   -0.00001449   -0.00079707
     atom   54 type  5   force =    -0.00105229   -0.00074521   -0.00012255

     Total force =     0.362348     Total SCF correction =     0.000458
  @ DRIVER MODE: Message from server: STATUS
  @ DRIVER MODE: Message from server: GETFORCE
  @ DRIVER MODE: Returning v,forces,stress,ensemble

     Writing output data file ./calc.save/
  @ DRIVER MODE: Message from server: EXIT
  @ DRIVE MODE: Exiting

     General routines

     Parallel routines

   This run was terminated on:  20:57:51  22Sep2021

   JOB DONE.