     Program PWSCF v.6.7GPU starts on 19Oct2021 at  4:29: 1

     R & G space division:  proc/nbgrp/npool/nimage =       8
     Reading input from /storage/home/hcoda1/3/ntian30/research/carbon/CxH_vib/Thiel_calc/ads_slab/NH2NH2HH_perslab/out_0035/pw.inp
Warning: card &CELL ignored
Warning: card   CELL_DYNAMICS='IPI', ignored
Warning: card / ignored

     Current dimensions of program PWSCF are:
     Max number of different atomic species (ntypx) = 10
     Max number of k-points (npk) =  40000
     Max angular momentum in pseudopotentials (lmaxx) =  3
     Presently no symmetry can be used with electric field

     Message from routine cell_base_init:
     DEPRECATED: use true lattice parameter, not A to a.u. conversion factor

     IMPORTANT: XC functional enforced from input :
     Exchange-correlation= BEEF-VDW
                           (   1   4  43  14   2   0   0)
     Any further DFT definition will be discarded
     Please, verify this is what you really want

  @ DRIVER MODE: Connecting to
 qe_1139763_3255137.sched-torque.pace.gatech.edubkbpsq_b_scratch
  using UNIX socket
  @ DRIVER MODE: Message from server: STATUS
  @ DRIVER MODE: Message from server: INIT
  @ DRIVER MODE: Receiving replica           0          -1
  @ DRIVER MODE: Receiving encoded integer          25
  @ DRIVER MODE:  SCF:  T  FORCE:  T  STRESS:  F  VC:  F  ENSEMBLE:  F
  @ DRIVER MODE:  SCF:  T  FORCE:  T  STRESS:  F  VC:  F  ENSEMBLE:  F

     Using Slab Decomposition

     bravais-lattice index     =            0
     lattice parameter (alat)  =       1.8897  a.u.
     unit-cell volume          =    9988.4706 (a.u.)^3
     number of atoms/cell      =           61
     number of atomic types    =            4
     number of electrons       =       442.00
     number of Kohn-Sham states=          231
     kinetic-energy cutoff     =      29.3995  Ry
     charge density cutoff     =     293.9946  Ry
     scf convergence threshold =      7.3E-08
     mixing beta               =       0.0500
     number of iterations used =            8  plain     mixing
     Exchange-correlation= BEEF-VDW
                           (   1   4  43  14   2   0   0)

     celldm(1)=   1.889726  celldm(2)=   0.000000  celldm(3)=   0.000000
     celldm(4)=   0.000000  celldm(5)=   0.000000  celldm(6)=   0.000000

     crystal axes: (cart. coord. in units of alat)
               a(1) = (   6.579727   0.000000   0.000000 )
               a(2) = (  -0.001163   8.942395   0.000000 )
               a(3) = (   0.000000   0.000000  25.155947 )

     reciprocal axes: (cart. coord. in units 2 pi/alat)
               b(1) = (  0.151982  0.000020  0.000000 )
               b(2) = (  0.000000  0.111827  0.000000 )
               b(3) = (  0.000000  0.000000  0.039752 )

     PseudoPot. # 1 for O  read from file:
     /storage/coda1/p-amedford6/0/shared/rich_project_chbe-medford/medford-share/data/pseudos_module/espresso/nninc/pbe/van/O.UPF
     MD5 check sum: 78c19812648e8988a0fe644b0f25305e
     Pseudo is Ultrasoft, Zval =  6.0
     Generated by new atomic code, or converted to UPF format
     Using radial grid of  737 points,  4 beta functions with:
                l(1) =   0
                l(2) =   0
                l(3) =   1
                l(4) =   1
     Q(r) pseudized with  8 coefficients,  rinner =    0.800   0.800   0.800

     PseudoPot. # 2 for Ti read from file:
     /storage/coda1/p-amedford6/0/shared/rich_project_chbe-medford/medford-share/data/pseudos_module/espresso/nninc/pbe/van/Ti.UPF
     MD5 check sum: 8e4df49b7f0d34bbd5052bf3f5ea0213
     Pseudo is Ultrasoft, Zval = 12.0
     Generated by new atomic code, or converted to UPF format
     Using radial grid of  851 points,  6 beta functions with:
                l(1) =   0
                l(2) =   0
                l(3) =   1
                l(4) =   1
                l(5) =   2
                l(6) =   2
     Q(r) pseudized with  8 coefficients,  rinner =    1.000   1.000   1.000
                                                       1.000   1.000

     PseudoPot. # 3 for N  read from file:
     /storage/coda1/p-amedford6/0/shared/rich_project_chbe-medford/medford-share/data/pseudos_module/espresso/nninc/pbe/van/N.UPF
     MD5 check sum: 90d10febe142ad51ac9d5be1deb811c4
     Pseudo is Ultrasoft, Zval =  5.0
     Generated by new atomic code, or converted to UPF format
     Using radial grid of  729 points,  4 beta functions with:
                l(1) =   0
                l(2) =   0
                l(3) =   1
                l(4) =   1
     Q(r) pseudized with  8 coefficients,  rinner =    0.800   0.800   0.800

     PseudoPot. # 4 for H  read from file:
     /storage/coda1/p-amedford6/0/shared/rich_project_chbe-medford/medford-share/data/pseudos_module/espresso/nninc/pbe/van/H.UPF
     MD5 check sum: b5ee9d7bfd3a09ee7748110bda690ff7
     Pseudo is Ultrasoft, Zval =  1.0
     Generated by new atomic code, or converted to UPF format
     Using radial grid of  615 points,  1 beta functions with:
                l(1) =   0
     Q(r) pseudized with  8 coefficients,  rinner =    0.800

     atomic species   valence    mass     pseudopotential
        O1             6.00    15.99900     O ( 1.00)
        Ti1           12.00    47.86700     Ti( 1.00)
        N1             5.00    14.00700     N ( 1.00)
        H1             1.00     1.00800     H ( 1.00)

     No symmetry found

   Cartesian axes

     site n.     atom                  positions (alat units)
         1           O1  tau(   1) = (   0.0007354   0.0005023  10.5931620  )
         2           O1  tau(   2) = (   3.2456387   0.0208629  13.8623892  )
         3           O1  tau(   3) = (   6.5569189   0.0555649  17.3369326  )
         4           O1  tau(   4) = (   0.0006271   0.0005054   7.9858123  )
         5           O1  tau(   5) = (   3.2933513   8.9300833  11.1812556  )
         6           O1  tau(   6) = (   0.0337597   0.0712708  14.6279364  )
         7           O1  tau(   7) = (   1.9868534   1.4903216   9.2879459  )
         8           O1  tau(   8) = (   5.2215124   1.6184176  12.5791628  )
         9           O1  tau(   9) = (   1.9922958   1.5902288  16.0980526  )
        10           Ti1 tau(  10) = (   0.0007404   1.4906270   9.2895810  )
        11           Ti1 tau(  11) = (   3.2860490   1.3455809  12.4359399  )
        12           Ti1 tau(  12) = (   6.5618936   1.3602716  15.8812525  )
        13           O1  tau(  13) = (   4.5942328   1.4918067   9.2879030  )
        14           O1  tau(  14) = (   1.3307156   1.5887400  12.5381291  )
        15           O1  tau(  15) = (   4.5725103   1.6118788  16.0006659  )
        16           Ti1 tau(  16) = (   3.2902859   2.9801868   9.2893338  )
        17           Ti1 tau(  17) = (   0.0046584   2.8227806  12.4510757  )
        18           Ti1 tau(  18) = (   3.2555632   2.8898243  15.6661830  )
        19           O1  tau(  19) = (   0.0003479   2.9813005  10.5931620  )
        20           O1  tau(  20) = (   3.2279248   2.9553539  13.8813459  )
        21           O1  tau(  21) = (   0.0002396   2.9813036   7.9858123  )
        22           O1  tau(  22) = (   3.2889556   2.9859946  11.1941525  )
        23           O1  tau(  23) = (   0.0559812   2.9852445  14.6488683  )
        24           O1  tau(  24) = (   1.9864658   4.4711199   9.2879459  )
        25           O1  tau(  25) = (   5.2314886   4.5920767  12.6107679  )
        26           O1  tau(  26) = (   1.9969377   4.5324570  16.1535429  )
        27           Ti1 tau(  27) = (   0.0003529   4.4714252   9.2895810  )
        28           Ti1 tau(  28) = (   3.2845268   4.3564118  12.5295435  )
        29           Ti1 tau(  29) = (   6.5676402   4.3565080  15.8255799  )
        30           O1  tau(  30) = (   4.5938453   4.4726049   9.2879030  )
        31           O1  tau(  31) = (   1.3315080   4.5776727  12.5731030  )
        32           O1  tau(  32) = (   4.5871741   4.4544688  15.9274438  )
        33           Ti1 tau(  33) = (   3.2898983   5.9609850   9.2893338  )
        34           Ti1 tau(  34) = (   6.5783773   5.8108302  12.4536689  )
        35           Ti1 tau(  35) = (   3.3162440   5.8110762  16.0333210  )
        36           O1  tau(  36) = (  -0.0000397   5.9620987  10.5931620  )
        37           O1  tau(  37) = (   3.2636778   5.9869953  13.9790019  )
        38           O1  tau(  38) = (   6.4104969   6.0475349  17.2872242  )
        39           O1  tau(  39) = (  -0.0001480   5.9621018   7.9858123  )
        40           O1  tau(  40) = (   3.2905218   5.9516507  11.2202175  )
        41           O1  tau(  41) = (   0.0617018   5.9803669  14.6637187  )
        42           O1  tau(  42) = (   1.9860782   7.4519181   9.2879459  )
        43           O1  tau(  43) = (   5.2407037   7.5572870  12.6049163  )
        44           O1  tau(  44) = (   1.9881273   7.5959696  16.0809372  )
        45           Ti1 tau(  45) = (  -0.0000347   7.4522234   9.2895810  )
        46           Ti1 tau(  46) = (   3.2912638   7.2305267  12.6172466  )
        47           Ti1 tau(  47) = (   0.0232661   7.3094817  15.9177444  )
        48           O1  tau(  48) = (   4.5934577   7.4534031   9.2879030  )
        49           O1  tau(  49) = (   1.3287160   7.5404973  12.5734398  )
        50           O1  tau(  50) = (   4.6507959   7.6754627  15.9163669  )
        51           Ti1 tau(  51) = (   3.2895107   8.9417832   9.2893338  )
        52           Ti1 tau(  52) = (   0.0077981   8.7799231  12.4640552  )
        53           Ti1 tau(  53) = (   3.2910717   8.8534038  15.6608489  )
        54           N1  tau(  54) = (   3.7626148   6.0985185  18.0019073  )
        55           H1  tau(  55) = (   3.4663780   5.3841571  18.6619304  )
        56           H1  tau(  56) = (   3.5565419   6.9988739  18.4208443  )
        57           N1  tau(  57) = (   6.5319303   3.0529623  17.4095181  )
        58           H1  tau(  58) = (   5.7013393   3.0140474  17.9904383  )
        59           H1  tau(  59) = (   0.7603229   3.1006543  18.0103722  )
        60           H1  tau(  60) = (   5.4974376   6.0468821  17.7423635  )
        61           H1  tau(  61) = (   0.7324116   0.0679216  17.9402240  )

     number of k points=    10  Fermi-Dirac smearing, width (Ry)=  0.0073
                       cart. coord. in units 2pi/alat
        k(    1) = (   0.0000000   0.0000000   0.0000000), wk =   0.1250000
        k(    2) = (   0.0000000   0.0279567   0.0000000), wk =   0.2500000
        k(    3) = (   0.0000000  -0.0559134   0.0000000), wk =   0.1250000
        k(    4) = (   0.0379955   0.0000049   0.0000000), wk =   0.2500000
        k(    5) = (   0.0379955   0.0279617   0.0000000), wk =   0.2500000
        k(    6) = (   0.0379955  -0.0559085   0.0000000), wk =   0.2500000
        k(    7) = (   0.0379955  -0.0279518   0.0000000), wk =   0.2500000
        k(    8) = (  -0.0759910  -0.0000099   0.0000000), wk =   0.1250000
        k(    9) = (  -0.0759910   0.0279468   0.0000000), wk =   0.2500000
        k(   10) = (  -0.0759910  -0.0559233   0.0000000), wk =   0.1250000

     Initial potential from superposition of free atoms

     starting charge  423.99908, renormalised to  442.00000

     negative rho (up, down):  3.745E-02 0.000E+00

     %%%%%%%%%%%%%%%%%%%%%%%%%%%%%%%%%%%%%%%%%%%%%%%%%%%%%%%%%%%%%%%%%%%%%%%%
     %                                                                      %
     % You are using vdW-DF, which was implemented by the Thonhauser group. %
     % Please cite the following two papers that made this development      %
     % possible and the two reviews that describe the various versions:     %
     %                                                                      %
     %   T. Thonhauser et al., PRL 115, 136402 (2015).                      %
     %   T. Thonhauser et al., PRB 76, 125112 (2007).                       %
     %   K. Berland et al., Rep. Prog. Phys. 78, 066501 (2015).             %
     %   D.C. Langreth et al., J. Phys.: Condens. Matter 21, 084203 (2009). %
     %                                                                      %
     %                                                                      %
     % If you are calculating the stress with vdW-DF, please also cite:     %
     %                                                                      %
     %   R. Sabatini et al., J. Phys.: Condens. Matter 24, 424209 (2012).   %
     %                                                                      %
     %%%%%%%%%%%%%%%%%%%%%%%%%%%%%%%%%%%%%%%%%%%%%%%%%%%%%%%%%%%%%%%%%%%%%%%%

     Adding external electric field

     Computed dipole along edir(3) :
        Dipole               -5.9679 Ry au,        -15.1688 Debye
        Dipole field         -0.0075 Ry au,

        Potential amp.        0.6960 Ry
        Total length         46.3494 bohr

     Starting wfcs are  334 atomic wfcs
  @ DRIVER MODE: Message from server: STATUS
  @ DRIVER MODE: Message from server: POSDATA
  @ DRIVER MODE: Reading and sharing cell
  @ DRIVER MODE: Reading and sharing positions
  @ DRIVER MODE: Received positions

     Self-consistent Calculation

     iteration #  1     ecut=    29.40 Ry     beta= 0.05
     Davidson diagonalization with overlap
     c_bands:  1 eigenvalues not converged
     c_bands:  3 eigenvalues not converged
     c_bands:  5 eigenvalues not converged
     c_bands:  2 eigenvalues not converged
     c_bands:  4 eigenvalues not converged
     c_bands:  4 eigenvalues not converged
     c_bands:  4 eigenvalues not converged
     c_bands:  2 eigenvalues not converged
     c_bands:  5 eigenvalues not converged
     ethr =  1.00E-05,  avg # of iterations = 21.0

[...]

     total energy              =   -3277.93398114 Ry
     estimated scf accuracy    <     239.59666848 Ry

     iteration #  2     ecut=    29.40 Ry     beta= 0.05
     Davidson diagonalization with overlap
     ethr =  1.00E-02,  avg # of iterations = 15.6

[...]

     iteration # 39     ecut=    29.40 Ry     beta= 0.05
     Davidson diagonalization with overlap
     c_bands:  1 eigenvalues not converged
     ethr =  5.57E-07,  avg # of iterations = 16.0

[...]

     total energy              =   -3295.80750437 Ry
     estimated scf accuracy    <       0.00000008 Ry

     iteration # 68     ecut=    29.40 Ry     beta= 0.05
     Davidson diagonalization with overlap
     ethr =  1.90E-11,  avg # of iterations =  5.1

     negative rho (up, down):  3.607E-02 0.000E+00

     Adding external electric field

     Computed dipole along edir(3) :
        Dipole                1.5085 Ry au,          3.8342 Debye
        Dipole field          0.0019 Ry au,

        Potential amp.       -0.1759 Ry
        Total length         46.3494 bohr

     End of self-consistent calculation

          k = 0.0000 0.0000 0.0000 ( 26871 PWs)   bands (ev):

   -57.7257 -57.6999 -57.6896 -57.6629 -57.6544 -57.6207 -57.6071 -57.5993
   -57.5715 -57.5581 -57.5089 -57.4783 -57.4621 -57.4557 -57.4476 -56.7475
   -56.7233 -56.7188 -34.1073 -34.1042 -34.0953 -34.0864 -34.0739 -34.0574
   -34.0565 -34.0428 -34.0297 -34.0184 -33.9885 -33.9704 -33.9506 -33.9444
   -33.9367 -33.9184 -33.9129 -33.9116 -33.8933 -33.8880 -33.8661 -33.8637
   -33.8434 -33.8339 -33.8298 -33.8238 -33.8129 -33.8110 -33.8054 -33.7958
   -33.7845 -33.7825 -33.7683 -33.7329 -33.7233 -33.7193 -33.7045 -33.7038
   -33.6962 -33.6952 -33.6839 -33.6755 -33.6686 -33.6628 -33.6403 -33.0628
   -33.0617 -33.0572 -33.0456 -33.0414 -32.9736 -32.9115 -32.9062 -32.7734
   -19.3031 -18.7616 -18.5263 -18.2282 -18.0170 -17.9747 -17.9416 -17.8203
   -17.7848 -17.7609 -17.6635 -17.6524 -17.5885 -17.5346 -17.5065 -17.4578
   -17.4401 -17.3793 -17.3653 -17.3569 -17.3517 -17.3414 -17.3312 -17.2658
   -17.2386 -17.2105 -17.1714 -17.1558 -17.1492 -17.1419 -17.1192 -16.8466
   -15.5232 -15.2139 -15.1558 -15.1546 -15.0832  -6.9881  -6.8482  -6.6522
    -6.3421  -5.8611  -5.7875  -5.6380  -5.5142  -5.2219  -5.1927  -5.1428
    -5.1161  -5.0875  -5.0228  -5.0028  -4.9897  -4.9344  -4.9168  -4.8444
    -4.8211  -4.7800  -4.7557  -4.7304  -4.6859  -4.6456  -4.6185  -4.6062
    -4.5752  -4.5680  -4.5116  -4.4879  -4.4586  -4.4529  -4.4370  -4.3278
    -4.2958  -4.2390  -4.1700  -4.0923  -4.0399  -4.0319  -3.9751  -3.9562
    -3.9038  -3.8639  -3.8265  -3.8179  -3.7816  -3.7433  -3.6423  -3.6114
    -3.5877  -3.5230  -3.5008  -3.4322  -3.4147  -3.3815  -3.3390  -3.3339
    -3.2971  -3.1989  -3.1651  -3.0848  -3.0272  -2.9742  -2.9356  -2.8912
    -2.8445  -2.8115  -2.7859  -2.7036  -2.6283  -2.5443  -2.4940  -2.4813
    -2.4696  -2.4188  -2.4120  -2.4091  -2.3526  -2.3264  -2.3157  -2.2781
    -2.2263  -2.2037  -2.1415  -2.0967  -2.0614  -1.9938  -1.9782  -1.8975
    -1.8887  -1.8274  -1.7845  -1.7448  -1.6333  -1.5983  -1.5661  -1.5635
    -1.4447  -1.4084  -1.1469  -1.0052  -0.7873  -0.7545  -0.5010  -0.4522
    -0.4494  -0.1863  -0.1830  -0.0547   1.3214   1.5100   1.6440   1.6991
     1.7041   1.7377   1.8039   1.8902   1.9158   1.9630   1.9943

[...]

          k = 0.0380-0.0280 0.0000 ( 26873 PWs)   bands (ev):

[...]

          k =-0.0760-0.0000 0.0000 ( 26902 PWs)   bands (ev):

[...]

          k =-0.0760-0.0559 0.0000 ( 26868 PWs)   bands (ev):

   -57.7222 -57.7075 -57.6854 -57.6617 -57.6544 -57.6214 -57.6085 -57.5990
   -57.5708 -57.5578 -57.5092 -57.4733 -57.4658 -57.4616 -57.4428 -56.7412
   -56.7359 -56.7124 -34.1946 -34.1576 -34.1545 -34.0952 -34.0610 -34.0532
   -34.0427 -34.0398 -34.0025 -33.9686 -33.9347 -33.9210 -33.9156 -33.9143
   -33.9031 -33.9007 -33.8811 -33.8739 -33.8693 -33.8692 -33.8652 -33.8597
   -33.8545 -33.8462 -33.8321 -33.8272 -33.8245 -33.8195 -33.8152 -33.7944
   -33.7936 -33.7711 -33.7644 -33.7569 -33.7511 -33.7329 -33.7264 -33.7213
   -33.7013 -33.7012 -33.6991 -33.6959 -33.6867 -33.6684 -33.6517 -33.1516
   -33.0624 -33.0572 -33.0349 -32.9551 -32.9491 -32.8874 -32.8729 -32.8676
   -19.2895 -18.7359 -18.2727 -18.1358 -17.9643 -17.9231 -17.8487 -17.8356
   -17.8238 -17.7945 -17.7024 -17.6791 -17.6532 -17.5697 -17.5508 -17.5008
   -17.4571 -17.4438 -17.4254 -17.4147 -17.4065 -17.3897 -17.3559 -17.3239
   -17.2913 -17.2392 -17.1773 -17.1584 -17.1100 -17.0952 -17.0646 -16.8804
   -15.5178 -15.2119 -15.2099 -15.0931 -15.0845  -6.9943  -6.8792  -6.6415
    -6.3243  -5.5179  -5.4547  -5.3714  -5.3570  -5.2392  -5.2047  -5.0150
    -5.0049  -4.9902  -4.9593  -4.9262  -4.8897  -4.8635  -4.8392  -4.8257
    -4.8121  -4.7906  -4.7647  -4.7524  -4.7363  -4.6926  -4.6453  -4.6389
    -4.6277  -4.6055  -4.5515  -4.5061  -4.4759  -4.4259  -4.4226  -4.3422
    -4.3186  -4.3003  -4.2267  -4.2183  -4.0980  -3.9491  -3.8879  -3.8680
    -3.8440  -3.7964  -3.7863  -3.7328  -3.7113  -3.6937  -3.5576  -3.4743
    -3.4512  -3.4167  -3.3854  -3.3623  -3.3268  -3.2993  -3.2771  -3.2518
    -3.2357  -3.1825  -3.1661  -3.1233  -3.0810  -2.9992  -2.9554  -2.8971
    -2.8747  -2.8562  -2.8377  -2.8338  -2.8136  -2.7810  -2.7518  -2.6939
    -2.6867  -2.6560  -2.5849  -2.5304  -2.5025  -2.4776  -2.4354  -2.4285
    -2.2735  -2.2543  -2.2209  -2.2089  -2.1354  -2.0918  -2.0004  -1.9738
    -1.9514  -1.8798  -1.8080  -1.7647  -1.7082  -1.5118  -1.5030  -1.3839
    -1.3472  -1.2984  -1.2730  -1.2314  -1.0700  -0.7351  -0.6635  -0.3802
    -0.3690  -0.3429  -0.1876  -0.1812   1.4287   1.4522   1.5374   1.5936
     1.6125   1.6502   1.6630   1.7021   1.7225   1.7791   1.9149

     the Fermi energy is     1.3723 ev

!    total energy              =   -3295.80752474 Ry
     estimated scf accuracy    <       0.00000006 Ry
     smearing contrib. (-TS)   =      -0.03571644 Ry
     internal energy E=F+TS    =   -3295.77180830 Ry

     The total energy is F=E-TS. E is the sum of the following terms:
     one-electron contribution =  -34706.32865848 Ry
     hartree contribution      =   17419.06987713 Ry
     xc contribution           =    -543.86963956 Ry
     ewald contribution        =   14535.35374976 Ry
     electric field correction =       0.00286285 Ry

     convergence has been achieved in  68 iterations

     Forces acting on atoms (cartesian axes, Ry/au):

     atom    1 type  1   force =    -0.00168694    0.00377708    0.05471436
     atom    2 type  1   force =     0.00023761   -0.00250396   -0.00840710
     atom    3 type  1   force =     0.00046058   -0.00350549    0.00032744
     atom    4 type  1   force =     0.00004390   -0.00002862    0.10676729
     atom    5 type  1   force =    -0.00020352    0.00064605    0.00657949
     atom    6 type  1   force =     0.00003488   -0.00448682    0.00368341
     atom    7 type  1   force =     0.06647645    0.00078767   -0.02966052
     atom    8 type  1   force =     0.00658786   -0.02713651    0.00195898
     atom    9 type  1   force =     0.00654956   -0.02252670    0.00521198
     atom   10 type  2   force =    -0.00010855   -0.00450378   -0.18344257
     atom   11 type  2   force =     0.00067606    0.02088526   -0.00414148
     atom   12 type  2   force =    -0.00192859    0.02779287   -0.00664205
     atom   13 type  1   force =    -0.06653272    0.00044366   -0.02980293
     atom   14 type  1   force =    -0.00432742   -0.02771759    0.00253336
     atom   15 type  1   force =    -0.00661517   -0.02338155    0.00502769
     atom   16 type  2   force =     0.00008148    0.00069778    0.06698272
     atom   17 type  2   force =    -0.00238161    0.03354334    0.00351599
     atom   18 type  2   force =     0.00139318    0.02456450   -0.00372953
     atom   19 type  1   force =    -0.00169743    0.00675850    0.05327021
     atom   20 type  1   force =     0.00023282   -0.00116872   -0.00659986
     atom   21 type  1   force =     0.00003536    0.00110334    0.10723395
     atom   22 type  1   force =    -0.00025150   -0.00198774    0.00722683
     atom   23 type  1   force =     0.00074747   -0.00582953    0.00405839
     atom   24 type  1   force =     0.06749702    0.00138050   -0.02905985
     atom   25 type  1   force =     0.00528146   -0.03016431    0.00245774
     atom   26 type  1   force =     0.00664553   -0.02619167   -0.00406347
     atom   27 type  2   force =     0.00011388   -0.00119784   -0.18674087
     atom   28 type  2   force =     0.00008031    0.02388367   -0.00246624
     atom   29 type  2   force =    -0.00134227    0.02200419    0.00073698
     atom   30 type  1   force =    -0.06760379    0.00087508   -0.02891230
     atom   31 type  1   force =    -0.00537154   -0.02962874    0.00279463
     atom   32 type  1   force =    -0.00430456   -0.02247505    0.00260079
     atom   33 type  2   force =    -0.00004403    0.00132636    0.07474053
     atom   34 type  2   force =     0.00092314    0.03692584    0.00407849
     atom   35 type  2   force =    -0.00206608    0.03486334    0.00500853
     atom   36 type  1   force =    -0.00186653    0.00289230    0.05589742
     atom   37 type  1   force =     0.00132018    0.00400785   -0.01131024
     atom   38 type  1   force =     0.00016269   -0.00408547    0.00419885
     atom   39 type  1   force =     0.00002158   -0.00062994    0.10726173
     atom   40 type  1   force =     0.00015698   -0.00141428    0.00716009
     atom   41 type  1   force =    -0.00024773   -0.00391875    0.00177636
     atom   42 type  1   force =     0.06784051   -0.00220785   -0.02969818
     atom   43 type  1   force =     0.00368226   -0.02637331    0.00152707
     atom   44 type  1   force =     0.01001169   -0.01800265    0.00267274
     atom   45 type  2   force =     0.00002947    0.00217278   -0.18330457
     atom   46 type  2   force =    -0.00023719    0.01479211    0.00205676
     atom   47 type  2   force =     0.00297913    0.02647167   -0.00880150
     atom   48 type  1   force =    -0.06790568   -0.00283544   -0.02985621
     atom   49 type  1   force =    -0.00374487   -0.02551878    0.00182795
     atom   50 type  1   force =    -0.00794021   -0.02368581    0.00525227
     atom   51 type  2   force =     0.00045557   -0.00350728    0.06840028
     atom   52 type  2   force =    -0.00011875    0.03119206    0.00597977
     atom   53 type  2   force =    -0.00207790    0.02592752   -0.00058361
     atom   54 type  3   force =     0.00070181   -0.00196446   -0.00091475
     atom   55 type  4   force =    -0.00073825    0.00039669   -0.00049086
     atom   56 type  4   force =     0.00027968    0.00088782    0.00128906
     atom   57 type  3   force =    -0.00631888   -0.00310081   -0.00733474
     atom   58 type  4   force =     0.00133154    0.00107134    0.00034277
     atom   59 type  4   force =     0.00722531    0.00063653    0.00757284
     atom   60 type  4   force =    -0.00140360    0.00009421    0.00010390
     atom   61 type  4   force =    -0.00123161   -0.00112247    0.00113380

     Total force =     0.459751     Total SCF correction =     0.000554
  @ DRIVER MODE: Message from server: STATUS
  @ DRIVER MODE: Message from server: GETFORCE
  @ DRIVER MODE: Returning v,forces,stress,ensemble

     Writing output data file ./calc.save/
  @ DRIVER MODE: Message from server: EXIT
  @ DRIVE MODE: Exiting

     General routines

     Parallel routines

   This run was terminated on:   5: 2:51  19Oct2021

   JOB DONE.