     Program PWSCF v.6.7GPU starts on 23Sep2021 at 13:19:14

     R & G space division:  proc/nbgrp/npool/nimage =       8
     Reading input from /storage/home/hcoda1/3/ntian30/research/carbon/CxH_vib/H2O_calc/ads_slab/CH2NNHHHO_a/out_0006/pw.inp
Warning: card &CELL ignored
Warning: card   CELL_DYNAMICS='IPI', ignored
Warning: card / ignored

     Current dimensions of program PWSCF are:
     Max number of different atomic species (ntypx) = 10
     Max number of k-points (npk) =  40000
     Max angular momentum in pseudopotentials (lmaxx) =  3
     Presently no symmetry can be used with electric field

     Message from routine cell_base_init:
     DEPRECATED: use true lattice parameter, not A to a.u. conversion factor

     IMPORTANT: XC functional enforced from input :
     Exchange-correlation= BEEF-VDW
                           (   1   4  43  14   2   0   0)
     Any further DFT definition will be discarded
     Please, verify this is what you really want

  @ DRIVER MODE: Connecting to
 qe_1139763_2947314.sched-torque.pace.gatech.eduj456nm6p_scratch
  using UNIX socket
  @ DRIVER MODE: Message from server: STATUS
  @ DRIVER MODE: Message from server: INIT
  @ DRIVER MODE: Receiving replica           0          -1
  @ DRIVER MODE: Receiving encoded integer          25
  @ DRIVER MODE:  SCF:  T  FORCE:  T  STRESS:  F  VC:  F  ENSEMBLE:  F
  @ DRIVER MODE:  SCF:  T  FORCE:  T  STRESS:  F  VC:  F  ENSEMBLE:  F

     Using Slab Decomposition

     bravais-lattice index     =            0
     lattice parameter (alat)  =       1.8897  a.u.
     unit-cell volume          =    6658.9804 (a.u.)^3
     number of atoms/cell      =           56
     number of atomic types    =            5
     number of electrons       =       403.00
     number of Kohn-Sham states=          211
     kinetic-energy cutoff     =      29.3995  Ry
     charge density cutoff     =     293.9946  Ry
     scf convergence threshold =      7.3E-08
     mixing beta               =       0.0500
     number of iterations used =            8  plain     mixing
     Exchange-correlation= BEEF-VDW
                           (   1   4  43  14   2   0   0)

     celldm(1)=   1.889726  celldm(2)=   0.000000  celldm(3)=   0.000000
     celldm(4)=   0.000000  celldm(5)=   0.000000  celldm(6)=   0.000000

     crystal axes: (cart. coord. in units of alat)
               a(1) = (   6.579727   0.000000   0.000000 )
               a(2) = (  -0.000775   5.961596   0.000000 )
               a(3) = (   0.000000   0.000000  25.155947 )

     reciprocal axes: (cart. coord. in units 2 pi/alat)
               b(1) = (  0.151982  0.000020  0.000000 )
               b(2) = (  0.000000  0.167740  0.000000 )
               b(3) = (  0.000000  0.000000  0.039752 )

     PseudoPot. # 1 for Ti read from file:
     /storage/coda1/p-amedford6/0/shared/rich_project_chbe-medford/medford-share/data/pseudos_module/espresso/nninc/pbe/van/Ti.UPF
     MD5 check sum: 8e4df49b7f0d34bbd5052bf3f5ea0213
     Pseudo is Ultrasoft, Zval = 12.0
     Generated by new atomic code, or converted to UPF format
     Using radial grid of  851 points,  6 beta functions with:
                l(1) =   0
                l(2) =   0
                l(3) =   1
                l(4) =   1
                l(5) =   2
                l(6) =   2
     Q(r) pseudized with  8 coefficients,  rinner =    1.000   1.000   1.000
                                                       1.000   1.000

     PseudoPot. # 2 for O  read from file:
     /storage/coda1/p-amedford6/0/shared/rich_project_chbe-medford/medford-share/data/pseudos_module/espresso/nninc/pbe/van/O.UPF
     MD5 check sum: 78c19812648e8988a0fe644b0f25305e
     Pseudo is Ultrasoft, Zval =  6.0
     Generated by new atomic code, or converted to UPF format
     Using radial grid of  737 points,  4 beta functions with:
                l(1) =   0
                l(2) =   0
                l(3) =   1
                l(4) =   1
     Q(r) pseudized with  8 coefficients,  rinner =    0.800   0.800   0.800

     PseudoPot. # 3 for N  read from file:
     /storage/coda1/p-amedford6/0/shared/rich_project_chbe-medford/medford-share/data/pseudos_module/espresso/nninc/pbe/van/N.UPF
     MD5 check sum: 90d10febe142ad51ac9d5be1deb811c4
     Pseudo is Ultrasoft, Zval =  5.0
     Generated by new atomic code, or converted to UPF format
     Using radial grid of  729 points,  4 beta functions with:
                l(1) =   0
                l(2) =   0
                l(3) =   1
                l(4) =   1
     Q(r) pseudized with  8 coefficients,  rinner =    0.800   0.800   0.800

     PseudoPot. # 4 for C  read from file:
     /storage/coda1/p-amedford6/0/shared/rich_project_chbe-medford/medford-share/data/pseudos_module/espresso/nninc/pbe/van/C.UPF
     MD5 check sum: 1a69bf6b8db32088f5b2163dbdb77a27
     Pseudo is Ultrasoft, Zval =  4.0
     Generated by new atomic code, or converted to UPF format
     Using radial grid of  721 points,  4 beta functions with:
                l(1) =   0
                l(2) =   0
                l(3) =   1
                l(4) =   1
     Q(r) pseudized with  8 coefficients,  rinner =    0.800   0.800   0.800

     PseudoPot. # 5 for H  read from file:
     /storage/coda1/p-amedford6/0/shared/rich_project_chbe-medford/medford-share/data/pseudos_module/espresso/nninc/pbe/van/H.UPF
     MD5 check sum: b5ee9d7bfd3a09ee7748110bda690ff7
     Pseudo is Ultrasoft, Zval =  1.0
     Generated by new atomic code, or converted to UPF format
     Using radial grid of  615 points,  1 beta functions with:
                l(1) =   0
     Q(r) pseudized with  8 coefficients,  rinner =    0.800

     atomic species   valence    mass     pseudopotential
        Ti1           12.00    47.86700     Ti( 1.00)
        O1             6.00    15.99900     O ( 1.00)
        N1             5.00    14.00700     N ( 1.00)
        C1             4.00    12.01100     C ( 1.00)
        H1             1.00     1.00800     H ( 1.00)

     No symmetry found

   Cartesian axes

     site n.     atom                  positions (alat units)
         1           Ti1 tau(   1) = (   0.0004258   2.9801865   6.0000000  )
         2           Ti1 tau(   2) = (   3.2906075   1.4906267   6.0002472  )
         3           O1  tau(   3) = (   0.0006271   0.0005054   7.9858123  )
         4           O1  tau(   4) = (   3.2906025   0.0005020   7.3038282  )
         5           O1  tau(   5) = (   4.5942328   1.4918067   9.2879030  )
         6           O1  tau(   6) = (   1.9868534   1.4903216   9.2879459  )
         7           Ti1 tau(   7) = (   3.2907910   2.8959150   9.1758416  )
         8           Ti1 tau(   8) = (   0.0015273   1.4827037   9.2680791  )
         9           O1  tau(   9) = (   3.2834828   5.9254549  11.3560997  )
        10           O1  tau(  10) = (   0.0116148   5.9584955  10.6183126  )
        11           O1  tau(  11) = (   1.2632982   1.4794151  12.6467768  )
        12           O1  tau(  12) = (   5.2979234   1.4912170  12.6376735  )
        13           Ti1 tau(  13) = (   6.5593102   2.9584919  12.5255918  )
        14           Ti1 tau(  14) = (   3.2941082   1.2876829  12.7086691  )
        15           O1  tau(  15) = (   6.5459232   0.0848410  14.6672212  )
        16           O1  tau(  16) = (   3.2899079   0.0686032  13.9983899  )
        17           O1  tau(  17) = (   4.5347701   1.5447734  16.1667714  )
        18           O1  tau(  18) = (   1.9898569   1.5359154  16.1924900  )
        19           Ti1 tau(  19) = (   3.2532585   2.9792413  15.6887139  )
        20           Ti1 tau(  20) = (   6.5162390   1.4193964  16.0443711  )
        21           O1  tau(  21) = (   3.2904802   0.0005063   4.7018136  )
        22           O1  tau(  22) = (   6.5314393   5.8470953  17.1670503  )
        23           O1  tau(  23) = (   1.3043587   1.4918075   6.0039043  )
        24           O1  tau(  24) = (   5.2767064   1.4903225   6.0039473  )
        25           Ti1 tau(  25) = (   0.0000382   5.9609847   6.0000000  )
        26           Ti1 tau(  26) = (   3.2902200   4.4714249   6.0002472  )
        27           O1  tau(  27) = (   0.0002396   2.9813036   7.9858123  )
        28           O1  tau(  28) = (   3.2902150   2.9813002   7.3038282  )
        29           O1  tau(  29) = (   4.5938453   4.4726049   9.2879030  )
        30           O1  tau(  30) = (   1.9864658   4.4711199   9.2879459  )
        31           Ti1 tau(  31) = (   3.2891106   5.8743827   9.1763621  )
        32           Ti1 tau(  32) = (   0.0006254   4.4649316   9.2693709  )
        33           O1  tau(  33) = (   3.2801501   3.0037454  11.3162440  )
        34           O1  tau(  34) = (   0.0092240   2.9805883  10.6323155  )
        35           O1  tau(  35) = (   1.2628463   4.4620516  12.6871769  )
        36           O1  tau(  36) = (   5.2965349   4.4479299  12.6783795  )
        37           Ti1 tau(  37) = (   0.0245004   5.9521619  12.5031165  )
        38           Ti1 tau(  38) = (   3.2934334   4.3725749  12.4478892  )
        39           O1  tau(  39) = (   0.0012172   2.9324930  14.9038371  )
        40           O1  tau(  40) = (   3.2612729   2.9642313  13.9201381  )
        41           O1  tau(  41) = (   4.5459169   4.3864222  16.0774642  )
        42           O1  tau(  42) = (   2.0085495   4.4473877  16.1057765  )
        43           Ti1 tau(  43) = (   3.2275989   5.9528725  16.3079466  )
        44           Ti1 tau(  44) = (   6.5418721   4.6299905  15.7990834  )
        45           O1  tau(  45) = (   3.2900926   2.9813045   4.7018136  )
        46           O1  tau(  46) = (   1.3039711   4.4726057   6.0039043  )
        47           O1  tau(  47) = (   5.2763189   4.4711207   6.0039473  )
        48           N1  tau(  48) = (   6.5153795   2.7269917  18.1820481  )
        49           C1  tau(  49) = (   0.9714328   2.6352729  18.9176740  )
        50           H1  tau(  50) = (   0.9613011   2.9697384  19.9541300  )
        51           H1  tau(  51) = (   1.8619620   2.1844435  18.5121220  )
        52           N1  tau(  52) = (   5.3313596   3.1722530  18.7397816  )
        53           H1  tau(  53) = (   5.4931776   3.7097374  19.5894643  )
        54           H1  tau(  54) = (   4.8256156   3.7472006  18.0707398  )
        55           O1  tau(  55) = (   3.3867674   5.8992794  18.1610867  )
        56           H1  tau(  56) = (   4.0349165   0.5560778  18.5374839  )

     number of k points=    10  Fermi-Dirac smearing, width (Ry)=  0.0073
                       cart. coord. in units 2pi/alat
        k(    1) = (   0.0000000   0.0000000   0.0000000), wk =   0.1250000
        k(    2) = (   0.0000000   0.0419351   0.0000000), wk =   0.2500000
        k(    3) = (   0.0000000  -0.0838702   0.0000000), wk =   0.1250000
        k(    4) = (   0.0379955   0.0000049   0.0000000), wk =   0.2500000
        k(    5) = (   0.0379955   0.0419400   0.0000000), wk =   0.2500000
        k(    6) = (   0.0379955  -0.0838652   0.0000000), wk =   0.2500000
        k(    7) = (   0.0379955  -0.0419301   0.0000000), wk =   0.2500000
        k(    8) = (  -0.0759910  -0.0000099   0.0000000), wk =   0.1250000
        k(    9) = (  -0.0759910   0.0419252   0.0000000), wk =   0.2500000
        k(   10) = (  -0.0759910  -0.0838800   0.0000000), wk =   0.1250000

     Initial potential from superposition of free atoms

     starting charge  386.99914, renormalised to  403.00000

     negative rho (up, down):  1.547E-02 0.000E+00

     %%%%%%%%%%%%%%%%%%%%%%%%%%%%%%%%%%%%%%%%%%%%%%%%%%%%%%%%%%%%%%%%%%%%%%%%
     %                                                                      %
     % You are using vdW-DF, which was implemented by the Thonhauser group. %
     % Please cite the following two papers that made this development      %
     % possible and the two reviews that describe the various versions:     %
     %                                                                      %
     %   T. Thonhauser et al., PRL 115, 136402 (2015).                      %
     %   T. Thonhauser et al., PRB 76, 125112 (2007).                       %
     %   K. Berland et al., Rep. Prog. Phys. 78, 066501 (2015).             %
     %   D.C. Langreth et al., J. Phys.: Condens. Matter 21, 084203 (2009). %
     %                                                                      %
     %                                                                      %
     % If you are calculating the stress with vdW-DF, please also cite:     %
     %                                                                      %
     %   R. Sabatini et al., J. Phys.: Condens. Matter 24, 424209 (2012).   %
     %                                                                      %
     %%%%%%%%%%%%%%%%%%%%%%%%%%%%%%%%%%%%%%%%%%%%%%%%%%%%%%%%%%%%%%%%%%%%%%%%

     Adding external electric field

     Computed dipole along edir(3) :
        Dipole              -13.0267 Ry au,        -33.1107 Debye
        Dipole field         -0.0246 Ry au,

        Potential amp.        2.2788 Ry
        Total length         46.3494 bohr

     Starting wfcs are  305 atomic wfcs
  @ DRIVER MODE: Message from server: STATUS
  @ DRIVER MODE: Message from server: POSDATA
  @ DRIVER MODE: Reading and sharing cell
  @ DRIVER MODE: Reading and sharing positions
  @ DRIVER MODE: Received positions

     Self-consistent Calculation

     iteration #  1     ecut=    29.40 Ry     beta= 0.05
     Davidson diagonalization with overlap
     c_bands:  4 eigenvalues not converged
     c_bands:  4 eigenvalues not converged
     c_bands:  1 eigenvalues not converged
     c_bands:  5 eigenvalues not converged
     c_bands:  5 eigenvalues not converged
     c_bands:  2 eigenvalues not converged
     c_bands:  3 eigenvalues not converged
     ethr =  1.00E-05,  avg # of iterations = 25.0

[...]

     total energy              =   -2311.50901018 Ry
     estimated scf accuracy    <    7504.93207606 Ry

     iteration #  2     ecut=    29.40 Ry     beta= 0.05
     Davidson diagonalization with overlap
     ethr =  1.00E-02,  avg # of iterations = 25.1

[...]

     iteration # 48     ecut=    29.40 Ry     beta= 0.05
     Davidson diagonalization with overlap
     c_bands:  1 eigenvalues not converged
     ethr =  3.28E-07,  avg # of iterations = 13.6

[...]

     total energy              =   -2974.00140662 Ry
     estimated scf accuracy    <       0.00000020 Ry

     iteration # 67     ecut=    29.40 Ry     beta= 0.05
     Davidson diagonalization with overlap
     ethr =  3.64E-11,  avg # of iterations =  8.5

     negative rho (up, down):  1.590E-02 0.000E+00

     Adding external electric field

     Computed dipole along edir(3) :
        Dipole                1.0829 Ry au,          2.7524 Debye
        Dipole field          0.0020 Ry au,

        Potential amp.       -0.1894 Ry
        Total length         46.3494 bohr

     End of self-consistent calculation

          k = 0.0000 0.0000 0.0000 ( 18029 PWs)   bands (ev):

   -55.5995 -55.5344 -55.5003 -55.3836 -55.3787 -55.3608 -55.3474 -55.3348
   -55.3270 -55.2992 -55.2517 -55.1518 -55.1371 -55.0596 -54.5025 -54.4684
   -32.0187 -31.9368 -31.9027 -31.8690 -31.8637 -31.8288 -31.8252 -31.8109
   -31.7841 -31.7801 -31.7616 -31.6868 -31.6608 -31.6529 -31.6407 -31.6371
   -31.6256 -31.6164 -31.5927 -31.5918 -31.5855 -31.5574 -31.5470 -31.5420
   -31.5241 -31.5198 -31.5155 -31.5020 -31.4913 -31.4885 -31.4806 -31.4714
   -31.4713 -31.4479 -31.4258 -31.4069 -31.3493 -31.3407 -31.3079 -31.2987
   -31.2783 -31.2659 -30.9080 -30.8227 -30.8002 -30.7257 -30.6394 -30.5274
   -18.4284 -16.4416 -16.1713 -16.0043 -15.7917 -15.7119 -15.6731 -15.4800
   -15.3876 -15.3259 -15.0974 -15.0742 -15.0683 -15.0433 -15.0336 -15.0175
   -15.0008 -14.9611 -14.9520 -14.9438 -14.9202 -14.9056 -14.8734 -14.8218
   -14.7793 -14.7628 -14.6676 -14.5993 -14.5529 -14.3185 -14.2205 -13.5354
   -13.0007 -12.8845  -8.5503  -6.2867  -5.8608  -4.0534  -3.8646  -3.5330
    -3.4374  -3.4163  -3.3561  -3.2923  -3.0512  -2.9939  -2.8923  -2.8441
    -2.7655  -2.6507  -2.6028  -2.5312  -2.4597  -2.4507  -2.4034  -2.3749
    -2.3123  -2.2987  -2.2635  -2.2574  -2.1860  -2.1666  -2.0653  -2.0534
    -2.0395  -1.9043  -1.8907  -1.8479  -1.8402  -1.8398  -1.8012  -1.7825
    -1.7668  -1.7503  -1.6454  -1.6064  -1.5859  -1.5138  -1.4792  -1.1637
    -1.1326  -1.0720  -1.0540  -1.0198  -0.9672  -0.9433  -0.9220  -0.8577
    -0.8187  -0.7686  -0.7281  -0.7040  -0.6225  -0.5867  -0.5449  -0.4617
    -0.3876  -0.3129  -0.3075  -0.2629  -0.2349  -0.2085  -0.1104  -0.0850
    -0.0719   0.0273   0.0486   0.1230   0.1633   0.2067   0.2455   0.2936
     0.3579   0.3766   0.4011   0.4368   0.4448   0.4997   0.5200   0.5788
     0.6317   0.6469   0.7447   0.8025   0.8170   0.8357   0.9420   1.0214
     1.1417   1.1494   1.2505   1.4763   1.5243   1.5680   1.7176   2.0905
     2.1355   3.5523   3.7010   3.7176   3.7616   3.8087   3.8927   4.0390
     4.1018   4.2396   4.2441

[...]

          k = 0.0380-0.0419 0.0000 ( 17876 PWs)   bands (ev):

[...]

          k =-0.0760-0.0000 0.0000 ( 17886 PWs)   bands (ev):

[...]

          k =-0.0760-0.0839 0.0000 ( 17948 PWs)   bands (ev):

   -55.5988 -55.5175 -55.5170 -55.3775 -55.3703 -55.3605 -55.3440 -55.3435
   -55.3355 -55.2922 -55.2587 -55.1488 -55.1383 -55.0626 -54.4858 -54.4850
   -31.8824 -31.8342 -31.8339 -31.8331 -31.8200 -31.8109 -31.8104 -31.8038
   -31.7366 -31.6894 -31.6804 -31.6699 -31.6650 -31.6375 -31.6373 -31.6356
   -31.6339 -31.6195 -31.6166 -31.6021 -31.5905 -31.5803 -31.5713 -31.5600
   -31.5512 -31.5470 -31.5387 -31.5375 -31.5223 -31.5167 -31.5145 -31.5103
   -31.5099 -31.4818 -31.4779 -31.4197 -31.4008 -31.3781 -31.3519 -31.3444
   -31.3144 -31.2699 -30.8132 -30.8126 -30.7215 -30.7203 -30.6829 -30.6823
   -18.4255 -16.4259 -15.7536 -15.6271 -15.5014 -15.4970 -15.3765 -15.2989
   -15.2817 -15.2528 -15.2409 -15.2068 -15.1892 -15.1534 -15.1219 -15.0907
   -15.0507 -15.0298 -15.0164 -14.9771 -14.9665 -14.9496 -14.9398 -14.9168
   -14.8755 -14.8398 -14.8289 -14.6866 -14.6309 -14.5842 -14.4450 -13.5442
   -12.9866 -12.9861  -8.5263  -6.2540  -5.8804  -3.9989  -3.9471  -3.0065
    -2.9273  -2.8232  -2.7177  -2.6228  -2.5687  -2.5333  -2.4957  -2.4513
    -2.4290  -2.3787  -2.3379  -2.3175  -2.3094  -2.2765  -2.2676  -2.2520
    -2.2325  -2.2172  -2.2023  -2.1922  -2.1638  -2.1467  -2.1457  -2.1118
    -2.1007  -2.0731  -2.0653  -2.0128  -1.9161  -1.8866  -1.7937  -1.6931
    -1.6858  -1.6721  -1.6482  -1.6095  -1.5987  -1.5707  -1.5371  -1.4740
    -1.4599  -1.3053  -1.2523  -1.2139  -1.1473  -1.0917  -1.0601  -1.0336
    -0.9902  -0.9654  -0.8922  -0.8624  -0.7615  -0.7109  -0.6850  -0.6089
    -0.5495  -0.4851  -0.4757  -0.4681  -0.4429  -0.4185  -0.3947  -0.3621
    -0.3400  -0.2685  -0.2312  -0.2128  -0.2028  -0.1477  -0.1024   0.0008
     0.1264   0.2358   0.2524   0.2829   0.3217   0.4723   0.5167   0.5773
     0.6255   0.6566   0.6868   0.7805   0.7917   0.8746   0.8993   0.9357
     0.9822   1.0072   1.0396   1.0690   1.0778   1.8878   1.8951   1.9558
     1.9561   3.7704   4.0486   4.0734   4.0813   4.1036   4.1202   4.1363
     4.1548   4.2267   4.2304

     the Fermi energy is     3.5878 ev

!    total energy              =   -2974.00144069 Ry
     estimated scf accuracy    <       0.00000007 Ry
     smearing contrib. (-TS)   =      -0.01962003 Ry
     internal energy E=F+TS    =   -2973.98182067 Ry

     The total energy is F=E-TS. E is the sum of the following terms:
     one-electron contribution =  -23469.64819536 Ry
     hartree contribution      =   11830.19789347 Ry
     xc contribution           =    -494.07463106 Ry
     ewald contribution        =    9159.54089945 Ry
     electric field correction =       0.00221283 Ry

     convergence has been achieved in  67 iterations

     Forces acting on atoms (cartesian axes, Ry/au):

     atom    1 type  1   force =     0.00012675   -0.00018710    0.09455764
     atom    2 type  1   force =    -0.00003577    0.00035077   -0.17511077
     atom    3 type  2   force =    -0.00002516   -0.00002847   -0.02134159
     atom    4 type  2   force =     0.00001548   -0.00189524    0.05323901
     atom    5 type  2   force =    -0.00693795   -0.00239612    0.00356702
     atom    6 type  2   force =     0.00804880   -0.00193138    0.00204630
     atom    7 type  1   force =    -0.00070112   -0.00277300    0.01000933
     atom    8 type  1   force =     0.00061368    0.00276020    0.00499002
     atom    9 type  2   force =     0.00003270   -0.00046221    0.00024318
     atom   10 type  2   force =    -0.00253758   -0.00140466   -0.01075517
     atom   11 type  2   force =     0.00127865   -0.00017768    0.00056107
     atom   12 type  2   force =    -0.00080854   -0.00022742    0.00067002
     atom   13 type  1   force =    -0.00094787   -0.00096086    0.00039760
     atom   14 type  1   force =     0.00031710    0.00033948    0.00006203
     atom   15 type  2   force =     0.00010872    0.00036719   -0.00032605
     atom   16 type  2   force =    -0.00045694    0.00018797    0.00010654
     atom   17 type  2   force =    -0.00008235    0.00033342    0.00020227
     atom   18 type  2   force =     0.00091704   -0.00015766   -0.00031867
     atom   19 type  1   force =     0.00115214    0.00060193    0.00004919
     atom   20 type  1   force =    -0.00070345   -0.00002449    0.00033748
     atom   21 type  2   force =     0.00006562    0.00009546    0.10307630
     atom   22 type  2   force =     0.00058601    0.00072426    0.00043123
     atom   23 type  2   force =    -0.07212465   -0.00013494   -0.02733704
     atom   24 type  2   force =     0.07201074    0.00029938   -0.02733696
     atom   25 type  1   force =     0.00001115   -0.00015034    0.09405804
     atom   26 type  1   force =    -0.00015926   -0.00109278   -0.17521372
     atom   27 type  2   force =     0.00012214   -0.00024652   -0.02013160
     atom   28 type  2   force =    -0.00000430   -0.00026944    0.04931559
     atom   29 type  2   force =    -0.00563114    0.00191967    0.00158506
     atom   30 type  2   force =     0.00665826    0.00249100   -0.00001241
     atom   31 type  1   force =    -0.00071969    0.00678785   -0.00111369
     atom   32 type  1   force =     0.00050068   -0.00385408    0.00430450
     atom   33 type  2   force =     0.00016301   -0.00010648   -0.00079276
     atom   34 type  2   force =    -0.00187465    0.00170020   -0.01043898
     atom   35 type  2   force =     0.00116756    0.00029353   -0.00015964
     atom   36 type  2   force =    -0.00055602    0.00043340   -0.00024607
     atom   37 type  1   force =    -0.00064818    0.00045841   -0.00032809
     atom   38 type  1   force =     0.00055939    0.00013511    0.00011439
     atom   39 type  2   force =     0.00032975   -0.00041288    0.00056294
     atom   40 type  2   force =     0.00020429    0.00013558   -0.00036372
     atom   41 type  2   force =     0.00010564   -0.00014980   -0.00100461
     atom   42 type  2   force =     0.00029550   -0.00038141    0.00039778
     atom   43 type  1   force =     0.00010310   -0.00070437    0.00057235
     atom   44 type  1   force =    -0.00045901   -0.00000644    0.00015641
     atom   45 type  2   force =     0.00007675   -0.00006845    0.10285955
     atom   46 type  2   force =    -0.07216648   -0.00003138   -0.02733624
     atom   47 type  2   force =     0.07208667    0.00040599   -0.02737641
     atom   48 type  3   force =    -0.00676542   -0.00176912   -0.01682814
     atom   49 type  4   force =     0.00751511   -0.00018325    0.01021177
     atom   50 type  5   force =     0.00113001   -0.00027015    0.00078103
     atom   51 type  5   force =    -0.00054954    0.00010308   -0.00032294
     atom   52 type  3   force =    -0.00090824    0.00093816    0.00524197
     atom   53 type  5   force =    -0.00132581    0.00028290    0.00094191
     atom   54 type  5   force =     0.00062967   -0.00006903   -0.00120360
     atom   55 type  2   force =    -0.00014628    0.00089522   -0.00008764
     atom   56 type  5   force =     0.00034328   -0.00051303   -0.00016301

     Total force =     0.362644     Total SCF correction =     0.000642
  @ DRIVER MODE: Message from server: STATUS
  @ DRIVER MODE: Message from server: GETFORCE
  @ DRIVER MODE: Returning v,forces,stress,ensemble

     Writing output data file ./calc.save/
  @ DRIVER MODE: Message from server: EXIT
  @ DRIVE MODE: Exiting

     General routines

     Parallel routines

   This run was terminated on:  13:43:37  23Sep2021

   JOB DONE.