     Program PWSCF v.6.7GPU starts on 23Sep2021 at  6:36:58

     R & G space division:  proc/nbgrp/npool/nimage =       8
     Reading input from /storage/home/hcoda1/3/ntian30/research/carbon/CxH_vib/H2O_calc/ads_slab/CH2NHHO_a/out_0021/pw.inp
Warning: card &CELL ignored
Warning: card   CELL_DYNAMICS='IPI', ignored
Warning: card / ignored

     Current dimensions of program PWSCF are:
     Max number of different atomic species (ntypx) = 10
     Max number of k-points (npk) =  40000
     Max angular momentum in pseudopotentials (lmaxx) =  3
     Presently no symmetry can be used with electric field

     Message from routine cell_base_init:
     DEPRECATED: use true lattice parameter, not A to a.u. conversion factor

     IMPORTANT: XC functional enforced from input :
     Exchange-correlation= BEEF-VDW
                           (   1   4  43  14   2   0   0)
     Any further DFT definition will be discarded
     Please, verify this is what you really want

  @ DRIVER MODE: Connecting to
 qe_1139763_2941012.sched-torque.pace.gatech.eduml3oep8b_scratch
  using UNIX socket
  @ DRIVER MODE: Message from server: STATUS
  @ DRIVER MODE: Message from server: INIT
  @ DRIVER MODE: Receiving replica           0          -1
  @ DRIVER MODE: Receiving encoded integer          25
  @ DRIVER MODE:  SCF:  T  FORCE:  T  STRESS:  F  VC:  F  ENSEMBLE:  F
  @ DRIVER MODE:  SCF:  T  FORCE:  T  STRESS:  F  VC:  F  ENSEMBLE:  F

     Using Slab Decomposition

     bravais-lattice index     =            0
     lattice parameter (alat)  =       1.8897  a.u.
     unit-cell volume          =    6658.9804 (a.u.)^3
     number of atoms/cell      =           54
     number of atomic types    =            5
     number of electrons       =       397.00
     number of Kohn-Sham states=          208
     kinetic-energy cutoff     =      29.3995  Ry
     charge density cutoff     =     293.9946  Ry
     scf convergence threshold =      7.3E-08
     mixing beta               =       0.0500
     number of iterations used =            8  plain     mixing
     Exchange-correlation= BEEF-VDW
                           (   1   4  43  14   2   0   0)

     celldm(1)=   1.889726  celldm(2)=   0.000000  celldm(3)=   0.000000
     celldm(4)=   0.000000  celldm(5)=   0.000000  celldm(6)=   0.000000

     crystal axes: (cart. coord. in units of alat)
               a(1) = (   6.579727   0.000000   0.000000 )
               a(2) = (  -0.000775   5.961596   0.000000 )
               a(3) = (   0.000000   0.000000  25.155947 )

     reciprocal axes: (cart. coord. in units 2 pi/alat)
               b(1) = (  0.151982  0.000020  0.000000 )
               b(2) = (  0.000000  0.167740  0.000000 )
               b(3) = (  0.000000  0.000000  0.039752 )

     PseudoPot. # 1 for Ti read from file:
     /storage/coda1/p-amedford6/0/shared/rich_project_chbe-medford/medford-share/data/pseudos_module/espresso/nninc/pbe/van/Ti.UPF
     MD5 check sum: 8e4df49b7f0d34bbd5052bf3f5ea0213
     Pseudo is Ultrasoft, Zval = 12.0
     Generated by new atomic code, or converted to UPF format
     Using radial grid of  851 points,  6 beta functions with:
                l(1) =   0
                l(2) =   0
                l(3) =   1
                l(4) =   1
                l(5) =   2
                l(6) =   2
     Q(r) pseudized with  8 coefficients,  rinner =    1.000   1.000   1.000
                                                       1.000   1.000

     PseudoPot. # 2 for O  read from file:
     /storage/coda1/p-amedford6/0/shared/rich_project_chbe-medford/medford-share/data/pseudos_module/espresso/nninc/pbe/van/O.UPF
     MD5 check sum: 78c19812648e8988a0fe644b0f25305e
     Pseudo is Ultrasoft, Zval =  6.0
     Generated by new atomic code, or converted to UPF format
     Using radial grid of  737 points,  4 beta functions with:
                l(1) =   0
                l(2) =   0
                l(3) =   1
                l(4) =   1
     Q(r) pseudized with  8 coefficients,  rinner =    0.800   0.800   0.800

     PseudoPot. # 3 for N  read from file:
     /storage/coda1/p-amedford6/0/shared/rich_project_chbe-medford/medford-share/data/pseudos_module/espresso/nninc/pbe/van/N.UPF
     MD5 check sum: 90d10febe142ad51ac9d5be1deb811c4
     Pseudo is Ultrasoft, Zval =  5.0
     Generated by new atomic code, or converted to UPF format
     Using radial grid of  729 points,  4 beta functions with:
                l(1) =   0
                l(2) =   0
                l(3) =   1
                l(4) =   1
     Q(r) pseudized with  8 coefficients,  rinner =    0.800   0.800   0.800

     PseudoPot. # 4 for C  read from file:
     /storage/coda1/p-amedford6/0/shared/rich_project_chbe-medford/medford-share/data/pseudos_module/espresso/nninc/pbe/van/C.UPF
     MD5 check sum: 1a69bf6b8db32088f5b2163dbdb77a27
     Pseudo is Ultrasoft, Zval =  4.0
     Generated by new atomic code, or converted to UPF format
     Using radial grid of  721 points,  4 beta functions with:
                l(1) =   0
                l(2) =   0
                l(3) =   1
                l(4) =   1
     Q(r) pseudized with  8 coefficients,  rinner =    0.800   0.800   0.800

     PseudoPot. # 5 for H  read from file:
     /storage/coda1/p-amedford6/0/shared/rich_project_chbe-medford/medford-share/data/pseudos_module/espresso/nninc/pbe/van/H.UPF
     MD5 check sum: b5ee9d7bfd3a09ee7748110bda690ff7
     Pseudo is Ultrasoft, Zval =  1.0
     Generated by new atomic code, or converted to UPF format
     Using radial grid of  615 points,  1 beta functions with:
                l(1) =   0
     Q(r) pseudized with  8 coefficients,  rinner =    0.800

     atomic species   valence    mass     pseudopotential
        Ti1           12.00    47.86700     Ti( 1.00)
        O1             6.00    15.99900     O ( 1.00)
        N1             5.00    14.00700     N ( 1.00)
        C1             4.00    12.01100     C ( 1.00)
        H1             1.00     1.00800     H ( 1.00)

     No symmetry found

   Cartesian axes

     site n.     atom                  positions (alat units)
         1           Ti1 tau(   1) = (   0.0004258   2.9801865   6.0000000  )
         2           Ti1 tau(   2) = (   3.2906075   1.4906267   6.0002472  )
         3           O1  tau(   3) = (   0.0006271   0.0005054   7.9858123  )
         4           O1  tau(   4) = (   3.2906025   0.0005020   7.3038282  )
         5           O1  tau(   5) = (   4.5942328   1.4918067   9.2879030  )
         6           O1  tau(   6) = (   1.9868534   1.4903216   9.2879459  )
         7           Ti1 tau(   7) = (   3.2907910   2.8959150   9.1758416  )
         8           Ti1 tau(   8) = (   0.0015273   1.4827037   9.2680791  )
         9           O1  tau(   9) = (   3.2872377   5.9372537  11.3619719  )
        10           O1  tau(  10) = (   0.0116148   5.9584955  10.6183126  )
        11           O1  tau(  11) = (   1.2678424   1.4880610  12.6451974  )
        12           O1  tau(  12) = (   5.2928823   1.5036634  12.6399001  )
        13           Ti1 tau(  13) = (   6.5521701   2.9315368  12.5404127  )
        14           Ti1 tau(  14) = (   3.2895327   1.2997526  12.7137971  )
        15           O1  tau(  15) = (   6.5477037   0.0845492  14.6505624  )
        16           O1  tau(  16) = (   3.2827468   0.0880329  14.0175491  )
        17           O1  tau(  17) = (   4.5427558   1.5765460  16.1196870  )
        18           O1  tau(  18) = (   1.9971221   1.5491956  16.2097298  )
        19           Ti1 tau(  19) = (   3.2670693   3.0250103  15.6873951  )
        20           Ti1 tau(  20) = (   6.4806419   1.4532933  16.0069425  )
        21           O1  tau(  21) = (   3.2904802   0.0005063   4.7018136  )
        22           O1  tau(  22) = (   6.5100566   5.8635464  17.1664964  )
        23           O1  tau(  23) = (   1.3043587   1.4918075   6.0039043  )
        24           O1  tau(  24) = (   5.2767064   1.4903225   6.0039473  )
        25           Ti1 tau(  25) = (   0.0000382   5.9609847   6.0000000  )
        26           Ti1 tau(  26) = (   3.2902200   4.4714249   6.0002472  )
        27           O1  tau(  27) = (   0.0002396   2.9813036   7.9858123  )
        28           O1  tau(  28) = (   3.2902150   2.9813002   7.3038282  )
        29           O1  tau(  29) = (   4.5938453   4.4726049   9.2879030  )
        30           O1  tau(  30) = (   1.9864658   4.4711199   9.2879459  )
        31           Ti1 tau(  31) = (   3.2891106   5.8743827   9.1763621  )
        32           Ti1 tau(  32) = (   0.0006254   4.4649316   9.2693709  )
        33           O1  tau(  33) = (   3.2826969   3.0075535  11.3127327  )
        34           O1  tau(  34) = (   0.0092240   2.9805883  10.6323155  )
        35           O1  tau(  35) = (   1.2713698   4.4757098  12.6731835  )
        36           O1  tau(  36) = (   5.2977781   4.4601507  12.6712348  )
        37           Ti1 tau(  37) = (   0.0330522   5.9225719  12.5042524  )
        38           Ti1 tau(  38) = (   3.2990360   4.3766664  12.4405836  )
        39           O1  tau(  39) = (   0.0150134   2.9421642  14.8567636  )
        40           O1  tau(  40) = (   3.2596324   2.9836344  13.9148061  )
        41           O1  tau(  41) = (   4.5490916   4.3969069  16.0525170  )
        42           O1  tau(  42) = (   1.9960638   4.4622821  16.0939853  )
        43           Ti1 tau(  43) = (   3.1777156   0.0378257  16.2738330  )
        44           Ti1 tau(  44) = (   6.5243348   4.6462111  15.7996153  )
        45           O1  tau(  45) = (   3.2900926   2.9813045   4.7018136  )
        46           O1  tau(  46) = (   1.3039711   4.4726057   6.0039043  )
        47           O1  tau(  47) = (   5.2763189   4.4711207   6.0039473  )
        48           N1  tau(  48) = (   6.4646383   2.7559932  17.9272311  )
        49           C1  tau(  49) = (   0.7552072   2.7164238  18.8602713  )
        50           H1  tau(  50) = (   0.5916026   3.1878006  19.8266510  )
        51           H1  tau(  51) = (   1.6887153   2.1801376  18.6919226  )
        52           H1  tau(  52) = (   5.6107037   3.2511282  18.1874541  )
        53           O1  tau(  53) = (   3.4589997   5.9358250  18.1144358  )
        54           H1  tau(  54) = (   4.3999295   5.9567086  18.3589960  )

     number of k points=    10  Fermi-Dirac smearing, width (Ry)=  0.0073
                       cart. coord. in units 2pi/alat
        k(    1) = (   0.0000000   0.0000000   0.0000000), wk =   0.1250000
        k(    2) = (   0.0000000   0.0419351   0.0000000), wk =   0.2500000
        k(    3) = (   0.0000000  -0.0838702   0.0000000), wk =   0.1250000
        k(    4) = (   0.0379955   0.0000049   0.0000000), wk =   0.2500000
        k(    5) = (   0.0379955   0.0419400   0.0000000), wk =   0.2500000
        k(    6) = (   0.0379955  -0.0838652   0.0000000), wk =   0.2500000
        k(    7) = (   0.0379955  -0.0419301   0.0000000), wk =   0.2500000
        k(    8) = (  -0.0759910  -0.0000099   0.0000000), wk =   0.1250000
        k(    9) = (  -0.0759910   0.0419252   0.0000000), wk =   0.2500000
        k(   10) = (  -0.0759910  -0.0838800   0.0000000), wk =   0.1250000

     Initial potential from superposition of free atoms

     starting charge  380.99916, renormalised to  397.00000

     negative rho (up, down):  1.654E-02 0.000E+00

     %%%%%%%%%%%%%%%%%%%%%%%%%%%%%%%%%%%%%%%%%%%%%%%%%%%%%%%%%%%%%%%%%%%%%%%%
     %                                                                      %
     % You are using vdW-DF, which was implemented by the Thonhauser group. %
     % Please cite the following two papers that made this development      %
     % possible and the two reviews that describe the various versions:     %
     %                                                                      %
     %   T. Thonhauser et al., PRL 115, 136402 (2015).                      %
     %   T. Thonhauser et al., PRB 76, 125112 (2007).                       %
     %   K. Berland et al., Rep. Prog. Phys. 78, 066501 (2015).             %
     %   D.C. Langreth et al., J. Phys.: Condens. Matter 21, 084203 (2009). %
     %                                                                      %
     %                                                                      %
     % If you are calculating the stress with vdW-DF, please also cite:     %
     %                                                                      %
     %   R. Sabatini et al., J. Phys.: Condens. Matter 24, 424209 (2012).   %
     %                                                                      %
     %%%%%%%%%%%%%%%%%%%%%%%%%%%%%%%%%%%%%%%%%%%%%%%%%%%%%%%%%%%%%%%%%%%%%%%%

     Adding external electric field

     Computed dipole along edir(3) :
        Dipole               -9.2998 Ry au,        -23.6378 Debye
        Dipole field         -0.0175 Ry au,

        Potential amp.        1.6269 Ry
        Total length         46.3494 bohr

     Starting wfcs are  300 atomic wfcs
  @ DRIVER MODE: Message from server: STATUS
  @ DRIVER MODE: Message from server: POSDATA
  @ DRIVER MODE: Reading and sharing cell
  @ DRIVER MODE: Reading and sharing positions
  @ DRIVER MODE: Received positions

     Self-consistent Calculation

     iteration #  1     ecut=    29.40 Ry     beta= 0.05
     Davidson diagonalization with overlap
     c_bands:  1 eigenvalues not converged
     c_bands:  1 eigenvalues not converged
     c_bands:  2 eigenvalues not converged
     c_bands:  1 eigenvalues not converged
     c_bands:  1 eigenvalues not converged
     c_bands:  2 eigenvalues not converged
     c_bands:  1 eigenvalues not converged
     c_bands:  1 eigenvalues not converged
     c_bands:  3 eigenvalues not converged
     ethr =  1.00E-05,  avg # of iterations = 19.6

[...]

     total energy              =   -2534.84045408 Ry
     estimated scf accuracy    <    4639.02106427 Ry

     iteration #  2     ecut=    29.40 Ry     beta= 0.05
     Davidson diagonalization with overlap
     ethr =  1.00E-02,  avg # of iterations = 24.4

[...]

     iteration # 53     ecut=    29.40 Ry     beta= 0.05
     Davidson diagonalization with overlap
     c_bands:  1 eigenvalues not converged
     c_bands:  1 eigenvalues not converged
     ethr =  5.07E-08,  avg # of iterations = 16.4

[...]

     total energy              =   -2952.74694424 Ry
     estimated scf accuracy    <       0.00000008 Ry

     iteration # 70     ecut=    29.40 Ry     beta= 0.05
     Davidson diagonalization with overlap
     ethr =  1.99E-11,  avg # of iterations = 13.9

     negative rho (up, down):  1.672E-02 0.000E+00

     Adding external electric field

     Computed dipole along edir(3) :
        Dipole                1.0869 Ry au,          2.7626 Debye
        Dipole field          0.0021 Ry au,

        Potential amp.       -0.1901 Ry
        Total length         46.3494 bohr

     End of self-consistent calculation

          k = 0.0000 0.0000 0.0000 ( 18029 PWs)   bands (ev):

   -55.6626 -55.6397 -55.6057 -55.4688 -55.4614 -55.4350 -55.4336 -55.4280
   -55.4113 -55.3999 -55.3507 -55.2422 -55.2261 -55.1746 -54.6054 -54.5714
   -32.1233 -31.9909 -31.9646 -31.9574 -31.9532 -31.9318 -31.9309 -31.8850
   -31.8836 -31.8682 -31.8350 -31.7922 -31.7546 -31.7453 -31.7363 -31.7338
   -31.7155 -31.6972 -31.6783 -31.6669 -31.6637 -31.6568 -31.6360 -31.6251
   -31.6177 -31.6101 -31.6009 -31.5913 -31.5901 -31.5785 -31.5760 -31.5711
   -31.5662 -31.5468 -31.5212 -31.5063 -31.4393 -31.4302 -31.4172 -31.3872
   -31.3806 -31.3802 -31.0109 -30.9257 -30.9032 -30.8286 -30.7423 -30.6303
   -16.7165 -16.4377 -16.2562 -16.0825 -15.8688 -15.7944 -15.7573 -15.5602
   -15.4740 -15.4094 -15.1778 -15.1720 -15.1614 -15.1388 -15.1121 -15.1023
   -15.0920 -15.0569 -15.0549 -15.0328 -15.0070 -14.9736 -14.9650 -14.9175
   -14.8684 -14.8517 -14.7704 -14.6975 -14.6509 -14.4493 -14.3241 -13.1040
   -12.9878  -9.3137  -6.3446  -4.7184  -3.9557  -3.6251  -3.5391  -3.5049
    -3.4297  -3.3794  -3.1437  -3.0075  -2.9603  -2.8752  -2.7625  -2.7375
    -2.6757  -2.6203  -2.5525  -2.5296  -2.4870  -2.4312  -2.4084  -2.3782
    -2.3691  -2.3361  -2.2858  -2.2226  -2.1618  -2.1366  -2.0780  -2.0021
    -1.9533  -1.9489  -1.9422  -1.9212  -1.8972  -1.8749  -1.8519  -1.8408
    -1.7377  -1.6842  -1.6653  -1.6120  -1.5663  -1.3089  -1.2339  -1.2211
    -1.1530  -1.1033  -1.0709  -1.0527  -1.0239  -0.9793  -0.9267  -0.8930
    -0.8124  -0.7583  -0.6991  -0.6861  -0.6400  -0.5640  -0.4806  -0.4232
    -0.4061  -0.3484  -0.3399  -0.3145  -0.1921  -0.1541  -0.1444  -0.0894
    -0.0628   0.0402   0.0843   0.1232   0.1545   0.2431   0.2651   0.3065
     0.3118   0.3423   0.3487   0.4387   0.4480   0.4741   0.5364   0.5629
     0.6406   0.7119   0.7194   0.8744   0.9222   1.0127   1.0455   1.1349
     1.3717   1.4209   1.4789   1.6148   1.9873   2.0322   3.4535   3.5987
     3.6161   3.7074   3.7130   3.8189   3.9282   3.9828   4.0201   4.1306

[...]

          k = 0.0380-0.0419 0.0000 ( 17876 PWs)   bands (ev):

[...]

          k =-0.0760-0.0000 0.0000 ( 17886 PWs)   bands (ev):

[...]

          k =-0.0760-0.0839 0.0000 ( 17948 PWs)   bands (ev):

   -55.6618 -55.6229 -55.6224 -55.4527 -55.4497 -55.4448 -55.4441 -55.4333
   -55.4120 -55.3933 -55.3574 -55.2380 -55.2275 -55.1787 -54.5887 -54.5879
   -31.9387 -31.9385 -31.9264 -31.9180 -31.9165 -31.9162 -31.8764 -31.8687
   -31.8055 -31.7766 -31.7758 -31.7666 -31.7612 -31.7427 -31.7422 -31.7363
   -31.7186 -31.7154 -31.7020 -31.6816 -31.6692 -31.6579 -31.6542 -31.6468
   -31.6438 -31.6404 -31.6364 -31.6207 -31.6164 -31.6128 -31.6108 -31.6103
   -31.5977 -31.5801 -31.5775 -31.5214 -31.5053 -31.4609 -31.4426 -31.4338
   -31.4258 -31.3845 -30.9162 -30.9156 -30.8244 -30.8233 -30.7858 -30.7852
   -16.6959 -16.4186 -15.8230 -15.7142 -15.5932 -15.5845 -15.4719 -15.3992
   -15.3647 -15.3354 -15.3179 -15.3076 -15.2839 -15.2450 -15.1967 -15.1763
   -15.1439 -15.1257 -15.1136 -15.0724 -15.0572 -15.0477 -15.0286 -14.9843
   -14.9705 -14.9408 -14.9279 -14.7968 -14.7431 -14.6367 -14.5654 -13.0899
   -13.0894  -9.3187  -6.3407  -4.7032  -3.9373  -3.0269  -2.9311  -2.8008
    -2.7065  -2.6708  -2.6317  -2.6062  -2.5825  -2.5416  -2.5242  -2.4753
    -2.4315  -2.4139  -2.4025  -2.3731  -2.3687  -2.3599  -2.3280  -2.3074
    -2.3003  -2.2877  -2.2637  -2.2530  -2.2357  -2.2113  -2.1984  -2.1723
    -2.1518  -2.1047  -1.9955  -1.9402  -1.9141  -1.7849  -1.7714  -1.7503
    -1.7352  -1.7203  -1.7000  -1.6818  -1.6148  -1.5965  -1.5692  -1.3930
    -1.3738  -1.2843  -1.2519  -1.2066  -1.1419  -1.1284  -1.0784  -1.0507
    -0.9968  -0.9713  -0.8791  -0.8248  -0.7945  -0.7583  -0.6342  -0.5826
    -0.5767  -0.5667  -0.5373  -0.5168  -0.4727  -0.4519  -0.4220  -0.3563
    -0.3268  -0.3098  -0.2643  -0.2525  -0.1281  -0.0106   0.0739   0.1172
     0.1787   0.1993   0.2385   0.3433   0.4188   0.4996   0.5420   0.5603
     0.5916   0.6827   0.6983   0.8408   0.8707   0.8755   0.9121   0.9437
     0.9726   1.0172   1.7842   1.7922   1.8524   1.8527   3.7006   3.8312
     3.9608   3.9809   3.9932   4.0255   4.0295   4.0533   4.1028   4.1373

     the Fermi energy is     3.4850 ev

!    total energy              =   -2952.74696519 Ry
     estimated scf accuracy    <       0.00000007 Ry
     smearing contrib. (-TS)   =      -0.02003991 Ry
     internal energy E=F+TS    =   -2952.72692528 Ry

     The total energy is F=E-TS. E is the sum of the following terms:
     one-electron contribution =  -23991.51222177 Ry
     hartree contribution      =   12087.24724677 Ry
     xc contribution           =    -488.02628331 Ry
     ewald contribution        =    9439.56210373 Ry
     electric field correction =       0.00222930 Ry

     convergence has been achieved in  70 iterations

     Forces acting on atoms (cartesian axes, Ry/au):

     atom    1 type  1   force =     0.00015852   -0.00027193    0.09476136
     atom    2 type  1   force =    -0.00000744    0.00040391   -0.17488548
     atom    3 type  2   force =    -0.00001257   -0.00013296   -0.02195459
     atom    4 type  2   force =     0.00006339   -0.00191440    0.05340941
     atom    5 type  2   force =    -0.00733002   -0.00240241    0.00310708
     atom    6 type  2   force =     0.00859396   -0.00197922    0.00182360
     atom    7 type  1   force =    -0.00058855   -0.00348521    0.00956822
     atom    8 type  1   force =     0.00060688    0.00468764    0.00861294
     atom    9 type  2   force =     0.00009138    0.00015820   -0.00014125
     atom   10 type  2   force =    -0.00268812   -0.00030947   -0.01302705
     atom   11 type  2   force =    -0.00040109   -0.00035628   -0.00011089
     atom   12 type  2   force =     0.00017854   -0.00017366    0.00030450
     atom   13 type  1   force =     0.00039861    0.00020048   -0.00070137
     atom   14 type  1   force =    -0.00014693    0.00008922   -0.00003784
     atom   15 type  2   force =     0.00025400   -0.00028479   -0.00040326
     atom   16 type  2   force =     0.00039728    0.00011973   -0.00007124
     atom   17 type  2   force =    -0.00018902   -0.00000952    0.00030878
     atom   18 type  2   force =     0.00007705   -0.00094034   -0.00025418
     atom   19 type  1   force =     0.00029300    0.00048962    0.00017274
     atom   20 type  1   force =    -0.00001416   -0.00005828    0.00008855
     atom   21 type  2   force =     0.00009960    0.00008215    0.10308906
     atom   22 type  2   force =     0.00009446   -0.00045426    0.00001584
     atom   23 type  2   force =    -0.07212425   -0.00013671   -0.02735306
     atom   24 type  2   force =     0.07207876    0.00027394   -0.02737976
     atom   25 type  1   force =     0.00003423   -0.00010054    0.09452764
     atom   26 type  1   force =    -0.00007527   -0.00132183   -0.17505895
     atom   27 type  2   force =     0.00014819   -0.00020054   -0.02072392
     atom   28 type  2   force =     0.00002321   -0.00019019    0.04899990
     atom   29 type  2   force =    -0.00615358    0.00259436    0.00155301
     atom   30 type  2   force =     0.00737603    0.00321768    0.00011432
     atom   31 type  1   force =    -0.00055083    0.00715846   -0.00092660
     atom   32 type  1   force =     0.00055523   -0.00650716    0.00786194
     atom   33 type  2   force =     0.00025560   -0.00024729   -0.00032059
     atom   34 type  2   force =    -0.00212678    0.00146821   -0.01183245
     atom   35 type  2   force =    -0.00008963    0.00000305    0.00017888
     atom   36 type  2   force =    -0.00022994    0.00010862    0.00030172
     atom   37 type  1   force =     0.00054400   -0.00012061   -0.00027245
     atom   38 type  1   force =    -0.00019148   -0.00014390    0.00031633
     atom   39 type  2   force =     0.00012382    0.00037683   -0.00038329
     atom   40 type  2   force =    -0.00015281    0.00029089   -0.00047161
     atom   41 type  2   force =     0.00014841    0.00038598   -0.00023869
     atom   42 type  2   force =    -0.00012737    0.00041381    0.00023619
     atom   43 type  1   force =    -0.00006841   -0.00096620   -0.00040610
     atom   44 type  1   force =     0.00014952    0.00073899    0.00027860
     atom   45 type  2   force =     0.00010055   -0.00009406    0.10289726
     atom   46 type  2   force =    -0.07214754   -0.00005512   -0.02737933
     atom   47 type  2   force =     0.07214807    0.00039457   -0.02741022
     atom   48 type  3   force =     0.00012821   -0.00038644   -0.00010634
     atom   49 type  4   force =     0.00488570   -0.00465259   -0.00150066
     atom   50 type  5   force =     0.00012816    0.00006860   -0.00003698
     atom   51 type  5   force =    -0.00449330    0.00387321    0.00080355
     atom   52 type  5   force =     0.00013529    0.00025799   -0.00025145
     atom   53 type  2   force =    -0.00001191    0.00008722    0.00158960
     atom   54 type  5   force =    -0.00034866   -0.00004745   -0.00128144

     Total force =     0.362460     Total SCF correction =     0.000817
  @ DRIVER MODE: Message from server: STATUS
  @ DRIVER MODE: Message from server: GETFORCE
  @ DRIVER MODE: Returning v,forces,stress,ensemble

     Writing output data file ./calc.save/
  @ DRIVER MODE: Message from server: EXIT
  @ DRIVE MODE: Exiting

     General routines

     Parallel routines

   This run was terminated on:   7: 0:54  23Sep2021

   JOB DONE.