     Program PWSCF v.6.7GPU starts on 15Sep2021 at 16:48:33

     R & G space division:  proc/nbgrp/npool/nimage =      10
     Reading input from /storage/home/hcoda1/3/ntian30/research/carbon/CxH_vib/H2O_calc/ads_slab/CH3NHH2O_a/out_0004/pw.inp
Warning: card &CELL ignored
Warning: card   CELL_DYNAMICS='IPI', ignored
Warning: card / ignored

     Current dimensions of program PWSCF are:
     Max number of different atomic species (ntypx) = 10
     Max number of k-points (npk) =  40000
     Max angular momentum in pseudopotentials (lmaxx) =  3
     Presently no symmetry can be used with electric field

     Message from routine cell_base_init:
     DEPRECATED: use true lattice parameter, not A to a.u. conversion factor

     IMPORTANT: XC functional enforced from input :
     Exchange-correlation= BEEF-VDW
                           (   1   4  43  14   2   0   0)
     Any further DFT definition will be discarded
     Please, verify this is what you really want

  @ DRIVER MODE: Connecting to
 qe_1139763_2852633.sched-torque.pace.gatech.edu376hh0o4_scratch
  using UNIX socket
  @ DRIVER MODE: Message from server: STATUS
  @ DRIVER MODE: Message from server: INIT
  @ DRIVER MODE: Receiving replica           0          -1
  @ DRIVER MODE: Receiving encoded integer          25
  @ DRIVER MODE:  SCF:  T  FORCE:  T  STRESS:  F  VC:  F  ENSEMBLE:  F
  @ DRIVER MODE:  SCF:  T  FORCE:  T  STRESS:  F  VC:  F  ENSEMBLE:  F

     Using Slab Decomposition

     bravais-lattice index     =            0
     lattice parameter (alat)  =       1.8897  a.u.
     unit-cell volume          =    6658.9804 (a.u.)^3
     number of atoms/cell      =           56
     number of atomic types    =            5
     number of electrons       =       399.00
     number of Kohn-Sham states=          209
     kinetic-energy cutoff     =      29.3995  Ry
     charge density cutoff     =     293.9946  Ry
     scf convergence threshold =      7.3E-08
     mixing beta               =       0.0500
     number of iterations used =            8  plain     mixing
     Exchange-correlation= BEEF-VDW
                           (   1   4  43  14   2   0   0)

     celldm(1)=   1.889726  celldm(2)=   0.000000  celldm(3)=   0.000000
     celldm(4)=   0.000000  celldm(5)=   0.000000  celldm(6)=   0.000000

     crystal axes: (cart. coord. in units of alat)
               a(1) = (   6.579727   0.000000   0.000000 )
               a(2) = (  -0.000775   5.961596   0.000000 )
               a(3) = (   0.000000   0.000000  25.155947 )

     reciprocal axes: (cart. coord. in units 2 pi/alat)
               b(1) = (  0.151982  0.000020  0.000000 )
               b(2) = (  0.000000  0.167740  0.000000 )
               b(3) = (  0.000000  0.000000  0.039752 )

     PseudoPot. # 1 for Ti read from file:
     /storage/coda1/p-amedford6/0/shared/rich_project_chbe-medford/medford-share/data/pseudos_module/espresso/nninc/pbe/van/Ti.UPF
     MD5 check sum: 8e4df49b7f0d34bbd5052bf3f5ea0213
     Pseudo is Ultrasoft, Zval = 12.0
     Generated by new atomic code, or converted to UPF format
     Using radial grid of  851 points,  6 beta functions with:
                l(1) =   0
                l(2) =   0
                l(3) =   1
                l(4) =   1
                l(5) =   2
                l(6) =   2
     Q(r) pseudized with  8 coefficients,  rinner =    1.000   1.000   1.000
                                                       1.000   1.000

     PseudoPot. # 2 for O  read from file:
     /storage/coda1/p-amedford6/0/shared/rich_project_chbe-medford/medford-share/data/pseudos_module/espresso/nninc/pbe/van/O.UPF
     MD5 check sum: 78c19812648e8988a0fe644b0f25305e
     Pseudo is Ultrasoft, Zval =  6.0
     Generated by new atomic code, or converted to UPF format
     Using radial grid of  737 points,  4 beta functions with:
                l(1) =   0
                l(2) =   0
                l(3) =   1
                l(4) =   1
     Q(r) pseudized with  8 coefficients,  rinner =    0.800   0.800   0.800

     PseudoPot. # 3 for H  read from file:
     /storage/coda1/p-amedford6/0/shared/rich_project_chbe-medford/medford-share/data/pseudos_module/espresso/nninc/pbe/van/H.UPF
     MD5 check sum: b5ee9d7bfd3a09ee7748110bda690ff7
     Pseudo is Ultrasoft, Zval =  1.0
     Generated by new atomic code, or converted to UPF format
     Using radial grid of  615 points,  1 beta functions with:
                l(1) =   0
     Q(r) pseudized with  8 coefficients,  rinner =    0.800

     PseudoPot. # 4 for N  read from file:
     /storage/coda1/p-amedford6/0/shared/rich_project_chbe-medford/medford-share/data/pseudos_module/espresso/nninc/pbe/van/N.UPF
     MD5 check sum: 90d10febe142ad51ac9d5be1deb811c4
     Pseudo is Ultrasoft, Zval =  5.0
     Generated by new atomic code, or converted to UPF format
     Using radial grid of  729 points,  4 beta functions with:
                l(1) =   0
                l(2) =   0
                l(3) =   1
                l(4) =   1
     Q(r) pseudized with  8 coefficients,  rinner =    0.800   0.800   0.800

     PseudoPot. # 5 for C  read from file:
     /storage/coda1/p-amedford6/0/shared/rich_project_chbe-medford/medford-share/data/pseudos_module/espresso/nninc/pbe/van/C.UPF
     MD5 check sum: 1a69bf6b8db32088f5b2163dbdb77a27
     Pseudo is Ultrasoft, Zval =  4.0
     Generated by new atomic code, or converted to UPF format
     Using radial grid of  721 points,  4 beta functions with:
                l(1) =   0
                l(2) =   0
                l(3) =   1
                l(4) =   1
     Q(r) pseudized with  8 coefficients,  rinner =    0.800   0.800   0.800

     atomic species   valence    mass     pseudopotential
        Ti1           12.00    47.86700     Ti( 1.00)
        O1             6.00    15.99900     O ( 1.00)
        H1             1.00     1.00800     H ( 1.00)
        N1             5.00    14.00700     N ( 1.00)
        C1             4.00    12.01100     C ( 1.00)

     No symmetry found

   Cartesian axes

     site n.     atom                  positions (alat units)
         1           Ti1 tau(   1) = (   0.0004258   2.9801865   6.0000000  )
         2           Ti1 tau(   2) = (   3.2906075   1.4906267   6.0002472  )
         3           O1  tau(   3) = (   0.0006271   0.0005054   7.9858123  )
         4           O1  tau(   4) = (   3.2906025   0.0005020   7.3038282  )
         5           O1  tau(   5) = (   4.5942328   1.4918067   9.2879030  )
         6           O1  tau(   6) = (   1.9868534   1.4903216   9.2879459  )
         7           Ti1 tau(   7) = (   3.2907910   2.8959150   9.1758416  )
         8           Ti1 tau(   8) = (   0.0015273   1.4827037   9.2680791  )
         9           O1  tau(   9) = (   3.2896571   0.0076959  11.3233140  )
        10           O1  tau(  10) = (   0.0116148   5.9584955  10.6183126  )
        11           O1  tau(  11) = (   1.3168077   1.5009220  12.6157425  )
        12           O1  tau(  12) = (   5.2956243   1.4929856  12.6075824  )
        13           Ti1 tau(  13) = (   6.5239244   2.9540340  12.6210794  )
        14           Ti1 tau(  14) = (   3.2085880   1.4976218  12.4699624  )
        15           O1  tau(  15) = (   6.5712616   0.0419518  14.6436513  )
        16           O1  tau(  16) = (   3.3111435   0.0202601  13.9161875  )
        17           O1  tau(  17) = (   4.5291760   1.5523016  16.0784362  )
        18           O1  tau(  18) = (   2.0445308   1.5488630  16.0432715  )
        19           Ti1 tau(  19) = (   3.3059752   3.0257308  15.6838679  )
        20           Ti1 tau(  20) = (   0.0592185   1.5662548  15.8694889  )
        21           O1  tau(  21) = (   3.2904802   0.0005063   4.7018136  )
        22           O1  tau(  22) = (   0.0264932   0.0561689  17.2024660  )
        23           O1  tau(  23) = (   1.3043587   1.4918075   6.0039043  )
        24           O1  tau(  24) = (   5.2767064   1.4903225   6.0039473  )
        25           Ti1 tau(  25) = (   0.0000382   5.9609847   6.0000000  )
        26           Ti1 tau(  26) = (   3.2902200   4.4714249   6.0002472  )
        27           O1  tau(  27) = (   0.0002396   2.9813036   7.9858123  )
        28           O1  tau(  28) = (   3.2902150   2.9813002   7.3038282  )
        29           O1  tau(  29) = (   4.5938453   4.4726049   9.2879030  )
        30           O1  tau(  30) = (   1.9864658   4.4711199   9.2879459  )
        31           Ti1 tau(  31) = (   3.2891106   5.8743827   9.1763621  )
        32           Ti1 tau(  32) = (   0.0006254   4.4649316   9.2693709  )
        33           O1  tau(  33) = (   3.2898653   2.9926188  11.3210358  )
        34           O1  tau(  34) = (   0.0092240   2.9805883  10.6323155  )
        35           O1  tau(  35) = (   1.3106253   4.4883450  12.6271249  )
        36           O1  tau(  36) = (   5.2968722   4.4793810  12.6200386  )
        37           Ti1 tau(  37) = (   6.5212985   5.9329073  12.5685303  )
        38           Ti1 tau(  38) = (   3.2059443   4.4781599  12.4721232  )
        39           O1  tau(  39) = (   6.5764971   2.9600267  14.6431433  )
        40           O1  tau(  40) = (   3.3056941   3.0038382  13.8936370  )
        41           O1  tau(  41) = (   4.5394310   4.5052612  16.0827012  )
        42           O1  tau(  42) = (   2.0570581   4.5113261  16.0718816  )
        43           Ti1 tau(  43) = (   3.3383738   0.0382055  15.7109988  )
        44           Ti1 tau(  44) = (   0.0469139   4.6840235  16.0886640  )
        45           O1  tau(  45) = (   3.2900926   2.9813045   4.7018136  )
        46           O1  tau(  46) = (   1.3039711   4.4726057   6.0039043  )
        47           O1  tau(  47) = (   5.2763189   4.4711207   6.0039473  )
        48           H1  tau(  48) = (   5.6101632   3.0004038  17.7880820  )
        49           N1  tau(  49) = (   6.5649722   3.0046358  17.4438072  )
        50           C1  tau(  50) = (   0.8874553   2.9889031  18.6120612  )
        51           H1  tau(  51) = (   1.3591778   3.9628686  18.7739097  )
        52           H1  tau(  52) = (   0.3310755   2.7322232  19.5165709  )
        53           H1  tau(  53) = (   1.6717793   2.2402645  18.4914768  )
        54           O1  tau(  54) = (   3.2567199   5.9268012  21.6217354  )
        55           H1  tau(  55) = (   4.0245811   5.9269051  22.2091127  )
        56           H1  tau(  56) = (   2.4887544   5.9269923  22.2092946  )

     number of k points=    10  Fermi-Dirac smearing, width (Ry)=  0.0073
                       cart. coord. in units 2pi/alat
        k(    1) = (   0.0000000   0.0000000   0.0000000), wk =   0.1250000
        k(    2) = (   0.0000000   0.0419351   0.0000000), wk =   0.2500000
        k(    3) = (   0.0000000  -0.0838702   0.0000000), wk =   0.1250000
        k(    4) = (   0.0379955   0.0000049   0.0000000), wk =   0.2500000
        k(    5) = (   0.0379955   0.0419400   0.0000000), wk =   0.2500000
        k(    6) = (   0.0379955  -0.0838652   0.0000000), wk =   0.2500000
        k(    7) = (   0.0379955  -0.0419301   0.0000000), wk =   0.2500000
        k(    8) = (  -0.0759910  -0.0000099   0.0000000), wk =   0.1250000
        k(    9) = (  -0.0759910   0.0419252   0.0000000), wk =   0.2500000
        k(   10) = (  -0.0759910  -0.0838800   0.0000000), wk =   0.1250000

     Initial potential from superposition of free atoms

     starting charge  382.99914, renormalised to  399.00000

     negative rho (up, down):  9.625E-03 0.000E+00

     %%%%%%%%%%%%%%%%%%%%%%%%%%%%%%%%%%%%%%%%%%%%%%%%%%%%%%%%%%%%%%%%%%%%%%%%
     %                                                                      %
     % You are using vdW-DF, which was implemented by the Thonhauser group. %
     % Please cite the following two papers that made this development      %
     % possible and the two reviews that describe the various versions:     %
     %                                                                      %
     %   T. Thonhauser et al., PRL 115, 136402 (2015).                      %
     %   T. Thonhauser et al., PRB 76, 125112 (2007).                       %
     %   K. Berland et al., Rep. Prog. Phys. 78, 066501 (2015).             %
     %   D.C. Langreth et al., J. Phys.: Condens. Matter 21, 084203 (2009). %
     %                                                                      %
     %                                                                      %
     % If you are calculating the stress with vdW-DF, please also cite:     %
     %                                                                      %
     %   R. Sabatini et al., J. Phys.: Condens. Matter 24, 424209 (2012).   %
     %                                                                      %
     %%%%%%%%%%%%%%%%%%%%%%%%%%%%%%%%%%%%%%%%%%%%%%%%%%%%%%%%%%%%%%%%%%%%%%%%

     Adding external electric field

     Computed dipole along edir(3) :
        Dipole              -12.5493 Ry au,        -31.8972 Debye
        Dipole field         -0.0237 Ry au,

        Potential amp.        2.1953 Ry
        Total length         46.3494 bohr

     Starting wfcs are  302 atomic wfcs
  @ DRIVER MODE: Message from server: STATUS
  @ DRIVER MODE: Message from server: POSDATA
  @ DRIVER MODE: Reading and sharing cell
  @ DRIVER MODE: Reading and sharing positions
  @ DRIVER MODE: Received positions

     Self-consistent Calculation

     iteration #  1     ecut=    29.40 Ry     beta= 0.05
     Davidson diagonalization with overlap
     c_bands:  2 eigenvalues not converged
     c_bands:  2 eigenvalues not converged
     c_bands:  4 eigenvalues not converged
     c_bands:  3 eigenvalues not converged
     c_bands:  3 eigenvalues not converged
     c_bands:  3 eigenvalues not converged
     c_bands:  5 eigenvalues not converged
     c_bands:  4 eigenvalues not converged
     c_bands:  5 eigenvalues not converged
     ethr =  1.00E-05,  avg # of iterations = 22.0

[...]

     total energy              =   -2445.25802569 Ry
     estimated scf accuracy    <    5721.85152832 Ry

     iteration #  2     ecut=    29.40 Ry     beta= 0.05
     Davidson diagonalization with overlap
     ethr =  1.00E-02,  avg # of iterations = 22.0

[...]

     iteration # 68     ecut=    29.40 Ry     beta= 0.05
     Davidson diagonalization with overlap
     c_bands:  1 eigenvalues not converged
     ethr =  7.18E-10,  avg # of iterations =  9.9

[...]

     total energy              =   -2955.21565812 Ry
     estimated scf accuracy    <       0.00000009 Ry

     iteration # 74     ecut=    29.40 Ry     beta= 0.05
     Davidson diagonalization with overlap
     ethr =  2.25E-11,  avg # of iterations = 10.2

     negative rho (up, down):  1.110E-02 0.000E+00

     Adding external electric field

     Computed dipole along edir(3) :
        Dipole                1.3266 Ry au,          3.3719 Debye
        Dipole field          0.0025 Ry au,

        Potential amp.       -0.2321 Ry
        Total length         46.3494 bohr

     End of self-consistent calculation

          k = 0.0000 0.0000 0.0000 ( 18029 PWs)   bands (ev):

   -55.4962 -55.4871 -55.4622 -55.4511 -55.4059 -55.3372 -55.3342 -55.3003
   -55.2996 -55.2664 -55.2582 -55.2245 -55.0710 -54.7878 -54.4678 -54.4338
   -32.0454 -31.9776 -31.8507 -31.8359 -31.8151 -31.7998 -31.7893 -31.7493
   -31.7374 -31.7369 -31.7104 -31.7027 -31.6696 -31.6484 -31.6396 -31.6361
   -31.6293 -31.5996 -31.5776 -31.5534 -31.5455 -31.5410 -31.5250 -31.5038
   -31.4947 -31.4899 -31.4864 -31.4781 -31.4615 -31.4585 -31.4535 -31.4495
   -31.4357 -31.4305 -31.4116 -31.4072 -31.3709 -31.3349 -31.2402 -31.0619
   -31.0560 -30.9867 -30.8747 -30.7871 -30.7646 -30.6914 -30.6050 -30.4939
   -18.5807 -16.2541 -15.9724 -15.7923 -15.6499 -15.6174 -15.5294 -15.3316
   -15.2061 -15.1906 -15.0863 -15.0542 -15.0301 -15.0230 -14.9945 -14.9910
   -14.9354 -14.9285 -14.9196 -14.9068 -14.8476 -14.8237 -14.7830 -14.6920
   -14.6680 -14.6526 -14.6256 -14.5428 -14.5371 -14.0940 -13.6321 -12.9704
   -12.8541  -8.4755  -6.3840  -3.9145  -3.6245  -3.4506  -3.4121  -3.3982
    -3.3473  -3.0970  -3.0792  -2.8452  -2.7121  -2.6959  -2.6799  -2.6668
    -2.6495  -2.6308  -2.4150  -2.3939  -2.3262  -2.3105  -2.2884  -2.2801
    -2.2738  -2.2643  -2.2606  -2.2161  -2.1606  -2.0472  -2.0295  -1.9229
    -1.8791  -1.8533  -1.8054  -1.7606  -1.7544  -1.7441  -1.7247  -1.7128
    -1.6906  -1.6730  -1.5377  -1.4750  -1.3422  -1.2966  -1.2889  -1.0953
    -1.0582  -0.9645  -0.9384  -0.9218  -0.9138  -0.8818  -0.7997  -0.7077
    -0.6541  -0.6421  -0.5882  -0.5092  -0.4953  -0.3988  -0.3865  -0.3808
    -0.3280  -0.2646  -0.2548  -0.2459  -0.2002  -0.1322  -0.0563   0.0187
     0.0715   0.0923   0.1192   0.1982   0.2271   0.3216   0.3431   0.3885
     0.3949   0.4412   0.4830   0.4920   0.4976   0.5134   0.5328   0.6807
     0.7885   0.8440   0.8774   0.8882   1.0454   1.0814   1.1688   1.2560
     1.4814   1.5540   1.6488   1.7473   1.8037   2.1248   2.1701   3.6473
     3.7264   3.7803   3.7895   3.8852   3.8923   4.0968   4.1063   4.1173
     4.1892

[...]

          k = 0.0380-0.0419 0.0000 ( 17876 PWs)   bands (ev):

[...]

          k =-0.0760-0.0000 0.0000 ( 17886 PWs)   bands (ev):

[...]

          k =-0.0760-0.0839 0.0000 ( 17948 PWs)   bands (ev):

   -55.4795 -55.4787 -55.4693 -55.4688 -55.4012 -55.3417 -55.3190 -55.3147
   -55.2840 -55.2822 -55.2418 -55.2411 -55.0700 -54.7886 -54.4508 -54.4507
   -31.8498 -31.8479 -31.7932 -31.7926 -31.7827 -31.7751 -31.7742 -31.7584
   -31.6991 -31.6970 -31.6905 -31.6867 -31.6654 -31.6328 -31.6162 -31.6128
   -31.6043 -31.6007 -31.5990 -31.5982 -31.5952 -31.5822 -31.5798 -31.5473
   -31.5375 -31.5361 -31.5114 -31.4971 -31.4803 -31.4799 -31.4745 -31.4741
   -31.4571 -31.4570 -31.4564 -31.4529 -31.4032 -31.3376 -31.2354 -31.1247
   -31.0582 -31.0116 -30.7774 -30.7773 -30.6876 -30.6874 -30.6483 -30.6482
   -18.5805 -15.7052 -15.6730 -15.4347 -15.4288 -15.4188 -15.4043 -15.2625
   -15.2080 -15.1992 -15.1926 -15.1667 -15.1453 -15.0923 -15.0657 -15.0281
   -15.0224 -15.0169 -15.0140 -14.9521 -14.9462 -14.9250 -14.9176 -14.8036
   -14.8006 -14.7996 -14.7277 -14.6584 -14.5227 -14.2627 -13.6535 -12.9561
   -12.9558  -8.4792  -6.3855  -3.9258  -2.9988  -2.9612  -2.8137  -2.7190
    -2.6756  -2.6616  -2.6444  -2.5664  -2.4123  -2.4057  -2.3898  -2.3727
    -2.3582  -2.3211  -2.3145  -2.3020  -2.2894  -2.2821  -2.2638  -2.2278
    -2.1892  -2.1613  -2.1537  -2.1442  -2.1196  -2.1076  -2.0819  -2.0765
    -2.0421  -2.0337  -2.0175  -1.9936  -1.7363  -1.7134  -1.6948  -1.6244
    -1.6172  -1.5849  -1.5761  -1.5571  -1.5439  -1.4913  -1.3921  -1.2257
    -1.1925  -1.1862  -1.1655  -1.1005  -1.0786  -0.9296  -0.9026  -0.8833
    -0.8457  -0.7966  -0.7644  -0.7253  -0.6890  -0.6535  -0.5915  -0.5832
    -0.5036  -0.4552  -0.4542  -0.4286  -0.4177  -0.3577  -0.2787  -0.2601
    -0.2490  -0.2077  -0.1947  -0.1131  -0.0905   0.0074   0.0217   0.0864
     0.1196   0.1911   0.3871   0.4894   0.5486   0.5741   0.6277   0.7227
     0.7773   0.7903   0.8246   0.8298   0.8911   0.9324   1.0466   1.0536
     1.1213   1.2235   1.7503   1.9185   1.9193   1.9898   1.9900   3.9087
     3.9152   3.9661   3.9948   4.1472   4.1518   4.1743   4.1753   4.2956
     4.3149

     the Fermi energy is     3.6403 ev

!    total energy              =   -2955.21566920 Ry
     estimated scf accuracy    <       0.00000002 Ry
     smearing contrib. (-TS)   =      -0.02204663 Ry
     internal energy E=F+TS    =   -2955.19362257 Ry

     The total energy is F=E-TS. E is the sum of the following terms:
     one-electron contribution =  -23379.94147546 Ry
     hartree contribution      =   11781.86711454 Ry
     xc contribution           =    -489.67934723 Ry
     ewald contribution        =    9132.55676445 Ry
     electric field correction =       0.00332114 Ry

     convergence has been achieved in  74 iterations

     Forces acting on atoms (cartesian axes, Ry/au):

     atom    1 type  1   force =     0.00011801   -0.00019907    0.09687450
     atom    2 type  1   force =     0.00004129   -0.00046068   -0.17495398
     atom    3 type  2   force =     0.00012982    0.00001642   -0.02539475
     atom    4 type  2   force =    -0.00002941   -0.00126754    0.05222978
     atom    5 type  2   force =    -0.01215752    0.00001014    0.00288205
     atom    6 type  2   force =     0.01360761    0.00055319    0.00225421
     atom    7 type  1   force =     0.00060009    0.00031054   -0.01254750
     atom    8 type  1   force =     0.00044378    0.00706310    0.03083839
     atom    9 type  2   force =     0.00032724    0.00015957    0.00045663
     atom   10 type  2   force =    -0.00271547    0.00207668   -0.01689787
     atom   11 type  2   force =     0.00017395   -0.00035697    0.00012588
     atom   12 type  2   force =     0.00007565   -0.00035626    0.00022817
     atom   13 type  1   force =    -0.00019943    0.00035498    0.00001628
     atom   14 type  1   force =    -0.00011725    0.00033521   -0.00035187
     atom   15 type  2   force =    -0.00002744   -0.00024636   -0.00007743
     atom   16 type  2   force =     0.00014720    0.00037486    0.00127953
     atom   17 type  2   force =    -0.00034823   -0.00038044    0.00022128
     atom   18 type  2   force =     0.00032182   -0.00033511    0.00007263
     atom   19 type  1   force =     0.00021174   -0.00048701    0.00040906
     atom   20 type  1   force =    -0.00065162    0.00031385    0.00059993
     atom   21 type  2   force =     0.00005959   -0.00002194    0.10304442
     atom   22 type  2   force =     0.00017008   -0.00091095    0.00029528
     atom   23 type  2   force =    -0.07168674   -0.00015540   -0.02782395
     atom   24 type  2   force =     0.07158349    0.00034357   -0.02788094
     atom   25 type  1   force =     0.00008466   -0.00017149    0.09665922
     atom   26 type  1   force =     0.00009399   -0.00025536   -0.17506941
     atom   27 type  2   force =     0.00011842   -0.00010900   -0.02446182
     atom   28 type  2   force =     0.00004066   -0.00101580    0.05206386
     atom   29 type  2   force =    -0.01235135    0.00067181    0.00264671
     atom   30 type  2   force =     0.01367178    0.00106124    0.00202849
     atom   31 type  1   force =     0.00049693    0.00307025   -0.01334571
     atom   32 type  1   force =     0.00030697   -0.00927525    0.03127139
     atom   33 type  2   force =    -0.00012372    0.00016395    0.00079008
     atom   34 type  2   force =    -0.00202840    0.00179155   -0.02552347
     atom   35 type  2   force =     0.00025737    0.00019066    0.00035952
     atom   36 type  2   force =     0.00022921    0.00010261    0.00034420
     atom   37 type  1   force =    -0.00027419   -0.00063974    0.00017524
     atom   38 type  1   force =    -0.00007711    0.00002528   -0.00021964
     atom   39 type  2   force =     0.00003957   -0.00077843    0.00024803
     atom   40 type  2   force =     0.00025042    0.00003958   -0.00010569
     atom   41 type  2   force =    -0.00033551    0.00006319    0.00002208
     atom   42 type  2   force =     0.00041504   -0.00010357   -0.00034041
     atom   43 type  1   force =    -0.00033269    0.00059709   -0.00070778
     atom   44 type  1   force =    -0.00021021   -0.00048190    0.00102484
     atom   45 type  2   force =     0.00004145   -0.00004660    0.10308644
     atom   46 type  2   force =    -0.07167938   -0.00006247   -0.02782327
     atom   47 type  2   force =     0.07159883    0.00035754   -0.02788756
     atom   48 type  3   force =     0.00011536   -0.00098347    0.00023060
     atom   49 type  4   force =     0.00016779   -0.00001644   -0.00035904
     atom   50 type  5   force =    -0.00027396   -0.00013527    0.00084357
     atom   51 type  3   force =    -0.00045530   -0.00033629    0.00046948
     atom   52 type  3   force =     0.00043548   -0.00072266   -0.00069530
     atom   53 type  3   force =     0.00020023    0.00032527   -0.00007712
     atom   54 type  2   force =    -0.00066413   -0.00006383   -0.00032965
     atom   55 type  3   force =    -0.00057518   -0.00001811   -0.00045420
     atom   56 type  3   force =     0.00073873    0.00002132   -0.00076338

     Total force =     0.368279     Total SCF correction =     0.000420
  @ DRIVER MODE: Message from server: STATUS
  @ DRIVER MODE: Message from server: GETFORCE
  @ DRIVER MODE: Returning v,forces,stress,ensemble

     Writing output data file ./calc.save/
  @ DRIVER MODE: Message from server: EXIT
  @ DRIVE MODE: Exiting

     General routines

     Parallel routines

   This run was terminated on:  17: 7:59  15Sep2021

   JOB DONE.