     Program PWSCF v.6.7GPU starts on 11Sep2021 at  0:16:40

     R & G space division:  proc/nbgrp/npool/nimage =      10
     Reading input from /storage/home/hcoda1/3/ntian30/research/carbon/CxH_vib/CH2_calc/ads_slab/CH2O_c/out_0018/pw.inp
Warning: card &CELL ignored
Warning: card   CELL_DYNAMICS='IPI', ignored
Warning: card / ignored

     Current dimensions of program PWSCF are:
     Max number of different atomic species (ntypx) = 10
     Max number of k-points (npk) =  40000
     Max angular momentum in pseudopotentials (lmaxx) =  3
     Presently no symmetry can be used with electric field

     Message from routine cell_base_init:
     DEPRECATED: use true lattice parameter, not A to a.u. conversion factor

     IMPORTANT: XC functional enforced from input :
     Exchange-correlation= BEEF-VDW
                           (   1   4  43  14   2   0   0)
     Any further DFT definition will be discarded
     Please, verify this is what you really want

  @ DRIVER MODE: Connecting to
 qe_1139763_2792043.sched-torque.pace.gatech.edumbbj8a53_scratch
  using UNIX socket
  @ DRIVER MODE: Message from server: STATUS
  @ DRIVER MODE: Message from server: INIT
  @ DRIVER MODE: Receiving replica           0          -1
  @ DRIVER MODE: Receiving encoded integer          25
  @ DRIVER MODE:  SCF:  T  FORCE:  T  STRESS:  F  VC:  F  ENSEMBLE:  F
  @ DRIVER MODE:  SCF:  T  FORCE:  T  STRESS:  F  VC:  F  ENSEMBLE:  F

     Using Slab Decomposition

     bravais-lattice index     =            0
     lattice parameter (alat)  =       1.8897  a.u.
     unit-cell volume          =    6658.9804 (a.u.)^3
     number of atoms/cell      =           51
     number of atomic types    =            4
     number of electrons       =       390.00
     number of Kohn-Sham states=          205
     kinetic-energy cutoff     =      29.3995  Ry
     charge density cutoff     =     293.9946  Ry
     scf convergence threshold =      7.3E-08
     mixing beta               =       0.0500
     number of iterations used =            8  plain     mixing
     Exchange-correlation= BEEF-VDW
                           (   1   4  43  14   2   0   0)

     celldm(1)=   1.889726  celldm(2)=   0.000000  celldm(3)=   0.000000
     celldm(4)=   0.000000  celldm(5)=   0.000000  celldm(6)=   0.000000

     crystal axes: (cart. coord. in units of alat)
               a(1) = (   6.579727   0.000000   0.000000 )
               a(2) = (  -0.000775   5.961596   0.000000 )
               a(3) = (   0.000000   0.000000  25.155947 )

     reciprocal axes: (cart. coord. in units 2 pi/alat)
               b(1) = (  0.151982  0.000020  0.000000 )
               b(2) = (  0.000000  0.167740  0.000000 )
               b(3) = (  0.000000  0.000000  0.039752 )

     PseudoPot. # 1 for O  read from file:
     /storage/coda1/p-amedford6/0/shared/rich_project_chbe-medford/medford-share/data/pseudos_module/espresso/nninc/pbe/van/O.UPF
     MD5 check sum: 78c19812648e8988a0fe644b0f25305e
     Pseudo is Ultrasoft, Zval =  6.0
     Generated by new atomic code, or converted to UPF format
     Using radial grid of  737 points,  4 beta functions with:
                l(1) =   0
                l(2) =   0
                l(3) =   1
                l(4) =   1
     Q(r) pseudized with  8 coefficients,  rinner =    0.800   0.800   0.800

     PseudoPot. # 2 for Ti read from file:
     /storage/coda1/p-amedford6/0/shared/rich_project_chbe-medford/medford-share/data/pseudos_module/espresso/nninc/pbe/van/Ti.UPF
     MD5 check sum: 8e4df49b7f0d34bbd5052bf3f5ea0213
     Pseudo is Ultrasoft, Zval = 12.0
     Generated by new atomic code, or converted to UPF format
     Using radial grid of  851 points,  6 beta functions with:
                l(1) =   0
                l(2) =   0
                l(3) =   1
                l(4) =   1
                l(5) =   2
                l(6) =   2
     Q(r) pseudized with  8 coefficients,  rinner =    1.000   1.000   1.000
                                                       1.000   1.000

     PseudoPot. # 3 for C  read from file:
     /storage/coda1/p-amedford6/0/shared/rich_project_chbe-medford/medford-share/data/pseudos_module/espresso/nninc/pbe/van/C.UPF
     MD5 check sum: 1a69bf6b8db32088f5b2163dbdb77a27
     Pseudo is Ultrasoft, Zval =  4.0
     Generated by new atomic code, or converted to UPF format
     Using radial grid of  721 points,  4 beta functions with:
                l(1) =   0
                l(2) =   0
                l(3) =   1
                l(4) =   1
     Q(r) pseudized with  8 coefficients,  rinner =    0.800   0.800   0.800

     PseudoPot. # 4 for H  read from file:
     /storage/coda1/p-amedford6/0/shared/rich_project_chbe-medford/medford-share/data/pseudos_module/espresso/nninc/pbe/van/H.UPF
     MD5 check sum: b5ee9d7bfd3a09ee7748110bda690ff7
     Pseudo is Ultrasoft, Zval =  1.0
     Generated by new atomic code, or converted to UPF format
     Using radial grid of  615 points,  1 beta functions with:
                l(1) =   0
     Q(r) pseudized with  8 coefficients,  rinner =    0.800

     atomic species   valence    mass     pseudopotential
        O1             6.00    15.99900     O ( 1.00)
        Ti1           12.00    47.86700     Ti( 1.00)
        C1             4.00    12.01100     C ( 1.00)
        H1             1.00     1.00800     H ( 1.00)

     No symmetry found

   Cartesian axes

     site n.     atom                  positions (alat units)
         1           O1  tau(   1) = (   3.2904802   0.0005063   4.7018136  )
         2           O1  tau(   2) = (   3.2900926   2.9813045   4.7018136  )
         3           Ti1 tau(   3) = (   0.0004258   2.9801865   6.0000000  )
         4           Ti1 tau(   4) = (   0.0000382   5.9609847   6.0000000  )
         5           Ti1 tau(   5) = (   3.2906075   1.4906267   6.0002472  )
         6           Ti1 tau(   6) = (   3.2902200   4.4714249   6.0002472  )
         7           O1  tau(   7) = (   1.3043587   1.4918075   6.0039043  )
         8           O1  tau(   8) = (   1.3039711   4.4726057   6.0039043  )
         9           O1  tau(   9) = (   5.2767064   1.4903225   6.0039473  )
        10           O1  tau(  10) = (   5.2763189   4.4711207   6.0039473  )
        11           O1  tau(  11) = (   3.2906025   0.0005020   7.3038282  )
        12           O1  tau(  12) = (   3.2902150   2.9813002   7.3038282  )
        13           O1  tau(  13) = (   0.0006271   0.0005054   7.9858123  )
        14           O1  tau(  14) = (   0.0002396   2.9813036   7.9858123  )
        15           Ti1 tau(  15) = (   3.3026304   0.0558743   9.1529855  )
        16           Ti1 tau(  16) = (   3.3164045   3.0327615   9.1572159  )
        17           Ti1 tau(  17) = (   0.0278175   4.5359734   9.2551557  )
        18           Ti1 tau(  18) = (   0.0245227   1.6138560   9.3625275  )
        19           O1  tau(  19) = (   4.5942328   1.4918067   9.2879030  )
        20           O1  tau(  20) = (   4.5938453   4.4726049   9.2879030  )
        21           O1  tau(  21) = (   1.9868534   1.4903216   9.2879459  )
        22           O1  tau(  22) = (   1.9864658   4.4711199   9.2879459  )
        23           O1  tau(  23) = (   0.0082563   0.0105963  10.6032901  )
        24           O1  tau(  24) = (   0.0079484   2.9900140  10.5841352  )
        25           O1  tau(  25) = (   3.3038251   2.9929121  11.3473413  )
        26           O1  tau(  26) = (   3.3033308   0.0102956  11.3494618  )
        27           Ti1 tau(  27) = (   0.0317432   0.0173395  12.5007832  )
        28           Ti1 tau(  28) = (   3.3306627   4.4867663  12.4909107  )
        29           Ti1 tau(  29) = (   3.3307827   1.5098530  12.4883691  )
        30           Ti1 tau(  30) = (   0.0330478   2.9976760  12.7859357  )
        31           O1  tau(  31) = (   1.3012438   4.4818129  12.6408784  )
        32           O1  tau(  32) = (   1.3024292   1.5014896  12.6394904  )
        33           O1  tau(  33) = (   5.3013637   4.4812751  12.6442516  )
        34           O1  tau(  34) = (   5.3009141   1.5012301  12.6421300  )
        35           O1  tau(  35) = (   3.3022887   2.9886358  13.9251823  )
        36           O1  tau(  36) = (   3.3062039   0.0095056  13.9482717  )
        37           O1  tau(  37) = (   0.0260699   0.0177473  14.6866479  )
        38           O1  tau(  38) = (   0.0273203   2.9953000  14.7270975  )
        39           Ti1 tau(  39) = (   3.3120190   2.9903054  15.7171600  )
        40           Ti1 tau(  40) = (   3.3230935   0.0106652  15.7391692  )
        41           Ti1 tau(  41) = (   0.0328368   4.5824378  15.9539421  )
        42           Ti1 tau(  42) = (   0.0326753   1.3890416  16.0019494  )
        43           O1  tau(  43) = (   4.5622593   4.4711273  16.0916796  )
        44           O1  tau(  44) = (   4.5612194   1.5125715  16.1009491  )
        45           O1  tau(  45) = (   2.0595944   1.5153445  16.1103626  )
        46           O1  tau(  46) = (   2.0577381   4.4687033  16.1006481  )
        47           O1  tau(  47) = (   0.0167757   0.0040543  17.2075325  )
        48           O1  tau(  48) = (   6.5679879   3.0050237  17.4360139  )
        49           C1  tau(  49) = (   6.3840651   3.0748419  18.6981053  )
        50           H1  tau(  50) = (   6.3009919   4.0539401  19.1713311  )
        51           H1  tau(  51) = (   6.3054763   2.1576074  19.2739789  )

     number of k points=    10  Fermi-Dirac smearing, width (Ry)=  0.0073
                       cart. coord. in units 2pi/alat
        k(    1) = (   0.0000000   0.0000000   0.0000000), wk =   0.1250000
        k(    2) = (   0.0000000   0.0419351   0.0000000), wk =   0.2500000
        k(    3) = (   0.0000000  -0.0838702   0.0000000), wk =   0.1250000
        k(    4) = (   0.0379955   0.0000049   0.0000000), wk =   0.2500000
        k(    5) = (   0.0379955   0.0419400   0.0000000), wk =   0.2500000
        k(    6) = (   0.0379955  -0.0838652   0.0000000), wk =   0.2500000
        k(    7) = (   0.0379955  -0.0419301   0.0000000), wk =   0.2500000
        k(    8) = (  -0.0759910  -0.0000099   0.0000000), wk =   0.1250000
        k(    9) = (  -0.0759910   0.0419252   0.0000000), wk =   0.2500000
        k(   10) = (  -0.0759910  -0.0838800   0.0000000), wk =   0.1250000

     Initial potential from superposition of free atoms

     starting charge  373.99919, renormalised to  390.00000

     negative rho (up, down):  1.844E-02 0.000E+00

     %%%%%%%%%%%%%%%%%%%%%%%%%%%%%%%%%%%%%%%%%%%%%%%%%%%%%%%%%%%%%%%%%%%%%%%%
     %                                                                      %
     % You are using vdW-DF, which was implemented by the Thonhauser group. %
     % Please cite the following two papers that made this development      %
     % possible and the two reviews that describe the various versions:     %
     %                                                                      %
     %   T. Thonhauser et al., PRL 115, 136402 (2015).                      %
     %   T. Thonhauser et al., PRB 76, 125112 (2007).                       %
     %   K. Berland et al., Rep. Prog. Phys. 78, 066501 (2015).             %
     %   D.C. Langreth et al., J. Phys.: Condens. Matter 21, 084203 (2009). %
     %                                                                      %
     %                                                                      %
     % If you are calculating the stress with vdW-DF, please also cite:     %
     %                                                                      %
     %   R. Sabatini et al., J. Phys.: Condens. Matter 24, 424209 (2012).   %
     %                                                                      %
     %%%%%%%%%%%%%%%%%%%%%%%%%%%%%%%%%%%%%%%%%%%%%%%%%%%%%%%%%%%%%%%%%%%%%%%%

     Adding external electric field

     Computed dipole along edir(3) :
        Dipole               -5.1811 Ry au,        -13.1689 Debye
        Dipole field         -0.0098 Ry au,

        Potential amp.        0.9063 Ry
        Total length         46.3494 bohr

     Starting wfcs are  294 atomic wfcs
  @ DRIVER MODE: Message from server: STATUS
  @ DRIVER MODE: Message from server: POSDATA
  @ DRIVER MODE: Reading and sharing cell
  @ DRIVER MODE: Reading and sharing positions
  @ DRIVER MODE: Received positions

     Self-consistent Calculation

     iteration #  1     ecut=    29.40 Ry     beta= 0.05
     Davidson diagonalization with overlap
     c_bands:  5 eigenvalues not converged
     c_bands:  4 eigenvalues not converged
     c_bands:  2 eigenvalues not converged
     c_bands:  1 eigenvalues not converged
     c_bands:  2 eigenvalues not converged
     c_bands:  2 eigenvalues not converged
     c_bands:  3 eigenvalues not converged
     c_bands:  1 eigenvalues not converged
     ethr =  1.00E-05,  avg # of iterations = 21.7

[...]

     total energy              =   -2823.03555682 Ry
     estimated scf accuracy    <    1181.77008277 Ry

     iteration #  2     ecut=    29.40 Ry     beta= 0.05
     Davidson diagonalization with overlap
     ethr =  1.00E-02,  avg # of iterations = 16.9

[...]

     iteration # 85     ecut=    29.40 Ry     beta= 0.05
     Davidson diagonalization with overlap
     c_bands:  1 eigenvalues not converged
     c_bands:  1 eigenvalues not converged
     ethr =  5.84E-11,  avg # of iterations = 13.5

[...]

     total energy              =   -2930.16726246 Ry
     estimated scf accuracy    <       0.00000008 Ry

     iteration # 88     ecut=    29.40 Ry     beta= 0.05
     Davidson diagonalization with overlap
     ethr =  2.11E-11,  avg # of iterations =  9.9

     negative rho (up, down):  1.726E-02 0.000E+00

     Adding external electric field

     Computed dipole along edir(3) :
        Dipole                0.9324 Ry au,          2.3700 Debye
        Dipole field          0.0018 Ry au,

        Potential amp.       -0.1631 Ry
        Total length         46.3494 bohr

     End of self-consistent calculation

          k = 0.0000 0.0000 0.0000 ( 18029 PWs)   bands (ev):

   -55.8208 -55.8093 -55.7844 -55.7731 -55.7116 -55.6971 -55.6747 -55.6021
   -55.6009 -55.5898 -55.5793 -55.5562 -55.5247 -55.4868 -54.8473 -54.8133
   -32.3790 -32.2933 -32.1879 -32.1711 -32.1268 -32.1224 -32.1154 -32.0966
   -32.0692 -32.0521 -32.0500 -32.0238 -31.9939 -31.9909 -31.9794 -31.9576
   -31.9415 -31.9411 -31.9315 -31.9151 -31.8929 -31.8865 -31.8840 -31.8721
   -31.8631 -31.8459 -31.8442 -31.8209 -31.8156 -31.8150 -31.7897 -31.7621
   -31.7562 -31.7340 -31.7333 -31.7305 -31.7087 -31.7087 -31.6947 -31.6778
   -31.6757 -31.6751 -31.2575 -31.1597 -31.1374 -31.0741 -30.9880 -30.8768
   -19.8423 -16.5906 -16.2967 -16.1503 -16.0165 -15.9673 -15.8520 -15.6944
   -15.6155 -15.5491 -15.4936 -15.4412 -15.4039 -15.4025 -15.3731 -15.3597
   -15.3542 -15.3467 -15.2724 -15.2704 -15.2360 -15.2182 -15.2074 -15.1183
   -15.0574 -14.9974 -14.9511 -14.8924 -14.8394 -14.8254 -13.3479 -13.2295
    -9.2911  -5.5372  -5.5082  -3.9397  -3.7631  -3.7239  -3.7081  -3.6512
    -3.5308  -3.4233  -3.3961  -3.1058  -3.0182  -2.9883  -2.9776  -2.9649
    -2.8226  -2.7791  -2.6652  -2.6622  -2.6506  -2.6459  -2.6257  -2.5905
    -2.5832  -2.5391  -2.5165  -2.4073  -2.3675  -2.2578  -2.2442  -2.2151
    -2.1562  -2.1313  -2.1005  -2.0869  -2.0578  -2.0536  -2.0514  -2.0065
    -1.9059  -1.8179  -1.7499  -1.6685  -1.6302  -1.5381  -1.3789  -1.3097
    -1.2688  -1.2339  -1.1844  -1.1653  -1.1349  -1.1129  -1.0898  -1.0802
    -0.9840  -0.8718  -0.8617  -0.7632  -0.7027  -0.6837  -0.6691  -0.5784
    -0.5597  -0.5491  -0.4553  -0.3139  -0.3041  -0.3001  -0.1815  -0.1505
    -0.1275  -0.0825  -0.0576  -0.0230   0.0077   0.0626   0.1071   0.1176
     0.1643   0.1821   0.2075   0.3089   0.3614   0.3731   0.4270   0.4640
     0.6458   0.6660   0.8072   0.8729   1.0792   1.1774   1.2328   1.3462
     1.7650   1.8228   3.3446   3.3761   3.4011   3.4510   3.4970   3.5389
     3.5919   3.7871   3.8044   3.8132   3.8380

[...]

          k = 0.0380-0.0419 0.0000 ( 17876 PWs)   bands (ev):

[...]

          k =-0.0760-0.0000 0.0000 ( 17886 PWs)   bands (ev):

[...]

          k =-0.0760-0.0839 0.0000 ( 17948 PWs)   bands (ev):

   -55.8089 -55.7961 -55.7914 -55.7907 -55.7018 -55.6938 -55.6843 -55.6052
   -55.5976 -55.5757 -55.5732 -55.5707 -55.5308 -55.4893 -54.8308 -54.8296
   -32.1804 -32.1801 -32.1167 -32.1032 -32.1017 -32.0965 -32.0818 -32.0767
   -32.0624 -32.0334 -32.0254 -32.0107 -31.9942 -31.9575 -31.9465 -31.9378
   -31.9362 -31.9333 -31.9251 -31.9217 -31.9045 -31.9018 -31.8980 -31.8970
   -31.8942 -31.8910 -31.8793 -31.8562 -31.8289 -31.8280 -31.8275 -31.8055
   -31.8009 -31.7832 -31.7800 -31.7738 -31.7705 -31.7698 -31.7430 -31.7166
   -31.7091 -31.6845 -31.1508 -31.1493 -31.0709 -31.0699 -31.0316 -31.0306
   -19.8344 -16.0226 -15.9920 -15.8753 -15.7623 -15.7494 -15.7068 -15.6638
   -15.6159 -15.5575 -15.5547 -15.5064 -15.4873 -15.4833 -15.4387 -15.4059
   -15.3579 -15.3518 -15.3408 -15.3396 -15.2859 -15.2824 -15.2357 -15.2282
   -15.2076 -15.1686 -15.1652 -15.0950 -15.0595 -15.0046 -13.3318 -13.3296
    -9.2921  -5.5125  -5.4927  -3.5571  -3.3113  -3.2780  -3.1081  -2.9801
    -2.9703  -2.9120  -2.8280  -2.7907  -2.7459  -2.6961  -2.6928  -2.6711
    -2.6588  -2.6448  -2.6409  -2.6328  -2.5871  -2.5675  -2.5258  -2.4820
    -2.4743  -2.4610  -2.4551  -2.4151  -2.3992  -2.3875  -2.3803  -2.3744
    -2.3031  -2.2269  -2.1555  -2.0805  -2.0273  -2.0072  -1.9764  -1.9418
    -1.9069  -1.8898  -1.8728  -1.7484  -1.7257  -1.5771  -1.5614  -1.5385
    -1.5295  -1.4756  -1.4688  -1.3474  -1.2711  -1.2650  -1.1939  -1.1752
    -1.1468  -1.0982  -1.0759  -0.9960  -0.9537  -0.9109  -0.8568  -0.7964
    -0.7847  -0.7184  -0.7082  -0.6275  -0.6068  -0.5856  -0.5808  -0.5104
    -0.4764  -0.3971  -0.3860  -0.3632  -0.2621  -0.1970  -0.1922   0.0029
     0.1745   0.1795   0.1994   0.2990   0.3296   0.3726   0.4288   0.4439
     0.5306   0.5853   0.6762   0.6963   0.7051   0.7859   1.5361   1.5372
     1.6281   1.6387   3.2989   3.5636   3.6007   3.6047   3.6651   3.8184
     3.8214   3.8386   3.8478   3.9728   3.9805

     the Fermi energy is     3.3298 ev

!    total energy              =   -2930.16726757 Ry
     estimated scf accuracy    <       0.00000003 Ry
     smearing contrib. (-TS)   =      -0.03343239 Ry
     internal energy E=F+TS    =   -2930.13383517 Ry

     The total energy is F=E-TS. E is the sum of the following terms:
     one-electron contribution =  -24667.63171014 Ry
     hartree contribution      =   12419.26631063 Ry
     xc contribution           =    -481.26532518 Ry
     ewald contribution        =    9799.49524884 Ry
     electric field correction =       0.00164068 Ry

     convergence has been achieved in  88 iterations

     Forces acting on atoms (cartesian axes, Ry/au):

     atom    1 type  1   force =    -0.00009918    0.00004847    0.10426251
     atom    2 type  1   force =    -0.00009487    0.00004936    0.10432192
     atom    3 type  2   force =    -0.00025411   -0.00196384    0.10279926
     atom    4 type  2   force =    -0.00014721    0.00159836    0.11370767
     atom    5 type  2   force =    -0.00033035    0.00058297   -0.18044072
     atom    6 type  2   force =    -0.00019940   -0.00013952   -0.18078216
     atom    7 type  1   force =    -0.06896355    0.00063004   -0.02908642
     atom    8 type  1   force =    -0.06848725   -0.00120589   -0.02912883
     atom    9 type  1   force =     0.06859867    0.00111718   -0.02916194
     atom   10 type  1   force =     0.06821513   -0.00080981   -0.02921821
     atom   11 type  1   force =     0.00037463    0.00051070    0.04558643
     atom   12 type  1   force =     0.00056882    0.00076190    0.04712345
     atom   13 type  1   force =     0.00028176   -0.00577308   -0.03305855
     atom   14 type  1   force =     0.00033276    0.00397392   -0.02583555
     atom   15 type  2   force =     0.00003270   -0.00027333    0.00028980
     atom   16 type  2   force =     0.00013585    0.00013540   -0.00006126
     atom   17 type  2   force =    -0.00022194   -0.00067594    0.00128682
     atom   18 type  2   force =    -0.00028239   -0.00035750    0.00066074
     atom   19 type  1   force =    -0.01792212    0.00015198    0.00393929
     atom   20 type  1   force =    -0.01643950    0.00130328    0.00321021
     atom   21 type  1   force =     0.01955640   -0.00097722    0.00433433
     atom   22 type  1   force =     0.01781683    0.00102996    0.00344062
     atom   23 type  1   force =    -0.00014326   -0.00026415    0.00013202
     atom   24 type  1   force =    -0.00022471    0.00003233    0.00000647
     atom   25 type  1   force =    -0.00002569   -0.00010605   -0.00088906
     atom   26 type  1   force =    -0.00011552    0.00023305   -0.00017337
     atom   27 type  2   force =    -0.00004637   -0.00075588   -0.00092050
     atom   28 type  2   force =     0.00014040    0.00067538    0.00013573
     atom   29 type  2   force =     0.00009434   -0.00088599    0.00051126
     atom   30 type  2   force =    -0.00025088    0.00136939   -0.00046305
     atom   31 type  1   force =    -0.00020660   -0.00033720    0.00040848
     atom   32 type  1   force =    -0.00025325    0.00036036    0.00001229
     atom   33 type  1   force =     0.00000798   -0.00038605    0.00051691
     atom   34 type  1   force =     0.00021256    0.00043480    0.00022921
     atom   35 type  1   force =     0.00014863   -0.00005201   -0.00138392
     atom   36 type  1   force =    -0.00006904    0.00032570   -0.00013546
     atom   37 type  1   force =    -0.00074430    0.00012625    0.00044002
     atom   38 type  1   force =     0.00006205   -0.00023079   -0.00058242
     atom   39 type  2   force =    -0.00077316    0.00066478    0.00129932
     atom   40 type  2   force =    -0.00103140   -0.00007773    0.00041511
     atom   41 type  2   force =     0.00062283   -0.00078729   -0.00061515
     atom   42 type  2   force =     0.00066199    0.00087416   -0.00070215
     atom   43 type  1   force =    -0.00033509    0.00021049    0.00053053
     atom   44 type  1   force =     0.00054482    0.00015248    0.00051474
     atom   45 type  1   force =    -0.00063678   -0.00003580    0.00038680
     atom   46 type  1   force =     0.00017830    0.00015241    0.00053754
     atom   47 type  1   force =    -0.00042566    0.00083984    0.00137983
     atom   48 type  1   force =    -0.00070448    0.00118218    0.00225236
     atom   49 type  3   force =    -0.00063126    0.00279798    0.00290382
     atom   50 type  4   force =     0.00106996   -0.00489718   -0.00397913
     atom   51 type  4   force =     0.00040191   -0.00133284   -0.00095763

     Total force =     0.374514     Total SCF correction =     0.000511
  @ DRIVER MODE: Message from server: STATUS
  @ DRIVER MODE: Message from server: GETFORCE
  @ DRIVER MODE: Returning v,forces,stress,ensemble

     Writing output data file ./calc.save/
  @ DRIVER MODE: Message from server: EXIT
  @ DRIVE MODE: Exiting

     General routines

     Parallel routines

   This run was terminated on:   0:39: 4  11Sep2021

   JOB DONE.