     Program PWSCF v.6.7GPU starts on 19Aug2021 at  0: 6: 1

     R & G space division:  proc/nbgrp/npool/nimage =       6
     Reading input from /storage/home/hcoda1/3/ntian30/research/carbon/CH3_vib_side_on/ads_slab/CH3N2_c/out_0025/pw.inp
Warning: card &CELL ignored
Warning: card   CELL_DYNAMICS='IPI', ignored
Warning: card / ignored

     Current dimensions of program PWSCF are:
     Max number of different atomic species (ntypx) = 10
     Max number of k-points (npk) =  40000
     Max angular momentum in pseudopotentials (lmaxx) =  3
     Presently no symmetry can be used with electric field

     Message from routine cell_base_init:
     DEPRECATED: use true lattice parameter, not A to a.u. conversion factor

     IMPORTANT: XC functional enforced from input :
     Exchange-correlation= BEEF-VDW
                           (   1   4  43  14   2   0   0)
     Any further DFT definition will be discarded
     Please, verify this is what you really want

  @ DRIVER MODE: Connecting to
 qe_1139763_2594174.sched-torque.pace.gatech.edukf3b2hqb_scratch
  using UNIX socket
  @ DRIVER MODE: Message from server: STATUS
  @ DRIVER MODE: Message from server: INIT
  @ DRIVER MODE: Receiving replica           0          -1
  @ DRIVER MODE: Receiving encoded integer          25
  @ DRIVER MODE:  SCF:  T  FORCE:  T  STRESS:  F  VC:  F  ENSEMBLE:  F
  @ DRIVER MODE:  SCF:  T  FORCE:  T  STRESS:  F  VC:  F  ENSEMBLE:  F

     Using Slab Decomposition

     bravais-lattice index     =            0
     lattice parameter (alat)  =       1.8897  a.u.
     unit-cell volume          =    6658.9804 (a.u.)^3
     number of atoms/cell      =           53
     number of atomic types    =            5
     number of electrons       =       395.00
     number of Kohn-Sham states=          207
     kinetic-energy cutoff     =      29.3995  Ry
     charge density cutoff     =     293.9946  Ry
     scf convergence threshold =      7.3E-08
     mixing beta               =       0.0500
     number of iterations used =            8  plain     mixing
     Exchange-correlation= BEEF-VDW
                           (   1   4  43  14   2   0   0)

     celldm(1)=   1.889726  celldm(2)=   0.000000  celldm(3)=   0.000000
     celldm(4)=   0.000000  celldm(5)=   0.000000  celldm(6)=   0.000000

     crystal axes: (cart. coord. in units of alat)
               a(1) = (   6.579727   0.000000   0.000000 )
               a(2) = (  -0.000775   5.961596   0.000000 )
               a(3) = (   0.000000   0.000000  25.155947 )

     reciprocal axes: (cart. coord. in units 2 pi/alat)
               b(1) = (  0.151982  0.000020  0.000000 )
               b(2) = (  0.000000  0.167740  0.000000 )
               b(3) = (  0.000000  0.000000  0.039752 )

     PseudoPot. # 1 for Ti read from file:
     /storage/coda1/p-amedford6/0/shared/rich_project_chbe-medford/medford-share/data/pseudos_module/espresso/nninc/pbe/van/Ti.UPF
     MD5 check sum: 8e4df49b7f0d34bbd5052bf3f5ea0213
     Pseudo is Ultrasoft, Zval = 12.0
     Generated by new atomic code, or converted to UPF format
     Using radial grid of  851 points,  6 beta functions with:
                l(1) =   0
                l(2) =   0
                l(3) =   1
                l(4) =   1
                l(5) =   2
                l(6) =   2
     Q(r) pseudized with  8 coefficients,  rinner =    1.000   1.000   1.000
                                                       1.000   1.000

     PseudoPot. # 2 for O  read from file:
     /storage/coda1/p-amedford6/0/shared/rich_project_chbe-medford/medford-share/data/pseudos_module/espresso/nninc/pbe/van/O.UPF
     MD5 check sum: 78c19812648e8988a0fe644b0f25305e
     Pseudo is Ultrasoft, Zval =  6.0
     Generated by new atomic code, or converted to UPF format
     Using radial grid of  737 points,  4 beta functions with:
                l(1) =   0
                l(2) =   0
                l(3) =   1
                l(4) =   1
     Q(r) pseudized with  8 coefficients,  rinner =    0.800   0.800   0.800

     PseudoPot. # 3 for N  read from file:
     /storage/coda1/p-amedford6/0/shared/rich_project_chbe-medford/medford-share/data/pseudos_module/espresso/nninc/pbe/van/N.UPF
     MD5 check sum: 90d10febe142ad51ac9d5be1deb811c4
     Pseudo is Ultrasoft, Zval =  5.0
     Generated by new atomic code, or converted to UPF format
     Using radial grid of  729 points,  4 beta functions with:
                l(1) =   0
                l(2) =   0
                l(3) =   1
                l(4) =   1
     Q(r) pseudized with  8 coefficients,  rinner =    0.800   0.800   0.800

     PseudoPot. # 4 for C  read from file:
     /storage/coda1/p-amedford6/0/shared/rich_project_chbe-medford/medford-share/data/pseudos_module/espresso/nninc/pbe/van/C.UPF
     MD5 check sum: 1a69bf6b8db32088f5b2163dbdb77a27
     Pseudo is Ultrasoft, Zval =  4.0
     Generated by new atomic code, or converted to UPF format
     Using radial grid of  721 points,  4 beta functions with:
                l(1) =   0
                l(2) =   0
                l(3) =   1
                l(4) =   1
     Q(r) pseudized with  8 coefficients,  rinner =    0.800   0.800   0.800

     PseudoPot. # 5 for H  read from file:
     /storage/coda1/p-amedford6/0/shared/rich_project_chbe-medford/medford-share/data/pseudos_module/espresso/nninc/pbe/van/H.UPF
     MD5 check sum: b5ee9d7bfd3a09ee7748110bda690ff7
     Pseudo is Ultrasoft, Zval =  1.0
     Generated by new atomic code, or converted to UPF format
     Using radial grid of  615 points,  1 beta functions with:
                l(1) =   0
     Q(r) pseudized with  8 coefficients,  rinner =    0.800

     atomic species   valence    mass     pseudopotential
        Ti1           12.00    47.86700     Ti( 1.00)
        O1             6.00    15.99900     O ( 1.00)
        N1             5.00    14.00700     N ( 1.00)
        C1             4.00    12.01100     C ( 1.00)
        H1             1.00     1.00800     H ( 1.00)

     No symmetry found

   Cartesian axes

     site n.     atom                  positions (alat units)
         1           Ti1 tau(   1) = (   0.0004258   2.9801865   6.0000000  )
         2           Ti1 tau(   2) = (   3.2906075   1.4906267   6.0002472  )
         3           O1  tau(   3) = (   0.0006271   0.0005054   7.9858123  )
         4           O1  tau(   4) = (   3.2906025   0.0005020   7.3038282  )
         5           O1  tau(   5) = (   4.5942328   1.4918067   9.2879030  )
         6           O1  tau(   6) = (   1.9868534   1.4903216   9.2879459  )
         7           Ti1 tau(   7) = (   3.2907910   2.8959150   9.1758416  )
         8           Ti1 tau(   8) = (   0.0015273   1.4827037   9.2680791  )
         9           O1  tau(   9) = (   3.2868105   5.9447858  11.3346005  )
        10           O1  tau(  10) = (   0.0116148   5.9584955  10.6183126  )
        11           O1  tau(  11) = (   1.2897616   1.4699164  12.6258314  )
        12           O1  tau(  12) = (   5.2713851   1.4716199  12.6109895  )
        13           Ti1 tau(  13) = (   0.0629619   2.9460495  12.6207869  )
        14           Ti1 tau(  14) = (   3.3778125   1.4702366  12.4807322  )
        15           O1  tau(  15) = (   6.5741670   5.9392046  14.6271830  )
        16           O1  tau(  16) = (   3.2925211   5.9405975  13.9303826  )
        17           O1  tau(  17) = (   4.5331425   1.4971777  16.0590535  )
        18           O1  tau(  18) = (   2.0416154   1.4974824  16.0477615  )
        19           Ti1 tau(  19) = (   3.2901388   2.9722967  15.7036181  )
        20           Ti1 tau(  20) = (   6.5714728   1.5019933  15.8140906  )
        21           O1  tau(  21) = (   3.2904802   0.0005063   4.7018136  )
        22           O1  tau(  22) = (   6.5775371   0.0159386  17.1814867  )
        23           O1  tau(  23) = (   1.3043587   1.4918075   6.0039043  )
        24           O1  tau(  24) = (   5.2767064   1.4903225   6.0039473  )
        25           Ti1 tau(  25) = (   0.0000382   5.9609847   6.0000000  )
        26           Ti1 tau(  26) = (   3.2902200   4.4714249   6.0002472  )
        27           O1  tau(  27) = (   0.0002396   2.9813036   7.9858123  )
        28           O1  tau(  28) = (   3.2902150   2.9813002   7.3038282  )
        29           O1  tau(  29) = (   4.5938453   4.4726049   9.2879030  )
        30           O1  tau(  30) = (   1.9864658   4.4711199   9.2879459  )
        31           Ti1 tau(  31) = (   3.2891106   5.8743827   9.1763621  )
        32           Ti1 tau(  32) = (   0.0006254   4.4649316   9.2693709  )
        33           O1  tau(  33) = (   3.2909631   2.9655588  11.3316111  )
        34           O1  tau(  34) = (   0.0092240   2.9805883  10.6323155  )
        35           O1  tau(  35) = (   1.2884032   4.4536117  12.6269208  )
        36           O1  tau(  36) = (   5.2752684   4.4605011  12.6109535  )
        37           Ti1 tau(  37) = (   0.0626277   5.9200555  12.5524633  )
        38           Ti1 tau(  38) = (   3.3797810   4.4486816  12.4846537  )
        39           O1  tau(  39) = (   6.5720240   2.9440667  14.6479771  )
        40           O1  tau(  40) = (   3.2941106   2.9728877  13.9057494  )
        41           O1  tau(  41) = (   4.5311790   4.4530262  16.1020043  )
        42           O1  tau(  42) = (   2.0427069   4.4534008  16.0946336  )
        43           Ti1 tau(  43) = (   3.2818950   5.9508925  15.7274921  )
        44           Ti1 tau(  44) = (   6.5750914   4.6476268  16.0792144  )
        45           O1  tau(  45) = (   3.2900926   2.9813045   4.7018136  )
        46           O1  tau(  46) = (   1.3039711   4.4726057   6.0039043  )
        47           O1  tau(  47) = (   5.2763189   4.4711207   6.0039473  )
        48           N1  tau(  48) = (   0.0795740   2.6614725  18.6386781  )
        49           N1  tau(  49) = (   0.0132033   2.8794178  17.4383708  )
        50           C1  tau(  50) = (   0.1510961   3.8031638  19.5808395  )
        51           H1  tau(  51) = (   6.4701351   4.7592986  19.1328852  )
        52           H1  tau(  52) = (   6.0810372   3.5604803  20.4266230  )
        53           H1  tau(  53) = (   1.1812797   3.8285794  19.9476819  )

     number of k points=    10  Fermi-Dirac smearing, width (Ry)=  0.0073
                       cart. coord. in units 2pi/alat
        k(    1) = (   0.0000000   0.0000000   0.0000000), wk =   0.1250000
        k(    2) = (   0.0000000   0.0419351   0.0000000), wk =   0.2500000
        k(    3) = (   0.0000000  -0.0838702   0.0000000), wk =   0.1250000
        k(    4) = (   0.0379955   0.0000049   0.0000000), wk =   0.2500000
        k(    5) = (   0.0379955   0.0419400   0.0000000), wk =   0.2500000
        k(    6) = (   0.0379955  -0.0838652   0.0000000), wk =   0.2500000
        k(    7) = (   0.0379955  -0.0419301   0.0000000), wk =   0.2500000
        k(    8) = (  -0.0759910  -0.0000099   0.0000000), wk =   0.1250000
        k(    9) = (  -0.0759910   0.0419252   0.0000000), wk =   0.2500000
        k(   10) = (  -0.0759910  -0.0838800   0.0000000), wk =   0.1250000

     Initial potential from superposition of free atoms

     starting charge  378.99916, renormalised to  395.00000

     negative rho (up, down):  1.506E-02 0.000E+00

     %%%%%%%%%%%%%%%%%%%%%%%%%%%%%%%%%%%%%%%%%%%%%%%%%%%%%%%%%%%%%%%%%%%%%%%%
     %                                                                      %
     % You are using vdW-DF, which was implemented by the Thonhauser group. %
     % Please cite the following two papers that made this development      %
     % possible and the two reviews that describe the various versions:     %
     %                                                                      %
     %   T. Thonhauser et al., PRL 115, 136402 (2015).                      %
     %   T. Thonhauser et al., PRB 76, 125112 (2007).                       %
     %   K. Berland et al., Rep. Prog. Phys. 78, 066501 (2015).             %
     %   D.C. Langreth et al., J. Phys.: Condens. Matter 21, 084203 (2009). %
     %                                                                      %
     %                                                                      %
     % If you are calculating the stress with vdW-DF, please also cite:     %
     %                                                                      %
     %   R. Sabatini et al., J. Phys.: Condens. Matter 24, 424209 (2012).   %
     %                                                                      %
     %%%%%%%%%%%%%%%%%%%%%%%%%%%%%%%%%%%%%%%%%%%%%%%%%%%%%%%%%%%%%%%%%%%%%%%%

     Adding external electric field

     Computed dipole along edir(3) :
        Dipole               -8.8495 Ry au,        -22.4931 Debye
        Dipole field         -0.0167 Ry au,

        Potential amp.        1.5481 Ry
        Total length         46.3494 bohr

     Starting wfcs are  299 atomic wfcs
  @ DRIVER MODE: Message from server: STATUS
  @ DRIVER MODE: Message from server: POSDATA
  @ DRIVER MODE: Reading and sharing cell
  @ DRIVER MODE: Reading and sharing positions
  @ DRIVER MODE: Received positions

     Self-consistent Calculation

     iteration #  1     ecut=    29.40 Ry     beta= 0.05
     Davidson diagonalization with overlap
     c_bands:  1 eigenvalues not converged
     c_bands:  3 eigenvalues not converged
     c_bands:  1 eigenvalues not converged
     c_bands:  3 eigenvalues not converged
     c_bands:  3 eigenvalues not converged
     c_bands:  1 eigenvalues not converged
     ethr =  1.00E-05,  avg # of iterations = 18.9

[...]

     total energy              =   -2605.45988178 Ry
     estimated scf accuracy    <    3701.46702738 Ry

     iteration #  2     ecut=    29.40 Ry     beta= 0.05
     Davidson diagonalization with overlap
     ethr =  1.00E-02,  avg # of iterations = 22.7

[...]

     iteration # 78     ecut=    29.40 Ry     beta= 0.05
     Davidson diagonalization with overlap
     c_bands:  1 eigenvalues not converged
     ethr =  8.02E-10,  avg # of iterations =  9.3

[...]

     total energy              =   -2939.15476694 Ry
     estimated scf accuracy    <       0.00000011 Ry

     iteration # 86     ecut=    29.40 Ry     beta= 0.05
     Davidson diagonalization with overlap
     ethr =  2.66E-11,  avg # of iterations =  2.4

     negative rho (up, down):  1.564E-02 0.000E+00

     Adding external electric field

     Computed dipole along edir(3) :
        Dipole                0.7047 Ry au,          1.7911 Debye
        Dipole field          0.0013 Ry au,

        Potential amp.       -0.1233 Ry
        Total length         46.3494 bohr

     End of self-consistent calculation

          k = 0.0000 0.0000 0.0000 ( 18029 PWs)   bands (ev):

   -55.8957 -55.8812 -55.8616 -55.8453 -55.7965 -55.7309 -55.7049 -55.7044
   -55.6943 -55.6704 -55.6696 -55.6360 -55.2868 -55.0960 -54.8734 -54.8394
   -32.4354 -32.3778 -32.2309 -32.2285 -32.2031 -32.1999 -32.1888 -32.1602
   -32.1383 -32.1251 -32.1033 -32.0674 -32.0618 -32.0481 -32.0344 -32.0209
   -32.0185 -31.9997 -31.9858 -31.9530 -31.9449 -31.9405 -31.8997 -31.8945
   -31.8923 -31.8887 -31.8806 -31.8758 -31.8718 -31.8448 -31.8443 -31.8352
   -31.8340 -31.8225 -31.8109 -31.7818 -31.7785 -31.5670 -31.4602 -31.3581
   -31.3562 -31.3118 -31.2806 -31.1921 -31.1697 -31.0972 -31.0107 -30.8997
   -18.4514 -16.6336 -16.3687 -16.1399 -16.0461 -16.0139 -15.8960 -15.7335
   -15.6160 -15.5612 -15.4637 -15.4441 -15.4310 -15.3993 -15.3810 -15.3756
   -15.3416 -15.3375 -15.3189 -15.3038 -15.2557 -15.2318 -15.2100 -15.1107
   -15.0645 -15.0306 -15.0154 -14.9523 -14.9472 -14.4425 -13.3757 -13.2593
   -11.3536  -6.9239  -4.3478  -4.0035  -3.8983  -3.8484  -3.8466  -3.8012
    -3.7446  -3.6250  -3.4997  -3.4376  -3.1266  -3.0790  -3.0630  -3.0458
    -3.0080  -2.8006  -2.7489  -2.7092  -2.6847  -2.6773  -2.6662  -2.6587
    -2.6470  -2.6085  -2.5062  -2.4367  -2.4304  -2.3442  -2.2943  -2.2708
    -2.2077  -2.1877  -2.1658  -2.1432  -2.1316  -2.1107  -2.0906  -2.0796
    -1.9750  -1.8835  -1.7485  -1.6951  -1.6740  -1.6595  -1.6407  -1.5036
    -1.3699  -1.3386  -1.3287  -1.3207  -1.2873  -1.2753  -1.1927  -1.0634
    -1.0528  -1.0122  -0.9609  -0.9027  -0.8777  -0.7758  -0.7390  -0.6620
    -0.6569  -0.6399  -0.5869  -0.5357  -0.3770  -0.3352  -0.3091  -0.2870
    -0.2625  -0.1918  -0.1702  -0.0535  -0.0364  -0.0189   0.0413   0.0647
     0.0775   0.0875   0.1052   0.1233   0.1407   0.3079   0.3804   0.4330
     0.4561   0.5141   0.6390   0.7080   0.7629   0.8633   1.0744   1.1487
     1.2414   1.3408   1.7202   1.7658   2.6478   3.2435   3.3243   3.3733
     3.3879   3.4850   3.5185   3.6954   3.6964   3.7248   3.7946

[...]

          k = 0.0380-0.0419 0.0000 ( 17876 PWs)   bands (ev):

[...]

          k =-0.0760-0.0000 0.0000 ( 17886 PWs)   bands (ev):

[...]

          k =-0.0760-0.0839 0.0000 ( 17948 PWs)   bands (ev):

   -55.8791 -55.8780 -55.8634 -55.8629 -55.7930 -55.7189 -55.7082 -55.7063
   -55.6883 -55.6859 -55.6535 -55.6523 -55.2854 -55.0973 -54.8564 -54.8563
   -32.2400 -32.2381 -32.1935 -32.1927 -32.1746 -32.1736 -32.1704 -32.1350
   -32.0895 -32.0864 -32.0804 -32.0798 -32.0431 -32.0137 -32.0059 -32.0053
   -31.9989 -31.9988 -31.9982 -31.9977 -31.9939 -31.9923 -31.9898 -31.9386
   -31.9248 -31.9128 -31.9117 -31.9004 -31.8875 -31.8869 -31.8846 -31.8836
   -31.8680 -31.8673 -31.8579 -31.8552 -31.6954 -31.5687 -31.4685 -31.4153
   -31.3580 -31.3373 -31.1824 -31.1824 -31.0934 -31.0933 -31.0540 -31.0540
   -18.4471 -16.0694 -16.0435 -15.8434 -15.8103 -15.8063 -15.7918 -15.6830
   -15.5981 -15.5910 -15.5883 -15.5218 -15.4919 -15.4760 -15.4352 -15.4226
   -15.4153 -15.4037 -15.3935 -15.3564 -15.3490 -15.3317 -15.3243 -15.2402
   -15.2124 -15.2083 -15.1825 -15.0645 -14.9332 -14.6187 -13.3611 -13.3610
   -11.3513  -6.9356  -4.2576  -3.9074  -3.8190  -3.3589  -3.3301  -3.0896
    -3.0510  -3.0373  -2.9840  -2.8223  -2.7921  -2.7663  -2.7548  -2.7231
    -2.7179  -2.7057  -2.7007  -2.6807  -2.6395  -2.6186  -2.6006  -2.5826
    -2.5633  -2.5493  -2.5336  -2.5167  -2.5072  -2.4678  -2.4443  -2.4328
    -2.4141  -2.4023  -2.2456  -2.1228  -2.0884  -2.0339  -2.0237  -2.0021
    -1.9622  -1.9583  -1.9466  -1.8822  -1.8104  -1.6515  -1.6126  -1.5950
    -1.5772  -1.5535  -1.5011  -1.4610  -1.3737  -1.2995  -1.2757  -1.2710
    -1.2023  -1.1156  -1.1082  -1.0603  -1.0175  -1.0085  -0.9536  -0.8888
    -0.8581  -0.8539  -0.8006  -0.7312  -0.7143  -0.6641  -0.6573  -0.6128
    -0.5578  -0.5501  -0.5288  -0.4877  -0.4058  -0.3821  -0.2437  -0.1639
    -0.0413   0.0730   0.1672   0.1816   0.2615   0.3135   0.3972   0.4149
     0.4254   0.4344   0.4776   0.5609   0.6364   0.6511   0.6970   0.8180
     1.5124   1.5132   1.5855   1.5857   2.7047   3.4905   3.5351   3.5773
     3.6095   3.7160   3.7485   3.7720   3.7733   3.8013   3.9133

     the Fermi energy is     3.2387 ev

!    total energy              =   -2939.15477943 Ry
     estimated scf accuracy    <       0.00000007 Ry
     smearing contrib. (-TS)   =      -0.02245288 Ry
     internal energy E=F+TS    =   -2939.13232655 Ry

     The total energy is F=E-TS. E is the sum of the following terms:
     one-electron contribution =  -24176.11793534 Ry
     hartree contribution      =   12175.30030968 Ry
     xc contribution           =    -485.18010345 Ry
     ewald contribution        =    9546.86446543 Ry
     electric field correction =       0.00093712 Ry

     convergence has been achieved in  86 iterations

     Forces acting on atoms (cartesian axes, Ry/au):

     atom    1 type  1   force =     0.00011626   -0.00025168    0.09663102
     atom    2 type  1   force =    -0.00012481   -0.00050266   -0.17524590
     atom    3 type  2   force =     0.00000050   -0.00010003   -0.02499218
     atom    4 type  2   force =     0.00005227   -0.00149875    0.05301047
     atom    5 type  2   force =    -0.01215628   -0.00108897    0.00360709
     atom    6 type  2   force =     0.01370816   -0.00027976    0.00228333
     atom    7 type  1   force =    -0.00117320    0.00036328   -0.01149481
     atom    8 type  1   force =     0.00055911    0.00942254    0.02852658
     atom    9 type  2   force =     0.00019975    0.00053509   -0.00014162
     atom   10 type  2   force =    -0.00114806    0.00028361   -0.01822751
     atom   11 type  2   force =    -0.00012127    0.00000184   -0.00013571
     atom   12 type  2   force =     0.00013201    0.00021579    0.00018269
     atom   13 type  1   force =     0.00009714   -0.00029260    0.00014863
     atom   14 type  1   force =     0.00021147    0.00017176    0.00019008
     atom   15 type  2   force =     0.00021995   -0.00006610   -0.00013235
     atom   16 type  2   force =    -0.00032892    0.00033963    0.00036322
     atom   17 type  2   force =    -0.00015518    0.00042027   -0.00014136
     atom   18 type  2   force =     0.00012908    0.00016309    0.00023615
     atom   19 type  1   force =    -0.00007944    0.00014491    0.00008468
     atom   20 type  1   force =    -0.00058277   -0.00024449    0.00022685
     atom   21 type  2   force =     0.00008779    0.00001285    0.10328395
     atom   22 type  2   force =    -0.00019581    0.00026212    0.00077497
     atom   23 type  2   force =    -0.07147504   -0.00007132   -0.02772281
     atom   24 type  2   force =     0.07144121    0.00035016   -0.02773315
     atom   25 type  1   force =     0.00006963   -0.00022095    0.09635666
     atom   26 type  1   force =    -0.00022728   -0.00025860   -0.17565155
     atom   27 type  2   force =     0.00006910   -0.00024969   -0.02399531
     atom   28 type  2   force =     0.00009629   -0.00126260    0.05288224
     atom   29 type  2   force =    -0.01239889    0.00004050    0.00352315
     atom   30 type  2   force =     0.01386528    0.00033159    0.00216833
     atom   31 type  1   force =    -0.00113536    0.00332569   -0.01190974
     atom   32 type  1   force =     0.00065067   -0.01117903    0.02912146
     atom   33 type  2   force =     0.00011061   -0.00020441   -0.00039534
     atom   34 type  2   force =    -0.00089416   -0.00093273   -0.02481760
     atom   35 type  2   force =    -0.00039186    0.00027299    0.00001931
     atom   36 type  2   force =     0.00072289    0.00029412    0.00034058
     atom   37 type  1   force =    -0.00000155   -0.00023101    0.00004272
     atom   38 type  1   force =    -0.00002439    0.00010581   -0.00001428
     atom   39 type  2   force =     0.00032597    0.00034479   -0.00045472
     atom   40 type  2   force =    -0.00030367    0.00010231    0.00014648
     atom   41 type  2   force =    -0.00044073    0.00052358    0.00013647
     atom   42 type  2   force =     0.00003439    0.00045257    0.00043463
     atom   43 type  1   force =    -0.00004377    0.00038944    0.00043892
     atom   44 type  1   force =    -0.00042509    0.00023542    0.00076411
     atom   45 type  2   force =     0.00008046   -0.00002628    0.10327863
     atom   46 type  2   force =    -0.07150061   -0.00003400   -0.02773446
     atom   47 type  2   force =     0.07146732    0.00039121   -0.02776566
     atom   48 type  3   force =     0.00043258   -0.00100576   -0.00051551
     atom   49 type  3   force =     0.00059195    0.00022816   -0.00032637
     atom   50 type  4   force =    -0.00325847   -0.00071497    0.00408876
     atom   51 type  5   force =     0.00038139    0.00075030   -0.00073128
     atom   52 type  5   force =     0.00421481    0.00062913   -0.00389553
     atom   53 type  5   force =    -0.00148148   -0.00038816    0.00088259

     Total force =     0.368443     Total SCF correction =     0.000650
  @ DRIVER MODE: Message from server: STATUS
  @ DRIVER MODE: Message from server: GETFORCE
  @ DRIVER MODE: Returning v,forces,stress,ensemble

     Writing output data file ./calc.save/
  @ DRIVER MODE: Message from server: EXIT
  @ DRIVE MODE: Exiting

     General routines

     Parallel routines

   This run was terminated on:   0:41:35  19Aug2021

   JOB DONE.