     Program PWSCF v.6.7GPU starts on 23Sep2021 at 11:54:11

     R & G space division:  proc/nbgrp/npool/nimage =       8
     Reading input from /storage/home/hcoda1/3/ntian30/research/carbon/CxH_vib/H2O_calc/ads_slab/CH2N2HO_b/out_0003/pw.inp
Warning: card &CELL ignored
Warning: card   CELL_DYNAMICS='IPI', ignored
Warning: card / ignored

     Current dimensions of program PWSCF are:
     Max number of different atomic species (ntypx) = 10
     Max number of k-points (npk) =  40000
     Max angular momentum in pseudopotentials (lmaxx) =  3
     Presently no symmetry can be used with electric field

     Message from routine cell_base_init:
     DEPRECATED: use true lattice parameter, not A to a.u. conversion factor

     IMPORTANT: XC functional enforced from input :
     Exchange-correlation= BEEF-VDW
                           (   1   4  43  14   2   0   0)
     Any further DFT definition will be discarded
     Please, verify this is what you really want

  @ DRIVER MODE: Connecting to
 qe_1139763_2947312.sched-torque.pace.gatech.edu28eob7c5_scratch
  using UNIX socket
  @ DRIVER MODE: Message from server: STATUS
  @ DRIVER MODE: Message from server: INIT
  @ DRIVER MODE: Receiving replica           0          -1
  @ DRIVER MODE: Receiving encoded integer          25
  @ DRIVER MODE:  SCF:  T  FORCE:  T  STRESS:  F  VC:  F  ENSEMBLE:  F
  @ DRIVER MODE:  SCF:  T  FORCE:  T  STRESS:  F  VC:  F  ENSEMBLE:  F

     Using Slab Decomposition

     bravais-lattice index     =            0
     lattice parameter (alat)  =       1.8897  a.u.
     unit-cell volume          =    6658.9804 (a.u.)^3
     number of atoms/cell      =           54
     number of atomic types    =            5
     number of electrons       =       401.00
     number of Kohn-Sham states=          210
     kinetic-energy cutoff     =      29.3995  Ry
     charge density cutoff     =     293.9946  Ry
     scf convergence threshold =      7.3E-08
     mixing beta               =       0.0500
     number of iterations used =            8  plain     mixing
     Exchange-correlation= BEEF-VDW
                           (   1   4  43  14   2   0   0)

     celldm(1)=   1.889726  celldm(2)=   0.000000  celldm(3)=   0.000000
     celldm(4)=   0.000000  celldm(5)=   0.000000  celldm(6)=   0.000000

     crystal axes: (cart. coord. in units of alat)
               a(1) = (   6.579727   0.000000   0.000000 )
               a(2) = (  -0.000775   5.961596   0.000000 )
               a(3) = (   0.000000   0.000000  25.155947 )

     reciprocal axes: (cart. coord. in units 2 pi/alat)
               b(1) = (  0.151982  0.000020  0.000000 )
               b(2) = (  0.000000  0.167740  0.000000 )
               b(3) = (  0.000000  0.000000  0.039752 )

     PseudoPot. # 1 for Ti read from file:
     /storage/coda1/p-amedford6/0/shared/rich_project_chbe-medford/medford-share/data/pseudos_module/espresso/nninc/pbe/van/Ti.UPF
     MD5 check sum: 8e4df49b7f0d34bbd5052bf3f5ea0213
     Pseudo is Ultrasoft, Zval = 12.0
     Generated by new atomic code, or converted to UPF format
     Using radial grid of  851 points,  6 beta functions with:
                l(1) =   0
                l(2) =   0
                l(3) =   1
                l(4) =   1
                l(5) =   2
                l(6) =   2
     Q(r) pseudized with  8 coefficients,  rinner =    1.000   1.000   1.000
                                                       1.000   1.000

     PseudoPot. # 2 for O  read from file:
     /storage/coda1/p-amedford6/0/shared/rich_project_chbe-medford/medford-share/data/pseudos_module/espresso/nninc/pbe/van/O.UPF
     MD5 check sum: 78c19812648e8988a0fe644b0f25305e
     Pseudo is Ultrasoft, Zval =  6.0
     Generated by new atomic code, or converted to UPF format
     Using radial grid of  737 points,  4 beta functions with:
                l(1) =   0
                l(2) =   0
                l(3) =   1
                l(4) =   1
     Q(r) pseudized with  8 coefficients,  rinner =    0.800   0.800   0.800

     PseudoPot. # 3 for N  read from file:
     /storage/coda1/p-amedford6/0/shared/rich_project_chbe-medford/medford-share/data/pseudos_module/espresso/nninc/pbe/van/N.UPF
     MD5 check sum: 90d10febe142ad51ac9d5be1deb811c4
     Pseudo is Ultrasoft, Zval =  5.0
     Generated by new atomic code, or converted to UPF format
     Using radial grid of  729 points,  4 beta functions with:
                l(1) =   0
                l(2) =   0
                l(3) =   1
                l(4) =   1
     Q(r) pseudized with  8 coefficients,  rinner =    0.800   0.800   0.800

     PseudoPot. # 4 for C  read from file:
     /storage/coda1/p-amedford6/0/shared/rich_project_chbe-medford/medford-share/data/pseudos_module/espresso/nninc/pbe/van/C.UPF
     MD5 check sum: 1a69bf6b8db32088f5b2163dbdb77a27
     Pseudo is Ultrasoft, Zval =  4.0
     Generated by new atomic code, or converted to UPF format
     Using radial grid of  721 points,  4 beta functions with:
                l(1) =   0
                l(2) =   0
                l(3) =   1
                l(4) =   1
     Q(r) pseudized with  8 coefficients,  rinner =    0.800   0.800   0.800

     PseudoPot. # 5 for H  read from file:
     /storage/coda1/p-amedford6/0/shared/rich_project_chbe-medford/medford-share/data/pseudos_module/espresso/nninc/pbe/van/H.UPF
     MD5 check sum: b5ee9d7bfd3a09ee7748110bda690ff7
     Pseudo is Ultrasoft, Zval =  1.0
     Generated by new atomic code, or converted to UPF format
     Using radial grid of  615 points,  1 beta functions with:
                l(1) =   0
     Q(r) pseudized with  8 coefficients,  rinner =    0.800

     atomic species   valence    mass     pseudopotential
        Ti1           12.00    47.86700     Ti( 1.00)
        O1             6.00    15.99900     O ( 1.00)
        N1             5.00    14.00700     N ( 1.00)
        C1             4.00    12.01100     C ( 1.00)
        H1             1.00     1.00800     H ( 1.00)

     No symmetry found

   Cartesian axes

     site n.     atom                  positions (alat units)
         1           Ti1 tau(   1) = (   0.0004258   2.9801865   6.0000000  )
         2           Ti1 tau(   2) = (   3.2906075   1.4906267   6.0002472  )
         3           O1  tau(   3) = (   0.0006271   0.0005054   7.9858123  )
         4           O1  tau(   4) = (   3.2906025   0.0005020   7.3038282  )
         5           O1  tau(   5) = (   4.5942328   1.4918067   9.2879030  )
         6           O1  tau(   6) = (   1.9868534   1.4903216   9.2879459  )
         7           Ti1 tau(   7) = (   3.2907910   2.8959150   9.1758416  )
         8           Ti1 tau(   8) = (   0.0015273   1.4827037   9.2680791  )
         9           O1  tau(   9) = (   3.2935892   5.9488104  11.3374186  )
        10           O1  tau(  10) = (   0.0116148   5.9584955  10.6183126  )
        11           O1  tau(  11) = (   1.2908913   1.5070562  12.6495475  )
        12           O1  tau(  12) = (   5.3136790   1.4931969  12.6373367  )
        13           Ti1 tau(  13) = (   0.0127878   2.8868139  12.6015941  )
        14           Ti1 tau(  14) = (   3.2987545   1.3040885  12.7026746  )
        15           O1  tau(  15) = (   0.0175227   0.0240941  14.6538407  )
        16           O1  tau(  16) = (   3.3064676   0.0741613  13.9771881  )
        17           O1  tau(  17) = (   4.5827780   1.5498142  16.1449436  )
        18           O1  tau(  18) = (   2.0366442   1.5898792  16.0867183  )
        19           Ti1 tau(  19) = (   3.3102262   3.0030951  15.6784192  )
        20           Ti1 tau(  20) = (   0.0574396   1.3488835  16.0050117  )
        21           O1  tau(  21) = (   3.2904802   0.0005063   4.7018136  )
        22           O1  tau(  22) = (   0.0721820   0.0083530  17.1768217  )
        23           O1  tau(  23) = (   1.3043587   1.4918075   6.0039043  )
        24           O1  tau(  24) = (   5.2767064   1.4903225   6.0039473  )
        25           Ti1 tau(  25) = (   0.0000382   5.9609847   6.0000000  )
        26           Ti1 tau(  26) = (   3.2902200   4.4714249   6.0002472  )
        27           O1  tau(  27) = (   0.0002396   2.9813036   7.9858123  )
        28           O1  tau(  28) = (   3.2902150   2.9813002   7.3038282  )
        29           O1  tau(  29) = (   4.5938453   4.4726049   9.2879030  )
        30           O1  tau(  30) = (   1.9864658   4.4711199   9.2879459  )
        31           Ti1 tau(  31) = (   3.2891106   5.8743827   9.1763621  )
        32           Ti1 tau(  32) = (   0.0006254   4.4649316   9.2693709  )
        33           O1  tau(  33) = (   3.2934580   3.0155445  11.2926531  )
        34           O1  tau(  34) = (   0.0092240   2.9805883  10.6323155  )
        35           O1  tau(  35) = (   1.2931599   4.4792858  12.6478595  )
        36           O1  tau(  36) = (   5.3056662   4.4876152  12.6363886  )
        37           Ti1 tau(  37) = (   6.5746511   5.8741161  12.5153022  )
        38           Ti1 tau(  38) = (   3.2863760   4.3878630  12.4273393  )
        39           O1  tau(  39) = (   6.5684735   3.0099032  14.7382625  )
        40           O1  tau(  40) = (   3.3273571   2.9915841  13.8999870  )
        41           O1  tau(  41) = (   4.5754576   4.4629145  16.1269992  )
        42           O1  tau(  42) = (   2.0375947   4.4358961  16.0236521  )
        43           Ti1 tau(  43) = (   3.3857405   0.0156461  16.2930207  )
        44           Ti1 tau(  44) = (   0.0840152   4.5257857  15.8004899  )
        45           O1  tau(  45) = (   3.2900926   2.9813045   4.7018136  )
        46           O1  tau(  46) = (   1.3039711   4.4726057   6.0039043  )
        47           O1  tau(  47) = (   5.2763189   4.4711207   6.0039473  )
        48           N1  tau(  48) = (   6.4876325   3.2851735  18.6921505  )
        49           N1  tau(  49) = (   0.0139976   3.0420413  17.5569154  )
        50           C1  tau(  50) = (   6.3059459   3.6199554  19.9036174  )
        51           H1  tau(  51) = (   5.2963100   3.8231348  20.2372398  )
        52           H1  tau(  52) = (   0.5840524   3.7151184  20.5547593  )
        53           O1  tau(  53) = (   3.1058724   5.9363815  18.1230642  )
        54           H1  tau(  54) = (   2.1709728   0.0855973  18.3648350  )

     number of k points=    10  Fermi-Dirac smearing, width (Ry)=  0.0073
                       cart. coord. in units 2pi/alat
        k(    1) = (   0.0000000   0.0000000   0.0000000), wk =   0.1250000
        k(    2) = (   0.0000000   0.0419351   0.0000000), wk =   0.2500000
        k(    3) = (   0.0000000  -0.0838702   0.0000000), wk =   0.1250000
        k(    4) = (   0.0379955   0.0000049   0.0000000), wk =   0.2500000
        k(    5) = (   0.0379955   0.0419400   0.0000000), wk =   0.2500000
        k(    6) = (   0.0379955  -0.0838652   0.0000000), wk =   0.2500000
        k(    7) = (   0.0379955  -0.0419301   0.0000000), wk =   0.2500000
        k(    8) = (  -0.0759910  -0.0000099   0.0000000), wk =   0.1250000
        k(    9) = (  -0.0759910   0.0419252   0.0000000), wk =   0.2500000
        k(   10) = (  -0.0759910  -0.0838800   0.0000000), wk =   0.1250000

     Initial potential from superposition of free atoms

     starting charge  384.99916, renormalised to  401.00000

     negative rho (up, down):  1.407E-02 0.000E+00

     %%%%%%%%%%%%%%%%%%%%%%%%%%%%%%%%%%%%%%%%%%%%%%%%%%%%%%%%%%%%%%%%%%%%%%%%
     %                                                                      %
     % You are using vdW-DF, which was implemented by the Thonhauser group. %
     % Please cite the following two papers that made this development      %
     % possible and the two reviews that describe the various versions:     %
     %                                                                      %
     %   T. Thonhauser et al., PRL 115, 136402 (2015).                      %
     %   T. Thonhauser et al., PRB 76, 125112 (2007).                       %
     %   K. Berland et al., Rep. Prog. Phys. 78, 066501 (2015).             %
     %   D.C. Langreth et al., J. Phys.: Condens. Matter 21, 084203 (2009). %
     %                                                                      %
     %                                                                      %
     % If you are calculating the stress with vdW-DF, please also cite:     %
     %                                                                      %
     %   R. Sabatini et al., J. Phys.: Condens. Matter 24, 424209 (2012).   %
     %                                                                      %
     %%%%%%%%%%%%%%%%%%%%%%%%%%%%%%%%%%%%%%%%%%%%%%%%%%%%%%%%%%%%%%%%%%%%%%%%

     Adding external electric field

     Computed dipole along edir(3) :
        Dipole              -11.8206 Ry au,        -30.0448 Debye
        Dipole field         -0.0223 Ry au,

        Potential amp.        2.0678 Ry
        Total length         46.3494 bohr

     Starting wfcs are  303 atomic wfcs
  @ DRIVER MODE: Message from server: STATUS
  @ DRIVER MODE: Message from server: POSDATA
  @ DRIVER MODE: Reading and sharing cell
  @ DRIVER MODE: Reading and sharing positions
  @ DRIVER MODE: Received positions

     Self-consistent Calculation

     iteration #  1     ecut=    29.40 Ry     beta= 0.05
     Davidson diagonalization with overlap
     c_bands:  3 eigenvalues not converged
     c_bands:  4 eigenvalues not converged
     c_bands:  1 eigenvalues not converged
     c_bands:  4 eigenvalues not converged
     c_bands:  4 eigenvalues not converged
     c_bands:  1 eigenvalues not converged
     c_bands:  2 eigenvalues not converged
     ethr =  1.00E-05,  avg # of iterations = 22.9

[...]

     total energy              =   -2411.66856777 Ry
     estimated scf accuracy    <    6295.61579652 Ry

     iteration #  2     ecut=    29.40 Ry     beta= 0.05
     Davidson diagonalization with overlap
     ethr =  1.00E-02,  avg # of iterations = 22.4

[...]

     iteration # 48     ecut=    29.40 Ry     beta= 0.05
     Davidson diagonalization with overlap
     c_bands:  1 eigenvalues not converged
     ethr =  2.74E-07,  avg # of iterations =  7.4

[...]

     total energy              =   -2971.49152442 Ry
     estimated scf accuracy    <       0.00000019 Ry

     iteration # 70     ecut=    29.40 Ry     beta= 0.05
     Davidson diagonalization with overlap
     ethr =  4.71E-11,  avg # of iterations =  6.2

     negative rho (up, down):  1.460E-02 0.000E+00

     Adding external electric field

     Computed dipole along edir(3) :
        Dipole                1.0646 Ry au,          2.7058 Debye
        Dipole field          0.0020 Ry au,

        Potential amp.       -0.1862 Ry
        Total length         46.3494 bohr

     End of self-consistent calculation

          k = 0.0000 0.0000 0.0000 ( 18029 PWs)   bands (ev):

   -55.6902 -55.6562 -55.4756 -55.4750 -55.4411 -55.3328 -55.3161 -55.2810
   -55.2807 -55.2265 -55.1815 -55.0961 -55.0863 -54.9806 -54.5981 -54.5641
   -32.1641 -31.9855 -31.9834 -31.9274 -31.8428 -31.8161 -31.8113 -31.7935
   -31.7867 -31.7574 -31.7492 -31.7486 -31.7119 -31.6943 -31.6838 -31.6489
   -31.6481 -31.6096 -31.5826 -31.5786 -31.5752 -31.5506 -31.5411 -31.5387
   -31.4933 -31.4870 -31.4804 -31.4702 -31.4591 -31.4449 -31.4394 -31.4257
   -31.4242 -31.3697 -31.3653 -31.3607 -31.2951 -31.2815 -31.2598 -31.2299
   -31.2046 -31.1914 -31.0011 -30.9224 -30.8995 -30.8190 -30.7331 -30.6212
   -20.7808 -16.2550 -16.1706 -15.9666 -15.7885 -15.6385 -15.5855 -15.4451
   -15.3728 -15.2752 -15.1921 -15.0932 -15.0725 -15.0330 -14.9983 -14.9955
   -14.9691 -14.9358 -14.9350 -14.9141 -14.8941 -14.8474 -14.7860 -14.7704
   -14.7251 -14.6978 -14.6477 -14.6276 -14.6170 -14.5155 -14.2481 -14.2346
   -13.0961 -12.9810  -7.4052  -6.0936  -5.6869  -5.0622  -3.7641  -3.5782
    -3.5041  -3.3561  -3.2763  -3.2033  -3.0929  -2.9857  -2.9071  -2.7473
    -2.6616  -2.6364  -2.5845  -2.5271  -2.4618  -2.4355  -2.3948  -2.3718
    -2.2945  -2.2537  -2.2302  -2.2090  -2.1545  -2.1248  -2.0907  -2.0047
    -1.9741  -1.9409  -1.8658  -1.8579  -1.8325  -1.8256  -1.7821  -1.7639
    -1.7502  -1.7332  -1.5960  -1.5871  -1.5101  -1.4711  -1.3243  -1.1992
    -1.1354  -1.0645  -1.0504  -0.9682  -0.9334  -0.8538  -0.8362  -0.8053
    -0.7675  -0.6993  -0.6355  -0.6125  -0.5682  -0.5315  -0.3949  -0.3730
    -0.3267  -0.3225  -0.2978  -0.2350  -0.1653  -0.0834  -0.0714  -0.0057
     0.0151   0.0971   0.1789   0.1864   0.2364   0.2596   0.3143   0.3373
     0.3555   0.3889   0.4181   0.4876   0.5511   0.5980   0.6034   0.6364
     0.7035   0.7719   0.8116   0.8447   0.9937   1.0237   1.0381   1.1284
     1.1392   1.2470   1.4065   1.4281   1.6320   1.6328   1.9881   2.0306
     3.4562   3.5862   3.6200   3.6945   3.7790   3.9058   3.9152   4.0423
     4.1651   4.2753

[...]

          k = 0.0380-0.0419 0.0000 ( 17876 PWs)   bands (ev):

[...]

          k =-0.0760-0.0000 0.0000 ( 17886 PWs)   bands (ev):

[...]

          k =-0.0760-0.0839 0.0000 ( 17948 PWs)   bands (ev):

   -55.6737 -55.6726 -55.4748 -55.4592 -55.4566 -55.3266 -55.3025 -55.2942
   -55.2872 -55.2270 -55.1780 -55.0995 -55.0837 -54.9831 -54.5817 -54.5805
   -31.9799 -31.9794 -31.9696 -31.9688 -31.7943 -31.7929 -31.7807 -31.7750
   -31.7433 -31.7228 -31.6941 -31.6889 -31.6836 -31.6704 -31.6527 -31.6478
   -31.6312 -31.6173 -31.6155 -31.6122 -31.5925 -31.5510 -31.5460 -31.5246
   -31.5234 -31.5190 -31.5134 -31.5119 -31.5040 -31.4867 -31.4646 -31.4579
   -31.4303 -31.3899 -31.3763 -31.3529 -31.3419 -31.3259 -31.2985 -31.2856
   -31.2363 -31.1949 -30.9127 -30.9119 -30.8151 -30.8137 -30.7766 -30.7757
   -20.7797 -16.2291 -15.6173 -15.5484 -15.5288 -15.5206 -15.4042 -15.3713
   -15.2398 -15.2387 -15.2162 -15.1570 -15.1469 -15.1154 -15.1094 -15.0842
   -15.0504 -15.0256 -15.0026 -14.9727 -14.9617 -14.9182 -14.8907 -14.8874
   -14.8733 -14.8251 -14.7380 -14.6552 -14.6263 -14.5752 -14.4955 -14.3670
   -13.0836 -13.0829  -7.4060  -6.0971  -5.6898  -5.0395  -3.7374  -3.1273
    -2.8960  -2.7488  -2.7210  -2.5934  -2.5747  -2.4802  -2.4722  -2.4292
    -2.4161  -2.3773  -2.3488  -2.3314  -2.2888  -2.2718  -2.2562  -2.2526
    -2.2338  -2.2032  -2.1946  -2.1905  -2.1813  -2.1525  -2.1263  -2.1114
    -2.0957  -2.0480  -2.0218  -1.9240  -1.8175  -1.7926  -1.7193  -1.7119
    -1.7100  -1.6979  -1.6759  -1.6523  -1.5678  -1.4780  -1.4404  -1.3842
    -1.2100  -1.1962  -1.1729  -1.1515  -1.0938  -1.0471  -1.0173  -0.9654
    -0.9528  -0.9299  -0.8581  -0.7940  -0.7213  -0.7003  -0.6321  -0.5818
    -0.5646  -0.4750  -0.4622  -0.4291  -0.3878  -0.3737  -0.3452  -0.2905
    -0.2760  -0.2563  -0.2288  -0.1902  -0.1547   0.0144   0.1478   0.2123
     0.2289   0.2653   0.3198   0.3854   0.4093   0.5933   0.6060   0.6110
     0.6484   0.7094   0.7348   0.7513   0.8443   0.9557   0.9848   1.0200
     1.0483   1.0681   1.1479   1.2075   1.7990   1.8071   1.8501   1.8508
     3.4575   3.9929   4.0120   4.0135   4.0145   4.1092   4.1330   4.1412
     4.2062   4.2678

     the Fermi energy is     3.4505 ev

!    total energy              =   -2971.49155685 Ry
     estimated scf accuracy    <       0.00000006 Ry
     smearing contrib. (-TS)   =      -0.01886745 Ry
     internal energy E=F+TS    =   -2971.47268940 Ry

     The total energy is F=E-TS. E is the sum of the following terms:
     one-electron contribution =  -23618.20063597 Ry
     hartree contribution      =   11902.94381216 Ry
     xc contribution           =    -492.36781662 Ry
     ewald contribution        =    9236.14981238 Ry
     electric field correction =       0.00213865 Ry

     convergence has been achieved in  70 iterations

     Forces acting on atoms (cartesian axes, Ry/au):

     atom    1 type  1   force =     0.00001029   -0.00040968    0.09768769
     atom    2 type  1   force =    -0.00002748    0.00021702   -0.17213145
     atom    3 type  2   force =     0.00005004   -0.00005328   -0.02534282
     atom    4 type  2   force =     0.00001554   -0.00144684    0.04761234
     atom    5 type  2   force =    -0.00617214   -0.00239727   -0.00084402
     atom    6 type  2   force =     0.00779435   -0.00181478   -0.00151077
     atom    7 type  1   force =    -0.00009480   -0.00483914    0.01881206
     atom    8 type  1   force =     0.00022806    0.01221551    0.02696074
     atom    9 type  2   force =    -0.00010415   -0.00016863   -0.00004937
     atom   10 type  2   force =    -0.00112089    0.00131810   -0.02495940
     atom   11 type  2   force =     0.00013884   -0.00003485    0.00008057
     atom   12 type  2   force =     0.00006552   -0.00003796    0.00000699
     atom   13 type  1   force =     0.00034122   -0.00020235   -0.00029838
     atom   14 type  1   force =     0.00005521   -0.00014744   -0.00024176
     atom   15 type  2   force =    -0.00029146   -0.00036126   -0.00021760
     atom   16 type  2   force =    -0.00003149   -0.00011035   -0.00045810
     atom   17 type  2   force =    -0.00007686   -0.00002902    0.00000530
     atom   18 type  2   force =    -0.00001562   -0.00015745   -0.00001449
     atom   19 type  1   force =    -0.00016013   -0.00002768   -0.00049305
     atom   20 type  1   force =    -0.00015931   -0.00022309   -0.00015155
     atom   21 type  2   force =     0.00005514    0.00008255    0.10225429
     atom   22 type  2   force =     0.00008329   -0.00004930   -0.00009345
     atom   23 type  2   force =    -0.07353224   -0.00016121   -0.02810148
     atom   24 type  2   force =     0.07345308    0.00028026   -0.02817905
     atom   25 type  1   force =     0.00013471   -0.00033204    0.09747975
     atom   26 type  1   force =    -0.00004156   -0.00130556   -0.17226696
     atom   27 type  2   force =     0.00009365   -0.00030492   -0.02398306
     atom   28 type  2   force =     0.00004263    0.00031030    0.04323758
     atom   29 type  2   force =    -0.00506260    0.00403485   -0.00276837
     atom   30 type  2   force =     0.00657229    0.00442505   -0.00332757
     atom   31 type  1   force =     0.00001617    0.00579998    0.00684739
     atom   32 type  1   force =     0.00028949   -0.01519697    0.02653569
     atom   33 type  2   force =     0.00038301   -0.00001214    0.00016521
     atom   34 type  2   force =    -0.00138674    0.00099342   -0.02669817
     atom   35 type  2   force =     0.00036676    0.00005023    0.00005305
     atom   36 type  2   force =    -0.00027607   -0.00006328   -0.00006911
     atom   37 type  1   force =     0.00010244   -0.00052046   -0.00022950
     atom   38 type  1   force =     0.00024275    0.00012625    0.00004349
     atom   39 type  2   force =    -0.00012577   -0.00017623    0.00002148
     atom   40 type  2   force =     0.00005499    0.00002464   -0.00004916
     atom   41 type  2   force =    -0.00006527    0.00002395   -0.00012471
     atom   42 type  2   force =    -0.00035221   -0.00014368    0.00007657
     atom   43 type  1   force =    -0.00011793    0.00023176   -0.00069063
     atom   44 type  1   force =    -0.00029485    0.00069442   -0.00007562
     atom   45 type  2   force =     0.00004716   -0.00008019    0.10205842
     atom   46 type  2   force =    -0.07356776   -0.00007888   -0.02814117
     atom   47 type  2   force =     0.07347373    0.00035992   -0.02818936
     atom   48 type  3   force =    -0.00199060    0.00672245    0.01210416
     atom   49 type  3   force =     0.00042494   -0.00377400   -0.00688880
     atom   50 type  4   force =     0.00044010   -0.00272320   -0.00440876
     atom   51 type  5   force =     0.00007324   -0.00023897   -0.00029342
     atom   52 type  5   force =    -0.00021389   -0.00029959   -0.00030747
     atom   53 type  2   force =     0.00037602    0.00069919   -0.00024729
     atom   54 type  5   force =    -0.00014285   -0.00068816   -0.00019690

     Total force =     0.365375     Total SCF correction =     0.000661
  @ DRIVER MODE: Message from server: STATUS
  @ DRIVER MODE: Message from server: GETFORCE
  @ DRIVER MODE: Returning v,forces,stress,ensemble

     Writing output data file ./calc.save/
  @ DRIVER MODE: Message from server: EXIT
  @ DRIVE MODE: Exiting

     General routines

     Parallel routines

   This run was terminated on:  12:16:46  23Sep2021

   JOB DONE.