     Program PWSCF v.6.7GPU starts on  2Aug2021 at 19:58:32

     R & G space division:  proc/nbgrp/npool/nimage =      16
     Reading input from /storage/home/hcoda1/3/ntian30/research/carbon/02Aug_vib_paired/ads_slab/CH3NH3_a/out_0023/pw.inp
Warning: card &CELL ignored
Warning: card   CELL_DYNAMICS='IPI', ignored
Warning: card / ignored

     Current dimensions of program PWSCF are:
     Max number of different atomic species (ntypx) = 10
     Max number of k-points (npk) =  40000
     Max angular momentum in pseudopotentials (lmaxx) =  3
     Presently no symmetry can be used with electric field

     Message from routine cell_base_init:
     DEPRECATED: use true lattice parameter, not A to a.u. conversion factor

     IMPORTANT: XC functional enforced from input :
     Exchange-correlation= BEEF-VDW
                           (   1   4  43  14   2   0   0)
     Any further DFT definition will be discarded
     Please, verify this is what you really want

  @ DRIVER MODE: Connecting to
 qe_1139763_2482539.sched-torque.pace.gatech.eduzx1y4ux__scratch
  using UNIX socket
  @ DRIVER MODE: Message from server: STATUS
  @ DRIVER MODE: Message from server: INIT
  @ DRIVER MODE: Receiving replica           0          -1
  @ DRIVER MODE: Receiving encoded integer          25
  @ DRIVER MODE:  SCF:  T  FORCE:  T  STRESS:  F  VC:  F  ENSEMBLE:  F
  @ DRIVER MODE:  SCF:  T  FORCE:  T  STRESS:  F  VC:  F  ENSEMBLE:  F

     Using Slab Decomposition

     bravais-lattice index     =            0
     lattice parameter (alat)  =       1.8897  a.u.
     unit-cell volume          =    6658.9804 (a.u.)^3
     number of atoms/cell      =           55
     number of atomic types    =            5
     number of electrons       =       393.00
     number of Kohn-Sham states=          206
     kinetic-energy cutoff     =      29.3995  Ry
     charge density cutoff     =     293.9946  Ry
     scf convergence threshold =      7.3E-08
     mixing beta               =       0.0500
     number of iterations used =            8  plain     mixing
     Exchange-correlation= BEEF-VDW
                           (   1   4  43  14   2   0   0)

     celldm(1)=   1.889726  celldm(2)=   0.000000  celldm(3)=   0.000000
     celldm(4)=   0.000000  celldm(5)=   0.000000  celldm(6)=   0.000000

     crystal axes: (cart. coord. in units of alat)
               a(1) = (   6.579727   0.000000   0.000000 )
               a(2) = (  -0.000775   5.961596   0.000000 )
               a(3) = (   0.000000   0.000000  25.155947 )

     reciprocal axes: (cart. coord. in units 2 pi/alat)
               b(1) = (  0.151982  0.000020  0.000000 )
               b(2) = (  0.000000  0.167740  0.000000 )
               b(3) = (  0.000000  0.000000  0.039752 )

     PseudoPot. # 1 for Ti read from file:
     /storage/coda1/p-amedford6/0/shared/rich_project_chbe-medford/medford-share/data/pseudos_module/espresso/nninc/pbe/van/Ti.UPF
     MD5 check sum: 8e4df49b7f0d34bbd5052bf3f5ea0213
     Pseudo is Ultrasoft, Zval = 12.0
     Generated by new atomic code, or converted to UPF format
     Using radial grid of  851 points,  6 beta functions with:
                l(1) =   0
                l(2) =   0
                l(3) =   1
                l(4) =   1
                l(5) =   2
                l(6) =   2
     Q(r) pseudized with  8 coefficients,  rinner =    1.000   1.000   1.000
                                                       1.000   1.000

     PseudoPot. # 2 for O  read from file:
     /storage/coda1/p-amedford6/0/shared/rich_project_chbe-medford/medford-share/data/pseudos_module/espresso/nninc/pbe/van/O.UPF
     MD5 check sum: 78c19812648e8988a0fe644b0f25305e
     Pseudo is Ultrasoft, Zval =  6.0
     Generated by new atomic code, or converted to UPF format
     Using radial grid of  737 points,  4 beta functions with:
                l(1) =   0
                l(2) =   0
                l(3) =   1
                l(4) =   1
     Q(r) pseudized with  8 coefficients,  rinner =    0.800   0.800   0.800

     PseudoPot. # 3 for C  read from file:
     /storage/coda1/p-amedford6/0/shared/rich_project_chbe-medford/medford-share/data/pseudos_module/espresso/nninc/pbe/van/C.UPF
     MD5 check sum: 1a69bf6b8db32088f5b2163dbdb77a27
     Pseudo is Ultrasoft, Zval =  4.0
     Generated by new atomic code, or converted to UPF format
     Using radial grid of  721 points,  4 beta functions with:
                l(1) =   0
                l(2) =   0
                l(3) =   1
                l(4) =   1
     Q(r) pseudized with  8 coefficients,  rinner =    0.800   0.800   0.800

     PseudoPot. # 4 for H  read from file:
     /storage/coda1/p-amedford6/0/shared/rich_project_chbe-medford/medford-share/data/pseudos_module/espresso/nninc/pbe/van/H.UPF
     MD5 check sum: b5ee9d7bfd3a09ee7748110bda690ff7
     Pseudo is Ultrasoft, Zval =  1.0
     Generated by new atomic code, or converted to UPF format
     Using radial grid of  615 points,  1 beta functions with:
                l(1) =   0
     Q(r) pseudized with  8 coefficients,  rinner =    0.800

     PseudoPot. # 5 for N  read from file:
     /storage/coda1/p-amedford6/0/shared/rich_project_chbe-medford/medford-share/data/pseudos_module/espresso/nninc/pbe/van/N.UPF
     MD5 check sum: 90d10febe142ad51ac9d5be1deb811c4
     Pseudo is Ultrasoft, Zval =  5.0
     Generated by new atomic code, or converted to UPF format
     Using radial grid of  729 points,  4 beta functions with:
                l(1) =   0
                l(2) =   0
                l(3) =   1
                l(4) =   1
     Q(r) pseudized with  8 coefficients,  rinner =    0.800   0.800   0.800

     atomic species   valence    mass     pseudopotential
        Ti1           12.00    47.86700     Ti( 1.00)
        O1             6.00    15.99900     O ( 1.00)
        C1             4.00    12.01100     C ( 1.00)
        H1             1.00     1.00800     H ( 1.00)
        N1             5.00    14.00700     N ( 1.00)

     No symmetry found

   Cartesian axes

     site n.     atom                  positions (alat units)
         1           Ti1 tau(   1) = (   0.0004258   2.9801865   6.0000000  )
         2           Ti1 tau(   2) = (   3.2906075   1.4906267   6.0002472  )
         3           O1  tau(   3) = (   0.0006271   0.0005054   7.9858123  )
         4           O1  tau(   4) = (   3.2906025   0.0005020   7.3038282  )
         5           O1  tau(   5) = (   4.5942328   1.4918067   9.2879030  )
         6           O1  tau(   6) = (   1.9868534   1.4903216   9.2879459  )
         7           Ti1 tau(   7) = (   3.2907910   2.8959150   9.1758416  )
         8           Ti1 tau(   8) = (   0.0015273   1.4827037   9.2680791  )
         9           O1  tau(   9) = (   3.2981156   0.0012339  11.3300471  )
        10           O1  tau(  10) = (   0.0116148   5.9584955  10.6183126  )
        11           O1  tau(  11) = (   1.3033605   1.5036236  12.6199488  )
        12           O1  tau(  12) = (   5.2811161   1.5074500  12.6162500  )
        13           Ti1 tau(  13) = (   0.0407500   2.9455431  12.6352795  )
        14           Ti1 tau(  14) = (   3.3444429   1.4910927  12.4779025  )
        15           O1  tau(  15) = (   0.0052662   0.0451097  14.6026341  )
        16           O1  tau(  16) = (   3.2946143   0.0124870  13.9210852  )
        17           O1  tau(  17) = (   4.5465206   1.5046604  16.0624161  )
        18           O1  tau(  18) = (   2.0546879   1.5048301  16.0609706  )
        19           Ti1 tau(  19) = (   3.2991624   2.9918142  15.6995589  )
        20           Ti1 tau(  20) = (   6.5707204   1.4025535  15.8059435  )
        21           O1  tau(  21) = (   3.2904802   0.0005063   4.7018136  )
        22           O1  tau(  22) = (   0.0164654   0.0145536  17.1360041  )
        23           O1  tau(  23) = (   1.3043587   1.4918075   6.0039043  )
        24           O1  tau(  24) = (   5.2767064   1.4903225   6.0039473  )
        25           Ti1 tau(  25) = (   0.0000382   5.9609847   6.0000000  )
        26           Ti1 tau(  26) = (   3.2902200   4.4714249   6.0002472  )
        27           O1  tau(  27) = (   0.0002396   2.9813036   7.9858123  )
        28           O1  tau(  28) = (   3.2902150   2.9813002   7.3038282  )
        29           O1  tau(  29) = (   4.5938453   4.4726049   9.2879030  )
        30           O1  tau(  30) = (   1.9864658   4.4711199   9.2879459  )
        31           Ti1 tau(  31) = (   3.2891106   5.8743827   9.1763621  )
        32           Ti1 tau(  32) = (   0.0006254   4.4649316   9.2693709  )
        33           O1  tau(  33) = (   3.2977166   2.9913250  11.3287690  )
        34           O1  tau(  34) = (   0.0092240   2.9805883  10.6323155  )
        35           O1  tau(  35) = (   1.3008534   4.4801743  12.6308489  )
        36           O1  tau(  36) = (   5.2850400   4.4860598  12.6280017  )
        37           Ti1 tau(  37) = (   0.0409916   5.9178611  12.5441859  )
        38           Ti1 tau(  38) = (   3.3442415   4.4710906  12.4862270  )
        39           O1  tau(  39) = (   0.0109228   2.9791018  14.7123696  )
        40           O1  tau(  40) = (   3.2998940   2.9912248  13.9043662  )
        41           O1  tau(  41) = (   4.5474046   4.4713503  16.0779382  )
        42           O1  tau(  42) = (   2.0618872   4.4767818  16.0643778  )
        43           Ti1 tau(  43) = (   3.2722838   0.0128901  15.7174356  )
        44           Ti1 tau(  44) = (   6.5592075   4.4947239  16.1563676  )
        45           O1  tau(  45) = (   3.2900926   2.9813045   4.7018136  )
        46           O1  tau(  46) = (   1.3039711   4.4726057   6.0039043  )
        47           O1  tau(  47) = (   5.2763189   4.4711207   6.0039473  )
        48           C1  tau(  48) = (   0.0359503   3.0870652  17.8341721  )
        49           H1  tau(  49) = (   5.8142062   3.6010452  18.3763092  )
        50           H1  tau(  50) = (   6.4784518   2.0305676  18.0614951  )
        51           H1  tau(  51) = (   0.9863100   3.3782628  18.2808018  )
        52           N1  tau(  52) = (   4.7642638   1.7931862  21.6370373  )
        53           H1  tau(  53) = (   4.5527921   2.7808570  21.5386679  )
        54           H1  tau(  54) = (   4.1042548   1.2952780  21.0483319  )
        55           H1  tau(  55) = (   4.5435699   1.5432347  22.5953497  )

     number of k points=    10  Fermi-Dirac smearing, width (Ry)=  0.0073
                       cart. coord. in units 2pi/alat
        k(    1) = (   0.0000000   0.0000000   0.0000000), wk =   0.1250000
        k(    2) = (   0.0000000   0.0419351   0.0000000), wk =   0.2500000
        k(    3) = (   0.0000000  -0.0838702   0.0000000), wk =   0.1250000
        k(    4) = (   0.0379955   0.0000049   0.0000000), wk =   0.2500000
        k(    5) = (   0.0379955   0.0419400   0.0000000), wk =   0.2500000
        k(    6) = (   0.0379955  -0.0838652   0.0000000), wk =   0.2500000
        k(    7) = (   0.0379955  -0.0419301   0.0000000), wk =   0.2500000
        k(    8) = (  -0.0759910  -0.0000099   0.0000000), wk =   0.1250000
        k(    9) = (  -0.0759910   0.0419252   0.0000000), wk =   0.2500000
        k(   10) = (  -0.0759910  -0.0838800   0.0000000), wk =   0.1250000

     Initial potential from superposition of free atoms

     starting charge  376.99914, renormalised to  393.00000

     negative rho (up, down):  1.001E-02 0.000E+00

     %%%%%%%%%%%%%%%%%%%%%%%%%%%%%%%%%%%%%%%%%%%%%%%%%%%%%%%%%%%%%%%%%%%%%%%%
     %                                                                      %
     % You are using vdW-DF, which was implemented by the Thonhauser group. %
     % Please cite the following two papers that made this development      %
     % possible and the two reviews that describe the various versions:     %
     %                                                                      %
     %   T. Thonhauser et al., PRL 115, 136402 (2015).                      %
     %   T. Thonhauser et al., PRB 76, 125112 (2007).                       %
     %   K. Berland et al., Rep. Prog. Phys. 78, 066501 (2015).             %
     %   D.C. Langreth et al., J. Phys.: Condens. Matter 21, 084203 (2009). %
     %                                                                      %
     %                                                                      %
     % If you are calculating the stress with vdW-DF, please also cite:     %
     %                                                                      %
     %   R. Sabatini et al., J. Phys.: Condens. Matter 24, 424209 (2012).   %
     %                                                                      %
     %%%%%%%%%%%%%%%%%%%%%%%%%%%%%%%%%%%%%%%%%%%%%%%%%%%%%%%%%%%%%%%%%%%%%%%%

     Adding external electric field

     Computed dipole along edir(3) :
        Dipole               -9.0608 Ry au,        -23.0302 Debye
        Dipole field         -0.0171 Ry au,

        Potential amp.        1.5850 Ry
        Total length         46.3494 bohr

     Starting wfcs are  298 atomic wfcs
  @ DRIVER MODE: Message from server: STATUS
  @ DRIVER MODE: Message from server: POSDATA
  @ DRIVER MODE: Reading and sharing cell
  @ DRIVER MODE: Reading and sharing positions
  @ DRIVER MODE: Received positions

     Self-consistent Calculation

     iteration #  1     ecut=    29.40 Ry     beta= 0.05
     Davidson diagonalization with overlap
     c_bands:  1 eigenvalues not converged
     c_bands:  1 eigenvalues not converged
     c_bands:  1 eigenvalues not converged
     ethr =  1.00E-05,  avg # of iterations = 17.8

[...]

     total energy              =   -2692.42934245 Ry
     estimated scf accuracy    <    2566.13757326 Ry

[...]

     iteration #  3     ecut=    29.40 Ry     beta= 0.05
     Davidson diagonalization with overlap
     ethr =  1.00E-02,  avg # of iterations = 16.7

[...]

     iteration # 53     ecut=    29.40 Ry     beta= 0.05
     Davidson diagonalization with overlap
     c_bands:  1 eigenvalues not converged
     c_bands:  1 eigenvalues not converged
     ethr =  1.87E-08,  avg # of iterations = 17.1

[...]

     total energy              =   -2922.78955697 Ry
     estimated scf accuracy    <       0.00000007 Ry

     iteration # 74     ecut=    29.40 Ry     beta= 0.05
     Davidson diagonalization with overlap
     ethr =  1.88E-11,  avg # of iterations = 11.0

     negative rho (up, down):  1.132E-02 0.000E+00

     Adding external electric field

     Computed dipole along edir(3) :
        Dipole                0.5505 Ry au,          1.3993 Debye
        Dipole field          0.0010 Ry au,

        Potential amp.       -0.0963 Ry
        Total length         46.3494 bohr

     End of self-consistent calculation

          k = 0.0000 0.0000 0.0000 ( 18029 PWs)   bands (ev):

   -56.0337 -56.0298 -55.9997 -55.9934 -55.9015 -55.8667 -55.8660 -55.8416
   -55.8231 -55.8077 -55.8026 -55.7689 -55.5677 -55.4011 -55.0091 -54.9751
   -32.5882 -32.5157 -32.3610 -32.3547 -32.3409 -32.3399 -32.3268 -32.2933
   -32.2763 -32.2394 -32.2334 -32.2328 -32.2094 -32.1859 -32.1730 -32.1668
   -32.1376 -32.1352 -32.1210 -32.0909 -32.0808 -32.0698 -32.0386 -32.0334
   -32.0291 -32.0271 -32.0131 -32.0115 -32.0049 -31.9793 -31.9792 -31.9767
   -31.9719 -31.9710 -31.9558 -31.9465 -31.9149 -31.8465 -31.7821 -31.6890
   -31.6297 -31.5183 -31.4162 -31.3280 -31.3056 -31.2329 -31.1464 -31.0354
   -16.7682 -16.5048 -16.2731 -16.1823 -16.1324 -16.0460 -15.8684 -15.7519
   -15.7035 -15.6026 -15.5699 -15.5501 -15.5335 -15.5031 -15.4951 -15.4698
   -15.4589 -15.4524 -15.4177 -15.3897 -15.3645 -15.3498 -15.2298 -15.1778
   -15.1617 -15.1308 -15.0824 -15.0662 -14.6113 -13.6563 -13.5118 -13.3954
    -9.0576  -4.1429  -3.9626  -3.9373  -3.8890  -3.8475  -3.7150  -3.6977
    -3.6446  -3.5844  -3.2667  -3.2096  -3.2013  -3.1605  -3.1459  -2.9890
    -2.9241  -2.8501  -2.8348  -2.8280  -2.8027  -2.7974  -2.7925  -2.7500
    -2.7080  -2.6527  -2.6288  -2.5633  -2.5171  -2.4437  -2.3710  -2.3433
    -2.3022  -2.3009  -2.2619  -2.2498  -2.2419  -2.2317  -2.1959  -2.1861
    -2.0011  -1.9599  -1.8820  -1.8165  -1.8020  -1.6380  -1.5314  -1.4835
    -1.4648  -1.4578  -1.4398  -1.4227  -1.3269  -1.2094  -1.1760  -1.1261
    -1.0789  -1.0306  -1.0001  -0.8999  -0.8834  -0.7921  -0.7788  -0.7604
    -0.6512  -0.6264  -0.4911  -0.4697  -0.4640  -0.4036  -0.3882  -0.3150
    -0.2909  -0.2342  -0.1694  -0.1571  -0.0890  -0.0629  -0.0595  -0.0031
     0.0016   0.0469   0.0616   0.1717   0.2269   0.2765   0.3303   0.4370
     0.5166   0.6311   0.6778   0.7370   0.9389   1.0125   1.1219   1.1900
     1.2057   1.4657   1.5839   1.6294   3.1050   3.1899   3.2117   3.2375
     3.3450   3.3698   3.5554   3.5723   3.6066   3.6266

[...]

          k = 0.0380-0.0419 0.0000 ( 17876 PWs)   bands (ev):

[...]

          k =-0.0760-0.0000 0.0000 ( 17886 PWs)   bands (ev):

[...]

          k =-0.0760-0.0839 0.0000 ( 17948 PWs)   bands (ev):

   -56.0172 -56.0161 -56.0145 -56.0086 -55.8866 -55.8815 -55.8576 -55.8316
   -55.8253 -55.8234 -55.7870 -55.7846 -55.5662 -55.4024 -54.9921 -54.9919
   -32.3941 -32.3876 -32.3313 -32.3306 -32.3126 -32.3117 -32.2931 -32.2884
   -32.2221 -32.2210 -32.2181 -32.2071 -32.1671 -32.1660 -32.1466 -32.1422
   -32.1381 -32.1367 -32.1355 -32.1274 -32.1262 -32.1234 -32.0880 -32.0775
   -32.0725 -32.0504 -32.0462 -32.0323 -32.0235 -32.0226 -32.0187 -32.0168
   -32.0016 -32.0002 -31.9961 -31.9899 -31.9243 -31.8295 -31.7843 -31.6917
   -31.6738 -31.5628 -31.3184 -31.3182 -31.2290 -31.2288 -31.1897 -31.1896
   -16.2102 -16.1871 -15.9807 -15.9465 -15.9430 -15.9360 -15.8050 -15.7248
   -15.7243 -15.6984 -15.6378 -15.6264 -15.6043 -15.5656 -15.5413 -15.5390
   -15.5204 -15.5152 -15.4889 -15.4788 -15.4660 -15.4587 -15.3661 -15.3465
   -15.3427 -15.2929 -15.1478 -15.0010 -14.8922 -13.6556 -13.4973 -13.4971
    -9.0719  -3.7172  -3.7086  -3.5064  -3.4750  -3.2325  -3.1943  -3.1812
    -3.1121  -2.9556  -2.9161  -2.8981  -2.8904  -2.8460  -2.8384  -2.8333
    -2.8216  -2.7938  -2.7769  -2.7425  -2.7349  -2.7182  -2.7107  -2.6991
    -2.6820  -2.6522  -2.6435  -2.6131  -2.6083  -2.5878  -2.5722  -2.5433
    -2.5384  -2.4127  -2.2519  -2.2280  -2.1674  -2.1598  -2.1200  -2.1018
    -2.0939  -2.0666  -2.0410  -2.0113  -1.8541  -1.7403  -1.7256  -1.7088
    -1.6401  -1.6125  -1.5275  -1.4371  -1.3963  -1.3779  -1.3099  -1.3058
    -1.2569  -1.2315  -1.2106  -1.1433  -1.0871  -1.0497  -0.9926  -0.9864
    -0.9785  -0.9082  -0.8659  -0.7909  -0.7821  -0.7451  -0.7101  -0.6549
    -0.6243  -0.6094  -0.5196  -0.4869  -0.3747  -0.3258  -0.0674  -0.0191
     0.0339   0.0619   0.1272   0.1852   0.1898   0.2867   0.2904   0.3270
     0.4063   0.4275   0.4985   0.5178   0.5677   0.7296   1.2850   1.3766
     1.3774   1.4489   1.4493   1.4566   3.4029   3.4144   3.4215   3.4663
     3.6115   3.6161   3.6348   3.6366   3.7751   3.7957

     the Fermi energy is     3.1015 ev

!    total energy              =   -2922.78956830 Ry
     estimated scf accuracy    <          9.9E-09 Ry
     smearing contrib. (-TS)   =      -0.02169722 Ry
     internal energy E=F+TS    =   -2922.76787108 Ry

     The total energy is F=E-TS. E is the sum of the following terms:
     one-electron contribution =  -23651.87093364 Ry
     hartree contribution      =   11910.14949464 Ry
     xc contribution           =    -482.26663034 Ry
     ewald contribution        =    9301.21962627 Ry
     electric field correction =       0.00057199 Ry

     convergence has been achieved in  74 iterations

     Forces acting on atoms (cartesian axes, Ry/au):

     atom    1 type  1   force =     0.00004686   -0.00023028    0.09683821
     atom    2 type  1   force =    -0.00017545   -0.00055493   -0.17515177
     atom    3 type  2   force =     0.00002103   -0.00004805   -0.02502905
     atom    4 type  2   force =     0.00002774   -0.00139905    0.05263893
     atom    5 type  2   force =    -0.01204790   -0.00051048    0.00330709
     atom    6 type  2   force =     0.01377545    0.00008693    0.00270454
     atom    7 type  1   force =    -0.00057987    0.00056821   -0.01156572
     atom    8 type  1   force =     0.00020499    0.01201780    0.02900295
     atom    9 type  2   force =    -0.00029736    0.00057493    0.00058123
     atom   10 type  2   force =    -0.00153599    0.00252664   -0.01948186
     atom   11 type  2   force =    -0.00017057   -0.00037573   -0.00014282
     atom   12 type  2   force =    -0.00091186    0.00003693   -0.00029896
     atom   13 type  1   force =     0.00054960   -0.00096916    0.00111561
     atom   14 type  1   force =     0.00145702    0.00057688   -0.00068505
     atom   15 type  2   force =    -0.00016031   -0.00112839    0.00031993
     atom   16 type  2   force =    -0.00021375   -0.00020129   -0.00144565
     atom   17 type  2   force =    -0.00073570    0.00071260   -0.00001314
     atom   18 type  2   force =     0.00046672    0.00096896    0.00007635
     atom   19 type  1   force =    -0.00007874   -0.00116631    0.00050293
     atom   20 type  1   force =    -0.00020878    0.00062285   -0.00001424
     atom   21 type  2   force =     0.00004745   -0.00003955    0.10323746
     atom   22 type  2   force =     0.00028155   -0.00026581    0.00099422
     atom   23 type  2   force =    -0.07156244   -0.00014312   -0.02769859
     atom   24 type  2   force =     0.07145544    0.00027029   -0.02772878
     atom   25 type  1   force =     0.00005292   -0.00028410    0.09642705
     atom   26 type  1   force =    -0.00019383   -0.00029282   -0.17538033
     atom   27 type  2   force =     0.00008634   -0.00017179   -0.02381795
     atom   28 type  2   force =     0.00004415   -0.00114000    0.05272106
     atom   29 type  2   force =    -0.01208885    0.00085142    0.00277335
     atom   30 type  2   force =     0.01373325    0.00123926    0.00219040
     atom   31 type  1   force =    -0.00046993    0.00303462   -0.01242291
     atom   32 type  1   force =     0.00018923   -0.01423682    0.02941035
     atom   33 type  2   force =    -0.00023101   -0.00062801    0.00043902
     atom   34 type  2   force =    -0.00098297    0.00176186   -0.02268550
     atom   35 type  2   force =    -0.00066366   -0.00060492   -0.00012283
     atom   36 type  2   force =     0.00002126   -0.00015289   -0.00033940
     atom   37 type  1   force =     0.00065153    0.00026548    0.00059022
     atom   38 type  1   force =     0.00150772    0.00018803   -0.00068617
     atom   39 type  2   force =     0.00009211    0.00014264   -0.00133558
     atom   40 type  2   force =    -0.00035172   -0.00009978    0.00177692
     atom   41 type  2   force =    -0.00082652   -0.00103426   -0.00010720
     atom   42 type  2   force =     0.00023534   -0.00151033    0.00034511
     atom   43 type  1   force =     0.00030249    0.00070590    0.00102493
     atom   44 type  1   force =     0.00023907   -0.00030592    0.00045848
     atom   45 type  2   force =     0.00005781   -0.00009189    0.10319255
     atom   46 type  2   force =    -0.07154931   -0.00011490   -0.02770166
     atom   47 type  2   force =     0.07145494    0.00031574   -0.02773301
     atom   48 type  3   force =    -0.00395288   -0.00069986   -0.00354890
     atom   49 type  4   force =    -0.00025104    0.00016055   -0.00030155
     atom   50 type  4   force =    -0.00012270   -0.00045782    0.00107037
     atom   51 type  4   force =     0.00301708    0.00113665    0.00262614
     atom   52 type  5   force =    -0.00008636   -0.00018361   -0.00037367
     atom   53 type  4   force =     0.00064613   -0.00004151   -0.00036625
     atom   54 type  4   force =     0.00006590    0.00019696   -0.00010515
     atom   55 type  4   force =    -0.00028164    0.00012129   -0.00008173

     Total force =     0.368422     Total SCF correction =     0.000220
  @ DRIVER MODE: Message from server: STATUS
  @ DRIVER MODE: Message from server: GETFORCE
  @ DRIVER MODE: Returning v,forces,stress,ensemble

     Writing output data file ./calc.save/
  @ DRIVER MODE: Message from server: EXIT
  @ DRIVE MODE: Exiting

     General routines

     Parallel routines

   This run was terminated on:  20:14:12   2Aug2021

   JOB DONE.