     Program PWSCF v.6.7GPU starts on 15Sep2021 at 18:50:31

     R & G space division:  proc/nbgrp/npool/nimage =      10
     Reading input from /storage/home/hcoda1/3/ntian30/research/carbon/CxH_vib/H2O_calc/ads_slab/CH2NHHH2O_a/out_0010/pw.inp
Warning: card &CELL ignored
Warning: card   CELL_DYNAMICS='IPI', ignored
Warning: card / ignored

     Current dimensions of program PWSCF are:
     Max number of different atomic species (ntypx) = 10
     Max number of k-points (npk) =  40000
     Max angular momentum in pseudopotentials (lmaxx) =  3
     Presently no symmetry can be used with electric field

     Message from routine cell_base_init:
     DEPRECATED: use true lattice parameter, not A to a.u. conversion factor

     IMPORTANT: XC functional enforced from input :
     Exchange-correlation= BEEF-VDW
                           (   1   4  43  14   2   0   0)
     Any further DFT definition will be discarded
     Please, verify this is what you really want

  @ DRIVER MODE: Connecting to
 qe_1139763_2852609.sched-torque.pace.gatech.edupw7tixhy_scratch
  using UNIX socket
  @ DRIVER MODE: Message from server: STATUS
  @ DRIVER MODE: Message from server: INIT
  @ DRIVER MODE: Receiving replica           0          -1
  @ DRIVER MODE: Receiving encoded integer          25
  @ DRIVER MODE:  SCF:  T  FORCE:  T  STRESS:  F  VC:  F  ENSEMBLE:  F
  @ DRIVER MODE:  SCF:  T  FORCE:  T  STRESS:  F  VC:  F  ENSEMBLE:  F

     Using Slab Decomposition

     bravais-lattice index     =            0
     lattice parameter (alat)  =       1.8897  a.u.
     unit-cell volume          =    6658.9804 (a.u.)^3
     number of atoms/cell      =           56
     number of atomic types    =            5
     number of electrons       =       399.00
     number of Kohn-Sham states=          209
     kinetic-energy cutoff     =      29.3995  Ry
     charge density cutoff     =     293.9946  Ry
     scf convergence threshold =      7.3E-08
     mixing beta               =       0.0500
     number of iterations used =            8  plain     mixing
     Exchange-correlation= BEEF-VDW
                           (   1   4  43  14   2   0   0)

     celldm(1)=   1.889726  celldm(2)=   0.000000  celldm(3)=   0.000000
     celldm(4)=   0.000000  celldm(5)=   0.000000  celldm(6)=   0.000000

     crystal axes: (cart. coord. in units of alat)
               a(1) = (   6.579727   0.000000   0.000000 )
               a(2) = (  -0.000775   5.961596   0.000000 )
               a(3) = (   0.000000   0.000000  25.155947 )

     reciprocal axes: (cart. coord. in units 2 pi/alat)
               b(1) = (  0.151982  0.000020  0.000000 )
               b(2) = (  0.000000  0.167740  0.000000 )
               b(3) = (  0.000000  0.000000  0.039752 )

     PseudoPot. # 1 for Ti read from file:
     /storage/coda1/p-amedford6/0/shared/rich_project_chbe-medford/medford-share/data/pseudos_module/espresso/nninc/pbe/van/Ti.UPF
     MD5 check sum: 8e4df49b7f0d34bbd5052bf3f5ea0213
     Pseudo is Ultrasoft, Zval = 12.0
     Generated by new atomic code, or converted to UPF format
     Using radial grid of  851 points,  6 beta functions with:
                l(1) =   0
                l(2) =   0
                l(3) =   1
                l(4) =   1
                l(5) =   2
                l(6) =   2
     Q(r) pseudized with  8 coefficients,  rinner =    1.000   1.000   1.000
                                                       1.000   1.000

     PseudoPot. # 2 for O  read from file:
     /storage/coda1/p-amedford6/0/shared/rich_project_chbe-medford/medford-share/data/pseudos_module/espresso/nninc/pbe/van/O.UPF
     MD5 check sum: 78c19812648e8988a0fe644b0f25305e
     Pseudo is Ultrasoft, Zval =  6.0
     Generated by new atomic code, or converted to UPF format
     Using radial grid of  737 points,  4 beta functions with:
                l(1) =   0
                l(2) =   0
                l(3) =   1
                l(4) =   1
     Q(r) pseudized with  8 coefficients,  rinner =    0.800   0.800   0.800

     PseudoPot. # 3 for N  read from file:
     /storage/coda1/p-amedford6/0/shared/rich_project_chbe-medford/medford-share/data/pseudos_module/espresso/nninc/pbe/van/N.UPF
     MD5 check sum: 90d10febe142ad51ac9d5be1deb811c4
     Pseudo is Ultrasoft, Zval =  5.0
     Generated by new atomic code, or converted to UPF format
     Using radial grid of  729 points,  4 beta functions with:
                l(1) =   0
                l(2) =   0
                l(3) =   1
                l(4) =   1
     Q(r) pseudized with  8 coefficients,  rinner =    0.800   0.800   0.800

     PseudoPot. # 4 for C  read from file:
     /storage/coda1/p-amedford6/0/shared/rich_project_chbe-medford/medford-share/data/pseudos_module/espresso/nninc/pbe/van/C.UPF
     MD5 check sum: 1a69bf6b8db32088f5b2163dbdb77a27
     Pseudo is Ultrasoft, Zval =  4.0
     Generated by new atomic code, or converted to UPF format
     Using radial grid of  721 points,  4 beta functions with:
                l(1) =   0
                l(2) =   0
                l(3) =   1
                l(4) =   1
     Q(r) pseudized with  8 coefficients,  rinner =    0.800   0.800   0.800

     PseudoPot. # 5 for H  read from file:
     /storage/coda1/p-amedford6/0/shared/rich_project_chbe-medford/medford-share/data/pseudos_module/espresso/nninc/pbe/van/H.UPF
     MD5 check sum: b5ee9d7bfd3a09ee7748110bda690ff7
     Pseudo is Ultrasoft, Zval =  1.0
     Generated by new atomic code, or converted to UPF format
     Using radial grid of  615 points,  1 beta functions with:
                l(1) =   0
     Q(r) pseudized with  8 coefficients,  rinner =    0.800

     atomic species   valence    mass     pseudopotential
        Ti1           12.00    47.86700     Ti( 1.00)
        O1             6.00    15.99900     O ( 1.00)
        N1             5.00    14.00700     N ( 1.00)
        C1             4.00    12.01100     C ( 1.00)
        H1             1.00     1.00800     H ( 1.00)

     No symmetry found

   Cartesian axes

     site n.     atom                  positions (alat units)
         1           Ti1 tau(   1) = (   0.0004258   2.9801865   6.0000000  )
         2           Ti1 tau(   2) = (   3.2906075   1.4906267   6.0002472  )
         3           O1  tau(   3) = (   0.0006271   0.0005054   7.9858123  )
         4           O1  tau(   4) = (   3.2906025   0.0005020   7.3038282  )
         5           O1  tau(   5) = (   4.5942328   1.4918067   9.2879030  )
         6           O1  tau(   6) = (   1.9868534   1.4903216   9.2879459  )
         7           Ti1 tau(   7) = (   3.2907910   2.8959150   9.1758416  )
         8           Ti1 tau(   8) = (   0.0015273   1.4827037   9.2680791  )
         9           O1  tau(   9) = (   3.2861202   0.0128588  11.3777969  )
        10           O1  tau(  10) = (   0.0116148   5.9584955  10.6183126  )
        11           O1  tau(  11) = (   1.2831632   1.4993340  12.6921085  )
        12           O1  tau(  12) = (   5.2921761   1.5015178  12.6679780  )
        13           Ti1 tau(  13) = (   0.0111066   2.9912061  12.5123142  )
        14           Ti1 tau(  14) = (   3.3187119   1.4875497  12.5412637  )
        15           O1  tau(  15) = (   6.5416963   5.9006142  14.6662030  )
        16           O1  tau(  16) = (   3.3066524   0.0016155  14.0179881  )
        17           O1  tau(  17) = (   4.5377470   1.5714702  16.1207712  )
        18           O1  tau(  18) = (   1.9925948   1.5577299  16.0387284  )
        19           Ti1 tau(  19) = (   3.2598466   3.0207798  15.7337896  )
        20           Ti1 tau(  20) = (   0.0086319   1.3133152  15.8444473  )
        21           O1  tau(  21) = (   3.2904802   0.0005063   4.7018136  )
        22           O1  tau(  22) = (   6.5660721   0.1678205  17.2271563  )
        23           O1  tau(  23) = (   1.3043587   1.4918075   6.0039043  )
        24           O1  tau(  24) = (   5.2767064   1.4903225   6.0039473  )
        25           Ti1 tau(  25) = (   0.0000382   5.9609847   6.0000000  )
        26           Ti1 tau(  26) = (   3.2902200   4.4714249   6.0002472  )
        27           O1  tau(  27) = (   0.0002396   2.9813036   7.9858123  )
        28           O1  tau(  28) = (   3.2902150   2.9813002   7.3038282  )
        29           O1  tau(  29) = (   4.5938453   4.4726049   9.2879030  )
        30           O1  tau(  30) = (   1.9864658   4.4711199   9.2879459  )
        31           Ti1 tau(  31) = (   3.2891106   5.8743827   9.1763621  )
        32           Ti1 tau(  32) = (   0.0006254   4.4649316   9.2693709  )
        33           O1  tau(  33) = (   3.2870289   2.9785969  11.3746142  )
        34           O1  tau(  34) = (   0.0092240   2.9805883  10.6323155  )
        35           O1  tau(  35) = (   1.2865429   4.4729593  12.6568099  )
        36           O1  tau(  36) = (   5.2907978   4.4713399  12.6331247  )
        37           Ti1 tau(  37) = (   0.0245089   0.0029545  12.5000319  )
        38           Ti1 tau(  38) = (   3.3192338   4.4773935  12.5310228  )
        39           O1  tau(  39) = (   6.5398775   3.0461246  14.9162120  )
        40           O1  tau(  40) = (   3.2968145   3.0151409  13.9465962  )
        41           O1  tau(  41) = (   4.5189833   4.4812017  16.2068643  )
        42           O1  tau(  42) = (   1.9905864   4.4756957  16.1679402  )
        43           Ti1 tau(  43) = (   3.3140030   0.0507474  15.8534526  )
        44           Ti1 tau(  44) = (   0.0184218   4.5194176  15.9927436  )
        45           O1  tau(  45) = (   3.2900926   2.9813045   4.7018136  )
        46           O1  tau(  46) = (   1.3039711   4.4726057   6.0039043  )
        47           O1  tau(  47) = (   5.2763189   4.4711207   6.0039473  )
        48           N1  tau(  48) = (   6.2908993   3.4294391  18.1752670  )
        49           C1  tau(  49) = (   0.7550536   3.1552864  19.0745941  )
        50           H1  tau(  50) = (   1.1396299   3.9643166  19.6610198  )
        51           H1  tau(  51) = (   1.3301158   2.2513941  18.9084762  )
        52           H1  tau(  52) = (   5.7550451   4.2450011  18.4501662  )
        53           H1  tau(  53) = (   5.6463078   2.6497838  18.0429669  )
        54           O1  tau(  54) = (   3.1180431   0.1968263  18.2683150  )
        55           H1  tau(  55) = (   3.8687171   5.7182160  18.6922429  )
        56           H1  tau(  56) = (   2.3371514   5.6040609  18.4451484  )

     number of k points=    10  Fermi-Dirac smearing, width (Ry)=  0.0073
                       cart. coord. in units 2pi/alat
        k(    1) = (   0.0000000   0.0000000   0.0000000), wk =   0.1250000
        k(    2) = (   0.0000000   0.0419351   0.0000000), wk =   0.2500000
        k(    3) = (   0.0000000  -0.0838702   0.0000000), wk =   0.1250000
        k(    4) = (   0.0379955   0.0000049   0.0000000), wk =   0.2500000
        k(    5) = (   0.0379955   0.0419400   0.0000000), wk =   0.2500000
        k(    6) = (   0.0379955  -0.0838652   0.0000000), wk =   0.2500000
        k(    7) = (   0.0379955  -0.0419301   0.0000000), wk =   0.2500000
        k(    8) = (  -0.0759910  -0.0000099   0.0000000), wk =   0.1250000
        k(    9) = (  -0.0759910   0.0419252   0.0000000), wk =   0.2500000
        k(   10) = (  -0.0759910  -0.0838800   0.0000000), wk =   0.1250000

     Initial potential from superposition of free atoms

     starting charge  382.99914, renormalised to  399.00000

     negative rho (up, down):  1.613E-02 0.000E+00

     %%%%%%%%%%%%%%%%%%%%%%%%%%%%%%%%%%%%%%%%%%%%%%%%%%%%%%%%%%%%%%%%%%%%%%%%
     %                                                                      %
     % You are using vdW-DF, which was implemented by the Thonhauser group. %
     % Please cite the following two papers that made this development      %
     % possible and the two reviews that describe the various versions:     %
     %                                                                      %
     %   T. Thonhauser et al., PRL 115, 136402 (2015).                      %
     %   T. Thonhauser et al., PRB 76, 125112 (2007).                       %
     %   K. Berland et al., Rep. Prog. Phys. 78, 066501 (2015).             %
     %   D.C. Langreth et al., J. Phys.: Condens. Matter 21, 084203 (2009). %
     %                                                                      %
     %                                                                      %
     % If you are calculating the stress with vdW-DF, please also cite:     %
     %                                                                      %
     %   R. Sabatini et al., J. Phys.: Condens. Matter 24, 424209 (2012).   %
     %                                                                      %
     %%%%%%%%%%%%%%%%%%%%%%%%%%%%%%%%%%%%%%%%%%%%%%%%%%%%%%%%%%%%%%%%%%%%%%%%

     Adding external electric field

     Computed dipole along edir(3) :
        Dipole              -11.3169 Ry au,        -28.7647 Debye
        Dipole field         -0.0214 Ry au,

        Potential amp.        1.9797 Ry
        Total length         46.3494 bohr

     Starting wfcs are  302 atomic wfcs
  @ DRIVER MODE: Message from server: STATUS
  @ DRIVER MODE: Message from server: POSDATA
  @ DRIVER MODE: Reading and sharing cell
  @ DRIVER MODE: Reading and sharing positions
  @ DRIVER MODE: Received positions

     Self-consistent Calculation

     iteration #  1     ecut=    29.40 Ry     beta= 0.05
     Davidson diagonalization with overlap
     c_bands:  3 eigenvalues not converged
     c_bands:  3 eigenvalues not converged
     c_bands:  1 eigenvalues not converged
     c_bands:  4 eigenvalues not converged
     c_bands:  1 eigenvalues not converged
     c_bands:  1 eigenvalues not converged
     c_bands:  1 eigenvalues not converged
     c_bands:  2 eigenvalues not converged
     c_bands:  3 eigenvalues not converged
     ethr =  1.00E-05,  avg # of iterations = 24.0

[...]

     total energy              =   -2437.56469633 Ry
     estimated scf accuracy    <    5825.81969812 Ry

     iteration #  2     ecut=    29.40 Ry     beta= 0.05
     Davidson diagonalization with overlap
     ethr =  1.00E-02,  avg # of iterations = 27.2

[...]

     iteration # 73     ecut=    29.40 Ry     beta= 0.05
     Davidson diagonalization with overlap
     c_bands:  1 eigenvalues not converged
     ethr =  1.53E-10,  avg # of iterations = 11.9

[...]

     total energy              =   -2955.08666770 Ry
     estimated scf accuracy    <       0.00000011 Ry

     iteration # 77     ecut=    29.40 Ry     beta= 0.05
     Davidson diagonalization with overlap
     ethr =  2.81E-11,  avg # of iterations = 10.6

     negative rho (up, down):  1.531E-02 0.000E+00

     Adding external electric field

     Computed dipole along edir(3) :
        Dipole                0.9627 Ry au,          2.4470 Debye
        Dipole field          0.0018 Ry au,

        Potential amp.       -0.1684 Ry
        Total length         46.3494 bohr

     End of self-consistent calculation

          k = 0.0000 0.0000 0.0000 ( 18029 PWs)   bands (ev):

   -55.5402 -55.5067 -55.5036 -55.4859 -55.4726 -55.4241 -55.3877 -55.3683
   -55.3512 -55.3386 -55.3335 -55.3050 -55.2943 -55.1120 -54.5326 -54.4985
   -32.0961 -31.9988 -31.9123 -31.8971 -31.8734 -31.8572 -31.8434 -31.8385
   -31.7957 -31.7605 -31.7548 -31.7516 -31.7416 -31.7174 -31.7119 -31.6911
   -31.6816 -31.6789 -31.6673 -31.6589 -31.6378 -31.6202 -31.6031 -31.5971
   -31.5679 -31.5638 -31.5602 -31.5567 -31.5543 -31.5420 -31.5328 -31.5257
   -31.5216 -31.5164 -31.5056 -31.4939 -31.4821 -31.4666 -31.4657 -31.4496
   -31.3372 -31.2932 -30.9418 -30.8480 -30.8259 -30.7582 -30.6714 -30.5606
   -19.2376 -16.4082 -16.3148 -16.0857 -15.9212 -15.8409 -15.7438 -15.6035
   -15.5318 -15.4213 -15.3851 -15.2262 -15.2020 -15.1955 -15.1603 -15.1434
   -15.1038 -15.0855 -15.0566 -15.0451 -15.0433 -15.0216 -14.9850 -14.9811
   -14.9386 -14.9255 -14.8667 -14.7704 -14.7023 -14.6382 -14.3272 -13.0349
   -12.9175  -9.2204  -7.0103  -6.5645  -4.6344  -3.7139  -3.5825  -3.5587
    -3.5006  -3.4451  -3.4041  -3.2967  -3.0663  -3.0136  -2.9760  -2.9230
    -2.8084  -2.7370  -2.7329  -2.6536  -2.5783  -2.5364  -2.4813  -2.4731
    -2.3949  -2.3611  -2.3433  -2.3197  -2.2772  -2.2487  -2.2070  -2.1161
    -2.0961  -2.0256  -1.9874  -1.9428  -1.9393  -1.8915  -1.8735  -1.8347
    -1.8335  -1.8242  -1.8036  -1.7657  -1.7231  -1.6682  -1.5764  -1.5524
    -1.3832  -1.2714  -1.2069  -1.1794  -1.1270  -1.0953  -1.0297  -0.9817
    -0.9682  -0.9310  -0.8643  -0.7619  -0.6961  -0.6840  -0.6235  -0.5321
    -0.4744  -0.4366  -0.3542  -0.3282  -0.3095  -0.3042  -0.2407  -0.1724
    -0.1260  -0.0520  -0.0358   0.0200   0.0425   0.0921   0.1235   0.1903
     0.2460   0.2861   0.3380   0.3922   0.3940   0.4089   0.4439   0.4455
     0.5454   0.5576   0.5797   0.6805   0.7795   0.9667   1.0658   1.1004
     1.3984   1.4136   1.4904   1.6747   2.0660   2.1141   3.5200   3.5510
     3.6348   3.6903   3.6992   3.7287   3.7856   4.0388   4.0504   4.0723
     4.0854

[...]

          k = 0.0380-0.0419 0.0000 ( 17876 PWs)   bands (ev):

[...]

          k =-0.0760-0.0000 0.0000 ( 17886 PWs)   bands (ev):

[...]

          k =-0.0760-0.0839 0.0000 ( 17948 PWs)   bands (ev):

   -55.5257 -55.5179 -55.4896 -55.4895 -55.4836 -55.4117 -55.4000 -55.3536
   -55.3533 -55.3476 -55.3222 -55.3217 -55.2925 -55.1138 -54.5156 -54.5153
   -31.9078 -31.8955 -31.8139 -31.8139 -31.7972 -31.7962 -31.7859 -31.7811
   -31.7810 -31.7646 -31.7535 -31.7463 -31.7288 -31.7112 -31.6920 -31.6861
   -31.6830 -31.6809 -31.6763 -31.6696 -31.6669 -31.6569 -31.6292 -31.6283
   -31.6092 -31.6091 -31.6063 -31.5967 -31.5857 -31.5774 -31.5670 -31.5613
   -31.5525 -31.5518 -31.5491 -31.5399 -31.5106 -31.5018 -31.5013 -31.4799
   -31.3768 -31.3402 -30.8387 -30.8384 -30.7545 -30.7542 -30.7149 -30.7147
   -19.2367 -16.3461 -15.8820 -15.7821 -15.6522 -15.5692 -15.5466 -15.4732
   -15.4151 -15.3816 -15.3253 -15.3022 -15.2885 -15.2729 -15.2381 -15.2125
   -15.1927 -15.1493 -15.1319 -15.1138 -15.0825 -15.0572 -15.0463 -15.0411
   -15.0354 -15.0008 -14.9964 -14.9117 -14.9017 -14.8983 -14.5692 -13.0190
   -13.0190  -9.2195  -7.0425  -6.5039  -4.6171  -3.5482  -3.0842  -3.0454
    -2.9881  -2.8513  -2.7918  -2.7261  -2.6904  -2.6473  -2.5971  -2.5638
    -2.5455  -2.4947  -2.4878  -2.4221  -2.4067  -2.3912  -2.3720  -2.3691
    -2.3603  -2.3229  -2.2882  -2.2743  -2.2674  -2.2581  -2.2440  -2.1974
    -2.1822  -2.1509  -2.1414  -2.1077  -2.0784  -2.0488  -1.9373  -1.9043
    -1.8788  -1.8188  -1.7501  -1.7444  -1.6631  -1.6413  -1.5850  -1.5813
    -1.5623  -1.5236  -1.3982  -1.2895  -1.2781  -1.2273  -1.1945  -1.1708
    -1.1078  -1.0573  -1.0025  -0.9999  -0.9097  -0.8626  -0.8363  -0.7342
    -0.7039  -0.6962  -0.5793  -0.5542  -0.5159  -0.5044  -0.4982  -0.4391
    -0.4315  -0.4074  -0.3251  -0.3062  -0.2791  -0.2676  -0.2053  -0.0449
    -0.0141   0.0301   0.1581   0.1966   0.3607   0.3916   0.4237   0.5299
     0.5752   0.6225   0.6271   0.7501   0.7600   0.8471   0.8580   0.8763
     0.9123   0.9240   1.8473   1.8486   1.9340   1.9342   3.5374   3.7801
     3.8454   3.8529   3.8901   4.0262   4.0701   4.1286   4.1321   4.1415
     4.1595

     the Fermi energy is     3.6072 ev

!    total energy              =   -2955.08668062 Ry
     estimated scf accuracy    <       0.00000007 Ry
     smearing contrib. (-TS)   =      -0.04073325 Ry
     internal energy E=F+TS    =   -2955.04594737 Ry

     The total energy is F=E-TS. E is the sum of the following terms:
     one-electron contribution =  -23873.42287861 Ry
     hartree contribution      =   12028.91910965 Ry
     xc contribution           =    -489.73462753 Ry
     ewald contribution        =    9379.19070013 Ry
     electric field correction =       0.00174900 Ry

     convergence has been achieved in  77 iterations

     Forces acting on atoms (cartesian axes, Ry/au):

     atom    1 type  1   force =    -0.00000727   -0.00026017    0.09334800
     atom    2 type  1   force =    -0.00015751   -0.00040116   -0.17810355
     atom    3 type  2   force =     0.00001239   -0.00034953   -0.02031977
     atom    4 type  2   force =    -0.00003603   -0.00190643    0.05857534
     atom    5 type  2   force =    -0.01017358   -0.00085362    0.00745515
     atom    6 type  2   force =     0.01151452   -0.00017923    0.00625644
     atom    7 type  1   force =    -0.00076402    0.00203393   -0.01055289
     atom    8 type  1   force =     0.00031902    0.00073748   -0.00334094
     atom    9 type  2   force =     0.00024342    0.00042459    0.00014695
     atom   10 type  2   force =    -0.00108408    0.00267386   -0.00406109
     atom   11 type  2   force =    -0.00027904    0.00005450    0.00002644
     atom   12 type  2   force =    -0.00003475   -0.00002476    0.00012550
     atom   13 type  1   force =     0.00074144    0.00071234    0.00038301
     atom   14 type  1   force =    -0.00092909   -0.00011618   -0.00008280
     atom   15 type  2   force =    -0.00014857   -0.00028111    0.00061502
     atom   16 type  2   force =     0.00032101    0.00055992    0.00002730
     atom   17 type  2   force =     0.00022830   -0.00023019    0.00036790
     atom   18 type  2   force =     0.00057393    0.00020687    0.00008624
     atom   19 type  1   force =    -0.00083394   -0.00056650    0.00005118
     atom   20 type  1   force =     0.00026640   -0.00051994   -0.00049610
     atom   21 type  2   force =     0.00002266   -0.00011717    0.10391962
     atom   22 type  2   force =    -0.00001916   -0.00134798    0.00062680
     atom   23 type  2   force =    -0.07053739   -0.00021643   -0.02694554
     atom   24 type  2   force =     0.07035479    0.00022374   -0.02698973
     atom   25 type  1   force =     0.00003303   -0.00022221    0.09294448
     atom   26 type  1   force =    -0.00023729   -0.00043397   -0.17806728
     atom   27 type  2   force =     0.00006937   -0.00024425   -0.01930132
     atom   28 type  2   force =     0.00002337   -0.00162314    0.05767451
     atom   29 type  2   force =    -0.01075769   -0.00046596    0.00808379
     atom   30 type  2   force =     0.01197623   -0.00007773    0.00684468
     atom   31 type  1   force =    -0.00062967    0.00609568   -0.01378825
     atom   32 type  1   force =     0.00028262   -0.00085566   -0.00339437
     atom   33 type  2   force =     0.00014376    0.00006628    0.00001101
     atom   34 type  2   force =    -0.00050984   -0.00107115   -0.00266556
     atom   35 type  2   force =    -0.00042040    0.00006072    0.00004663
     atom   36 type  2   force =     0.00005753    0.00001441    0.00026787
     atom   37 type  1   force =     0.00082759   -0.00082307    0.00023251
     atom   38 type  1   force =    -0.00088720    0.00033915   -0.00053268
     atom   39 type  2   force =    -0.00022731   -0.00015392   -0.00009449
     atom   40 type  2   force =     0.00033320    0.00013699    0.00042358
     atom   41 type  2   force =     0.00005517   -0.00030875   -0.00002561
     atom   42 type  2   force =     0.00055563   -0.00012256   -0.00047485
     atom   43 type  1   force =    -0.00109796   -0.00002247    0.00037244
     atom   44 type  1   force =     0.00128355   -0.00040429   -0.00045220
     atom   45 type  2   force =     0.00000872   -0.00012075    0.10390564
     atom   46 type  2   force =    -0.07053111   -0.00016655   -0.02692335
     atom   47 type  2   force =     0.07035998    0.00027148   -0.02699370
     atom   48 type  3   force =    -0.00077575    0.00377340    0.00055408
     atom   49 type  4   force =     0.00520326   -0.02026052   -0.00708826
     atom   50 type  5   force =     0.00189707    0.00761807    0.00423292
     atom   51 type  5   force =    -0.00493681    0.00940237    0.00277174
     atom   52 type  5   force =    -0.00058481   -0.00000820   -0.00129372
     atom   53 type  5   force =     0.00020970   -0.00069161    0.00134815
     atom   54 type  2   force =     0.00003849    0.00021804    0.00030763
     atom   55 type  5   force =    -0.00065640   -0.00022140   -0.00014802
     atom   56 type  5   force =    -0.00069947    0.00004476    0.00010353

     Total force =     0.366761     Total SCF correction =     0.000664
  @ DRIVER MODE: Message from server: STATUS
  @ DRIVER MODE: Message from server: GETFORCE
  @ DRIVER MODE: Returning v,forces,stress,ensemble

     Writing output data file ./calc.save/
  @ DRIVER MODE: Message from server: EXIT
  @ DRIVE MODE: Exiting

     General routines

     Parallel routines

   This run was terminated on:  19:10:20  15Sep2021

   JOB DONE.