     Program PWSCF v.6.7GPU starts on 26Sep2021 at  0:26:21

     R & G space division:  proc/nbgrp/npool/nimage =       8
     Reading input from /storage/home/hcoda1/3/ntian30/research/carbon/CxH_vib/H2O_calc/ads_slab/CH3OH2O_a/out_0010/pw.inp
Warning: card &CELL ignored
Warning: card   CELL_DYNAMICS='IPI', ignored
Warning: card / ignored

     Current dimensions of program PWSCF are:
     Max number of different atomic species (ntypx) = 10
     Max number of k-points (npk) =  40000
     Max angular momentum in pseudopotentials (lmaxx) =  3
     Presently no symmetry can be used with electric field

     Message from routine cell_base_init:
     DEPRECATED: use true lattice parameter, not A to a.u. conversion factor

     IMPORTANT: XC functional enforced from input :
     Exchange-correlation= BEEF-VDW
                           (   1   4  43  14   2   0   0)
     Any further DFT definition will be discarded
     Please, verify this is what you really want

  @ DRIVER MODE: Connecting to
 qe_1139763_2971673.sched-torque.pace.gatech.edu53o7sddy_scratch
  using UNIX socket
  @ DRIVER MODE: Message from server: STATUS
  @ DRIVER MODE: Message from server: INIT
  @ DRIVER MODE: Receiving replica           0          -1
  @ DRIVER MODE: Receiving encoded integer          25
  @ DRIVER MODE:  SCF:  T  FORCE:  T  STRESS:  F  VC:  F  ENSEMBLE:  F
  @ DRIVER MODE:  SCF:  T  FORCE:  T  STRESS:  F  VC:  F  ENSEMBLE:  F

     Using Slab Decomposition

     bravais-lattice index     =            0
     lattice parameter (alat)  =       1.8897  a.u.
     unit-cell volume          =    6658.9804 (a.u.)^3
     number of atoms/cell      =           55
     number of atomic types    =            4
     number of electrons       =       399.00
     number of Kohn-Sham states=          209
     kinetic-energy cutoff     =      29.3995  Ry
     charge density cutoff     =     293.9946  Ry
     scf convergence threshold =      7.3E-08
     mixing beta               =       0.0500
     number of iterations used =            8  plain     mixing
     Exchange-correlation= BEEF-VDW
                           (   1   4  43  14   2   0   0)

     celldm(1)=   1.889726  celldm(2)=   0.000000  celldm(3)=   0.000000
     celldm(4)=   0.000000  celldm(5)=   0.000000  celldm(6)=   0.000000

     crystal axes: (cart. coord. in units of alat)
               a(1) = (   6.579727   0.000000   0.000000 )
               a(2) = (  -0.000775   5.961596   0.000000 )
               a(3) = (   0.000000   0.000000  25.155947 )

     reciprocal axes: (cart. coord. in units 2 pi/alat)
               b(1) = (  0.151982  0.000020  0.000000 )
               b(2) = (  0.000000  0.167740  0.000000 )
               b(3) = (  0.000000  0.000000  0.039752 )

     PseudoPot. # 1 for Ti read from file:
     /storage/coda1/p-amedford6/0/shared/rich_project_chbe-medford/medford-share/data/pseudos_module/espresso/nninc/pbe/van/Ti.UPF
     MD5 check sum: 8e4df49b7f0d34bbd5052bf3f5ea0213
     Pseudo is Ultrasoft, Zval = 12.0
     Generated by new atomic code, or converted to UPF format
     Using radial grid of  851 points,  6 beta functions with:
                l(1) =   0
                l(2) =   0
                l(3) =   1
                l(4) =   1
                l(5) =   2
                l(6) =   2
     Q(r) pseudized with  8 coefficients,  rinner =    1.000   1.000   1.000
                                                       1.000   1.000

     PseudoPot. # 2 for O  read from file:
     /storage/coda1/p-amedford6/0/shared/rich_project_chbe-medford/medford-share/data/pseudos_module/espresso/nninc/pbe/van/O.UPF
     MD5 check sum: 78c19812648e8988a0fe644b0f25305e
     Pseudo is Ultrasoft, Zval =  6.0
     Generated by new atomic code, or converted to UPF format
     Using radial grid of  737 points,  4 beta functions with:
                l(1) =   0
                l(2) =   0
                l(3) =   1
                l(4) =   1
     Q(r) pseudized with  8 coefficients,  rinner =    0.800   0.800   0.800

     PseudoPot. # 3 for C  read from file:
     /storage/coda1/p-amedford6/0/shared/rich_project_chbe-medford/medford-share/data/pseudos_module/espresso/nninc/pbe/van/C.UPF
     MD5 check sum: 1a69bf6b8db32088f5b2163dbdb77a27
     Pseudo is Ultrasoft, Zval =  4.0
     Generated by new atomic code, or converted to UPF format
     Using radial grid of  721 points,  4 beta functions with:
                l(1) =   0
                l(2) =   0
                l(3) =   1
                l(4) =   1
     Q(r) pseudized with  8 coefficients,  rinner =    0.800   0.800   0.800

     PseudoPot. # 4 for H  read from file:
     /storage/coda1/p-amedford6/0/shared/rich_project_chbe-medford/medford-share/data/pseudos_module/espresso/nninc/pbe/van/H.UPF
     MD5 check sum: b5ee9d7bfd3a09ee7748110bda690ff7
     Pseudo is Ultrasoft, Zval =  1.0
     Generated by new atomic code, or converted to UPF format
     Using radial grid of  615 points,  1 beta functions with:
                l(1) =   0
     Q(r) pseudized with  8 coefficients,  rinner =    0.800

     atomic species   valence    mass     pseudopotential
        Ti1           12.00    47.86700     Ti( 1.00)
        O1             6.00    15.99900     O ( 1.00)
        C1             4.00    12.01100     C ( 1.00)
        H1             1.00     1.00800     H ( 1.00)

     No symmetry found

   Cartesian axes

     site n.     atom                  positions (alat units)
         1           Ti1 tau(   1) = (   0.0004258   2.9801865   6.0000000  )
         2           Ti1 tau(   2) = (   3.2906075   1.4906267   6.0002472  )
         3           O1  tau(   3) = (   0.0006271   0.0005054   7.9858123  )
         4           O1  tau(   4) = (   3.2906025   0.0005020   7.3038282  )
         5           O1  tau(   5) = (   4.5942328   1.4918067   9.2879030  )
         6           O1  tau(   6) = (   1.9868534   1.4903216   9.2879459  )
         7           Ti1 tau(   7) = (   3.2820359   3.0439161   9.1623595  )
         8           Ti1 tau(   8) = (   6.5599266   1.6132547   9.3553476  )
         9           O1  tau(   9) = (   3.2945286   0.0238644  11.3456088  )
        10           O1  tau(  10) = (   0.0063054   0.0138127  10.6020390  )
        11           O1  tau(  11) = (   1.2951583   1.5100513  12.6443238  )
        12           O1  tau(  12) = (   5.2990995   1.5148170  12.6233090  )
        13           Ti1 tau(  13) = (   0.0263474   3.0106421  12.7494805  )
        14           Ti1 tau(  14) = (   3.3336015   1.5167552  12.4948480  )
        15           O1  tau(  15) = (   6.5448532   0.0190031  14.6983011  )
        16           O1  tau(  16) = (   3.3224233   0.0259125  13.9568087  )
        17           O1  tau(  17) = (   4.5367000   1.5168325  16.1249780  )
        18           O1  tau(  18) = (   2.0218268   1.5507800  16.0022153  )
        19           Ti1 tau(  19) = (   3.2743302   2.9980917  15.6870858  )
        20           Ti1 tau(  20) = (   0.0201860   1.3869735  16.0719154  )
        21           O1  tau(  21) = (   3.2904802   0.0005063   4.7018136  )
        22           O1  tau(  22) = (   0.0925506   0.0150102  17.2361640  )
        23           O1  tau(  23) = (   1.3043587   1.4918075   6.0039043  )
        24           O1  tau(  24) = (   5.2767064   1.4903225   6.0039473  )
        25           Ti1 tau(  25) = (   0.0000382   5.9609847   6.0000000  )
        26           Ti1 tau(  26) = (   3.2902200   4.4714249   6.0002472  )
        27           O1  tau(  27) = (   0.0002396   2.9813036   7.9858123  )
        28           O1  tau(  28) = (   3.2902150   2.9813002   7.3038282  )
        29           O1  tau(  29) = (   4.5938453   4.4726049   9.2879030  )
        30           O1  tau(  30) = (   1.9864658   4.4711199   9.2879459  )
        31           Ti1 tau(  31) = (   3.2669230   0.0652730   9.1555536  )
        32           Ti1 tau(  32) = (   6.5613759   4.5453191   9.2698998  )
        33           O1  tau(  33) = (   3.2918870   3.0052186  11.3478826  )
        34           O1  tau(  34) = (   0.0060846   2.9950393  10.5821163  )
        35           O1  tau(  35) = (   1.2959246   4.5006532  12.6413340  )
        36           O1  tau(  36) = (   5.2961686   4.4944485  12.6189864  )
        37           Ti1 tau(  37) = (   0.0327138   0.0295606  12.5236923  )
        38           Ti1 tau(  38) = (   3.3339673   4.5113903  12.4983483  )
        39           O1  tau(  39) = (   6.5730609   3.0277731  14.6772624  )
        40           O1  tau(  40) = (   3.3208155   3.0007925  13.9016932  )
        41           O1  tau(  41) = (   4.5507661   4.4739758  16.0704957  )
        42           O1  tau(  42) = (   2.0281244   4.4521521  15.9894756  )
        43           Ti1 tau(  43) = (   3.3328935   0.0118079  15.7915215  )
        44           Ti1 tau(  44) = (   0.0096178   4.5175135  15.9069376  )
        45           O1  tau(  45) = (   3.2900926   2.9813045   4.7018136  )
        46           O1  tau(  46) = (   1.3039711   4.4726057   6.0039043  )
        47           O1  tau(  47) = (   5.2763189   4.4711207   6.0039473  )
        48           C1  tau(  48) = (   6.0108469   3.0492512  18.6187439  )
        49           O1  tau(  49) = (   6.5747659   3.0113081  17.3187206  )
        50           H1  tau(  50) = (   4.9221177   3.1735116  18.5649479  )
        51           H1  tau(  51) = (   6.2378858   2.1236533  19.1567593  )
        52           H1  tau(  52) = (   6.4208835   3.9027719  19.1655001  )
        53           O1  tau(  53) = (   2.8960476   5.8777769  18.1661119  )
        54           H1  tau(  54) = (   3.1709146   0.7341104  18.6084320  )
        55           H1  tau(  55) = (   1.9162551   5.9097105  18.1191095  )

     number of k points=    10  Fermi-Dirac smearing, width (Ry)=  0.0073
                       cart. coord. in units 2pi/alat
        k(    1) = (   0.0000000   0.0000000   0.0000000), wk =   0.1250000
        k(    2) = (   0.0000000   0.0419351   0.0000000), wk =   0.2500000
        k(    3) = (   0.0000000  -0.0838702   0.0000000), wk =   0.1250000
        k(    4) = (   0.0379955   0.0000049   0.0000000), wk =   0.2500000
        k(    5) = (   0.0379955   0.0419400   0.0000000), wk =   0.2500000
        k(    6) = (   0.0379955  -0.0838652   0.0000000), wk =   0.2500000
        k(    7) = (   0.0379955  -0.0419301   0.0000000), wk =   0.2500000
        k(    8) = (  -0.0759910  -0.0000099   0.0000000), wk =   0.1250000
        k(    9) = (  -0.0759910   0.0419252   0.0000000), wk =   0.2500000
        k(   10) = (  -0.0759910  -0.0838800   0.0000000), wk =   0.1250000

     Initial potential from superposition of free atoms

     starting charge  382.99916, renormalised to  399.00000

     negative rho (up, down):  1.705E-02 0.000E+00

     %%%%%%%%%%%%%%%%%%%%%%%%%%%%%%%%%%%%%%%%%%%%%%%%%%%%%%%%%%%%%%%%%%%%%%%%
     %                                                                      %
     % You are using vdW-DF, which was implemented by the Thonhauser group. %
     % Please cite the following two papers that made this development      %
     % possible and the two reviews that describe the various versions:     %
     %                                                                      %
     %   T. Thonhauser et al., PRL 115, 136402 (2015).                      %
     %   T. Thonhauser et al., PRB 76, 125112 (2007).                       %
     %   K. Berland et al., Rep. Prog. Phys. 78, 066501 (2015).             %
     %   D.C. Langreth et al., J. Phys.: Condens. Matter 21, 084203 (2009). %
     %                                                                      %
     %                                                                      %
     % If you are calculating the stress with vdW-DF, please also cite:     %
     %                                                                      %
     %   R. Sabatini et al., J. Phys.: Condens. Matter 24, 424209 (2012).   %
     %                                                                      %
     %%%%%%%%%%%%%%%%%%%%%%%%%%%%%%%%%%%%%%%%%%%%%%%%%%%%%%%%%%%%%%%%%%%%%%%%

     Adding external electric field

     Computed dipole along edir(3) :
        Dipole               -9.9871 Ry au,        -25.3847 Debye
        Dipole field         -0.0188 Ry au,

        Potential amp.        1.7471 Ry
        Total length         46.3494 bohr

     Starting wfcs are  301 atomic wfcs
  @ DRIVER MODE: Message from server: STATUS
  @ DRIVER MODE: Message from server: POSDATA
  @ DRIVER MODE: Reading and sharing cell
  @ DRIVER MODE: Reading and sharing positions
  @ DRIVER MODE: Received positions

     Self-consistent Calculation

     iteration #  1     ecut=    29.40 Ry     beta= 0.05
     Davidson diagonalization with overlap
     c_bands:  2 eigenvalues not converged
     c_bands:  2 eigenvalues not converged
     c_bands:  2 eigenvalues not converged
     c_bands:  3 eigenvalues not converged
     c_bands:  2 eigenvalues not converged
     c_bands:  3 eigenvalues not converged
     c_bands:  3 eigenvalues not converged
     c_bands:  1 eigenvalues not converged
     ethr =  1.00E-05,  avg # of iterations = 19.6

[...]

     total energy              =   -2489.87452020 Ry
     estimated scf accuracy    <    5304.34218026 Ry

     iteration #  2     ecut=    29.40 Ry     beta= 0.05
     Davidson diagonalization with overlap
     ethr =  1.00E-02,  avg # of iterations = 24.8

[...]

     iteration # 65     ecut=    29.40 Ry     beta= 0.05
     Davidson diagonalization with overlap
     c_bands:  1 eigenvalues not converged
     c_bands:  1 eigenvalues not converged
     c_bands:  1 eigenvalues not converged
     ethr =  2.81E-11,  avg # of iterations = 17.7

[...]

     total energy              =   -2966.34220040 Ry
     estimated scf accuracy    <       0.00000024 Ry

     iteration # 66     ecut=    29.40 Ry     beta= 0.05
     Davidson diagonalization with overlap
     ethr =  2.81E-11,  avg # of iterations = 10.7

     negative rho (up, down):  1.685E-02 0.000E+00

     Adding external electric field

     Computed dipole along edir(3) :
        Dipole                0.9472 Ry au,          2.4075 Debye
        Dipole field          0.0018 Ry au,

        Potential amp.       -0.1657 Ry
        Total length         46.3494 bohr

     End of self-consistent calculation

          k = 0.0000 0.0000 0.0000 ( 18029 PWs)   bands (ev):

   -55.7044 -55.6686 -55.6657 -55.6294 -55.6176 -55.6008 -55.5833 -55.5491
   -55.4944 -55.4808 -55.4770 -55.4546 -55.4198 -55.3790 -54.7079 -54.6738
   -32.2233 -32.1740 -32.0954 -32.0628 -32.0467 -31.9969 -31.9806 -31.9701
   -31.9370 -31.9340 -31.8929 -31.8820 -31.8760 -31.8712 -31.8640 -31.8471
   -31.8464 -31.8038 -31.7992 -31.7963 -31.7875 -31.7810 -31.7689 -31.7551
   -31.7488 -31.7439 -31.7260 -31.7032 -31.6979 -31.6965 -31.6915 -31.6857
   -31.6726 -31.6663 -31.6541 -31.6449 -31.6368 -31.6008 -31.5949 -31.5702
   -31.5615 -31.5551 -31.1169 -31.0219 -30.9995 -30.9337 -30.8477 -30.7364
   -18.9059 -17.5534 -16.4192 -16.1499 -15.9888 -15.8610 -15.8225 -15.6269
   -15.5108 -15.3865 -15.3602 -15.3051 -15.2805 -15.2405 -15.2349 -15.2258
   -15.2153 -15.2068 -15.1528 -15.1185 -15.1059 -15.0963 -15.0845 -15.0333
   -14.9812 -14.9174 -14.8446 -14.8217 -14.7976 -14.7259 -14.7046 -13.2084
   -13.0906  -9.4256  -6.6745  -4.2686  -4.0861  -3.8054  -3.7683  -3.6423
    -3.6171  -3.5873  -3.5061  -3.3084  -3.2757  -3.1529  -2.9412  -2.8828
    -2.8271  -2.8034  -2.7611  -2.6105  -2.5916  -2.5205  -2.5097  -2.4911
    -2.4813  -2.4485  -2.4308  -2.3979  -2.3710  -2.3336  -2.2863  -2.2249
    -2.0861  -2.0718  -2.0337  -2.0173  -2.0054  -1.9910  -1.9538  -1.9327
    -1.8993  -1.8813  -1.8699  -1.7714  -1.6633  -1.5693  -1.5326  -1.4630
    -1.3826  -1.2384  -1.2179  -1.1466  -1.1214  -1.1055  -1.0548  -1.0029
    -0.9422  -0.9378  -0.8809  -0.7819  -0.7127  -0.6945  -0.6578  -0.6090
    -0.5504  -0.4736  -0.4444  -0.4269  -0.4036  -0.3919  -0.2043  -0.1795
    -0.1366  -0.1097  -0.0271   0.0315   0.0481   0.0668   0.0933   0.1203
     0.1932   0.2531   0.2624   0.2891   0.3326   0.3474   0.3817   0.4483
     0.4978   0.5163   0.5636   0.6126   0.6646   0.8046   0.9082   0.9508
     1.0624   1.2274   1.3165   1.3904   1.4916   1.9020   1.9579   3.4755
     3.5073   3.5354   3.5571   3.6336   3.7258   3.8359   3.9275   3.9427
     3.9721

[...]

          k = 0.0380-0.0419 0.0000 ( 17876 PWs)   bands (ev):

[...]

          k =-0.0760-0.0000 0.0000 ( 17886 PWs)   bands (ev):

[...]

          k =-0.0760-0.0839 0.0000 ( 17948 PWs)   bands (ev):

   -55.6922 -55.6807 -55.6494 -55.6454 -55.6148 -55.5986 -55.5705 -55.5619
   -55.4968 -55.4793 -55.4775 -55.4417 -55.4327 -55.3819 -54.6912 -54.6903
   -32.0365 -32.0175 -31.9967 -31.9895 -31.9848 -31.9834 -31.9663 -31.9295
   -31.9201 -31.9117 -31.9030 -31.8937 -31.8559 -31.8454 -31.8292 -31.8262
   -31.8248 -31.8191 -31.8179 -31.8103 -31.8026 -31.8001 -31.7938 -31.7838
   -31.7733 -31.7715 -31.7670 -31.7664 -31.7563 -31.7410 -31.7141 -31.7017
   -31.6927 -31.6859 -31.6851 -31.6816 -31.6808 -31.6584 -31.6482 -31.6369
   -31.6069 -31.5726 -31.0127 -31.0116 -30.9302 -30.9296 -30.8911 -30.8903
   -18.9046 -17.5209 -15.8879 -15.7741 -15.6559 -15.5818 -15.5698 -15.5238
   -15.4933 -15.4678 -15.4092 -15.4030 -15.3547 -15.3529 -15.3027 -15.2965
   -15.2454 -15.2132 -15.2091 -15.1678 -15.1448 -15.1370 -15.1264 -15.0899
   -15.0730 -15.0632 -15.0284 -15.0191 -14.9701 -14.9325 -14.9054 -13.1928
   -13.1911  -9.4279  -6.6690  -4.1654  -4.0517  -3.8071  -3.3068  -3.1740
    -2.9704  -2.9010  -2.8358  -2.7735  -2.7697  -2.6535  -2.6338  -2.5951
    -2.5643  -2.5317  -2.5239  -2.5136  -2.4973  -2.4945  -2.4782  -2.4379
    -2.4178  -2.3935  -2.3717  -2.3609  -2.3389  -2.3166  -2.3089  -2.2890
    -2.2561  -2.2494  -2.2418  -2.1785  -2.1157  -1.9833  -1.9397  -1.9263
    -1.8413  -1.8068  -1.7901  -1.7610  -1.7529  -1.7374  -1.6068  -1.5866
    -1.4923  -1.4266  -1.4072  -1.3793  -1.2716  -1.2135  -1.1818  -1.1585
    -1.1225  -1.0748  -1.0082  -0.9670  -0.9150  -0.8590  -0.8127  -0.7971
    -0.7647  -0.6611  -0.6569  -0.6486  -0.6080  -0.5671  -0.5134  -0.4661
    -0.4591  -0.4337  -0.4016  -0.3592  -0.3403  -0.2433  -0.2323  -0.1934
    -0.1470  -0.0543   0.1253   0.2094   0.3165   0.3517   0.3896   0.4523
     0.4970   0.5491   0.5951   0.6436   0.6693   0.7132   0.7467   0.8290
     0.8474   0.8527   0.9211   1.6782   1.6786   1.7646   1.7731   3.7196
     3.7343   3.7859   3.8055   3.9437   3.9495   3.9631   3.9727   4.0715
     4.1269

     the Fermi energy is     3.4465 ev

!    total energy              =   -2966.34222450 Ry
     estimated scf accuracy    <       0.00000004 Ry
     smearing contrib. (-TS)   =      -0.02283165 Ry
     internal energy E=F+TS    =   -2966.31939285 Ry

     The total energy is F=E-TS. E is the sum of the following terms:
     one-electron contribution =  -24405.14548022 Ry
     hartree contribution      =   12294.56681024 Ry
     xc contribution           =    -490.96342205 Ry
     ewald contribution        =    9635.22100618 Ry
     electric field correction =       0.00169299 Ry

     convergence has been achieved in  66 iterations

     Forces acting on atoms (cartesian axes, Ry/au):

     atom    1 type  1   force =     0.00018086   -0.00146645    0.10510348
     atom    2 type  1   force =     0.00007591    0.00124823   -0.17890876
     atom    3 type  2   force =    -0.00001300   -0.00501547   -0.03282060
     atom    4 type  2   force =    -0.00058346    0.00074215    0.04593423
     atom    5 type  2   force =    -0.01790938   -0.00052900    0.00427938
     atom    6 type  2   force =     0.01741274    0.00074114    0.00347561
     atom    7 type  1   force =    -0.00005756   -0.00057832   -0.00008308
     atom    8 type  1   force =    -0.00037937   -0.00056946    0.00045446
     atom    9 type  2   force =     0.00014176   -0.00029020   -0.00003866
     atom   10 type  2   force =     0.00022700   -0.00002017    0.00053915
     atom   11 type  2   force =     0.00000362   -0.00010061   -0.00005334
     atom   12 type  2   force =    -0.00014299   -0.00028150   -0.00026062
     atom   13 type  1   force =     0.00055727   -0.00057760   -0.00129665
     atom   14 type  1   force =     0.00001758   -0.00047272    0.00035305
     atom   15 type  2   force =    -0.00013438    0.00079651    0.00024391
     atom   16 type  2   force =     0.00004743   -0.00060200   -0.00002653
     atom   17 type  2   force =     0.00010769    0.00006125   -0.00017232
     atom   18 type  2   force =     0.00006549   -0.00032156    0.00027718
     atom   19 type  1   force =     0.00002257    0.00093657    0.00016188
     atom   20 type  1   force =     0.00000656   -0.00084119    0.00055680
     atom   21 type  2   force =     0.00007382    0.00011166    0.10391569
     atom   22 type  2   force =    -0.00030486    0.00081974   -0.00029020
     atom   23 type  2   force =    -0.06946602    0.00050720   -0.02942301
     atom   24 type  2   force =     0.06949621    0.00087443   -0.02945316
     atom   25 type  1   force =     0.00027191    0.00145119    0.11394727
     atom   26 type  1   force =    -0.00005471   -0.00044541   -0.17907373
     atom   27 type  2   force =    -0.00013495    0.00370342   -0.02688574
     atom   28 type  2   force =    -0.00026887    0.00101819    0.04787794
     atom   29 type  2   force =    -0.01572539    0.00042243    0.00351917
     atom   30 type  2   force =     0.01710135    0.00264561    0.00289611
     atom   31 type  1   force =     0.00037017    0.00005385   -0.00019207
     atom   32 type  1   force =    -0.00066413    0.00012303    0.00027552
     atom   33 type  2   force =     0.00025264   -0.00039902    0.00016571
     atom   34 type  2   force =     0.00006839   -0.00005711   -0.00007719
     atom   35 type  2   force =     0.00012580   -0.00018337    0.00023532
     atom   36 type  2   force =     0.00018748    0.00017383    0.00017253
     atom   37 type  1   force =     0.00034327    0.00079964   -0.00027504
     atom   38 type  1   force =    -0.00009433   -0.00053479    0.00002349
     atom   39 type  2   force =    -0.00047108    0.00014687    0.00019571
     atom   40 type  2   force =     0.00025725   -0.00066445   -0.00010381
     atom   41 type  2   force =    -0.00032103    0.00016002   -0.00035270
     atom   42 type  2   force =     0.00003179   -0.00022844   -0.00060986
     atom   43 type  1   force =    -0.00012377   -0.00067375   -0.00011722
     atom   44 type  1   force =     0.00037193   -0.00005443    0.00053139
     atom   45 type  2   force =     0.00007833    0.00007984    0.10394089
     atom   46 type  2   force =    -0.06916141   -0.00106809   -0.02943931
     atom   47 type  2   force =     0.06913736   -0.00060124   -0.02951463
     atom   48 type  3   force =    -0.00015891    0.00292397    0.00077509
     atom   49 type  2   force =    -0.00030031   -0.00407697   -0.00024577
     atom   50 type  4   force =     0.00053418    0.00012547    0.00070037
     atom   51 type  4   force =     0.00027605    0.00046992   -0.00145850
     atom   52 type  4   force =    -0.00076034   -0.00074084    0.00077218
     atom   53 type  2   force =     0.00080349    0.00112600    0.00049136
     atom   54 type  4   force =    -0.00020750   -0.00089519   -0.00061451
     atom   55 type  4   force =    -0.00121012    0.00002719   -0.00002785

     Total force =     0.374061     Total SCF correction =     0.000400
  @ DRIVER MODE: Message from server: STATUS
  @ DRIVER MODE: Message from server: GETFORCE
  @ DRIVER MODE: Returning v,forces,stress,ensemble

     Writing output data file ./calc.save/
  @ DRIVER MODE: Message from server: EXIT
  @ DRIVE MODE: Exiting

     General routines

     Parallel routines

   This run was terminated on:   1:18:10  26Sep2021

   JOB DONE.