     Program PWSCF v.6.7GPU starts on 15Sep2021 at 21:41:29

     R & G space division:  proc/nbgrp/npool/nimage =      10
     Reading input from /storage/home/hcoda1/3/ntian30/research/carbon/CxH_vib/H2O_calc/ads_slab/CH3N2HH2O_a/out_0019/pw.inp
Warning: card &CELL ignored
Warning: card   CELL_DYNAMICS='IPI', ignored
Warning: card / ignored

     Current dimensions of program PWSCF are:
     Max number of different atomic species (ntypx) = 10
     Max number of k-points (npk) =  40000
     Max angular momentum in pseudopotentials (lmaxx) =  3
     Presently no symmetry can be used with electric field

     Message from routine cell_base_init:
     DEPRECATED: use true lattice parameter, not A to a.u. conversion factor

     IMPORTANT: XC functional enforced from input :
     Exchange-correlation= BEEF-VDW
                           (   1   4  43  14   2   0   0)
     Any further DFT definition will be discarded
     Please, verify this is what you really want

  @ DRIVER MODE: Connecting to
 qe_1139763_2852617.sched-torque.pace.gatech.eduhde7oka4_scratch
  using UNIX socket
  @ DRIVER MODE: Message from server: STATUS
  @ DRIVER MODE: Message from server: INIT
  @ DRIVER MODE: Receiving replica           0          -1
  @ DRIVER MODE: Receiving encoded integer          25
  @ DRIVER MODE:  SCF:  T  FORCE:  T  STRESS:  F  VC:  F  ENSEMBLE:  F
  @ DRIVER MODE:  SCF:  T  FORCE:  T  STRESS:  F  VC:  F  ENSEMBLE:  F

     Using Slab Decomposition

     bravais-lattice index     =            0
     lattice parameter (alat)  =       1.8897  a.u.
     unit-cell volume          =    6658.9804 (a.u.)^3
     number of atoms/cell      =           57
     number of atomic types    =            5
     number of electrons       =       404.00
     number of Kohn-Sham states=          212
     kinetic-energy cutoff     =      29.3995  Ry
     charge density cutoff     =     293.9946  Ry
     scf convergence threshold =      7.3E-08
     mixing beta               =       0.0500
     number of iterations used =            8  plain     mixing
     Exchange-correlation= BEEF-VDW
                           (   1   4  43  14   2   0   0)

     celldm(1)=   1.889726  celldm(2)=   0.000000  celldm(3)=   0.000000
     celldm(4)=   0.000000  celldm(5)=   0.000000  celldm(6)=   0.000000

     crystal axes: (cart. coord. in units of alat)
               a(1) = (   6.579727   0.000000   0.000000 )
               a(2) = (  -0.000775   5.961596   0.000000 )
               a(3) = (   0.000000   0.000000  25.155947 )

     reciprocal axes: (cart. coord. in units 2 pi/alat)
               b(1) = (  0.151982  0.000020  0.000000 )
               b(2) = (  0.000000  0.167740  0.000000 )
               b(3) = (  0.000000  0.000000  0.039752 )

     PseudoPot. # 1 for Ti read from file:
     /storage/coda1/p-amedford6/0/shared/rich_project_chbe-medford/medford-share/data/pseudos_module/espresso/nninc/pbe/van/Ti.UPF
     MD5 check sum: 8e4df49b7f0d34bbd5052bf3f5ea0213
     Pseudo is Ultrasoft, Zval = 12.0
     Generated by new atomic code, or converted to UPF format
     Using radial grid of  851 points,  6 beta functions with:
                l(1) =   0
                l(2) =   0
                l(3) =   1
                l(4) =   1
                l(5) =   2
                l(6) =   2
     Q(r) pseudized with  8 coefficients,  rinner =    1.000   1.000   1.000
                                                       1.000   1.000

     PseudoPot. # 2 for O  read from file:
     /storage/coda1/p-amedford6/0/shared/rich_project_chbe-medford/medford-share/data/pseudos_module/espresso/nninc/pbe/van/O.UPF
     MD5 check sum: 78c19812648e8988a0fe644b0f25305e
     Pseudo is Ultrasoft, Zval =  6.0
     Generated by new atomic code, or converted to UPF format
     Using radial grid of  737 points,  4 beta functions with:
                l(1) =   0
                l(2) =   0
                l(3) =   1
                l(4) =   1
     Q(r) pseudized with  8 coefficients,  rinner =    0.800   0.800   0.800

     PseudoPot. # 3 for N  read from file:
     /storage/coda1/p-amedford6/0/shared/rich_project_chbe-medford/medford-share/data/pseudos_module/espresso/nninc/pbe/van/N.UPF
     MD5 check sum: 90d10febe142ad51ac9d5be1deb811c4
     Pseudo is Ultrasoft, Zval =  5.0
     Generated by new atomic code, or converted to UPF format
     Using radial grid of  729 points,  4 beta functions with:
                l(1) =   0
                l(2) =   0
                l(3) =   1
                l(4) =   1
     Q(r) pseudized with  8 coefficients,  rinner =    0.800   0.800   0.800

     PseudoPot. # 4 for C  read from file:
     /storage/coda1/p-amedford6/0/shared/rich_project_chbe-medford/medford-share/data/pseudos_module/espresso/nninc/pbe/van/C.UPF
     MD5 check sum: 1a69bf6b8db32088f5b2163dbdb77a27
     Pseudo is Ultrasoft, Zval =  4.0
     Generated by new atomic code, or converted to UPF format
     Using radial grid of  721 points,  4 beta functions with:
                l(1) =   0
                l(2) =   0
                l(3) =   1
                l(4) =   1
     Q(r) pseudized with  8 coefficients,  rinner =    0.800   0.800   0.800

     PseudoPot. # 5 for H  read from file:
     /storage/coda1/p-amedford6/0/shared/rich_project_chbe-medford/medford-share/data/pseudos_module/espresso/nninc/pbe/van/H.UPF
     MD5 check sum: b5ee9d7bfd3a09ee7748110bda690ff7
     Pseudo is Ultrasoft, Zval =  1.0
     Generated by new atomic code, or converted to UPF format
     Using radial grid of  615 points,  1 beta functions with:
                l(1) =   0
     Q(r) pseudized with  8 coefficients,  rinner =    0.800

     atomic species   valence    mass     pseudopotential
        Ti1           12.00    47.86700     Ti( 1.00)
        O1             6.00    15.99900     O ( 1.00)
        N1             5.00    14.00700     N ( 1.00)
        C1             4.00    12.01100     C ( 1.00)
        H1             1.00     1.00800     H ( 1.00)

     No symmetry found

   Cartesian axes

     site n.     atom                  positions (alat units)
         1           Ti1 tau(   1) = (   0.0004258   2.9801865   6.0000000  )
         2           Ti1 tau(   2) = (   3.2906075   1.4906267   6.0002472  )
         3           O1  tau(   3) = (   0.0006271   0.0005054   7.9858123  )
         4           O1  tau(   4) = (   3.2906025   0.0005020   7.3038282  )
         5           O1  tau(   5) = (   4.5942328   1.4918067   9.2879030  )
         6           O1  tau(   6) = (   1.9868534   1.4903216   9.2879459  )
         7           Ti1 tau(   7) = (   3.2907910   2.8959150   9.1758416  )
         8           Ti1 tau(   8) = (   0.0015273   1.4827037   9.2680791  )
         9           O1  tau(   9) = (   3.2846840   0.0164488  11.3171736  )
        10           O1  tau(  10) = (   0.0116148   5.9584955  10.6183126  )
        11           O1  tau(  11) = (   1.2780696   1.4966870  12.6228330  )
        12           O1  tau(  12) = (   5.2671132   1.5021727  12.6038655  )
        13           Ti1 tau(  13) = (   0.0814623   2.9703834  12.6092300  )
        14           Ti1 tau(  14) = (   3.3984034   1.5042134  12.4754612  )
        15           O1  tau(  15) = (   6.5611900   5.9602394  14.6246442  )
        16           O1  tau(  16) = (   3.2847170   0.0117735  13.9091713  )
        17           O1  tau(  17) = (   4.5127615   1.5439160  15.9886145  )
        18           O1  tau(  18) = (   2.0245574   1.5486524  15.9865356  )
        19           Ti1 tau(  19) = (   3.2678410   3.0292036  15.6627315  )
        20           Ti1 tau(  20) = (   6.5437773   1.5790868  15.8036792  )
        21           O1  tau(  21) = (   3.2904802   0.0005063   4.7018136  )
        22           O1  tau(  22) = (   6.5616667   0.0409992  17.2467836  )
        23           O1  tau(  23) = (   1.3043587   1.4918075   6.0039043  )
        24           O1  tau(  24) = (   5.2767064   1.4903225   6.0039473  )
        25           Ti1 tau(  25) = (   0.0000382   5.9609847   6.0000000  )
        26           Ti1 tau(  26) = (   3.2902200   4.4714249   6.0002472  )
        27           O1  tau(  27) = (   0.0002396   2.9813036   7.9858123  )
        28           O1  tau(  28) = (   3.2902150   2.9813002   7.3038282  )
        29           O1  tau(  29) = (   4.5938453   4.4726049   9.2879030  )
        30           O1  tau(  30) = (   1.9864658   4.4711199   9.2879459  )
        31           Ti1 tau(  31) = (   3.2891106   5.8743827   9.1763621  )
        32           Ti1 tau(  32) = (   0.0006254   4.4649316   9.2693709  )
        33           O1  tau(  33) = (   3.2886753   2.9955121  11.3174028  )
        34           O1  tau(  34) = (   0.0092240   2.9805883  10.6323155  )
        35           O1  tau(  35) = (   1.2771457   4.4765085  12.6200386  )
        36           O1  tau(  36) = (   5.2716127   4.4859779  12.5990880  )
        37           Ti1 tau(  37) = (   0.0719143   5.9417653  12.6408960  )
        38           Ti1 tau(  38) = (   3.4009286   4.4967646  12.4819834  )
        39           O1  tau(  39) = (   6.5633752   2.9851081  14.6229342  )
        40           O1  tau(  40) = (   3.2806164   3.0132077  13.8636590  )
        41           O1  tau(  41) = (   4.5054435   4.4842064  16.0752605  )
        42           O1  tau(  42) = (   2.0287922   4.4846499  16.0567397  )
        43           Ti1 tau(  43) = (   3.2585180   0.0608266  15.7494983  )
        44           Ti1 tau(  44) = (   6.5556145   4.6328118  16.1363011  )
        45           O1  tau(  45) = (   3.2900926   2.9813045   4.7018136  )
        46           O1  tau(  46) = (   1.3039711   4.4726057   6.0039043  )
        47           O1  tau(  47) = (   5.2763189   4.4711207   6.0039473  )
        48           N1  tau(  48) = (   6.4582227   2.6263240  18.5734135  )
        49           N1  tau(  49) = (   6.5493832   2.9496485  17.3103279  )
        50           C1  tau(  50) = (   0.1600853   3.5596473  19.6455425  )
        51           H1  tau(  51) = (   6.1811903   4.4878083  19.4849519  )
        52           H1  tau(  52) = (   6.4401482   3.1080517  20.5902855  )
        53           H1  tau(  53) = (   1.2308410   3.8049764  19.6956042  )
        54           H1  tau(  54) = (   6.5044843   1.6253530  18.7706356  )
        55           O1  tau(  55) = (   3.2415852   0.0755412  18.2049893  )
        56           H1  tau(  56) = (   4.0109045   5.4607113  18.3409029  )
        57           H1  tau(  57) = (   2.4534619   5.4803556  18.3240773  )

     number of k points=    10  Fermi-Dirac smearing, width (Ry)=  0.0073
                       cart. coord. in units 2pi/alat
        k(    1) = (   0.0000000   0.0000000   0.0000000), wk =   0.1250000
        k(    2) = (   0.0000000   0.0419351   0.0000000), wk =   0.2500000
        k(    3) = (   0.0000000  -0.0838702   0.0000000), wk =   0.1250000
        k(    4) = (   0.0379955   0.0000049   0.0000000), wk =   0.2500000
        k(    5) = (   0.0379955   0.0419400   0.0000000), wk =   0.2500000
        k(    6) = (   0.0379955  -0.0838652   0.0000000), wk =   0.2500000
        k(    7) = (   0.0379955  -0.0419301   0.0000000), wk =   0.2500000
        k(    8) = (  -0.0759910  -0.0000099   0.0000000), wk =   0.1250000
        k(    9) = (  -0.0759910   0.0419252   0.0000000), wk =   0.2500000
        k(   10) = (  -0.0759910  -0.0838800   0.0000000), wk =   0.1250000

     Initial potential from superposition of free atoms

     starting charge  387.99913, renormalised to  404.00000

     negative rho (up, down):  1.445E-02 0.000E+00

     %%%%%%%%%%%%%%%%%%%%%%%%%%%%%%%%%%%%%%%%%%%%%%%%%%%%%%%%%%%%%%%%%%%%%%%%
     %                                                                      %
     % You are using vdW-DF, which was implemented by the Thonhauser group. %
     % Please cite the following two papers that made this development      %
     % possible and the two reviews that describe the various versions:     %
     %                                                                      %
     %   T. Thonhauser et al., PRL 115, 136402 (2015).                      %
     %   T. Thonhauser et al., PRB 76, 125112 (2007).                       %
     %   K. Berland et al., Rep. Prog. Phys. 78, 066501 (2015).             %
     %   D.C. Langreth et al., J. Phys.: Condens. Matter 21, 084203 (2009). %
     %                                                                      %
     %                                                                      %
     % If you are calculating the stress with vdW-DF, please also cite:     %
     %                                                                      %
     %   R. Sabatini et al., J. Phys.: Condens. Matter 24, 424209 (2012).   %
     %                                                                      %
     %%%%%%%%%%%%%%%%%%%%%%%%%%%%%%%%%%%%%%%%%%%%%%%%%%%%%%%%%%%%%%%%%%%%%%%%

     Adding external electric field

     Computed dipole along edir(3) :
        Dipole              -13.5668 Ry au,        -34.4835 Debye
        Dipole field         -0.0256 Ry au,

        Potential amp.        2.3733 Ry
        Total length         46.3494 bohr

     Starting wfcs are  306 atomic wfcs
  @ DRIVER MODE: Message from server: STATUS
  @ DRIVER MODE: Message from server: POSDATA
  @ DRIVER MODE: Reading and sharing cell
  @ DRIVER MODE: Reading and sharing positions
  @ DRIVER MODE: Received positions

     Self-consistent Calculation

     iteration #  1     ecut=    29.40 Ry     beta= 0.05
     Davidson diagonalization with overlap
     c_bands:  4 eigenvalues not converged
     c_bands:  4 eigenvalues not converged
     c_bands:  4 eigenvalues not converged
     c_bands:  4 eigenvalues not converged
     c_bands:  3 eigenvalues not converged
     c_bands:  3 eigenvalues not converged
     ethr =  1.00E-05,  avg # of iterations = 25.3

[...]

     total energy              =   -2339.22097052 Ry
     estimated scf accuracy    <    7249.99260072 Ry

     iteration #  2     ecut=    29.40 Ry     beta= 0.05
     Davidson diagonalization with overlap
     ethr =  1.00E-02,  avg # of iterations = 23.1

[...]

     iteration # 42     ecut=    29.40 Ry     beta= 0.05
     Davidson diagonalization with overlap
     c_bands:  1 eigenvalues not converged
     ethr =  2.18E-07,  avg # of iterations = 10.3

[...]

     total energy              =   -2975.23044607 Ry
     estimated scf accuracy    <       0.00000015 Ry

     iteration # 62     ecut=    29.40 Ry     beta= 0.05
     Davidson diagonalization with overlap
     ethr =  3.72E-11,  avg # of iterations =  6.3

     negative rho (up, down):  1.507E-02 0.000E+00

     Adding external electric field

     Computed dipole along edir(3) :
        Dipole                1.1604 Ry au,          2.9493 Debye
        Dipole field          0.0022 Ry au,

        Potential amp.       -0.2030 Ry
        Total length         46.3494 bohr

     End of self-consistent calculation

          k = 0.0000 0.0000 0.0000 ( 18029 PWs)   bands (ev):

   -55.5055 -55.4715 -55.3328 -55.2963 -55.2624 -55.2287 -55.2024 -55.1986
   -55.1876 -55.1648 -55.1532 -55.0142 -54.5525 -54.4357 -54.4017 -54.3882
   -31.9785 -31.8682 -31.7997 -31.7847 -31.7214 -31.7124 -31.6767 -31.6588
   -31.6217 -31.6043 -31.6009 -31.5741 -31.5644 -31.5198 -31.5120 -31.5010
   -31.4819 -31.4800 -31.4559 -31.4382 -31.4252 -31.4170 -31.4138 -31.3959
   -31.3925 -31.3847 -31.3751 -31.3679 -31.3658 -31.3635 -31.3414 -31.3300
   -31.3175 -31.3001 -31.2064 -31.1792 -31.0462 -30.8408 -30.7767 -30.7625
   -30.7577 -30.7349 -30.7233 -30.6578 -30.5987 -30.5716 -30.5679 -30.4604
   -18.7893 -17.7483 -16.0739 -15.8818 -15.6095 -15.4860 -15.4590 -15.2752
   -15.1988 -15.1473 -15.0151 -14.9681 -14.9386 -14.9086 -14.8961 -14.8388
   -14.8114 -14.7845 -14.7547 -14.7504 -14.7308 -14.7083 -14.6675 -14.6101
   -14.5847 -14.5237 -14.4734 -14.4518 -14.3584 -14.3538 -13.9276 -12.9372
   -12.8216 -11.8978  -8.7957  -6.5591  -5.6076  -4.3150  -4.0957  -3.4586
    -3.3830  -3.3241  -3.2082  -3.1229  -2.9895  -2.9507  -2.8707  -2.7757
    -2.6050  -2.5469  -2.5210  -2.4922  -2.4077  -2.2741  -2.2627  -2.2147
    -2.1869  -2.1663  -2.1518  -2.1358  -2.0398  -2.0017  -1.9646  -1.8547
    -1.8180  -1.7955  -1.7786  -1.7699  -1.7529  -1.6889  -1.6570  -1.6383
    -1.6283  -1.5913  -1.5568  -1.5456  -1.4162  -1.3974  -1.2801  -1.1524
    -1.1294  -1.0709  -1.0468  -0.8880  -0.8817  -0.8601  -0.8192  -0.8118
    -0.7399  -0.6671  -0.6244  -0.5503  -0.4316  -0.4223  -0.3876  -0.2414
    -0.2378  -0.2146  -0.1767  -0.1654  -0.1138  -0.1055  -0.0590   0.0020
     0.0965   0.1677   0.2729   0.2756   0.3285   0.3680   0.3809   0.4388
     0.4550   0.5048   0.5165   0.5241   0.5759   0.6110   0.6235   0.6815
     0.7328   0.8497   0.9193   0.9444   0.9910   1.1127   1.1879   1.2360
     1.2410   1.4092   1.5317   1.5616   1.5867   1.7869   1.8184   2.1534
     2.1973   3.6685   3.6854   3.7751   3.8342   3.9483   4.0198   4.1083
     4.1882   4.2574   4.3499   4.3749

[...]

          k = 0.0380-0.0419 0.0000 ( 17876 PWs)   bands (ev):

[...]

          k =-0.0760-0.0000 0.0000 ( 17886 PWs)   bands (ev):

[...]

          k =-0.0760-0.0839 0.0000 ( 17948 PWs)   bands (ev):

   -55.4886 -55.4882 -55.3183 -55.3107 -55.2455 -55.2452 -55.1969 -55.1908
   -55.1762 -55.1737 -55.1672 -55.0158 -54.5509 -54.4187 -54.4186 -54.3896
   -31.7941 -31.7940 -31.7850 -31.7849 -31.6812 -31.6641 -31.6098 -31.6091
   -31.5704 -31.5658 -31.5624 -31.5575 -31.5549 -31.5493 -31.5167 -31.5116
   -31.4900 -31.4806 -31.4784 -31.4709 -31.4387 -31.4365 -31.4283 -31.4257
   -31.4151 -31.4125 -31.4018 -31.3994 -31.3950 -31.3891 -31.3884 -31.3832
   -31.3559 -31.3317 -31.3162 -31.2141 -30.9558 -30.7996 -30.7657 -30.7477
   -30.7476 -30.7452 -30.6539 -30.6537 -30.6175 -30.6147 -30.6147 -30.5987
   -18.7883 -17.7423 -15.4972 -15.4311 -15.3603 -15.3564 -15.2516 -15.1987
   -15.1040 -15.0931 -15.0860 -15.0829 -14.9824 -14.9791 -14.9130 -14.9041
   -14.8648 -14.8581 -14.8543 -14.8377 -14.8228 -14.8177 -14.8028 -14.7559
   -14.7389 -14.7330 -14.5697 -14.5443 -14.4290 -14.4103 -14.0516 -12.9238
   -12.9237 -11.8991  -8.8060  -6.5429  -5.5997  -4.2664  -4.1140  -2.9160
    -2.9131  -2.7885  -2.6614  -2.5284  -2.5162  -2.4954  -2.4590  -2.2924
    -2.2799  -2.2645  -2.2549  -2.2134  -2.2021  -2.1832  -2.1690  -2.1147
    -2.0975  -2.0789  -2.0744  -2.0633  -2.0573  -2.0471  -2.0382  -2.0299
    -2.0062  -1.9590  -1.9376  -1.8558  -1.7705  -1.7608  -1.6833  -1.5545
    -1.5477  -1.5360  -1.5345  -1.5220  -1.5123  -1.4710  -1.4348  -1.3807
    -1.2706  -1.1524  -1.1018  -1.0836  -1.0291  -1.0097  -0.9212  -0.8405
    -0.8059  -0.7875  -0.7021  -0.6534  -0.5744  -0.5589  -0.5223  -0.4717
    -0.4476  -0.4332  -0.4175  -0.4094  -0.3452  -0.3018  -0.2342  -0.2203
    -0.1647  -0.1335  -0.1050  -0.0821  -0.0410   0.0520   0.0598   0.0878
     0.1150   0.1300   0.2046   0.3558   0.3958   0.6351   0.6442   0.7159
     0.8444   0.8669   0.8740   0.9505   0.9640   1.0013   1.0225   1.1428
     1.1656   1.1908   1.3183   1.3536   1.4462   1.9566   1.9574   2.0162
     2.0167   3.5311   4.1329   4.1429   4.1600   4.1733   4.1987   4.2053
     4.2479   4.2610   4.3940   4.4154

     the Fermi energy is     3.6444 ev

!    total energy              =   -2975.23048608 Ry
     estimated scf accuracy    <       0.00000007 Ry
     smearing contrib. (-TS)   =      -0.02107314 Ry
     internal energy E=F+TS    =   -2975.20941293 Ry

     The total energy is F=E-TS. E is the sum of the following terms:
     one-electron contribution =  -23878.61036285 Ry
     hartree contribution      =   12036.72277496 Ry
     xc contribution           =    -494.92342002 Ry
     ewald contribution        =    9361.59905408 Ry
     electric field correction =       0.00254090 Ry

     convergence has been achieved in  62 iterations

     Forces acting on atoms (cartesian axes, Ry/au):

     atom    1 type  1   force =     0.00016706   -0.00023019    0.09948850
     atom    2 type  1   force =    -0.00014367   -0.00038434   -0.17309845
     atom    3 type  2   force =    -0.00006875   -0.00000284   -0.02914560
     atom    4 type  2   force =     0.00003811   -0.00102574    0.04889991
     atom    5 type  2   force =    -0.01224282    0.00099299    0.00047582
     atom    6 type  2   force =     0.01354945    0.00186547   -0.00111972
     atom    7 type  1   force =    -0.00136332   -0.00052454   -0.00301135
     atom    8 type  1   force =     0.00094568   -0.00608861    0.04540475
     atom    9 type  2   force =    -0.00000313   -0.00023114   -0.00002576
     atom   10 type  2   force =    -0.00155955    0.00261777   -0.03095017
     atom   11 type  2   force =    -0.00017053   -0.00045375    0.00005001
     atom   12 type  2   force =     0.00008823   -0.00023768    0.00015371
     atom   13 type  1   force =    -0.00018975   -0.00053875   -0.00032887
     atom   14 type  1   force =     0.00031847   -0.00017660    0.00023745
     atom   15 type  2   force =    -0.00000188   -0.00012459   -0.00028370
     atom   16 type  2   force =    -0.00021850    0.00004763    0.00013282
     atom   17 type  2   force =     0.00017456   -0.00028099    0.00015191
     atom   18 type  2   force =    -0.00005079   -0.00035211    0.00001637
     atom   19 type  1   force =     0.00007102   -0.00014839    0.00035566
     atom   20 type  1   force =    -0.00002191   -0.00056141    0.00029384
     atom   21 type  2   force =     0.00008432   -0.00000731    0.10257730
     atom   22 type  2   force =     0.00008884   -0.00022454   -0.00016276
     atom   23 type  2   force =    -0.07248949   -0.00009223   -0.02847057
     atom   24 type  2   force =     0.07245083    0.00034150   -0.02845152
     atom   25 type  1   force =     0.00009322   -0.00027554    0.09899071
     atom   26 type  1   force =    -0.00005847   -0.00041228   -0.17326735
     atom   27 type  2   force =    -0.00003299    0.00000313   -0.02844743
     atom   28 type  2   force =     0.00009394   -0.00076036    0.04806410
     atom   29 type  2   force =    -0.01261131    0.00063133    0.00051235
     atom   30 type  2   force =     0.01384518    0.00095856   -0.00105604
     atom   31 type  1   force =    -0.00146832    0.00226857   -0.00572585
     atom   32 type  1   force =     0.00112248    0.00383213    0.04592094
     atom   33 type  2   force =    -0.00006582   -0.00026248   -0.00010714
     atom   34 type  2   force =    -0.00096867    0.00134118   -0.03380540
     atom   35 type  2   force =    -0.00028096    0.00004362   -0.00023629
     atom   36 type  2   force =     0.00049234    0.00009955   -0.00002720
     atom   37 type  1   force =    -0.00031432    0.00007745    0.00025866
     atom   38 type  1   force =     0.00019480   -0.00029330    0.00004976
     atom   39 type  2   force =     0.00002593   -0.00050519    0.00038357
     atom   40 type  2   force =    -0.00005073    0.00017121   -0.00026278
     atom   41 type  2   force =    -0.00014737   -0.00024350    0.00004608
     atom   42 type  2   force =     0.00021812   -0.00017591   -0.00005947
     atom   43 type  1   force =     0.00009596    0.00002883   -0.00012619
     atom   44 type  1   force =    -0.00000932   -0.00018443    0.00006377
     atom   45 type  2   force =     0.00009291   -0.00001258    0.10257564
     atom   46 type  2   force =    -0.07251274   -0.00000475   -0.02846179
     atom   47 type  2   force =     0.07246576    0.00038030   -0.02845649
     atom   48 type  3   force =    -0.00011997   -0.00077682   -0.00020045
     atom   49 type  3   force =     0.00014652   -0.00055926   -0.00021149
     atom   50 type  4   force =    -0.00409307    0.00376097   -0.00073305
     atom   51 type  5   force =     0.00472395   -0.00453086    0.00120898
     atom   52 type  5   force =     0.00008463   -0.00011230    0.00025494
     atom   53 type  5   force =    -0.00060282    0.00090551   -0.00008177
     atom   54 type  5   force =     0.00031039    0.00005110    0.00014771
     atom   55 type  2   force =     0.00060213    0.00053986   -0.00026250
     atom   56 type  5   force =    -0.00019750   -0.00037092   -0.00025008
     atom   57 type  5   force =    -0.00052634    0.00020760    0.00011195

     Total force =     0.372163     Total SCF correction =     0.000776
  @ DRIVER MODE: Message from server: STATUS
  @ DRIVER MODE: Message from server: GETFORCE
  @ DRIVER MODE: Returning v,forces,stress,ensemble

     Writing output data file ./calc.save/
  @ DRIVER MODE: Message from server: EXIT
  @ DRIVE MODE: Exiting

     General routines

     Parallel routines

   This run was terminated on:  21:58:33  15Sep2021

   JOB DONE.