     Program PWSCF v.6.7GPU starts on 23Sep2021 at  9:34:50

     R & G space division:  proc/nbgrp/npool/nimage =       8
     Reading input from /storage/home/hcoda1/3/ntian30/research/carbon/CxH_vib/H2O_calc/ads_slab/CH3N2HO_c/out_0028/pw.inp
Warning: card &CELL ignored
Warning: card   CELL_DYNAMICS='IPI', ignored
Warning: card / ignored

     Current dimensions of program PWSCF are:
     Max number of different atomic species (ntypx) = 10
     Max number of k-points (npk) =  40000
     Max angular momentum in pseudopotentials (lmaxx) =  3
     Presently no symmetry can be used with electric field

     Message from routine cell_base_init:
     DEPRECATED: use true lattice parameter, not A to a.u. conversion factor

     IMPORTANT: XC functional enforced from input :
     Exchange-correlation= BEEF-VDW
                           (   1   4  43  14   2   0   0)
     Any further DFT definition will be discarded
     Please, verify this is what you really want

  @ DRIVER MODE: Connecting to
 qe_1139763_2941007.sched-torque.pace.gatech.edu7sovgli9_scratch
  using UNIX socket
  @ DRIVER MODE: Message from server: STATUS
  @ DRIVER MODE: Message from server: INIT
  @ DRIVER MODE: Receiving replica           0          -1
  @ DRIVER MODE: Receiving encoded integer          25
  @ DRIVER MODE:  SCF:  T  FORCE:  T  STRESS:  F  VC:  F  ENSEMBLE:  F
  @ DRIVER MODE:  SCF:  T  FORCE:  T  STRESS:  F  VC:  F  ENSEMBLE:  F

     Using Slab Decomposition

     bravais-lattice index     =            0
     lattice parameter (alat)  =       1.8897  a.u.
     unit-cell volume          =    6658.9804 (a.u.)^3
     number of atoms/cell      =           55
     number of atomic types    =            5
     number of electrons       =       402.00
     number of Kohn-Sham states=          211
     kinetic-energy cutoff     =      29.3995  Ry
     charge density cutoff     =     293.9946  Ry
     scf convergence threshold =      7.3E-08
     mixing beta               =       0.0500
     number of iterations used =            8  plain     mixing
     Exchange-correlation= BEEF-VDW
                           (   1   4  43  14   2   0   0)

     celldm(1)=   1.889726  celldm(2)=   0.000000  celldm(3)=   0.000000
     celldm(4)=   0.000000  celldm(5)=   0.000000  celldm(6)=   0.000000

     crystal axes: (cart. coord. in units of alat)
               a(1) = (   6.579727   0.000000   0.000000 )
               a(2) = (  -0.000775   5.961596   0.000000 )
               a(3) = (   0.000000   0.000000  25.155947 )

     reciprocal axes: (cart. coord. in units 2 pi/alat)
               b(1) = (  0.151982  0.000020  0.000000 )
               b(2) = (  0.000000  0.167740  0.000000 )
               b(3) = (  0.000000  0.000000  0.039752 )

     PseudoPot. # 1 for Ti read from file:
     /storage/coda1/p-amedford6/0/shared/rich_project_chbe-medford/medford-share/data/pseudos_module/espresso/nninc/pbe/van/Ti.UPF
     MD5 check sum: 8e4df49b7f0d34bbd5052bf3f5ea0213
     Pseudo is Ultrasoft, Zval = 12.0
     Generated by new atomic code, or converted to UPF format
     Using radial grid of  851 points,  6 beta functions with:
                l(1) =   0
                l(2) =   0
                l(3) =   1
                l(4) =   1
                l(5) =   2
                l(6) =   2
     Q(r) pseudized with  8 coefficients,  rinner =    1.000   1.000   1.000
                                                       1.000   1.000

     PseudoPot. # 2 for O  read from file:
     /storage/coda1/p-amedford6/0/shared/rich_project_chbe-medford/medford-share/data/pseudos_module/espresso/nninc/pbe/van/O.UPF
     MD5 check sum: 78c19812648e8988a0fe644b0f25305e
     Pseudo is Ultrasoft, Zval =  6.0
     Generated by new atomic code, or converted to UPF format
     Using radial grid of  737 points,  4 beta functions with:
                l(1) =   0
                l(2) =   0
                l(3) =   1
                l(4) =   1
     Q(r) pseudized with  8 coefficients,  rinner =    0.800   0.800   0.800

     PseudoPot. # 3 for N  read from file:
     /storage/coda1/p-amedford6/0/shared/rich_project_chbe-medford/medford-share/data/pseudos_module/espresso/nninc/pbe/van/N.UPF
     MD5 check sum: 90d10febe142ad51ac9d5be1deb811c4
     Pseudo is Ultrasoft, Zval =  5.0
     Generated by new atomic code, or converted to UPF format
     Using radial grid of  729 points,  4 beta functions with:
                l(1) =   0
                l(2) =   0
                l(3) =   1
                l(4) =   1
     Q(r) pseudized with  8 coefficients,  rinner =    0.800   0.800   0.800

     PseudoPot. # 4 for C  read from file:
     /storage/coda1/p-amedford6/0/shared/rich_project_chbe-medford/medford-share/data/pseudos_module/espresso/nninc/pbe/van/C.UPF
     MD5 check sum: 1a69bf6b8db32088f5b2163dbdb77a27
     Pseudo is Ultrasoft, Zval =  4.0
     Generated by new atomic code, or converted to UPF format
     Using radial grid of  721 points,  4 beta functions with:
                l(1) =   0
                l(2) =   0
                l(3) =   1
                l(4) =   1
     Q(r) pseudized with  8 coefficients,  rinner =    0.800   0.800   0.800

     PseudoPot. # 5 for H  read from file:
     /storage/coda1/p-amedford6/0/shared/rich_project_chbe-medford/medford-share/data/pseudos_module/espresso/nninc/pbe/van/H.UPF
     MD5 check sum: b5ee9d7bfd3a09ee7748110bda690ff7
     Pseudo is Ultrasoft, Zval =  1.0
     Generated by new atomic code, or converted to UPF format
     Using radial grid of  615 points,  1 beta functions with:
                l(1) =   0
     Q(r) pseudized with  8 coefficients,  rinner =    0.800

     atomic species   valence    mass     pseudopotential
        Ti1           12.00    47.86700     Ti( 1.00)
        O1             6.00    15.99900     O ( 1.00)
        N1             5.00    14.00700     N ( 1.00)
        C1             4.00    12.01100     C ( 1.00)
        H1             1.00     1.00800     H ( 1.00)

     No symmetry found

   Cartesian axes

     site n.     atom                  positions (alat units)
         1           Ti1 tau(   1) = (   0.0004258   2.9801865   6.0000000  )
         2           Ti1 tau(   2) = (   3.2906075   1.4906267   6.0002472  )
         3           O1  tau(   3) = (   0.0006271   0.0005054   7.9858123  )
         4           O1  tau(   4) = (   3.2906025   0.0005020   7.3038282  )
         5           O1  tau(   5) = (   4.5942328   1.4918067   9.2879030  )
         6           O1  tau(   6) = (   1.9868534   1.4903216   9.2879459  )
         7           Ti1 tau(   7) = (   3.2907910   2.8959150   9.1758416  )
         8           Ti1 tau(   8) = (   0.0015273   1.4827037   9.2680791  )
         9           O1  tau(   9) = (   3.2989311   0.0219330  11.3020621  )
        10           O1  tau(  10) = (   0.0116148   5.9584955  10.6183126  )
        11           O1  tau(  11) = (   1.3029919   1.4976758  12.6257209  )
        12           O1  tau(  12) = (   5.3026591   1.4951023  12.6306759  )
        13           Ti1 tau(  13) = (   0.0286689   2.8598525  12.6759356  )
        14           Ti1 tau(  14) = (   3.3054201   1.5706400  12.4108957  )
        15           O1  tau(  15) = (   0.0066217   5.9386728  14.6456674  )
        16           O1  tau(  16) = (   3.2936494   5.9217248  13.9190535  )
        17           O1  tau(  17) = (   4.5783085   1.5227378  16.0725395  )
        18           O1  tau(  18) = (   2.0661487   1.5008106  16.0935948  )
        19           Ti1 tau(  19) = (   3.3004316   2.9577776  15.6622982  )
        20           Ti1 tau(  20) = (   6.5114840   1.4532315  15.8500040  )
        21           O1  tau(  21) = (   3.2904802   0.0005063   4.7018136  )
        22           O1  tau(  22) = (   0.0101108   5.9483577  17.1703567  )
        23           O1  tau(  23) = (   1.3043587   1.4918075   6.0039043  )
        24           O1  tau(  24) = (   5.2767064   1.4903225   6.0039473  )
        25           Ti1 tau(  25) = (   0.0000382   5.9609847   6.0000000  )
        26           Ti1 tau(  26) = (   3.2902200   4.4714249   6.0002472  )
        27           O1  tau(  27) = (   0.0002396   2.9813036   7.9858123  )
        28           O1  tau(  28) = (   3.2902150   2.9813002   7.3038282  )
        29           O1  tau(  29) = (   4.5938453   4.4726049   9.2879030  )
        30           O1  tau(  30) = (   1.9864658   4.4711199   9.2879459  )
        31           Ti1 tau(  31) = (   3.2891106   5.8743827   9.1763621  )
        32           Ti1 tau(  32) = (   0.0006254   4.4649316   9.2693709  )
        33           O1  tau(  33) = (   3.2985377   2.9527140  11.2683515  )
        34           O1  tau(  34) = (   0.0092240   2.9805883  10.6323155  )
        35           O1  tau(  35) = (   1.2869011   4.4751273  12.6337776  )
        36           O1  tau(  36) = (   5.3033013   4.4751711  12.6363117  )
        37           Ti1 tau(  37) = (   6.5677423   5.8343599  12.5653580  )
        38           Ti1 tau(  38) = (   3.2861748   4.6640272  12.6826305  )
        39           O1  tau(  39) = (   0.0268303   2.9326313  14.6927244  )
        40           O1  tau(  40) = (   3.2973518   2.9805258  13.8830516  )
        41           O1  tau(  41) = (   4.5656241   4.3944478  16.1024780  )
        42           O1  tau(  42) = (   2.0389263   4.3990843  16.1000718  )
        43           Ti1 tau(  43) = (   3.2183859   5.9292641  16.3327267  )
        44           Ti1 tau(  44) = (   6.5399727   4.6159235  16.0325440  )
        45           O1  tau(  45) = (   3.2900926   2.9813045   4.7018136  )
        46           O1  tau(  46) = (   1.3039711   4.4726057   6.0039043  )
        47           O1  tau(  47) = (   5.2763189   4.4711207   6.0039473  )
        48           N1  tau(  48) = (   0.1383159   2.7169024  18.7005470  )
        49           N1  tau(  49) = (   0.0454196   2.8879789  17.5111406  )
        50           C1  tau(  50) = (   0.1807782   3.8735959  19.6428767  )
        51           H1  tau(  51) = (   6.4938760   4.8136915  19.1652781  )
        52           H1  tau(  52) = (   6.0945921   3.6382151  20.4682347  )
        53           H1  tau(  53) = (   1.2016282   3.9139503  20.0277151  )
        54           O1  tau(  54) = (   3.2907091   5.9158944  18.1602194  )
        55           H1  tau(  55) = (   3.1351319   0.7410148  18.7017648  )

     number of k points=    10  Fermi-Dirac smearing, width (Ry)=  0.0073
                       cart. coord. in units 2pi/alat
        k(    1) = (   0.0000000   0.0000000   0.0000000), wk =   0.1250000
        k(    2) = (   0.0000000   0.0419351   0.0000000), wk =   0.2500000
        k(    3) = (   0.0000000  -0.0838702   0.0000000), wk =   0.1250000
        k(    4) = (   0.0379955   0.0000049   0.0000000), wk =   0.2500000
        k(    5) = (   0.0379955   0.0419400   0.0000000), wk =   0.2500000
        k(    6) = (   0.0379955  -0.0838652   0.0000000), wk =   0.2500000
        k(    7) = (   0.0379955  -0.0419301   0.0000000), wk =   0.2500000
        k(    8) = (  -0.0759910  -0.0000099   0.0000000), wk =   0.1250000
        k(    9) = (  -0.0759910   0.0419252   0.0000000), wk =   0.2500000
        k(   10) = (  -0.0759910  -0.0838800   0.0000000), wk =   0.1250000

     Initial potential from superposition of free atoms

     starting charge  385.99915, renormalised to  402.00000

     negative rho (up, down):  1.430E-02 0.000E+00

     %%%%%%%%%%%%%%%%%%%%%%%%%%%%%%%%%%%%%%%%%%%%%%%%%%%%%%%%%%%%%%%%%%%%%%%%
     %                                                                      %
     % You are using vdW-DF, which was implemented by the Thonhauser group. %
     % Please cite the following two papers that made this development      %
     % possible and the two reviews that describe the various versions:     %
     %                                                                      %
     %   T. Thonhauser et al., PRL 115, 136402 (2015).                      %
     %   T. Thonhauser et al., PRB 76, 125112 (2007).                       %
     %   K. Berland et al., Rep. Prog. Phys. 78, 066501 (2015).             %
     %   D.C. Langreth et al., J. Phys.: Condens. Matter 21, 084203 (2009). %
     %                                                                      %
     %                                                                      %
     % If you are calculating the stress with vdW-DF, please also cite:     %
     %                                                                      %
     %   R. Sabatini et al., J. Phys.: Condens. Matter 24, 424209 (2012).   %
     %                                                                      %
     %%%%%%%%%%%%%%%%%%%%%%%%%%%%%%%%%%%%%%%%%%%%%%%%%%%%%%%%%%%%%%%%%%%%%%%%

     Adding external electric field

     Computed dipole along edir(3) :
        Dipole              -12.0462 Ry au,        -30.6184 Debye
        Dipole field         -0.0227 Ry au,

        Potential amp.        2.1073 Ry
        Total length         46.3494 bohr

     Starting wfcs are  304 atomic wfcs
  @ DRIVER MODE: Message from server: STATUS
  @ DRIVER MODE: Message from server: POSDATA
  @ DRIVER MODE: Reading and sharing cell
  @ DRIVER MODE: Reading and sharing positions
  @ DRIVER MODE: Received positions

     Self-consistent Calculation

     iteration #  1     ecut=    29.40 Ry     beta= 0.05
     Davidson diagonalization with overlap
     c_bands:  5 eigenvalues not converged
     c_bands:  3 eigenvalues not converged
     c_bands:  5 eigenvalues not converged
     c_bands:  3 eigenvalues not converged
     c_bands:  3 eigenvalues not converged
     c_bands:  2 eigenvalues not converged
     c_bands:  5 eigenvalues not converged
     c_bands:  5 eigenvalues not converged
     ethr =  1.00E-05,  avg # of iterations = 21.5

[...]

     total energy              =   -2397.69704297 Ry
     estimated scf accuracy    <    6480.68479492 Ry

     iteration #  2     ecut=    29.40 Ry     beta= 0.05
     Davidson diagonalization with overlap
     ethr =  1.00E-02,  avg # of iterations = 22.3

[...]

     iteration # 40     ecut=    29.40 Ry     beta= 0.05
     Davidson diagonalization with overlap
     c_bands:  1 eigenvalues not converged
     ethr =  1.30E-06,  avg # of iterations =  7.6

[...]

     total energy              =   -2972.75299632 Ry
     estimated scf accuracy    <       0.00000010 Ry

     iteration # 65     ecut=    29.40 Ry     beta= 0.05
     Davidson diagonalization with overlap
     ethr =  2.42E-11,  avg # of iterations =  2.2

     negative rho (up, down):  1.493E-02 0.000E+00

     Adding external electric field

     Computed dipole along edir(3) :
        Dipole                0.6534 Ry au,          1.6608 Debye
        Dipole field          0.0012 Ry au,

        Potential amp.       -0.1143 Ry
        Total length         46.3494 bohr

     End of self-consistent calculation

          k = 0.0000 0.0000 0.0000 ( 18029 PWs)   bands (ev):

   -56.2020 -56.1681 -55.7877 -55.7542 -55.5829 -55.5478 -55.4979 -55.3487
   -55.3144 -55.3130 -55.1689 -55.1550 -55.0286 -55.0047 -54.9732 -54.9392
   -32.6523 -32.4943 -32.4674 -32.3604 -32.2765 -32.2678 -32.2673 -32.0318
   -32.0065 -31.9870 -31.9349 -31.9296 -31.9260 -31.8948 -31.8462 -31.8199
   -31.7922 -31.7701 -31.7683 -31.7259 -31.7106 -31.6980 -31.6848 -31.6557
   -31.6380 -31.6248 -31.5545 -31.5332 -31.5247 -31.5210 -31.4988 -31.4653
   -31.4352 -31.4022 -31.3699 -31.3636 -31.3579 -31.3064 -31.2853 -31.2827
   -31.2577 -31.2405 -31.2404 -31.2367 -31.2158 -31.1886 -31.1040 -30.9921
   -18.8077 -16.4953 -16.4421 -16.1607 -15.9540 -15.7790 -15.6950 -15.6828
   -15.6332 -15.5122 -15.5006 -15.3886 -15.3010 -15.2253 -15.1981 -15.1953
   -15.1014 -15.0573 -15.0146 -14.9901 -14.9780 -14.9705 -14.9390 -14.8314
   -14.8236 -14.7953 -14.6969 -14.6858 -14.5820 -14.2858 -14.2700 -13.4712
   -13.3590 -11.4392  -6.9003  -4.3572  -4.1581  -4.0048  -3.9810  -3.9320
    -3.7088  -3.4963  -3.4109  -3.2484  -3.1944  -3.1154  -2.9178  -2.9080
    -2.8534  -2.7827  -2.7077  -2.6488  -2.6022  -2.5853  -2.4903  -2.4522
    -2.4316  -2.4284  -2.3957  -2.3795  -2.2549  -2.2521  -2.2216  -2.1717
    -2.1123  -2.0977  -2.0310  -2.0222  -2.0050  -1.9574  -1.9219  -1.8750
    -1.8015  -1.7896  -1.6527  -1.6293  -1.6218  -1.5424  -1.5157  -1.5068
    -1.4571  -1.2960  -1.2252  -1.1779  -1.1742  -1.0363  -1.0223  -0.9852
    -0.9044  -0.8689  -0.7801  -0.7693  -0.7593  -0.7503  -0.6669  -0.6309
    -0.6153  -0.5894  -0.4068  -0.3782  -0.3161  -0.2640  -0.1646  -0.1206
    -0.1140  -0.1052  -0.0658  -0.0097   0.0118   0.0266   0.1252   0.1499
     0.2043   0.2726   0.3077   0.3800   0.4002   0.4025   0.4139   0.4691
     0.5611   0.6534   0.6963   0.7117   0.7802   0.7944   0.9312   0.9447
     1.0510   1.0925   1.1010   1.1619   1.2820   1.5650   1.5993   1.6385
     2.7573   3.0244   3.1519   3.3088   3.4563   3.5526   3.8443   3.8900
     3.9288   3.9520   3.9944

[...]

          k = 0.0380-0.0419 0.0000 ( 17876 PWs)   bands (ev):

[...]

          k =-0.0760-0.0000 0.0000 ( 17886 PWs)   bands (ev):

[...]

          k =-0.0760-0.0839 0.0000 ( 17948 PWs)   bands (ev):

   -56.1851 -56.1849 -55.7716 -55.7701 -55.5822 -55.5411 -55.5044 -55.3361
   -55.3254 -55.3150 -55.1670 -55.1531 -55.0304 -55.0065 -54.9562 -54.9561
   -32.4799 -32.4797 -32.4684 -32.4682 -32.3126 -32.3120 -32.0919 -32.0883
   -31.9657 -31.9630 -31.9603 -31.9595 -31.8699 -31.8469 -31.8211 -31.8205
   -31.7827 -31.7632 -31.7626 -31.7292 -31.7211 -31.6911 -31.6699 -31.6580
   -31.6048 -31.5982 -31.5749 -31.5581 -31.5425 -31.5422 -31.5263 -31.5057
   -31.4274 -31.4068 -31.3732 -31.3694 -31.3559 -31.3010 -31.2957 -31.2956
   -31.2900 -31.2496 -31.2460 -31.2409 -31.1847 -31.1843 -31.1466 -31.1463
   -18.8049 -16.4331 -15.9040 -15.8949 -15.7685 -15.7634 -15.5891 -15.5754
   -15.5751 -15.4915 -15.4521 -15.4290 -15.2864 -15.2729 -15.2127 -15.1875
   -15.1707 -15.1478 -15.1380 -15.1052 -15.0949 -15.0426 -14.9857 -14.9787
   -14.9197 -14.9121 -14.7546 -14.6924 -14.6467 -14.4987 -14.4050 -13.4623
   -13.4617 -11.4371  -6.9141  -4.2978  -4.1791  -3.9689  -3.9264  -3.0692
    -3.0206  -2.9181  -2.8809  -2.7998  -2.7876  -2.6767  -2.6602  -2.6137
    -2.5974  -2.5890  -2.5438  -2.4975  -2.4876  -2.4653  -2.4389  -2.4240
    -2.4116  -2.3740  -2.3241  -2.3076  -2.3022  -2.2769  -2.1747  -2.1444
    -2.1324  -2.1241  -2.0969  -2.0727  -2.0301  -1.9584  -1.9257  -1.8874
    -1.8755  -1.8058  -1.7439  -1.6948  -1.6782  -1.6113  -1.5548  -1.5298
    -1.4512  -1.4052  -1.2912  -1.2787  -1.2605  -1.1977  -1.1750  -1.1209
    -1.1011  -1.0392  -0.9896  -0.9664  -0.9620  -0.9481  -0.8806  -0.8194
    -0.7096  -0.6637  -0.6477  -0.6134  -0.6089  -0.5798  -0.5455  -0.5085
    -0.4084  -0.3945  -0.3826  -0.3305  -0.3210  -0.2468  -0.1712  -0.0556
     0.0651   0.1422   0.1520   0.1721   0.2115   0.2936   0.3718   0.4124
     0.4578   0.5178   0.5604   0.5998   0.6655   0.8074   0.8591   0.8812
     0.9656   1.0027   1.0734   1.1607   1.4392   1.4500   1.4545   1.4554
     2.8093   3.5735   3.5760   3.6054   3.6163   3.7302   3.8112   3.8288
     3.9535   4.0678   4.0695

     the Fermi energy is     2.9607 ev

!    total energy              =   -2972.75303816 Ry
     estimated scf accuracy    <       0.00000005 Ry
     smearing contrib. (-TS)   =      -0.01284032 Ry
     internal energy E=F+TS    =   -2972.74019784 Ry

     The total energy is F=E-TS. E is the sum of the following terms:
     one-electron contribution =  -23538.59730297 Ry
     hartree contribution      =   11862.90950090 Ry
     xc contribution           =    -493.07142802 Ry
     ewald contribution        =    9196.01822656 Ry
     electric field correction =       0.00080568 Ry

     convergence has been achieved in  65 iterations

     Forces acting on atoms (cartesian axes, Ry/au):

     atom    1 type  1   force =     0.00007694   -0.00037611    0.10680955
     atom    2 type  1   force =    -0.00012679    0.00016083   -0.16544649
     atom    3 type  2   force =     0.00006872   -0.00044786   -0.03888897
     atom    4 type  2   force =     0.00000374    0.00016037    0.03535722
     atom    5 type  2   force =    -0.00262203   -0.00317933   -0.00913191
     atom    6 type  2   force =     0.00444190   -0.00251360   -0.00941718
     atom    7 type  1   force =    -0.00001691    0.00133245    0.03448148
     atom    8 type  1   force =     0.00024002    0.01556272    0.06080891
     atom    9 type  2   force =    -0.00017986   -0.00045373    0.00006379
     atom   10 type  2   force =    -0.00255658    0.00088054   -0.04255362
     atom   11 type  2   force =    -0.00100288    0.00035670    0.00039687
     atom   12 type  2   force =     0.00049941    0.00025702    0.00029131
     atom   13 type  1   force =     0.00044899    0.00068265   -0.00042376
     atom   14 type  1   force =     0.00026051   -0.00015139    0.00041223
     atom   15 type  2   force =     0.00022523    0.00066260    0.00008871
     atom   16 type  2   force =    -0.00009318   -0.00038296   -0.00075721
     atom   17 type  2   force =    -0.00012973    0.00021791    0.00007276
     atom   18 type  2   force =     0.00017404   -0.00002641   -0.00014839
     atom   19 type  1   force =     0.00019559   -0.00094472    0.00008632
     atom   20 type  1   force =     0.00018411    0.00014611   -0.00040730
     atom   21 type  2   force =     0.00003291    0.00013416    0.10039843
     atom   22 type  2   force =     0.00014787    0.00070360   -0.00007779
     atom   23 type  2   force =    -0.07678561   -0.00000493   -0.03011132
     atom   24 type  2   force =     0.07665674    0.00046661   -0.03015696
     atom   25 type  1   force =    -0.00008506   -0.00045438    0.10719072
     atom   26 type  1   force =    -0.00021355   -0.00131589   -0.16549714
     atom   27 type  2   force =     0.00010163   -0.00031960   -0.03718011
     atom   28 type  2   force =     0.00004639   -0.00000341    0.03052134
     atom   29 type  2   force =    -0.00565923    0.00365965   -0.00700238
     atom   30 type  2   force =     0.00729445    0.00400779   -0.00727694
     atom   31 type  1   force =    -0.00011790   -0.00228119    0.02267357
     atom   32 type  1   force =     0.00032527   -0.01776984    0.06127503
     atom   33 type  2   force =    -0.00016989    0.00019855   -0.00015652
     atom   34 type  2   force =    -0.00143749    0.00001304   -0.05426931
     atom   35 type  2   force =    -0.00002608   -0.00018139   -0.00020220
     atom   36 type  2   force =    -0.00029334    0.00004529   -0.00004566
     atom   37 type  1   force =     0.00013288   -0.00006603    0.00056595
     atom   38 type  1   force =     0.00033546    0.00001685    0.00013023
     atom   39 type  2   force =    -0.00012212    0.00028545   -0.00033401
     atom   40 type  2   force =     0.00001051    0.00030379    0.00049428
     atom   41 type  2   force =    -0.00024285    0.00021158   -0.00012005
     atom   42 type  2   force =     0.00022149   -0.00000527   -0.00002400
     atom   43 type  1   force =     0.00020495    0.00048380    0.00036213
     atom   44 type  1   force =     0.00032221    0.00021499   -0.00037897
     atom   45 type  2   force =     0.00003628    0.00013565    0.10023593
     atom   46 type  2   force =    -0.07675964    0.00003387   -0.03009479
     atom   47 type  2   force =     0.07661948    0.00047029   -0.03011430
     atom   48 type  3   force =    -0.00030724    0.00063388   -0.00039960
     atom   49 type  3   force =     0.00038778   -0.00036764   -0.00018863
     atom   50 type  4   force =     0.00160105    0.00235752   -0.00217273
     atom   51 type  5   force =     0.00046139   -0.00049224   -0.00126237
     atom   52 type  5   force =    -0.00176401   -0.00287644    0.00158342
     atom   53 type  5   force =     0.00019523    0.00009673   -0.00056661
     atom   54 type  2   force =     0.00019238   -0.00017689    0.00165839
     atom   55 type  5   force =    -0.00143359   -0.00010174   -0.00115134

     Total force =     0.380778     Total SCF correction =     0.000583
  @ DRIVER MODE: Message from server: STATUS
  @ DRIVER MODE: Message from server: GETFORCE
  @ DRIVER MODE: Returning v,forces,stress,ensemble

     Writing output data file ./calc.save/
  @ DRIVER MODE: Message from server: EXIT
  @ DRIVE MODE: Exiting

     General routines

     Parallel routines

   This run was terminated on:   9:56:28  23Sep2021

   JOB DONE.