     Program PWSCF v.6.7GPU starts on 16Jul2021 at 13:51:42

     R & G space division:  proc/nbgrp/npool/nimage =      16
     Reading input from /storage/home/hcoda1/3/ntian30/research/carbon/15Jul_vib/ads_slab/CH3NNHHH_a/out_0026/pw.inp
Warning: card &CELL ignored
Warning: card   CELL_DYNAMICS='IPI', ignored
Warning: card / ignored

     Current dimensions of program PWSCF are:
     Max number of different atomic species (ntypx) = 10
     Max number of k-points (npk) =  40000
     Max angular momentum in pseudopotentials (lmaxx) =  3
     Presently no symmetry can be used with electric field

     Message from routine cell_base_init:
     DEPRECATED: use true lattice parameter, not A to a.u. conversion factor

     IMPORTANT: XC functional enforced from input :
     Exchange-correlation= BEEF-VDW
                           (   1   4  43  14   2   0   0)
     Any further DFT definition will be discarded
     Please, verify this is what you really want

  @ DRIVER MODE: Connecting to
 qe_1139763_2351652.sched-torque.pace.gatech.edubcj63_jt_scratch
  using UNIX socket
  @ DRIVER MODE: Message from server: STATUS
  @ DRIVER MODE: Message from server: INIT
  @ DRIVER MODE: Receiving replica           0          -1
  @ DRIVER MODE: Receiving encoded integer          25
  @ DRIVER MODE:  SCF:  T  FORCE:  T  STRESS:  F  VC:  F  ENSEMBLE:  F
  @ DRIVER MODE:  SCF:  T  FORCE:  T  STRESS:  F  VC:  F  ENSEMBLE:  F

     Using Slab Decomposition

     bravais-lattice index     =            0
     lattice parameter (alat)  =       1.8897  a.u.
     unit-cell volume          =    6658.9804 (a.u.)^3
     number of atoms/cell      =           56
     number of atomic types    =            5
     number of electrons       =       398.00
     number of Kohn-Sham states=          209
     kinetic-energy cutoff     =      29.3995  Ry
     charge density cutoff     =     293.9946  Ry
     scf convergence threshold =      7.3E-08
     mixing beta               =       0.0500
     number of iterations used =            8  plain     mixing
     Exchange-correlation= BEEF-VDW
                           (   1   4  43  14   2   0   0)

     celldm(1)=   1.889726  celldm(2)=   0.000000  celldm(3)=   0.000000
     celldm(4)=   0.000000  celldm(5)=   0.000000  celldm(6)=   0.000000

     crystal axes: (cart. coord. in units of alat)
               a(1) = (   6.579727   0.000000   0.000000 )
               a(2) = (  -0.000775   5.961596   0.000000 )
               a(3) = (   0.000000   0.000000  25.155947 )

     reciprocal axes: (cart. coord. in units 2 pi/alat)
               b(1) = (  0.151982  0.000020  0.000000 )
               b(2) = (  0.000000  0.167740  0.000000 )
               b(3) = (  0.000000  0.000000  0.039752 )

     PseudoPot. # 1 for Ti read from file:
     /storage/coda1/p-amedford6/0/shared/rich_project_chbe-medford/medford-share/data/pseudos_module/espresso/nninc/pbe/van/Ti.UPF
     MD5 check sum: 8e4df49b7f0d34bbd5052bf3f5ea0213
     Pseudo is Ultrasoft, Zval = 12.0
     Generated by new atomic code, or converted to UPF format
     Using radial grid of  851 points,  6 beta functions with:
                l(1) =   0
                l(2) =   0
                l(3) =   1
                l(4) =   1
                l(5) =   2
                l(6) =   2
     Q(r) pseudized with  8 coefficients,  rinner =    1.000   1.000   1.000
                                                       1.000   1.000

     PseudoPot. # 2 for O  read from file:
     /storage/coda1/p-amedford6/0/shared/rich_project_chbe-medford/medford-share/data/pseudos_module/espresso/nninc/pbe/van/O.UPF
     MD5 check sum: 78c19812648e8988a0fe644b0f25305e
     Pseudo is Ultrasoft, Zval =  6.0
     Generated by new atomic code, or converted to UPF format
     Using radial grid of  737 points,  4 beta functions with:
                l(1) =   0
                l(2) =   0
                l(3) =   1
                l(4) =   1
     Q(r) pseudized with  8 coefficients,  rinner =    0.800   0.800   0.800

     PseudoPot. # 3 for N  read from file:
     /storage/coda1/p-amedford6/0/shared/rich_project_chbe-medford/medford-share/data/pseudos_module/espresso/nninc/pbe/van/N.UPF
     MD5 check sum: 90d10febe142ad51ac9d5be1deb811c4
     Pseudo is Ultrasoft, Zval =  5.0
     Generated by new atomic code, or converted to UPF format
     Using radial grid of  729 points,  4 beta functions with:
                l(1) =   0
                l(2) =   0
                l(3) =   1
                l(4) =   1
     Q(r) pseudized with  8 coefficients,  rinner =    0.800   0.800   0.800

     PseudoPot. # 4 for C  read from file:
     /storage/coda1/p-amedford6/0/shared/rich_project_chbe-medford/medford-share/data/pseudos_module/espresso/nninc/pbe/van/C.UPF
     MD5 check sum: 1a69bf6b8db32088f5b2163dbdb77a27
     Pseudo is Ultrasoft, Zval =  4.0
     Generated by new atomic code, or converted to UPF format
     Using radial grid of  721 points,  4 beta functions with:
                l(1) =   0
                l(2) =   0
                l(3) =   1
                l(4) =   1
     Q(r) pseudized with  8 coefficients,  rinner =    0.800   0.800   0.800

     PseudoPot. # 5 for H  read from file:
     /storage/coda1/p-amedford6/0/shared/rich_project_chbe-medford/medford-share/data/pseudos_module/espresso/nninc/pbe/van/H.UPF
     MD5 check sum: b5ee9d7bfd3a09ee7748110bda690ff7
     Pseudo is Ultrasoft, Zval =  1.0
     Generated by new atomic code, or converted to UPF format
     Using radial grid of  615 points,  1 beta functions with:
                l(1) =   0
     Q(r) pseudized with  8 coefficients,  rinner =    0.800

     atomic species   valence    mass     pseudopotential
        Ti1           12.00    47.86700     Ti( 1.00)
        O1             6.00    15.99900     O ( 1.00)
        N1             5.00    14.00700     N ( 1.00)
        C1             4.00    12.01100     C ( 1.00)
        H1             1.00     1.00800     H ( 1.00)

     Starting magnetic structure
     atomic species   magnetization
        Ti1          0.000
        O1           0.000
        N1           0.000
        C1           0.025
        H1           0.000

     No symmetry found

   Cartesian axes

     site n.     atom                  positions (alat units)
         1           Ti1 tau(   1) = (   0.0004258   2.9801865   6.0000000  )
         2           Ti1 tau(   2) = (   3.2906075   1.4906267   6.0002472  )
         3           O1  tau(   3) = (   0.0006271   0.0005054   7.9858123  )
         4           O1  tau(   4) = (   3.2906025   0.0005020   7.3038282  )
         5           O1  tau(   5) = (   4.5942328   1.4918067   9.2879030  )
         6           O1  tau(   6) = (   1.9868534   1.4903216   9.2879459  )
         7           Ti1 tau(   7) = (   3.2907910   2.8959150   9.1758416  )
         8           Ti1 tau(   8) = (   0.0015273   1.4827037   9.2680791  )
         9           O1  tau(   9) = (   3.2969863   5.9453513  11.3493076  )
        10           O1  tau(  10) = (   0.0116148   5.9584955  10.6183126  )
        11           O1  tau(  11) = (   1.3059050   1.4736943  12.6642453  )
        12           O1  tau(  12) = (   5.3003793   1.4775083  12.6459419  )
        13           Ti1 tau(  13) = (   0.0167275   2.9625105  12.5508078  )
        14           Ti1 tau(  14) = (   3.3131340   1.4712512  12.4909780  )
        15           O1  tau(  15) = (   6.5517612   5.9325698  14.7566896  )
        16           O1  tau(  16) = (   3.3302114   5.9429442  13.9823395  )
        17           O1  tau(  17) = (   4.5243935   1.5056208  16.2316672  )
        18           O1  tau(  18) = (   2.0170937   1.4633510  16.1378485  )
        19           Ti1 tau(  19) = (   3.2500237   2.9242626  15.6920970  )
        20           Ti1 tau(  20) = (   6.5441017   1.2779805  16.1516014  )
        21           O1  tau(  21) = (   3.2904802   0.0005063   4.7018136  )
        22           O1  tau(  22) = (   6.5540411   5.9581837  17.3465722  )
        23           O1  tau(  23) = (   1.3043587   1.4918075   6.0039043  )
        24           O1  tau(  24) = (   5.2767064   1.4903225   6.0039473  )
        25           Ti1 tau(  25) = (   0.0000382   5.9609847   6.0000000  )
        26           Ti1 tau(  26) = (   3.2902200   4.4714249   6.0002472  )
        27           O1  tau(  27) = (   0.0002396   2.9813036   7.9858123  )
        28           O1  tau(  28) = (   3.2902150   2.9813002   7.3038282  )
        29           O1  tau(  29) = (   4.5938453   4.4726049   9.2879030  )
        30           O1  tau(  30) = (   1.9864658   4.4711199   9.2879459  )
        31           Ti1 tau(  31) = (   3.2891106   5.8743827   9.1763621  )
        32           Ti1 tau(  32) = (   0.0006254   4.4649316   9.2693709  )
        33           O1  tau(  33) = (   3.2962403   2.9651072  11.3429128  )
        34           O1  tau(  34) = (   0.0092240   2.9805883  10.6323155  )
        35           O1  tau(  35) = (   1.3076126   4.4641214  12.6643835  )
        36           O1  tau(  36) = (   5.2981430   4.4591552  12.6429889  )
        37           Ti1 tau(  37) = (   0.0194730   5.9489450  12.5196332  )
        38           Ti1 tau(  38) = (   3.3150505   4.4522436  12.4946186  )
        39           O1  tau(  39) = (   6.5702761   2.9869041  14.8038460  )
        40           O1  tau(  40) = (   3.3119818   2.9576719  13.9204832  )
        41           O1  tau(  41) = (   4.5223198   4.3950437  16.2490866  )
        42           O1  tau(  42) = (   2.0356696   4.4339808  16.1311045  )
        43           Ti1 tau(  43) = (   3.3057863   5.9493229  15.7677403  )
        44           Ti1 tau(  44) = (   0.0958844   4.4293496  15.8701971  )
        45           O1  tau(  45) = (   3.2900926   2.9813045   4.7018136  )
        46           O1  tau(  46) = (   1.3039711   4.4726057   6.0039043  )
        47           O1  tau(  47) = (   5.2763189   4.4711207   6.0039473  )
        48           N1  tau(  48) = (   0.0620580   3.0375546  17.6897758  )
        49           C1  tau(  49) = (   1.1116374   2.9693208  18.6984743  )
        50           H1  tau(  50) = (   1.2951007   3.9532040  19.1583453  )
        51           H1  tau(  51) = (   0.8627774   2.2426413  19.4871689  )
        52           H1  tau(  52) = (   2.0363963   2.6228967  18.2308865  )
        53           N1  tau(  53) = (   5.4279256   3.3744730  18.4033390  )
        54           H1  tau(  54) = (   5.6103604   4.1199394  19.0852601  )
        55           H1  tau(  55) = (   4.7934260   3.8076565  17.6395878  )
        56           H1  tau(  56) = (   5.0090149   2.5598412  18.8678436  )

     number of k points=    10  Fermi-Dirac smearing, width (Ry)=  0.0073
                       cart. coord. in units 2pi/alat
        k(    1) = (   0.0000000   0.0000000   0.0000000), wk =   0.0625000
        k(    2) = (   0.0000000   0.0419351   0.0000000), wk =   0.1250000
        k(    3) = (   0.0000000  -0.0838702   0.0000000), wk =   0.0625000
        k(    4) = (   0.0379955   0.0000049   0.0000000), wk =   0.1250000
        k(    5) = (   0.0379955   0.0419400   0.0000000), wk =   0.1250000
[...]
     % Please cite the following two papers that made this development      %
     % possible and the two reviews that describe the various versions:     %
     %                                                                      %
     %   T. Thonhauser et al., PRL 115, 136402 (2015).                      %
     %   T. Thonhauser et al., PRB 76, 125112 (2007).                       %
     %   K. Berland et al., Rep. Prog. Phys. 78, 066501 (2015).             %
     %   D.C. Langreth et al., J. Phys.: Condens. Matter 21, 084203 (2009). %
     %                                                                      %
     %                                                                      %
     % If you are calculating the stress with vdW-DF, please also cite:     %
     %                                                                      %
     %   R. Sabatini et al., J. Phys.: Condens. Matter 24, 424209 (2012).   %
     %                                                                      %
     %%%%%%%%%%%%%%%%%%%%%%%%%%%%%%%%%%%%%%%%%%%%%%%%%%%%%%%%%%%%%%%%%%%%%%%%

     Adding external electric field

     Computed dipole along edir(3) :
        Dipole              -10.5729 Ry au,        -26.8736 Debye
        Dipole field         -0.0200 Ry au,

        Potential amp.        1.8496 Ry
        Total length         46.3494 bohr

[...]

     Starting wfcs are  302 atomic wfcs
  @ DRIVER MODE: Message from server: STATUS
  @ DRIVER MODE: Message from server: POSDATA
  @ DRIVER MODE: Reading and sharing cell
  @ DRIVER MODE: Reading and sharing positions
  @ DRIVER MODE: Received positions

     Self-consistent Calculation

     iteration #  1     ecut=    29.40 Ry     beta= 0.05
     Davidson diagonalization with overlap
     c_bands:  4 eigenvalues not converged
     c_bands:  3 eigenvalues not converged
     c_bands:  1 eigenvalues not converged
     c_bands:  4 eigenvalues not converged
     c_bands:  5 eigenvalues not converged
     c_bands:  5 eigenvalues not converged
     c_bands:  1 eigenvalues not converged
     c_bands:  5 eigenvalues not converged
     c_bands:  3 eigenvalues not converged
     c_bands:  3 eigenvalues not converged
     c_bands:  2 eigenvalues not converged
     c_bands:  1 eigenvalues not converged
     c_bands:  4 eigenvalues not converged
     c_bands:  5 eigenvalues not converged
     c_bands:  4 eigenvalues not converged
     c_bands:  5 eigenvalues not converged
     c_bands:  3 eigenvalues not converged
     ethr =  1.00E-05,  avg # of iterations = 20.0

[...]

     total energy              =   -2443.29745228 Ry
     estimated scf accuracy    <    5586.04515004 Ry

     total magnetization       =     0.00 Bohr mag/cell
     absolute magnetization    =     0.01 Bohr mag/cell

[...]

     iteration #  3     ecut=    29.40 Ry     beta= 0.05
     Davidson diagonalization with overlap
     ethr =  1.00E-02,  avg # of iterations = 15.5

[...]

     iteration #127     ecut=    29.40 Ry     beta= 0.05
     Davidson diagonalization with overlap
     ethr =  2.91E-11,  avg # of iterations = 10.2

[...]

     total energy              =   -2942.82545888 Ry
     estimated scf accuracy    <       0.00000010 Ry

[...]

     iteration #128     ecut=    29.40 Ry     beta= 0.05
     Davidson diagonalization with overlap
     c_bands:  2 eigenvalues not converged
     c_bands:  2 eigenvalues not converged
     ethr =  2.63E-11,  avg # of iterations = 13.6

     negative rho (up, down):  7.264E-03 7.270E-03

[...]

     Adding external electric field

     Computed dipole along edir(3) :
        Dipole                1.6172 Ry au,          4.1106 Debye
        Dipole field          0.0031 Ry au,

        Potential amp.       -0.2829 Ry
        Total length         46.3494 bohr

     Magnetic moment per site  (integrated on atomic sphere of radius R)
     atom   1 (R=0.723)  charge=  7.9140  magn= -0.0066
     atom   2 (R=0.723)  charge=  7.8963  magn= -0.0006
     atom   3 (R=0.633)  charge=  4.2080  magn=  0.0005
     atom   4 (R=0.633)  charge=  4.2373  magn=  0.0001
     atom   5 (R=0.633)  charge=  4.2138  magn=  0.0001
     atom   6 (R=0.633)  charge=  4.2139  magn=  0.0001
     atom   7 (R=0.723)  charge=  7.8964  magn= -0.0003
     atom   8 (R=0.723)  charge=  7.8945  magn= -0.0031
     atom   9 (R=0.633)  charge=  4.2238  magn=  0.0001
     atom  10 (R=0.633)  charge=  4.2125  magn=  0.0002
     atom  11 (R=0.633)  charge=  4.2093  magn=  0.0001
     atom  12 (R=0.633)  charge=  4.2112  magn=  0.0001
     atom  13 (R=0.723)  charge=  7.8926  magn= -0.0009
     atom  14 (R=0.723)  charge=  7.9040  magn= -0.0005
     atom  15 (R=0.633)  charge=  4.2098  magn=  0.0000
     atom  16 (R=0.633)  charge=  4.2161  magn=  0.0001
     atom  17 (R=0.633)  charge=  4.2035  magn=  0.0000
     atom  18 (R=0.633)  charge=  4.2034  magn=  0.0000
     atom  19 (R=0.723)  charge=  7.9505  magn= -0.0004
     atom  20 (R=0.723)  charge=  7.9298  magn= -0.0001
     atom  21 (R=0.633)  charge=  4.1284  magn=  0.0007
     atom  22 (R=0.633)  charge=  4.1764  magn=  0.0000
     atom  23 (R=0.633)  charge=  4.2074  magn=  0.0007
     atom  24 (R=0.633)  charge=  4.2074  magn=  0.0007
     atom  25 (R=0.723)  charge=  7.9141  magn= -0.0066
     atom  26 (R=0.723)  charge=  7.8963  magn= -0.0006
     atom  27 (R=0.633)  charge=  4.2076  magn=  0.0005
     atom  28 (R=0.633)  charge=  4.2375  magn=  0.0001
     atom  29 (R=0.633)  charge=  4.2143  magn=  0.0001
     atom  30 (R=0.633)  charge=  4.2144  magn=  0.0001
     atom  31 (R=0.723)  charge=  7.8969  magn= -0.0003
     atom  32 (R=0.723)  charge=  7.8947  magn= -0.0030
     atom  33 (R=0.633)  charge=  4.2222  magn=  0.0001
     atom  34 (R=0.633)  charge=  4.2053  magn=  0.0002
     atom  35 (R=0.633)  charge=  4.2090  magn=  0.0001
     atom  36 (R=0.633)  charge=  4.2115  magn=  0.0001
     atom  37 (R=0.723)  charge=  7.8964  magn= -0.0008
     atom  38 (R=0.723)  charge=  7.9034  magn= -0.0005
     atom  39 (R=0.633)  charge=  4.1926  magn=  0.0000
     atom  40 (R=0.633)  charge=  4.2343  magn=  0.0001
     atom  41 (R=0.633)  charge=  4.2025  magn=  0.0000
     atom  42 (R=0.633)  charge=  4.2135  magn=  0.0000
     atom  43 (R=0.723)  charge=  7.9399  magn= -0.0006
     atom  44 (R=0.723)  charge=  7.9262  magn= -0.0001
     atom  45 (R=0.633)  charge=  4.1284  magn=  0.0007
     atom  46 (R=0.633)  charge=  4.2074  magn=  0.0007
     atom  47 (R=0.633)  charge=  4.2074  magn=  0.0007
     atom  48 (R=0.423)  charge=  1.3356  magn= -0.0000
     atom  49 (R=0.451)  charge=  0.8550  magn=  0.0000
     atom  50 (R=0.423)  charge=  0.4486  magn= -0.0000
     atom  51 (R=0.423)  charge=  0.4499  magn= -0.0000
     atom  52 (R=0.423)  charge=  0.4501  magn= -0.0000
     atom  53 (R=0.423)  charge=  1.3749  magn=  0.0000
     atom  54 (R=0.423)  charge=  0.4520  magn=  0.0000
     atom  55 (R=0.423)  charge=  0.3988  magn= -0.0000
     atom  56 (R=0.423)  charge=  0.4521  magn=  0.0000

     End of self-consistent calculation

 ------ SPIN UP ------------

          k = 0.0000 0.0000 0.0000 ( 18029 PWs)   bands (ev):

   -55.1347 -55.0981 -55.0904 -55.0563 -55.0169 -55.0018 -54.9788 -54.9362
   -54.9217 -54.9153 -54.9012 -54.8886 -54.8572 -54.7861 -54.1077 -54.0736
   -31.7147 -31.5834 -31.5035 -31.4717 -31.4266 -31.4238 -31.4236 -31.3946
   -31.3908 -31.3794 -31.3593 -31.3442 -31.3347 -31.3122 -31.2946 -31.2692
   -31.2522 -31.2424 -31.2374 -31.2335 -31.2049 -31.2009 -31.1940 -31.1675
   -31.1461 -31.1458 -31.1392 -31.1327 -31.1303 -31.1205 -31.1175 -31.1126
   -31.0943 -31.0862 -31.0812 -31.0526 -31.0505 -31.0392 -31.0304 -31.0286
   -31.0173 -30.9757 -30.5161 -30.4239 -30.4018 -30.3326 -30.2459 -30.1349
   -18.9399 -15.9995 -15.7451 -15.6095 -15.3747 -15.3228 -15.2662 -15.0611
   -15.0572 -14.9861 -14.9710 -14.9222 -14.9025 -14.8351 -14.7506 -14.7309
   -14.6622 -14.6602 -14.6306 -14.6204 -14.6184 -14.5558 -14.5461 -14.5164
   -14.5036 -14.4784 -14.3600 -14.2757 -14.2174 -13.9678 -13.5937 -12.6123
   -12.4952  -9.7392  -7.7238  -7.2123  -5.4583  -3.8183  -3.3366  -3.2644
    -3.1619  -3.1327  -3.0553  -3.0260  -2.8412  -2.8204  -2.4790  -2.4427
    -2.3929  -2.3750  -2.3532  -2.3360  -2.1685  -2.1425  -2.0696  -2.0363
    -2.0183  -1.9769  -1.9607  -1.9501  -1.9167  -1.9114  -1.9020  -1.6949
    -1.6383  -1.5432  -1.5210  -1.4995  -1.4618  -1.4264  -1.4168  -1.4140
    -1.4082  -1.3947  -1.3826  -1.3018  -1.2441  -1.1628  -1.1537  -1.1182
    -1.0141  -0.9690  -0.7668  -0.7525  -0.7068  -0.6646  -0.6018  -0.5812
    -0.5138  -0.4832  -0.4645  -0.3428  -0.3141  -0.2745  -0.2463  -0.1786
    -0.1487  -0.1029  -0.0193   0.0520   0.0880   0.1060   0.1651   0.2951
     0.3067   0.3359   0.3971   0.4609   0.5011   0.5212   0.5398   0.5766
     0.6269   0.7524   0.7970   0.8170   0.8211   0.8548   0.8777   0.9288
     0.9535   1.0140   1.0195   1.1373   1.2066   1.4335   1.4680   1.4937
     1.8259   1.8495   1.9133   2.0995   2.4869   2.5344   3.9724   4.0316
     4.0874   4.1107   4.1250   4.2134   4.2440   4.4327   4.4601   4.4657
     4.4686

[...]

          k =-0.0760-0.0000 0.0000 ( 17886 PWs)   bands (ev):

[...]

 ------ SPIN DOWN ----------

[...]

          k = 0.0380-0.0419 0.0000 ( 17876 PWs)   bands (ev):

[...]

          k =-0.0760-0.0839 0.0000 ( 17948 PWs)   bands (ev):

   -55.1201 -55.1143 -55.0855 -55.0855 -55.0078 -54.9990 -54.9908 -54.9208
   -54.9192 -54.9168 -54.9114 -54.9100 -54.8536 -54.7899 -54.0923 -54.0921
   -31.5189 -31.5160 -31.4392 -31.4174 -31.4038 -31.4038 -31.3786 -31.3785
   -31.3466 -31.3408 -31.3379 -31.3374 -31.3040 -31.2681 -31.2620 -31.2575
   -31.2560 -31.2521 -31.2515 -31.2453 -31.2124 -31.2106 -31.2081 -31.2059
   -31.2059 -31.2042 -31.1850 -31.1835 -31.1554 -31.1508 -31.1353 -31.1314
   -31.1303 -31.1296 -31.1278 -31.1189 -31.0951 -31.0923 -31.0893 -31.0659
   -31.0405 -31.0228 -30.4162 -30.4161 -30.3301 -30.3300 -30.2908 -30.2908
   -18.9351 -15.5063 -15.3966 -15.2892 -15.2233 -15.1806 -15.1291 -15.1115
   -15.1008 -15.0560 -15.0263 -14.9571 -14.8925 -14.8393 -14.8383 -14.8041
   -14.7256 -14.7117 -14.7045 -14.6941 -14.6373 -14.6306 -14.5991 -14.5780
   -14.5749 -14.5455 -14.4714 -14.4690 -14.3833 -14.1766 -13.6296 -12.5944
   -12.5943  -9.7084  -7.7205  -7.1578  -5.4612  -3.8403  -3.4187  -2.7548
    -2.6439  -2.4337  -2.4075  -2.3473  -2.3275  -2.2431  -2.1820  -2.1601
    -2.1366  -2.1026  -2.0996  -2.0757  -2.0537  -2.0005  -1.9715  -1.9597
    -1.9539  -1.9391  -1.9263  -1.9061  -1.8500  -1.8398  -1.8324  -1.7898
    -1.7789  -1.7470  -1.7408  -1.7019  -1.6852  -1.6105  -1.5165  -1.4922
    -1.4333  -1.3320  -1.3177  -1.3121  -1.2192  -1.2105  -1.1810  -1.1500
    -1.0955  -0.9965  -0.9414  -0.8648  -0.8615  -0.8323  -0.7448  -0.6807
    -0.6474  -0.6378  -0.5987  -0.5409  -0.5190  -0.4846  -0.4019  -0.3604
    -0.3334  -0.2994  -0.2042  -0.1432  -0.1197  -0.0878  -0.0843   0.0043
     0.0377   0.0743   0.0951   0.1335   0.1603   0.2244   0.2469   0.3572
     0.4253   0.4571   0.5762   0.6004   0.6641   0.7965   0.8680   0.9085
     0.9611   1.0194   1.0468   1.1777   1.1849   1.2036   1.3031   1.3434
     1.3503   1.3633   2.2736   2.2746   2.3563   2.3565   4.1006   4.1874
     4.2306   4.2682   4.3750   4.4830   4.5015   4.5449   4.5454   4.6201
     4.6258

     the Fermi energy is     4.0217 ev

!    total energy              =   -2942.82545944 Ry
     estimated scf accuracy    <       0.00000007 Ry
     smearing contrib. (-TS)   =      -0.03684425 Ry
     internal energy E=F+TS    =   -2942.78861520 Ry

     The total energy is F=E-TS. E is the sum of the following terms:
     one-electron contribution =  -23972.17401531 Ry
     hartree contribution      =   12081.65851711 Ry
     xc contribution           =    -487.76711430 Ry
     ewald contribution        =    9435.48906155 Ry
     electric field correction =       0.00493576 Ry

     total magnetization       =    -0.03 Bohr mag/cell
     absolute magnetization    =     0.05 Bohr mag/cell

     convergence has been achieved in 128 iterations

     Forces acting on atoms (cartesian axes, Ry/au):

     atom    1 type  1   force =     0.00014952   -0.00022199    0.09431265
     atom    2 type  1   force =    -0.00009639   -0.00033102   -0.17740342
     atom    3 type  2   force =     0.00005576   -0.00016322   -0.02136342
     atom    4 type  2   force =    -0.00001501   -0.00172672    0.05658427
     atom    5 type  2   force =    -0.01054989   -0.00127574    0.00623972
     atom    6 type  2   force =     0.01221747   -0.00074102    0.00571176
     atom    7 type  1   force =    -0.00032742    0.00172237   -0.01618781
     atom    8 type  1   force =    -0.00011197    0.00438641    0.00560739
     atom    9 type  2   force =     0.00001026   -0.00004573   -0.00004936
     atom   10 type  2   force =    -0.00074261   -0.00022276   -0.00044912
     atom   11 type  2   force =     0.00034970    0.00012336   -0.00019684
     atom   12 type  2   force =    -0.00052108    0.00000070   -0.00013303
     atom   13 type  1   force =     0.00004223   -0.00035390    0.00013639
     atom   14 type  1   force =     0.00055730    0.00011837   -0.00031959
     atom   15 type  2   force =    -0.00040277    0.00024108   -0.00019243
     atom   16 type  2   force =    -0.00032674    0.00019425   -0.00006199
     atom   17 type  2   force =    -0.00017027    0.00009835    0.00044675
     atom   18 type  2   force =     0.00011881    0.00026975   -0.00018758
     atom   19 type  1   force =     0.00010393    0.00004845    0.00002771
     atom   20 type  1   force =     0.00014415    0.00051831   -0.00046556
     atom   21 type  2   force =     0.00003678    0.00004170    0.10363755
     atom   22 type  2   force =    -0.00005372   -0.00080473   -0.00030511
     atom   23 type  2   force =    -0.07081281   -0.00010521   -0.02717697
     atom   24 type  2   force =     0.07067839    0.00033880   -0.02720811
     atom   25 type  1   force =    -0.00009647   -0.00019536    0.09373913
     atom   26 type  1   force =    -0.00015215   -0.00032221   -0.17732764
     atom   27 type  2   force =     0.00008738   -0.00035368   -0.02046076
     atom   28 type  2   force =     0.00003075   -0.00144143    0.05589442
     atom   29 type  2   force =    -0.01091172   -0.00073767    0.00608878
     atom   30 type  2   force =     0.01246402   -0.00029156    0.00556748
     atom   31 type  1   force =    -0.00017655    0.00462362   -0.01721467
     atom   32 type  1   force =    -0.00003850   -0.00480307    0.00558717
     atom   33 type  2   force =     0.00005632    0.00012393    0.00026735
     atom   34 type  2   force =     0.00005769   -0.00085224   -0.00298296
     atom   35 type  2   force =     0.00024006    0.00003293    0.00007306
     atom   36 type  2   force =    -0.00043383    0.00015798   -0.00007349
     atom   37 type  1   force =    -0.00012782   -0.00010740   -0.00017895
     atom   38 type  1   force =     0.00043213   -0.00028577    0.00037753
     atom   39 type  2   force =    -0.00045743    0.00009653    0.00073288
     atom   40 type  2   force =    -0.00011510    0.00018783   -0.00022323
     atom   41 type  2   force =     0.00010728    0.00027776    0.00027540
     atom   42 type  2   force =    -0.00007350    0.00025506   -0.00008130
     atom   43 type  1   force =    -0.00047008    0.00058718   -0.00006824
     atom   44 type  1   force =    -0.00015592    0.00033886   -0.00022361
     atom   45 type  2   force =     0.00002567    0.00001070    0.10363916
     atom   46 type  2   force =    -0.07081562   -0.00003482   -0.02718381
     atom   47 type  2   force =     0.07068134    0.00038419   -0.02718901
     atom   48 type  3   force =     0.00108274   -0.00104595   -0.00013153
     atom   49 type  4   force =     0.00811789   -0.00234711   -0.00397480
     atom   50 type  5   force =    -0.00017722    0.00008481    0.00012971
     atom   51 type  5   force =    -0.00002428   -0.00039063   -0.00013243
     atom   52 type  5   force =    -0.00985809    0.00281971    0.00402159
     atom   53 type  3   force =     0.00062169    0.00070812    0.00137368
     atom   54 type  5   force =     0.00013738    0.00009625   -0.00020262
     atom   55 type  5   force =    -0.00007910    0.00018123   -0.00092641
     atom   56 type  5   force =    -0.00031257    0.00013235   -0.00019575

     Total force =     0.365871     Total SCF correction =     0.000456
  @ DRIVER MODE: Message from server: STATUS
  @ DRIVER MODE: Message from server: GETFORCE
  @ DRIVER MODE: Returning v,forces,stress,ensemble

     Writing output data file ./calc.save/
  @ DRIVER MODE: Message from server: EXIT
  @ DRIVE MODE: Exiting

     General routines

     Parallel routines

   This run was terminated on:  14:44:20  16Jul2021

   JOB DONE.