     Program PWSCF v.6.7GPU starts on 16Sep2021 at  4: 6: 0

     R & G space division:  proc/nbgrp/npool/nimage =      10
     Reading input from /storage/home/hcoda1/3/ntian30/research/carbon/CxH_vib/H2O_calc/ads_slab/CH2OHH2O_a/out_0040/pw.inp
Warning: card &CELL ignored
Warning: card   CELL_DYNAMICS='IPI', ignored
Warning: card / ignored

     Current dimensions of program PWSCF are:
     Max number of different atomic species (ntypx) = 10
     Max number of k-points (npk) =  40000
     Max angular momentum in pseudopotentials (lmaxx) =  3
     Presently no symmetry can be used with electric field

     Message from routine cell_base_init:
     DEPRECATED: use true lattice parameter, not A to a.u. conversion factor

     IMPORTANT: XC functional enforced from input :
     Exchange-correlation= BEEF-VDW
                           (   1   4  43  14   2   0   0)
     Any further DFT definition will be discarded
     Please, verify this is what you really want

  @ DRIVER MODE: Connecting to
 qe_1139763_2852615.sched-torque.pace.gatech.eduwq_wx1a0_scratch
  using UNIX socket
  @ DRIVER MODE: Message from server: STATUS
  @ DRIVER MODE: Message from server: INIT
  @ DRIVER MODE: Receiving replica           0          -1
  @ DRIVER MODE: Receiving encoded integer          25
  @ DRIVER MODE:  SCF:  T  FORCE:  T  STRESS:  F  VC:  F  ENSEMBLE:  F
  @ DRIVER MODE:  SCF:  T  FORCE:  T  STRESS:  F  VC:  F  ENSEMBLE:  F

     Using Slab Decomposition

     bravais-lattice index     =            0
     lattice parameter (alat)  =       1.8897  a.u.
     unit-cell volume          =    6658.9804 (a.u.)^3
     number of atoms/cell      =           55
     number of atomic types    =            4
     number of electrons       =       399.00
     number of Kohn-Sham states=          209
     kinetic-energy cutoff     =      29.3995  Ry
     charge density cutoff     =     293.9946  Ry
     scf convergence threshold =      7.3E-08
     mixing beta               =       0.0500
     number of iterations used =            8  plain     mixing
     Exchange-correlation= BEEF-VDW
                           (   1   4  43  14   2   0   0)

     celldm(1)=   1.889726  celldm(2)=   0.000000  celldm(3)=   0.000000
     celldm(4)=   0.000000  celldm(5)=   0.000000  celldm(6)=   0.000000

     crystal axes: (cart. coord. in units of alat)
               a(1) = (   6.579727   0.000000   0.000000 )
               a(2) = (  -0.000775   5.961596   0.000000 )
               a(3) = (   0.000000   0.000000  25.155947 )

     reciprocal axes: (cart. coord. in units 2 pi/alat)
               b(1) = (  0.151982  0.000020  0.000000 )
               b(2) = (  0.000000  0.167740  0.000000 )
               b(3) = (  0.000000  0.000000  0.039752 )

     PseudoPot. # 1 for Ti read from file:
     /storage/coda1/p-amedford6/0/shared/rich_project_chbe-medford/medford-share/data/pseudos_module/espresso/nninc/pbe/van/Ti.UPF
     MD5 check sum: 8e4df49b7f0d34bbd5052bf3f5ea0213
     Pseudo is Ultrasoft, Zval = 12.0
     Generated by new atomic code, or converted to UPF format
     Using radial grid of  851 points,  6 beta functions with:
                l(1) =   0
                l(2) =   0
                l(3) =   1
                l(4) =   1
                l(5) =   2
                l(6) =   2
     Q(r) pseudized with  8 coefficients,  rinner =    1.000   1.000   1.000
                                                       1.000   1.000

     PseudoPot. # 2 for O  read from file:
     /storage/coda1/p-amedford6/0/shared/rich_project_chbe-medford/medford-share/data/pseudos_module/espresso/nninc/pbe/van/O.UPF
     MD5 check sum: 78c19812648e8988a0fe644b0f25305e
     Pseudo is Ultrasoft, Zval =  6.0
     Generated by new atomic code, or converted to UPF format
     Using radial grid of  737 points,  4 beta functions with:
                l(1) =   0
                l(2) =   0
                l(3) =   1
                l(4) =   1
     Q(r) pseudized with  8 coefficients,  rinner =    0.800   0.800   0.800

     PseudoPot. # 3 for C  read from file:
     /storage/coda1/p-amedford6/0/shared/rich_project_chbe-medford/medford-share/data/pseudos_module/espresso/nninc/pbe/van/C.UPF
     MD5 check sum: 1a69bf6b8db32088f5b2163dbdb77a27
     Pseudo is Ultrasoft, Zval =  4.0
     Generated by new atomic code, or converted to UPF format
     Using radial grid of  721 points,  4 beta functions with:
                l(1) =   0
                l(2) =   0
                l(3) =   1
                l(4) =   1
     Q(r) pseudized with  8 coefficients,  rinner =    0.800   0.800   0.800

     PseudoPot. # 4 for H  read from file:
     /storage/coda1/p-amedford6/0/shared/rich_project_chbe-medford/medford-share/data/pseudos_module/espresso/nninc/pbe/van/H.UPF
     MD5 check sum: b5ee9d7bfd3a09ee7748110bda690ff7
     Pseudo is Ultrasoft, Zval =  1.0
     Generated by new atomic code, or converted to UPF format
     Using radial grid of  615 points,  1 beta functions with:
                l(1) =   0
     Q(r) pseudized with  8 coefficients,  rinner =    0.800

     atomic species   valence    mass     pseudopotential
        Ti1           12.00    47.86700     Ti( 1.00)
        O1             6.00    15.99900     O ( 1.00)
        C1             4.00    12.01100     C ( 1.00)
        H1             1.00     1.00800     H ( 1.00)

     No symmetry found

   Cartesian axes

     site n.     atom                  positions (alat units)
         1           Ti1 tau(   1) = (   0.0004258   2.9801865   6.0000000  )
         2           Ti1 tau(   2) = (   3.2906075   1.4906267   6.0002472  )
         3           O1  tau(   3) = (   0.0006271   0.0005054   7.9858123  )
         4           O1  tau(   4) = (   3.2906025   0.0005020   7.3038282  )
         5           O1  tau(   5) = (   4.5942328   1.4918067   9.2879030  )
         6           O1  tau(   6) = (   1.9868534   1.4903216   9.2879459  )
         7           Ti1 tau(   7) = (   3.2434587   3.0186650   9.1693953  )
         8           Ti1 tau(   8) = (   6.5248695   1.5265067   9.2859949  )
         9           O1  tau(   9) = (   3.3238096   0.0077392  11.3399147  )
        10           O1  tau(  10) = (   0.0083103   0.0007143  10.5763085  )
        11           O1  tau(  11) = (   1.3076427   1.5153157  12.5877682  )
        12           O1  tau(  12) = (   5.3324098   1.4751673  12.6362968  )
        13           Ti1 tau(  13) = (   0.0822926   2.9518924  12.6100891  )
        14           Ti1 tau(  14) = (   3.3652580   1.6116561  12.6031695  )
        15           O1  tau(  15) = (   0.1623142   0.0003102  14.6136642  )
        16           O1  tau(  16) = (   3.2083997   0.0016335  13.9229753  )
        17           O1  tau(  17) = (   4.6427586   1.3635169  15.8692112  )
        18           O1  tau(  18) = (   2.0707938   1.5934636  16.1317492  )
        19           Ti1 tau(  19) = (   3.4055461   2.9583945  15.9219660  )
        20           Ti1 tau(  20) = (   0.0529163   1.3399360  15.9091509  )
        21           O1  tau(  21) = (   3.2904802   0.0005063   4.7018136  )
        22           O1  tau(  22) = (   0.1143047   5.9459637  17.1421970  )
        23           O1  tau(  23) = (   1.3043587   1.4918075   6.0039043  )
        24           O1  tau(  24) = (   5.2767064   1.4903225   6.0039473  )
        25           Ti1 tau(  25) = (   0.0000382   5.9609847   6.0000000  )
        26           Ti1 tau(  26) = (   3.2902200   4.4714249   6.0002472  )
        27           O1  tau(  27) = (   0.0002396   2.9813036   7.9858123  )
        28           O1  tau(  28) = (   3.2902150   2.9813002   7.3038282  )
        29           O1  tau(  29) = (   4.5938453   4.4726049   9.2879030  )
        30           O1  tau(  30) = (   1.9864658   4.4711199   9.2879459  )
        31           Ti1 tau(  31) = (   3.2519499   0.0415563   9.1803751  )
        32           Ti1 tau(  32) = (   6.5223785   4.4699269   9.2708698  )
        33           O1  tau(  33) = (   3.3249262   3.0006027  11.3427062  )
        34           O1  tau(  34) = (   6.5728067   2.9803724  10.5910131  )
        35           O1  tau(  35) = (   1.3048910   4.4590737  12.5876729  )
        36           O1  tau(  36) = (   5.3248012   4.5079456  12.6396186  )
        37           Ti1 tau(  37) = (   0.0305998   5.9348532  12.4502240  )
        38           Ti1 tau(  38) = (   3.3518916   4.5407868  12.4757475  )
        39           O1  tau(  39) = (   0.0741357   2.9755951  14.7167286  )
        40           O1  tau(  40) = (   3.3703583   2.9475192  13.9294239  )
        41           O1  tau(  41) = (   4.6408928   4.5782690  15.8216857  )
        42           O1  tau(  42) = (   2.0743197   4.3710070  16.0958311  )
        43           Ti1 tau(  43) = (   3.3271525   5.9323444  15.7323421  )
        44           Ti1 tau(  44) = (   0.0603002   4.5335970  15.7939964  )
        45           O1  tau(  45) = (   3.2900926   2.9813045   4.7018136  )
        46           O1  tau(  46) = (   1.3039711   4.4726057   6.0039043  )
        47           O1  tau(  47) = (   5.2763189   4.4711207   6.0039473  )
        48           C1  tau(  48) = (   4.5917920   3.0228413  17.9030398  )
        49           O1  tau(  49) = (   6.0625861   3.0006587  17.4562122  )
        50           H1  tau(  50) = (   0.0503952   3.1075262  18.2373115  )
        51           H1  tau(  51) = (   4.5265887   2.1706275  18.5876854  )
        52           H1  tau(  52) = (   4.4781653   3.9549082  18.4551422  )
        53           O1  tau(  53) = (   2.8659371   5.8926936  18.2031264  )
        54           H1  tau(  54) = (   3.0528466   0.8272038  18.5446680  )
        55           H1  tau(  55) = (   1.8959954   5.8777970  18.0521013  )

     number of k points=    10  Fermi-Dirac smearing, width (Ry)=  0.0073
                       cart. coord. in units 2pi/alat
        k(    1) = (   0.0000000   0.0000000   0.0000000), wk =   0.1250000
        k(    2) = (   0.0000000   0.0419351   0.0000000), wk =   0.2500000
        k(    3) = (   0.0000000  -0.0838702   0.0000000), wk =   0.1250000
        k(    4) = (   0.0379955   0.0000049   0.0000000), wk =   0.2500000
        k(    5) = (   0.0379955   0.0419400   0.0000000), wk =   0.2500000
        k(    6) = (   0.0379955  -0.0838652   0.0000000), wk =   0.2500000
        k(    7) = (   0.0379955  -0.0419301   0.0000000), wk =   0.2500000
        k(    8) = (  -0.0759910  -0.0000099   0.0000000), wk =   0.1250000
        k(    9) = (  -0.0759910   0.0419252   0.0000000), wk =   0.2500000
        k(   10) = (  -0.0759910  -0.0838800   0.0000000), wk =   0.1250000

     Initial potential from superposition of free atoms

     starting charge  382.99916, renormalised to  399.00000

     negative rho (up, down):  1.858E-02 0.000E+00

     %%%%%%%%%%%%%%%%%%%%%%%%%%%%%%%%%%%%%%%%%%%%%%%%%%%%%%%%%%%%%%%%%%%%%%%%
     %                                                                      %
     % You are using vdW-DF, which was implemented by the Thonhauser group. %
     % Please cite the following two papers that made this development      %
     % possible and the two reviews that describe the various versions:     %
     %                                                                      %
     %   T. Thonhauser et al., PRL 115, 136402 (2015).                      %
     %   T. Thonhauser et al., PRB 76, 125112 (2007).                       %
     %   K. Berland et al., Rep. Prog. Phys. 78, 066501 (2015).             %
     %   D.C. Langreth et al., J. Phys.: Condens. Matter 21, 084203 (2009). %
     %                                                                      %
     %                                                                      %
     % If you are calculating the stress with vdW-DF, please also cite:     %
     %                                                                      %
     %   R. Sabatini et al., J. Phys.: Condens. Matter 24, 424209 (2012).   %
     %                                                                      %
     %%%%%%%%%%%%%%%%%%%%%%%%%%%%%%%%%%%%%%%%%%%%%%%%%%%%%%%%%%%%%%%%%%%%%%%%

     Adding external electric field

     Computed dipole along edir(3) :
        Dipole               -9.7304 Ry au,        -24.7321 Debye
        Dipole field         -0.0184 Ry au,

        Potential amp.        1.7022 Ry
        Total length         46.3494 bohr

     Starting wfcs are  301 atomic wfcs
  @ DRIVER MODE: Message from server: STATUS
  @ DRIVER MODE: Message from server: POSDATA
  @ DRIVER MODE: Reading and sharing cell
  @ DRIVER MODE: Reading and sharing positions
  @ DRIVER MODE: Received positions

     Self-consistent Calculation

     iteration #  1     ecut=    29.40 Ry     beta= 0.05
     Davidson diagonalization with overlap
     c_bands:  2 eigenvalues not converged
     c_bands:  2 eigenvalues not converged
     c_bands:  3 eigenvalues not converged
     c_bands:  5 eigenvalues not converged
     c_bands:  3 eigenvalues not converged
     c_bands:  2 eigenvalues not converged
     c_bands:  3 eigenvalues not converged
     c_bands:  2 eigenvalues not converged
     ethr =  1.00E-05,  avg # of iterations = 19.8

[...]

     total energy              =   -2478.54076465 Ry
     estimated scf accuracy    <    5415.87338808 Ry

     iteration #  2     ecut=    29.40 Ry     beta= 0.05
     Davidson diagonalization with overlap
     ethr =  1.00E-02,  avg # of iterations = 24.7

[...]

     iteration # 62     ecut=    29.40 Ry     beta= 0.05
     Davidson diagonalization with overlap
     c_bands:  3 eigenvalues not converged
     ethr =  2.33E-09,  avg # of iterations = 15.5

[...]

     total energy              =   -2966.15809227 Ry
     estimated scf accuracy    <       0.00000014 Ry

     iteration # 71     ecut=    29.40 Ry     beta= 0.05
     Davidson diagonalization with overlap
     ethr =  3.50E-11,  avg # of iterations =  6.7

     negative rho (up, down):  1.797E-02 0.000E+00

     Adding external electric field

     Computed dipole along edir(3) :
        Dipole                1.0020 Ry au,          2.5467 Debye
        Dipole field          0.0019 Ry au,

        Potential amp.       -0.1753 Ry
        Total length         46.3494 bohr

     End of self-consistent calculation

          k = 0.0000 0.0000 0.0000 ( 18029 PWs)   bands (ev):

   -55.6901 -55.6536 -55.5821 -55.5740 -55.5173 -55.5150 -55.5095 -55.5067
   -55.4788 -55.4615 -55.4543 -55.4434 -55.4279 -55.3384 -54.6592 -54.6251
   -32.1798 -32.1662 -32.0558 -32.0261 -32.0038 -31.9772 -31.9560 -31.9446
   -31.9311 -31.8713 -31.8444 -31.8372 -31.8339 -31.8246 -31.7973 -31.7882
   -31.7844 -31.7651 -31.7599 -31.7492 -31.7378 -31.7323 -31.6988 -31.6931
   -31.6909 -31.6841 -31.6787 -31.6708 -31.6657 -31.6609 -31.6533 -31.6365
   -31.6326 -31.6300 -31.6248 -31.6217 -31.6132 -31.6128 -31.5874 -31.5646
   -31.5529 -31.4253 -31.0662 -30.9777 -30.9552 -30.8831 -30.7967 -30.6853
   -19.3904 -18.6926 -16.3750 -16.1783 -15.9735 -15.8600 -15.8403 -15.6591
   -15.5353 -15.3890 -15.3365 -15.3076 -15.2869 -15.2176 -15.2108 -15.1956
   -15.1606 -15.1555 -15.1192 -15.0996 -15.0935 -15.0657 -15.0142 -14.9927
   -14.9427 -14.8828 -14.8143 -14.7941 -14.7851 -14.7098 -14.6171 -13.1597
   -13.0431  -9.4353  -6.4626  -6.2734  -4.0768  -3.8425  -3.6870  -3.6438
    -3.6123  -3.5761  -3.4161  -3.3045  -3.1241  -3.0179  -2.9537  -2.9027
    -2.8662  -2.7884  -2.7472  -2.6230  -2.5997  -2.5495  -2.5169  -2.4802
    -2.4737  -2.4525  -2.4077  -2.3903  -2.3748  -2.2178  -2.2073  -2.1735
    -2.1090  -2.0777  -2.0504  -2.0134  -1.9919  -1.9646  -1.9464  -1.8999
    -1.8814  -1.8090  -1.8015  -1.7584  -1.6911  -1.6581  -1.3933  -1.3140
    -1.2957  -1.2564  -1.1933  -1.0969  -1.0930  -1.0866  -1.0862  -1.0291
    -1.0109  -0.8633  -0.8490  -0.8342  -0.7542  -0.6752  -0.5958  -0.5588
    -0.4940  -0.4443  -0.4118  -0.3839  -0.3575  -0.3011  -0.2338  -0.2111
    -0.1395  -0.0665  -0.0334   0.0192   0.0450   0.0898   0.1202   0.1964
     0.2352   0.2692   0.2971   0.3151   0.3253   0.3687   0.3885   0.4781
     0.5553   0.5834   0.5899   0.6642   0.7908   0.8733   0.9849   1.0766
     1.2989   1.3651   1.4163   1.5478   1.5557   1.9370   1.9874   3.4515
     3.5206   3.5800   3.5806   3.6154   3.6960   3.8988   3.9462   4.0037
     4.0375

[...]

          k = 0.0380-0.0419 0.0000 ( 17876 PWs)   bands (ev):

[...]

          k =-0.0760-0.0000 0.0000 ( 17886 PWs)   bands (ev):

[...]

          k =-0.0760-0.0839 0.0000 ( 17948 PWs)   bands (ev):

   -55.6783 -55.6652 -55.5767 -55.5693 -55.5217 -55.5137 -55.5119 -55.5031
   -55.4636 -55.4605 -55.4578 -55.4467 -55.4431 -55.3400 -54.6421 -54.6421
   -32.0987 -31.9876 -31.9767 -31.9748 -31.9526 -31.9019 -31.8752 -31.8541
   -31.8469 -31.8423 -31.8389 -31.8161 -31.8150 -31.8003 -31.7992 -31.7899
   -31.7886 -31.7803 -31.7786 -31.7757 -31.7728 -31.7632 -31.7417 -31.7359
   -31.7302 -31.7183 -31.7116 -31.7046 -31.7024 -31.6881 -31.6739 -31.6663
   -31.6657 -31.6631 -31.6612 -31.6548 -31.6534 -31.6514 -31.6494 -31.6468
   -31.6290 -31.4275 -30.9680 -30.9679 -30.8794 -30.8787 -30.8400 -30.8396
   -19.3839 -18.6914 -15.9931 -15.6541 -15.6413 -15.6362 -15.6054 -15.4839
   -15.4600 -15.4375 -15.3919 -15.3619 -15.3561 -15.3329 -15.2883 -15.2321
   -15.2130 -15.2053 -15.1956 -15.1432 -15.1289 -15.1180 -15.0722 -15.0317
   -15.0291 -15.0053 -14.9791 -14.9737 -14.9734 -14.9457 -14.8776 -13.1465
   -13.1434  -9.4414  -6.4632  -6.2532  -4.0322  -3.7300  -3.1609  -3.0387
    -2.8719  -2.8484  -2.7985  -2.7766  -2.7235  -2.6548  -2.6260  -2.6143
    -2.6129  -2.5791  -2.5163  -2.4824  -2.4784  -2.4391  -2.4210  -2.4131
    -2.3928  -2.3673  -2.3429  -2.3242  -2.3180  -2.2824  -2.2697  -2.2548
    -2.2488  -2.2376  -2.2187  -2.1780  -2.0704  -1.9480  -1.9148  -1.8795
    -1.8393  -1.7806  -1.7743  -1.7604  -1.7261  -1.7253  -1.7091  -1.6310
    -1.4660  -1.4029  -1.3433  -1.3213  -1.2475  -1.2353  -1.2199  -1.1752
    -1.1356  -1.0884  -1.0442  -1.0215  -0.9651  -0.9211  -0.7926  -0.7386
    -0.6539  -0.6489  -0.6264  -0.6112  -0.5572  -0.5324  -0.5063  -0.4623
    -0.4280  -0.3835  -0.3519  -0.3427  -0.3209  -0.2601  -0.1602  -0.1111
    -0.0484  -0.0429   0.0401   0.1692   0.3547   0.3849   0.4434   0.4943
     0.5840   0.6060   0.6549   0.6747   0.7322   0.7593   0.8006   0.8608
     0.9214   0.9496   1.5125   1.7285   1.7349   1.7981   1.8075   3.7430
     3.8307   3.9231   3.9370   3.9714   3.9837   3.9897   4.0190   4.0754
     4.1268

     the Fermi energy is     3.4490 ev

!    total energy              =   -2966.15811753 Ry
     estimated scf accuracy    <       0.00000007 Ry
     smearing contrib. (-TS)   =      -0.02139585 Ry
     internal energy E=F+TS    =   -2966.13672168 Ry

     The total energy is F=E-TS. E is the sum of the following terms:
     one-electron contribution =  -24755.51982316 Ry
     hartree contribution      =   12470.27064760 Ry
     xc contribution           =    -490.95028784 Ry
     ewald contribution        =    9810.06084721 Ry
     electric field correction =       0.00189451 Ry

     convergence has been achieved in  71 iterations

     Forces acting on atoms (cartesian axes, Ry/au):

     atom    1 type  1   force =     0.00075627   -0.00018344    0.09531616
     atom    2 type  1   force =     0.00024471   -0.00220930   -0.17570058
     atom    3 type  2   force =    -0.00066069   -0.00040671   -0.03009296
     atom    4 type  2   force =    -0.00084921    0.00063541    0.05233746
     atom    5 type  2   force =    -0.01385275   -0.00099634    0.00146496
     atom    6 type  2   force =     0.01580835    0.00241233    0.00318837
     atom    7 type  1   force =     0.00033808    0.00038984   -0.00027636
     atom    8 type  1   force =    -0.00036316    0.00140425    0.00066169
     atom    9 type  2   force =     0.00011400   -0.00001945    0.00023537
     atom   10 type  2   force =     0.00017387    0.00017178   -0.00057527
     atom   11 type  2   force =    -0.00023300    0.00024905    0.00018848
     atom   12 type  2   force =    -0.00038115    0.00008815    0.00008381
     atom   13 type  1   force =     0.00023050   -0.00018242   -0.00061153
     atom   14 type  1   force =    -0.00100692    0.00001536    0.00028802
     atom   15 type  2   force =     0.00006571   -0.00111154   -0.00013586
     atom   16 type  2   force =    -0.00001748   -0.00006755   -0.00021990
     atom   17 type  2   force =    -0.00036643   -0.00028582   -0.00015510
     atom   18 type  2   force =     0.00036614   -0.00025355    0.00004599
     atom   19 type  1   force =     0.00005540    0.00032564    0.00007947
     atom   20 type  1   force =     0.00024025    0.00082023    0.00031163
     atom   21 type  2   force =     0.00014895    0.00019871    0.10304921
     atom   22 type  2   force =     0.00012379   -0.00112170    0.00012289
     atom   23 type  2   force =    -0.07128121    0.00094187   -0.02829735
     atom   24 type  2   force =     0.07133639    0.00133613   -0.02833390
     atom   25 type  1   force =     0.00021740    0.00038461    0.10639968
     atom   26 type  1   force =     0.00000047    0.00253187   -0.17559623
     atom   27 type  2   force =    -0.00037702    0.00013283   -0.02787533
     atom   28 type  2   force =    -0.00096223    0.00076211    0.05164578
     atom   29 type  2   force =    -0.01300223   -0.00123108    0.00107079
     atom   30 type  2   force =     0.01545147    0.00037164    0.00295352
     atom   31 type  1   force =     0.00051528    0.00002917   -0.00001991
     atom   32 type  1   force =    -0.00041547   -0.00140813    0.00018673
     atom   33 type  2   force =    -0.00016759   -0.00031525    0.00019695
     atom   34 type  2   force =     0.00000652    0.00010719   -0.00014280
     atom   35 type  2   force =    -0.00061804   -0.00019404    0.00066492
     atom   36 type  2   force =     0.00002887   -0.00036960    0.00024432
     atom   37 type  1   force =     0.00059686    0.00027418    0.00052879
     atom   38 type  1   force =    -0.00091980    0.00014615    0.00046163
     atom   39 type  2   force =    -0.00016837    0.00065715    0.00023999
     atom   40 type  2   force =    -0.00003489   -0.00051587   -0.00064635
     atom   41 type  2   force =     0.00118105   -0.00008650   -0.00007304
     atom   42 type  2   force =    -0.00088703   -0.00019029    0.00017005
     atom   43 type  1   force =     0.00018033   -0.00097828    0.00012464
     atom   44 type  1   force =    -0.00035413    0.00036500   -0.00013468
     atom   45 type  2   force =     0.00012394    0.00015514    0.10331782
     atom   46 type  2   force =    -0.07120472   -0.00125719   -0.02829147
     atom   47 type  2   force =     0.07127567   -0.00086190   -0.02833152
     atom   48 type  3   force =    -0.00075349   -0.00002384   -0.00012287
     atom   49 type  2   force =     0.00041091   -0.00009777   -0.00008588
     atom   50 type  4   force =    -0.00001285   -0.00039950   -0.00014374
     atom   51 type  4   force =    -0.00060795   -0.00012860    0.00021075
     atom   52 type  4   force =    -0.00036734   -0.00001705   -0.00033813
     atom   53 type  2   force =     0.00528738    0.01528249    0.00681375
     atom   54 type  4   force =    -0.00372997   -0.01556500   -0.00602636
     atom   55 type  4   force =    -0.00168346    0.00028941   -0.00037652

     Total force =     0.368166     Total SCF correction =     0.000692
  @ DRIVER MODE: Message from server: STATUS
  @ DRIVER MODE: Message from server: GETFORCE
  @ DRIVER MODE: Returning v,forces,stress,ensemble

     Writing output data file ./calc.save/
  @ DRIVER MODE: Message from server: EXIT
  @ DRIVE MODE: Exiting

     General routines

     Parallel routines

   This run was terminated on:   4:25:28  16Sep2021

   JOB DONE.