     Program PWSCF v.6.7GPU starts on 16Sep2021 at  0:50:30

     R & G space division:  proc/nbgrp/npool/nimage =      10
     Reading input from /storage/home/hcoda1/3/ntian30/research/carbon/CxH_vib/H2O_calc/ads_slab/CH2NHNH2O_a/out_0029/pw.inp
Warning: card &CELL ignored
Warning: card   CELL_DYNAMICS='IPI', ignored
Warning: card / ignored

     Current dimensions of program PWSCF are:
     Max number of different atomic species (ntypx) = 10
     Max number of k-points (npk) =  40000
     Max angular momentum in pseudopotentials (lmaxx) =  3
     Presently no symmetry can be used with electric field

     Message from routine cell_base_init:
     DEPRECATED: use true lattice parameter, not A to a.u. conversion factor

     IMPORTANT: XC functional enforced from input :
     Exchange-correlation= BEEF-VDW
                           (   1   4  43  14   2   0   0)
     Any further DFT definition will be discarded
     Please, verify this is what you really want

  @ DRIVER MODE: Connecting to
 qe_1139763_2852610.sched-torque.pace.gatech.edub68cm02j_scratch
  using UNIX socket
  @ DRIVER MODE: Message from server: STATUS
  @ DRIVER MODE: Message from server: INIT
  @ DRIVER MODE: Receiving replica           0          -1
  @ DRIVER MODE: Receiving encoded integer          25
  @ DRIVER MODE:  SCF:  T  FORCE:  T  STRESS:  F  VC:  F  ENSEMBLE:  F
  @ DRIVER MODE:  SCF:  T  FORCE:  T  STRESS:  F  VC:  F  ENSEMBLE:  F

     Using Slab Decomposition

     bravais-lattice index     =            0
     lattice parameter (alat)  =       1.8897  a.u.
     unit-cell volume          =    6658.9804 (a.u.)^3
     number of atoms/cell      =           56
     number of atomic types    =            5
     number of electrons       =       403.00
     number of Kohn-Sham states=          211
     kinetic-energy cutoff     =      29.3995  Ry
     charge density cutoff     =     293.9946  Ry
     scf convergence threshold =      7.3E-08
     mixing beta               =       0.0500
     number of iterations used =            8  plain     mixing
     Exchange-correlation= BEEF-VDW
                           (   1   4  43  14   2   0   0)

     celldm(1)=   1.889726  celldm(2)=   0.000000  celldm(3)=   0.000000
     celldm(4)=   0.000000  celldm(5)=   0.000000  celldm(6)=   0.000000

     crystal axes: (cart. coord. in units of alat)
               a(1) = (   6.579727   0.000000   0.000000 )
               a(2) = (  -0.000775   5.961596   0.000000 )
               a(3) = (   0.000000   0.000000  25.155947 )

     reciprocal axes: (cart. coord. in units 2 pi/alat)
               b(1) = (  0.151982  0.000020  0.000000 )
               b(2) = (  0.000000  0.167740  0.000000 )
               b(3) = (  0.000000  0.000000  0.039752 )

     PseudoPot. # 1 for Ti read from file:
     /storage/coda1/p-amedford6/0/shared/rich_project_chbe-medford/medford-share/data/pseudos_module/espresso/nninc/pbe/van/Ti.UPF
     MD5 check sum: 8e4df49b7f0d34bbd5052bf3f5ea0213
     Pseudo is Ultrasoft, Zval = 12.0
     Generated by new atomic code, or converted to UPF format
     Using radial grid of  851 points,  6 beta functions with:
                l(1) =   0
                l(2) =   0
                l(3) =   1
                l(4) =   1
                l(5) =   2
                l(6) =   2
     Q(r) pseudized with  8 coefficients,  rinner =    1.000   1.000   1.000
                                                       1.000   1.000

     PseudoPot. # 2 for O  read from file:
     /storage/coda1/p-amedford6/0/shared/rich_project_chbe-medford/medford-share/data/pseudos_module/espresso/nninc/pbe/van/O.UPF
     MD5 check sum: 78c19812648e8988a0fe644b0f25305e
     Pseudo is Ultrasoft, Zval =  6.0
     Generated by new atomic code, or converted to UPF format
     Using radial grid of  737 points,  4 beta functions with:
                l(1) =   0
                l(2) =   0
                l(3) =   1
                l(4) =   1
     Q(r) pseudized with  8 coefficients,  rinner =    0.800   0.800   0.800

     PseudoPot. # 3 for H  read from file:
     /storage/coda1/p-amedford6/0/shared/rich_project_chbe-medford/medford-share/data/pseudos_module/espresso/nninc/pbe/van/H.UPF
     MD5 check sum: b5ee9d7bfd3a09ee7748110bda690ff7
     Pseudo is Ultrasoft, Zval =  1.0
     Generated by new atomic code, or converted to UPF format
     Using radial grid of  615 points,  1 beta functions with:
                l(1) =   0
     Q(r) pseudized with  8 coefficients,  rinner =    0.800

     PseudoPot. # 4 for N  read from file:
     /storage/coda1/p-amedford6/0/shared/rich_project_chbe-medford/medford-share/data/pseudos_module/espresso/nninc/pbe/van/N.UPF
     MD5 check sum: 90d10febe142ad51ac9d5be1deb811c4
     Pseudo is Ultrasoft, Zval =  5.0
     Generated by new atomic code, or converted to UPF format
     Using radial grid of  729 points,  4 beta functions with:
                l(1) =   0
                l(2) =   0
                l(3) =   1
                l(4) =   1
     Q(r) pseudized with  8 coefficients,  rinner =    0.800   0.800   0.800

     PseudoPot. # 5 for C  read from file:
     /storage/coda1/p-amedford6/0/shared/rich_project_chbe-medford/medford-share/data/pseudos_module/espresso/nninc/pbe/van/C.UPF
     MD5 check sum: 1a69bf6b8db32088f5b2163dbdb77a27
     Pseudo is Ultrasoft, Zval =  4.0
     Generated by new atomic code, or converted to UPF format
     Using radial grid of  721 points,  4 beta functions with:
                l(1) =   0
                l(2) =   0
                l(3) =   1
                l(4) =   1
     Q(r) pseudized with  8 coefficients,  rinner =    0.800   0.800   0.800

     atomic species   valence    mass     pseudopotential
        Ti1           12.00    47.86700     Ti( 1.00)
        O1             6.00    15.99900     O ( 1.00)
        H1             1.00     1.00800     H ( 1.00)
        N1             5.00    14.00700     N ( 1.00)
        C1             4.00    12.01100     C ( 1.00)

     No symmetry found

   Cartesian axes

     site n.     atom                  positions (alat units)
         1           Ti1 tau(   1) = (   0.0004258   2.9801865   6.0000000  )
         2           Ti1 tau(   2) = (   3.2906075   1.4906267   6.0002472  )
         3           O1  tau(   3) = (   0.0006271   0.0005054   7.9858123  )
         4           O1  tau(   4) = (   3.2906025   0.0005020   7.3038282  )
         5           O1  tau(   5) = (   4.5942328   1.4918067   9.2879030  )
         6           O1  tau(   6) = (   1.9868534   1.4903216   9.2879459  )
         7           Ti1 tau(   7) = (   3.2907910   2.8959150   9.1758416  )
         8           Ti1 tau(   8) = (   0.0015273   1.4827037   9.2680791  )
         9           O1  tau(   9) = (   3.2960012   0.0062018  11.3595187  )
        10           O1  tau(  10) = (   0.0116148   5.9584955  10.6183126  )
        11           O1  tau(  11) = (   1.2731109   1.5057875  12.6314550  )
        12           O1  tau(  12) = (   5.2959999   1.4755877  12.6679080  )
        13           Ti1 tau(  13) = (   0.0553992   2.9538365  12.5526742  )
        14           Ti1 tau(  14) = (   3.3268292   1.5427496  12.5634199  )
        15           O1  tau(  15) = (   0.1371361   5.9015051  14.6217027  )
        16           O1  tau(  16) = (   3.1880369   0.0098958  13.9252199  )
        17           O1  tau(  17) = (   4.6462182   1.4014471  15.8552565  )
        18           O1  tau(  18) = (   2.0822703   1.5558083  16.1249119  )
        19           Ti1 tau(  19) = (   3.3548958   3.0525267  15.8597497  )
        20           Ti1 tau(  20) = (   0.0948755   1.3182250  15.7908873  )
        21           O1  tau(  21) = (   3.2904802   0.0005063   4.7018136  )
        22           O1  tau(  22) = (   0.0722171   0.0319689  17.1393915  )
        23           O1  tau(  23) = (   1.3043587   1.4918075   6.0039043  )
        24           O1  tau(  24) = (   5.2767064   1.4903225   6.0039473  )
        25           Ti1 tau(  25) = (   0.0000382   5.9609847   6.0000000  )
        26           Ti1 tau(  26) = (   3.2902200   4.4714249   6.0002472  )
        27           O1  tau(  27) = (   0.0002396   2.9813036   7.9858123  )
        28           O1  tau(  28) = (   3.2902150   2.9813002   7.3038282  )
        29           O1  tau(  29) = (   4.5938453   4.4726049   9.2879030  )
        30           O1  tau(  30) = (   1.9864658   4.4711199   9.2879459  )
        31           Ti1 tau(  31) = (   3.2891106   5.8743827   9.1763621  )
        32           Ti1 tau(  32) = (   0.0006254   4.4649316   9.2693709  )
        33           O1  tau(  33) = (   3.2982667   2.9897935  11.3544942  )
        34           O1  tau(  34) = (   0.0092240   2.9805883  10.6323155  )
        35           O1  tau(  35) = (   1.2737041   4.4504026  12.6113924  )
        36           O1  tau(  36) = (   5.2903739   4.4874249  12.6576873  )
        37           Ti1 tau(  37) = (   6.5697415   5.9260651  12.4959683  )
        38           Ti1 tau(  38) = (   3.3125242   4.5024033  12.5372123  )
        39           O1  tau(  39) = (   0.0674008   2.9793056  14.8363759  )
        40           O1  tau(  40) = (   3.2999477   2.9756493  13.9369993  )
        41           O1  tau(  41) = (   4.6108370   4.5787535  15.7719701  )
        42           O1  tau(  42) = (   2.0428421   4.3627697  16.1441833  )
        43           Ti1 tau(  43) = (   3.3552955   0.0804576  15.7648105  )
        44           Ti1 tau(  44) = (   6.5672415   4.5273692  15.9765751  )
        45           O1  tau(  45) = (   3.2900926   2.9813045   4.7018136  )
        46           O1  tau(  46) = (   1.3039711   4.4726057   6.0039043  )
        47           O1  tau(  47) = (   5.2763189   4.4711207   6.0039473  )
        48           H1  tau(  48) = (   4.1035413   2.4672077  18.5646977  )
        49           N1  tau(  49) = (   5.6961598   3.2907635  17.7856741  )
        50           C1  tau(  50) = (   6.4968133   2.7471819  18.6454045  )
        51           H1  tau(  51) = (   6.1325458   2.1374441  19.4677963  )
        52           H1  tau(  52) = (   0.9799315   2.9096255  18.5225614  )
        53           N1  tau(  53) = (   4.3409097   3.1788467  17.8642182  )
        54           O1  tau(  54) = (   3.3174094   5.8609012  18.0981057  )
        55           H1  tau(  55) = (   3.6736973   4.9388346  18.2201127  )
        56           H1  tau(  56) = (   2.3597147   5.7972335  18.2603650  )

     number of k points=    10  Fermi-Dirac smearing, width (Ry)=  0.0073
                       cart. coord. in units 2pi/alat
        k(    1) = (   0.0000000   0.0000000   0.0000000), wk =   0.1250000
        k(    2) = (   0.0000000   0.0419351   0.0000000), wk =   0.2500000
        k(    3) = (   0.0000000  -0.0838702   0.0000000), wk =   0.1250000
        k(    4) = (   0.0379955   0.0000049   0.0000000), wk =   0.2500000
        k(    5) = (   0.0379955   0.0419400   0.0000000), wk =   0.2500000
        k(    6) = (   0.0379955  -0.0838652   0.0000000), wk =   0.2500000
        k(    7) = (   0.0379955  -0.0419301   0.0000000), wk =   0.2500000
        k(    8) = (  -0.0759910  -0.0000099   0.0000000), wk =   0.1250000
        k(    9) = (  -0.0759910   0.0419252   0.0000000), wk =   0.2500000
        k(   10) = (  -0.0759910  -0.0838800   0.0000000), wk =   0.1250000

     Initial potential from superposition of free atoms

     starting charge  386.99914, renormalised to  403.00000

     negative rho (up, down):  1.703E-02 0.000E+00

     %%%%%%%%%%%%%%%%%%%%%%%%%%%%%%%%%%%%%%%%%%%%%%%%%%%%%%%%%%%%%%%%%%%%%%%%
     %                                                                      %
     % You are using vdW-DF, which was implemented by the Thonhauser group. %
     % Please cite the following two papers that made this development      %
     % possible and the two reviews that describe the various versions:     %
     %                                                                      %
     %   T. Thonhauser et al., PRL 115, 136402 (2015).                      %
     %   T. Thonhauser et al., PRB 76, 125112 (2007).                       %
     %   K. Berland et al., Rep. Prog. Phys. 78, 066501 (2015).             %
     %   D.C. Langreth et al., J. Phys.: Condens. Matter 21, 084203 (2009). %
     %                                                                      %
     %                                                                      %
     % If you are calculating the stress with vdW-DF, please also cite:     %
     %                                                                      %
     %   R. Sabatini et al., J. Phys.: Condens. Matter 24, 424209 (2012).   %
     %                                                                      %
     %%%%%%%%%%%%%%%%%%%%%%%%%%%%%%%%%%%%%%%%%%%%%%%%%%%%%%%%%%%%%%%%%%%%%%%%

     Adding external electric field

     Computed dipole along edir(3) :
        Dipole              -12.3729 Ry au,        -31.4487 Debye
        Dipole field         -0.0233 Ry au,

        Potential amp.        2.1644 Ry
        Total length         46.3494 bohr

     Starting wfcs are  305 atomic wfcs
  @ DRIVER MODE: Message from server: STATUS
  @ DRIVER MODE: Message from server: POSDATA
  @ DRIVER MODE: Reading and sharing cell
  @ DRIVER MODE: Reading and sharing positions
  @ DRIVER MODE: Received positions

     Self-consistent Calculation

     iteration #  1     ecut=    29.40 Ry     beta= 0.05
     Davidson diagonalization with overlap
     c_bands:  4 eigenvalues not converged
     c_bands:  3 eigenvalues not converged
     c_bands:  3 eigenvalues not converged
     c_bands:  1 eigenvalues not converged
     c_bands:  1 eigenvalues not converged
     c_bands:  4 eigenvalues not converged
     c_bands:  3 eigenvalues not converged
     ethr =  1.00E-05,  avg # of iterations = 27.4

[...]

     total energy              =   -2355.29830826 Ry
     estimated scf accuracy    <    7010.99899115 Ry

     iteration #  2     ecut=    29.40 Ry     beta= 0.05
     Davidson diagonalization with overlap
     ethr =  1.00E-02,  avg # of iterations = 24.9

[...]

     iteration # 52     ecut=    29.40 Ry     beta= 0.05
     Davidson diagonalization with overlap
     c_bands:  1 eigenvalues not converged
     ethr =  3.60E-08,  avg # of iterations = 13.1

[...]

     total energy              =   -2973.97650688 Ry
     estimated scf accuracy    <       0.00000010 Ry

     iteration # 71     ecut=    29.40 Ry     beta= 0.05
     Davidson diagonalization with overlap
     ethr =  1.83E-11,  avg # of iterations =  4.8

     negative rho (up, down):  1.700E-02 0.000E+00

     Adding external electric field

     Computed dipole along edir(3) :
        Dipole                0.9065 Ry au,          2.3041 Debye
        Dipole field          0.0017 Ry au,

        Potential amp.       -0.1586 Ry
        Total length         46.3494 bohr

     End of self-consistent calculation

          k = 0.0000 0.0000 0.0000 ( 18029 PWs)   bands (ev):

   -55.6375 -55.6034 -55.5193 -55.4834 -55.4769 -55.4639 -55.4422 -55.4301
   -55.4250 -55.4075 -55.3909 -55.3900 -55.3564 -55.2393 -54.6235 -54.5895
   -32.1232 -32.0251 -31.9715 -31.9659 -31.9580 -31.9287 -31.9148 -31.8964
   -31.8832 -31.7901 -31.7841 -31.7781 -31.7504 -31.7450 -31.7398 -31.7052
   -31.6949 -31.6819 -31.6768 -31.6688 -31.6622 -31.6604 -31.6448 -31.6419
   -31.6356 -31.6258 -31.6238 -31.6193 -31.6137 -31.6079 -31.6028 -31.5937
   -31.5837 -31.5813 -31.5809 -31.5788 -31.5731 -31.5378 -31.5294 -31.5140
   -31.4401 -31.3678 -31.0305 -30.9420 -30.9196 -30.8475 -30.7610 -30.6497
   -18.4392 -17.7381 -16.3008 -16.1101 -15.8848 -15.7830 -15.7431 -15.5698
   -15.4392 -15.3965 -15.2700 -15.2044 -15.1806 -15.1617 -15.1480 -15.1154
   -15.0921 -15.0683 -15.0664 -15.0471 -15.0228 -15.0000 -14.9721 -14.9542
   -14.9118 -14.7863 -14.7782 -14.7668 -14.7289 -14.6915 -14.2924 -13.1236
   -13.0070 -12.3742  -7.9189  -6.2089  -5.4152  -4.8466  -3.6721  -3.5802
    -3.5476  -3.5241  -3.4464  -3.3272  -3.2302  -3.0357  -2.9270  -2.8970
    -2.8747  -2.7892  -2.7075  -2.6662  -2.5636  -2.5315  -2.5211  -2.4767
    -2.4216  -2.4070  -2.3768  -2.3634  -2.3276  -2.1946  -2.1755  -2.1373
    -2.0259  -2.0094  -2.0013  -1.9591  -1.9552  -1.9247  -1.9145  -1.8966
    -1.8798  -1.8683  -1.8002  -1.7191  -1.6869  -1.6372  -1.5824  -1.5768
    -1.2750  -1.2581  -1.1911  -1.1593  -1.0887  -1.0553  -1.0409  -1.0263
    -0.9948  -0.8946  -0.8050  -0.7860  -0.7228  -0.6615  -0.5622  -0.5479
    -0.4473  -0.3983  -0.3928  -0.3797  -0.3474  -0.2888  -0.2320  -0.1755
    -0.1255  -0.0430   0.0114   0.0204   0.0623   0.1061   0.1356   0.1940
     0.2564   0.2837   0.3168   0.3321   0.3733   0.4335   0.4550   0.4677
     0.5464   0.5862   0.6115   0.7094   0.7188   0.7577   0.8294   1.0142
     1.0597   1.1990   1.3379   1.4012   1.4668   1.5933   1.8698   1.9714
     2.0175   3.4526   3.5866   3.6075   3.6430   3.7148   3.7613   3.9343
     4.0300   4.0519   4.1127

[...]

          k = 0.0380-0.0419 0.0000 ( 17876 PWs)   bands (ev):

[...]

          k =-0.0760-0.0000 0.0000 ( 17886 PWs)   bands (ev):

[...]

          k =-0.0760-0.0839 0.0000 ( 17948 PWs)   bands (ev):

   -55.6204 -55.6203 -55.5045 -55.4978 -55.4616 -55.4577 -55.4469 -55.4465
   -55.4109 -55.4052 -55.4051 -55.3741 -55.3726 -55.2411 -54.6065 -54.6063
   -31.9385 -31.9384 -31.9142 -31.9142 -31.8839 -31.8483 -31.8195 -31.8008
   -31.7902 -31.7751 -31.7659 -31.7534 -31.7491 -31.7402 -31.7399 -31.7328
   -31.7323 -31.7198 -31.7171 -31.7105 -31.6844 -31.6822 -31.6770 -31.6709
   -31.6563 -31.6539 -31.6529 -31.6393 -31.6334 -31.6314 -31.6278 -31.6277
   -31.6238 -31.6210 -31.6205 -31.6160 -31.6143 -31.6030 -31.5876 -31.5368
   -31.4501 -31.4470 -30.9324 -30.9322 -30.8433 -30.8431 -30.8043 -30.8042
   -18.4319 -17.7386 -15.8515 -15.6077 -15.5940 -15.5575 -15.5387 -15.4194
   -15.3743 -15.3704 -15.3495 -15.2943 -15.2588 -15.2217 -15.1903 -15.1727
   -15.1492 -15.1379 -15.0964 -15.0932 -15.0861 -15.0642 -15.0228 -15.0123
   -14.9879 -14.9674 -14.9628 -14.9506 -14.9180 -14.7498 -14.6405 -13.1088
   -13.1087 -12.3901  -7.8789  -6.1939  -5.4732  -4.7685  -3.1443  -3.0667
    -3.0188  -2.8007  -2.7564  -2.7382  -2.7022  -2.6422  -2.5890  -2.5719
    -2.5533  -2.5251  -2.5155  -2.4626  -2.4370  -2.4111  -2.3866  -2.3705
    -2.3613  -2.3480  -2.3218  -2.3025  -2.2803  -2.2703  -2.2470  -2.2363
    -2.2142  -2.2061  -2.1919  -2.1696  -2.0814  -1.9990  -1.8976  -1.8383
    -1.7946  -1.7942  -1.7638  -1.7349  -1.7069  -1.7022  -1.6630  -1.6339
    -1.5628  -1.5036  -1.3196  -1.3060  -1.2612  -1.1767  -1.1757  -1.1283
    -1.1193  -1.0678  -1.0406  -0.9940  -0.9445  -0.9115  -0.8234  -0.6702
    -0.6217  -0.6017  -0.5959  -0.5806  -0.5399  -0.5255  -0.4732  -0.4559
    -0.4394  -0.3735  -0.3426  -0.3384  -0.2878  -0.2697  -0.1573  -0.0595
    -0.0321   0.0218   0.0612   0.1811   0.2934   0.3624   0.4636   0.4779
     0.4964   0.5501   0.6582   0.6680   0.7130   0.7754   0.8407   0.8464
     0.8768   0.9409   0.9528   0.9897   1.7641   1.7658   1.8184   1.8375
     1.8377   3.8613   3.9020   3.9525   3.9587   3.9825   4.0327   4.0400
     4.0710   4.1209   4.1367

     the Fermi energy is     3.4850 ev

!    total energy              =   -2973.97652373 Ry
     estimated scf accuracy    <       0.00000005 Ry
     smearing contrib. (-TS)   =      -0.01978193 Ry
     internal energy E=F+TS    =   -2973.95674180 Ry

     The total energy is F=E-TS. E is the sum of the following terms:
     one-electron contribution =  -24368.16968860 Ry
     hartree contribution      =   12278.64505637 Ry
     xc contribution           =    -494.13129127 Ry
     ewald contribution        =    9609.69763100 Ry
     electric field correction =       0.00155069 Ry

     convergence has been achieved in  71 iterations

     Forces acting on atoms (cartesian axes, Ry/au):

     atom    1 type  1   force =     0.00016456   -0.00031175    0.09439885
     atom    2 type  1   force =    -0.00007399   -0.00076776   -0.17589910
     atom    3 type  2   force =     0.00005841   -0.00019390   -0.02182535
     atom    4 type  2   force =     0.00003680   -0.00134236    0.05334279
     atom    5 type  2   force =    -0.00869838   -0.00018258    0.00366182
     atom    6 type  2   force =     0.01036535    0.00046990    0.00301627
     atom    7 type  1   force =    -0.00045075    0.00081081   -0.00105436
     atom    8 type  1   force =     0.00044878    0.00750846    0.00862980
     atom    9 type  2   force =     0.00046868    0.00015464    0.00005691
     atom   10 type  2   force =    -0.00262754    0.00131759   -0.01723349
     atom   11 type  2   force =    -0.00008514    0.00008881   -0.00040060
     atom   12 type  2   force =     0.00030779    0.00007631   -0.00007435
     atom   13 type  1   force =    -0.00041045   -0.00038466   -0.00021191
     atom   14 type  1   force =     0.00035404    0.00009139    0.00022117
     atom   15 type  2   force =     0.00013191   -0.00006035   -0.00028517
     atom   16 type  2   force =     0.00020022    0.00018566    0.00005617
     atom   17 type  2   force =    -0.00007970   -0.00008143    0.00008756
     atom   18 type  2   force =     0.00001731   -0.00004752   -0.00006095
     atom   19 type  1   force =    -0.00043009    0.00025483   -0.00066979
     atom   20 type  1   force =     0.00011319   -0.00014759    0.00002557
     atom   21 type  2   force =     0.00006676   -0.00000359    0.10329369
     atom   22 type  2   force =    -0.00026384   -0.00042231   -0.00005554
     atom   23 type  2   force =    -0.07155387   -0.00011218   -0.02736700
     atom   24 type  2   force =     0.07149254    0.00037628   -0.02738060
     atom   25 type  1   force =     0.00004525   -0.00021210    0.09437518
     atom   26 type  1   force =    -0.00013622   -0.00029769   -0.17602833
     atom   27 type  2   force =     0.00003687   -0.00018818   -0.02072864
     atom   28 type  2   force =     0.00009490   -0.00112688    0.05373381
     atom   29 type  2   force =    -0.00878024   -0.00002260    0.00342837
     atom   30 type  2   force =     0.01029381    0.00036595    0.00286106
     atom   31 type  1   force =    -0.00032509    0.00465212    0.00188860
     atom   32 type  1   force =     0.00043062   -0.00852790    0.00858328
     atom   33 type  2   force =    -0.00003599    0.00003060   -0.00001321
     atom   34 type  2   force =    -0.00403217   -0.00112173   -0.01182866
     atom   35 type  2   force =     0.00014261    0.00007917    0.00033910
     atom   36 type  2   force =     0.00053383    0.00005625   -0.00021667
     atom   37 type  1   force =     0.00061681   -0.00019795   -0.00000031
     atom   38 type  1   force =     0.00022067   -0.00016324   -0.00010297
     atom   39 type  2   force =    -0.00013476   -0.00003309   -0.00021378
     atom   40 type  2   force =     0.00046270    0.00000844    0.00038827
     atom   41 type  2   force =    -0.00014550    0.00045657    0.00008534
     atom   42 type  2   force =     0.00012363    0.00017189   -0.00010188
     atom   43 type  1   force =    -0.00025270   -0.00014563   -0.00007817
     atom   44 type  1   force =     0.00026448    0.00053379    0.00086796
     atom   45 type  2   force =     0.00005077    0.00000009    0.10336549
     atom   46 type  2   force =    -0.07154926   -0.00004246   -0.02735523
     atom   47 type  2   force =     0.07149053    0.00035309   -0.02738351
     atom   48 type  3   force =     0.00042965   -0.00051990   -0.00070564
     atom   49 type  4   force =    -0.00078196   -0.00020733   -0.00046965
     atom   50 type  5   force =     0.00162437   -0.00071595   -0.00292193
     atom   51 type  3   force =     0.00027249    0.00051417    0.00105456
     atom   52 type  3   force =    -0.00118800   -0.00112858    0.00191311
     atom   53 type  4   force =    -0.00016823    0.00040365    0.00106887
     atom   54 type  2   force =     0.00040871   -0.00057769    0.00074849
     atom   55 type  3   force =    -0.00040662    0.00032259   -0.00050215
     atom   56 type  3   force =     0.00084143    0.00000384   -0.00032319

     Total force =     0.363877     Total SCF correction =     0.000774
  @ DRIVER MODE: Message from server: STATUS
  @ DRIVER MODE: Message from server: GETFORCE
  @ DRIVER MODE: Returning v,forces,stress,ensemble

     Writing output data file ./calc.save/
  @ DRIVER MODE: Message from server: EXIT
  @ DRIVE MODE: Exiting

     General routines

     Parallel routines

   This run was terminated on:   1:10:48  16Sep2021

   JOB DONE.