     Program PWSCF v.6.7GPU starts on 30Jun2021 at 16: 1:28

     R & G space division:  proc/nbgrp/npool/nimage =      16
     Reading input from /storage/home/hcoda1/3/ntian30/research/carbon/30Jun_spin_polarized/ads_slab/CH3NH_b/30Jun.log/pw.inp
Warning: card &CELL ignored
Warning: card   CELL_DYNAMICS='IPI', ignored
Warning: card / ignored

     Current dimensions of program PWSCF are:
     Max number of different atomic species (ntypx) = 10
     Max number of k-points (npk) =  40000
     Max angular momentum in pseudopotentials (lmaxx) =  3
     Presently no symmetry can be used with electric field

     Message from routine cell_base_init:
     DEPRECATED: use true lattice parameter, not A to a.u. conversion factor

     IMPORTANT: XC functional enforced from input :
     Exchange-correlation= BEEF-VDW
                           (   1   4  43  14   2   0   0)
     Any further DFT definition will be discarded
     Please, verify this is what you really want

  @ DRIVER MODE: Connecting to
 qe_1139763_2240215.sched-torque.pace.gatech.edu9r593get_scratch
  using UNIX socket
  @ DRIVER MODE: Message from server: STATUS
  @ DRIVER MODE: Message from server: INIT
  @ DRIVER MODE: Receiving replica           0          -1
  @ DRIVER MODE: Receiving encoded integer          25
  @ DRIVER MODE:  SCF:  T  FORCE:  T  STRESS:  F  VC:  F  ENSEMBLE:  F
  @ DRIVER MODE:  SCF:  T  FORCE:  T  STRESS:  F  VC:  F  ENSEMBLE:  F

     Using Slab Decomposition

     bravais-lattice index     =            0
     lattice parameter (alat)  =       1.8897  a.u.
     unit-cell volume          =    6658.9804 (a.u.)^3
     number of atoms/cell      =           53
     number of atomic types    =            5
     number of electrons       =       391.00
     number of Kohn-Sham states=          205
     kinetic-energy cutoff     =      29.3995  Ry
     charge density cutoff     =     293.9946  Ry
     scf convergence threshold =      7.3E-08
     mixing beta               =       0.0500
     number of iterations used =            8  plain     mixing
     Exchange-correlation= BEEF-VDW
                           (   1   4  43  14   2   0   0)

     celldm(1)=   1.889726  celldm(2)=   0.000000  celldm(3)=   0.000000
     celldm(4)=   0.000000  celldm(5)=   0.000000  celldm(6)=   0.000000

     crystal axes: (cart. coord. in units of alat)
               a(1) = (   6.579727   0.000000   0.000000 )
               a(2) = (  -0.000775   5.961596   0.000000 )
               a(3) = (   0.000000   0.000000  25.155947 )

     reciprocal axes: (cart. coord. in units 2 pi/alat)
               b(1) = (  0.151982  0.000020  0.000000 )
               b(2) = (  0.000000  0.167740  0.000000 )
               b(3) = (  0.000000  0.000000  0.039752 )

     PseudoPot. # 1 for Ti read from file:
     /storage/coda1/p-amedford6/0/shared/rich_project_chbe-medford/medford-share/data/pseudos_module/espresso/nninc/pbe/van/Ti.UPF
     MD5 check sum: 8e4df49b7f0d34bbd5052bf3f5ea0213
     Pseudo is Ultrasoft, Zval = 12.0
     Generated by new atomic code, or converted to UPF format
     Using radial grid of  851 points,  6 beta functions with:
                l(1) =   0
                l(2) =   0
                l(3) =   1
                l(4) =   1
                l(5) =   2
                l(6) =   2
     Q(r) pseudized with  8 coefficients,  rinner =    1.000   1.000   1.000
                                                       1.000   1.000

     PseudoPot. # 2 for O  read from file:
     /storage/coda1/p-amedford6/0/shared/rich_project_chbe-medford/medford-share/data/pseudos_module/espresso/nninc/pbe/van/O.UPF
     MD5 check sum: 78c19812648e8988a0fe644b0f25305e
     Pseudo is Ultrasoft, Zval =  6.0
     Generated by new atomic code, or converted to UPF format
     Using radial grid of  737 points,  4 beta functions with:
                l(1) =   0
                l(2) =   0
                l(3) =   1
                l(4) =   1
     Q(r) pseudized with  8 coefficients,  rinner =    0.800   0.800   0.800

     PseudoPot. # 3 for H  read from file:
     /storage/coda1/p-amedford6/0/shared/rich_project_chbe-medford/medford-share/data/pseudos_module/espresso/nninc/pbe/van/H.UPF
     MD5 check sum: b5ee9d7bfd3a09ee7748110bda690ff7
     Pseudo is Ultrasoft, Zval =  1.0
     Generated by new atomic code, or converted to UPF format
     Using radial grid of  615 points,  1 beta functions with:
                l(1) =   0
     Q(r) pseudized with  8 coefficients,  rinner =    0.800

     PseudoPot. # 4 for N  read from file:
     /storage/coda1/p-amedford6/0/shared/rich_project_chbe-medford/medford-share/data/pseudos_module/espresso/nninc/pbe/van/N.UPF
     MD5 check sum: 90d10febe142ad51ac9d5be1deb811c4
     Pseudo is Ultrasoft, Zval =  5.0
     Generated by new atomic code, or converted to UPF format
     Using radial grid of  729 points,  4 beta functions with:
                l(1) =   0
                l(2) =   0
                l(3) =   1
                l(4) =   1
     Q(r) pseudized with  8 coefficients,  rinner =    0.800   0.800   0.800

     PseudoPot. # 5 for C  read from file:
     /storage/coda1/p-amedford6/0/shared/rich_project_chbe-medford/medford-share/data/pseudos_module/espresso/nninc/pbe/van/C.UPF
     MD5 check sum: 1a69bf6b8db32088f5b2163dbdb77a27
     Pseudo is Ultrasoft, Zval =  4.0
     Generated by new atomic code, or converted to UPF format
     Using radial grid of  721 points,  4 beta functions with:
                l(1) =   0
                l(2) =   0
                l(3) =   1
                l(4) =   1
     Q(r) pseudized with  8 coefficients,  rinner =    0.800   0.800   0.800

     atomic species   valence    mass     pseudopotential
        Ti1           12.00    47.86700     Ti( 1.00)
        O1             6.00    15.99900     O ( 1.00)
        H1             1.00     1.00800     H ( 1.00)
        N1             5.00    14.00700     N ( 1.00)
        C1             4.00    12.01100     C ( 1.00)

     Starting magnetic structure
     atomic species   magnetization
        Ti1          0.000
        O1           0.000
        H1           0.000
        N1           0.000
        C1           0.025

     No symmetry found

   Cartesian axes

     site n.     atom                  positions (alat units)
         1           Ti1 tau(   1) = (   0.0004258   2.9801865   6.0000000  )
         2           Ti1 tau(   2) = (   3.2906075   1.4906267   6.0002472  )
         3           O1  tau(   3) = (   0.0006271   0.0005054   7.9858123  )
         4           O1  tau(   4) = (   3.2906025   0.0005020   7.3038282  )
         5           O1  tau(   5) = (   4.5942328   1.4918067   9.2879030  )
         6           O1  tau(   6) = (   1.9868534   1.4903216   9.2879459  )
         7           Ti1 tau(   7) = (   3.2907910   2.8959150   9.1758416  )
         8           Ti1 tau(   8) = (   0.0015273   1.4827037   9.2680791  )
         9           O1  tau(   9) = (   3.2906183   5.9580730  11.3246990  )
        10           O1  tau(  10) = (   0.0116148   5.9584955  10.6183126  )
        11           O1  tau(  11) = (   1.3160896   1.4863360  12.6200149  )
        12           O1  tau(  12) = (   5.2947061   1.4800608  12.6053981  )
        13           Ti1 tau(  13) = (   6.5224157   2.9421717  12.6196007  )
        14           Ti1 tau(  14) = (   3.2076970   1.4879367  12.4696142  )
        15           O1  tau(  15) = (   6.5517659   0.0158556  14.6493665  )
        16           O1  tau(  16) = (   3.3109316   0.0069331  13.9179417  )
        17           O1  tau(  17) = (   4.5083530   1.5297238  16.0872293  )
        18           O1  tau(  18) = (   2.0274073   1.5273405  16.0409094  )
        19           Ti1 tau(  19) = (   3.2920608   3.0081397  15.6838061  )
        20           Ti1 tau(  20) = (   0.0536170   1.5416865  15.8648894  )
        21           O1  tau(  21) = (   3.2904802   0.0005063   4.7018136  )
        22           O1  tau(  22) = (   0.0122827   0.0301012  17.2134340  )
        23           O1  tau(  23) = (   1.3043587   1.4918075   6.0039043  )
        24           O1  tau(  24) = (   5.2767064   1.4903225   6.0039473  )
        25           Ti1 tau(  25) = (   0.0000382   5.9609847   6.0000000  )
        26           Ti1 tau(  26) = (   3.2902200   4.4714249   6.0002472  )
        27           O1  tau(  27) = (   0.0002396   2.9813036   7.9858123  )
        28           O1  tau(  28) = (   3.2902150   2.9813002   7.3038282  )
        29           O1  tau(  29) = (   4.5938453   4.4726049   9.2879030  )
        30           O1  tau(  30) = (   1.9864658   4.4711199   9.2879459  )
        31           Ti1 tau(  31) = (   3.2891106   5.8743827   9.1763621  )
        32           Ti1 tau(  32) = (   0.0006254   4.4649316   9.2693709  )
        33           O1  tau(  33) = (   3.2866862   2.9837957  11.3234553  )
        34           O1  tau(  34) = (   0.0092240   2.9805883  10.6323155  )
        35           O1  tau(  35) = (   1.3095649   4.4762946  12.6335636  )
        36           O1  tau(  36) = (   5.2963019   4.4650584  12.6194355  )
        37           Ti1 tau(  37) = (   6.5192018   5.9199268  12.5733442  )
        38           Ti1 tau(  38) = (   3.2055211   4.4685508  12.4747853  )
        39           O1  tau(  39) = (   6.5624772   2.9349094  14.6472044  )
        40           O1  tau(  40) = (   3.3065106   2.9879112  13.8942307  )
        41           O1  tau(  41) = (   4.5199725   4.4841037  16.0899424  )
        42           O1  tau(  42) = (   2.0389375   4.4882992  16.0664246  )
        43           Ti1 tau(  43) = (   3.3279474   0.0221627  15.7114356  )
        44           Ti1 tau(  44) = (   0.0314192   4.6578676  16.1055029  )
        45           O1  tau(  45) = (   3.2900926   2.9813045   4.7018136  )
        46           O1  tau(  46) = (   1.3039711   4.4726057   6.0039043  )
        47           O1  tau(  47) = (   5.2763189   4.4711207   6.0039473  )
        48           H1  tau(  48) = (   5.5751926   2.9245997  17.7795037  )
        49           N1  tau(  49) = (   6.5345126   2.9709300  17.4463781  )
        50           C1  tau(  50) = (   0.8205834   2.9192471  18.6315588  )
        51           H1  tau(  51) = (   0.6379014   3.7726647  19.2931901  )
        52           H1  tau(  52) = (   0.6616828   1.9903841  19.1881566  )
        53           H1  tau(  53) = (   1.8691752   2.9530840  18.3388921  )

     number of k points=    10  Fermi-Dirac smearing, width (Ry)=  0.0073
                       cart. coord. in units 2pi/alat
        k(    1) = (   0.0000000   0.0000000   0.0000000), wk =   0.0625000
        k(    2) = (   0.0000000   0.0419351   0.0000000), wk =   0.1250000
        k(    3) = (   0.0000000  -0.0838702   0.0000000), wk =   0.0625000
        k(    4) = (   0.0379955   0.0000049   0.0000000), wk =   0.1250000
        k(    5) = (   0.0379955   0.0419400   0.0000000), wk =   0.1250000
        k(    6) = (   0.0379955  -0.0838652   0.0000000), wk =   0.1250000
        k(    7) = (   0.0379955  -0.0419301   0.0000000), wk =   0.1250000
        k(    8) = (  -0.0759910  -0.0000099   0.0000000), wk =   0.0625000
[...]
     atom  16 (R=0.715)  charge=  4.8722  magn=  0.0000
     atom  17 (R=0.715)  charge=  4.8476  magn= -0.0000
     atom  18 (R=0.715)  charge=  4.8546  magn= -0.0000
     atom  19 (R=0.715)  charge=  7.8557  magn= -0.0000
     atom  20 (R=0.715)  charge=  7.8308  magn=  0.0000
     atom  21 (R=0.715)  charge=  4.7478  magn= -0.0006
     atom  22 (R=0.715)  charge=  4.8259  magn= -0.0000
     atom  23 (R=0.715)  charge=  4.8532  magn=  0.0000
     atom  24 (R=0.715)  charge=  4.8532  magn=  0.0000
     atom  25 (R=0.715)  charge=  7.8451  magn= -0.0006
     atom  26 (R=0.715)  charge=  7.8288  magn=  0.0002
     atom  27 (R=0.715)  charge=  4.8545  magn=  0.0000
     atom  28 (R=0.715)  charge=  4.8906  magn= -0.0000
     atom  29 (R=0.715)  charge=  4.8616  magn= -0.0000
     atom  30 (R=0.715)  charge=  4.8623  magn= -0.0000
     atom  31 (R=0.715)  charge=  7.8277  magn=  0.0000
     atom  32 (R=0.715)  charge=  7.8194  magn= -0.0002
     atom  33 (R=0.715)  charge=  4.8755  magn=  0.0000
     atom  34 (R=0.715)  charge=  4.8372  magn=  0.0000
     atom  35 (R=0.715)  charge=  4.8620  magn= -0.0000
     atom  36 (R=0.715)  charge=  4.8623  magn=  0.0000
     atom  37 (R=0.715)  charge=  7.8196  magn= -0.0000
     atom  38 (R=0.715)  charge=  7.8303  magn=  0.0000
     atom  39 (R=0.715)  charge=  4.8445  magn= -0.0000
     atom  40 (R=0.715)  charge=  4.8783  magn=  0.0000
     atom  41 (R=0.715)  charge=  4.8510  magn= -0.0000
     atom  42 (R=0.715)  charge=  4.8519  magn= -0.0000
     atom  43 (R=0.715)  charge=  7.8536  magn= -0.0000
     atom  44 (R=0.715)  charge=  7.8554  magn=  0.0000
     atom  45 (R=0.715)  charge=  4.7478  magn= -0.0002
     atom  46 (R=0.715)  charge=  4.8532  magn=  0.0000
     atom  47 (R=0.715)  charge=  4.8532  magn=  0.0001
     atom  48 (R=0.419)  charge=  0.4545  magn=  0.0000
     atom  49 (R=0.419)  charge=  1.3288  magn= -0.0000
     atom  50 (R=0.449)  charge=  0.8459  magn=  0.0000
     atom  51 (R=0.419)  charge=  0.4420  magn= -0.0000
     atom  52 (R=0.419)  charge=  0.4411  magn= -0.0000
     atom  53 (R=0.419)  charge=  0.4478  magn= -0.0000

     End of self-consistent calculation

 ------ SPIN UP ------------

          k = 0.0000 0.0000 0.0000 ( 18029 PWs)   bands (ev):

   -55.9949 -55.9878 -55.9609 -55.9516 -55.9023 -55.8378 -55.8377 -55.8033
   -55.7987 -55.7648 -55.7591 -55.7255 -55.5391 -55.2716 -54.9679 -54.9339
   -32.5466 -32.4765 -32.3495 -32.3394 -32.3150 -32.2979 -32.2876 -32.2501
   -32.2357 -32.2354 -32.2114 -32.2040 -32.1703 -32.1468 -32.1397 -32.1336
   -32.1301 -32.0984 -32.0771 -32.0518 -32.0481 -32.0404 -32.0251 -31.9981
   -31.9909 -31.9904 -31.9849 -31.9771 -31.9623 -31.9569 -31.9533 -31.9433
   -31.9354 -31.9284 -31.9122 -31.9059 -31.8716 -31.8083 -31.7101 -31.5463
   -31.5414 -31.4666 -31.3746 -31.2868 -31.2643 -31.1912 -31.1048 -30.9938
   -16.7556 -16.4723 -16.2928 -16.1497 -16.1176 -16.0321 -15.8312 -15.7045
   -15.6923 -15.5885 -15.5556 -15.5293 -15.5226 -15.4962 -15.4911 -15.4302
   -15.4282 -15.4146 -15.4053 -15.3484 -15.3238 -15.2705 -15.1911 -15.1581
   -15.1527 -15.1251 -15.0431 -15.0380 -14.5844 -14.1756 -13.4692 -13.3528
    -8.9292  -4.3606  -4.1266  -3.9523  -3.9130  -3.8975  -3.8475  -3.5934
    -3.5784  -3.3299  -3.2278  -3.1928  -3.1777  -3.1687  -3.1485  -3.1376
    -2.8911  -2.8243  -2.8094  -2.7873  -2.7795  -2.7733  -2.7612  -2.7606
    -2.7211  -2.6584  -2.5329  -2.4979  -2.4196  -2.3824  -2.3520  -2.3046
    -2.2605  -2.2535  -2.2425  -2.2238  -2.2110  -2.1873  -2.1709  -2.0370
    -1.9710  -1.8355  -1.8009  -1.7813  -1.5954  -1.5369  -1.4721  -1.4334
    -1.4201  -1.4131  -1.3813  -1.2996  -1.2081  -1.1520  -1.1418  -1.0855
    -1.0082  -0.9966  -0.8890  -0.8838  -0.8568  -0.7659  -0.7556  -0.7444
    -0.7252  -0.6574  -0.5566  -0.4797  -0.4347  -0.4046  -0.3739  -0.3044
    -0.2743  -0.1720  -0.1564  -0.1081  -0.1032  -0.0616  -0.0164  -0.0070
     0.0019   0.0098   0.0350   0.1775   0.2885   0.3434   0.3837   0.3896
     0.5441   0.5716   0.6687   0.7570   0.9822   1.0552   1.1478   1.2477
     1.3232   1.6261   1.6714   3.1484   3.2275   3.2809   3.2895   3.3922
     3.3976   3.5979   3.6076   3.6205   3.6879

[...]

          k =-0.0760-0.0000 0.0000 ( 17886 PWs)   bands (ev):

[...]

 ------ SPIN DOWN ----------

[...]

          k = 0.0380-0.0419 0.0000 ( 17876 PWs)   bands (ev):

[...]

          k =-0.0760-0.0839 0.0000 ( 17948 PWs)   bands (ev):

   -55.9792 -55.9783 -55.9709 -55.9684 -55.8973 -55.8427 -55.8213 -55.8198
   -55.7828 -55.7809 -55.7429 -55.7418 -55.5380 -55.2724 -54.9501 -54.9500
   -32.3515 -32.3480 -32.2923 -32.2917 -32.2809 -32.2746 -32.2736 -32.2600
   -32.1982 -32.1971 -32.1921 -32.1878 -32.1643 -32.1332 -32.1184 -32.1143
   -32.1012 -32.0991 -32.0985 -32.0977 -32.0939 -32.0825 -32.0802 -32.0486
   -32.0408 -32.0397 -32.0102 -31.9991 -31.9795 -31.9791 -31.9754 -31.9744
   -31.9576 -31.9570 -31.9557 -31.9528 -31.8773 -31.8107 -31.7054 -31.6107
   -31.5432 -31.4910 -31.2764 -31.2764 -31.1866 -31.1865 -31.1474 -31.1474
   -16.2093 -16.1741 -15.9374 -15.9262 -15.9194 -15.9039 -15.7580 -15.7111
   -15.6996 -15.6925 -15.6697 -15.6466 -15.5889 -15.5601 -15.5311 -15.5225
   -15.5164 -15.5143 -15.4525 -15.4474 -15.4243 -15.4174 -15.3037 -15.2999
   -15.2905 -15.2145 -15.1600 -15.0202 -14.7462 -14.1991 -13.4565 -13.4558
    -8.9339  -4.3724  -3.5033  -3.4632  -3.2808  -3.2452  -3.1781  -3.1615
    -3.1373  -3.0690  -2.9049  -2.8880  -2.8767  -2.8614  -2.8193  -2.8131
    -2.8027  -2.7902  -2.7834  -2.7644  -2.7310  -2.6983  -2.6597  -2.6523
    -2.6437  -2.6188  -2.6077  -2.5863  -2.5744  -2.5434  -2.5344  -2.5168
    -2.4873  -2.2256  -2.2057  -2.1948  -2.1236  -2.1170  -2.0835  -2.0657
    -2.0559  -2.0428  -1.9857  -1.8819  -1.7249  -1.6933  -1.6835  -1.6683
    -1.5848  -1.5758  -1.4223  -1.4010  -1.3808  -1.3437  -1.2897  -1.2671
    -1.2266  -1.1678  -1.1505  -1.0868  -1.0695  -1.0107  -0.9554  -0.9536
    -0.9326  -0.8571  -0.7757  -0.7602  -0.7469  -0.7077  -0.6978  -0.6107
    -0.5871  -0.4938  -0.4796  -0.4218  -0.3963  -0.2949  -0.1357  -0.0109
     0.0427   0.0686   0.1263   0.2248   0.2692   0.2808   0.3249   0.3311
     0.3928   0.4331   0.5464   0.5523   0.6270   0.7183   1.2601   1.4184
     1.4192   1.4895   1.4901   3.4114   3.4165   3.4638   3.4931   3.6480
     3.6525   3.6747   3.6758   3.8006   3.8176

     the Fermi energy is     3.1412 ev

!    total energy              =   -2920.42465578 Ry
     estimated scf accuracy    <       0.00000005 Ry
     smearing contrib. (-TS)   =      -0.02203320 Ry
     internal energy E=F+TS    =   -2920.40262258 Ry

     The total energy is F=E-TS. E is the sum of the following terms:
     one-electron contribution =  -24701.76834416 Ry
     hartree contribution      =   12435.49615441 Ry
     xc contribution           =    -480.87198779 Ry
     ewald contribution        =    9826.74067121 Ry
     electric field correction =       0.00088377 Ry

     total magnetization       =    -0.00 Bohr mag/cell
     absolute magnetization    =     0.01 Bohr mag/cell

     convergence has been achieved in  62 iterations

     Forces acting on atoms (cartesian axes, Ry/au):

     atom    1 type  1   force =     0.00011027   -0.00026472    0.09689538
     atom    2 type  1   force =     0.00001970   -0.00055691   -0.17508107
     atom    3 type  2   force =     0.00013574   -0.00007877   -0.02545421
     atom    4 type  2   force =    -0.00000661   -0.00137125    0.05231548
     atom    5 type  2   force =    -0.01236374   -0.00013377    0.00302415
     atom    6 type  2   force =     0.01378458    0.00023310    0.00238749
     atom    7 type  1   force =     0.00059613    0.00033478   -0.01266554
     atom    8 type  1   force =     0.00047283    0.00593648    0.03105767
     atom    9 type  2   force =    -0.00033472    0.00024132    0.00041316
     atom   10 type  2   force =    -0.00269560    0.00069380   -0.01624952
     atom   11 type  2   force =    -0.00040510    0.00012564    0.00016862
     atom   12 type  2   force =     0.00013564    0.00013648    0.00019462
     atom   13 type  1   force =    -0.00013931    0.00022063    0.00024554
     atom   14 type  1   force =    -0.00002724   -0.00021039   -0.00013742
     atom   15 type  2   force =     0.00021072    0.00010050    0.00034225
     atom   16 type  2   force =    -0.00006732    0.00027456    0.00022373
     atom   17 type  2   force =    -0.00007993   -0.00021521   -0.00024509
     atom   18 type  2   force =     0.00034784   -0.00010787    0.00022285
     atom   19 type  1   force =    -0.00004114    0.00021605   -0.00003004
     atom   20 type  1   force =    -0.00003974   -0.00002207   -0.00037652
     atom   21 type  2   force =     0.00006635   -0.00005719    0.10311007
     atom   22 type  2   force =    -0.00012183    0.00000011    0.00025731
     atom   23 type  2   force =    -0.07162951   -0.00015935   -0.02784109
     atom   24 type  2   force =     0.07155596    0.00032562   -0.02790063
     atom   25 type  1   force =     0.00011508   -0.00023845    0.09668016
     atom   26 type  1   force =     0.00012199   -0.00031746   -0.17524651
     atom   27 type  2   force =     0.00013412   -0.00023453   -0.02453296
     atom   28 type  2   force =     0.00002741   -0.00112840    0.05223276
     atom   29 type  2   force =    -0.01248580    0.00014639    0.00267984
     atom   30 type  2   force =     0.01379517    0.00069294    0.00202331
     atom   31 type  1   force =     0.00049877    0.00289820   -0.01338363
     atom   32 type  1   force =     0.00030318   -0.00821279    0.03147551
     atom   33 type  2   force =    -0.00005862   -0.00006446   -0.00009996
     atom   34 type  2   force =    -0.00183960    0.00055926   -0.02456844
     atom   35 type  2   force =    -0.00013410    0.00010211    0.00004744
     atom   36 type  2   force =    -0.00024881    0.00020311    0.00011954
     atom   37 type  1   force =    -0.00007783    0.00028141    0.00023822
     atom   38 type  1   force =    -0.00023246   -0.00003478   -0.00015046
     atom   39 type  2   force =     0.00006140    0.00021788   -0.00014764
     atom   40 type  2   force =    -0.00017026    0.00026930   -0.00015560
     atom   41 type  2   force =     0.00004634    0.00006832    0.00022476
     atom   42 type  2   force =    -0.00009437   -0.00001120    0.00037447
     atom   43 type  1   force =    -0.00019878   -0.00019292    0.00050779
     atom   44 type  1   force =     0.00031763   -0.00024755    0.00012958
     atom   45 type  2   force =     0.00004875   -0.00006365    0.10311485
     atom   46 type  2   force =    -0.07163931   -0.00008781   -0.02783698
     atom   47 type  2   force =     0.07157253    0.00033592   -0.02791244
     atom   48 type  3   force =    -0.00050653    0.00018853    0.00000620
     atom   49 type  4   force =     0.00039867   -0.00045828   -0.00035616
     atom   50 type  5   force =     0.00142591    0.00038373   -0.00015614
     atom   51 type  3   force =    -0.00055918   -0.00121223   -0.00037623
     atom   52 type  3   force =     0.00028726    0.00066639   -0.00006877
     atom   53 type  3   force =    -0.00039251   -0.00017054    0.00026030

     Total force =     0.368385     Total SCF correction =     0.000232
  @ DRIVER MODE: Message from server: STATUS
  @ DRIVER MODE: Message from server: GETFORCE
  @ DRIVER MODE: Returning v,forces,stress,ensemble

     Writing output data file ./calc.save/
  @ DRIVER MODE: Message from server: STATUS
  @ DRIVER MODE: Message from server: INIT
  @ DRIVER MODE: Receiving replica           0           0
  @ DRIVER MODE: Receiving encoded integer           2
  @ DRIVER MODE:  SCF:  T  FORCE:  T  STRESS:  F  VC:  F  ENSEMBLE:  F
  @ DRIVER MODE:  SCF:  F  FORCE:  F  STRESS:  F  VC:  F  ENSEMBLE:  T
  @ DRIVER MODE: Message from server: STATUS
  @ DRIVER MODE: Message from server: POSDATA
  @ DRIVER MODE: Reading and sharing positions
  @ DRIVER MODE: Received positions
     NEW-OLD atomic charge density approx. for the potential

[...]

     Adding external electric field

     Computed dipole along edir(3) :
        Dipole                0.6843 Ry au,          1.7394 Debye
        Dipole field          0.0013 Ry au,

        Potential amp.       -0.1197 Ry
        Total length         46.3494 bohr

     Generating pointlists ...
  @ DRIVER MODE: BEEF-vdw

[...]

     negative rho (up, down):  9.093E-03 9.093E-03

     negative rho (up, down):  9.093E-03 9.093E-03
 BEEFens 2000 ensemble energies
             -0.345181601472501E+02
             -0.201790289346425E+01
             -0.710476518897505E+01
              0.239574111672737E+02
             -0.118569506136878E+02
             -0.916665699706175E+01
             -0.239306556474289E+02
             -0.500646469910356E+02
             -0.213465535640053E+02
             -0.224972249884823E+02
             -0.209274519615611E+02
              0.423925628383230E+01
              0.199053068285906E+01
             -0.106398163688698E+01
              0.171190081510963E+01
              0.263930843964251E+02
             -0.101486086223553E+02
             -0.716432058891942E+01
              0.117221848142079E+02
             -0.616301273191092E+02
              0.309129735035286E+02
             -0.132780481232761E+02
             -0.238971159381521E+01
             -0.556059876870074E+01
             -0.976347916231589E+00
             -0.210195687290593E+01
              0.477876152745710E+02
             -0.149966499833320E+02
             -0.397237012941872E+01
             -0.302538994228804E+02
              0.390677138207564E+02
             -0.430606841898513E+01
             -0.212676342305373E+02
              0.111586144431483E+02
             -0.204417497562275E+01
              0.129875407278074E+02
             -0.539445985483496E+00
              0.270308124643375E+01
              0.188850257502467E+02
             -0.543719416660520E+02
              0.303015541150680E+02
              0.809513362339425E+01
             -0.624116958615204E+01
             -0.173812151988266E+02
              0.687328187601608E+01
             -0.108981085957914E+02
              0.247932024253129E+02
              0.197975533792822E+02
             -0.127567546897142E+02
             -0.163106311706401E+02
             -0.172572642220109E+02
             -0.207018956281960E+02
              0.105252241758858E+02
             -0.269466167037016E+02
              0.825237767777008E+01
              0.344470795035782E+02
              0.397335998950676E+02
              0.184931447622149E+02
              0.823748378316870E+01
              0.172648778604021E+02
[...]
             -0.406263605256283E+02
              0.277814186258257E+01
             -0.146958690571141E+01
             -0.565820335859331E+01
              0.537570143309836E-01
             -0.361653446771772E+02
             -0.697002633073541E+01
              0.489542898058481E+01
              0.739065103851389E+01
              0.271085058108117E+02
             -0.237060876272178E+02
              0.308782307762049E+02
             -0.221273663867465E+02
              0.142301737178068E+02
              0.223995338608025E+02

 BEEF-vdW xc energy contributions
           1 :   -407.457101759987
           2 :    355.066398113017
           3 :   -270.428824366455
           4 :    181.962196053569
           5 :   -112.425352238414
           6 :    70.9102197334451
           7 :   -53.7035155759947
           8 :    50.7182558035551
           9 :   -52.4815710494221
          10 :    53.7493183407274
          11 :   -53.3177687373005
          12 :    51.7553014309119
          13 :   -49.5040618207365
          14 :    46.3332939376645
          15 :   -41.9167194426008
          16 :    36.4764907914746
          17 :   -30.9277521278319
          18 :    26.4199443361663
          19 :   -23.7602053187484
          20 :    23.0592859187866
          21 :   -23.8266047132028
          22 :    25.2979111294663
          23 :   -26.7796372995735
          24 :    27.7732959192226
          25 :   -27.9633551755824
          26 :    27.1612064982838
          27 :   -25.3433901862127
          28 :    22.7167928737881
          29 :   -19.7552975994429
          30 :    17.0859679452657
          31 :   -47.8817125995603
          32 :   -32.5257947019766
  @ DRIVER MODE: Message from server: STATUS
  @ DRIVER MODE: Message from server: GETFORCE
  @ DRIVER MODE: Returning v,forces,stress,ensemble
  @ DRIVE MODE: Returning Ensemble Energies

     Writing output data file ./calc.save/
  @ DRIVER MODE: Message from server: EXIT
  @ DRIVE MODE: Exiting

     General routines

     Parallel routines

   This run was terminated on:  16:27:42  30Jun2021

   JOB DONE.