     Program PWSCF v.6.7GPU starts on  8Sep2021 at 23:45: 4

     R & G space division:  proc/nbgrp/npool/nimage =      10
     Reading input from /storage/home/hcoda1/3/ntian30/research/carbon/CxH_vib/C_calc/ads_slab/CN_a/out_0006/pw.inp
Warning: card &CELL ignored
Warning: card   CELL_DYNAMICS='IPI', ignored
Warning: card / ignored

     Current dimensions of program PWSCF are:
     Max number of different atomic species (ntypx) = 10
     Max number of k-points (npk) =  40000
     Max angular momentum in pseudopotentials (lmaxx) =  3
     Presently no symmetry can be used with electric field

     Message from routine cell_base_init:
     DEPRECATED: use true lattice parameter, not A to a.u. conversion factor

     IMPORTANT: XC functional enforced from input :
     Exchange-correlation= BEEF-VDW
                           (   1   4  43  14   2   0   0)
     Any further DFT definition will be discarded
     Please, verify this is what you really want

  @ DRIVER MODE: Connecting to
 qe_1139763_2767374.sched-torque.pace.gatech.edusdde_f3u_scratch
  using UNIX socket
  @ DRIVER MODE: Message from server: STATUS
  @ DRIVER MODE: Message from server: INIT
  @ DRIVER MODE: Receiving replica           0          -1
  @ DRIVER MODE: Receiving encoded integer          25
  @ DRIVER MODE:  SCF:  T  FORCE:  T  STRESS:  F  VC:  F  ENSEMBLE:  F
  @ DRIVER MODE:  SCF:  T  FORCE:  T  STRESS:  F  VC:  F  ENSEMBLE:  F

     Using Slab Decomposition

     bravais-lattice index     =            0
     lattice parameter (alat)  =       1.8897  a.u.
     unit-cell volume          =    6658.9804 (a.u.)^3
     number of atoms/cell      =           49
     number of atomic types    =            4
     number of electrons       =       387.00
     number of Kohn-Sham states=          203
     kinetic-energy cutoff     =      29.3995  Ry
     charge density cutoff     =     293.9946  Ry
     scf convergence threshold =      7.3E-08
     mixing beta               =       0.0500
     number of iterations used =            8  plain     mixing
     Exchange-correlation= BEEF-VDW
                           (   1   4  43  14   2   0   0)

     celldm(1)=   1.889726  celldm(2)=   0.000000  celldm(3)=   0.000000
     celldm(4)=   0.000000  celldm(5)=   0.000000  celldm(6)=   0.000000

     crystal axes: (cart. coord. in units of alat)
               a(1) = (   6.579727   0.000000   0.000000 )
               a(2) = (  -0.000775   5.961596   0.000000 )
               a(3) = (   0.000000   0.000000  25.155947 )

     reciprocal axes: (cart. coord. in units 2 pi/alat)
               b(1) = (  0.151982  0.000020  0.000000 )
               b(2) = (  0.000000  0.167740  0.000000 )
               b(3) = (  0.000000  0.000000  0.039752 )

     PseudoPot. # 1 for Ti read from file:
     /storage/coda1/p-amedford6/0/shared/rich_project_chbe-medford/medford-share/data/pseudos_module/espresso/nninc/pbe/van/Ti.UPF
     MD5 check sum: 8e4df49b7f0d34bbd5052bf3f5ea0213
     Pseudo is Ultrasoft, Zval = 12.0
     Generated by new atomic code, or converted to UPF format
     Using radial grid of  851 points,  6 beta functions with:
                l(1) =   0
                l(2) =   0
                l(3) =   1
                l(4) =   1
                l(5) =   2
                l(6) =   2
     Q(r) pseudized with  8 coefficients,  rinner =    1.000   1.000   1.000
                                                       1.000   1.000

     PseudoPot. # 2 for O  read from file:
     /storage/coda1/p-amedford6/0/shared/rich_project_chbe-medford/medford-share/data/pseudos_module/espresso/nninc/pbe/van/O.UPF
     MD5 check sum: 78c19812648e8988a0fe644b0f25305e
     Pseudo is Ultrasoft, Zval =  6.0
     Generated by new atomic code, or converted to UPF format
     Using radial grid of  737 points,  4 beta functions with:
                l(1) =   0
                l(2) =   0
                l(3) =   1
                l(4) =   1
     Q(r) pseudized with  8 coefficients,  rinner =    0.800   0.800   0.800

     PseudoPot. # 3 for N  read from file:
     /storage/coda1/p-amedford6/0/shared/rich_project_chbe-medford/medford-share/data/pseudos_module/espresso/nninc/pbe/van/N.UPF
     MD5 check sum: 90d10febe142ad51ac9d5be1deb811c4
     Pseudo is Ultrasoft, Zval =  5.0
     Generated by new atomic code, or converted to UPF format
     Using radial grid of  729 points,  4 beta functions with:
                l(1) =   0
                l(2) =   0
                l(3) =   1
                l(4) =   1
     Q(r) pseudized with  8 coefficients,  rinner =    0.800   0.800   0.800

     PseudoPot. # 4 for C  read from file:
     /storage/coda1/p-amedford6/0/shared/rich_project_chbe-medford/medford-share/data/pseudos_module/espresso/nninc/pbe/van/C.UPF
     MD5 check sum: 1a69bf6b8db32088f5b2163dbdb77a27
     Pseudo is Ultrasoft, Zval =  4.0
     Generated by new atomic code, or converted to UPF format
     Using radial grid of  721 points,  4 beta functions with:
                l(1) =   0
                l(2) =   0
                l(3) =   1
                l(4) =   1
     Q(r) pseudized with  8 coefficients,  rinner =    0.800   0.800   0.800

     atomic species   valence    mass     pseudopotential
        Ti1           12.00    47.86700     Ti( 1.00)
        O1             6.00    15.99900     O ( 1.00)
        N1             5.00    14.00700     N ( 1.00)
        C1             4.00    12.01100     C ( 1.00)

     No symmetry found

   Cartesian axes

     site n.     atom                  positions (alat units)
         1           Ti1 tau(   1) = (   0.0004258   2.9801865   6.0000000  )
         2           Ti1 tau(   2) = (   3.2906075   1.4906267   6.0002472  )
         3           O1  tau(   3) = (   0.0006271   0.0005054   7.9858123  )
         4           O1  tau(   4) = (   3.2906025   0.0005020   7.3038282  )
         5           O1  tau(   5) = (   4.5942328   1.4918067   9.2879030  )
         6           O1  tau(   6) = (   1.9868534   1.4903216   9.2879459  )
         7           Ti1 tau(   7) = (   3.2907910   2.8959150   9.1758416  )
         8           Ti1 tau(   8) = (   0.0015273   1.4827037   9.2680791  )
         9           O1  tau(   9) = (   3.2906544   5.9526486  11.3360365  )
        10           O1  tau(  10) = (   0.0116148   5.9584955  10.6183126  )
        11           O1  tau(  11) = (   1.2859751   1.4766153  12.6250921  )
        12           O1  tau(  12) = (   5.2747213   1.4793106  12.6166009  )
        13           Ti1 tau(  13) = (   0.0603843   2.9584451  12.6427671  )
        14           Ti1 tau(  14) = (   3.3778536   1.4756059  12.4863933  )
        15           O1  tau(  15) = (   6.5752277   0.0194043  14.6532461  )
        16           O1  tau(  16) = (   3.2875826   0.0023437  13.9196692  )
        17           O1  tau(  17) = (   4.5326611   1.5140167  16.0393429  )
        18           O1  tau(  18) = (   2.0377802   1.5105360  16.0392308  )
        19           Ti1 tau(  19) = (   3.2776205   2.9998382  15.7112304  )
        20           Ti1 tau(  20) = (   6.5636215   1.4772787  15.8536107  )
        21           O1  tau(  21) = (   3.2904802   0.0005063   4.7018136  )
        22           O1  tau(  22) = (   6.5677839   0.0282815  17.1640259  )
        23           O1  tau(  23) = (   1.3043587   1.4918075   6.0039043  )
        24           O1  tau(  24) = (   5.2767064   1.4903225   6.0039473  )
        25           Ti1 tau(  25) = (   0.0000382   5.9609847   6.0000000  )
        26           Ti1 tau(  26) = (   3.2902200   4.4714249   6.0002472  )
        27           O1  tau(  27) = (   0.0002396   2.9813036   7.9858123  )
        28           O1  tau(  28) = (   3.2902150   2.9813002   7.3038282  )
        29           O1  tau(  29) = (   4.5938453   4.4726049   9.2879030  )
        30           O1  tau(  30) = (   1.9864658   4.4711199   9.2879459  )
        31           Ti1 tau(  31) = (   3.2891106   5.8743827   9.1763621  )
        32           Ti1 tau(  32) = (   0.0006254   4.4649316   9.2693709  )
        33           O1  tau(  33) = (   3.2934253   2.9766276  11.3360394  )
        34           O1  tau(  34) = (   0.0092240   2.9805883  10.6323155  )
        35           O1  tau(  35) = (   1.2837843   4.4682058  12.6378402  )
        36           O1  tau(  36) = (   5.2794199   4.4724371  12.6287280  )
        37           Ti1 tau(  37) = (   0.0629162   5.9364049  12.5278104  )
        38           Ti1 tau(  38) = (   3.3790601   4.4565194  12.4925032  )
        39           O1  tau(  39) = (   6.5767340   2.9373485  14.6650829  )
        40           O1  tau(  40) = (   3.2863475   2.9847055  13.9098935  )
        41           O1  tau(  41) = (   4.5306188   4.4848726  16.0532295  )
        42           O1  tau(  42) = (   2.0355158   4.4881816  16.0516428  )
        43           Ti1 tau(  43) = (   3.2786155   0.0182257  15.7221571  )
        44           Ti1 tau(  44) = (   6.5667443   4.6373684  16.0773964  )
        45           O1  tau(  45) = (   3.2900926   2.9813045   4.7018136  )
        46           O1  tau(  46) = (   1.3039711   4.4726057   6.0039043  )
        47           O1  tau(  47) = (   5.2763189   4.4711207   6.0039473  )
        48           N1  tau(  48) = (   0.0024438   2.9903893  17.4849376  )
        49           C1  tau(  49) = (   0.0264708   2.9368645  18.6621426  )

     number of k points=    10  Fermi-Dirac smearing, width (Ry)=  0.0073
                       cart. coord. in units 2pi/alat
        k(    1) = (   0.0000000   0.0000000   0.0000000), wk =   0.1250000
        k(    2) = (   0.0000000   0.0419351   0.0000000), wk =   0.2500000
        k(    3) = (   0.0000000  -0.0838702   0.0000000), wk =   0.1250000
        k(    4) = (   0.0379955   0.0000049   0.0000000), wk =   0.2500000
        k(    5) = (   0.0379955   0.0419400   0.0000000), wk =   0.2500000
        k(    6) = (   0.0379955  -0.0838652   0.0000000), wk =   0.2500000
        k(    7) = (   0.0379955  -0.0419301   0.0000000), wk =   0.2500000
        k(    8) = (  -0.0759910  -0.0000099   0.0000000), wk =   0.1250000
        k(    9) = (  -0.0759910   0.0419252   0.0000000), wk =   0.2500000
        k(   10) = (  -0.0759910  -0.0838800   0.0000000), wk =   0.1250000

     Initial potential from superposition of free atoms

     starting charge  370.99920, renormalised to  387.00000

     negative rho (up, down):  1.999E-02 0.000E+00

     %%%%%%%%%%%%%%%%%%%%%%%%%%%%%%%%%%%%%%%%%%%%%%%%%%%%%%%%%%%%%%%%%%%%%%%%
     %                                                                      %
     % You are using vdW-DF, which was implemented by the Thonhauser group. %
     % Please cite the following two papers that made this development      %
     % possible and the two reviews that describe the various versions:     %
     %                                                                      %
     %   T. Thonhauser et al., PRL 115, 136402 (2015).                      %
     %   T. Thonhauser et al., PRB 76, 125112 (2007).                       %
     %   K. Berland et al., Rep. Prog. Phys. 78, 066501 (2015).             %
     %   D.C. Langreth et al., J. Phys.: Condens. Matter 21, 084203 (2009). %
     %                                                                      %
     %                                                                      %
     % If you are calculating the stress with vdW-DF, please also cite:     %
     %                                                                      %
     %   R. Sabatini et al., J. Phys.: Condens. Matter 24, 424209 (2012).   %
     %                                                                      %
     %%%%%%%%%%%%%%%%%%%%%%%%%%%%%%%%%%%%%%%%%%%%%%%%%%%%%%%%%%%%%%%%%%%%%%%%

     Adding external electric field

     Computed dipole along edir(3) :
        Dipole               -3.3395 Ry au,         -8.4883 Debye
        Dipole field         -0.0063 Ry au,

        Potential amp.        0.5842 Ry
        Total length         46.3494 bohr

     Starting wfcs are  292 atomic wfcs
  @ DRIVER MODE: Message from server: STATUS
  @ DRIVER MODE: Message from server: POSDATA
  @ DRIVER MODE: Reading and sharing cell
  @ DRIVER MODE: Reading and sharing positions
  @ DRIVER MODE: Received positions

     Self-consistent Calculation

     iteration #  1     ecut=    29.40 Ry     beta= 0.05
     Davidson diagonalization with overlap
     c_bands:  3 eigenvalues not converged
     c_bands:  1 eigenvalues not converged
     c_bands:  5 eigenvalues not converged
     c_bands:  1 eigenvalues not converged
     c_bands:  4 eigenvalues not converged
     ethr =  1.00E-05,  avg # of iterations = 18.6

[...]

     total energy              =   -2907.13909960 Ry
     estimated scf accuracy    <     120.31581138 Ry

     iteration #  2     ecut=    29.40 Ry     beta= 0.05
     Davidson diagonalization with overlap
     ethr =  1.00E-02,  avg # of iterations = 16.2

[...]

     iteration # 65     ecut=    29.40 Ry     beta= 0.05
     Davidson diagonalization with overlap
     c_bands:  2 eigenvalues not converged
     ethr =  8.19E-11,  avg # of iterations = 14.4

[...]

     total energy              =   -2915.40589481 Ry
     estimated scf accuracy    <       0.00000015 Ry

     iteration # 66     ecut=    29.40 Ry     beta= 0.05
     Davidson diagonalization with overlap
     ethr =  3.94E-11,  avg # of iterations =  9.4

     negative rho (up, down):  1.872E-02 0.000E+00

     Adding external electric field

     Computed dipole along edir(3) :
        Dipole               -0.3142 Ry au,         -0.7986 Debye
        Dipole field         -0.0006 Ry au,

        Potential amp.        0.0550 Ry
        Total length         46.3494 bohr

     End of self-consistent calculation

          k = 0.0000 0.0000 0.0000 ( 18029 PWs)   bands (ev):

   -56.6873 -56.6755 -56.6532 -56.6391 -56.5526 -56.5419 -56.5178 -56.5066
   -56.4972 -56.4653 -56.4631 -56.4319 -56.4315 -56.2157 -55.6673 -55.6332
   -33.2267 -33.1702 -33.0417 -33.0137 -32.9970 -32.9825 -32.9799 -32.9556
   -32.9304 -32.9016 -32.8997 -32.8800 -32.8740 -32.8539 -32.8395 -32.8281
   -32.8126 -32.7969 -32.7920 -32.7808 -32.7585 -32.7456 -32.7444 -32.6968
   -32.6966 -32.6899 -32.6887 -32.6865 -32.6853 -32.6664 -32.6557 -32.6482
   -32.6393 -32.6321 -32.6317 -32.6234 -32.6182 -32.6005 -32.5770 -32.4604
   -32.4398 -32.4219 -32.0744 -31.9860 -31.9635 -31.8912 -31.8047 -31.6936
   -17.4263 -17.1650 -16.9318 -16.8442 -16.8187 -16.6734 -16.5371 -16.4190
   -16.3436 -16.2958 -16.2477 -16.2365 -16.2247 -16.1904 -16.1501 -16.1346
   -16.1277 -16.1066 -16.0747 -16.0652 -16.0486 -16.0279 -15.9875 -15.8618
   -15.8229 -15.7703 -15.7471 -15.7171 -15.4560 -15.3359 -14.1698 -14.0534
    -5.2661  -4.7934  -4.6468  -4.5943  -4.5366  -4.4539  -4.3053  -4.2158
    -3.9449  -3.8749  -3.8532  -3.8362  -3.7919  -3.6114  -3.5877  -3.5041
    -3.4897  -3.4870  -3.4664  -3.4488  -3.4433  -3.3898  -3.2995  -3.2449
    -3.2323  -3.1275  -3.0880  -3.0750  -3.0110  -3.0008  -2.9778  -2.9437
    -2.9255  -2.9230  -2.9034  -2.8705  -2.7631  -2.7463  -2.6582  -2.5610
    -2.4898  -2.4289  -2.2976  -2.1687  -2.1549  -2.1186  -2.0970  -2.0805
    -2.0152  -1.9851  -1.9347  -1.8568  -1.8514  -1.7996  -1.7438  -1.6723
    -1.6405  -1.5679  -1.5020  -1.4508  -1.4484  -1.4344  -1.3615  -1.1749
    -1.1321  -1.1095  -1.0666  -1.0082  -0.9613  -0.9556  -0.8929  -0.8711
    -0.8274  -0.7786  -0.7422  -0.7200  -0.7113  -0.6902  -0.6812  -0.6442
    -0.5950  -0.4880  -0.4505  -0.4144  -0.3794  -0.2704  -0.1386  -0.0604
    -0.0321   0.0841   0.2805   0.3548   0.4475   0.5466   0.5700   0.9262
     0.9720   2.4441   2.5328   2.5767   2.5927   2.6785   2.6957   2.8993
     2.9267   2.9365   2.9962

[...]

          k = 0.0380-0.0419 0.0000 ( 17876 PWs)   bands (ev):

[...]

          k =-0.0760-0.0000 0.0000 ( 17886 PWs)   bands (ev):

[...]

          k =-0.0760-0.0839 0.0000 ( 17948 PWs)   bands (ev):

   -56.6711 -56.6693 -56.6601 -56.6543 -56.5370 -56.5332 -56.5286 -56.5199
   -56.4816 -56.4783 -56.4508 -56.4462 -56.4306 -56.2168 -55.6503 -55.6501
   -33.0327 -33.0271 -32.9860 -32.9848 -32.9661 -32.9645 -32.9353 -32.9308
   -32.8893 -32.8832 -32.8658 -32.8619 -32.8260 -32.8208 -32.8194 -32.8150
   -32.8089 -32.8027 -32.7936 -32.7908 -32.7889 -32.7882 -32.7843 -32.7468
   -32.7380 -32.7324 -32.7310 -32.7274 -32.7015 -32.6827 -32.6813 -32.6799
   -32.6770 -32.6652 -32.6632 -32.6619 -32.6536 -32.6433 -32.6391 -32.5033
   -32.4663 -32.4424 -31.9763 -31.9762 -31.8872 -31.8871 -31.8480 -31.8479
   -16.8426 -16.8291 -16.6681 -16.6024 -16.5795 -16.5723 -16.5337 -16.3928
   -16.3788 -16.3777 -16.3041 -16.2673 -16.2570 -16.2286 -16.2135 -16.2101
   -16.1989 -16.1872 -16.1485 -16.1428 -16.1316 -16.1205 -16.0878 -16.0561
   -16.0080 -16.0035 -15.8261 -15.7078 -15.5968 -15.4569 -14.1553 -14.1550
    -5.1545  -4.1313  -4.1138  -3.9405  -3.8315  -3.8213  -3.7719  -3.6406
    -3.5886  -3.5811  -3.5486  -3.5306  -3.5175  -3.5100  -3.5004  -3.4715
    -3.4411  -3.4072  -3.3917  -3.3726  -3.3619  -3.3430  -3.3238  -3.3162
    -3.3005  -3.2774  -3.2450  -3.2315  -3.2152  -3.1859  -3.0505  -2.9444
    -2.8815  -2.8323  -2.8201  -2.8086  -2.7636  -2.7533  -2.7421  -2.7032
    -2.5602  -2.5214  -2.3940  -2.3912  -2.3447  -2.2894  -2.2847  -2.1451
    -2.1188  -2.1071  -2.0871  -2.0232  -1.9925  -1.9169  -1.8908  -1.8381
    -1.8117  -1.7670  -1.6943  -1.6835  -1.6563  -1.6468  -1.6383  -1.5628
    -1.5178  -1.4524  -1.4465  -1.4258  -1.3651  -1.3340  -1.2814  -1.2026
    -1.1658  -1.0323  -0.9710  -0.7913  -0.7758  -0.6721  -0.6153  -0.5976
    -0.5510  -0.5140  -0.3879  -0.3767  -0.3695  -0.2968  -0.2870  -0.2725
    -0.1624  -0.1526  -0.1324   0.0513   0.5582   0.7182   0.7191   0.7915
     0.7920   2.7537   2.7602   2.7969   2.8157   2.9483   2.9578   2.9791
     2.9808   3.0897   3.1085

     the Fermi energy is     2.4457 ev

!    total energy              =   -2915.40591743 Ry
     estimated scf accuracy    <       0.00000007 Ry
     smearing contrib. (-TS)   =      -0.02158629 Ry
     internal energy E=F+TS    =   -2915.38433114 Ry

     The total energy is F=E-TS. E is the sum of the following terms:
     one-electron contribution =  -24969.27362267 Ry
     hartree contribution      =   12559.65285812 Ry
     xc contribution           =    -477.46070180 Ry
     ewald contribution        =    9971.69694889 Ry
     electric field correction =       0.00018632 Ry

     convergence has been achieved in  66 iterations

     Forces acting on atoms (cartesian axes, Ry/au):

     atom    1 type  1   force =     0.00014835   -0.00019888    0.09632972
     atom    2 type  1   force =    -0.00010868   -0.00060313   -0.17545042
     atom    3 type  2   force =     0.00003346   -0.00003023   -0.02457455
     atom    4 type  2   force =     0.00008622   -0.00145705    0.05307146
     atom    5 type  2   force =    -0.01196988   -0.00120485    0.00382055
     atom    6 type  2   force =     0.01362667   -0.00046918    0.00270131
     atom    7 type  1   force =    -0.00106997    0.00059209   -0.01041092
     atom    8 type  1   force =     0.00049038    0.01692157    0.02646994
     atom    9 type  2   force =    -0.00004610   -0.00011044   -0.00059152
     atom   10 type  2   force =    -0.00123549    0.00038336   -0.01546700
     atom   11 type  2   force =     0.00005471    0.00022177   -0.00015999
     atom   12 type  2   force =     0.00013800    0.00034578   -0.00032412
     atom   13 type  1   force =    -0.00015708   -0.00004588   -0.00005558
     atom   14 type  1   force =     0.00000995    0.00030008   -0.00028253
     atom   15 type  2   force =    -0.00013751   -0.00000407    0.00126280
     atom   16 type  2   force =    -0.00005192    0.00039083    0.00003401
     atom   17 type  2   force =     0.00025963    0.00007083   -0.00000647
     atom   18 type  2   force =    -0.00038004    0.00025369    0.00013186
     atom   19 type  1   force =     0.00021173   -0.00014763    0.00053093
     atom   20 type  1   force =    -0.00015586    0.00014487    0.00089408
     atom   21 type  2   force =     0.00009996   -0.00000865    0.10329204
     atom   22 type  2   force =     0.00056042    0.00022892   -0.00034223
     atom   23 type  2   force =    -0.07142176   -0.00008366   -0.02760772
     atom   24 type  2   force =     0.07142663    0.00034157   -0.02762197
     atom   25 type  1   force =     0.00005552   -0.00022464    0.09625317
     atom   26 type  1   force =    -0.00018566   -0.00016244   -0.17555792
     atom   27 type  2   force =     0.00009834   -0.00023499   -0.02349639
     atom   28 type  2   force =     0.00011536   -0.00123680    0.05335950
     atom   29 type  2   force =    -0.01213188    0.00067384    0.00353827
     atom   30 type  2   force =     0.01370594    0.00102696    0.00242550
     atom   31 type  1   force =    -0.00092241    0.00337092   -0.01153089
     atom   32 type  1   force =     0.00066823   -0.01867838    0.02685826
     atom   33 type  2   force =    -0.00014562    0.00029129   -0.00001622
     atom   34 type  2   force =    -0.00097196    0.00038843   -0.02315454
     atom   35 type  2   force =     0.00016220    0.00000622   -0.00005441
     atom   36 type  2   force =    -0.00013544    0.00003326   -0.00019609
     atom   37 type  1   force =    -0.00022178   -0.00019204   -0.00042029
     atom   38 type  1   force =    -0.00006208    0.00027684   -0.00039621
     atom   39 type  2   force =     0.00017353   -0.00053866    0.00064648
     atom   40 type  2   force =    -0.00005055    0.00016179    0.00044973
     atom   41 type  2   force =     0.00057082   -0.00044753   -0.00017392
     atom   42 type  2   force =    -0.00060657   -0.00063609   -0.00029731
     atom   43 type  1   force =     0.00012376   -0.00003989   -0.00002837
     atom   44 type  1   force =    -0.00032575   -0.00104640    0.00160615
     atom   45 type  2   force =     0.00009683   -0.00002997    0.10330234
     atom   46 type  2   force =    -0.07143602   -0.00005342   -0.02762260
     atom   47 type  2   force =     0.07144764    0.00038764   -0.02764234
     atom   48 type  3   force =    -0.00102575    0.00232974   -0.04193460
     atom   49 type  4   force =     0.00059151   -0.00125740    0.03843905

     Total force =     0.372599     Total SCF correction =     0.000646
  @ DRIVER MODE: Message from server: STATUS
  @ DRIVER MODE: Message from server: GETFORCE
  @ DRIVER MODE: Returning v,forces,stress,ensemble

     Writing output data file ./calc.save/
  @ DRIVER MODE: Message from server: EXIT
  @ DRIVE MODE: Exiting

     General routines

     Parallel routines

   This run was terminated on:   0: 7:29   9Sep2021

   JOB DONE.