     Program PWSCF v.6.7GPU starts on 15Sep2021 at 20:30:55

     R & G space division:  proc/nbgrp/npool/nimage =      10
     Reading input from /storage/home/hcoda1/3/ntian30/research/carbon/CxH_vib/H2O_calc/ads_slab/CH3NH2NHH2O_c/out_0014/pw.inp
Warning: card &CELL ignored
Warning: card   CELL_DYNAMICS='IPI', ignored
Warning: card / ignored

     Current dimensions of program PWSCF are:
     Max number of different atomic species (ntypx) = 10
     Max number of k-points (npk) =  40000
     Max angular momentum in pseudopotentials (lmaxx) =  3
     Presently no symmetry can be used with electric field

     Message from routine cell_base_init:
     DEPRECATED: use true lattice parameter, not A to a.u. conversion factor

     IMPORTANT: XC functional enforced from input :
     Exchange-correlation= BEEF-VDW
                           (   1   4  43  14   2   0   0)
     Any further DFT definition will be discarded
     Please, verify this is what you really want

  @ DRIVER MODE: Connecting to
 qe_1139763_2852614.sched-torque.pace.gatech.edu6_s8fybx_scratch
  using UNIX socket
  @ DRIVER MODE: Message from server: STATUS
  @ DRIVER MODE: Message from server: INIT
  @ DRIVER MODE: Receiving replica           0          -1
  @ DRIVER MODE: Receiving encoded integer          25
  @ DRIVER MODE:  SCF:  T  FORCE:  T  STRESS:  F  VC:  F  ENSEMBLE:  F
  @ DRIVER MODE:  SCF:  T  FORCE:  T  STRESS:  F  VC:  F  ENSEMBLE:  F

     Using Slab Decomposition

     bravais-lattice index     =            0
     lattice parameter (alat)  =       1.8897  a.u.
     unit-cell volume          =    6658.9804 (a.u.)^3
     number of atoms/cell      =           59
     number of atomic types    =            5
     number of electrons       =       406.00
     number of Kohn-Sham states=          213
     kinetic-energy cutoff     =      29.3995  Ry
     charge density cutoff     =     293.9946  Ry
     scf convergence threshold =      7.3E-08
     mixing beta               =       0.0500
     number of iterations used =            8  plain     mixing
     Exchange-correlation= BEEF-VDW
                           (   1   4  43  14   2   0   0)

     celldm(1)=   1.889726  celldm(2)=   0.000000  celldm(3)=   0.000000
     celldm(4)=   0.000000  celldm(5)=   0.000000  celldm(6)=   0.000000

     crystal axes: (cart. coord. in units of alat)
               a(1) = (   6.579727   0.000000   0.000000 )
               a(2) = (  -0.000775   5.961596   0.000000 )
               a(3) = (   0.000000   0.000000  25.155947 )

     reciprocal axes: (cart. coord. in units 2 pi/alat)
               b(1) = (  0.151982  0.000020  0.000000 )
               b(2) = (  0.000000  0.167740  0.000000 )
               b(3) = (  0.000000  0.000000  0.039752 )

     PseudoPot. # 1 for Ti read from file:
     /storage/coda1/p-amedford6/0/shared/rich_project_chbe-medford/medford-share/data/pseudos_module/espresso/nninc/pbe/van/Ti.UPF
     MD5 check sum: 8e4df49b7f0d34bbd5052bf3f5ea0213
     Pseudo is Ultrasoft, Zval = 12.0
     Generated by new atomic code, or converted to UPF format
     Using radial grid of  851 points,  6 beta functions with:
                l(1) =   0
                l(2) =   0
                l(3) =   1
                l(4) =   1
                l(5) =   2
                l(6) =   2
     Q(r) pseudized with  8 coefficients,  rinner =    1.000   1.000   1.000
                                                       1.000   1.000

     PseudoPot. # 2 for O  read from file:
     /storage/coda1/p-amedford6/0/shared/rich_project_chbe-medford/medford-share/data/pseudos_module/espresso/nninc/pbe/van/O.UPF
     MD5 check sum: 78c19812648e8988a0fe644b0f25305e
     Pseudo is Ultrasoft, Zval =  6.0
     Generated by new atomic code, or converted to UPF format
     Using radial grid of  737 points,  4 beta functions with:
                l(1) =   0
                l(2) =   0
                l(3) =   1
                l(4) =   1
     Q(r) pseudized with  8 coefficients,  rinner =    0.800   0.800   0.800

     PseudoPot. # 3 for N  read from file:
     /storage/coda1/p-amedford6/0/shared/rich_project_chbe-medford/medford-share/data/pseudos_module/espresso/nninc/pbe/van/N.UPF
     MD5 check sum: 90d10febe142ad51ac9d5be1deb811c4
     Pseudo is Ultrasoft, Zval =  5.0
     Generated by new atomic code, or converted to UPF format
     Using radial grid of  729 points,  4 beta functions with:
                l(1) =   0
                l(2) =   0
                l(3) =   1
                l(4) =   1
     Q(r) pseudized with  8 coefficients,  rinner =    0.800   0.800   0.800

     PseudoPot. # 4 for C  read from file:
     /storage/coda1/p-amedford6/0/shared/rich_project_chbe-medford/medford-share/data/pseudos_module/espresso/nninc/pbe/van/C.UPF
     MD5 check sum: 1a69bf6b8db32088f5b2163dbdb77a27
     Pseudo is Ultrasoft, Zval =  4.0
     Generated by new atomic code, or converted to UPF format
     Using radial grid of  721 points,  4 beta functions with:
                l(1) =   0
                l(2) =   0
                l(3) =   1
                l(4) =   1
     Q(r) pseudized with  8 coefficients,  rinner =    0.800   0.800   0.800

     PseudoPot. # 5 for H  read from file:
     /storage/coda1/p-amedford6/0/shared/rich_project_chbe-medford/medford-share/data/pseudos_module/espresso/nninc/pbe/van/H.UPF
     MD5 check sum: b5ee9d7bfd3a09ee7748110bda690ff7
     Pseudo is Ultrasoft, Zval =  1.0
     Generated by new atomic code, or converted to UPF format
     Using radial grid of  615 points,  1 beta functions with:
                l(1) =   0
     Q(r) pseudized with  8 coefficients,  rinner =    0.800

     atomic species   valence    mass     pseudopotential
        Ti1           12.00    47.86700     Ti( 1.00)
        O1             6.00    15.99900     O ( 1.00)
        N1             5.00    14.00700     N ( 1.00)
        C1             4.00    12.01100     C ( 1.00)
        H1             1.00     1.00800     H ( 1.00)

     No symmetry found

   Cartesian axes

     site n.     atom                  positions (alat units)
         1           Ti1 tau(   1) = (   0.0004258   2.9801865   6.0000000  )
         2           Ti1 tau(   2) = (   3.2906075   1.4906267   6.0002472  )
         3           O1  tau(   3) = (   0.0006271   0.0005054   7.9858123  )
         4           O1  tau(   4) = (   3.2906025   0.0005020   7.3038282  )
         5           O1  tau(   5) = (   4.5942328   1.4918067   9.2879030  )
         6           O1  tau(   6) = (   1.9868534   1.4903216   9.2879459  )
         7           Ti1 tau(   7) = (   3.2907910   2.8959150   9.1758416  )
         8           Ti1 tau(   8) = (   0.0015273   1.4827037   9.2680791  )
         9           O1  tau(   9) = (   3.2795193   0.0050042  11.3600746  )
        10           O1  tau(  10) = (   0.0116148   5.9584955  10.6183126  )
        11           O1  tau(  11) = (   1.2764768   1.4833402  12.6625751  )
        12           O1  tau(  12) = (   5.2691860   1.4824858  12.6730715  )
        13           Ti1 tau(  13) = (   6.5785005   2.9712200  12.5432933  )
        14           Ti1 tau(  14) = (   3.2815129   1.4861921  12.5133659  )
        15           O1  tau(  15) = (   0.0084525   5.9333602  14.7514412  )
        16           O1  tau(  16) = (   3.2474592   5.9449689  14.0025778  )
        17           O1  tau(  17) = (   4.5272503   1.5270814  16.0535473  )
        18           O1  tau(  18) = (   2.0088677   1.5398698  16.1918835  )
        19           Ti1 tau(  19) = (   3.2695027   3.0127370  15.7044713  )
        20           Ti1 tau(  20) = (   6.4897317   1.5391078  15.7731133  )
        21           O1  tau(  21) = (   3.2904802   0.0005063   4.7018136  )
        22           O1  tau(  22) = (   6.4943121   0.0104379  17.3746616  )
        23           O1  tau(  23) = (   1.3043587   1.4918075   6.0039043  )
        24           O1  tau(  24) = (   5.2767064   1.4903225   6.0039473  )
        25           Ti1 tau(  25) = (   0.0000382   5.9609847   6.0000000  )
        26           Ti1 tau(  26) = (   3.2902200   4.4714249   6.0002472  )
        27           O1  tau(  27) = (   0.0002396   2.9813036   7.9858123  )
        28           O1  tau(  28) = (   3.2902150   2.9813002   7.3038282  )
        29           O1  tau(  29) = (   4.5938453   4.4726049   9.2879030  )
        30           O1  tau(  30) = (   1.9864658   4.4711199   9.2879459  )
        31           Ti1 tau(  31) = (   3.2891106   5.8743827   9.1763621  )
        32           Ti1 tau(  32) = (   0.0006254   4.4649316   9.2693709  )
        33           O1  tau(  33) = (   3.2806081   2.9711243  11.3509633  )
        34           O1  tau(  34) = (   0.0092240   2.9805883  10.6323155  )
        35           O1  tau(  35) = (   1.2760424   4.4718827  12.6381679  )
        36           O1  tau(  36) = (   5.2690016   4.4731519  12.6446470  )
        37           Ti1 tau(  37) = (   6.5708669   5.9382087  12.5160675  )
        38           Ti1 tau(  38) = (   3.2845625   4.4656782  12.4980923  )
        39           O1  tau(  39) = (   6.5779858   3.0049062  14.7590937  )
        40           O1  tau(  40) = (   3.2501146   3.0001303  13.9242794  )
        41           O1  tau(  41) = (   4.5300198   4.4412671  16.1793791  )
        42           O1  tau(  42) = (   2.0030354   4.4482434  16.2507355  )
        43           Ti1 tau(  43) = (   3.2558399   0.0045369  15.7947069  )
        44           Ti1 tau(  44) = (   0.0024851   4.6597080  16.1671864  )
        45           O1  tau(  45) = (   3.2900926   2.9813045   4.7018136  )
        46           O1  tau(  46) = (   1.3039711   4.4726057   6.0039043  )
        47           O1  tau(  47) = (   5.2763189   4.4711207   6.0039473  )
        48           N1  tau(  48) = (   0.8610865   2.3037131  18.4629187  )
        49           N1  tau(  49) = (   6.4642385   2.8627238  17.5618644  )
        50           C1  tau(  50) = (   1.1234797   3.0572184  19.7121060  )
        51           H1  tau(  51) = (   0.2160447   3.0254214  20.3281890  )
        52           H1  tau(  52) = (   1.9467850   2.5864873  20.2353232  )
        53           H1  tau(  53) = (   1.3463996   4.0866186  19.4485780  )
        54           H1  tau(  54) = (   0.5832711   1.3114681  18.6183785  )
        55           H1  tau(  55) = (   5.5643591   2.7461405  18.0238738  )
        56           H1  tau(  56) = (   1.7079168   2.1891883  17.8702682  )
        57           O1  tau(  57) = (   4.0734316   0.3075885  18.7765601  )
        58           H1  tau(  58) = (   4.9241673   0.1787741  18.2816895  )
        59           H1  tau(  59) = (   3.8734322   5.3936830  19.1372508  )

     number of k points=    10  Fermi-Dirac smearing, width (Ry)=  0.0073
                       cart. coord. in units 2pi/alat
        k(    1) = (   0.0000000   0.0000000   0.0000000), wk =   0.1250000
        k(    2) = (   0.0000000   0.0419351   0.0000000), wk =   0.2500000
        k(    3) = (   0.0000000  -0.0838702   0.0000000), wk =   0.1250000
        k(    4) = (   0.0379955   0.0000049   0.0000000), wk =   0.2500000
        k(    5) = (   0.0379955   0.0419400   0.0000000), wk =   0.2500000
        k(    6) = (   0.0379955  -0.0838652   0.0000000), wk =   0.2500000
        k(    7) = (   0.0379955  -0.0419301   0.0000000), wk =   0.2500000
        k(    8) = (  -0.0759910  -0.0000099   0.0000000), wk =   0.1250000
        k(    9) = (  -0.0759910   0.0419252   0.0000000), wk =   0.2500000
        k(   10) = (  -0.0759910  -0.0838800   0.0000000), wk =   0.1250000

     Initial potential from superposition of free atoms

     starting charge  389.99912, renormalised to  406.00000

     negative rho (up, down):  1.392E-02 0.000E+00

     %%%%%%%%%%%%%%%%%%%%%%%%%%%%%%%%%%%%%%%%%%%%%%%%%%%%%%%%%%%%%%%%%%%%%%%%
     %                                                                      %
     % You are using vdW-DF, which was implemented by the Thonhauser group. %
     % Please cite the following two papers that made this development      %
     % possible and the two reviews that describe the various versions:     %
     %                                                                      %
     %   T. Thonhauser et al., PRL 115, 136402 (2015).                      %
     %   T. Thonhauser et al., PRB 76, 125112 (2007).                       %
     %   K. Berland et al., Rep. Prog. Phys. 78, 066501 (2015).             %
     %   D.C. Langreth et al., J. Phys.: Condens. Matter 21, 084203 (2009). %
     %                                                                      %
     %                                                                      %
     % If you are calculating the stress with vdW-DF, please also cite:     %
     %                                                                      %
     %   R. Sabatini et al., J. Phys.: Condens. Matter 24, 424209 (2012).   %
     %                                                                      %
     %%%%%%%%%%%%%%%%%%%%%%%%%%%%%%%%%%%%%%%%%%%%%%%%%%%%%%%%%%%%%%%%%%%%%%%%

     Adding external electric field

     Computed dipole along edir(3) :
        Dipole              -15.6809 Ry au,        -39.8568 Debye
        Dipole field         -0.0296 Ry au,

        Potential amp.        2.7431 Ry
        Total length         46.3494 bohr

     Starting wfcs are  308 atomic wfcs
  @ DRIVER MODE: Message from server: STATUS
  @ DRIVER MODE: Message from server: POSDATA
  @ DRIVER MODE: Reading and sharing cell
  @ DRIVER MODE: Reading and sharing positions
  @ DRIVER MODE: Received positions

     Self-consistent Calculation

     iteration #  1     ecut=    29.40 Ry     beta= 0.05
     Davidson diagonalization with overlap
     c_bands:  2 eigenvalues not converged
     c_bands:  5 eigenvalues not converged
     c_bands:  2 eigenvalues not converged
     c_bands:  4 eigenvalues not converged
     c_bands:  4 eigenvalues not converged
     c_bands:  5 eigenvalues not converged
     c_bands:  5 eigenvalues not converged
     c_bands:  1 eigenvalues not converged
     ethr =  1.00E-05,  avg # of iterations = 22.5

[...]

     total energy              =   -2140.13545109 Ry
     estimated scf accuracy    <    9575.46518530 Ry

     iteration #  2     ecut=    29.40 Ry     beta= 0.05
     Davidson diagonalization with overlap
     ethr =  1.00E-02,  avg # of iterations = 31.7

[...]

     iteration # 88     ecut=    29.40 Ry     beta= 0.05
     Davidson diagonalization with overlap
     c_bands:  2 eigenvalues not converged
     ethr =  6.51E-11,  avg # of iterations = 10.0

[...]

     total energy              =   -2977.68474933 Ry
     estimated scf accuracy    <       0.00000008 Ry

     iteration # 91     ecut=    29.40 Ry     beta= 0.05
     Davidson diagonalization with overlap
     ethr =  2.04E-11,  avg # of iterations =  1.3

     negative rho (up, down):  1.243E-02 0.000E+00

     Adding external electric field

     Computed dipole along edir(3) :
        Dipole                1.6083 Ry au,          4.0879 Debye
        Dipole field          0.0030 Ry au,

        Potential amp.       -0.2813 Ry
        Total length         46.3494 bohr

     End of self-consistent calculation

          k = 0.0000 0.0000 0.0000 ( 18029 PWs)   bands (ev):

   -54.9544 -54.9176 -54.9151 -54.8835 -54.8440 -54.8342 -54.7940 -54.7621
   -54.7579 -54.7469 -54.7269 -54.7217 -54.7137 -54.6604 -53.9327 -53.8987
   -31.5264 -31.4076 -31.3208 -31.2819 -31.2654 -31.2515 -31.2492 -31.2439
   -31.2096 -31.2074 -31.1632 -31.1626 -31.1570 -31.1271 -31.1085 -31.0886
   -31.0781 -31.0721 -31.0707 -31.0633 -31.0291 -31.0250 -31.0186 -31.0127
   -30.9925 -30.9746 -30.9639 -30.9633 -30.9557 -30.9556 -30.9452 -30.9368
   -30.9207 -30.9201 -30.9114 -30.9105 -30.8847 -30.8777 -30.8758 -30.8753
   -30.8563 -30.8558 -30.3415 -30.2490 -30.2268 -30.1579 -30.0712 -29.9603
   -18.9531 -18.2092 -15.7894 -15.5215 -15.3962 -15.1963 -15.1430 -15.0382
   -14.8783 -14.8177 -14.7526 -14.7278 -14.7212 -14.6951 -14.6225 -14.5671
   -14.5381 -14.4854 -14.4849 -14.4490 -14.4416 -14.4366 -14.3823 -14.3783
   -14.3417 -14.3281 -14.3205 -14.1776 -14.0988 -14.0514 -14.0400 -13.2014
   -12.4358 -12.3186 -10.9783  -7.5792  -6.4016  -5.9735  -5.7466  -4.0467
    -3.8215  -3.1333  -2.9617  -2.9499  -2.8729  -2.8491  -2.6785  -2.6185
    -2.5105  -2.3943  -2.3183  -2.2207  -2.1768  -2.1587  -2.1450  -2.0313
    -1.9459  -1.9084  -1.8691  -1.8306  -1.8135  -1.7681  -1.7469  -1.7369
    -1.7042  -1.6790  -1.5257  -1.4515  -1.4152  -1.3813  -1.3407  -1.2834
    -1.2622  -1.2454  -1.2398  -1.2319  -1.2156  -1.1911  -1.1556  -1.1235
    -1.0557  -0.9715  -0.9621  -0.8507  -0.7658  -0.6339  -0.5806  -0.5231
    -0.4926  -0.4260  -0.3846  -0.3365  -0.3010  -0.2945  -0.2482  -0.1603
    -0.1476  -0.0898  -0.0714   0.0134   0.0590   0.0651   0.0762   0.2529
     0.2630   0.2809   0.3838   0.4650   0.5035   0.5202   0.5775   0.6401
     0.6422   0.6807   0.7027   0.7333   0.8162   0.9199   0.9449   0.9831
     0.9976   1.0230   1.0400   1.0671   1.1062   1.1875   1.1936   1.2708
     1.3621   1.3739   1.6373   1.6694   2.0001   2.0271   2.0894   2.2753
     2.6640   2.7114   4.1478   4.2097   4.2551   4.2806   4.2989   4.3803
     4.3999   4.6156   4.6419   4.6430   4.6521

[...]

          k = 0.0380-0.0419 0.0000 ( 17876 PWs)   bands (ev):

[...]

          k =-0.0760-0.0000 0.0000 ( 17886 PWs)   bands (ev):

[...]

          k =-0.0760-0.0839 0.0000 ( 17948 PWs)   bands (ev):

   -54.9425 -54.9267 -54.9005 -54.9004 -54.8415 -54.8246 -54.8035 -54.7554
   -54.7468 -54.7413 -54.7321 -54.7292 -54.7240 -54.6628 -53.9157 -53.9156
   -31.3351 -31.3238 -31.2577 -31.2228 -31.2227 -31.2165 -31.1929 -31.1929
   -31.1682 -31.1657 -31.1565 -31.1528 -31.1447 -31.0946 -31.0809 -31.0805
   -31.0760 -31.0750 -31.0718 -31.0690 -31.0420 -31.0318 -31.0294 -31.0230
   -31.0222 -31.0199 -31.0199 -31.0189 -30.9981 -30.9803 -30.9742 -30.9677
   -30.9610 -30.9554 -30.9540 -30.9499 -30.9497 -30.9229 -30.9155 -30.9125
   -30.9079 -30.8979 -30.2395 -30.2394 -30.1541 -30.1540 -30.1146 -30.1146
   -18.9481 -18.2098 -15.2800 -15.1533 -15.0545 -14.9986 -14.9519 -14.9362
   -14.9186 -14.8652 -14.8350 -14.7751 -14.7517 -14.7034 -14.6592 -14.6553
   -14.6277 -14.5482 -14.5329 -14.5205 -14.5130 -14.4620 -14.4480 -14.4252
   -14.4025 -14.3985 -14.3801 -14.3079 -14.2978 -14.2936 -14.2547 -13.2107
   -12.4203 -12.4201 -10.9789  -7.5903  -6.3923  -5.9724  -5.7315  -4.0280
    -3.8118  -2.5627  -2.5406  -2.4051  -2.3909  -2.2798  -2.1875  -2.1373
    -2.1315  -1.9926  -1.9598  -1.9438  -1.9287  -1.9163  -1.8677  -1.8439
    -1.8084  -1.7909  -1.7813  -1.7714  -1.7558  -1.7354  -1.6832  -1.6790
    -1.6685  -1.6541  -1.6101  -1.5944  -1.5634  -1.5527  -1.5244  -1.5017
    -1.4349  -1.3405  -1.2929  -1.2495  -1.1953  -1.1425  -1.1365  -1.0578
    -1.0400  -1.0083  -0.9774  -0.9527  -0.8571  -0.7834  -0.6889  -0.6867
    -0.6828  -0.5632  -0.5230  -0.5056  -0.4927  -0.4629  -0.3782  -0.3682
    -0.3087  -0.2342  -0.2081  -0.2030  -0.1771  -0.0579  -0.0328   0.0277
     0.0583   0.0906   0.0927   0.1718   0.1853   0.2439   0.2588   0.2721
     0.3171   0.3347   0.4330   0.5229   0.5583   0.6615   0.7544   0.7838
     0.8790   0.9366   1.0406   1.0615   1.0854   1.1818   1.1899   1.2251
     1.3542   1.3611   1.4770   1.5168   1.5267   1.5294   2.4475   2.4489
     2.5315   2.5315   4.2741   4.3971   4.4125   4.4587   4.5131   4.6545
     4.6780   4.7252   4.7269   4.8010   4.8096

     the Fermi energy is     4.2000 ev

!    total energy              =   -2977.68475268 Ry
     estimated scf accuracy    <       0.00000007 Ry
     smearing contrib. (-TS)   =      -0.03700377 Ry
     internal energy E=F+TS    =   -2977.64774891 Ry

     The total energy is F=E-TS. E is the sum of the following terms:
     one-electron contribution =  -23305.67684893 Ry
     hartree contribution      =   11753.82814537 Ry
     xc contribution           =    -496.60806580 Ry
     ewald contribution        =    9070.80413913 Ry
     electric field correction =       0.00488133 Ry

     convergence has been achieved in  91 iterations

     Forces acting on atoms (cartesian axes, Ry/au):

     atom    1 type  1   force =     0.00008835   -0.00025381    0.09409654
     atom    2 type  1   force =    -0.00008778   -0.00045703   -0.17746532
     atom    3 type  2   force =     0.00006186   -0.00032822   -0.02122706
     atom    4 type  2   force =     0.00003866   -0.00178859    0.05731081
     atom    5 type  2   force =    -0.01079729   -0.00101886    0.00668727
     atom    6 type  2   force =     0.01199621   -0.00033438    0.00504007
     atom    7 type  1   force =    -0.00060104    0.00105445   -0.01461127
     atom    8 type  1   force =     0.00086349    0.00331213    0.00460220
     atom    9 type  2   force =     0.00000974   -0.00005118    0.00013957
     atom   10 type  2   force =    -0.00368562    0.00211028   -0.00163871
     atom   11 type  2   force =    -0.00018177    0.00061874   -0.00009383
     atom   12 type  2   force =     0.00019780    0.00028449   -0.00021109
     atom   13 type  1   force =    -0.00019709   -0.00027628    0.00008935
     atom   14 type  1   force =     0.00024712   -0.00021783   -0.00038711
     atom   15 type  2   force =     0.00020215    0.00038462   -0.00010762
     atom   16 type  2   force =    -0.00011839    0.00024544   -0.00020051
     atom   17 type  2   force =    -0.00005299   -0.00026838    0.00034694
     atom   18 type  2   force =     0.00025551   -0.00001160   -0.00020082
     atom   19 type  1   force =    -0.00005655    0.00018251   -0.00041832
     atom   20 type  1   force =     0.00048717   -0.00010972   -0.00005254
     atom   21 type  2   force =     0.00011872   -0.00007761    0.10374257
     atom   22 type  2   force =     0.00056576   -0.00032678   -0.00064138
     atom   23 type  2   force =    -0.07066401   -0.00015284   -0.02712389
     atom   24 type  2   force =     0.07062963    0.00031916   -0.02712942
     atom   25 type  1   force =     0.00011183   -0.00016678    0.09372178
     atom   26 type  1   force =    -0.00006423   -0.00053381   -0.17769033
     atom   27 type  2   force =     0.00006813   -0.00005173   -0.02032585
     atom   28 type  2   force =     0.00006601   -0.00146269    0.05631290
     atom   29 type  2   force =    -0.01130391   -0.00039818    0.00737094
     atom   30 type  2   force =     0.01241858   -0.00000056    0.00576017
     atom   31 type  1   force =    -0.00074098    0.00573582   -0.01565362
     atom   32 type  1   force =     0.00082069   -0.00460064    0.00435026
     atom   33 type  2   force =     0.00002166    0.00015198    0.00028728
     atom   34 type  2   force =    -0.00321108   -0.00103142   -0.00518531
     atom   35 type  2   force =    -0.00012198   -0.00039784    0.00008332
     atom   36 type  2   force =     0.00022285   -0.00006832   -0.00009307
     atom   37 type  1   force =    -0.00012707    0.00043346   -0.00013512
     atom   38 type  1   force =     0.00009145    0.00014454   -0.00013262
     atom   39 type  2   force =    -0.00045456   -0.00030120   -0.00014678
     atom   40 type  2   force =     0.00013136   -0.00007626    0.00026745
     atom   41 type  2   force =    -0.00002183    0.00021022   -0.00015963
     atom   42 type  2   force =     0.00045241    0.00008674   -0.00029316
     atom   43 type  1   force =    -0.00021891    0.00003056   -0.00009316
     atom   44 type  1   force =     0.00036288    0.00041299    0.00028318
     atom   45 type  2   force =     0.00010690   -0.00006488    0.10372210
     atom   46 type  2   force =    -0.07065659   -0.00007085   -0.02709782
     atom   47 type  2   force =     0.07063727    0.00033528   -0.02712112
     atom   48 type  3   force =     0.00393606   -0.00054147    0.00096388
     atom   49 type  3   force =     0.00010652   -0.00010163    0.00151738
     atom   50 type  4   force =    -0.02130470    0.00120788    0.00052720
     atom   51 type  5   force =     0.00912480    0.00128487   -0.00438848
     atom   52 type  5   force =     0.00751035   -0.00315206    0.00359688
     atom   53 type  5   force =     0.00242065    0.00147671   -0.00113007
     atom   54 type  5   force =     0.00044127    0.00006488    0.00051091
     atom   55 type  5   force =     0.00035143   -0.00054215   -0.00007881
     atom   56 type  5   force =    -0.00035486   -0.00064370   -0.00016168
     atom   57 type  2   force =    -0.00086584    0.00077171    0.00147831
     atom   58 type  5   force =     0.00032782   -0.00061980   -0.00104109
     atom   59 type  5   force =     0.00039601   -0.00036041   -0.00037262

     Total force =     0.366694     Total SCF correction =     0.000779
  @ DRIVER MODE: Message from server: STATUS
  @ DRIVER MODE: Message from server: GETFORCE
  @ DRIVER MODE: Returning v,forces,stress,ensemble

     Writing output data file ./calc.save/
  @ DRIVER MODE: Message from server: EXIT
  @ DRIVE MODE: Exiting

     General routines

     Parallel routines

   This run was terminated on:  20:56: 2  15Sep2021

   JOB DONE.