     Program PWSCF v.6.7GPU starts on 15Sep2021 at 15:34:19

     R & G space division:  proc/nbgrp/npool/nimage =      10
     Reading input from /storage/home/hcoda1/3/ntian30/research/carbon/CxH_vib/H2O_calc/ads_slab/CH2NNHHHH2O_a/out_0000/pw.inp
Warning: card &CELL ignored
Warning: card   CELL_DYNAMICS='IPI', ignored
Warning: card / ignored

     Current dimensions of program PWSCF are:
     Max number of different atomic species (ntypx) = 10
     Max number of k-points (npk) =  40000
     Max angular momentum in pseudopotentials (lmaxx) =  3
     Presently no symmetry can be used with electric field

     Message from routine cell_base_init:
     DEPRECATED: use true lattice parameter, not A to a.u. conversion factor

     IMPORTANT: XC functional enforced from input :
     Exchange-correlation= BEEF-VDW
                           (   1   4  43  14   2   0   0)
     Any further DFT definition will be discarded
     Please, verify this is what you really want

  @ DRIVER MODE: Connecting to
 qe_1139763_2852612.sched-torque.pace.gatech.eduu495s5n5_scratch
  using UNIX socket
  @ DRIVER MODE: Message from server: STATUS
  @ DRIVER MODE: Message from server: INIT
  @ DRIVER MODE: Receiving replica           0          -1
  @ DRIVER MODE: Receiving encoded integer          25
  @ DRIVER MODE:  SCF:  T  FORCE:  T  STRESS:  F  VC:  F  ENSEMBLE:  F
  @ DRIVER MODE:  SCF:  T  FORCE:  T  STRESS:  F  VC:  F  ENSEMBLE:  F

     Using Slab Decomposition

     bravais-lattice index     =            0
     lattice parameter (alat)  =       1.8897  a.u.
     unit-cell volume          =    6658.9804 (a.u.)^3
     number of atoms/cell      =           58
     number of atomic types    =            5
     number of electrons       =       405.00
     number of Kohn-Sham states=          212
     kinetic-energy cutoff     =      29.3995  Ry
     charge density cutoff     =     293.9946  Ry
     scf convergence threshold =      7.3E-08
     mixing beta               =       0.0500
     number of iterations used =            8  plain     mixing
     Exchange-correlation= BEEF-VDW
                           (   1   4  43  14   2   0   0)

     celldm(1)=   1.889726  celldm(2)=   0.000000  celldm(3)=   0.000000
     celldm(4)=   0.000000  celldm(5)=   0.000000  celldm(6)=   0.000000

     crystal axes: (cart. coord. in units of alat)
               a(1) = (   6.579727   0.000000   0.000000 )
               a(2) = (  -0.000775   5.961596   0.000000 )
               a(3) = (   0.000000   0.000000  25.155947 )

     reciprocal axes: (cart. coord. in units 2 pi/alat)
               b(1) = (  0.151982  0.000020  0.000000 )
               b(2) = (  0.000000  0.167740  0.000000 )
               b(3) = (  0.000000  0.000000  0.039752 )

     PseudoPot. # 1 for Ti read from file:
     /storage/coda1/p-amedford6/0/shared/rich_project_chbe-medford/medford-share/data/pseudos_module/espresso/nninc/pbe/van/Ti.UPF
     MD5 check sum: 8e4df49b7f0d34bbd5052bf3f5ea0213
     Pseudo is Ultrasoft, Zval = 12.0
     Generated by new atomic code, or converted to UPF format
     Using radial grid of  851 points,  6 beta functions with:
                l(1) =   0
                l(2) =   0
                l(3) =   1
                l(4) =   1
                l(5) =   2
                l(6) =   2
     Q(r) pseudized with  8 coefficients,  rinner =    1.000   1.000   1.000
                                                       1.000   1.000

     PseudoPot. # 2 for O  read from file:
     /storage/coda1/p-amedford6/0/shared/rich_project_chbe-medford/medford-share/data/pseudos_module/espresso/nninc/pbe/van/O.UPF
     MD5 check sum: 78c19812648e8988a0fe644b0f25305e
     Pseudo is Ultrasoft, Zval =  6.0
     Generated by new atomic code, or converted to UPF format
     Using radial grid of  737 points,  4 beta functions with:
                l(1) =   0
                l(2) =   0
                l(3) =   1
                l(4) =   1
     Q(r) pseudized with  8 coefficients,  rinner =    0.800   0.800   0.800

     PseudoPot. # 3 for N  read from file:
     /storage/coda1/p-amedford6/0/shared/rich_project_chbe-medford/medford-share/data/pseudos_module/espresso/nninc/pbe/van/N.UPF
     MD5 check sum: 90d10febe142ad51ac9d5be1deb811c4
     Pseudo is Ultrasoft, Zval =  5.0
     Generated by new atomic code, or converted to UPF format
     Using radial grid of  729 points,  4 beta functions with:
                l(1) =   0
                l(2) =   0
                l(3) =   1
                l(4) =   1
     Q(r) pseudized with  8 coefficients,  rinner =    0.800   0.800   0.800

     PseudoPot. # 4 for C  read from file:
     /storage/coda1/p-amedford6/0/shared/rich_project_chbe-medford/medford-share/data/pseudos_module/espresso/nninc/pbe/van/C.UPF
     MD5 check sum: 1a69bf6b8db32088f5b2163dbdb77a27
     Pseudo is Ultrasoft, Zval =  4.0
     Generated by new atomic code, or converted to UPF format
     Using radial grid of  721 points,  4 beta functions with:
                l(1) =   0
                l(2) =   0
                l(3) =   1
                l(4) =   1
     Q(r) pseudized with  8 coefficients,  rinner =    0.800   0.800   0.800

     PseudoPot. # 5 for H  read from file:
     /storage/coda1/p-amedford6/0/shared/rich_project_chbe-medford/medford-share/data/pseudos_module/espresso/nninc/pbe/van/H.UPF
     MD5 check sum: b5ee9d7bfd3a09ee7748110bda690ff7
     Pseudo is Ultrasoft, Zval =  1.0
     Generated by new atomic code, or converted to UPF format
     Using radial grid of  615 points,  1 beta functions with:
                l(1) =   0
     Q(r) pseudized with  8 coefficients,  rinner =    0.800

     atomic species   valence    mass     pseudopotential
        Ti1           12.00    47.86700     Ti( 1.00)
        O1             6.00    15.99900     O ( 1.00)
        N1             5.00    14.00700     N ( 1.00)
        C1             4.00    12.01100     C ( 1.00)
        H1             1.00     1.00800     H ( 1.00)

     No symmetry found

   Cartesian axes

     site n.     atom                  positions (alat units)
         1           Ti1 tau(   1) = (   0.0004258   2.9801865   6.0000000  )
         2           Ti1 tau(   2) = (   3.2906075   1.4906267   6.0002472  )
         3           O1  tau(   3) = (   0.0006271   0.0005054   7.9858123  )
         4           O1  tau(   4) = (   3.2906025   0.0005020   7.3038282  )
         5           O1  tau(   5) = (   4.5942328   1.4918067   9.2879030  )
         6           O1  tau(   6) = (   1.9868534   1.4903216   9.2879459  )
         7           Ti1 tau(   7) = (   3.2907910   2.8959150   9.1758416  )
         8           Ti1 tau(   8) = (   0.0015273   1.4827037   9.2680791  )
         9           O1  tau(   9) = (   3.2987819   5.9401718  11.3551833  )
        10           O1  tau(  10) = (   0.0116148   5.9584955  10.6183126  )
        11           O1  tau(  11) = (   1.3094369   1.4889762  12.6418845  )
        12           O1  tau(  12) = (   5.3041503   1.4933078  12.6143371  )
        13           Ti1 tau(  13) = (   0.0302489   2.9730182  12.5448133  )
        14           Ti1 tau(  14) = (   3.3273137   1.4751619  12.4920661  )
        15           O1  tau(  15) = (   6.5331299   0.0759724  14.6728253  )
        16           O1  tau(  16) = (   3.3443954   0.0128112  13.9985917  )
        17           O1  tau(  17) = (   4.5384157   1.5150964  16.2525342  )
        18           O1  tau(  18) = (   2.0107438   1.5096167  16.1239609  )
        19           Ti1 tau(  19) = (   3.2468703   2.9375149  15.6823127  )
        20           Ti1 tau(  20) = (   6.5402329   1.3810098  16.1103674  )
        21           O1  tau(  21) = (   3.2904802   0.0005063   4.7018136  )
        22           O1  tau(  22) = (   0.0855018   5.8309792  17.2460454  )
        23           O1  tau(  23) = (   1.3043587   1.4918075   6.0039043  )
        24           O1  tau(  24) = (   5.2767064   1.4903225   6.0039473  )
        25           Ti1 tau(  25) = (   0.0000382   5.9609847   6.0000000  )
        26           Ti1 tau(  26) = (   3.2902200   4.4714249   6.0002472  )
        27           O1  tau(  27) = (   0.0002396   2.9813036   7.9858123  )
        28           O1  tau(  28) = (   3.2902150   2.9813002   7.3038282  )
        29           O1  tau(  29) = (   4.5938453   4.4726049   9.2879030  )
        30           O1  tau(  30) = (   1.9864658   4.4711199   9.2879459  )
        31           Ti1 tau(  31) = (   3.2891106   5.8743827   9.1763621  )
        32           Ti1 tau(  32) = (   0.0006254   4.4649316   9.2693709  )
        33           O1  tau(  33) = (   3.2978634   2.9839445  11.3486163  )
        34           O1  tau(  34) = (   0.0092240   2.9805883  10.6323155  )
        35           O1  tau(  35) = (   1.3057425   4.4725738  12.6940039  )
        36           O1  tau(  36) = (   5.3035974   4.4670288  12.6562451  )
        37           Ti1 tau(  37) = (   0.0240142   0.0094741  12.5095027  )
        38           Ti1 tau(  38) = (   3.3290383   4.4615466  12.5202027  )
        39           O1  tau(  39) = (   6.5484913   2.9337383  14.8377676  )
        40           O1  tau(  40) = (   3.3243726   2.9440003  13.9069550  )
        41           O1  tau(  41) = (   4.5478640   4.3999133  16.1372545  )
        42           O1  tau(  42) = (   2.0209518   4.4226222  15.9786897  )
        43           Ti1 tau(  43) = (   3.3220059   5.9437776  15.8132296  )
        44           Ti1 tau(  44) = (   0.0730556   4.5544523  15.7304118  )
        45           O1  tau(  45) = (   3.2900926   2.9813045   4.7018136  )
        46           O1  tau(  46) = (   1.3039711   4.4726057   6.0039043  )
        47           O1  tau(  47) = (   5.2763189   4.4711207   6.0039473  )
        48           N1  tau(  48) = (   0.0453545   2.8788619  17.9090770  )
        49           C1  tau(  49) = (   1.0089482   2.8008358  18.8431878  )
        50           H1  tau(  50) = (   1.0080222   3.4413729  19.7168629  )
        51           H1  tau(  51) = (   1.8954070   2.2543435  18.5800802  )
        52           N1  tau(  52) = (   5.5320326   3.6725468  18.4365114  )
        53           H1  tau(  53) = (   5.8975581   4.6271042  18.6377988  )
        54           H1  tau(  54) = (   4.8553295   3.8628436  17.6443034  )
        55           H1  tau(  55) = (   5.1025442   3.2364756  19.2632064  )
        56           O1  tau(  56) = (   2.8928424   5.6518753  18.2681889  )
        57           H1  tau(  57) = (   3.0708471   0.5134993  18.7460362  )
        58           H1  tau(  58) = (   1.9180978   5.6479514  18.1114729  )

     number of k points=    10  Fermi-Dirac smearing, width (Ry)=  0.0073
                       cart. coord. in units 2pi/alat
        k(    1) = (   0.0000000   0.0000000   0.0000000), wk =   0.1250000
        k(    2) = (   0.0000000   0.0419351   0.0000000), wk =   0.2500000
        k(    3) = (   0.0000000  -0.0838702   0.0000000), wk =   0.1250000
        k(    4) = (   0.0379955   0.0000049   0.0000000), wk =   0.2500000
        k(    5) = (   0.0379955   0.0419400   0.0000000), wk =   0.2500000
        k(    6) = (   0.0379955  -0.0838652   0.0000000), wk =   0.2500000
        k(    7) = (   0.0379955  -0.0419301   0.0000000), wk =   0.2500000
        k(    8) = (  -0.0759910  -0.0000099   0.0000000), wk =   0.1250000
        k(    9) = (  -0.0759910   0.0419252   0.0000000), wk =   0.2500000
        k(   10) = (  -0.0759910  -0.0838800   0.0000000), wk =   0.1250000

     Initial potential from superposition of free atoms

     starting charge  388.99913, renormalised to  405.00000

     negative rho (up, down):  1.580E-02 0.000E+00

     %%%%%%%%%%%%%%%%%%%%%%%%%%%%%%%%%%%%%%%%%%%%%%%%%%%%%%%%%%%%%%%%%%%%%%%%
     %                                                                      %
     % You are using vdW-DF, which was implemented by the Thonhauser group. %
     % Please cite the following two papers that made this development      %
     % possible and the two reviews that describe the various versions:     %
     %                                                                      %
     %   T. Thonhauser et al., PRL 115, 136402 (2015).                      %
     %   T. Thonhauser et al., PRB 76, 125112 (2007).                       %
     %   K. Berland et al., Rep. Prog. Phys. 78, 066501 (2015).             %
     %   D.C. Langreth et al., J. Phys.: Condens. Matter 21, 084203 (2009). %
     %                                                                      %
     %                                                                      %
     % If you are calculating the stress with vdW-DF, please also cite:     %
     %                                                                      %
     %   R. Sabatini et al., J. Phys.: Condens. Matter 24, 424209 (2012).   %
     %                                                                      %
     %%%%%%%%%%%%%%%%%%%%%%%%%%%%%%%%%%%%%%%%%%%%%%%%%%%%%%%%%%%%%%%%%%%%%%%%

     Adding external electric field

     Computed dipole along edir(3) :
        Dipole              -14.4816 Ry au,        -36.8086 Debye
        Dipole field         -0.0273 Ry au,

        Potential amp.        2.5333 Ry
        Total length         46.3494 bohr

     Starting wfcs are  307 atomic wfcs
  @ DRIVER MODE: Message from server: STATUS
  @ DRIVER MODE: Message from server: POSDATA
  @ DRIVER MODE: Reading and sharing cell
  @ DRIVER MODE: Reading and sharing positions
  @ DRIVER MODE: Received positions

     Self-consistent Calculation

     iteration #  1     ecut=    29.40 Ry     beta= 0.05
     Davidson diagonalization with overlap
     ethr =  1.00E-02,  avg # of iterations =  7.5

[...]

     total energy              =   -2234.01121663 Ry
     estimated scf accuracy    <    8486.05836568 Ry

[...]

     iteration # 11     ecut=    29.40 Ry     beta= 0.05
     Davidson diagonalization with overlap
     c_bands:  1 eigenvalues not converged
     c_bands:  1 eigenvalues not converged
     ethr =  1.00E-02,  avg # of iterations =  7.0

[...]

     iteration # 89     ecut=    29.40 Ry     beta= 0.05
     Davidson diagonalization with overlap
     c_bands:  1 eigenvalues not converged
     c_bands:  1 eigenvalues not converged
     ethr =  3.78E-11,  avg # of iterations = 15.6

[...]

     total energy              =   -2976.32722447 Ry
     estimated scf accuracy    <       0.00000010 Ry

     iteration # 91     ecut=    29.40 Ry     beta= 0.05
     Davidson diagonalization with overlap
     ethr =  2.45E-11,  avg # of iterations = 11.3

     negative rho (up, down):  1.316E-02 0.000E+00

     Adding external electric field

     Computed dipole along edir(3) :
        Dipole                1.3373 Ry au,          3.3992 Debye
        Dipole field          0.0025 Ry au,

        Potential amp.       -0.2339 Ry
        Total length         46.3494 bohr

     End of self-consistent calculation

          k = 0.0000 0.0000 0.0000 ( 18029 PWs)   bands (ev):

   -55.1718 -55.1425 -55.1308 -55.1084 -55.0922 -55.0490 -55.0080 -54.9816
   -54.9707 -54.9554 -54.9460 -54.9379 -54.8721 -54.7250 -54.1544 -54.1203
   -31.7385 -31.6322 -31.5365 -31.5026 -31.4813 -31.4738 -31.4707 -31.4323
   -31.4092 -31.3875 -31.3816 -31.3793 -31.3672 -31.3461 -31.3196 -31.3167
   -31.3068 -31.2952 -31.2894 -31.2848 -31.2537 -31.2366 -31.2302 -31.2107
   -31.1994 -31.1817 -31.1798 -31.1792 -31.1700 -31.1675 -31.1509 -31.1418
   -31.1317 -31.1304 -31.1084 -31.1009 -31.0969 -31.0791 -31.0533 -31.0170
   -31.0017 -30.8709 -30.5626 -30.4710 -30.4488 -30.3795 -30.2928 -30.1815
   -19.0896 -18.8004 -16.0087 -15.7509 -15.6237 -15.4462 -15.3663 -15.2127
   -15.1427 -15.0602 -15.0329 -14.9685 -14.9300 -14.8994 -14.7867 -14.7792
   -14.7061 -14.7056 -14.6972 -14.6650 -14.6612 -14.6572 -14.6011 -14.5983
   -14.5588 -14.5477 -14.5354 -14.3936 -14.3184 -14.2613 -14.0904 -13.9755
   -12.6565 -12.5394  -9.0020  -7.6882  -6.9447  -6.5501  -5.7615  -3.8036
    -3.3465  -3.2132  -3.1755  -3.1155  -3.0718  -2.9869  -2.8946  -2.7730
    -2.5547  -2.4780  -2.4374  -2.3884  -2.3801  -2.3333  -2.2448  -2.1608
    -2.1283  -2.0926  -2.0432  -2.0279  -1.9867  -1.9604  -1.9411  -1.8999
    -1.8912  -1.7443  -1.6851  -1.6293  -1.5813  -1.5602  -1.5586  -1.5015
    -1.4877  -1.4662  -1.4632  -1.4529  -1.4225  -1.3857  -1.3810  -1.3274
    -1.2899  -1.1642  -1.0902  -0.9746  -0.9153  -0.8841  -0.8003  -0.7319
    -0.7156  -0.6434  -0.5790  -0.5596  -0.5023  -0.4649  -0.3743  -0.3403
    -0.2908  -0.2647  -0.1562  -0.1432  -0.1274  -0.0567   0.0326   0.0415
     0.0656   0.1112   0.1954   0.2303   0.2838   0.3102   0.4101   0.4413
     0.4833   0.5011   0.5266   0.6077   0.6790   0.7159   0.7767   0.7860
     0.8208   0.8258   0.8488   0.9431   0.9738   0.9786   1.0266   1.1935
     1.2507   1.4501   1.4521   1.7826   1.8179   1.8687   2.0549   2.4425
     2.4898   3.9274   3.9935   4.0423   4.0591   4.0775   4.1351   4.1700
     4.3978   4.4207   4.4348   4.4484

[...]

          k = 0.0380-0.0419 0.0000 ( 17876 PWs)   bands (ev):

[...]

          k =-0.0760-0.0000 0.0000 ( 17886 PWs)   bands (ev):

[...]

          k =-0.0760-0.0839 0.0000 ( 17948 PWs)   bands (ev):

   -55.1611 -55.1413 -55.1254 -55.1254 -55.0900 -55.0397 -55.0172 -54.9661
   -54.9602 -54.9574 -54.9559 -54.9538 -54.8704 -54.7267 -54.1373 -54.1372
   -31.5496 -31.5346 -31.4474 -31.4473 -31.4472 -31.4377 -31.4178 -31.4177
   -31.3833 -31.3778 -31.3683 -31.3665 -31.3363 -31.3081 -31.3008 -31.2986
   -31.2960 -31.2924 -31.2899 -31.2852 -31.2760 -31.2623 -31.2482 -31.2447
   -31.2447 -31.2426 -31.2401 -31.2141 -31.1993 -31.1911 -31.1804 -31.1759
   -31.1753 -31.1747 -31.1559 -31.1548 -31.1357 -31.1331 -31.0712 -31.0094
   -31.0056 -30.9448 -30.4615 -30.4614 -30.3753 -30.3751 -30.3362 -30.3361
   -19.0821 -18.8034 -15.5105 -15.3743 -15.3357 -15.2454 -15.1637 -15.1475
   -15.1397 -15.1056 -15.0532 -14.9936 -14.9487 -14.9138 -14.8731 -14.8717
   -14.8588 -14.7586 -14.7474 -14.7400 -14.7232 -14.6748 -14.6651 -14.6483
   -14.6230 -14.6213 -14.5963 -14.5155 -14.5145 -14.4163 -14.3105 -14.0367
   -12.6411 -12.6408  -8.9895  -7.7039  -6.9014  -6.5397  -5.7758  -3.8850
    -3.0056  -2.7684  -2.5738  -2.5455  -2.4267  -2.3748  -2.3289  -2.3079
    -2.2212  -2.1809  -2.1642  -2.1584  -2.1385  -2.0818  -2.0603  -2.0210
    -2.0011  -1.9870  -1.9785  -1.9541  -1.9494  -1.9176  -1.9015  -1.8828
    -1.8769  -1.8403  -1.8015  -1.7904  -1.7527  -1.7325  -1.7238  -1.6666
    -1.5673  -1.5346  -1.4906  -1.4248  -1.3615  -1.3578  -1.2892  -1.2678
    -1.2494  -1.2313  -1.1957  -1.1836  -1.0703  -1.0140  -0.9096  -0.8969
    -0.8910  -0.7865  -0.7519  -0.7105  -0.6801  -0.6430  -0.5873  -0.5088
    -0.5018  -0.4266  -0.3891  -0.3776  -0.3589  -0.2188  -0.1871  -0.1541
    -0.1299  -0.1253  -0.0712  -0.0284   0.0018   0.0393   0.0664   0.0992
     0.1154   0.1913   0.3282   0.3602   0.4021   0.5347   0.5624   0.6773
     0.7032   0.8233   0.8969   0.9415   0.9618   1.0395   1.1167   1.1383
     1.1440   1.2547   1.3055   1.3076   1.3248   2.2274   2.2290   2.3098
     2.3100   3.7811   4.0731   4.1982   4.2149   4.2557   4.3796   4.4449
     4.4802   4.5020   4.5048   4.5917

     the Fermi energy is     3.9762 ev

!    total energy              =   -2976.32723082 Ry
     estimated scf accuracy    <       0.00000007 Ry
     smearing contrib. (-TS)   =      -0.04070319 Ry
     internal energy E=F+TS    =   -2976.28652763 Ry

     The total energy is F=E-TS. E is the sum of the following terms:
     one-electron contribution =  -23820.68154750 Ry
     hartree contribution      =   12009.18305302 Ry
     xc contribution           =    -495.75854873 Ry
     ewald contribution        =    9330.96714053 Ry
     electric field correction =       0.00337505 Ry

     convergence has been achieved in  91 iterations

     Forces acting on atoms (cartesian axes, Ry/au):

     atom    1 type  1   force =     0.00015339   -0.00019399    0.09423304
     atom    2 type  1   force =    -0.00011899   -0.00035173   -0.17724156
     atom    3 type  2   force =     0.00008616    0.00003923   -0.02132162
     atom    4 type  2   force =     0.00001859   -0.00174620    0.05669969
     atom    5 type  2   force =    -0.01043344   -0.00127588    0.00673693
     atom    6 type  2   force =     0.01219136   -0.00072006    0.00624900
     atom    7 type  1   force =    -0.00028398    0.00287708   -0.01268207
     atom    8 type  1   force =    -0.00014786    0.00439208    0.00452277
     atom    9 type  2   force =    -0.00036347    0.00009085    0.00076779
     atom   10 type  2   force =    -0.00008353   -0.00088886   -0.00640720
     atom   11 type  2   force =    -0.00041862   -0.00033215    0.00005549
     atom   12 type  2   force =    -0.00032028   -0.00042723    0.00014329
     atom   13 type  1   force =    -0.00034243   -0.00017016   -0.00032728
     atom   14 type  1   force =     0.00003204   -0.00043526   -0.00033229
     atom   15 type  2   force =    -0.00019584   -0.00009853    0.00002596
     atom   16 type  2   force =    -0.00065679    0.00023648   -0.00033466
     atom   17 type  2   force =    -0.00011293    0.00005703    0.00018822
     atom   18 type  2   force =     0.00035357   -0.00008376    0.00029961
     atom   19 type  1   force =     0.00023413   -0.00098506    0.00000670
     atom   20 type  1   force =     0.00021245   -0.00022556    0.00066556
     atom   21 type  2   force =     0.00004538    0.00001680    0.10367707
     atom   22 type  2   force =    -0.00031229    0.00013527    0.00056197
     atom   23 type  2   force =    -0.07083507   -0.00011676   -0.02715217
     atom   24 type  2   force =     0.07073351    0.00032149   -0.02718416
     atom   25 type  1   force =    -0.00006151   -0.00023104    0.09366665
     atom   26 type  1   force =    -0.00013461   -0.00042426   -0.17737405
     atom   27 type  2   force =     0.00014831   -0.00039321   -0.02027803
     atom   28 type  2   force =     0.00005324   -0.00137902    0.05585333
     atom   29 type  2   force =    -0.01030447   -0.00030052    0.00538724
     atom   30 type  2   force =     0.01197613    0.00009957    0.00502423
     atom   31 type  1   force =    -0.00017329    0.00357895   -0.01533064
     atom   32 type  1   force =    -0.00019057   -0.00485278    0.00437910
     atom   33 type  2   force =    -0.00006863   -0.00017068    0.00032379
     atom   34 type  2   force =     0.00120509    0.00258571   -0.00429402
     atom   35 type  2   force =    -0.00071069   -0.00016109    0.00017129
     atom   36 type  2   force =    -0.00001264   -0.00002630    0.00044927
     atom   37 type  1   force =     0.00038965    0.00041844   -0.00029815
     atom   38 type  1   force =    -0.00000317    0.00053096   -0.00156839
     atom   39 type  2   force =     0.00027007   -0.00044469   -0.00022009
     atom   40 type  2   force =     0.00004713    0.00004690    0.00057249
     atom   41 type  2   force =    -0.00021057   -0.00026460   -0.00018916
     atom   42 type  2   force =     0.00046412   -0.00034826    0.00004143
     atom   43 type  1   force =    -0.00067399    0.00069454    0.00059946
     atom   44 type  1   force =    -0.00008399    0.00004629   -0.00007589
     atom   45 type  2   force =     0.00003950   -0.00002329    0.10368617
     atom   46 type  2   force =    -0.07086906   -0.00005456   -0.02715007
     atom   47 type  2   force =     0.07076589    0.00034899   -0.02718279
     atom   48 type  3   force =     0.00037943    0.00034740   -0.00025284
     atom   49 type  4   force =     0.00070268   -0.00055142    0.00052700
     atom   50 type  5   force =     0.00116864   -0.00012567   -0.00028101
     atom   51 type  5   force =    -0.00081696    0.00075255   -0.00045862
     atom   52 type  3   force =     0.00062447   -0.00012053    0.00015168
     atom   53 type  5   force =    -0.00134614   -0.00009941    0.00037672
     atom   54 type  5   force =     0.00025660   -0.00037365    0.00053500
     atom   55 type  5   force =    -0.00062764   -0.00003423    0.00024487
     atom   56 type  2   force =    -0.00028535    0.00124300   -0.00055933
     atom   57 type  5   force =    -0.00026384   -0.00077990    0.00038533
     atom   58 type  5   force =    -0.00108888    0.00035069    0.00128792

     Total force =     0.365348     Total SCF correction =     0.000443
  @ DRIVER MODE: Message from server: STATUS
  @ DRIVER MODE: Message from server: GETFORCE
  @ DRIVER MODE: Returning v,forces,stress,ensemble

     Writing output data file ./calc.save/
  @ DRIVER MODE: Message from server: EXIT
  @ DRIVE MODE: Exiting

     General routines

     Parallel routines

   This run was terminated on:  15:57:32  15Sep2021

   JOB DONE.