     Program PWSCF v.6.7GPU starts on  9Sep2021 at  0:38:13

     R & G space division:  proc/nbgrp/npool/nimage =      10
     Reading input from /storage/home/hcoda1/3/ntian30/research/carbon/CxH_vib/CH3_calc/ads_slab/CH3NH2NH_c/out_0008/pw.inp
Warning: card &CELL ignored
Warning: card   CELL_DYNAMICS='IPI', ignored
Warning: card / ignored

     Current dimensions of program PWSCF are:
     Max number of different atomic species (ntypx) = 10
     Max number of k-points (npk) =  40000
     Max angular momentum in pseudopotentials (lmaxx) =  3
     Presently no symmetry can be used with electric field

     Message from routine cell_base_init:
     DEPRECATED: use true lattice parameter, not A to a.u. conversion factor

     IMPORTANT: XC functional enforced from input :
     Exchange-correlation= BEEF-VDW
                           (   1   4  43  14   2   0   0)
     Any further DFT definition will be discarded
     Please, verify this is what you really want

  @ DRIVER MODE: Connecting to
 qe_1139763_2767400.sched-torque.pace.gatech.edu2zhy25zr_scratch
  using UNIX socket
  @ DRIVER MODE: Message from server: STATUS
  @ DRIVER MODE: Message from server: INIT
  @ DRIVER MODE: Receiving replica           0          -1
  @ DRIVER MODE: Receiving encoded integer          25
  @ DRIVER MODE:  SCF:  T  FORCE:  T  STRESS:  F  VC:  F  ENSEMBLE:  F
  @ DRIVER MODE:  SCF:  T  FORCE:  T  STRESS:  F  VC:  F  ENSEMBLE:  F

     Using Slab Decomposition

     bravais-lattice index     =            0
     lattice parameter (alat)  =       1.8897  a.u.
     unit-cell volume          =    6658.9804 (a.u.)^3
     number of atoms/cell      =           56
     number of atomic types    =            5
     number of electrons       =       398.00
     number of Kohn-Sham states=          209
     kinetic-energy cutoff     =      29.3995  Ry
     charge density cutoff     =     293.9946  Ry
     scf convergence threshold =      7.3E-08
     mixing beta               =       0.0500
     number of iterations used =            8  plain     mixing
     Exchange-correlation= BEEF-VDW
                           (   1   4  43  14   2   0   0)

     celldm(1)=   1.889726  celldm(2)=   0.000000  celldm(3)=   0.000000
     celldm(4)=   0.000000  celldm(5)=   0.000000  celldm(6)=   0.000000

     crystal axes: (cart. coord. in units of alat)
               a(1) = (   6.579727   0.000000   0.000000 )
               a(2) = (  -0.000775   5.961596   0.000000 )
               a(3) = (   0.000000   0.000000  25.155947 )

     reciprocal axes: (cart. coord. in units 2 pi/alat)
               b(1) = (  0.151982  0.000020  0.000000 )
               b(2) = (  0.000000  0.167740  0.000000 )
               b(3) = (  0.000000  0.000000  0.039752 )

     PseudoPot. # 1 for Ti read from file:
     /storage/coda1/p-amedford6/0/shared/rich_project_chbe-medford/medford-share/data/pseudos_module/espresso/nninc/pbe/van/Ti.UPF
     MD5 check sum: 8e4df49b7f0d34bbd5052bf3f5ea0213
     Pseudo is Ultrasoft, Zval = 12.0
     Generated by new atomic code, or converted to UPF format
     Using radial grid of  851 points,  6 beta functions with:
                l(1) =   0
                l(2) =   0
                l(3) =   1
                l(4) =   1
                l(5) =   2
                l(6) =   2
     Q(r) pseudized with  8 coefficients,  rinner =    1.000   1.000   1.000
                                                       1.000   1.000

     PseudoPot. # 2 for O  read from file:
     /storage/coda1/p-amedford6/0/shared/rich_project_chbe-medford/medford-share/data/pseudos_module/espresso/nninc/pbe/van/O.UPF
     MD5 check sum: 78c19812648e8988a0fe644b0f25305e
     Pseudo is Ultrasoft, Zval =  6.0
     Generated by new atomic code, or converted to UPF format
     Using radial grid of  737 points,  4 beta functions with:
                l(1) =   0
                l(2) =   0
                l(3) =   1
                l(4) =   1
     Q(r) pseudized with  8 coefficients,  rinner =    0.800   0.800   0.800

     PseudoPot. # 3 for N  read from file:
     /storage/coda1/p-amedford6/0/shared/rich_project_chbe-medford/medford-share/data/pseudos_module/espresso/nninc/pbe/van/N.UPF
     MD5 check sum: 90d10febe142ad51ac9d5be1deb811c4
     Pseudo is Ultrasoft, Zval =  5.0
     Generated by new atomic code, or converted to UPF format
     Using radial grid of  729 points,  4 beta functions with:
                l(1) =   0
                l(2) =   0
                l(3) =   1
                l(4) =   1
     Q(r) pseudized with  8 coefficients,  rinner =    0.800   0.800   0.800

     PseudoPot. # 4 for C  read from file:
     /storage/coda1/p-amedford6/0/shared/rich_project_chbe-medford/medford-share/data/pseudos_module/espresso/nninc/pbe/van/C.UPF
     MD5 check sum: 1a69bf6b8db32088f5b2163dbdb77a27
     Pseudo is Ultrasoft, Zval =  4.0
     Generated by new atomic code, or converted to UPF format
     Using radial grid of  721 points,  4 beta functions with:
                l(1) =   0
                l(2) =   0
                l(3) =   1
                l(4) =   1
     Q(r) pseudized with  8 coefficients,  rinner =    0.800   0.800   0.800

     PseudoPot. # 5 for H  read from file:
     /storage/coda1/p-amedford6/0/shared/rich_project_chbe-medford/medford-share/data/pseudos_module/espresso/nninc/pbe/van/H.UPF
     MD5 check sum: b5ee9d7bfd3a09ee7748110bda690ff7
     Pseudo is Ultrasoft, Zval =  1.0
     Generated by new atomic code, or converted to UPF format
     Using radial grid of  615 points,  1 beta functions with:
                l(1) =   0
     Q(r) pseudized with  8 coefficients,  rinner =    0.800

     atomic species   valence    mass     pseudopotential
        Ti1           12.00    47.86700     Ti( 1.00)
        O1             6.00    15.99900     O ( 1.00)
        N1             5.00    14.00700     N ( 1.00)
        C1             4.00    12.01100     C ( 1.00)
        H1             1.00     1.00800     H ( 1.00)

     No symmetry found

   Cartesian axes

     site n.     atom                  positions (alat units)
         1           Ti1 tau(   1) = (   0.0004258   2.9801865   6.0000000  )
         2           Ti1 tau(   2) = (   3.2906075   1.4906267   6.0002472  )
         3           O1  tau(   3) = (   0.0006271   0.0005054   7.9858123  )
         4           O1  tau(   4) = (   3.2906025   0.0005020   7.3038282  )
         5           O1  tau(   5) = (   4.5942328   1.4918067   9.2879030  )
         6           O1  tau(   6) = (   1.9868534   1.4903216   9.2879459  )
         7           Ti1 tau(   7) = (   3.2907910   2.8959150   9.1758416  )
         8           Ti1 tau(   8) = (   0.0015273   1.4827037   9.2680791  )
         9           O1  tau(   9) = (   3.3032705   0.0110091  11.3485381  )
        10           O1  tau(  10) = (   0.0116148   5.9584955  10.6183126  )
        11           O1  tau(  11) = (   1.3020657   1.4959176  12.6398190  )
        12           O1  tau(  12) = (   5.2896457   1.4919019  12.6612249  )
        13           Ti1 tau(  13) = (   0.0353884   3.0012823  12.5523301  )
        14           Ti1 tau(  14) = (   3.3275346   1.5008247  12.4978572  )
        15           O1  tau(  15) = (   0.0424128   0.0047235  14.7277795  )
        16           O1  tau(  16) = (   3.2762846   0.0047332  13.9819514  )
        17           O1  tau(  17) = (   4.5591522   1.5298593  16.0930730  )
        18           O1  tau(  18) = (   2.0612242   1.5646392  16.2256692  )
        19           Ti1 tau(  19) = (   3.3170857   3.0293758  15.7013767  )
        20           Ti1 tau(  20) = (   6.5267591   1.5471840  15.7818195  )
        21           O1  tau(  21) = (   3.2904802   0.0005063   4.7018136  )
        22           O1  tau(  22) = (   0.0258072   0.0396315  17.3287798  )
        23           O1  tau(  23) = (   1.3043587   1.4918075   6.0039043  )
        24           O1  tau(  24) = (   5.2767064   1.4903225   6.0039473  )
        25           Ti1 tau(  25) = (   0.0000382   5.9609847   6.0000000  )
        26           Ti1 tau(  26) = (   3.2902200   4.4714249   6.0002472  )
        27           O1  tau(  27) = (   0.0002396   2.9813036   7.9858123  )
        28           O1  tau(  28) = (   3.2902150   2.9813002   7.3038282  )
        29           O1  tau(  29) = (   4.5938453   4.4726049   9.2879030  )
        30           O1  tau(  30) = (   1.9864658   4.4711199   9.2879459  )
        31           Ti1 tau(  31) = (   3.2891106   5.8743827   9.1763621  )
        32           Ti1 tau(  32) = (   0.0006254   4.4649316   9.2693709  )
        33           O1  tau(  33) = (   3.3047253   2.9863606  11.3412877  )
        34           O1  tau(  34) = (   0.0092240   2.9805883  10.6323155  )
        35           O1  tau(  35) = (   1.3023160   4.4818153  12.6295520  )
        36           O1  tau(  36) = (   5.2910779   4.4839738  12.6480862  )
        37           Ti1 tau(  37) = (   0.0306270   0.0097343  12.5156175  )
        38           Ti1 tau(  38) = (   3.3295341   4.4791655  12.4867326  )
        39           O1  tau(  39) = (   0.0319336   2.9935560  14.7343221  )
        40           O1  tau(  40) = (   3.2835893   3.0037955  13.9224844  )
        41           O1  tau(  41) = (   4.5669158   4.4809188  16.1713821  )
        42           O1  tau(  42) = (   2.0542530   4.4668402  16.2247519  )
        43           Ti1 tau(  43) = (   3.3000170   0.0150779  15.7669526  )
        44           Ti1 tau(  44) = (   0.0416703   4.6955124  16.1636639  )
        45           O1  tau(  45) = (   3.2900926   2.9813045   4.7018136  )
        46           O1  tau(  46) = (   1.3039711   4.4726057   6.0039043  )
        47           O1  tau(  47) = (   5.2763189   4.4711207   6.0039473  )
        48           N1  tau(  48) = (   0.9019483   2.4226080  18.4567899  )
        49           N1  tau(  49) = (   6.5023839   2.9153054  17.5348467  )
        50           C1  tau(  50) = (   1.2734633   3.3482217  19.5544901  )
        51           H1  tau(  51) = (   0.3921683   3.5464126  20.1615046  )
        52           H1  tau(  52) = (   2.0553077   2.8833093  20.1573268  )
        53           H1  tau(  53) = (   1.6239766   4.2728770  19.1044814  )
        54           H1  tau(  54) = (   0.5870980   1.4942747  18.7832689  )
        55           H1  tau(  55) = (   5.5983569   2.8486818  18.0159164  )
        56           H1  tau(  56) = (   1.7025450   2.1792920  17.8234971  )

     number of k points=    10  Fermi-Dirac smearing, width (Ry)=  0.0073
                       cart. coord. in units 2pi/alat
        k(    1) = (   0.0000000   0.0000000   0.0000000), wk =   0.1250000
        k(    2) = (   0.0000000   0.0419351   0.0000000), wk =   0.2500000
        k(    3) = (   0.0000000  -0.0838702   0.0000000), wk =   0.1250000
        k(    4) = (   0.0379955   0.0000049   0.0000000), wk =   0.2500000
        k(    5) = (   0.0379955   0.0419400   0.0000000), wk =   0.2500000
        k(    6) = (   0.0379955  -0.0838652   0.0000000), wk =   0.2500000
        k(    7) = (   0.0379955  -0.0419301   0.0000000), wk =   0.2500000
        k(    8) = (  -0.0759910  -0.0000099   0.0000000), wk =   0.1250000
        k(    9) = (  -0.0759910   0.0419252   0.0000000), wk =   0.2500000
        k(   10) = (  -0.0759910  -0.0838800   0.0000000), wk =   0.1250000

     Initial potential from superposition of free atoms

     starting charge  381.99914, renormalised to  398.00000

     negative rho (up, down):  1.484E-02 0.000E+00

     %%%%%%%%%%%%%%%%%%%%%%%%%%%%%%%%%%%%%%%%%%%%%%%%%%%%%%%%%%%%%%%%%%%%%%%%
     %                                                                      %
     % You are using vdW-DF, which was implemented by the Thonhauser group. %
     % Please cite the following two papers that made this development      %
     % possible and the two reviews that describe the various versions:     %
     %                                                                      %
     %   T. Thonhauser et al., PRL 115, 136402 (2015).                      %
     %   T. Thonhauser et al., PRB 76, 125112 (2007).                       %
     %   K. Berland et al., Rep. Prog. Phys. 78, 066501 (2015).             %
     %   D.C. Langreth et al., J. Phys.: Condens. Matter 21, 084203 (2009). %
     %                                                                      %
     %                                                                      %
     % If you are calculating the stress with vdW-DF, please also cite:     %
     %                                                                      %
     %   R. Sabatini et al., J. Phys.: Condens. Matter 24, 424209 (2012).   %
     %                                                                      %
     %%%%%%%%%%%%%%%%%%%%%%%%%%%%%%%%%%%%%%%%%%%%%%%%%%%%%%%%%%%%%%%%%%%%%%%%

     Adding external electric field

     Computed dipole along edir(3) :
        Dipole              -10.9106 Ry au,        -27.7320 Debye
        Dipole field         -0.0206 Ry au,

        Potential amp.        1.9086 Ry
        Total length         46.3494 bohr

     Starting wfcs are  302 atomic wfcs
  @ DRIVER MODE: Message from server: STATUS
  @ DRIVER MODE: Message from server: POSDATA
  @ DRIVER MODE: Reading and sharing cell
  @ DRIVER MODE: Reading and sharing positions
  @ DRIVER MODE: Received positions

     Self-consistent Calculation

     iteration #  1     ecut=    29.40 Ry     beta= 0.05
     Davidson diagonalization with overlap
     c_bands:  4 eigenvalues not converged
     c_bands:  4 eigenvalues not converged
     c_bands:  1 eigenvalues not converged
     c_bands:  2 eigenvalues not converged
     c_bands:  5 eigenvalues not converged
     c_bands:  3 eigenvalues not converged
     c_bands:  4 eigenvalues not converged
     c_bands:  4 eigenvalues not converged
     ethr =  1.00E-05,  avg # of iterations = 23.0

[...]

     total energy              =   -2445.37711473 Ry
     estimated scf accuracy    <    5568.52465193 Ry

     iteration #  2     ecut=    29.40 Ry     beta= 0.05
     Davidson diagonalization with overlap
     ethr =  1.00E-02,  avg # of iterations = 23.0

[...]

     iteration # 64     ecut=    29.40 Ry     beta= 0.05
     Davidson diagonalization with overlap
     ethr =  1.77E-10,  avg # of iterations =  8.0

[...]

     total energy              =   -2942.84134329 Ry
     estimated scf accuracy    <       0.00000009 Ry

     iteration # 67     ecut=    29.40 Ry     beta= 0.05
     Davidson diagonalization with overlap
     c_bands:  1 eigenvalues not converged
     ethr =  2.16E-11,  avg # of iterations = 12.5

     negative rho (up, down):  1.049E-02 0.000E+00

     Adding external electric field

     Computed dipole along edir(3) :
        Dipole                1.5789 Ry au,          4.0132 Debye
        Dipole field          0.0030 Ry au,

        Potential amp.       -0.2762 Ry
        Total length         46.3494 bohr

     End of self-consistent calculation

          k = 0.0000 0.0000 0.0000 ( 18029 PWs)   bands (ev):

   -55.0906 -55.0551 -55.0515 -55.0210 -54.9677 -54.9652 -54.9277 -54.8911
   -54.8828 -54.8685 -54.8553 -54.8505 -54.8038 -54.7596 -54.0652 -54.0311
   -31.6646 -31.5445 -31.4546 -31.4249 -31.3859 -31.3813 -31.3796 -31.3501
   -31.3474 -31.3453 -31.3023 -31.3002 -31.2996 -31.2651 -31.2470 -31.2274
   -31.2076 -31.2038 -31.1946 -31.1927 -31.1661 -31.1488 -31.1472 -31.1213
   -31.1119 -31.0978 -31.0955 -31.0930 -31.0895 -31.0765 -31.0713 -31.0642
   -31.0517 -31.0410 -31.0223 -31.0144 -31.0068 -31.0017 -30.9965 -30.9907
   -30.9870 -30.9522 -30.4736 -30.3819 -30.3597 -30.2902 -30.2035 -30.0924
   -19.2111 -15.9335 -15.6590 -15.5363 -15.3257 -15.2761 -15.2032 -15.0079
   -14.9433 -14.8872 -14.8768 -14.8656 -14.8485 -14.7773 -14.6981 -14.6177
   -14.6151 -14.6088 -14.5969 -14.5796 -14.5724 -14.5099 -14.5027 -14.4707
   -14.4587 -14.4187 -14.3115 -14.2297 -14.1728 -14.0229 -13.3153 -12.5679
   -12.4508 -11.0971  -7.9015  -6.5576  -5.8626  -4.1133  -3.9464  -3.2785
    -3.0926  -3.0673  -3.0088  -2.9837  -2.8086  -2.7595  -2.5485  -2.4478
    -2.3604  -2.3214  -2.3088  -2.2925  -2.1416  -2.0745  -2.0402  -1.9920
    -1.9693  -1.9465  -1.9050  -1.8974  -1.8667  -1.8487  -1.8406  -1.6630
    -1.5869  -1.5389  -1.5091  -1.4704  -1.4204  -1.3919  -1.3742  -1.3697
    -1.3644  -1.3452  -1.3141  -1.2529  -1.2244  -1.1673  -1.1003  -1.0732
    -0.9831  -0.9016  -0.7140  -0.6683  -0.6507  -0.6145  -0.5545  -0.5048
    -0.4714  -0.4365  -0.4224  -0.3545  -0.2868  -0.2546  -0.1915  -0.1271
    -0.1165  -0.0541  -0.0467   0.1147   0.1264   0.1478   0.2389   0.3251
     0.3732   0.3812   0.4394   0.5136   0.5353   0.5455   0.5822   0.6020
     0.6789   0.7881   0.8128   0.8544   0.8661   0.8997   0.9223   0.9773
     1.0009   1.0639   1.0702   1.1743   1.2223   1.2563   1.5063   1.5394
     1.8699   1.9033   1.9573   2.1439   2.5311   2.5782   4.0176   4.0803
     4.0945   4.1433   4.1666   4.1855   4.2576   4.4783   4.5036   4.5099
     4.5172

[...]

          k = 0.0380-0.0419 0.0000 ( 17876 PWs)   bands (ev):

[...]

          k =-0.0760-0.0000 0.0000 ( 17886 PWs)   bands (ev):

[...]

          k =-0.0760-0.0839 0.0000 ( 17948 PWs)   bands (ev):

   -55.0784 -55.0635 -55.0381 -55.0378 -54.9647 -54.9541 -54.9387 -54.8740
   -54.8714 -54.8705 -54.8685 -54.8663 -54.7976 -54.7657 -54.0482 -54.0480
   -31.4722 -31.4627 -31.3998 -31.3598 -31.3595 -31.3584 -31.3309 -31.3305
   -31.2996 -31.2955 -31.2906 -31.2846 -31.2597 -31.2247 -31.2177 -31.2116
   -31.2096 -31.2058 -31.2050 -31.1962 -31.1641 -31.1630 -31.1594 -31.1573
   -31.1569 -31.1542 -31.1497 -31.1333 -31.1080 -31.1043 -31.0987 -31.0890
   -31.0871 -31.0851 -31.0841 -31.0680 -31.0497 -31.0484 -31.0378 -31.0316
   -31.0081 -30.9912 -30.3724 -30.3723 -30.2863 -30.2861 -30.2469 -30.2469
   -19.2073 -15.4167 -15.3264 -15.1783 -15.1584 -15.1093 -15.0614 -15.0449
   -15.0273 -14.9708 -14.9317 -14.8860 -14.8372 -14.7941 -14.7919 -14.7534
   -14.6813 -14.6598 -14.6577 -14.6432 -14.5923 -14.5815 -14.5540 -14.5353
   -14.5302 -14.4870 -14.4274 -14.4239 -14.3848 -14.2069 -13.3252 -12.5525
   -12.5523 -11.0997  -7.9117  -6.5416  -5.8514  -4.0850  -3.9398  -2.6856
    -2.5863  -2.5145  -2.4200  -2.3328  -2.2926  -2.2577  -2.1235  -2.1040
    -2.0852  -2.0593  -2.0463  -2.0131  -2.0036  -1.9558  -1.9268  -1.9162
    -1.9107  -1.8976  -1.8753  -1.8267  -1.8049  -1.7953  -1.7861  -1.7471
    -1.7335  -1.7012  -1.6956  -1.6566  -1.6351  -1.5502  -1.4608  -1.4210
    -1.3712  -1.3056  -1.2714  -1.2646  -1.1714  -1.1636  -1.1401  -1.1068
    -1.0614  -0.9411  -0.8835  -0.8203  -0.8167  -0.8038  -0.6978  -0.6582
    -0.6285  -0.5933  -0.5560  -0.5263  -0.4876  -0.4407  -0.3637  -0.3337
    -0.2927  -0.2569  -0.1846  -0.0972  -0.0778  -0.0467  -0.0425   0.0437
     0.0687   0.1071   0.1161   0.1353   0.1919   0.2052   0.2923   0.3823
     0.4468   0.5346   0.6483   0.6533   0.7300   0.8221   0.9087   0.9477
     0.9992   1.0649   1.0660   1.1007   1.2222   1.2294   1.3509   1.3898
     1.3985   1.4209   2.3163   2.3173   2.3984   2.3985   4.1468   4.2443
     4.2832   4.3244   4.3762   4.5219   4.5450   4.5907   4.5910   4.6618
     4.6750

     the Fermi energy is     4.0641 ev

!    total energy              =   -2942.84137895 Ry
     estimated scf accuracy    <       0.00000006 Ry
     smearing contrib. (-TS)   =      -0.03725365 Ry
     internal energy E=F+TS    =   -2942.80412530 Ry

     The total energy is F=E-TS. E is the sum of the following terms:
     one-electron contribution =  -23856.67039981 Ry
     hartree contribution      =   12023.66337606 Ry
     xc contribution           =    -487.75486789 Ry
     ewald contribution        =    9377.95306168 Ry
     electric field correction =       0.00470467 Ry

     convergence has been achieved in  67 iterations

     Forces acting on atoms (cartesian axes, Ry/au):

     atom    1 type  1   force =     0.00002060   -0.00023640    0.09432552
     atom    2 type  1   force =    -0.00015951   -0.00053942   -0.17710025
     atom    3 type  2   force =     0.00001935   -0.00024732   -0.02146332
     atom    4 type  2   force =    -0.00001364   -0.00167545    0.05642894
     atom    5 type  2   force =    -0.01049205   -0.00075085    0.00562204
     atom    6 type  2   force =     0.01226054   -0.00009617    0.00551521
     atom    7 type  1   force =    -0.00024191    0.00107769   -0.01570764
     atom    8 type  1   force =    -0.00006336    0.00524799    0.00656312
     atom    9 type  2   force =    -0.00030692    0.00055895    0.00021391
     atom   10 type  2   force =    -0.00199678    0.00266073   -0.00433659
     atom   11 type  2   force =     0.00039629   -0.00022051    0.00028408
     atom   12 type  2   force =    -0.00008071   -0.00029785   -0.00018666
     atom   13 type  1   force =    -0.00072756    0.00044737   -0.00005495
     atom   14 type  1   force =     0.00037468   -0.00016982    0.00003504
     atom   15 type  2   force =    -0.00006338   -0.00064897   -0.00033092
     atom   16 type  2   force =     0.00005958    0.00038713   -0.00027918
     atom   17 type  2   force =     0.00112280    0.00034140    0.00063936
     atom   18 type  2   force =    -0.00002068    0.00000568   -0.00017029
     atom   19 type  1   force =     0.00019551    0.00083074    0.00037752
     atom   20 type  1   force =    -0.00019282    0.00017964    0.00044266
     atom   21 type  2   force =    -0.00002074   -0.00011493    0.10362232
     atom   22 type  2   force =     0.00008449    0.00043246    0.00043173
     atom   23 type  2   force =    -0.07090060   -0.00020730   -0.02719125
     atom   24 type  2   force =     0.07070012    0.00024416   -0.02723992
     atom   25 type  1   force =     0.00002304   -0.00027357    0.09400108
     atom   26 type  1   force =    -0.00024839   -0.00055348   -0.17735914
     atom   27 type  2   force =     0.00005948   -0.00008277   -0.02060372
     atom   28 type  2   force =     0.00002559   -0.00136632    0.05572250
     atom   29 type  2   force =    -0.01079585   -0.00000330    0.00591561
     atom   30 type  2   force =     0.01248555    0.00028435    0.00576779
     atom   31 type  1   force =    -0.00016052    0.00517564   -0.01629185
     atom   32 type  1   force =    -0.00008769   -0.00626185    0.00670539
     atom   33 type  2   force =    -0.00009594   -0.00047585    0.00024129
     atom   34 type  2   force =    -0.00163745    0.00066745   -0.00773358
     atom   35 type  2   force =    -0.00033188    0.00005466    0.00042864
     atom   36 type  2   force =     0.00058058    0.00006078   -0.00005564
     atom   37 type  1   force =    -0.00080774   -0.00079101   -0.00010822
     atom   38 type  1   force =     0.00047686    0.00001157    0.00042718
     atom   39 type  2   force =    -0.00039877   -0.00015826    0.00060635
     atom   40 type  2   force =    -0.00004832   -0.00020227   -0.00019355
     atom   41 type  2   force =     0.00035972   -0.00059249    0.00041952
     atom   42 type  2   force =     0.00007717   -0.00012234    0.00032836
     atom   43 type  1   force =    -0.00010921   -0.00074652   -0.00017579
     atom   44 type  1   force =     0.00061937    0.00049434    0.00022250
     atom   45 type  2   force =    -0.00002457   -0.00011643    0.10361899
     atom   46 type  2   force =    -0.07090468   -0.00014824   -0.02716241
     atom   47 type  2   force =     0.07070999    0.00027316   -0.02723524
     atom   48 type  3   force =     0.00492374   -0.00032290    0.00227220
     atom   49 type  3   force =    -0.01902234   -0.00016758    0.00405416
     atom   50 type  4   force =     0.00112015   -0.00007180    0.00040696
     atom   51 type  5   force =     0.00012259   -0.00055745    0.00061425
     atom   52 type  5   force =    -0.00045152    0.00041061    0.00011103
     atom   53 type  5   force =     0.00041159   -0.00048670    0.00019394
     atom   54 type  5   force =     0.00012953   -0.00051959    0.00011437
     atom   55 type  5   force =     0.01129398    0.00076768   -0.00647713
     atom   56 type  5   force =     0.00175263   -0.00138847    0.00078369

     Total force =     0.366432     Total SCF correction =     0.000570
  @ DRIVER MODE: Message from server: STATUS
  @ DRIVER MODE: Message from server: GETFORCE
  @ DRIVER MODE: Returning v,forces,stress,ensemble

     Writing output data file ./calc.save/
  @ DRIVER MODE: Message from server: EXIT
  @ DRIVE MODE: Exiting

     General routines

     Parallel routines

   This run was terminated on:   0:56:50   9Sep2021

   JOB DONE.