     Program PWSCF v.6.7GPU starts on 27Jul2021 at 10:44:38

     R & G space division:  proc/nbgrp/npool/nimage =      16
     Reading input from /storage/home/hcoda1/3/ntian30/research/carbon/15Jul_vib/ads_slab/CH3NHHH_a/out_0011/pw.inp
Warning: card &CELL ignored
Warning: card   CELL_DYNAMICS='IPI', ignored
Warning: card / ignored

     Current dimensions of program PWSCF are:
     Max number of different atomic species (ntypx) = 10
     Max number of k-points (npk) =  40000
     Max angular momentum in pseudopotentials (lmaxx) =  3
     Presently no symmetry can be used with electric field

     Message from routine cell_base_init:
     DEPRECATED: use true lattice parameter, not A to a.u. conversion factor

     IMPORTANT: XC functional enforced from input :
     Exchange-correlation= BEEF-VDW
                           (   1   4  43  14   2   0   0)
     Any further DFT definition will be discarded
     Please, verify this is what you really want

  @ DRIVER MODE: Connecting to
 qe_1139763_2431568.sched-torque.pace.gatech.edupefrkxqh_scratch
  using UNIX socket
  @ DRIVER MODE: Message from server: STATUS
  @ DRIVER MODE: Message from server: INIT
  @ DRIVER MODE: Receiving replica           0          -1
  @ DRIVER MODE: Receiving encoded integer          25
  @ DRIVER MODE:  SCF:  T  FORCE:  T  STRESS:  F  VC:  F  ENSEMBLE:  F
  @ DRIVER MODE:  SCF:  T  FORCE:  T  STRESS:  F  VC:  F  ENSEMBLE:  F

     Using Slab Decomposition

     bravais-lattice index     =            0
     lattice parameter (alat)  =       1.8897  a.u.
     unit-cell volume          =    6658.9804 (a.u.)^3
     number of atoms/cell      =           55
     number of atomic types    =            5
     number of electrons       =       393.00
     number of Kohn-Sham states=          206
     kinetic-energy cutoff     =      29.3995  Ry
     charge density cutoff     =     293.9946  Ry
     scf convergence threshold =      7.3E-08
     mixing beta               =       0.0500
     number of iterations used =            8  plain     mixing
     Exchange-correlation= BEEF-VDW
                           (   1   4  43  14   2   0   0)

     celldm(1)=   1.889726  celldm(2)=   0.000000  celldm(3)=   0.000000
     celldm(4)=   0.000000  celldm(5)=   0.000000  celldm(6)=   0.000000

     crystal axes: (cart. coord. in units of alat)
               a(1) = (   6.579727   0.000000   0.000000 )
               a(2) = (  -0.000775   5.961596   0.000000 )
               a(3) = (   0.000000   0.000000  25.155947 )

     reciprocal axes: (cart. coord. in units 2 pi/alat)
               b(1) = (  0.151982  0.000020  0.000000 )
               b(2) = (  0.000000  0.167740  0.000000 )
               b(3) = (  0.000000  0.000000  0.039752 )

     PseudoPot. # 1 for Ti read from file:
     /storage/coda1/p-amedford6/0/shared/rich_project_chbe-medford/medford-share/data/pseudos_module/espresso/nninc/pbe/van/Ti.UPF
     MD5 check sum: 8e4df49b7f0d34bbd5052bf3f5ea0213
     Pseudo is Ultrasoft, Zval = 12.0
     Generated by new atomic code, or converted to UPF format
     Using radial grid of  851 points,  6 beta functions with:
                l(1) =   0
                l(2) =   0
                l(3) =   1
                l(4) =   1
                l(5) =   2
                l(6) =   2
     Q(r) pseudized with  8 coefficients,  rinner =    1.000   1.000   1.000
                                                       1.000   1.000

     PseudoPot. # 2 for O  read from file:
     /storage/coda1/p-amedford6/0/shared/rich_project_chbe-medford/medford-share/data/pseudos_module/espresso/nninc/pbe/van/O.UPF
     MD5 check sum: 78c19812648e8988a0fe644b0f25305e
     Pseudo is Ultrasoft, Zval =  6.0
     Generated by new atomic code, or converted to UPF format
     Using radial grid of  737 points,  4 beta functions with:
                l(1) =   0
                l(2) =   0
                l(3) =   1
                l(4) =   1
     Q(r) pseudized with  8 coefficients,  rinner =    0.800   0.800   0.800

     PseudoPot. # 3 for N  read from file:
     /storage/coda1/p-amedford6/0/shared/rich_project_chbe-medford/medford-share/data/pseudos_module/espresso/nninc/pbe/van/N.UPF
     MD5 check sum: 90d10febe142ad51ac9d5be1deb811c4
     Pseudo is Ultrasoft, Zval =  5.0
     Generated by new atomic code, or converted to UPF format
     Using radial grid of  729 points,  4 beta functions with:
                l(1) =   0
                l(2) =   0
                l(3) =   1
                l(4) =   1
     Q(r) pseudized with  8 coefficients,  rinner =    0.800   0.800   0.800

     PseudoPot. # 4 for C  read from file:
     /storage/coda1/p-amedford6/0/shared/rich_project_chbe-medford/medford-share/data/pseudos_module/espresso/nninc/pbe/van/C.UPF
     MD5 check sum: 1a69bf6b8db32088f5b2163dbdb77a27
     Pseudo is Ultrasoft, Zval =  4.0
     Generated by new atomic code, or converted to UPF format
     Using radial grid of  721 points,  4 beta functions with:
                l(1) =   0
                l(2) =   0
                l(3) =   1
                l(4) =   1
     Q(r) pseudized with  8 coefficients,  rinner =    0.800   0.800   0.800

     PseudoPot. # 5 for H  read from file:
     /storage/coda1/p-amedford6/0/shared/rich_project_chbe-medford/medford-share/data/pseudos_module/espresso/nninc/pbe/van/H.UPF
     MD5 check sum: b5ee9d7bfd3a09ee7748110bda690ff7
     Pseudo is Ultrasoft, Zval =  1.0
     Generated by new atomic code, or converted to UPF format
     Using radial grid of  615 points,  1 beta functions with:
                l(1) =   0
     Q(r) pseudized with  8 coefficients,  rinner =    0.800

     atomic species   valence    mass     pseudopotential
        Ti1           12.00    47.86700     Ti( 1.00)
        O1             6.00    15.99900     O ( 1.00)
        N1             5.00    14.00700     N ( 1.00)
        C1             4.00    12.01100     C ( 1.00)
        H1             1.00     1.00800     H ( 1.00)

     Starting magnetic structure
     atomic species   magnetization
        Ti1          0.000
        O1           0.000
        N1           0.040
        C1           0.025
        H1           0.000

     No symmetry found

   Cartesian axes

     site n.     atom                  positions (alat units)
         1           Ti1 tau(   1) = (   0.0004258   2.9801865   6.0000000  )
         2           Ti1 tau(   2) = (   3.2906075   1.4906267   6.0002472  )
         3           O1  tau(   3) = (   0.0006271   0.0005054   7.9858123  )
         4           O1  tau(   4) = (   3.2906025   0.0005020   7.3038282  )
         5           O1  tau(   5) = (   4.5942328   1.4918067   9.2879030  )
         6           O1  tau(   6) = (   1.9868534   1.4903216   9.2879459  )
         7           Ti1 tau(   7) = (   3.2907910   2.8959150   9.1758416  )
         8           Ti1 tau(   8) = (   0.0015273   1.4827037   9.2680791  )
         9           O1  tau(   9) = (   3.2636084   5.9406443  11.4082010  )
        10           O1  tau(  10) = (   0.0116148   5.9584955  10.6183126  )
        11           O1  tau(  11) = (   1.2642105   1.4849797  12.6947803  )
        12           O1  tau(  12) = (   5.2691575   1.4821021  12.6650678  )
        13           Ti1 tau(  13) = (   6.5574234   2.9640577  12.4921542  )
        14           Ti1 tau(  14) = (   3.2619390   1.4709553  12.5527290  )
        15           O1  tau(  15) = (   6.5247406   5.9594380  14.6832748  )
        16           O1  tau(  16) = (   3.2695906   5.9428997  14.0562986  )
        17           O1  tau(  17) = (   4.5175969   1.4707097  16.2986306  )
        18           O1  tau(  18) = (   1.9406912   1.4777946  16.2473769  )
        19           Ti1 tau(  19) = (   3.2491105   2.9422209  15.8109686  )
        20           Ti1 tau(  20) = (   6.5361480   1.3378720  15.9626387  )
        21           O1  tau(  21) = (   3.2904802   0.0005063   4.7018136  )
        22           O1  tau(  22) = (   6.5280740   5.8897732  17.4332532  )
        23           O1  tau(  23) = (   1.3043587   1.4918075   6.0039043  )
        24           O1  tau(  24) = (   5.2767064   1.4903225   6.0039473  )
        25           Ti1 tau(  25) = (   0.0000382   5.9609847   6.0000000  )
        26           Ti1 tau(  26) = (   3.2902200   4.4714249   6.0002472  )
        27           O1  tau(  27) = (   0.0002396   2.9813036   7.9858123  )
        28           O1  tau(  28) = (   3.2902150   2.9813002   7.3038282  )
        29           O1  tau(  29) = (   4.5938453   4.4726049   9.2879030  )
        30           O1  tau(  30) = (   1.9864658   4.4711199   9.2879459  )
        31           Ti1 tau(  31) = (   3.2891106   5.8743827   9.1763621  )
        32           Ti1 tau(  32) = (   0.0006254   4.4649316   9.2693709  )
        33           O1  tau(  33) = (   3.2649920   2.9642658  11.3997388  )
        34           O1  tau(  34) = (   0.0092240   2.9805883  10.6323155  )
        35           O1  tau(  35) = (   1.2634527   4.4478426  12.7061968  )
        36           O1  tau(  36) = (   5.2693862   4.4495813  12.6755241  )
        37           Ti1 tau(  37) = (   6.5522441   5.9483113  12.5008436  )
        38           Ti1 tau(  38) = (   3.2626494   4.4468850  12.5575576  )
        39           O1  tau(  39) = (   6.4970557   2.9363996  15.0046851  )
        40           O1  tau(  40) = (   3.2722650   2.9529576  14.0194401  )
        41           O1  tau(  41) = (   4.5170401   4.4205294  16.2730734  )
        42           O1  tau(  42) = (   1.9466746   4.4191161  16.2235312  )
        43           Ti1 tau(  43) = (   3.2419262   5.9323414  15.8513663  )
        44           Ti1 tau(  44) = (   6.5549466   4.5556212  15.8889459  )
        45           O1  tau(  45) = (   3.2900926   2.9813045   4.7018136  )
        46           O1  tau(  46) = (   1.3039711   4.4726057   6.0039043  )
        47           O1  tau(  47) = (   5.2763189   4.4711207   6.0039473  )
        48           N1  tau(  48) = (   4.8657738   4.5798987  19.4796958  )
        49           C1  tau(  49) = (   5.7271871   3.4329544  19.7949648  )
        50           H1  tau(  50) = (   6.3241292   3.1721029  18.9298488  )
        51           H1  tau(  51) = (   6.4229137   3.7195585  20.5942015  )
        52           H1  tau(  52) = (   5.1874390   2.5328885  20.1195193  )
        53           H1  tau(  53) = (   5.9066942   5.7389963  18.1772939  )
        54           H1  tau(  54) = (   4.2103208   4.3266459  18.7469397  )
        55           H1  tau(  55) = (   4.3187305   4.8545830  20.2870342  )

     number of k points=    10  Fermi-Dirac smearing, width (Ry)=  0.0073
                       cart. coord. in units 2pi/alat
        k(    1) = (   0.0000000   0.0000000   0.0000000), wk =   0.0625000
        k(    2) = (   0.0000000   0.0419351   0.0000000), wk =   0.1250000
        k(    3) = (   0.0000000  -0.0838702   0.0000000), wk =   0.0625000
        k(    4) = (   0.0379955   0.0000049   0.0000000), wk =   0.1250000
        k(    5) = (   0.0379955   0.0419400   0.0000000), wk =   0.1250000
        k(    6) = (   0.0379955  -0.0838652   0.0000000), wk =   0.1250000
[...]

     Initial potential from superposition of free atoms

     starting charge  376.99914, renormalised to  393.00000

     negative rho (up, down):  6.650E-03 6.652E-03

     %%%%%%%%%%%%%%%%%%%%%%%%%%%%%%%%%%%%%%%%%%%%%%%%%%%%%%%%%%%%%%%%%%%%%%%%
     %                                                                      %
     % You are using vdW-DF, which was implemented by the Thonhauser group. %
     % Please cite the following two papers that made this development      %
     % possible and the two reviews that describe the various versions:     %
     %                                                                      %
     %   T. Thonhauser et al., PRL 115, 136402 (2015).                      %
     %   T. Thonhauser et al., PRB 76, 125112 (2007).                       %
     %   K. Berland et al., Rep. Prog. Phys. 78, 066501 (2015).             %
     %   D.C. Langreth et al., J. Phys.: Condens. Matter 21, 084203 (2009). %
     %                                                                      %
     %                                                                      %
     % If you are calculating the stress with vdW-DF, please also cite:     %
     %                                                                      %
     %   R. Sabatini et al., J. Phys.: Condens. Matter 24, 424209 (2012).   %
     %                                                                      %
     %%%%%%%%%%%%%%%%%%%%%%%%%%%%%%%%%%%%%%%%%%%%%%%%%%%%%%%%%%%%%%%%%%%%%%%%

     Adding external electric field

     Computed dipole along edir(3) :
        Dipole               -9.4886 Ry au,        -24.1175 Debye
        Dipole field         -0.0179 Ry au,

        Potential amp.        1.6599 Ry
        Total length         46.3494 bohr

[...]

     Starting wfcs are  298 atomic wfcs
  @ DRIVER MODE: Message from server: STATUS
  @ DRIVER MODE: Message from server: POSDATA
  @ DRIVER MODE: Reading and sharing cell
  @ DRIVER MODE: Reading and sharing positions
  @ DRIVER MODE: Received positions

     Self-consistent Calculation

     iteration #  1     ecut=    29.40 Ry     beta= 0.05
     Davidson diagonalization with overlap
     c_bands:  2 eigenvalues not converged
     c_bands:  1 eigenvalues not converged
     c_bands:  2 eigenvalues not converged
     c_bands:  3 eigenvalues not converged
     c_bands:  3 eigenvalues not converged
     c_bands:  1 eigenvalues not converged
     c_bands:  2 eigenvalues not converged
     c_bands:  1 eigenvalues not converged
     c_bands:  2 eigenvalues not converged
     c_bands:  3 eigenvalues not converged
     c_bands:  3 eigenvalues not converged
     c_bands:  1 eigenvalues not converged
     ethr =  1.00E-05,  avg # of iterations = 18.9

[...]

     total energy              =   -2620.50884862 Ry
     estimated scf accuracy    <    3389.58255842 Ry

     total magnetization       =     0.00 Bohr mag/cell
     absolute magnetization    =     0.01 Bohr mag/cell

[...]

     iteration #  3     ecut=    29.40 Ry     beta= 0.05
     Davidson diagonalization with overlap
     ethr =  1.00E-02,  avg # of iterations = 15.1

[...]

     iteration #161     ecut=    29.40 Ry     beta= 0.05
     Davidson diagonalization with overlap
     ethr =  2.67E-11,  avg # of iterations = 10.2

[...]

     total energy              =   -2922.77408600 Ry
     estimated scf accuracy    <       0.00000009 Ry

[...]

     iteration #165     ecut=    29.40 Ry     beta= 0.05
     Davidson diagonalization with overlap
     c_bands:  1 eigenvalues not converged
     ethr =  2.05E-11,  avg # of iterations = 12.6

     negative rho (up, down):  7.244E-03 7.245E-03

[...]

     Adding external electric field

     Computed dipole along edir(3) :
        Dipole                1.4009 Ry au,          3.5607 Debye
        Dipole field          0.0026 Ry au,

        Potential amp.       -0.2451 Ry
        Total length         46.3494 bohr

     Magnetic moment per site  (integrated on atomic sphere of radius R)
     atom   1 (R=0.739)  charge=  8.0547  magn=  0.0084
     atom   2 (R=0.739)  charge=  8.0362  magn=  0.0004
     atom   3 (R=0.405)  charge=  2.0075  magn= -0.0004
     atom   4 (R=0.405)  charge=  2.0190  magn= -0.0001
     atom   5 (R=0.405)  charge=  2.0104  magn= -0.0001
     atom   6 (R=0.405)  charge=  2.0107  magn= -0.0001
     atom   7 (R=0.739)  charge=  8.0371  magn=  0.0005
     atom   8 (R=0.739)  charge=  8.0393  magn=  0.0055
     atom   9 (R=0.405)  charge=  2.0112  magn=  0.0000
     atom  10 (R=0.405)  charge=  2.0118  magn= -0.0002
     atom  11 (R=0.405)  charge=  2.0092  magn= -0.0000
     atom  12 (R=0.405)  charge=  2.0092  magn= -0.0000
     atom  13 (R=0.739)  charge=  8.0499  magn=  0.0012
     atom  14 (R=0.739)  charge=  8.0432  magn=  0.0001
     atom  15 (R=0.405)  charge=  2.0128  magn= -0.0000
     atom  16 (R=0.405)  charge=  2.0108  magn=  0.0000
     atom  17 (R=0.405)  charge=  2.0009  magn=  0.0000
     atom  18 (R=0.405)  charge=  2.0012  magn=  0.0000
     atom  19 (R=0.739)  charge=  8.0824  magn= -0.0010
     atom  20 (R=0.739)  charge=  8.1004  magn= -0.0007
     atom  21 (R=0.405)  charge=  1.9825  magn= -0.0001
     atom  22 (R=0.405)  charge=  2.0201  magn=  0.0000
     atom  23 (R=0.405)  charge=  2.0078  magn= -0.0004
     atom  24 (R=0.405)  charge=  2.0078  magn= -0.0005
     atom  25 (R=0.739)  charge=  8.0548  magn=  0.0084
     atom  26 (R=0.739)  charge=  8.0362  magn=  0.0004
     atom  27 (R=0.405)  charge=  2.0075  magn= -0.0004
     atom  28 (R=0.405)  charge=  2.0191  magn= -0.0001
     atom  29 (R=0.405)  charge=  2.0107  magn= -0.0001
     atom  30 (R=0.405)  charge=  2.0109  magn= -0.0001
     atom  31 (R=0.739)  charge=  8.0373  magn=  0.0006
     atom  32 (R=0.739)  charge=  8.0392  magn=  0.0055
     atom  33 (R=0.405)  charge=  2.0120  magn=  0.0000
     atom  34 (R=0.405)  charge=  2.0122  magn= -0.0002
     atom  35 (R=0.405)  charge=  2.0082  magn= -0.0000
     atom  36 (R=0.405)  charge=  2.0092  magn= -0.0000
     atom  37 (R=0.739)  charge=  8.0419  magn=  0.0012
     atom  38 (R=0.739)  charge=  8.0432  magn=  0.0001
     atom  39 (R=0.405)  charge=  2.0116  magn=  0.0000
     atom  40 (R=0.405)  charge=  2.0126  magn=  0.0001
     atom  41 (R=0.405)  charge=  2.0020  magn=  0.0000
     atom  42 (R=0.405)  charge=  2.0020  magn=  0.0000
     atom  43 (R=0.739)  charge=  8.0813  magn= -0.0004
     atom  44 (R=0.739)  charge=  8.1024  magn= -0.0006
     atom  45 (R=0.405)  charge=  1.9825  magn= -0.0001
     atom  46 (R=0.405)  charge=  2.0077  magn= -0.0005
     atom  47 (R=0.405)  charge=  2.0078  magn= -0.0004
     atom  48 (R=0.418)  charge=  1.3248  magn=  0.0000
     atom  49 (R=0.447)  charge=  0.8332  magn= -0.0000
     atom  50 (R=0.405)  charge=  0.4179  magn= -0.0000
     atom  51 (R=0.405)  charge=  0.4103  magn= -0.0000
     atom  52 (R=0.405)  charge=  0.4114  magn= -0.0000
     atom  53 (R=0.405)  charge=  0.3971  magn= -0.0000
     atom  54 (R=0.405)  charge=  0.4211  magn= -0.0000
     atom  55 (R=0.405)  charge=  0.4254  magn= -0.0000

     End of self-consistent calculation

 ------ SPIN UP ------------

          k = 0.0000 0.0000 0.0000 ( 18029 PWs)   bands (ev):

   -55.3099 -55.2740 -55.2655 -55.2314 -55.1746 -55.1503 -55.1488 -55.1403
   -55.1159 -55.0898 -55.0737 -55.0559 -55.0321 -54.9740 -54.3021 -54.2680
   -31.8767 -31.7554 -31.6898 -31.6625 -31.6379 -31.6166 -31.5973 -31.5545
   -31.5514 -31.5472 -31.5173 -31.5100 -31.5055 -31.4773 -31.4668 -31.4631
   -31.4485 -31.4397 -31.4194 -31.4038 -31.3981 -31.3824 -31.3767 -31.3570
   -31.3542 -31.3240 -31.3181 -31.3069 -31.3036 -31.2924 -31.2897 -31.2861
   -31.2776 -31.2767 -31.2618 -31.2580 -31.2252 -31.2173 -31.2011 -31.2006
   -31.1826 -31.1077 -30.7120 -30.6159 -30.5939 -30.5281 -30.4413 -30.3306
   -16.8258 -16.1486 -15.8922 -15.7715 -15.6625 -15.5997 -15.5213 -15.4426
   -15.3589 -15.2581 -15.1964 -15.0918 -15.0574 -15.0176 -15.0029 -14.9839
   -14.9568 -14.8767 -14.8657 -14.8552 -14.8293 -14.8106 -14.7832 -14.7738
   -14.7673 -14.7280 -14.6901 -14.5784 -14.4879 -14.4019 -12.8047 -12.6869
   -10.0070  -5.8605  -4.7404  -4.4279  -3.5231  -3.4758  -3.3447  -3.2398
    -3.2063  -3.1969  -3.0774  -2.8941  -2.7993  -2.7717  -2.6847  -2.6306
    -2.5349  -2.5313  -2.4909  -2.3904  -2.3529  -2.3264  -2.2429  -2.2162
    -2.1695  -2.1191  -2.1086  -2.1055  -2.0850  -2.0444  -2.0057  -1.8867
    -1.8022  -1.7802  -1.7067  -1.6903  -1.6843  -1.6561  -1.6131  -1.5944
    -1.5446  -1.5277  -1.4869  -1.4181  -1.3570  -1.2745  -1.2377  -1.2007
    -0.9947  -0.9658  -0.9153  -0.9128  -0.8844  -0.8160  -0.7864  -0.7568
    -0.6909  -0.6884  -0.6599  -0.5536  -0.5110  -0.3901  -0.3192  -0.2399
    -0.1177  -0.1048  -0.0809  -0.0314  -0.0075   0.0520   0.1118   0.1485
     0.1881   0.2007   0.2880   0.3176   0.3952   0.4099   0.4491   0.5106
     0.5275   0.5534   0.5723   0.5828   0.6169   0.6327   0.6671   0.7333
     0.7658   0.8668   0.9156   1.1996   1.2848   1.5940   1.6173   1.7206
     1.9019   2.2993   2.3481   3.7796   3.8447   3.8866   3.9237   3.9266
     4.0111   4.1452   4.2876   4.2931   4.3085   4.3146

[...]

          k =-0.0760-0.0000 0.0000 ( 17886 PWs)   bands (ev):

[...]

 ------ SPIN DOWN ----------

[...]

          k = 0.0380-0.0419 0.0000 ( 17876 PWs)   bands (ev):

[...]

          k =-0.0760-0.0839 0.0000 ( 17948 PWs)   bands (ev):

   -55.2935 -55.2905 -55.2341 -55.2331 -55.1560 -55.1551 -55.1449 -55.1341
   -55.1299 -55.0791 -55.0652 -55.0627 -55.0258 -54.9819 -54.2843 -54.2842
   -31.6846 -31.6795 -31.5896 -31.5839 -31.5645 -31.5639 -31.5583 -31.5231
   -31.5223 -31.5101 -31.5057 -31.5034 -31.4907 -31.4638 -31.4589 -31.4566
   -31.4322 -31.4302 -31.4247 -31.4046 -31.3781 -31.3760 -31.3692 -31.3662
   -31.3644 -31.3522 -31.3512 -31.3503 -31.3487 -31.3427 -31.3390 -31.3248
   -31.3218 -31.3064 -31.3033 -31.2953 -31.2667 -31.2458 -31.2445 -31.2425
   -31.2277 -31.1748 -30.6057 -30.6057 -30.5241 -30.5240 -30.4840 -30.4839
   -16.7643 -15.8215 -15.6007 -15.5412 -15.5004 -15.4059 -15.3322 -15.3011
   -15.2909 -15.2778 -15.1518 -15.1236 -15.1144 -15.0863 -15.0542 -15.0300
   -15.0261 -14.9910 -14.9339 -14.9278 -14.9199 -14.9116 -14.8481 -14.8399
   -14.8361 -14.8293 -14.7641 -14.7618 -14.6794 -14.6775 -12.7888 -12.7888
   -10.0167  -5.8605  -4.8680  -4.4084  -3.5372  -2.8249  -2.7974  -2.7452
    -2.6996  -2.6136  -2.5285  -2.5012  -2.4648  -2.4066  -2.3546  -2.3074
    -2.3052  -2.2697  -2.2500  -2.2311  -2.1875  -2.1658  -2.1434  -2.1252
    -2.1105  -2.0568  -2.0538  -2.0446  -2.0205  -1.9862  -1.9689  -1.9560
    -1.9392  -1.9210  -1.8954  -1.8762  -1.7332  -1.7124  -1.6718  -1.5547
    -1.5366  -1.5332  -1.5003  -1.4565  -1.4316  -1.4240  -1.3501  -1.3431
    -1.3109  -1.1533  -1.0811  -1.0793  -1.0562  -1.0321  -0.9370  -0.8856
    -0.8450  -0.7952  -0.7194  -0.6881  -0.6694  -0.5968  -0.5700  -0.4784
    -0.3891  -0.3622  -0.3540  -0.2768  -0.2753  -0.2417  -0.2286  -0.1596
    -0.0991  -0.0480  -0.0439  -0.0394   0.0890   0.1260   0.2061   0.3201
     0.4005   0.4090   0.4605   0.5205   0.6090   0.6503   0.6680   0.7871
     0.7890   0.9752   0.9785   1.0267   1.0418   1.1225   1.1276   2.0745
     2.0752   2.1676   2.1679   3.7596   3.9424   3.9972   4.0708   4.0959
     4.1942   4.2809   4.3148   4.3436   4.3668   4.3732

     the Fermi energy is     3.8531 ev

!    total energy              =   -2922.77408611 Ry
     estimated scf accuracy    <       0.00000007 Ry
     smearing contrib. (-TS)   =      -0.04550825 Ry
     internal energy E=F+TS    =   -2922.72857787 Ry

     The total energy is F=E-TS. E is the sum of the following terms:
     one-electron contribution =  -23203.16242706 Ry
     hartree contribution      =   11691.85679791 Ry
     xc contribution           =    -482.54924837 Ry
     ewald contribution        =    9071.12259624 Ry
     electric field correction =       0.00370341 Ry

     total magnetization       =     0.04 Bohr mag/cell
     absolute magnetization    =     0.07 Bohr mag/cell

     convergence has been achieved in 165 iterations

     Forces acting on atoms (cartesian axes, Ry/au):

     atom    1 type  1   force =     0.00017356   -0.00008620    0.09305397
     atom    2 type  1   force =     0.00001151   -0.00016035   -0.17886291
     atom    3 type  2   force =     0.00002314   -0.00029848   -0.02022196
     atom    4 type  2   force =    -0.00000199   -0.00224077    0.06098528
     atom    5 type  2   force =    -0.01149858   -0.00127884    0.01054045
     atom    6 type  2   force =     0.01241011   -0.00058481    0.00810406
     atom    7 type  1   force =    -0.00122276    0.00344083   -0.01491443
     atom    8 type  1   force =     0.00122853   -0.00358495   -0.00843026
     atom    9 type  2   force =     0.00001056   -0.00005082   -0.00026246
     atom   10 type  2   force =    -0.00281522   -0.00048094    0.00152725
     atom   11 type  2   force =     0.00012327   -0.00023310   -0.00029170
     atom   12 type  2   force =    -0.00000274    0.00008909   -0.00010467
     atom   13 type  1   force =    -0.00020068   -0.00031777   -0.00063572
     atom   14 type  1   force =    -0.00005278   -0.00005060    0.00023879
     atom   15 type  2   force =    -0.00011131   -0.00023876   -0.00014541
     atom   16 type  2   force =     0.00032677    0.00035463   -0.00010278
     atom   17 type  2   force =     0.00079110    0.00029395   -0.00026464
     atom   18 type  2   force =     0.00008340   -0.00026442   -0.00004136
     atom   19 type  1   force =     0.00027172    0.00043549   -0.00044515
     atom   20 type  1   force =     0.00010034    0.00001769    0.00044110
     atom   21 type  2   force =     0.00012742   -0.00003044    0.10428413
     atom   22 type  2   force =    -0.00046948    0.00015094    0.00016146
     atom   23 type  2   force =    -0.06991175   -0.00011460   -0.02678658
     atom   24 type  2   force =     0.06988445    0.00034565   -0.02678480
     atom   25 type  1   force =     0.00018300   -0.00020040    0.09235613
     atom   26 type  1   force =    -0.00006527   -0.00035591   -0.17903777
     atom   27 type  2   force =     0.00004178   -0.00025607   -0.01894950
     atom   28 type  2   force =     0.00006394   -0.00192874    0.06024137
     atom   29 type  2   force =    -0.01168839   -0.00162275    0.01033505
     atom   30 type  2   force =     0.01247240   -0.00120608    0.00786458
     atom   31 type  1   force =    -0.00101679    0.00609465   -0.01577390
     atom   32 type  1   force =     0.00118508    0.00334413   -0.00864978
     atom   33 type  2   force =     0.00002668    0.00020105   -0.00024982
     atom   34 type  2   force =    -0.00240820   -0.00053817    0.00058753
     atom   35 type  2   force =     0.00000553    0.00000102    0.00004973
     atom   36 type  2   force =     0.00003064   -0.00007213    0.00036358
     atom   37 type  1   force =     0.00034759   -0.00004563   -0.00007979
     atom   38 type  1   force =    -0.00036193   -0.00032083    0.00048079
     atom   39 type  2   force =     0.00036264   -0.00015003    0.00061311
     atom   40 type  2   force =     0.00025100   -0.00017570    0.00003962
     atom   41 type  2   force =     0.00006978    0.00034524   -0.00042041
     atom   42 type  2   force =     0.00049431    0.00020946   -0.00017448
     atom   43 type  1   force =     0.00026008   -0.00021055   -0.00035832
     atom   44 type  1   force =     0.00013982   -0.00121045    0.00059242
     atom   45 type  2   force =     0.00012009   -0.00004878    0.10423244
     atom   46 type  2   force =    -0.06992592   -0.00004810   -0.02677320
     atom   47 type  2   force =     0.06991408    0.00035381   -0.02679316
     atom   48 type  3   force =     0.00018747    0.00073563   -0.00511236
     atom   49 type  4   force =    -0.00002530    0.00227476    0.02073305
     atom   50 type  5   force =     0.00428069   -0.00151543   -0.00838241
     atom   51 type  5   force =    -0.00476215   -0.00243040   -0.00646056
     atom   52 type  5   force =     0.00120563    0.00163537   -0.00232857
     atom   53 type  5   force =     0.00008119    0.00078560   -0.00099841
     atom   54 type  5   force =    -0.00087305    0.00123771   -0.00061420
     atom   55 type  5   force =     0.00012503    0.00000529    0.00162559

     Total force =     0.368522     Total SCF correction =     0.000443
  @ DRIVER MODE: Message from server: STATUS
  @ DRIVER MODE: Message from server: GETFORCE
  @ DRIVER MODE: Returning v,forces,stress,ensemble

     Writing output data file ./calc.save/
  @ DRIVER MODE: Message from server: EXIT
  @ DRIVE MODE: Exiting

     General routines

     Parallel routines

   This run was terminated on:  11:42:18  27Jul2021

   JOB DONE.