     Program PWSCF v.6.7GPU starts on 23Sep2021 at 10:47:51

     R & G space division:  proc/nbgrp/npool/nimage =      10
     Reading input from /storage/home/hcoda1/3/ntian30/research/carbon/CxH_vib/H2O_calc/ads_slab/CH3NHHH2O_a/out_0058/pw.inp
Warning: card &CELL ignored
Warning: card   CELL_DYNAMICS='IPI', ignored
Warning: card / ignored

     Current dimensions of program PWSCF are:
     Max number of different atomic species (ntypx) = 10
     Max number of k-points (npk) =  40000
     Max angular momentum in pseudopotentials (lmaxx) =  3
     Presently no symmetry can be used with electric field

     Message from routine cell_base_init:
     DEPRECATED: use true lattice parameter, not A to a.u. conversion factor

     IMPORTANT: XC functional enforced from input :
     Exchange-correlation= BEEF-VDW
                           (   1   4  43  14   2   0   0)
     Any further DFT definition will be discarded
     Please, verify this is what you really want

  @ DRIVER MODE: Connecting to
 qe_1139763_2937309.sched-torque.pace.gatech.eduontrj0mx_scratch
  using UNIX socket
  @ DRIVER MODE: Message from server: STATUS
  @ DRIVER MODE: Message from server: INIT
  @ DRIVER MODE: Receiving replica           0          -1
  @ DRIVER MODE: Receiving encoded integer          25
  @ DRIVER MODE:  SCF:  T  FORCE:  T  STRESS:  F  VC:  F  ENSEMBLE:  F
  @ DRIVER MODE:  SCF:  T  FORCE:  T  STRESS:  F  VC:  F  ENSEMBLE:  F

     Using Slab Decomposition

     bravais-lattice index     =            0
     lattice parameter (alat)  =       1.8897  a.u.
     unit-cell volume          =    6658.9804 (a.u.)^3
     number of atoms/cell      =           57
     number of atomic types    =            5
     number of electrons       =       400.00
     number of Kohn-Sham states=          210
     kinetic-energy cutoff     =      29.3995  Ry
     charge density cutoff     =     293.9946  Ry
     scf convergence threshold =      7.3E-08
     mixing beta               =       0.0500
     number of iterations used =            8  plain     mixing
     Exchange-correlation= BEEF-VDW
                           (   1   4  43  14   2   0   0)

     celldm(1)=   1.889726  celldm(2)=   0.000000  celldm(3)=   0.000000
     celldm(4)=   0.000000  celldm(5)=   0.000000  celldm(6)=   0.000000

     crystal axes: (cart. coord. in units of alat)
               a(1) = (   6.579727   0.000000   0.000000 )
               a(2) = (  -0.000775   5.961596   0.000000 )
               a(3) = (   0.000000   0.000000  25.155947 )

     reciprocal axes: (cart. coord. in units 2 pi/alat)
               b(1) = (  0.151982  0.000020  0.000000 )
               b(2) = (  0.000000  0.167740  0.000000 )
               b(3) = (  0.000000  0.000000  0.039752 )

     PseudoPot. # 1 for Ti read from file:
     /storage/coda1/p-amedford6/0/shared/rich_project_chbe-medford/medford-share/data/pseudos_module/espresso/nninc/pbe/van/Ti.UPF
     MD5 check sum: 8e4df49b7f0d34bbd5052bf3f5ea0213
     Pseudo is Ultrasoft, Zval = 12.0
     Generated by new atomic code, or converted to UPF format
     Using radial grid of  851 points,  6 beta functions with:
                l(1) =   0
                l(2) =   0
                l(3) =   1
                l(4) =   1
                l(5) =   2
                l(6) =   2
     Q(r) pseudized with  8 coefficients,  rinner =    1.000   1.000   1.000
                                                       1.000   1.000

     PseudoPot. # 2 for O  read from file:
     /storage/coda1/p-amedford6/0/shared/rich_project_chbe-medford/medford-share/data/pseudos_module/espresso/nninc/pbe/van/O.UPF
     MD5 check sum: 78c19812648e8988a0fe644b0f25305e
     Pseudo is Ultrasoft, Zval =  6.0
     Generated by new atomic code, or converted to UPF format
     Using radial grid of  737 points,  4 beta functions with:
                l(1) =   0
                l(2) =   0
                l(3) =   1
                l(4) =   1
     Q(r) pseudized with  8 coefficients,  rinner =    0.800   0.800   0.800

     PseudoPot. # 3 for N  read from file:
     /storage/coda1/p-amedford6/0/shared/rich_project_chbe-medford/medford-share/data/pseudos_module/espresso/nninc/pbe/van/N.UPF
     MD5 check sum: 90d10febe142ad51ac9d5be1deb811c4
     Pseudo is Ultrasoft, Zval =  5.0
     Generated by new atomic code, or converted to UPF format
     Using radial grid of  729 points,  4 beta functions with:
                l(1) =   0
                l(2) =   0
                l(3) =   1
                l(4) =   1
     Q(r) pseudized with  8 coefficients,  rinner =    0.800   0.800   0.800

     PseudoPot. # 4 for C  read from file:
     /storage/coda1/p-amedford6/0/shared/rich_project_chbe-medford/medford-share/data/pseudos_module/espresso/nninc/pbe/van/C.UPF
     MD5 check sum: 1a69bf6b8db32088f5b2163dbdb77a27
     Pseudo is Ultrasoft, Zval =  4.0
     Generated by new atomic code, or converted to UPF format
     Using radial grid of  721 points,  4 beta functions with:
                l(1) =   0
                l(2) =   0
                l(3) =   1
                l(4) =   1
     Q(r) pseudized with  8 coefficients,  rinner =    0.800   0.800   0.800

     PseudoPot. # 5 for H  read from file:
     /storage/coda1/p-amedford6/0/shared/rich_project_chbe-medford/medford-share/data/pseudos_module/espresso/nninc/pbe/van/H.UPF
     MD5 check sum: b5ee9d7bfd3a09ee7748110bda690ff7
     Pseudo is Ultrasoft, Zval =  1.0
     Generated by new atomic code, or converted to UPF format
     Using radial grid of  615 points,  1 beta functions with:
                l(1) =   0
     Q(r) pseudized with  8 coefficients,  rinner =    0.800

     atomic species   valence    mass     pseudopotential
        Ti1           12.00    47.86700     Ti( 1.00)
        O1             6.00    15.99900     O ( 1.00)
        N1             5.00    14.00700     N ( 1.00)
        C1             4.00    12.01100     C ( 1.00)
        H1             1.00     1.00800     H ( 1.00)

     No symmetry found

   Cartesian axes

     site n.     atom                  positions (alat units)
         1           Ti1 tau(   1) = (   0.0004258   2.9801865   6.0000000  )
         2           Ti1 tau(   2) = (   3.2906075   1.4906267   6.0002472  )
         3           O1  tau(   3) = (   0.0006271   0.0005054   7.9858123  )
         4           O1  tau(   4) = (   3.2906025   0.0005020   7.3038282  )
         5           O1  tau(   5) = (   4.5942328   1.4918067   9.2879030  )
         6           O1  tau(   6) = (   1.9868534   1.4903216   9.2879459  )
         7           Ti1 tau(   7) = (   3.2907910   2.8959150   9.1758416  )
         8           Ti1 tau(   8) = (   0.0015273   1.4827037   9.2680791  )
         9           O1  tau(   9) = (   3.2912042   0.0294118  11.3810798  )
        10           O1  tau(  10) = (   0.0116148   5.9584955  10.6183126  )
        11           O1  tau(  11) = (   1.2906363   1.5151137  12.6946382  )
        12           O1  tau(  12) = (   5.2977377   1.5118052  12.6897239  )
        13           Ti1 tau(  13) = (   0.0154927   3.0055723  12.5114375  )
        14           Ti1 tau(  14) = (   3.3120461   1.5076926  12.5412499  )
        15           O1  tau(  15) = (   0.0087391   5.9056098  14.6936070  )
        16           O1  tau(  16) = (   3.3000944   0.0090435  14.0218108  )
        17           O1  tau(  17) = (   4.5606481   1.5918460  16.0876707  )
        18           O1  tau(  18) = (   2.0070218   1.5857768  16.0794533  )
        19           Ti1 tau(  19) = (   3.2835068   3.0412122  15.7371975  )
        20           Ti1 tau(  20) = (   0.0166266   1.3536260  15.8406240  )
        21           O1  tau(  21) = (   3.2904802   0.0005063   4.7018136  )
        22           O1  tau(  22) = (   6.5628702   0.1917167  17.2472498  )
        23           O1  tau(  23) = (   1.3043587   1.4918075   6.0039043  )
        24           O1  tau(  24) = (   5.2767064   1.4903225   6.0039473  )
        25           Ti1 tau(  25) = (   0.0000382   5.9609847   6.0000000  )
        26           Ti1 tau(  26) = (   3.2902200   4.4714249   6.0002472  )
        27           O1  tau(  27) = (   0.0002396   2.9813036   7.9858123  )
        28           O1  tau(  28) = (   3.2902150   2.9813002   7.3038282  )
        29           O1  tau(  29) = (   4.5938453   4.4726049   9.2879030  )
        30           O1  tau(  30) = (   1.9864658   4.4711199   9.2879459  )
        31           Ti1 tau(  31) = (   3.2891106   5.8743827   9.1763621  )
        32           Ti1 tau(  32) = (   0.0006254   4.4649316   9.2693709  )
        33           O1  tau(  33) = (   3.2975917   2.9887808  11.3748511  )
        34           O1  tau(  34) = (   0.0092240   2.9805883  10.6323155  )
        35           O1  tau(  35) = (   1.2927870   4.4849180  12.6503915  )
        36           O1  tau(  36) = (   5.2959677   4.4879952  12.6460094  )
        37           Ti1 tau(  37) = (   0.0189062   0.0134437  12.4995343  )
        38           Ti1 tau(  38) = (   3.3131396   4.4925875  12.5257625  )
        39           O1  tau(  39) = (   6.5658147   3.0796170  14.9398047  )
        40           O1  tau(  40) = (   3.2912769   3.0351834  13.9531456  )
        41           O1  tau(  41) = (   4.5372935   4.5058929  16.2491503  )
        42           O1  tau(  42) = (   2.0060561   4.4992570  16.2466123  )
        43           Ti1 tau(  43) = (   3.3106529   0.0781036  15.8389635  )
        44           Ti1 tau(  44) = (   0.0259428   4.5566345  16.0434284  )
        45           O1  tau(  45) = (   3.2900926   2.9813045   4.7018136  )
        46           O1  tau(  46) = (   1.3039711   4.4726057   6.0039043  )
        47           O1  tau(  47) = (   5.2763189   4.4711207   6.0039473  )
        48           N1  tau(  48) = (   6.3514164   3.3085518  18.1544664  )
        49           C1  tau(  49) = (   0.8695967   3.1501053  19.1301808  )
        50           H1  tau(  50) = (   1.3785670   4.1052268  19.2416751  )
        51           H1  tau(  51) = (   0.5086663   2.8389580  20.1145987  )
        52           H1  tau(  52) = (   1.5779067   2.4119510  18.7640910  )
        53           H1  tau(  53) = (   5.7211048   4.0382881  18.4729098  )
        54           H1  tau(  54) = (   5.7931489   2.4557210  18.1309407  )
        55           O1  tau(  55) = (   3.2817172   0.3149129  18.3340421  )
        56           H1  tau(  56) = (   4.0380937   5.6864266  18.4726034  )
        57           H1  tau(  57) = (   2.4816286   5.7471253  18.4434621  )

     number of k points=    10  Fermi-Dirac smearing, width (Ry)=  0.0073
                       cart. coord. in units 2pi/alat
        k(    1) = (   0.0000000   0.0000000   0.0000000), wk =   0.1250000
        k(    2) = (   0.0000000   0.0419351   0.0000000), wk =   0.2500000
        k(    3) = (   0.0000000  -0.0838702   0.0000000), wk =   0.1250000
        k(    4) = (   0.0379955   0.0000049   0.0000000), wk =   0.2500000
        k(    5) = (   0.0379955   0.0419400   0.0000000), wk =   0.2500000
        k(    6) = (   0.0379955  -0.0838652   0.0000000), wk =   0.2500000
        k(    7) = (   0.0379955  -0.0419301   0.0000000), wk =   0.2500000
        k(    8) = (  -0.0759910  -0.0000099   0.0000000), wk =   0.1250000
        k(    9) = (  -0.0759910   0.0419252   0.0000000), wk =   0.2500000
        k(   10) = (  -0.0759910  -0.0838800   0.0000000), wk =   0.1250000

     Initial potential from superposition of free atoms

     starting charge  383.99913, renormalised to  400.00000

     negative rho (up, down):  1.554E-02 0.000E+00

     %%%%%%%%%%%%%%%%%%%%%%%%%%%%%%%%%%%%%%%%%%%%%%%%%%%%%%%%%%%%%%%%%%%%%%%%
     %                                                                      %
     % You are using vdW-DF, which was implemented by the Thonhauser group. %
     % Please cite the following two papers that made this development      %
     % possible and the two reviews that describe the various versions:     %
     %                                                                      %
     %   T. Thonhauser et al., PRL 115, 136402 (2015).                      %
     %   T. Thonhauser et al., PRB 76, 125112 (2007).                       %
     %   K. Berland et al., Rep. Prog. Phys. 78, 066501 (2015).             %
     %   D.C. Langreth et al., J. Phys.: Condens. Matter 21, 084203 (2009). %
     %                                                                      %
     %                                                                      %
     % If you are calculating the stress with vdW-DF, please also cite:     %
     %                                                                      %
     %   R. Sabatini et al., J. Phys.: Condens. Matter 24, 424209 (2012).   %
     %                                                                      %
     %%%%%%%%%%%%%%%%%%%%%%%%%%%%%%%%%%%%%%%%%%%%%%%%%%%%%%%%%%%%%%%%%%%%%%%%

     Adding external electric field

     Computed dipole along edir(3) :
        Dipole              -12.0858 Ry au,        -30.7189 Debye
        Dipole field         -0.0228 Ry au,

        Potential amp.        2.1142 Ry
        Total length         46.3494 bohr

     Starting wfcs are  303 atomic wfcs
  @ DRIVER MODE: Message from server: STATUS
  @ DRIVER MODE: Message from server: POSDATA
  @ DRIVER MODE: Reading and sharing cell
  @ DRIVER MODE: Reading and sharing positions
  @ DRIVER MODE: Received positions

     Self-consistent Calculation

     iteration #  1     ecut=    29.40 Ry     beta= 0.05
     Davidson diagonalization with overlap
     c_bands:  2 eigenvalues not converged
     c_bands:  2 eigenvalues not converged
     c_bands:  4 eigenvalues not converged
     c_bands:  4 eigenvalues not converged
     c_bands:  2 eigenvalues not converged
     c_bands:  1 eigenvalues not converged
     c_bands:  4 eigenvalues not converged
     c_bands:  4 eigenvalues not converged
     c_bands:  5 eigenvalues not converged
     ethr =  1.00E-05,  avg # of iterations = 22.0

[...]

     total energy              =   -2384.81362892 Ry
     estimated scf accuracy    <    6450.47103365 Ry

     iteration #  2     ecut=    29.40 Ry     beta= 0.05
     Davidson diagonalization with overlap
     ethr =  1.00E-02,  avg # of iterations = 25.2

[...]

     iteration # 50     ecut=    29.40 Ry     beta= 0.05
     Davidson diagonalization with overlap
     c_bands:  1 eigenvalues not converged
     ethr =  1.03E-08,  avg # of iterations = 11.9

[...]

     total energy              =   -2956.45477233 Ry
     estimated scf accuracy    <       0.00000025 Ry

     iteration # 65     ecut=    29.40 Ry     beta= 0.05
     Davidson diagonalization with overlap
     ethr =  3.20E-11,  avg # of iterations =  5.5

     negative rho (up, down):  1.589E-02 0.000E+00

     Adding external electric field

     Computed dipole along edir(3) :
        Dipole                1.4057 Ry au,          3.5729 Debye
        Dipole field          0.0027 Ry au,

        Potential amp.       -0.2459 Ry
        Total length         46.3494 bohr

     End of self-consistent calculation

          k = 0.0000 0.0000 0.0000 ( 18029 PWs)   bands (ev):

   -55.2153 -55.1780 -55.1728 -55.1468 -55.1387 -55.1183 -55.0966 -55.0617
   -55.0414 -55.0066 -55.0034 -54.9940 -54.9698 -54.9345 -54.2025 -54.1685
   -31.7787 -31.6892 -31.6654 -31.5853 -31.5302 -31.5250 -31.5165 -31.5089
   -31.4617 -31.4382 -31.4264 -31.4176 -31.4130 -31.4111 -31.3872 -31.3841
   -31.3617 -31.3606 -31.3531 -31.3379 -31.3254 -31.3173 -31.3020 -31.2930
   -31.2867 -31.2739 -31.2715 -31.2426 -31.2300 -31.2275 -31.2222 -31.2021
   -31.1993 -31.1916 -31.1875 -31.1705 -31.1545 -31.1402 -31.1327 -31.1315
   -31.1145 -31.1124 -30.6120 -30.5177 -30.4956 -30.4284 -30.3416 -30.2306
   -19.2597 -16.1553 -16.0242 -15.7756 -15.6338 -15.5393 -15.4193 -15.3039
   -15.2391 -15.1253 -15.0671 -14.9320 -14.9165 -14.9045 -14.8796 -14.8465
   -14.8079 -14.7601 -14.7589 -14.7352 -14.7148 -14.7061 -14.6643 -14.6569
   -14.6171 -14.5960 -14.5946 -14.4596 -14.3783 -14.3081 -14.1232 -12.7053
   -12.5879 -10.2734  -7.0798  -6.2714  -4.8282  -3.9403  -3.3990  -3.3346
    -3.2372  -3.1481  -3.1245  -3.1130  -2.9759  -2.8812  -2.7454  -2.6661
    -2.6342  -2.4977  -2.4243  -2.4129  -2.3804  -2.2653  -2.2130  -2.1866
    -2.1539  -2.0822  -2.0336  -2.0231  -2.0052  -1.9745  -1.9593  -1.9254
    -1.8719  -1.7867  -1.7566  -1.6527  -1.6147  -1.5860  -1.5751  -1.5505
    -1.5336  -1.5088  -1.5025  -1.4418  -1.4384  -1.4087  -1.3625  -1.2477
    -1.0850  -1.0218  -0.9506  -0.8575  -0.8097  -0.7960  -0.7269  -0.7166
    -0.7027  -0.5991  -0.5659  -0.5535  -0.4566  -0.4260  -0.3865  -0.3140
    -0.2428  -0.2146  -0.2016  -0.0863  -0.0213  -0.0031   0.0166   0.0236
     0.1134   0.1865   0.2343   0.2859   0.3267   0.3339   0.3995   0.4318
     0.4998   0.5516   0.5694   0.6567   0.7015   0.7142   0.7204   0.7536
     0.7656   0.8273   0.8637   0.8880   0.9746   1.0898   1.2416   1.3836
     1.3916   1.7247   1.7255   1.8200   2.0038   2.3963   2.4446   3.8776
     3.9503   4.0095   4.0228   4.0284   4.1135   4.3600   4.3820   4.3878
     4.3980   4.4264

[...]

          k = 0.0380-0.0419 0.0000 ( 17876 PWs)   bands (ev):

[...]

          k =-0.0760-0.0000 0.0000 ( 17886 PWs)   bands (ev):

[...]

          k =-0.0760-0.0839 0.0000 ( 17948 PWs)   bands (ev):

   -55.2016 -55.1914 -55.1558 -55.1556 -55.1451 -55.1160 -55.0824 -55.0759
   -55.0268 -55.0207 -54.9962 -54.9870 -54.9863 -54.9360 -54.1857 -54.1852
   -31.6077 -31.5874 -31.5787 -31.4805 -31.4804 -31.4764 -31.4687 -31.4470
   -31.4470 -31.4271 -31.4192 -31.4126 -31.4052 -31.3907 -31.3732 -31.3584
   -31.3556 -31.3532 -31.3513 -31.3492 -31.3418 -31.3392 -31.3224 -31.3163
   -31.2957 -31.2953 -31.2766 -31.2755 -31.2753 -31.2730 -31.2682 -31.2599
   -31.2523 -31.2397 -31.2338 -31.2195 -31.2163 -31.1988 -31.1717 -31.1676
   -31.1665 -31.1461 -30.5084 -30.5081 -30.4246 -30.4243 -30.3851 -30.3848
   -19.2588 -16.1093 -15.5981 -15.4838 -15.3580 -15.2483 -15.2275 -15.1808
   -15.1321 -15.0819 -15.0296 -15.0016 -14.9805 -14.9715 -14.9286 -14.9184
   -14.8993 -14.8338 -14.8183 -14.8072 -14.7833 -14.7360 -14.7277 -14.7200
   -14.7160 -14.6702 -14.6661 -14.6182 -14.5746 -14.5708 -14.3920 -12.6895
   -12.6892 -10.2750  -7.1041  -6.2069  -4.8287  -3.9547  -3.2290  -2.9798
    -2.7491  -2.6975  -2.6089  -2.4655  -2.4214  -2.3768  -2.3455  -2.2841
    -2.2334  -2.2184  -2.2066  -2.1303  -2.1034  -2.0956  -2.0624  -2.0506
    -2.0405  -2.0025  -1.9817  -1.9563  -1.9481  -1.9372  -1.9346  -1.9261
    -1.8670  -1.8547  -1.8440  -1.8402  -1.7813  -1.7699  -1.7553  -1.7414
    -1.5967  -1.5784  -1.4275  -1.4241  -1.4027  -1.3493  -1.3377  -1.2970
    -1.2537  -1.2444  -1.2177  -0.9735  -0.9645  -0.9613  -0.9298  -0.8965
    -0.8581  -0.7963  -0.7673  -0.6976  -0.6895  -0.5731  -0.5571  -0.4418
    -0.4334  -0.4209  -0.3377  -0.2894  -0.2405  -0.2016  -0.1846  -0.1740
    -0.1572  -0.1208  -0.1185  -0.0212   0.0149   0.0457   0.0591   0.0986
     0.2752   0.3041   0.3197   0.4637   0.4712   0.6311   0.6817   0.7099
     0.8004   0.8605   0.8951   0.9390   1.0747   1.0881   1.1052   1.1602
     1.1833   1.2327   1.2459   2.1761   2.1775   2.2645   2.2646   4.0228
     4.1320   4.1412   4.1990   4.3103   4.3188   4.3927   4.4239   4.4613
     4.4650   4.5318

     the Fermi energy is     3.9399 ev

!    total energy              =   -2956.45481116 Ry
     estimated scf accuracy    <       0.00000007 Ry
     smearing contrib. (-TS)   =      -0.03685315 Ry
     internal energy E=F+TS    =   -2956.41795801 Ry

     The total energy is F=E-TS. E is the sum of the following terms:
     one-electron contribution =  -23693.66826217 Ry
     hartree contribution      =   11942.33423435 Ry
     xc contribution           =    -490.61832399 Ry
     ewald contribution        =    9285.53066491 Ry
     electric field correction =       0.00372888 Ry

     convergence has been achieved in  65 iterations

     Forces acting on atoms (cartesian axes, Ry/au):

     atom    1 type  1   force =    -0.00000601   -0.00026097    0.09336351
     atom    2 type  1   force =    -0.00006882   -0.00034709   -0.17816162
     atom    3 type  2   force =     0.00004697   -0.00031035   -0.02031315
     atom    4 type  2   force =    -0.00003435   -0.00185031    0.05915779
     atom    5 type  2   force =    -0.01021705   -0.00060592    0.00752815
     atom    6 type  2   force =     0.01174391    0.00022320    0.00685802
     atom    7 type  1   force =    -0.00030552    0.00187887   -0.01238743
     atom    8 type  1   force =     0.00016333    0.00083700   -0.00451073
     atom    9 type  2   force =     0.00038602   -0.00015750   -0.00079255
     atom   10 type  2   force =    -0.00141664    0.00414374   -0.00107447
     atom   11 type  2   force =    -0.00088333   -0.00029891    0.00019798
     atom   12 type  2   force =     0.00089328   -0.00005241    0.00005865
     atom   13 type  1   force =    -0.00013236   -0.00023189    0.00010546
     atom   14 type  1   force =    -0.00003934   -0.00009624    0.00003309
     atom   15 type  2   force =    -0.00067019   -0.00001688   -0.00006968
     atom   16 type  2   force =    -0.00010797    0.00023267   -0.00039591
     atom   17 type  2   force =     0.00031030   -0.00071539   -0.00004024
     atom   18 type  2   force =     0.00078291   -0.00065782   -0.00022475
     atom   19 type  1   force =    -0.00079850    0.00020479    0.00147596
     atom   20 type  1   force =     0.00073173   -0.00071194    0.00031554
     atom   21 type  2   force =     0.00001919   -0.00010692    0.10394154
     atom   22 type  2   force =     0.00011919   -0.00061082    0.00046367
     atom   23 type  2   force =    -0.07040798   -0.00020802   -0.02693410
     atom   24 type  2   force =     0.07024239    0.00023076   -0.02698502
     atom   25 type  1   force =    -0.00005167   -0.00021678    0.09287043
     atom   26 type  1   force =    -0.00020376   -0.00053821   -0.17842810
     atom   27 type  2   force =     0.00007266   -0.00013322   -0.01929514
     atom   28 type  2   force =     0.00005502   -0.00157347    0.05816341
     atom   29 type  2   force =    -0.01091506   -0.00007047    0.00844896
     atom   30 type  2   force =     0.01232001    0.00011936    0.00773416
     atom   31 type  1   force =    -0.00029409    0.00669707   -0.01505539
     atom   32 type  1   force =     0.00010913   -0.00073891   -0.00472033
     atom   33 type  2   force =    -0.00022101    0.00035472   -0.00050204
     atom   34 type  2   force =    -0.00110981   -0.00022774   -0.00038313
     atom   35 type  2   force =    -0.00020636   -0.00012091   -0.00015200
     atom   36 type  2   force =     0.00028264   -0.00036747   -0.00024997
     atom   37 type  1   force =     0.00023527   -0.00018648    0.00020894
     atom   38 type  1   force =    -0.00011028    0.00067343    0.00063996
     atom   39 type  2   force =     0.00013593   -0.00113872    0.00102533
     atom   40 type  2   force =     0.00026220    0.00099659   -0.00060949
     atom   41 type  2   force =    -0.00020541    0.00022061   -0.00027219
     atom   42 type  2   force =     0.00118155    0.00019948   -0.00054841
     atom   43 type  1   force =    -0.00111981   -0.00003051    0.00026304
     atom   44 type  1   force =     0.00042918   -0.00122891    0.00104894
     atom   45 type  2   force =     0.00001400   -0.00011356    0.10391846
     atom   46 type  2   force =    -0.07037405   -0.00012400   -0.02689930
     atom   47 type  2   force =     0.07022904    0.00028758   -0.02696841
     atom   48 type  3   force =     0.00075101    0.00005481   -0.00053555
     atom   49 type  4   force =     0.00001302   -0.00003463    0.00004329
     atom   50 type  5   force =    -0.00012824   -0.00076830    0.00007419
     atom   51 type  5   force =    -0.00004982   -0.00059211   -0.00062288
     atom   52 type  5   force =    -0.00004161    0.00011448   -0.00047480
     atom   53 type  5   force =     0.00002695    0.00013180   -0.00063025
     atom   54 type  5   force =     0.00004755   -0.00017606   -0.00066898
     atom   55 type  2   force =     0.00950346    0.00617340   -0.00088108
     atom   56 type  5   force =    -0.00185644   -0.00057813    0.00025798
     atom   57 type  5   force =    -0.00913235   -0.00757638    0.00159062

     Total force =     0.366635     Total SCF correction =     0.000639
  @ DRIVER MODE: Message from server: STATUS
  @ DRIVER MODE: Message from server: GETFORCE
  @ DRIVER MODE: Returning v,forces,stress,ensemble

     Writing output data file ./calc.save/
  @ DRIVER MODE: Message from server: EXIT
  @ DRIVE MODE: Exiting

     General routines

     Parallel routines

   This run was terminated on:  11: 6:11  23Sep2021

   JOB DONE.