     Program PWSCF v.6.7GPU starts on 10Sep2021 at 18:58: 1

     R & G space division:  proc/nbgrp/npool/nimage =      10
     Reading input from /storage/home/hcoda1/3/ntian30/research/carbon/CxH_vib/CH2_calc/ads_slab/CH2NHNH2_a/out_0004/pw.inp
Warning: card &CELL ignored
Warning: card   CELL_DYNAMICS='IPI', ignored
Warning: card / ignored

     Current dimensions of program PWSCF are:
     Max number of different atomic species (ntypx) = 10
     Max number of k-points (npk) =  40000
     Max angular momentum in pseudopotentials (lmaxx) =  3
     Presently no symmetry can be used with electric field

     Message from routine cell_base_init:
     DEPRECATED: use true lattice parameter, not A to a.u. conversion factor

     IMPORTANT: XC functional enforced from input :
     Exchange-correlation= BEEF-VDW
                           (   1   4  43  14   2   0   0)
     Any further DFT definition will be discarded
     Please, verify this is what you really want

  @ DRIVER MODE: Connecting to
 qe_1139763_2792044.sched-torque.pace.gatech.eduovgssau1_scratch
  using UNIX socket
  @ DRIVER MODE: Message from server: STATUS
  @ DRIVER MODE: Message from server: INIT
  @ DRIVER MODE: Receiving replica           0          -1
  @ DRIVER MODE: Receiving encoded integer          25
  @ DRIVER MODE:  SCF:  T  FORCE:  T  STRESS:  F  VC:  F  ENSEMBLE:  F
  @ DRIVER MODE:  SCF:  T  FORCE:  T  STRESS:  F  VC:  F  ENSEMBLE:  F

     Using Slab Decomposition

     bravais-lattice index     =            0
     lattice parameter (alat)  =       1.8897  a.u.
     unit-cell volume          =    6658.9804 (a.u.)^3
     number of atoms/cell      =           55
     number of atomic types    =            5
     number of electrons       =       397.00
     number of Kohn-Sham states=          208
     kinetic-energy cutoff     =      29.3995  Ry
     charge density cutoff     =     293.9946  Ry
     scf convergence threshold =      7.3E-08
     mixing beta               =       0.0500
     number of iterations used =            8  plain     mixing
     Exchange-correlation= BEEF-VDW
                           (   1   4  43  14   2   0   0)

     celldm(1)=   1.889726  celldm(2)=   0.000000  celldm(3)=   0.000000
     celldm(4)=   0.000000  celldm(5)=   0.000000  celldm(6)=   0.000000

     crystal axes: (cart. coord. in units of alat)
               a(1) = (   6.579727   0.000000   0.000000 )
               a(2) = (  -0.000775   5.961596   0.000000 )
               a(3) = (   0.000000   0.000000  25.155947 )

     reciprocal axes: (cart. coord. in units 2 pi/alat)
               b(1) = (  0.151982  0.000020  0.000000 )
               b(2) = (  0.000000  0.167740  0.000000 )
               b(3) = (  0.000000  0.000000  0.039752 )

     PseudoPot. # 1 for Ti read from file:
     /storage/coda1/p-amedford6/0/shared/rich_project_chbe-medford/medford-share/data/pseudos_module/espresso/nninc/pbe/van/Ti.UPF
     MD5 check sum: 8e4df49b7f0d34bbd5052bf3f5ea0213
     Pseudo is Ultrasoft, Zval = 12.0
     Generated by new atomic code, or converted to UPF format
     Using radial grid of  851 points,  6 beta functions with:
                l(1) =   0
                l(2) =   0
                l(3) =   1
                l(4) =   1
                l(5) =   2
                l(6) =   2
     Q(r) pseudized with  8 coefficients,  rinner =    1.000   1.000   1.000
                                                       1.000   1.000

     PseudoPot. # 2 for O  read from file:
     /storage/coda1/p-amedford6/0/shared/rich_project_chbe-medford/medford-share/data/pseudos_module/espresso/nninc/pbe/van/O.UPF
     MD5 check sum: 78c19812648e8988a0fe644b0f25305e
     Pseudo is Ultrasoft, Zval =  6.0
     Generated by new atomic code, or converted to UPF format
     Using radial grid of  737 points,  4 beta functions with:
                l(1) =   0
                l(2) =   0
                l(3) =   1
                l(4) =   1
     Q(r) pseudized with  8 coefficients,  rinner =    0.800   0.800   0.800

     PseudoPot. # 3 for N  read from file:
     /storage/coda1/p-amedford6/0/shared/rich_project_chbe-medford/medford-share/data/pseudos_module/espresso/nninc/pbe/van/N.UPF
     MD5 check sum: 90d10febe142ad51ac9d5be1deb811c4
     Pseudo is Ultrasoft, Zval =  5.0
     Generated by new atomic code, or converted to UPF format
     Using radial grid of  729 points,  4 beta functions with:
                l(1) =   0
                l(2) =   0
                l(3) =   1
                l(4) =   1
     Q(r) pseudized with  8 coefficients,  rinner =    0.800   0.800   0.800

     PseudoPot. # 4 for C  read from file:
     /storage/coda1/p-amedford6/0/shared/rich_project_chbe-medford/medford-share/data/pseudos_module/espresso/nninc/pbe/van/C.UPF
     MD5 check sum: 1a69bf6b8db32088f5b2163dbdb77a27
     Pseudo is Ultrasoft, Zval =  4.0
     Generated by new atomic code, or converted to UPF format
     Using radial grid of  721 points,  4 beta functions with:
                l(1) =   0
                l(2) =   0
                l(3) =   1
                l(4) =   1
     Q(r) pseudized with  8 coefficients,  rinner =    0.800   0.800   0.800

     PseudoPot. # 5 for H  read from file:
     /storage/coda1/p-amedford6/0/shared/rich_project_chbe-medford/medford-share/data/pseudos_module/espresso/nninc/pbe/van/H.UPF
     MD5 check sum: b5ee9d7bfd3a09ee7748110bda690ff7
     Pseudo is Ultrasoft, Zval =  1.0
     Generated by new atomic code, or converted to UPF format
     Using radial grid of  615 points,  1 beta functions with:
                l(1) =   0
     Q(r) pseudized with  8 coefficients,  rinner =    0.800

     atomic species   valence    mass     pseudopotential
        Ti1           12.00    47.86700     Ti( 1.00)
        O1             6.00    15.99900     O ( 1.00)
        N1             5.00    14.00700     N ( 1.00)
        C1             4.00    12.01100     C ( 1.00)
        H1             1.00     1.00800     H ( 1.00)

     No symmetry found

   Cartesian axes

     site n.     atom                  positions (alat units)
         1           Ti1 tau(   1) = (   0.0004258   2.9801865   6.0000000  )
         2           Ti1 tau(   2) = (   3.2906075   1.4906267   6.0002472  )
         3           O1  tau(   3) = (   0.0006271   0.0005054   7.9858123  )
         4           O1  tau(   4) = (   3.2906025   0.0005020   7.3038282  )
         5           O1  tau(   5) = (   4.5942328   1.4918067   9.2879030  )
         6           O1  tau(   6) = (   1.9868534   1.4903216   9.2879459  )
         7           Ti1 tau(   7) = (   3.2907910   2.8959150   9.1758416  )
         8           Ti1 tau(   8) = (   0.0015273   1.4827037   9.2680791  )
         9           O1  tau(   9) = (   3.2904964   5.9585769  11.3857690  )
        10           O1  tau(  10) = (   0.0116148   5.9584955  10.6183126  )
        11           O1  tau(  11) = (   1.2878431   1.4867815  12.6991744  )
        12           O1  tau(  12) = (   5.2968392   1.4897239  12.6840540  )
        13           Ti1 tau(  13) = (   0.0031652   2.9724310  12.5021289  )
        14           Ti1 tau(  14) = (   3.2974598   1.4750309  12.5411678  )
        15           O1  tau(  15) = (   6.5490940   5.8844369  14.7025010  )
        16           O1  tau(  16) = (   3.3056738   5.9474069  14.0077327  )
        17           O1  tau(  17) = (   4.5358307   1.5199601  16.1809847  )
        18           O1  tau(  18) = (   2.0145668   1.5037208  16.1256758  )
        19           Ti1 tau(  19) = (   3.2722398   2.9952086  15.7861162  )
        20           Ti1 tau(  20) = (   6.5630583   1.3046800  15.8709962  )
        21           O1  tau(  21) = (   3.2904802   0.0005063   4.7018136  )
        22           O1  tau(  22) = (   0.0019326   0.1554656  17.2922311  )
        23           O1  tau(  23) = (   1.3043587   1.4918075   6.0039043  )
        24           O1  tau(  24) = (   5.2767064   1.4903225   6.0039473  )
        25           Ti1 tau(  25) = (   0.0000382   5.9609847   6.0000000  )
        26           Ti1 tau(  26) = (   3.2902200   4.4714249   6.0002472  )
        27           O1  tau(  27) = (   0.0002396   2.9813036   7.9858123  )
        28           O1  tau(  28) = (   3.2902150   2.9813002   7.3038282  )
        29           O1  tau(  29) = (   4.5938453   4.4726049   9.2879030  )
        30           O1  tau(  30) = (   1.9864658   4.4711199   9.2879459  )
        31           Ti1 tau(  31) = (   3.2891106   5.8743827   9.1763621  )
        32           Ti1 tau(  32) = (   0.0006254   4.4649316   9.2693709  )
        33           O1  tau(  33) = (   3.2902589   2.9648534  11.3782866  )
        34           O1  tau(  34) = (   0.0092240   2.9805883  10.6323155  )
        35           O1  tau(  35) = (   1.2907939   4.4579819  12.6664495  )
        36           O1  tau(  36) = (   5.2949113   4.4550998  12.6520156  )
        37           Ti1 tau(  37) = (   0.0082621   5.9437129  12.5015890  )
        38           Ti1 tau(  38) = (   3.2989848   4.4491302  12.5337562  )
        39           O1  tau(  39) = (   6.5545586   3.0159292  14.9830317  )
        40           O1  tau(  40) = (   3.2960925   2.9977268  13.9872472  )
        41           O1  tau(  41) = (   4.5245867   4.4695491  16.2648171  )
        42           O1  tau(  42) = (   2.0004542   4.4779941  16.2115700  )
        43           Ti1 tau(  43) = (   3.2998562   0.0139781  15.8031611  )
        44           Ti1 tau(  44) = (   0.0298651   4.5190837  16.0363964  )
        45           O1  tau(  45) = (   3.2900926   2.9813045   4.7018136  )
        46           O1  tau(  46) = (   1.3039711   4.4726057   6.0039043  )
        47           O1  tau(  47) = (   5.2763189   4.4711207   6.0039473  )
        48           N1  tau(  48) = (   0.7490466   2.5108218  18.8353846  )
        49           N1  tau(  49) = (   6.4369825   3.4131575  18.1751453  )
        50           C1  tau(  50) = (   1.9829018   2.9174465  19.1941100  )
        51           H1  tau(  51) = (   2.1359794   3.9544348  19.4490303  )
        52           H1  tau(  52) = (   2.6935556   2.1521737  19.4548401  )
        53           H1  tau(  53) = (   0.6355624   1.5475814  18.4636284  )
        54           H1  tau(  54) = (   6.4936903   4.3158724  18.6511896  )
        55           H1  tau(  55) = (   5.4890587   3.0624770  18.3097170  )

     number of k points=    10  Fermi-Dirac smearing, width (Ry)=  0.0073
                       cart. coord. in units 2pi/alat
        k(    1) = (   0.0000000   0.0000000   0.0000000), wk =   0.1250000
        k(    2) = (   0.0000000   0.0419351   0.0000000), wk =   0.2500000
        k(    3) = (   0.0000000  -0.0838702   0.0000000), wk =   0.1250000
        k(    4) = (   0.0379955   0.0000049   0.0000000), wk =   0.2500000
        k(    5) = (   0.0379955   0.0419400   0.0000000), wk =   0.2500000
        k(    6) = (   0.0379955  -0.0838652   0.0000000), wk =   0.2500000
        k(    7) = (   0.0379955  -0.0419301   0.0000000), wk =   0.2500000
        k(    8) = (  -0.0759910  -0.0000099   0.0000000), wk =   0.1250000
        k(    9) = (  -0.0759910   0.0419252   0.0000000), wk =   0.2500000
        k(   10) = (  -0.0759910  -0.0838800   0.0000000), wk =   0.1250000

     Initial potential from superposition of free atoms

     starting charge  380.99914, renormalised to  397.00000

     negative rho (up, down):  1.606E-02 0.000E+00

     %%%%%%%%%%%%%%%%%%%%%%%%%%%%%%%%%%%%%%%%%%%%%%%%%%%%%%%%%%%%%%%%%%%%%%%%
     %                                                                      %
     % You are using vdW-DF, which was implemented by the Thonhauser group. %
     % Please cite the following two papers that made this development      %
     % possible and the two reviews that describe the various versions:     %
     %                                                                      %
     %   T. Thonhauser et al., PRL 115, 136402 (2015).                      %
     %   T. Thonhauser et al., PRB 76, 125112 (2007).                       %
     %   K. Berland et al., Rep. Prog. Phys. 78, 066501 (2015).             %
     %   D.C. Langreth et al., J. Phys.: Condens. Matter 21, 084203 (2009). %
     %                                                                      %
     %                                                                      %
     % If you are calculating the stress with vdW-DF, please also cite:     %
     %                                                                      %
     %   R. Sabatini et al., J. Phys.: Condens. Matter 24, 424209 (2012).   %
     %                                                                      %
     %%%%%%%%%%%%%%%%%%%%%%%%%%%%%%%%%%%%%%%%%%%%%%%%%%%%%%%%%%%%%%%%%%%%%%%%

     Adding external electric field

     Computed dipole along edir(3) :
        Dipole              -10.6770 Ry au,        -27.1381 Debye
        Dipole field         -0.0201 Ry au,

        Potential amp.        1.8678 Ry
        Total length         46.3494 bohr

     Starting wfcs are  301 atomic wfcs
  @ DRIVER MODE: Message from server: STATUS
  @ DRIVER MODE: Message from server: POSDATA
  @ DRIVER MODE: Reading and sharing cell
  @ DRIVER MODE: Reading and sharing positions
  @ DRIVER MODE: Received positions

     Self-consistent Calculation

     iteration #  1     ecut=    29.40 Ry     beta= 0.05
     Davidson diagonalization with overlap
     c_bands:  2 eigenvalues not converged
     c_bands:  3 eigenvalues not converged
     c_bands:  1 eigenvalues not converged
     c_bands:  4 eigenvalues not converged
     c_bands:  4 eigenvalues not converged
     c_bands:  4 eigenvalues not converged
     c_bands:  1 eigenvalues not converged
     c_bands:  2 eigenvalues not converged
     c_bands:  2 eigenvalues not converged
     ethr =  1.00E-05,  avg # of iterations = 20.0

[...]

     total energy              =   -2465.30749732 Ry
     estimated scf accuracy    <    5331.51102702 Ry

     iteration #  2     ecut=    29.40 Ry     beta= 0.05
     Davidson diagonalization with overlap
     ethr =  1.00E-02,  avg # of iterations = 22.7

[...]

     iteration # 77     ecut=    29.40 Ry     beta= 0.05
     Davidson diagonalization with overlap
     c_bands:  1 eigenvalues not converged
     c_bands:  1 eigenvalues not converged
     ethr =  6.13E-11,  avg # of iterations = 13.7

[...]

     total energy              =   -2941.51037972 Ry
     estimated scf accuracy    <       0.00000040 Ry

     iteration # 79     ecut=    29.40 Ry     beta= 0.05
     Davidson diagonalization with overlap
     ethr =  6.13E-11,  avg # of iterations =  6.1

     negative rho (up, down):  1.514E-02 0.000E+00

     Adding external electric field

     Computed dipole along edir(3) :
        Dipole                1.2121 Ry au,          3.0809 Debye
        Dipole field          0.0023 Ry au,

        Potential amp.       -0.2120 Ry
        Total length         46.3494 bohr

     End of self-consistent calculation

          k = 0.0000 0.0000 0.0000 ( 18029 PWs)   bands (ev):

   -55.3765 -55.3396 -55.3310 -55.2969 -55.2582 -55.2523 -55.2235 -55.2053
   -55.1805 -55.1777 -55.1709 -55.1613 -55.1276 -55.0275 -54.3640 -54.3300
   -31.9394 -31.8243 -31.7719 -31.7455 -31.6944 -31.6841 -31.6783 -31.6678
   -31.6196 -31.6114 -31.5887 -31.5755 -31.5665 -31.5421 -31.5357 -31.5287
   -31.5163 -31.5004 -31.4987 -31.4837 -31.4827 -31.4458 -31.4457 -31.4356
   -31.4355 -31.4076 -31.3886 -31.3882 -31.3875 -31.3830 -31.3668 -31.3601
   -31.3592 -31.3531 -31.3526 -31.3505 -31.3186 -31.2943 -31.2891 -31.2727
   -31.2426 -31.1974 -30.7737 -30.6789 -30.6569 -30.5899 -30.5031 -30.3923
   -18.9640 -16.2093 -15.9562 -15.8093 -15.7017 -15.5833 -15.4749 -15.4199
   -15.3136 -15.2421 -15.1304 -15.0797 -15.0638 -15.0320 -15.0216 -15.0100
   -14.9296 -14.9231 -14.9054 -14.8823 -14.8766 -14.8346 -14.8229 -14.7821
   -14.7571 -14.7542 -14.6298 -14.5437 -14.4691 -14.3419 -14.3118 -12.8667
   -12.7492  -9.8502  -7.5064  -6.2783  -5.0014  -4.0436  -3.6035  -3.5418
    -3.4024  -3.2947  -3.2735  -3.2447  -3.1371  -2.9567  -2.8198  -2.7877
    -2.6704  -2.5898  -2.5765  -2.5458  -2.4211  -2.3838  -2.3461  -2.2815
    -2.2511  -2.1881  -2.1694  -2.1588  -2.1396  -2.1172  -2.0902  -1.9914
    -1.9504  -1.8546  -1.8152  -1.7812  -1.7402  -1.7229  -1.7032  -1.6720
    -1.6618  -1.6077  -1.5958  -1.5801  -1.5314  -1.4133  -1.2932  -1.2591
    -1.1724  -1.0223  -0.9854  -0.9649  -0.9112  -0.8726  -0.8518  -0.8213
    -0.7591  -0.7201  -0.6664  -0.6048  -0.5382  -0.4918  -0.4466  -0.4116
    -0.3724  -0.2882  -0.2096  -0.1620  -0.1490  -0.1328  -0.0334   0.0035
     0.0568   0.1350   0.1365   0.1488   0.1893   0.2737   0.3510   0.3671
     0.3913   0.4972   0.5017   0.5447   0.5474   0.5672   0.6018   0.6351
     0.6866   0.7137   0.8007   0.8970   1.1213   1.2229   1.2280   1.5513
     1.5623   1.6586   1.8416   2.2353   2.2837   3.7153   3.7857   3.8080
     3.8630   3.8660   3.9361   3.9525   4.1981   4.2237   4.2242   4.2432

[...]

          k = 0.0380-0.0419 0.0000 ( 17876 PWs)   bands (ev):

[...]

          k =-0.0760-0.0000 0.0000 ( 17886 PWs)   bands (ev):

[...]

          k =-0.0760-0.0839 0.0000 ( 17948 PWs)   bands (ev):

   -55.3624 -55.3535 -55.3141 -55.3136 -55.2480 -55.2430 -55.2387 -55.1895
   -55.1863 -55.1839 -55.1761 -55.1448 -55.1442 -55.0297 -54.3470 -54.3468
   -31.7485 -31.7395 -31.6806 -31.6565 -31.6395 -31.6393 -31.6211 -31.6049
   -31.6047 -31.5881 -31.5802 -31.5720 -31.5567 -31.5247 -31.5225 -31.5182
   -31.5176 -31.5164 -31.5049 -31.5007 -31.4713 -31.4591 -31.4553 -31.4456
   -31.4399 -31.4361 -31.4339 -31.4335 -31.4305 -31.4220 -31.4193 -31.4022
   -31.4008 -31.3987 -31.3792 -31.3774 -31.3772 -31.3665 -31.3253 -31.3245
   -31.2918 -31.2443 -30.6696 -30.6694 -30.5862 -30.5861 -30.5466 -30.5465
   -18.9581 -15.7614 -15.5919 -15.5729 -15.4283 -15.3920 -15.3498 -15.3387
   -15.2454 -15.2107 -15.1842 -15.1527 -15.1320 -15.0960 -15.0820 -15.0666
   -15.0081 -14.9855 -14.9799 -14.9600 -14.9008 -14.8964 -14.8887 -14.8859
   -14.8311 -14.8280 -14.8214 -14.7374 -14.7344 -14.6304 -14.2641 -12.8507
   -12.8506  -9.8189  -7.4671  -6.2761  -5.1001  -3.9860  -3.6335  -2.8492
    -2.8432  -2.8295  -2.6444  -2.5617  -2.5389  -2.5338  -2.4437  -2.4059
    -2.3617  -2.3585  -2.3065  -2.2994  -2.2721  -2.2312  -2.2196  -2.1996
    -2.1809  -2.1727  -2.1372  -2.1129  -2.1030  -2.0737  -2.0428  -2.0274
    -2.0186  -1.9971  -1.9667  -1.9469  -1.9351  -1.8846  -1.7696  -1.7542
    -1.6605  -1.5920  -1.5877  -1.5144  -1.4905  -1.4496  -1.4411  -1.4156
    -1.3716  -1.1930  -1.1609  -1.1290  -1.1214  -1.0377  -0.9836  -0.9126
    -0.9072  -0.8808  -0.8479  -0.7536  -0.7163  -0.6967  -0.6223  -0.5975
    -0.5322  -0.4924  -0.4237  -0.3931  -0.3384  -0.3365  -0.3028  -0.2883
    -0.2710  -0.1992  -0.1525  -0.1183  -0.1059  -0.0745   0.1214   0.1314
     0.1458   0.2536   0.3015   0.4477   0.4626   0.5255   0.6316   0.6574
     0.7286   0.7534   0.9090   0.9219   0.9339   0.9903   0.9983   1.0682
     1.0776   2.0147   2.0152   2.1035   2.1039   3.6837   3.9017   3.9729
     3.9882   4.0212   4.1448   4.2145   4.2328   4.3023   4.3055   4.3343

     the Fermi energy is     3.7812 ev

!    total energy              =   -2941.51039218 Ry
     estimated scf accuracy    <       0.00000007 Ry
     smearing contrib. (-TS)   =      -0.04444340 Ry
     internal energy E=F+TS    =   -2941.46594878 Ry

     The total energy is F=E-TS. E is the sum of the following terms:
     one-electron contribution =  -23633.95466922 Ry
     hartree contribution      =   11909.31318453 Ry
     xc contribution           =    -486.88831258 Ry
     ewald contribution        =    9270.06107590 Ry
     electric field correction =       0.00277260 Ry

     convergence has been achieved in  79 iterations

     Forces acting on atoms (cartesian axes, Ry/au):

     atom    1 type  1   force =     0.00013121   -0.00018895    0.09301282
     atom    2 type  1   force =    -0.00008435   -0.00045597   -0.17843747
     atom    3 type  2   force =     0.00004628   -0.00037435   -0.02006747
     atom    4 type  2   force =    -0.00001045   -0.00201560    0.05931318
     atom    5 type  2   force =    -0.01030299   -0.00099055    0.00819171
     atom    6 type  2   force =     0.01173030   -0.00039221    0.00733291
     atom    7 type  1   force =    -0.00038290    0.00239154   -0.01416129
     atom    8 type  1   force =     0.00024009   -0.00123913   -0.00618430
     atom    9 type  2   force =    -0.00023227    0.00021759    0.00014919
     atom   10 type  2   force =    -0.00162669    0.00148315    0.00165609
     atom   11 type  2   force =    -0.00005891   -0.00015696    0.00012404
     atom   12 type  2   force =    -0.00017138   -0.00015890    0.00001304
     atom   13 type  1   force =     0.00007349   -0.00027492    0.00001421
     atom   14 type  1   force =     0.00017781    0.00019701    0.00026958
     atom   15 type  2   force =    -0.00007904    0.00030416   -0.00021942
     atom   16 type  2   force =     0.00017252   -0.00021557    0.00018474
     atom   17 type  2   force =     0.00010469    0.00004042    0.00055593
     atom   18 type  2   force =    -0.00037298    0.00002384    0.00000292
     atom   19 type  1   force =    -0.00008255   -0.00005809   -0.00009608
     atom   20 type  1   force =    -0.00017591    0.00006040   -0.00041402
     atom   21 type  2   force =     0.00005950   -0.00008527    0.10399572
     atom   22 type  2   force =     0.00030280    0.00026041    0.00053560
     atom   23 type  2   force =    -0.07032204   -0.00017418   -0.02688443
     atom   24 type  2   force =     0.07021075    0.00027150   -0.02691189
     atom   25 type  1   force =    -0.00001246   -0.00013600    0.09257730
     atom   26 type  1   force =    -0.00006387   -0.00039454   -0.17859427
     atom   27 type  2   force =     0.00009320   -0.00030455   -0.01916039
     atom   28 type  2   force =     0.00003812   -0.00178596    0.05865799
     atom   29 type  2   force =    -0.01079749   -0.00126371    0.00874081
     atom   30 type  2   force =     0.01214790   -0.00086376    0.00784097
     atom   31 type  1   force =    -0.00028850    0.00614214   -0.01441038
     atom   32 type  1   force =     0.00028733    0.00070484   -0.00649505
     atom   33 type  2   force =    -0.00022922   -0.00025128    0.00000847
     atom   34 type  2   force =    -0.00093534   -0.00222751   -0.00013176
     atom   35 type  2   force =    -0.00041366    0.00022803    0.00017698
     atom   36 type  2   force =     0.00012090    0.00018947   -0.00024688
     atom   37 type  1   force =     0.00018320   -0.00001661    0.00002515
     atom   38 type  1   force =     0.00031729    0.00019732    0.00007759
     atom   39 type  2   force =    -0.00025215    0.00005114   -0.00009928
     atom   40 type  2   force =    -0.00009059   -0.00015727   -0.00001564
     atom   41 type  2   force =     0.00007520    0.00023916    0.00017001
     atom   42 type  2   force =    -0.00031327    0.00003396    0.00018478
     atom   43 type  1   force =     0.00045799   -0.00004188    0.00000612
     atom   44 type  1   force =     0.00009280   -0.00007612   -0.00075092
     atom   45 type  2   force =     0.00004273   -0.00008892    0.10397608
     atom   46 type  2   force =    -0.07030541   -0.00010384   -0.02684267
     atom   47 type  2   force =     0.07018082    0.00031253   -0.02687879
     atom   48 type  3   force =    -0.00072102   -0.02431135   -0.00453284
     atom   49 type  3   force =    -0.00043363    0.00587680   -0.00064205
     atom   50 type  4   force =     0.00173399    0.00590236    0.00006394
     atom   51 type  5   force =     0.00178605   -0.00065468    0.00027215
     atom   52 type  5   force =    -0.00057449    0.00005650   -0.00004038
     atom   53 type  5   force =     0.00016849    0.01275279    0.00475130
     atom   54 type  5   force =    -0.00119235    0.00225553   -0.00072608
     atom   55 type  5   force =    -0.00044951   -0.00073395    0.00006240

     Total force =     0.367638     Total SCF correction =     0.000733
  @ DRIVER MODE: Message from server: STATUS
  @ DRIVER MODE: Message from server: GETFORCE
  @ DRIVER MODE: Returning v,forces,stress,ensemble

     Writing output data file ./calc.save/
  @ DRIVER MODE: Message from server: EXIT
  @ DRIVE MODE: Exiting

     General routines

     Parallel routines

   This run was terminated on:  19:18:33  10Sep2021

   JOB DONE.