     Program PWSCF v.6.7GPU starts on 23Sep2021 at  3:20:35

     R & G space division:  proc/nbgrp/npool/nimage =      10
     Reading input from /storage/home/hcoda1/3/ntian30/research/carbon/CxH_vib/H2O_calc/ads_slab/CHNHNHHO_b/out_0034/pw.inp
Warning: card &CELL ignored
Warning: card   CELL_DYNAMICS='IPI', ignored
Warning: card / ignored

     Current dimensions of program PWSCF are:
     Max number of different atomic species (ntypx) = 10
     Max number of k-points (npk) =  40000
     Max angular momentum in pseudopotentials (lmaxx) =  3
     Presently no symmetry can be used with electric field

     Message from routine cell_base_init:
     DEPRECATED: use true lattice parameter, not A to a.u. conversion factor

     IMPORTANT: XC functional enforced from input :
     Exchange-correlation= BEEF-VDW
                           (   1   4  43  14   2   0   0)
     Any further DFT definition will be discarded
     Please, verify this is what you really want

  @ DRIVER MODE: Connecting to
 qe_1139763_2937316.sched-torque.pace.gatech.edu8rbl5qdw_scratch
  using UNIX socket
  @ DRIVER MODE: Message from server: STATUS
  @ DRIVER MODE: Message from server: INIT
  @ DRIVER MODE: Receiving replica           0          -1
  @ DRIVER MODE: Receiving encoded integer          25
  @ DRIVER MODE:  SCF:  T  FORCE:  T  STRESS:  F  VC:  F  ENSEMBLE:  F
  @ DRIVER MODE:  SCF:  T  FORCE:  T  STRESS:  F  VC:  F  ENSEMBLE:  F

     Using Slab Decomposition

     bravais-lattice index     =            0
     lattice parameter (alat)  =       1.8897  a.u.
     unit-cell volume          =    6658.9804 (a.u.)^3
     number of atoms/cell      =           55
     number of atomic types    =            5
     number of electrons       =       402.00
     number of Kohn-Sham states=          211
     kinetic-energy cutoff     =      29.3995  Ry
     charge density cutoff     =     293.9946  Ry
     scf convergence threshold =      7.3E-08
     mixing beta               =       0.0500
     number of iterations used =            8  plain     mixing
     Exchange-correlation= BEEF-VDW
                           (   1   4  43  14   2   0   0)

     celldm(1)=   1.889726  celldm(2)=   0.000000  celldm(3)=   0.000000
     celldm(4)=   0.000000  celldm(5)=   0.000000  celldm(6)=   0.000000

     crystal axes: (cart. coord. in units of alat)
               a(1) = (   6.579727   0.000000   0.000000 )
               a(2) = (  -0.000775   5.961596   0.000000 )
               a(3) = (   0.000000   0.000000  25.155947 )

     reciprocal axes: (cart. coord. in units 2 pi/alat)
               b(1) = (  0.151982  0.000020  0.000000 )
               b(2) = (  0.000000  0.167740  0.000000 )
               b(3) = (  0.000000  0.000000  0.039752 )

     PseudoPot. # 1 for Ti read from file:
     /storage/coda1/p-amedford6/0/shared/rich_project_chbe-medford/medford-share/data/pseudos_module/espresso/nninc/pbe/van/Ti.UPF
     MD5 check sum: 8e4df49b7f0d34bbd5052bf3f5ea0213
     Pseudo is Ultrasoft, Zval = 12.0
     Generated by new atomic code, or converted to UPF format
     Using radial grid of  851 points,  6 beta functions with:
                l(1) =   0
                l(2) =   0
                l(3) =   1
                l(4) =   1
                l(5) =   2
                l(6) =   2
     Q(r) pseudized with  8 coefficients,  rinner =    1.000   1.000   1.000
                                                       1.000   1.000

     PseudoPot. # 2 for O  read from file:
     /storage/coda1/p-amedford6/0/shared/rich_project_chbe-medford/medford-share/data/pseudos_module/espresso/nninc/pbe/van/O.UPF
     MD5 check sum: 78c19812648e8988a0fe644b0f25305e
     Pseudo is Ultrasoft, Zval =  6.0
     Generated by new atomic code, or converted to UPF format
     Using radial grid of  737 points,  4 beta functions with:
                l(1) =   0
                l(2) =   0
                l(3) =   1
                l(4) =   1
     Q(r) pseudized with  8 coefficients,  rinner =    0.800   0.800   0.800

     PseudoPot. # 3 for N  read from file:
     /storage/coda1/p-amedford6/0/shared/rich_project_chbe-medford/medford-share/data/pseudos_module/espresso/nninc/pbe/van/N.UPF
     MD5 check sum: 90d10febe142ad51ac9d5be1deb811c4
     Pseudo is Ultrasoft, Zval =  5.0
     Generated by new atomic code, or converted to UPF format
     Using radial grid of  729 points,  4 beta functions with:
                l(1) =   0
                l(2) =   0
                l(3) =   1
                l(4) =   1
     Q(r) pseudized with  8 coefficients,  rinner =    0.800   0.800   0.800

     PseudoPot. # 4 for C  read from file:
     /storage/coda1/p-amedford6/0/shared/rich_project_chbe-medford/medford-share/data/pseudos_module/espresso/nninc/pbe/van/C.UPF
     MD5 check sum: 1a69bf6b8db32088f5b2163dbdb77a27
     Pseudo is Ultrasoft, Zval =  4.0
     Generated by new atomic code, or converted to UPF format
     Using radial grid of  721 points,  4 beta functions with:
                l(1) =   0
                l(2) =   0
                l(3) =   1
                l(4) =   1
     Q(r) pseudized with  8 coefficients,  rinner =    0.800   0.800   0.800

     PseudoPot. # 5 for H  read from file:
     /storage/coda1/p-amedford6/0/shared/rich_project_chbe-medford/medford-share/data/pseudos_module/espresso/nninc/pbe/van/H.UPF
     MD5 check sum: b5ee9d7bfd3a09ee7748110bda690ff7
     Pseudo is Ultrasoft, Zval =  1.0
     Generated by new atomic code, or converted to UPF format
     Using radial grid of  615 points,  1 beta functions with:
                l(1) =   0
     Q(r) pseudized with  8 coefficients,  rinner =    0.800

     atomic species   valence    mass     pseudopotential
        Ti1           12.00    47.86700     Ti( 1.00)
        O1             6.00    15.99900     O ( 1.00)
        N1             5.00    14.00700     N ( 1.00)
        C1             4.00    12.01100     C ( 1.00)
        H1             1.00     1.00800     H ( 1.00)

     No symmetry found

   Cartesian axes

     site n.     atom                  positions (alat units)
         1           Ti1 tau(   1) = (   0.0004258   2.9801865   6.0000000  )
         2           Ti1 tau(   2) = (   3.2906075   1.4906267   6.0002472  )
         3           O1  tau(   3) = (   0.0006271   0.0005054   7.9858123  )
         4           O1  tau(   4) = (   3.2906025   0.0005020   7.3038282  )
         5           O1  tau(   5) = (   4.5942328   1.4918067   9.2879030  )
         6           O1  tau(   6) = (   1.9868534   1.4903216   9.2879459  )
         7           Ti1 tau(   7) = (   3.2907910   2.8959150   9.1758416  )
         8           Ti1 tau(   8) = (   0.0015273   1.4827037   9.2680791  )
         9           O1  tau(   9) = (   3.2644249   0.0086278  11.2869930  )
        10           O1  tau(  10) = (   0.0116148   5.9584955  10.6183126  )
        11           O1  tau(  11) = (   1.2700591   1.4733127  12.6309263  )
        12           O1  tau(  12) = (   5.2751843   1.4954020  12.5848179  )
        13           Ti1 tau(  13) = (   6.5455424   3.1153876  12.7101385  )
        14           Ti1 tau(  14) = (   3.2833704   1.6184148  12.4736748  )
        15           O1  tau(  15) = (   6.4599305   0.0050319  14.6091115  )
        16           O1  tau(  16) = (   3.3300269   5.9263713  13.9180617  )
        17           O1  tau(  17) = (   4.5165145   1.5716339  16.0125648  )
        18           O1  tau(  18) = (   1.9127028   1.4417528  15.8564018  )
        19           Ti1 tau(  19) = (   3.2288969   3.0847727  15.7886749  )
        20           Ti1 tau(  20) = (   6.4478006   1.4606891  15.8161894  )
        21           O1  tau(  21) = (   3.2904802   0.0005063   4.7018136  )
        22           O1  tau(  22) = (   6.4882405   0.0114324  17.1415363  )
        23           O1  tau(  23) = (   1.3043587   1.4918075   6.0039043  )
        24           O1  tau(  24) = (   5.2767064   1.4903225   6.0039473  )
        25           Ti1 tau(  25) = (   0.0000382   5.9609847   6.0000000  )
        26           Ti1 tau(  26) = (   3.2902200   4.4714249   6.0002472  )
        27           O1  tau(  27) = (   0.0002396   2.9813036   7.9858123  )
        28           O1  tau(  28) = (   3.2902150   2.9813002   7.3038282  )
        29           O1  tau(  29) = (   4.5938453   4.4726049   9.2879030  )
        30           O1  tau(  30) = (   1.9864658   4.4711199   9.2879459  )
        31           Ti1 tau(  31) = (   3.2891106   5.8743827   9.1763621  )
        32           Ti1 tau(  32) = (   0.0006254   4.4649316   9.2693709  )
        33           O1  tau(  33) = (   3.2692249   2.9538419  11.2423542  )
        34           O1  tau(  34) = (   0.0092240   2.9805883  10.6323155  )
        35           O1  tau(  35) = (   1.2565178   4.4877289  12.6449601  )
        36           O1  tau(  36) = (   5.2732762   4.4628510  12.5929129  )
        37           Ti1 tau(  37) = (   6.5734634   0.1294159  12.5697125  )
        38           Ti1 tau(  38) = (   3.2704022   4.6437612  12.6513646  )
        39           O1  tau(  39) = (   6.5063912   2.9643141  14.6466205  )
        40           O1  tau(  40) = (   3.2471416   2.9787476  13.8564769  )
        41           O1  tau(  41) = (   4.5405411   4.3625105  16.0593999  )
        42           O1  tau(  42) = (   1.9254132   4.5167653  15.8604027  )
        43           Ti1 tau(  43) = (   3.1528194   0.1083906  16.0566338  )
        44           Ti1 tau(  44) = (   6.5270785   4.6226534  15.9816197  )
        45           O1  tau(  45) = (   3.2900926   2.9813045   4.7018136  )
        46           O1  tau(  46) = (   1.3039711   4.4726057   6.0039043  )
        47           O1  tau(  47) = (   5.2763189   4.4711207   6.0039473  )
        48           N1  tau(  48) = (   1.2829970   2.9130689  18.3045482  )
        49           N1  tau(  49) = (   0.1654257   2.9641015  17.4510142  )
        50           C1  tau(  50) = (   2.5260228   2.9473648  17.9488278  )
        51           H1  tau(  51) = (   3.1619500   2.8785295  18.8336233  )
        52           H1  tau(  52) = (   1.0209804   2.8219014  19.2831343  )
        53           H1  tau(  53) = (   5.9303595   2.9348499  18.0583253  )
        54           O1  tau(  54) = (   3.2854906   0.0173217  17.9285145  )
        55           H1  tau(  55) = (   4.1908827   5.7946650  18.2246816  )

     number of k points=    10  Fermi-Dirac smearing, width (Ry)=  0.0073
                       cart. coord. in units 2pi/alat
        k(    1) = (   0.0000000   0.0000000   0.0000000), wk =   0.1250000
        k(    2) = (   0.0000000   0.0419351   0.0000000), wk =   0.2500000
        k(    3) = (   0.0000000  -0.0838702   0.0000000), wk =   0.1250000
        k(    4) = (   0.0379955   0.0000049   0.0000000), wk =   0.2500000
        k(    5) = (   0.0379955   0.0419400   0.0000000), wk =   0.2500000
        k(    6) = (   0.0379955  -0.0838652   0.0000000), wk =   0.2500000
        k(    7) = (   0.0379955  -0.0419301   0.0000000), wk =   0.2500000
        k(    8) = (  -0.0759910  -0.0000099   0.0000000), wk =   0.1250000
        k(    9) = (  -0.0759910   0.0419252   0.0000000), wk =   0.2500000
        k(   10) = (  -0.0759910  -0.0838800   0.0000000), wk =   0.1250000

     Initial potential from superposition of free atoms

     starting charge  385.99915, renormalised to  402.00000

     negative rho (up, down):  1.797E-02 0.000E+00

     %%%%%%%%%%%%%%%%%%%%%%%%%%%%%%%%%%%%%%%%%%%%%%%%%%%%%%%%%%%%%%%%%%%%%%%%
     %                                                                      %
     % You are using vdW-DF, which was implemented by the Thonhauser group. %
     % Please cite the following two papers that made this development      %
     % possible and the two reviews that describe the various versions:     %
     %                                                                      %
     %   T. Thonhauser et al., PRL 115, 136402 (2015).                      %
     %   T. Thonhauser et al., PRB 76, 125112 (2007).                       %
     %   K. Berland et al., Rep. Prog. Phys. 78, 066501 (2015).             %
     %   D.C. Langreth et al., J. Phys.: Condens. Matter 21, 084203 (2009). %
     %                                                                      %
     %                                                                      %
     % If you are calculating the stress with vdW-DF, please also cite:     %
     %                                                                      %
     %   R. Sabatini et al., J. Phys.: Condens. Matter 24, 424209 (2012).   %
     %                                                                      %
     %%%%%%%%%%%%%%%%%%%%%%%%%%%%%%%%%%%%%%%%%%%%%%%%%%%%%%%%%%%%%%%%%%%%%%%%

     Adding external electric field

     Computed dipole along edir(3) :
        Dipole              -10.6951 Ry au,        -27.1842 Debye
        Dipole field         -0.0202 Ry au,

        Potential amp.        1.8709 Ry
        Total length         46.3494 bohr

     Starting wfcs are  304 atomic wfcs
  @ DRIVER MODE: Message from server: STATUS
  @ DRIVER MODE: Message from server: POSDATA
  @ DRIVER MODE: Reading and sharing cell
  @ DRIVER MODE: Reading and sharing positions
  @ DRIVER MODE: Received positions

     Self-consistent Calculation

     iteration #  1     ecut=    29.40 Ry     beta= 0.05
     Davidson diagonalization with overlap
     c_bands:  2 eigenvalues not converged
     c_bands:  4 eigenvalues not converged
     c_bands:  4 eigenvalues not converged
     c_bands:  3 eigenvalues not converged
     c_bands:  3 eigenvalues not converged
     c_bands:  3 eigenvalues not converged
     c_bands:  2 eigenvalues not converged
     c_bands:  4 eigenvalues not converged
     c_bands:  4 eigenvalues not converged
     ethr =  1.00E-05,  avg # of iterations = 21.8

[...]

     total energy              =   -2415.33296806 Ry
     estimated scf accuracy    <    6216.19191483 Ry

     iteration #  2     ecut=    29.40 Ry     beta= 0.05
     Davidson diagonalization with overlap
     ethr =  1.00E-02,  avg # of iterations = 24.6

[...]

     iteration # 33     ecut=    29.40 Ry     beta= 0.05
     Davidson diagonalization with overlap
     c_bands:  1 eigenvalues not converged
     ethr =  2.52E-07,  avg # of iterations =  4.2

[...]

     total energy              =   -2972.68739666 Ry
     estimated scf accuracy    <       0.00000010 Ry

     iteration # 55     ecut=    29.40 Ry     beta= 0.05
     Davidson diagonalization with overlap
     ethr =  2.60E-11,  avg # of iterations =  5.0

     negative rho (up, down):  1.823E-02 0.000E+00

     Adding external electric field

     Computed dipole along edir(3) :
        Dipole                0.6945 Ry au,          1.7653 Debye
        Dipole field          0.0013 Ry au,

        Potential amp.       -0.1215 Ry
        Total length         46.3494 bohr

     End of self-consistent calculation

          k = 0.0000 0.0000 0.0000 ( 18029 PWs)   bands (ev):

   -56.6068 -56.5733 -55.7184 -55.6847 -55.4150 -55.3711 -55.1433 -55.1095
   -54.9719 -54.9633 -54.9324 -54.8932 -54.8133 -54.7846 -54.7814 -54.7095
   -33.0250 -32.8792 -32.8511 -32.7850 -32.6948 -32.6521 -32.2070 -31.9409
   -31.9031 -31.9015 -31.8652 -31.8538 -31.8287 -31.6440 -31.6346 -31.6071
   -31.5722 -31.5276 -31.5147 -31.4917 -31.4671 -31.4671 -31.4488 -31.3788
   -31.3459 -31.2876 -31.2754 -31.2667 -31.2325 -31.2286 -31.1776 -31.1647
   -31.1550 -31.1131 -31.1081 -31.0946 -31.0687 -31.0621 -31.0606 -31.0232
   -31.0086 -31.0050 -30.9971 -30.9856 -30.9428 -30.9212 -30.9169 -30.9024
   -18.0647 -16.7070 -16.1532 -15.9194 -15.7967 -15.7788 -15.7696 -15.7533
   -15.5609 -15.5103 -15.4074 -15.3294 -15.3061 -15.0728 -15.0477 -14.9755
   -14.8437 -14.8088 -14.7250 -14.6991 -14.6895 -14.6091 -14.5944 -14.5090
   -14.4588 -14.4415 -14.3539 -14.2457 -14.1920 -14.0807 -14.0360 -13.6409
   -13.5344 -12.9627  -8.2628  -6.7747  -4.2809  -3.8379  -3.6185  -3.4606
    -3.2997  -3.2661  -3.1177  -3.0888  -3.0418  -3.0118  -2.9532  -2.9371
    -2.8644  -2.8445  -2.7429  -2.7074  -2.6586  -2.6397  -2.4091  -2.3511
    -2.3147  -2.3130  -2.2089  -2.1335  -2.1109  -2.1061  -2.0370  -1.9669
    -1.9088  -1.8631  -1.8453  -1.8243  -1.8002  -1.7009  -1.6154  -1.6032
    -1.5970  -1.5535  -1.4413  -1.4147  -1.3927  -1.3310  -1.2669  -1.2027
    -1.1739  -1.1513  -1.0522  -1.0415  -0.9386  -0.9108  -0.8754  -0.8202
    -0.7415  -0.7151  -0.5954  -0.5847  -0.4773  -0.4703  -0.4431  -0.4373
    -0.3375  -0.2574  -0.2035  -0.1517  -0.1271  -0.1061  -0.0473  -0.0406
    -0.0037   0.0318   0.1082   0.2004   0.2631   0.2985   0.3413   0.4961
     0.5379   0.5680   0.5821   0.6705   0.7143   0.7362   0.7694   0.8472
     0.8747   0.8777   0.9765   1.0145   1.0546   1.0785   1.1377   1.1745
     1.2030   1.3803   1.4124   1.4332   1.4544   1.5300   1.7653   1.7978
     1.9343   2.6879   2.8612   3.1307   3.2871   3.6533   3.6735   3.6920
     3.6931   3.9713   4.1415

[...]

          k = 0.0380-0.0419 0.0000 ( 17876 PWs)   bands (ev):

[...]

          k =-0.0760-0.0000 0.0000 ( 17886 PWs)   bands (ev):

[...]

          k =-0.0760-0.0839 0.0000 ( 17948 PWs)   bands (ev):

   -56.5902 -56.5897 -55.7032 -55.6997 -55.4069 -55.3791 -55.1264 -55.1263
   -54.9700 -54.9589 -54.9307 -54.8975 -54.8106 -54.7855 -54.7836 -54.7122
   -32.8651 -32.8647 -32.8428 -32.8418 -32.7385 -32.7385 -32.0297 -32.0256
   -31.9005 -31.8927 -31.8770 -31.8761 -31.7198 -31.6983 -31.6318 -31.6238
   -31.6056 -31.6005 -31.4802 -31.4802 -31.3854 -31.3455 -31.3451 -31.3069
   -31.3064 -31.2913 -31.2705 -31.2457 -31.2225 -31.2080 -31.1952 -31.1891
   -31.1725 -31.1467 -31.1443 -31.1328 -31.1184 -31.0999 -31.0785 -31.0618
   -31.0497 -31.0402 -31.0253 -31.0148 -31.0084 -30.9613 -30.9219 -30.9099
   -18.0596 -16.0717 -16.0687 -16.0170 -16.0163 -15.7691 -15.7617 -15.7020
   -15.4588 -15.4535 -15.2658 -15.1530 -15.1309 -15.0728 -15.0689 -14.9366
   -14.9166 -14.8986 -14.8106 -14.7601 -14.7273 -14.7055 -14.6417 -14.5721
   -14.4614 -14.4434 -14.4294 -14.3937 -14.3382 -14.2439 -14.2063 -13.6393
   -13.6384 -12.9834  -8.2546  -6.6938  -3.9899  -3.2943  -3.1353  -3.1343
    -3.1336  -3.1123  -2.9097  -2.8936  -2.8847  -2.7143  -2.6209  -2.6153
    -2.6113  -2.4742  -2.4421  -2.4295  -2.4169  -2.3993  -2.3277  -2.3133
    -2.3093  -2.2743  -2.2515  -2.0974  -2.0892  -2.0401  -1.9717  -1.9625
    -1.9401  -1.9062  -1.8414  -1.8039  -1.7988  -1.7816  -1.7640  -1.7437
    -1.6987  -1.6478  -1.4474  -1.4000  -1.3834  -1.3636  -1.3188  -1.3100
    -1.2907  -1.2326  -1.1951  -1.1857  -1.1608  -1.1332  -1.0604  -1.0407
    -0.9951  -0.8627  -0.8145  -0.7866  -0.7508  -0.6579  -0.6181  -0.5894
    -0.5566  -0.4696  -0.4128  -0.3794  -0.3020  -0.2641  -0.2188  -0.1935
    -0.1699  -0.1245  -0.1047   0.0028   0.0583   0.0901   0.1132   0.1984
     0.3279   0.3439   0.3979   0.4464   0.5390   0.5777   0.6555   0.6978
     0.7804   0.8583   0.9291   1.0795   1.1152   1.1708   1.2375   1.2545
     1.2562   1.2851   1.2961   1.3397   1.3612   1.4452   1.5203   1.6801
     1.6992   3.2828   3.2842   3.3419   3.3454   3.6506   3.6568   3.7596
     3.7667   4.0777   4.1279

     the Fermi energy is     2.3648 ev

!    total energy              =   -2972.68747686 Ry
     estimated scf accuracy    <       0.00000004 Ry
     smearing contrib. (-TS)   =      -0.00151961 Ry
     internal energy E=F+TS    =   -2972.68595726 Ry

     The total energy is F=E-TS. E is the sum of the following terms:
     one-electron contribution =  -24519.59706718 Ry
     hartree contribution      =   12356.09977685 Ry
     xc contribution           =    -493.19249349 Ry
     ewald contribution        =    9684.00291629 Ry
     electric field correction =       0.00091028 Ry

     convergence has been achieved in  55 iterations

     Forces acting on atoms (cartesian axes, Ry/au):

     atom    1 type  1   force =     0.00015385   -0.00061383    0.12522376
     atom    2 type  1   force =     0.00002804    0.00003008   -0.15412982
     atom    3 type  2   force =    -0.00003087   -0.00028145   -0.06549543
     atom    4 type  2   force =    -0.00011609    0.00074281    0.01449226
     atom    5 type  2   force =     0.00022968   -0.00325441   -0.01521335
     atom    6 type  2   force =     0.00028129   -0.00241889   -0.01817478
     atom    7 type  1   force =    -0.00129964   -0.00081284    0.06316873
     atom    8 type  1   force =     0.00165287    0.01846864    0.09182196
     atom    9 type  2   force =     0.00018198   -0.00020473   -0.00008063
     atom   10 type  2   force =    -0.00307858    0.00126334   -0.06786289
     atom   11 type  2   force =    -0.00036075   -0.00020440   -0.00022423
     atom   12 type  2   force =    -0.00028315    0.00043087    0.00015169
     atom   13 type  1   force =     0.00101962    0.00024180   -0.00005019
     atom   14 type  1   force =    -0.00051691    0.00060631   -0.00059094
     atom   15 type  2   force =    -0.00004344    0.00069017    0.00014257
     atom   16 type  2   force =     0.00008019    0.00018415   -0.00019415
     atom   17 type  2   force =    -0.00032705    0.00017994   -0.00019417
     atom   18 type  2   force =     0.00080303   -0.00059809    0.00007416
     atom   19 type  1   force =    -0.00037647   -0.00036342   -0.00018665
     atom   20 type  1   force =     0.00050455   -0.00034974    0.00001299
     atom   21 type  2   force =     0.00008059    0.00005007    0.09749316
     atom   22 type  2   force =    -0.00021716    0.00008436    0.00041677
     atom   23 type  2   force =    -0.08328251    0.00001071   -0.03312602
     atom   24 type  2   force =     0.08319327    0.00045596   -0.03314939
     atom   25 type  1   force =     0.00014918   -0.00036398    0.12544078
     atom   26 type  1   force =    -0.00001902   -0.00122750   -0.15381644
     atom   27 type  2   force =    -0.00002312   -0.00014746   -0.06358222
     atom   28 type  2   force =     0.00000083    0.00071103    0.01024732
     atom   29 type  2   force =    -0.00228527    0.00251319   -0.01350506
     atom   30 type  2   force =     0.00267143    0.00282890   -0.01638515
     atom   31 type  1   force =    -0.00126567   -0.00142631    0.06109670
     atom   32 type  1   force =     0.00157983   -0.01943381    0.09387172
     atom   33 type  2   force =     0.00026186    0.00000561   -0.00020143
     atom   34 type  2   force =    -0.00076248    0.00124572   -0.07929054
     atom   35 type  2   force =     0.00028788   -0.00003187    0.00008698
     atom   36 type  2   force =    -0.00053304    0.00016006    0.00040251
     atom   37 type  1   force =     0.00094719    0.00011589    0.00034268
     atom   38 type  1   force =    -0.00055894   -0.00028179   -0.00006759
     atom   39 type  2   force =     0.00033675    0.00012184   -0.00004814
     atom   40 type  2   force =    -0.00015274    0.00011834    0.00043993
     atom   41 type  2   force =    -0.00020498   -0.00006399   -0.00033916
     atom   42 type  2   force =     0.00058399   -0.00023045    0.00024488
     atom   43 type  1   force =    -0.00099618   -0.00038931   -0.00051358
     atom   44 type  1   force =     0.00047077    0.00092040   -0.00036390
     atom   45 type  2   force =     0.00007330    0.00006203    0.09734632
     atom   46 type  2   force =    -0.08322307   -0.00003667   -0.03311180
     atom   47 type  2   force =     0.08317057    0.00037873   -0.03311790
     atom   48 type  3   force =     0.00026874    0.00009131    0.00022920
     atom   49 type  3   force =     0.00093246    0.00031499   -0.00001936
     atom   50 type  4   force =     0.00037551   -0.00028649    0.00003527
     atom   51 type  5   force =    -0.00022033   -0.00029587   -0.00033444
     atom   52 type  5   force =     0.00016701   -0.00016624   -0.00057216
     atom   53 type  5   force =    -0.00066461   -0.00080363    0.00069225
     atom   54 type  2   force =     0.00009177    0.00043219    0.00058753
     atom   55 type  5   force =     0.00026404    0.00082772   -0.00012058

     Total force =     0.419795     Total SCF correction =     0.000781
  @ DRIVER MODE: Message from server: STATUS
  @ DRIVER MODE: Message from server: GETFORCE
  @ DRIVER MODE: Returning v,forces,stress,ensemble

     Writing output data file ./calc.save/
  @ DRIVER MODE: Message from server: EXIT
  @ DRIVE MODE: Exiting

     General routines

     Parallel routines

   This run was terminated on:   3:36:17  23Sep2021

   JOB DONE.