     Program PWSCF v.6.7GPU starts on 24Sep2021 at 11:58:44

     R & G space division:  proc/nbgrp/npool/nimage =       8
     Reading input from /storage/home/hcoda1/3/ntian30/research/carbon/CxH_vib/H2O_calc/ads_slab/CH2NHNH2HO_a/out_0055/pw.inp
Warning: card &CELL ignored
Warning: card   CELL_DYNAMICS='IPI', ignored
Warning: card / ignored

     Current dimensions of program PWSCF are:
     Max number of different atomic species (ntypx) = 10
     Max number of k-points (npk) =  40000
     Max angular momentum in pseudopotentials (lmaxx) =  3
     Presently no symmetry can be used with electric field

     Message from routine cell_base_init:
     DEPRECATED: use true lattice parameter, not A to a.u. conversion factor

     IMPORTANT: XC functional enforced from input :
     Exchange-correlation= BEEF-VDW
                           (   1   4  43  14   2   0   0)
     Any further DFT definition will be discarded
     Please, verify this is what you really want

  @ DRIVER MODE: Connecting to
 qe_1139763_2947313.sched-torque.pace.gatech.edumo6dd0e1_scratch
  using UNIX socket
  @ DRIVER MODE: Message from server: STATUS
  @ DRIVER MODE: Message from server: INIT
  @ DRIVER MODE: Receiving replica           0          -1
  @ DRIVER MODE: Receiving encoded integer          25
  @ DRIVER MODE:  SCF:  T  FORCE:  T  STRESS:  F  VC:  F  ENSEMBLE:  F
  @ DRIVER MODE:  SCF:  T  FORCE:  T  STRESS:  F  VC:  F  ENSEMBLE:  F

     Using Slab Decomposition

     bravais-lattice index     =            0
     lattice parameter (alat)  =       1.8897  a.u.
     unit-cell volume          =    6658.9804 (a.u.)^3
     number of atoms/cell      =           57
     number of atomic types    =            5
     number of electrons       =       404.00
     number of Kohn-Sham states=          212
     kinetic-energy cutoff     =      29.3995  Ry
     charge density cutoff     =     293.9946  Ry
     scf convergence threshold =      7.3E-08
     mixing beta               =       0.0500
     number of iterations used =            8  plain     mixing
     Exchange-correlation= BEEF-VDW
                           (   1   4  43  14   2   0   0)

     celldm(1)=   1.889726  celldm(2)=   0.000000  celldm(3)=   0.000000
     celldm(4)=   0.000000  celldm(5)=   0.000000  celldm(6)=   0.000000

     crystal axes: (cart. coord. in units of alat)
               a(1) = (   6.579727   0.000000   0.000000 )
               a(2) = (  -0.000775   5.961596   0.000000 )
               a(3) = (   0.000000   0.000000  25.155947 )

     reciprocal axes: (cart. coord. in units 2 pi/alat)
               b(1) = (  0.151982  0.000020  0.000000 )
               b(2) = (  0.000000  0.167740  0.000000 )
               b(3) = (  0.000000  0.000000  0.039752 )

     PseudoPot. # 1 for Ti read from file:
     /storage/coda1/p-amedford6/0/shared/rich_project_chbe-medford/medford-share/data/pseudos_module/espresso/nninc/pbe/van/Ti.UPF
     MD5 check sum: 8e4df49b7f0d34bbd5052bf3f5ea0213
     Pseudo is Ultrasoft, Zval = 12.0
     Generated by new atomic code, or converted to UPF format
     Using radial grid of  851 points,  6 beta functions with:
                l(1) =   0
                l(2) =   0
                l(3) =   1
                l(4) =   1
                l(5) =   2
                l(6) =   2
     Q(r) pseudized with  8 coefficients,  rinner =    1.000   1.000   1.000
                                                       1.000   1.000

     PseudoPot. # 2 for O  read from file:
     /storage/coda1/p-amedford6/0/shared/rich_project_chbe-medford/medford-share/data/pseudos_module/espresso/nninc/pbe/van/O.UPF
     MD5 check sum: 78c19812648e8988a0fe644b0f25305e
     Pseudo is Ultrasoft, Zval =  6.0
     Generated by new atomic code, or converted to UPF format
     Using radial grid of  737 points,  4 beta functions with:
                l(1) =   0
                l(2) =   0
                l(3) =   1
                l(4) =   1
     Q(r) pseudized with  8 coefficients,  rinner =    0.800   0.800   0.800

     PseudoPot. # 3 for N  read from file:
     /storage/coda1/p-amedford6/0/shared/rich_project_chbe-medford/medford-share/data/pseudos_module/espresso/nninc/pbe/van/N.UPF
     MD5 check sum: 90d10febe142ad51ac9d5be1deb811c4
     Pseudo is Ultrasoft, Zval =  5.0
     Generated by new atomic code, or converted to UPF format
     Using radial grid of  729 points,  4 beta functions with:
                l(1) =   0
                l(2) =   0
                l(3) =   1
                l(4) =   1
     Q(r) pseudized with  8 coefficients,  rinner =    0.800   0.800   0.800

     PseudoPot. # 4 for C  read from file:
     /storage/coda1/p-amedford6/0/shared/rich_project_chbe-medford/medford-share/data/pseudos_module/espresso/nninc/pbe/van/C.UPF
     MD5 check sum: 1a69bf6b8db32088f5b2163dbdb77a27
     Pseudo is Ultrasoft, Zval =  4.0
     Generated by new atomic code, or converted to UPF format
     Using radial grid of  721 points,  4 beta functions with:
                l(1) =   0
                l(2) =   0
                l(3) =   1
                l(4) =   1
     Q(r) pseudized with  8 coefficients,  rinner =    0.800   0.800   0.800

     PseudoPot. # 5 for H  read from file:
     /storage/coda1/p-amedford6/0/shared/rich_project_chbe-medford/medford-share/data/pseudos_module/espresso/nninc/pbe/van/H.UPF
     MD5 check sum: b5ee9d7bfd3a09ee7748110bda690ff7
     Pseudo is Ultrasoft, Zval =  1.0
     Generated by new atomic code, or converted to UPF format
     Using radial grid of  615 points,  1 beta functions with:
                l(1) =   0
     Q(r) pseudized with  8 coefficients,  rinner =    0.800

     atomic species   valence    mass     pseudopotential
        Ti1           12.00    47.86700     Ti( 1.00)
        O1             6.00    15.99900     O ( 1.00)
        N1             5.00    14.00700     N ( 1.00)
        C1             4.00    12.01100     C ( 1.00)
        H1             1.00     1.00800     H ( 1.00)

     No symmetry found

   Cartesian axes

     site n.     atom                  positions (alat units)
         1           Ti1 tau(   1) = (   0.0004258   2.9801865   6.0000000  )
         2           Ti1 tau(   2) = (   3.2906075   1.4906267   6.0002472  )
         3           O1  tau(   3) = (   0.0006271   0.0005054   7.9858123  )
         4           O1  tau(   4) = (   3.2906025   0.0005020   7.3038282  )
         5           O1  tau(   5) = (   4.5942328   1.4918067   9.2879030  )
         6           O1  tau(   6) = (   1.9868534   1.4903216   9.2879459  )
         7           Ti1 tau(   7) = (   3.2907910   2.8959150   9.1758416  )
         8           Ti1 tau(   8) = (   0.0015273   1.4827037   9.2680791  )
         9           O1  tau(   9) = (   3.2769995   5.9424463  11.3879711  )
        10           O1  tau(  10) = (   0.0116148   5.9584955  10.6183126  )
        11           O1  tau(  11) = (   1.2559300   1.4809235  12.6914295  )
        12           O1  tau(  12) = (   5.2914439   1.4888754  12.6824943  )
        13           Ti1 tau(  13) = (   6.5693074   2.9549812  12.5071532  )
        14           Ti1 tau(  14) = (   3.2720578   1.2926143  12.7373905  )
        15           O1  tau(  15) = (   6.5263330   5.9075480  14.6758232  )
        16           O1  tau(  16) = (   3.2750150   0.0724425  14.0538047  )
        17           O1  tau(  17) = (   4.5404297   1.6145126  16.1214498  )
        18           O1  tau(  18) = (   1.9612862   1.5681812  16.1371236  )
        19           Ti1 tau(  19) = (   3.2615978   3.0295928  15.7214328  )
        20           Ti1 tau(  20) = (   6.4910920   1.3289874  15.8500745  )
        21           O1  tau(  21) = (   3.2904802   0.0005063   4.7018136  )
        22           O1  tau(  22) = (   6.5149858   0.1606772  17.2625446  )
        23           O1  tau(  23) = (   1.3043587   1.4918075   6.0039043  )
        24           O1  tau(  24) = (   5.2767064   1.4903225   6.0039473  )
        25           Ti1 tau(  25) = (   0.0000382   5.9609847   6.0000000  )
        26           Ti1 tau(  26) = (   3.2902200   4.4714249   6.0002472  )
        27           O1  tau(  27) = (   0.0002396   2.9813036   7.9858123  )
        28           O1  tau(  28) = (   3.2902150   2.9813002   7.3038282  )
        29           O1  tau(  29) = (   4.5938453   4.4726049   9.2879030  )
        30           O1  tau(  30) = (   1.9864658   4.4711199   9.2879459  )
        31           Ti1 tau(  31) = (   3.2891106   5.8743827   9.1763621  )
        32           Ti1 tau(  32) = (   0.0006254   4.4649316   9.2693709  )
        33           O1  tau(  33) = (   3.2749377   2.9871965  11.3337082  )
        34           O1  tau(  34) = (   0.0092240   2.9805883  10.6323155  )
        35           O1  tau(  35) = (   1.2597673   4.4587344  12.6634223  )
        36           O1  tau(  36) = (   5.2866262   4.4511231  12.6493885  )
        37           Ti1 tau(  37) = (   6.5604603   5.9292220  12.4937940  )
        38           Ti1 tau(  38) = (   3.2724722   4.3622713  12.4512132  )
        39           O1  tau(  39) = (   6.5737517   3.0258615  14.9025115  )
        40           O1  tau(  40) = (   3.2593133   3.0063273  13.9441864  )
        41           O1  tau(  41) = (   4.5441350   4.4310557  16.1689449  )
        42           O1  tau(  42) = (   1.9655774   4.4762250  16.2070539  )
        43           Ti1 tau(  43) = (   3.1776431   0.0563557  16.2565842  )
        44           Ti1 tau(  44) = (   6.5216753   4.5226504  15.9439936  )
        45           O1  tau(  45) = (   3.2900926   2.9813045   4.7018136  )
        46           O1  tau(  46) = (   1.3039711   4.4726057   6.0039043  )
        47           O1  tau(  47) = (   5.2763189   4.4711207   6.0039473  )
        48           N1  tau(  48) = (   0.8157702   2.5297039  18.7633901  )
        49           N1  tau(  49) = (   6.4302604   3.3580032  18.1334362  )
        50           C1  tau(  50) = (   1.9549655   3.0231469  19.2293773  )
        51           H1  tau(  51) = (   2.0901252   4.0892486  19.3254668  )
        52           H1  tau(  52) = (   2.7239663   2.3052050  19.4587972  )
        53           H1  tau(  53) = (   0.7490178   1.5515861  18.4517582  )
        54           H1  tau(  54) = (   6.4535031   4.2829477  18.5696568  )
        55           H1  tau(  55) = (   5.5068980   2.9516776  18.2836589  )
        56           O1  tau(  56) = (   3.3967406   0.0908776  18.1493316  )
        57           H1  tau(  57) = (   4.3353859   0.1513423  18.3540861  )

     number of k points=    10  Fermi-Dirac smearing, width (Ry)=  0.0073
                       cart. coord. in units 2pi/alat
        k(    1) = (   0.0000000   0.0000000   0.0000000), wk =   0.1250000
        k(    2) = (   0.0000000   0.0419351   0.0000000), wk =   0.2500000
        k(    3) = (   0.0000000  -0.0838702   0.0000000), wk =   0.1250000
        k(    4) = (   0.0379955   0.0000049   0.0000000), wk =   0.2500000
        k(    5) = (   0.0379955   0.0419400   0.0000000), wk =   0.2500000
        k(    6) = (   0.0379955  -0.0838652   0.0000000), wk =   0.2500000
        k(    7) = (   0.0379955  -0.0419301   0.0000000), wk =   0.2500000
        k(    8) = (  -0.0759910  -0.0000099   0.0000000), wk =   0.1250000
        k(    9) = (  -0.0759910   0.0419252   0.0000000), wk =   0.2500000
        k(   10) = (  -0.0759910  -0.0838800   0.0000000), wk =   0.1250000

     Initial potential from superposition of free atoms

     starting charge  387.99913, renormalised to  404.00000

     negative rho (up, down):  1.608E-02 0.000E+00

     %%%%%%%%%%%%%%%%%%%%%%%%%%%%%%%%%%%%%%%%%%%%%%%%%%%%%%%%%%%%%%%%%%%%%%%%
     %                                                                      %
     % You are using vdW-DF, which was implemented by the Thonhauser group. %
     % Please cite the following two papers that made this development      %
     % possible and the two reviews that describe the various versions:     %
     %                                                                      %
     %   T. Thonhauser et al., PRL 115, 136402 (2015).                      %
     %   T. Thonhauser et al., PRB 76, 125112 (2007).                       %
     %   K. Berland et al., Rep. Prog. Phys. 78, 066501 (2015).             %
     %   D.C. Langreth et al., J. Phys.: Condens. Matter 21, 084203 (2009). %
     %                                                                      %
     %                                                                      %
     % If you are calculating the stress with vdW-DF, please also cite:     %
     %                                                                      %
     %   R. Sabatini et al., J. Phys.: Condens. Matter 24, 424209 (2012).   %
     %                                                                      %
     %%%%%%%%%%%%%%%%%%%%%%%%%%%%%%%%%%%%%%%%%%%%%%%%%%%%%%%%%%%%%%%%%%%%%%%%

     Adding external electric field

     Computed dipole along edir(3) :
        Dipole              -13.8429 Ry au,        -35.1851 Debye
        Dipole field         -0.0261 Ry au,

        Potential amp.        2.4216 Ry
        Total length         46.3494 bohr

     Starting wfcs are  306 atomic wfcs
  @ DRIVER MODE: Message from server: STATUS
  @ DRIVER MODE: Message from server: POSDATA
  @ DRIVER MODE: Reading and sharing cell
  @ DRIVER MODE: Reading and sharing positions
  @ DRIVER MODE: Received positions

     Self-consistent Calculation

     iteration #  1     ecut=    29.40 Ry     beta= 0.05
     Davidson diagonalization with overlap
     c_bands:  1 eigenvalues not converged
     c_bands:  2 eigenvalues not converged
     c_bands:  1 eigenvalues not converged
     c_bands:  1 eigenvalues not converged
     c_bands:  1 eigenvalues not converged
     c_bands:  5 eigenvalues not converged
     c_bands:  3 eigenvalues not converged
     ethr =  1.00E-05,  avg # of iterations = 33.1

[...]

     total energy              =   -2231.90766222 Ry
     estimated scf accuracy    <    8425.67240386 Ry

     iteration #  2     ecut=    29.40 Ry     beta= 0.05
     Davidson diagonalization with overlap
     ethr =  1.00E-02,  avg # of iterations = 27.1

[...]

     iteration # 39     ecut=    29.40 Ry     beta= 0.05
     Davidson diagonalization with overlap
     c_bands:  1 eigenvalues not converged
     c_bands:  1 eigenvalues not converged
     c_bands:  1 eigenvalues not converged
     c_bands:  1 eigenvalues not converged
     c_bands:  2 eigenvalues not converged
     c_bands:  1 eigenvalues not converged
     c_bands:  1 eigenvalues not converged
     ethr =  6.84E-07,  avg # of iterations = 17.6

[...]

     total energy              =   -2975.14992895 Ry
     estimated scf accuracy    <       0.00000010 Ry

     iteration # 62     ecut=    29.40 Ry     beta= 0.05
     Davidson diagonalization with overlap
     ethr =  2.51E-11,  avg # of iterations =  5.4

     negative rho (up, down):  1.524E-02 0.000E+00

     Adding external electric field

     Computed dipole along edir(3) :
        Dipole                1.1791 Ry au,          2.9970 Debye
        Dipole field          0.0022 Ry au,

        Potential amp.       -0.2063 Ry
        Total length         46.3494 bohr

     End of self-consistent calculation

          k = 0.0000 0.0000 0.0000 ( 18029 PWs)   bands (ev):

   -55.4182 -55.3347 -55.3007 -55.2298 -55.1917 -55.1806 -55.1656 -55.1650
   -55.1500 -55.1304 -55.1021 -55.0308 -55.0222 -54.9965 -54.3291 -54.2950
   -31.8227 -31.7718 -31.7443 -31.7156 -31.6699 -31.6687 -31.6336 -31.6244
   -31.6222 -31.6085 -31.5800 -31.5420 -31.5046 -31.4876 -31.4716 -31.4641
   -31.4469 -31.4444 -31.4431 -31.4084 -31.3922 -31.3808 -31.3747 -31.3715
   -31.3666 -31.3605 -31.3572 -31.3349 -31.3297 -31.3266 -31.3262 -31.3028
   -31.2948 -31.2910 -31.2789 -31.2547 -31.2358 -31.2328 -31.2105 -31.2004
   -31.1964 -31.1937 -30.7361 -30.6472 -30.6249 -30.5534 -30.4668 -30.3552
   -19.3739 -16.3268 -16.0531 -15.8861 -15.6692 -15.6241 -15.5327 -15.3703
   -15.2581 -15.1878 -15.0782 -15.0032 -14.9293 -14.8948 -14.8857 -14.8722
   -14.8668 -14.8158 -14.8068 -14.7930 -14.7826 -14.7723 -14.7649 -14.7312
   -14.6971 -14.6488 -14.6099 -14.4937 -14.4552 -14.4187 -14.2935 -14.2755
   -12.8279 -12.7111 -10.1879  -7.8208  -6.5640  -5.3910  -4.1888  -3.8170
    -3.6803  -3.3927  -3.2842  -3.2527  -3.1892  -3.1577  -2.9031  -2.8035
    -2.7847  -2.6486  -2.5299  -2.4832  -2.4229  -2.3521  -2.3206  -2.2978
    -2.2723  -2.2160  -2.1527  -2.1385  -2.1247  -2.0483  -2.0439  -1.9686
    -1.9210  -1.9076  -1.8026  -1.7299  -1.6989  -1.6857  -1.6741  -1.6576
    -1.6327  -1.6257  -1.6023  -1.5400  -1.4744  -1.4653  -1.3998  -1.3736
    -1.1024  -1.0372  -0.9723  -0.9425  -0.8663  -0.8265  -0.8100  -0.7863
    -0.7432  -0.7403  -0.7183  -0.6583  -0.5600  -0.5052  -0.4746  -0.4554
    -0.4027  -0.2891  -0.2691  -0.1585  -0.1290  -0.1221  -0.0833  -0.0349
     0.0063   0.0455   0.1065   0.1775   0.2278   0.2785   0.3105   0.3369
     0.3773   0.4125   0.4728   0.5503   0.5743   0.6188   0.6486   0.6691
     0.6786   0.7352   0.7521   0.8399   0.9211   0.9322   1.0289   1.0616
     1.1131   1.2972   1.3341   1.6332   1.6795   1.6976   1.8860   2.2672
     2.3136   3.7324   3.8566   3.8867   3.8970   3.9358   3.9692   4.0248
     4.2196   4.2310   4.3435   4.4665

[...]

          k = 0.0380-0.0419 0.0000 ( 17876 PWs)   bands (ev):

[...]

          k =-0.0760-0.0000 0.0000 ( 17886 PWs)   bands (ev):

[...]

          k =-0.0760-0.0839 0.0000 ( 17948 PWs)   bands (ev):

   -55.4173 -55.3178 -55.3174 -55.2185 -55.2028 -55.1782 -55.1665 -55.1475
   -55.1471 -55.1437 -55.1090 -55.0243 -55.0195 -55.0077 -54.3124 -54.3115
   -31.6842 -31.6756 -31.6572 -31.6380 -31.6378 -31.6229 -31.6100 -31.6096
   -31.5686 -31.5374 -31.5217 -31.4968 -31.4874 -31.4792 -31.4672 -31.4548
   -31.4532 -31.4476 -31.4446 -31.4376 -31.4373 -31.4273 -31.4117 -31.4035
   -31.3997 -31.3818 -31.3682 -31.3678 -31.3616 -31.3592 -31.3536 -31.3441
   -31.3297 -31.3257 -31.3244 -31.3208 -31.2854 -31.2852 -31.2466 -31.2392
   -31.2146 -31.2061 -30.6379 -30.6372 -30.5494 -30.5482 -30.5105 -30.5098
   -19.3693 -16.3037 -15.7541 -15.4861 -15.3610 -15.3491 -15.2278 -15.2113
   -15.1490 -15.1408 -15.1113 -15.0985 -15.0876 -15.0434 -15.0149 -14.9313
   -14.9156 -14.8748 -14.8714 -14.8256 -14.8233 -14.8217 -14.8000 -14.7784
   -14.7723 -14.7473 -14.7218 -14.6844 -14.6710 -14.5338 -14.4385 -14.3989
   -12.8131 -12.8125 -10.1591  -7.7870  -6.5560  -5.4741  -4.1476  -3.8333
    -3.6437  -2.8415  -2.6988  -2.5974  -2.4873  -2.4553  -2.4066  -2.3575
    -2.3441  -2.3124  -2.2403  -2.2122  -2.1971  -2.1612  -2.1597  -2.1368
    -2.1271  -2.1073  -2.0790  -2.0592  -2.0494  -2.0428  -2.0159  -2.0004
    -1.9861  -1.9606  -1.9330  -1.9120  -1.8985  -1.8908  -1.8403  -1.7350
    -1.6462  -1.5674  -1.5311  -1.5054  -1.4925  -1.4464  -1.4331  -1.4212
    -1.3859  -1.3624  -1.2277  -1.2059  -1.0679  -1.0128  -0.9789  -0.9328
    -0.8792  -0.8703  -0.8533  -0.8138  -0.7752  -0.6413  -0.6102  -0.5762
    -0.5075  -0.4447  -0.3574  -0.3433  -0.3189  -0.3019  -0.2662  -0.2469
    -0.2328  -0.2029  -0.1734  -0.0954  -0.0613  -0.0491  -0.0307   0.0687
     0.1673   0.2076   0.2717   0.3417   0.3825   0.4067   0.4358   0.6216
     0.6513   0.7941   0.8033   0.8078   0.9527   0.9533   1.0008   1.0515
     1.0805   1.1227   1.1516   1.1664   1.2014   2.0563   2.0647   2.1338
     2.1340   3.7691   3.9340   4.1575   4.1800   4.2385   4.2499   4.2806
     4.3064   4.3356   4.3767   4.3966

     the Fermi energy is     3.7822 ev

!    total energy              =   -2975.14999259 Ry
     estimated scf accuracy    <       0.00000007 Ry
     smearing contrib. (-TS)   =      -0.03329565 Ry
     internal energy E=F+TS    =   -2975.11669694 Ry

     The total energy is F=E-TS. E is the sum of the following terms:
     one-electron contribution =  -23379.88670353 Ry
     hartree contribution      =   11787.19396498 Ry
     xc contribution           =    -494.91219227 Ry
     ewald contribution        =    9112.48561027 Ry
     electric field correction =       0.00262361 Ry

     convergence has been achieved in  62 iterations

     Forces acting on atoms (cartesian axes, Ry/au):

     atom    1 type  1   force =     0.00028702   -0.00019441    0.09348306
     atom    2 type  1   force =    -0.00004809    0.00053413   -0.17632249
     atom    3 type  2   force =     0.00004500   -0.00029741   -0.02068939
     atom    4 type  2   force =     0.00001649   -0.00222377    0.05686379
     atom    5 type  2   force =    -0.00785975   -0.00263241    0.00512920
     atom    6 type  2   force =     0.00893004   -0.00211602    0.00324553
     atom    7 type  1   force =    -0.00078354   -0.00332121    0.00577058
     atom    8 type  1   force =     0.00086693    0.00107600   -0.00172271
     atom    9 type  2   force =    -0.00018377    0.00014687    0.00005285
     atom   10 type  2   force =    -0.00341918    0.00105536   -0.00646314
     atom   11 type  2   force =     0.00019442   -0.00013097    0.00030145
     atom   12 type  2   force =    -0.00012587   -0.00022753    0.00002827
     atom   13 type  1   force =     0.00001244   -0.00004073   -0.00018166
     atom   14 type  1   force =     0.00052557   -0.00034872   -0.00027299
     atom   15 type  2   force =    -0.00003297   -0.00102434   -0.00049089
     atom   16 type  2   force =     0.00020917    0.00061787    0.00089957
     atom   17 type  2   force =    -0.00135883    0.00030980   -0.00032627
     atom   18 type  2   force =     0.00139305   -0.00000301   -0.00072596
     atom   19 type  1   force =     0.00003742    0.00058597   -0.00010748
     atom   20 type  1   force =     0.00056535    0.00003284   -0.00043075
     atom   21 type  2   force =     0.00011700    0.00004588    0.10362787
     atom   22 type  2   force =     0.00021367    0.00013120    0.00036785
     atom   23 type  2   force =    -0.07139053   -0.00017979   -0.02702231
     atom   24 type  2   force =     0.07138790    0.00027097   -0.02705568
     atom   25 type  1   force =     0.00007687   -0.00017645    0.09323954
     atom   26 type  1   force =     0.00008224   -0.00125949   -0.17653918
     atom   27 type  2   force =     0.00007734   -0.00015016   -0.01945949
     atom   28 type  2   force =     0.00002040   -0.00060128    0.05223371
     atom   29 type  2   force =    -0.00742970    0.00177075    0.00488964
     atom   30 type  2   force =     0.00836052    0.00235611    0.00298974
     atom   31 type  1   force =    -0.00098097    0.00886888   -0.00435778
     atom   32 type  1   force =     0.00094201   -0.00222831   -0.00239917
     atom   33 type  2   force =    -0.00022193   -0.00135830   -0.00065889
     atom   34 type  2   force =    -0.00214561   -0.00210085   -0.00766328
     atom   35 type  2   force =    -0.00001194    0.00016865    0.00026199
     atom   36 type  2   force =     0.00017659    0.00016092    0.00019879
     atom   37 type  1   force =     0.00004711   -0.00030380    0.00017587
     atom   38 type  1   force =     0.00034352    0.00045821    0.00020320
     atom   39 type  2   force =    -0.00000495    0.00076422   -0.00021215
     atom   40 type  2   force =     0.00021943   -0.00016603    0.00039187
     atom   41 type  2   force =    -0.00049924   -0.00008429    0.00024320
     atom   42 type  2   force =     0.00087066   -0.00023858    0.00004820
     atom   43 type  1   force =     0.00018650   -0.00066037   -0.00041394
     atom   44 type  1   force =     0.00010007    0.00103570    0.00031181
     atom   45 type  2   force =     0.00010133   -0.00008823    0.10338714
     atom   46 type  2   force =    -0.07143081   -0.00002944   -0.02706301
     atom   47 type  2   force =     0.07140894    0.00038717   -0.02709373
     atom   48 type  3   force =    -0.00083890   -0.00004940   -0.00006110
     atom   49 type  3   force =     0.00043526    0.00056147    0.00041456
     atom   50 type  4   force =     0.00045346    0.00038555    0.00006886
     atom   51 type  5   force =     0.00052135   -0.00093310   -0.00048101
     atom   52 type  5   force =    -0.00009755    0.00011888   -0.00009886
     atom   53 type  5   force =    -0.00015790    0.00044210    0.00002334
     atom   54 type  5   force =    -0.00018543    0.00027572   -0.00037267
     atom   55 type  5   force =     0.00001742    0.00037548    0.00051639
     atom   56 type  2   force =    -0.01764874   -0.00026721   -0.00431256
     atom   57 type  5   force =     0.01761370    0.00049889    0.00363066

     Total force =     0.364044     Total SCF correction =     0.000943
  @ DRIVER MODE: Message from server: STATUS
  @ DRIVER MODE: Message from server: GETFORCE
  @ DRIVER MODE: Returning v,forces,stress,ensemble

     Writing output data file ./calc.save/
  @ DRIVER MODE: Message from server: EXIT
  @ DRIVE MODE: Exiting

     General routines

     Parallel routines

   This run was terminated on:  12:24:32  24Sep2021

   JOB DONE.