     Program PWSCF v.6.7GPU starts on 23Sep2021 at  1: 4:17

     R & G space division:  proc/nbgrp/npool/nimage =       8
     Reading input from /storage/home/hcoda1/3/ntian30/research/carbon/CxH_vib/H2O_calc/ads_slab/CH3OHHO_e/out_0008/pw.inp
Warning: card &CELL ignored
Warning: card   CELL_DYNAMICS='IPI', ignored
Warning: card / ignored

     Current dimensions of program PWSCF are:
     Max number of different atomic species (ntypx) = 10
     Max number of k-points (npk) =  40000
     Max angular momentum in pseudopotentials (lmaxx) =  3
     Presently no symmetry can be used with electric field

     Message from routine cell_base_init:
     DEPRECATED: use true lattice parameter, not A to a.u. conversion factor

     IMPORTANT: XC functional enforced from input :
     Exchange-correlation= BEEF-VDW
                           (   1   4  43  14   2   0   0)
     Any further DFT definition will be discarded
     Please, verify this is what you really want

  @ DRIVER MODE: Connecting to
 qe_1139763_2941008.sched-torque.pace.gatech.eduupmeeoi6_scratch
  using UNIX socket
  @ DRIVER MODE: Message from server: STATUS
  @ DRIVER MODE: Message from server: INIT
  @ DRIVER MODE: Receiving replica           0          -1
  @ DRIVER MODE: Receiving encoded integer          25
  @ DRIVER MODE:  SCF:  T  FORCE:  T  STRESS:  F  VC:  F  ENSEMBLE:  F
  @ DRIVER MODE:  SCF:  T  FORCE:  T  STRESS:  F  VC:  F  ENSEMBLE:  F

     Using Slab Decomposition

     bravais-lattice index     =            0
     lattice parameter (alat)  =       1.8897  a.u.
     unit-cell volume          =    6658.9804 (a.u.)^3
     number of atoms/cell      =           55
     number of atomic types    =            4
     number of electrons       =       399.00
     number of Kohn-Sham states=          209
     kinetic-energy cutoff     =      29.3995  Ry
     charge density cutoff     =     293.9946  Ry
     scf convergence threshold =      7.3E-08
     mixing beta               =       0.0500
     number of iterations used =            8  plain     mixing
     Exchange-correlation= BEEF-VDW
                           (   1   4  43  14   2   0   0)

     celldm(1)=   1.889726  celldm(2)=   0.000000  celldm(3)=   0.000000
     celldm(4)=   0.000000  celldm(5)=   0.000000  celldm(6)=   0.000000

     crystal axes: (cart. coord. in units of alat)
               a(1) = (   6.579727   0.000000   0.000000 )
               a(2) = (  -0.000775   5.961596   0.000000 )
               a(3) = (   0.000000   0.000000  25.155947 )

     reciprocal axes: (cart. coord. in units 2 pi/alat)
               b(1) = (  0.151982  0.000020  0.000000 )
               b(2) = (  0.000000  0.167740  0.000000 )
               b(3) = (  0.000000  0.000000  0.039752 )

     PseudoPot. # 1 for Ti read from file:
     /storage/coda1/p-amedford6/0/shared/rich_project_chbe-medford/medford-share/data/pseudos_module/espresso/nninc/pbe/van/Ti.UPF
     MD5 check sum: 8e4df49b7f0d34bbd5052bf3f5ea0213
     Pseudo is Ultrasoft, Zval = 12.0
     Generated by new atomic code, or converted to UPF format
     Using radial grid of  851 points,  6 beta functions with:
                l(1) =   0
                l(2) =   0
                l(3) =   1
                l(4) =   1
                l(5) =   2
                l(6) =   2
     Q(r) pseudized with  8 coefficients,  rinner =    1.000   1.000   1.000
                                                       1.000   1.000

     PseudoPot. # 2 for O  read from file:
     /storage/coda1/p-amedford6/0/shared/rich_project_chbe-medford/medford-share/data/pseudos_module/espresso/nninc/pbe/van/O.UPF
     MD5 check sum: 78c19812648e8988a0fe644b0f25305e
     Pseudo is Ultrasoft, Zval =  6.0
     Generated by new atomic code, or converted to UPF format
     Using radial grid of  737 points,  4 beta functions with:
                l(1) =   0
                l(2) =   0
                l(3) =   1
                l(4) =   1
     Q(r) pseudized with  8 coefficients,  rinner =    0.800   0.800   0.800

     PseudoPot. # 3 for C  read from file:
     /storage/coda1/p-amedford6/0/shared/rich_project_chbe-medford/medford-share/data/pseudos_module/espresso/nninc/pbe/van/C.UPF
     MD5 check sum: 1a69bf6b8db32088f5b2163dbdb77a27
     Pseudo is Ultrasoft, Zval =  4.0
     Generated by new atomic code, or converted to UPF format
     Using radial grid of  721 points,  4 beta functions with:
                l(1) =   0
                l(2) =   0
                l(3) =   1
                l(4) =   1
     Q(r) pseudized with  8 coefficients,  rinner =    0.800   0.800   0.800

     PseudoPot. # 4 for H  read from file:
     /storage/coda1/p-amedford6/0/shared/rich_project_chbe-medford/medford-share/data/pseudos_module/espresso/nninc/pbe/van/H.UPF
     MD5 check sum: b5ee9d7bfd3a09ee7748110bda690ff7
     Pseudo is Ultrasoft, Zval =  1.0
     Generated by new atomic code, or converted to UPF format
     Using radial grid of  615 points,  1 beta functions with:
                l(1) =   0
     Q(r) pseudized with  8 coefficients,  rinner =    0.800

     atomic species   valence    mass     pseudopotential
        Ti1           12.00    47.86700     Ti( 1.00)
        O1             6.00    15.99900     O ( 1.00)
        C1             4.00    12.01100     C ( 1.00)
        H1             1.00     1.00800     H ( 1.00)

     No symmetry found

   Cartesian axes

     site n.     atom                  positions (alat units)
         1           Ti1 tau(   1) = (   0.0004258   2.9801865   6.0000000  )
         2           Ti1 tau(   2) = (   3.2906075   1.4906267   6.0002472  )
         3           O1  tau(   3) = (   0.0006271   0.0005054   7.9858123  )
         4           O1  tau(   4) = (   3.2906025   0.0005020   7.3038282  )
         5           O1  tau(   5) = (   4.5942328   1.4918067   9.2879030  )
         6           O1  tau(   6) = (   1.9868534   1.4903216   9.2879459  )
         7           Ti1 tau(   7) = (   3.3364693   3.0244086   9.1899460  )
         8           Ti1 tau(   8) = (   0.0614121   1.5180315   9.2736979  )
         9           O1  tau(   9) = (   3.3192415   0.0109611  11.3574448  )
        10           O1  tau(  10) = (   0.0135824   0.0030625  10.5923660  )
        11           O1  tau(  11) = (   1.3113730   1.4888140  12.6397483  )
        12           O1  tau(  12) = (   5.3365169   1.4868518  12.6422516  )
        13           Ti1 tau(  13) = (   0.0249591   3.0356721  12.5595363  )
        14           Ti1 tau(  14) = (   3.3216347   1.5719315  12.4302660  )
        15           O1  tau(  15) = (   0.0475996   5.9320359  14.6592625  )
        16           O1  tau(  16) = (   3.3253441   5.8716044  14.0084122  )
        17           O1  tau(  17) = (   4.6294077   1.4993822  16.1384749  )
        18           O1  tau(  18) = (   2.0712093   1.5368213  16.0656395  )
        19           Ti1 tau(  19) = (   3.3420502   2.9337026  15.6791356  )
        20           Ti1 tau(  20) = (   0.0819182   1.3209985  15.9439250  )
        21           O1  tau(  21) = (   3.2904802   0.0005063   4.7018136  )
        22           O1  tau(  22) = (   0.1121901   0.0005398  17.1797988  )
        23           O1  tau(  23) = (   1.3043587   1.4918075   6.0039043  )
        24           O1  tau(  24) = (   5.2767064   1.4903225   6.0039473  )
        25           Ti1 tau(  25) = (   0.0000382   5.9609847   6.0000000  )
        26           Ti1 tau(  26) = (   3.2902200   4.4714249   6.0002472  )
        27           O1  tau(  27) = (   0.0002396   2.9813036   7.9858123  )
        28           O1  tau(  28) = (   3.2902150   2.9813002   7.3038282  )
        29           O1  tau(  29) = (   4.5938453   4.4726049   9.2879030  )
        30           O1  tau(  30) = (   1.9864658   4.4711199   9.2879459  )
        31           Ti1 tau(  31) = (   3.3365859   0.0383882   9.1683042  )
        32           Ti1 tau(  32) = (   0.0607984   4.4756772   9.2727477  )
        33           O1  tau(  33) = (   3.3154497   2.9528697  11.3100477  )
        34           O1  tau(  34) = (   0.0130381   2.9821538  10.6068333  )
        35           O1  tau(  35) = (   1.3079814   4.4632751  12.6339740  )
        36           O1  tau(  36) = (   5.3374838   4.4678533  12.6371107  )
        37           Ti1 tau(  37) = (   0.0367351   0.0553833  12.4739561  )
        38           Ti1 tau(  38) = (   3.3178111   4.6524667  12.7070490  )
        39           O1  tau(  39) = (   0.0226182   2.9861015  14.7894940  )
        40           O1  tau(  40) = (   3.3464301   2.9603322  13.9061577  )
        41           O1  tau(  41) = (   4.6320376   4.4053937  16.1659747  )
        42           O1  tau(  42) = (   2.0651706   4.3480327  16.1155179  )
        43           Ti1 tau(  43) = (   3.4032537   5.9185344  16.2710929  )
        44           Ti1 tau(  44) = (   0.0646745   4.5145260  15.8553686  )
        45           O1  tau(  45) = (   3.2900926   2.9813045   4.7018136  )
        46           O1  tau(  46) = (   1.3039711   4.4726057   6.0039043  )
        47           O1  tau(  47) = (   5.2763189   4.4711207   6.0039473  )
        48           C1  tau(  48) = (   5.9353497   3.0583042  18.8699169  )
        49           O1  tau(  49) = (   0.1956485   3.0014673  17.6677584  )
        50           H1  tau(  50) = (   4.9577780   2.6849493  18.5881267  )
        51           H1  tau(  51) = (   1.1185258   3.1466834  17.9024234  )
        52           H1  tau(  52) = (   6.3707541   2.4080388  19.6265123  )
        53           H1  tau(  53) = (   5.8722695   4.0904670  19.2075282  )
        54           O1  tau(  54) = (   3.1419305   5.9539177  18.1124628  )
        55           H1  tau(  55) = (   2.2021640   0.0520986  18.3490109  )

     number of k points=    10  Fermi-Dirac smearing, width (Ry)=  0.0073
                       cart. coord. in units 2pi/alat
        k(    1) = (   0.0000000   0.0000000   0.0000000), wk =   0.1250000
        k(    2) = (   0.0000000   0.0419351   0.0000000), wk =   0.2500000
        k(    3) = (   0.0000000  -0.0838702   0.0000000), wk =   0.1250000
        k(    4) = (   0.0379955   0.0000049   0.0000000), wk =   0.2500000
        k(    5) = (   0.0379955   0.0419400   0.0000000), wk =   0.2500000
        k(    6) = (   0.0379955  -0.0838652   0.0000000), wk =   0.2500000
        k(    7) = (   0.0379955  -0.0419301   0.0000000), wk =   0.2500000
        k(    8) = (  -0.0759910  -0.0000099   0.0000000), wk =   0.1250000
        k(    9) = (  -0.0759910   0.0419252   0.0000000), wk =   0.2500000
        k(   10) = (  -0.0759910  -0.0838800   0.0000000), wk =   0.1250000

     Initial potential from superposition of free atoms

     starting charge  382.99916, renormalised to  399.00000

     negative rho (up, down):  1.653E-02 0.000E+00

     %%%%%%%%%%%%%%%%%%%%%%%%%%%%%%%%%%%%%%%%%%%%%%%%%%%%%%%%%%%%%%%%%%%%%%%%
     %                                                                      %
     % You are using vdW-DF, which was implemented by the Thonhauser group. %
     % Please cite the following two papers that made this development      %
     % possible and the two reviews that describe the various versions:     %
     %                                                                      %
     %   T. Thonhauser et al., PRL 115, 136402 (2015).                      %
     %   T. Thonhauser et al., PRB 76, 125112 (2007).                       %
     %   K. Berland et al., Rep. Prog. Phys. 78, 066501 (2015).             %
     %   D.C. Langreth et al., J. Phys.: Condens. Matter 21, 084203 (2009). %
     %                                                                      %
     %                                                                      %
     % If you are calculating the stress with vdW-DF, please also cite:     %
     %                                                                      %
     %   R. Sabatini et al., J. Phys.: Condens. Matter 24, 424209 (2012).   %
     %                                                                      %
     %%%%%%%%%%%%%%%%%%%%%%%%%%%%%%%%%%%%%%%%%%%%%%%%%%%%%%%%%%%%%%%%%%%%%%%%

     Adding external electric field

     Computed dipole along edir(3) :
        Dipole              -10.2322 Ry au,        -26.0076 Debye
        Dipole field         -0.0193 Ry au,

        Potential amp.        1.7900 Ry
        Total length         46.3494 bohr

     Starting wfcs are  301 atomic wfcs
  @ DRIVER MODE: Message from server: STATUS
  @ DRIVER MODE: Message from server: POSDATA
  @ DRIVER MODE: Reading and sharing cell
  @ DRIVER MODE: Reading and sharing positions
  @ DRIVER MODE: Received positions

     Self-consistent Calculation

     iteration #  1     ecut=    29.40 Ry     beta= 0.05
     Davidson diagonalization with overlap
     c_bands:  3 eigenvalues not converged
     c_bands:  3 eigenvalues not converged
     c_bands:  4 eigenvalues not converged
     c_bands:  1 eigenvalues not converged
     c_bands:  5 eigenvalues not converged
     c_bands:  5 eigenvalues not converged
     c_bands:  4 eigenvalues not converged
     c_bands:  4 eigenvalues not converged
     c_bands:  4 eigenvalues not converged
     ethr =  1.00E-05,  avg # of iterations = 21.1

[...]

     total energy              =   -2463.83758063 Ry
     estimated scf accuracy    <    5598.12244234 Ry

     iteration #  2     ecut=    29.40 Ry     beta= 0.05
     Davidson diagonalization with overlap
     ethr =  1.00E-02,  avg # of iterations = 25.7

[...]

     iteration # 65     ecut=    29.40 Ry     beta= 0.05
     Davidson diagonalization with overlap
     c_bands:  1 eigenvalues not converged
     ethr =  1.73E-10,  avg # of iterations = 10.8

[...]

     total energy              =   -2966.27792022 Ry
     estimated scf accuracy    <       0.00000009 Ry

     iteration # 68     ecut=    29.40 Ry     beta= 0.05
     Davidson diagonalization with overlap
     ethr =  2.32E-11,  avg # of iterations =  9.1

     negative rho (up, down):  1.671E-02 0.000E+00

     Adding external electric field

     Computed dipole along edir(3) :
        Dipole                1.0479 Ry au,          2.6634 Debye
        Dipole field          0.0020 Ry au,

        Potential amp.       -0.1833 Ry
        Total length         46.3494 bohr

     End of self-consistent calculation

          k = 0.0000 0.0000 0.0000 ( 18029 PWs)   bands (ev):

   -55.6996 -55.6295 -55.5945 -55.5151 -55.4916 -55.4641 -55.4321 -55.4246
   -55.4209 -55.4078 -55.3956 -55.3682 -55.2821 -55.2100 -54.5876 -54.5536
   -32.1084 -32.0908 -32.0106 -31.9997 -31.9565 -31.9474 -31.9194 -31.9176
   -31.8898 -31.8731 -31.8638 -31.7915 -31.7887 -31.7830 -31.7556 -31.7378
   -31.7305 -31.7189 -31.7090 -31.6959 -31.6922 -31.6881 -31.6438 -31.6432
   -31.6417 -31.6340 -31.6293 -31.6222 -31.6101 -31.5941 -31.5890 -31.5793
   -31.5733 -31.5581 -31.5537 -31.5444 -31.5342 -31.5100 -31.4708 -31.4540
   -31.4218 -31.4144 -30.9937 -30.9079 -30.8853 -30.8108 -30.7244 -30.6128
   -20.0743 -16.5155 -16.2825 -16.1029 -15.9015 -15.8381 -15.7797 -15.5913
   -15.5159 -15.3752 -15.2312 -15.2181 -15.1632 -15.1626 -15.1543 -15.1309
   -15.1003 -15.0561 -15.0468 -15.0407 -15.0351 -14.9795 -14.9377 -14.9294
   -14.9230 -14.8821 -14.7539 -14.7134 -14.6573 -14.4864 -14.4438 -13.0874
   -12.9713 -10.9542  -6.7811  -4.9582  -4.7601  -4.0099  -3.6348  -3.5339
    -3.5161  -3.4545  -3.3980  -3.1848  -3.0751  -3.0132  -2.9009  -2.7741
    -2.7362  -2.6867  -2.6560  -2.5634  -2.5424  -2.5122  -2.4868  -2.4289
    -2.3993  -2.3909  -2.3786  -2.3073  -2.2972  -2.1671  -2.1630  -2.0901
    -2.0218  -2.0006  -1.9818  -1.9644  -1.9323  -1.9319  -1.8853  -1.8648
    -1.8435  -1.8129  -1.7408  -1.7192  -1.6589  -1.6180  -1.3867  -1.2252
    -1.2027  -1.1305  -1.1130  -1.0807  -1.0438  -1.0288  -1.0236  -0.9846
    -0.9681  -0.8597  -0.7638  -0.7517  -0.6910  -0.6523  -0.6503  -0.5165
    -0.4687  -0.3949  -0.3691  -0.3438  -0.3209  -0.2283  -0.1855  -0.1678
    -0.1045  -0.0745   0.0373   0.0764   0.0946   0.1334   0.1888   0.2570
     0.2873   0.3240   0.3319   0.3641   0.4131   0.4379   0.4707   0.4975
     0.5366   0.6412   0.6807   0.6961   0.8397   0.8411   0.9289   1.0563
     1.1043   1.3853   1.4374   1.4755   1.6303   2.0050   2.0511   3.4893
     3.6062   3.6170   3.6353   3.7058   3.7960   3.9516   3.9794   4.0506
     4.1458

[...]

          k = 0.0380-0.0419 0.0000 ( 17876 PWs)   bands (ev):

[...]

          k =-0.0760-0.0000 0.0000 ( 17886 PWs)   bands (ev):

[...]

          k =-0.0760-0.0839 0.0000 ( 17948 PWs)   bands (ev):

   -55.6989 -55.6159 -55.6079 -55.5082 -55.4868 -55.4707 -55.4258 -55.4250
   -55.4194 -55.4077 -55.3987 -55.3776 -55.2782 -55.2138 -54.5708 -54.5703
   -32.0102 -31.9516 -31.9425 -31.9277 -31.9199 -31.9167 -31.9121 -31.8981
   -31.8311 -31.8300 -31.7946 -31.7648 -31.7602 -31.7526 -31.7362 -31.7358
   -31.7308 -31.7278 -31.7254 -31.7151 -31.7124 -31.7101 -31.6980 -31.6963
   -31.6691 -31.6665 -31.6333 -31.6280 -31.6274 -31.6266 -31.6164 -31.6124
   -31.6060 -31.6040 -31.5971 -31.5959 -31.5940 -31.5573 -31.5376 -31.4751
   -31.4610 -31.4184 -30.8982 -30.8979 -30.8075 -30.8060 -30.7678 -30.7669
   -20.0707 -16.4908 -15.8982 -15.7539 -15.5916 -15.5733 -15.4956 -15.4003
   -15.3833 -15.3552 -15.3451 -15.3245 -15.2990 -15.2966 -15.2476 -15.1935
   -15.1517 -15.1287 -15.1244 -15.0783 -15.0690 -15.0654 -15.0098 -14.9971
   -14.9878 -14.9492 -14.8894 -14.8607 -14.7827 -14.7555 -14.6015 -13.0735
   -13.0729 -10.9563  -6.7822  -4.9393  -4.7532  -3.9724  -3.0480  -2.9764
    -2.9220  -2.8147  -2.7334  -2.6771  -2.6254  -2.6069  -2.5633  -2.5432
    -2.4726  -2.4388  -2.4309  -2.4099  -2.4075  -2.3809  -2.3648  -2.3524
    -2.3298  -2.3000  -2.2859  -2.2720  -2.2537  -2.2329  -2.2125  -2.1927
    -2.1802  -2.1695  -2.1500  -2.0420  -2.0187  -1.9816  -1.8288  -1.8178
    -1.7514  -1.7188  -1.6888  -1.6834  -1.6505  -1.6432  -1.6006  -1.4917
    -1.4623  -1.4150  -1.3653  -1.2666  -1.2617  -1.2146  -1.1621  -1.1227
    -1.0935  -1.0462  -1.0433  -0.9985  -0.8564  -0.8301  -0.7914  -0.6671
    -0.5948  -0.5794  -0.5655  -0.5487  -0.5224  -0.4754  -0.4699  -0.4135
    -0.3916  -0.3200  -0.3180  -0.2935  -0.2693  -0.1624  -0.0478   0.0432
     0.0785   0.1343   0.1742   0.2070   0.2903   0.3645   0.4476   0.5336
     0.5600   0.5709   0.6921   0.7191   0.7701   0.8227   0.8389   0.8987
     0.9315   0.9744   1.0026   1.7985   1.8118   1.8676   1.8724   3.6769
     3.9267   3.9786   3.9968   4.0094   4.0429   4.0629   4.1094   4.1276
     4.1532

     the Fermi energy is     3.5028 ev

!    total energy              =   -2966.27794429 Ry
     estimated scf accuracy    <       0.00000007 Ry
     smearing contrib. (-TS)   =      -0.02072958 Ry
     internal energy E=F+TS    =   -2966.25721471 Ry

     The total energy is F=E-TS. E is the sum of the following terms:
     one-electron contribution =  -24038.95879768 Ry
     hartree contribution      =   12112.01952147 Ry
     xc contribution           =    -490.94788249 Ry
     ewald contribution        =    9451.62787188 Ry
     electric field correction =       0.00207211 Ry

     convergence has been achieved in  68 iterations

     Forces acting on atoms (cartesian axes, Ry/au):

     atom    1 type  1   force =    -0.00039708    0.00005396    0.09457361
     atom    2 type  1   force =    -0.00032304    0.00498785   -0.17463345
     atom    3 type  2   force =     0.00082430   -0.00023686   -0.02594265
     atom    4 type  2   force =     0.00125291    0.00074991    0.05285046
     atom    5 type  2   force =    -0.01097109   -0.00285460    0.00048534
     atom    6 type  2   force =     0.01163433   -0.00410270    0.00186242
     atom    7 type  1   force =     0.00052508    0.00038685   -0.00015146
     atom    8 type  1   force =    -0.00044764    0.00019978    0.00076944
     atom    9 type  2   force =    -0.00044552    0.00028307   -0.00027065
     atom   10 type  2   force =     0.00031665   -0.00035407   -0.00046794
     atom   11 type  2   force =     0.00062106    0.00032121   -0.00023071
     atom   12 type  2   force =    -0.00039045   -0.00046329   -0.00038298
     atom   13 type  1   force =    -0.00130292   -0.00079456    0.00033097
     atom   14 type  1   force =     0.00028514    0.00010427    0.00057583
     atom   15 type  2   force =     0.00049940    0.00070179    0.00017862
     atom   16 type  2   force =    -0.00046964    0.00052609    0.00056971
     atom   17 type  2   force =     0.00020721    0.00040066    0.00017831
     atom   18 type  2   force =    -0.00005978   -0.00015954    0.00019674
     atom   19 type  1   force =    -0.00062878    0.00115427   -0.00026871
     atom   20 type  1   force =     0.00015384   -0.00015859   -0.00069337
     atom   21 type  2   force =    -0.00001467    0.00005438    0.10310853
     atom   22 type  2   force =    -0.00044728   -0.00057739   -0.00042959
     atom   23 type  2   force =    -0.07206707    0.00005213   -0.02789430
     atom   24 type  2   force =     0.07192261    0.00054369   -0.02800079
     atom   25 type  1   force =    -0.00044314   -0.00000010    0.10114915
     atom   26 type  1   force =    -0.00006259   -0.00460847   -0.17489262
     atom   27 type  2   force =     0.00089771    0.00114511   -0.02443322
     atom   28 type  2   force =     0.00113521    0.00015090    0.05241035
     atom   29 type  2   force =    -0.01185733    0.00306410    0.00195315
     atom   30 type  2   force =     0.01325560    0.00116403    0.00308774
     atom   31 type  1   force =     0.00058128    0.00003036   -0.00054848
     atom   32 type  1   force =    -0.00036772    0.00069913    0.00047834
     atom   33 type  2   force =    -0.00020209    0.00093143    0.00016618
     atom   34 type  2   force =     0.00013687   -0.00012647   -0.00097397
     atom   35 type  2   force =     0.00034089    0.00007123    0.00053608
     atom   36 type  2   force =     0.00009036    0.00016473    0.00047381
     atom   37 type  1   force =    -0.00146188   -0.00060362    0.00030337
     atom   38 type  1   force =     0.00077491   -0.00026268   -0.00011055
     atom   39 type  2   force =     0.00038462   -0.00021677    0.00117995
     atom   40 type  2   force =    -0.00010478    0.00034540    0.00050707
     atom   41 type  2   force =    -0.00031018   -0.00009609   -0.00052073
     atom   42 type  2   force =     0.00026014    0.00000162   -0.00079918
     atom   43 type  1   force =    -0.00022039   -0.00030363   -0.00073710
     atom   44 type  1   force =     0.00009811   -0.00062498   -0.00110747
     atom   45 type  2   force =    -0.00001455    0.00012972    0.10268165
     atom   46 type  2   force =    -0.07203673   -0.00056633   -0.02787629
     atom   47 type  2   force =     0.07188725   -0.00007714   -0.02795873
     atom   48 type  3   force =     0.00419458   -0.00098189   -0.00326537
     atom   49 type  2   force =    -0.02418895   -0.00302435   -0.00221744
     atom   50 type  4   force =     0.00094079   -0.00024982   -0.00140630
     atom   51 type  4   force =     0.01729246    0.00260276    0.00495626
     atom   52 type  4   force =    -0.00021039    0.00011361    0.00000382
     atom   53 type  4   force =    -0.00059637    0.00048923   -0.00049835
     atom   54 type  2   force =     0.00111522    0.00007587    0.00082849
     atom   55 type  4   force =    -0.00158648   -0.00025518    0.00031699

     Total force =     0.365730     Total SCF correction =     0.000780
  @ DRIVER MODE: Message from server: STATUS
  @ DRIVER MODE: Message from server: GETFORCE
  @ DRIVER MODE: Returning v,forces,stress,ensemble

     Writing output data file ./calc.save/
  @ DRIVER MODE: Message from server: EXIT
  @ DRIVE MODE: Exiting

     General routines

     Parallel routines

   This run was terminated on:   1:27:27  23Sep2021

   JOB DONE.