     Program PWSCF v.6.7GPU starts on 30Sep2021 at 14:48:18

     R & G space division:  proc/nbgrp/npool/nimage =       8
     Reading input from /storage/home/hcoda1/3/ntian30/research/carbon/CxH_vib/pristine/ads_slab/CH2N2_h/out_0008/pw.inp
Warning: card &CELL ignored
Warning: card   CELL_DYNAMICS='IPI', ignored
Warning: card / ignored

     Current dimensions of program PWSCF are:
     Max number of different atomic species (ntypx) = 10
     Max number of k-points (npk) =  40000
     Max angular momentum in pseudopotentials (lmaxx) =  3
     Presently no symmetry can be used with electric field

     Message from routine cell_base_init:
     DEPRECATED: use true lattice parameter, not A to a.u. conversion factor

     IMPORTANT: XC functional enforced from input :
     Exchange-correlation= BEEF-VDW
                           (   1   4  43  14   2   0   0)
     Any further DFT definition will be discarded
     Please, verify this is what you really want

  @ DRIVER MODE: Connecting to
 qe_1139763_3035237.sched-torque.pace.gatech.eduovnmtyb9_scratch
  using UNIX socket
  @ DRIVER MODE: Message from server: STATUS
  @ DRIVER MODE: Message from server: INIT
  @ DRIVER MODE: Receiving replica           0          -1
  @ DRIVER MODE: Receiving encoded integer          25
  @ DRIVER MODE:  SCF:  T  FORCE:  T  STRESS:  F  VC:  F  ENSEMBLE:  F
  @ DRIVER MODE:  SCF:  T  FORCE:  T  STRESS:  F  VC:  F  ENSEMBLE:  F

     Using Slab Decomposition

     bravais-lattice index     =            0
     lattice parameter (alat)  =       1.8897  a.u.
     unit-cell volume          =    6658.9804 (a.u.)^3
     number of atoms/cell      =           53
     number of atomic types    =            5
     number of electrons       =       400.00
     number of Kohn-Sham states=          210
     kinetic-energy cutoff     =      29.3995  Ry
     charge density cutoff     =     293.9946  Ry
     scf convergence threshold =      7.3E-08
     mixing beta               =       0.0500
     number of iterations used =            8  plain     mixing
     Exchange-correlation= BEEF-VDW
                           (   1   4  43  14   2   0   0)

     celldm(1)=   1.889726  celldm(2)=   0.000000  celldm(3)=   0.000000
     celldm(4)=   0.000000  celldm(5)=   0.000000  celldm(6)=   0.000000

     crystal axes: (cart. coord. in units of alat)
               a(1) = (   6.579727   0.000000   0.000000 )
               a(2) = (  -0.000775   5.961596   0.000000 )
               a(3) = (   0.000000   0.000000  25.155947 )

     reciprocal axes: (cart. coord. in units 2 pi/alat)
               b(1) = (  0.151982  0.000020  0.000000 )
               b(2) = (  0.000000  0.167740  0.000000 )
               b(3) = (  0.000000  0.000000  0.039752 )

     PseudoPot. # 1 for Ti read from file:
     /storage/coda1/p-amedford6/0/shared/rich_project_chbe-medford/medford-share/data/pseudos_module/espresso/nninc/pbe/van/Ti.UPF
     MD5 check sum: 8e4df49b7f0d34bbd5052bf3f5ea0213
     Pseudo is Ultrasoft, Zval = 12.0
     Generated by new atomic code, or converted to UPF format
     Using radial grid of  851 points,  6 beta functions with:
                l(1) =   0
                l(2) =   0
                l(3) =   1
                l(4) =   1
                l(5) =   2
                l(6) =   2
     Q(r) pseudized with  8 coefficients,  rinner =    1.000   1.000   1.000
                                                       1.000   1.000

     PseudoPot. # 2 for O  read from file:
     /storage/coda1/p-amedford6/0/shared/rich_project_chbe-medford/medford-share/data/pseudos_module/espresso/nninc/pbe/van/O.UPF
     MD5 check sum: 78c19812648e8988a0fe644b0f25305e
     Pseudo is Ultrasoft, Zval =  6.0
     Generated by new atomic code, or converted to UPF format
     Using radial grid of  737 points,  4 beta functions with:
                l(1) =   0
                l(2) =   0
                l(3) =   1
                l(4) =   1
     Q(r) pseudized with  8 coefficients,  rinner =    0.800   0.800   0.800

     PseudoPot. # 3 for N  read from file:
     /storage/coda1/p-amedford6/0/shared/rich_project_chbe-medford/medford-share/data/pseudos_module/espresso/nninc/pbe/van/N.UPF
     MD5 check sum: 90d10febe142ad51ac9d5be1deb811c4
     Pseudo is Ultrasoft, Zval =  5.0
     Generated by new atomic code, or converted to UPF format
     Using radial grid of  729 points,  4 beta functions with:
                l(1) =   0
                l(2) =   0
                l(3) =   1
                l(4) =   1
     Q(r) pseudized with  8 coefficients,  rinner =    0.800   0.800   0.800

     PseudoPot. # 4 for C  read from file:
     /storage/coda1/p-amedford6/0/shared/rich_project_chbe-medford/medford-share/data/pseudos_module/espresso/nninc/pbe/van/C.UPF
     MD5 check sum: 1a69bf6b8db32088f5b2163dbdb77a27
     Pseudo is Ultrasoft, Zval =  4.0
     Generated by new atomic code, or converted to UPF format
     Using radial grid of  721 points,  4 beta functions with:
                l(1) =   0
                l(2) =   0
                l(3) =   1
                l(4) =   1
     Q(r) pseudized with  8 coefficients,  rinner =    0.800   0.800   0.800

     PseudoPot. # 5 for H  read from file:
     /storage/coda1/p-amedford6/0/shared/rich_project_chbe-medford/medford-share/data/pseudos_module/espresso/nninc/pbe/van/H.UPF
     MD5 check sum: b5ee9d7bfd3a09ee7748110bda690ff7
     Pseudo is Ultrasoft, Zval =  1.0
     Generated by new atomic code, or converted to UPF format
     Using radial grid of  615 points,  1 beta functions with:
                l(1) =   0
     Q(r) pseudized with  8 coefficients,  rinner =    0.800

     atomic species   valence    mass     pseudopotential
        Ti1           12.00    47.86700     Ti( 1.00)
        O1             6.00    15.99900     O ( 1.00)
        N1             5.00    14.00700     N ( 1.00)
        C1             4.00    12.01100     C ( 1.00)
        H1             1.00     1.00800     H ( 1.00)

     No symmetry found

   Cartesian axes

     site n.     atom                  positions (alat units)
         1           Ti1 tau(   1) = (   0.0004258   2.9801865   6.0000000  )
         2           Ti1 tau(   2) = (   3.2906075   1.4906267   6.0002472  )
         3           O1  tau(   3) = (   0.0006271   0.0005054   7.9858123  )
         4           O1  tau(   4) = (   3.2906025   0.0005020   7.3038282  )
         5           O1  tau(   5) = (   4.5942328   1.4918067   9.2879030  )
         6           O1  tau(   6) = (   1.9868534   1.4903216   9.2879459  )
         7           Ti1 tau(   7) = (   3.2940346   2.8698074   9.1684565  )
         8           Ti1 tau(   8) = (   0.0030225   1.4329613   9.3767462  )
         9           O1  tau(   9) = (   3.2994152   5.9581457  11.3549906  )
        10           O1  tau(  10) = (   6.5730281   5.9481945  10.5612412  )
        11           O1  tau(  11) = (   1.2782729   1.4799297  12.6138410  )
        12           O1  tau(  12) = (   5.2754995   1.4800591  12.6632238  )
        13           Ti1 tau(  13) = (   0.0766946   2.9556037  12.8068061  )
        14           Ti1 tau(  14) = (   3.3903493   1.4788161  12.4952579  )
        15           O1  tau(  15) = (   0.0876507   5.9454885  14.6519752  )
        16           O1  tau(  16) = (   3.2436869   5.9606251  13.9358461  )
        17           O1  tau(  17) = (   4.5879952   1.4894255  15.9985222  )
        18           O1  tau(  18) = (   2.0927145   1.4923104  16.0778241  )
        19           Ti1 tau(  19) = (   3.3818532   2.9747944  15.7863222  )
        20           Ti1 tau(  20) = (   0.1331232   1.5076923  16.1442520  )
        21           O1  tau(  21) = (   3.2904802   0.0005063   4.7018136  )
        22           O1  tau(  22) = (   6.5571263   5.9613239  17.2084283  )
        23           O1  tau(  23) = (   1.3043587   1.4918075   6.0039043  )
        24           O1  tau(  24) = (   5.2767064   1.4903225   6.0039473  )
        25           Ti1 tau(  25) = (   0.0000382   5.9609847   6.0000000  )
        26           Ti1 tau(  26) = (   3.2902200   4.4714249   6.0002472  )
        27           O1  tau(  27) = (   0.0002396   2.9813036   7.9858123  )
        28           O1  tau(  28) = (   3.2902150   2.9813002   7.3038282  )
        29           O1  tau(  29) = (   4.5938453   4.4726049   9.2879030  )
        30           O1  tau(  30) = (   1.9864658   4.4711199   9.2879459  )
        31           Ti1 tau(  31) = (   3.2881238   5.8488574   9.1742270  )
        32           Ti1 tau(  32) = (   0.0015652   4.4122313   9.3797820  )
        33           O1  tau(  33) = (   3.3067820   2.9727102  11.3461643  )
        34           O1  tau(  34) = (   6.5709248   2.9657579  10.5611975  )
        35           O1  tau(  35) = (   1.2701395   4.4574477  12.6080355  )
        36           O1  tau(  36) = (   5.2774107   4.4662555  12.6593532  )
        37           Ti1 tau(  37) = (   0.0866433   5.9395267  12.8007823  )
        38           Ti1 tau(  38) = (   3.3983582   4.4424157  12.5219168  )
        39           O1  tau(  39) = (   0.0671811   2.9517497  14.6463865  )
        40           O1  tau(  40) = (   3.2450650   3.0047677  13.9292835  )
        41           O1  tau(  41) = (   4.5850435   4.4841338  15.8299482  )
        42           O1  tau(  42) = (   2.0023688   4.4342503  16.0865826  )
        43           Ti1 tau(  43) = (   3.3875004   0.1080243  15.7411054  )
        44           Ti1 tau(  44) = (   6.4704293   4.4893485  16.1236300  )
        45           O1  tau(  45) = (   3.2900926   2.9813045   4.7018136  )
        46           O1  tau(  46) = (   6.5000697   2.9773305  17.2009514  )
        47           O1  tau(  47) = (   1.3039711   4.4726057   6.0039043  )
        48           O1  tau(  48) = (   5.2763189   4.4711207   6.0039473  )
        49           N1  tau(  49) = (   3.1734193   5.1894584  17.8228359  )
        50           N1  tau(  50) = (   2.5468264   4.0434087  17.4457212  )
        51           C1  tau(  51) = (   3.6285828   5.3156434  19.0144592  )
        52           H1  tau(  52) = (   3.4938138   4.5389551  19.7603617  )
        53           H1  tau(  53) = (   4.1761532   0.2557294  19.2464809  )

     number of k points=    10  Fermi-Dirac smearing, width (Ry)=  0.0073
                       cart. coord. in units 2pi/alat
        k(    1) = (   0.0000000   0.0000000   0.0000000), wk =   0.1250000
        k(    2) = (   0.0000000   0.0419351   0.0000000), wk =   0.2500000
        k(    3) = (   0.0000000  -0.0838702   0.0000000), wk =   0.1250000
        k(    4) = (   0.0379955   0.0000049   0.0000000), wk =   0.2500000
        k(    5) = (   0.0379955   0.0419400   0.0000000), wk =   0.2500000
        k(    6) = (   0.0379955  -0.0838652   0.0000000), wk =   0.2500000
        k(    7) = (   0.0379955  -0.0419301   0.0000000), wk =   0.2500000
        k(    8) = (  -0.0759910  -0.0000099   0.0000000), wk =   0.1250000
        k(    9) = (  -0.0759910   0.0419252   0.0000000), wk =   0.2500000
        k(   10) = (  -0.0759910  -0.0838800   0.0000000), wk =   0.1250000

     Initial potential from superposition of free atoms

     starting charge  383.99917, renormalised to  400.00000

     negative rho (up, down):  1.731E-02 0.000E+00

     %%%%%%%%%%%%%%%%%%%%%%%%%%%%%%%%%%%%%%%%%%%%%%%%%%%%%%%%%%%%%%%%%%%%%%%%
     %                                                                      %
     % You are using vdW-DF, which was implemented by the Thonhauser group. %
     % Please cite the following two papers that made this development      %
     % possible and the two reviews that describe the various versions:     %
     %                                                                      %
     %   T. Thonhauser et al., PRL 115, 136402 (2015).                      %
     %   T. Thonhauser et al., PRB 76, 125112 (2007).                       %
     %   K. Berland et al., Rep. Prog. Phys. 78, 066501 (2015).             %
     %   D.C. Langreth et al., J. Phys.: Condens. Matter 21, 084203 (2009). %
     %                                                                      %
     %                                                                      %
     % If you are calculating the stress with vdW-DF, please also cite:     %
     %                                                                      %
     %   R. Sabatini et al., J. Phys.: Condens. Matter 24, 424209 (2012).   %
     %                                                                      %
     %%%%%%%%%%%%%%%%%%%%%%%%%%%%%%%%%%%%%%%%%%%%%%%%%%%%%%%%%%%%%%%%%%%%%%%%

     Adding external electric field

     Computed dipole along edir(3) :
        Dipole               -9.1452 Ry au,        -23.2449 Debye
        Dipole field         -0.0173 Ry au,

        Potential amp.        1.5998 Ry
        Total length         46.3494 bohr

     Starting wfcs are  302 atomic wfcs
  @ DRIVER MODE: Message from server: STATUS
  @ DRIVER MODE: Message from server: POSDATA
  @ DRIVER MODE: Reading and sharing cell
  @ DRIVER MODE: Reading and sharing positions
  @ DRIVER MODE: Received positions

     Self-consistent Calculation

     iteration #  1     ecut=    29.40 Ry     beta= 0.05
     Davidson diagonalization with overlap
     c_bands:  1 eigenvalues not converged
     c_bands:  1 eigenvalues not converged
     c_bands:  2 eigenvalues not converged
     c_bands:  2 eigenvalues not converged
     c_bands:  1 eigenvalues not converged
     c_bands:  2 eigenvalues not converged
     c_bands:  1 eigenvalues not converged
     c_bands:  2 eigenvalues not converged
     ethr =  1.00E-05,  avg # of iterations = 20.0

[...]

     total energy              =   -2546.89445945 Ry
     estimated scf accuracy    <    4698.25180276 Ry

     iteration #  2     ecut=    29.40 Ry     beta= 0.05
     Davidson diagonalization with overlap
     ethr =  1.00E-02,  avg # of iterations = 22.4

[...]

     iteration # 53     ecut=    29.40 Ry     beta= 0.05
     Davidson diagonalization with overlap
     c_bands:  1 eigenvalues not converged
     ethr =  3.62E-08,  avg # of iterations =  7.4

[...]

     total energy              =   -2970.21532106 Ry
     estimated scf accuracy    <       0.00000012 Ry

     iteration # 71     ecut=    29.40 Ry     beta= 0.05
     Davidson diagonalization with overlap
     ethr =  3.07E-11,  avg # of iterations =  3.8

     negative rho (up, down):  1.738E-02 0.000E+00

     Adding external electric field

     Computed dipole along edir(3) :
        Dipole                0.6256 Ry au,          1.5901 Debye
        Dipole field          0.0012 Ry au,

        Potential amp.       -0.1094 Ry
        Total length         46.3494 bohr

     End of self-consistent calculation

          k = 0.0000 0.0000 0.0000 ( 18029 PWs)   bands (ev):

   -56.1820 -56.1484 -55.8552 -55.7951 -55.7566 -55.7306 -55.5845 -55.5568
   -55.5490 -55.5228 -55.4858 -55.4694 -55.4505 -55.4102 -54.9475 -54.9135
   -32.6086 -32.4305 -32.4026 -32.4025 -32.3729 -32.3199 -32.2818 -32.2355
   -32.1553 -32.1236 -32.0862 -32.0526 -32.0455 -32.0183 -32.0145 -31.9905
   -31.9736 -31.9605 -31.9557 -31.9531 -31.9185 -31.9084 -31.8325 -31.8217
   -31.8121 -31.7953 -31.7666 -31.7653 -31.7526 -31.7511 -31.7354 -31.7293
   -31.7142 -31.7068 -31.6942 -31.6714 -31.6631 -31.6579 -31.6429 -31.6218
   -31.5896 -31.5239 -31.3468 -31.2753 -31.2514 -31.1649 -31.0798 -30.9682
   -19.5633 -16.7532 -16.4708 -16.3453 -16.2336 -15.9717 -15.8537 -15.8241
   -15.6554 -15.5442 -15.5224 -15.5072 -15.4715 -15.4233 -15.3802 -15.3235
   -15.3061 -15.2660 -15.2329 -15.2046 -15.1839 -15.1618 -15.1387 -15.0817
   -15.0772 -14.9404 -14.8219 -14.8074 -14.7911 -14.7130 -14.7057 -13.4421
   -13.3289 -11.7924  -7.3006  -5.5430  -5.0080  -4.4931  -3.9221  -3.8313
    -3.7333  -3.6655  -3.5472  -3.3151  -3.2643  -3.1760  -3.0069  -2.9807
    -2.9026  -2.8698  -2.8393  -2.8155  -2.7586  -2.7141  -2.6810  -2.6512
    -2.6157  -2.5904  -2.5753  -2.5417  -2.4965  -2.4317  -2.4031  -2.3626
    -2.3284  -2.2564  -2.1772  -2.1358  -2.1212  -2.0919  -2.0531  -1.9976
    -1.9722  -1.9629  -1.8823  -1.8652  -1.7451  -1.7180  -1.6184  -1.6125
    -1.5162  -1.4610  -1.4350  -1.3857  -1.2305  -1.1851  -1.1416  -1.1118
    -1.0957  -1.0135  -0.9900  -0.9584  -0.7931  -0.7751  -0.7402  -0.7171
    -0.6727  -0.6309  -0.5913  -0.5624  -0.5117  -0.4525  -0.3803  -0.3333
    -0.2221  -0.1699  -0.0989  -0.0746  -0.0581  -0.0177   0.0374   0.0468
     0.0777   0.0785   0.1121   0.1592   0.1728   0.2395   0.2506   0.3238
     0.3531   0.3829   0.4584   0.5931   0.6362   0.6809   0.7800   0.7930
     0.9387   1.0378   1.0792   1.2959   1.3009   1.6631   1.7350   1.8581
     3.0909   3.2718   3.3316   3.5751   3.5978   3.6736   3.7080   3.8394
     3.9048   3.9598

[...]

          k = 0.0380-0.0419 0.0000 ( 17876 PWs)   bands (ev):

[...]

          k =-0.0760-0.0000 0.0000 ( 17886 PWs)   bands (ev):

[...]

          k =-0.0760-0.0839 0.0000 ( 17948 PWs)   bands (ev):

   -56.1657 -56.1646 -55.8524 -55.7834 -55.7682 -55.7331 -55.5707 -55.5627
   -55.5409 -55.5385 -55.4702 -55.4660 -55.4632 -55.4162 -54.9305 -54.9304
   -32.4265 -32.4257 -32.4168 -32.4153 -32.3262 -32.3251 -32.2811 -32.1400
   -32.1380 -32.1101 -32.0972 -32.0846 -32.0421 -32.0236 -32.0031 -31.9951
   -31.9788 -31.9202 -31.8859 -31.8787 -31.8701 -31.8662 -31.8113 -31.8098
   -31.7988 -31.7899 -31.7886 -31.7840 -31.7820 -31.7773 -31.7743 -31.7691
   -31.7516 -31.7488 -31.7296 -31.7245 -31.6854 -31.6822 -31.6745 -31.6697
   -31.6658 -31.6339 -31.2643 -31.2642 -31.1611 -31.1608 -31.1225 -31.1224
   -19.5352 -16.7211 -16.0226 -15.9412 -15.8881 -15.8139 -15.7931 -15.6855
   -15.6733 -15.6469 -15.6456 -15.5391 -15.5286 -15.5173 -15.4848 -15.3506
   -15.3428 -15.3085 -15.2993 -15.2448 -15.2339 -15.1263 -15.1235 -15.1154
   -15.1148 -15.0234 -15.0190 -14.9601 -14.9554 -14.8704 -14.8690 -13.4317
   -13.4310 -11.7916  -7.2939  -5.5346  -4.9239  -4.1373  -3.2472  -3.1570
    -3.0833  -3.0407  -2.9890  -2.9173  -2.8876  -2.8583  -2.7922  -2.7791
    -2.7615  -2.7535  -2.6715  -2.6650  -2.6380  -2.6267  -2.5956  -2.5841
    -2.5525  -2.5470  -2.5440  -2.5086  -2.4956  -2.4944  -2.4815  -2.4714
    -2.4011  -2.3978  -2.3683  -2.3552  -2.3284  -2.0927  -2.0627  -2.0604
    -1.9836  -1.9343  -1.8774  -1.8753  -1.8635  -1.8462  -1.6622  -1.5967
    -1.5624  -1.5393  -1.5092  -1.4814  -1.4497  -1.3362  -1.2964  -1.2263
    -1.2215  -1.1539  -1.0886  -1.0399  -1.0221  -0.9627  -0.9589  -0.9406
    -0.9213  -0.8923  -0.8698  -0.7998  -0.7733  -0.7110  -0.6474  -0.6353
    -0.5281  -0.4809  -0.4681  -0.4548  -0.4375  -0.4074  -0.2967  -0.2901
    -0.0690  -0.0137   0.0559   0.1178   0.1260   0.1708   0.2043   0.3024
     0.3417   0.5060   0.5136   0.5495   0.5866   0.7089   0.7117   0.7434
     0.7564   0.8289   0.8356   1.4660   1.4680   1.5169   1.5176   1.7773
     3.6003   3.6343   3.6380   3.6521   3.6878   3.6919   3.7339   3.7589
     3.9715   4.0147

     the Fermi energy is     2.5474 ev

!    total energy              =   -2970.21536361 Ry
     estimated scf accuracy    <       0.00000006 Ry
     smearing contrib. (-TS)   =      -0.00022152 Ry
     internal energy E=F+TS    =   -2970.21514209 Ry

     The total energy is F=E-TS. E is the sum of the following terms:
     one-electron contribution =  -24504.66061588 Ry
     hartree contribution      =   12342.88155965 Ry
     xc contribution           =    -491.70274547 Ry
     ewald contribution        =    9683.26592103 Ry
     electric field correction =       0.00073859 Ry

     convergence has been achieved in  71 iterations

     Forces acting on atoms (cartesian axes, Ry/au):

     atom    1 type  1   force =     0.00007211   -0.00003729    0.14750547
     atom    2 type  1   force =    -0.00007922   -0.00169142   -0.16797185
     atom    3 type  2   force =    -0.00002911    0.00212121   -0.05938785
     atom    4 type  2   force =    -0.00002307   -0.00154571    0.04197180
     atom    5 type  2   force =    -0.02138194    0.00022554    0.00300815
     atom    6 type  2   force =     0.02080143    0.00096365    0.00408277
     atom    7 type  1   force =    -0.00000992   -0.00126514    0.00044748
     atom    8 type  1   force =     0.00010042   -0.00084010   -0.00050128
     atom    9 type  2   force =     0.00001504   -0.00051595   -0.00026580
     atom   10 type  2   force =     0.00011588   -0.00020674    0.00036433
     atom   11 type  2   force =    -0.00080076   -0.00064984   -0.00052590
     atom   12 type  2   force =    -0.00006462   -0.00028422   -0.00077656
     atom   13 type  1   force =     0.00029622    0.00042446   -0.00049949
     atom   14 type  1   force =    -0.00072134   -0.00046777    0.00021123
     atom   15 type  2   force =    -0.00044161    0.00031498   -0.00102150
     atom   16 type  2   force =     0.00035519    0.00051539   -0.00078370
     atom   17 type  2   force =     0.00020174    0.00019146    0.00006880
     atom   18 type  2   force =    -0.00080232   -0.00019049    0.00006874
     atom   19 type  1   force =     0.00155317   -0.00024193   -0.00171104
     atom   20 type  1   force =    -0.00046430   -0.00049615    0.00007052
     atom   21 type  2   force =     0.00004832   -0.00007353    0.10179730
     atom   22 type  2   force =     0.00048415    0.00068068    0.00067271
     atom   23 type  2   force =    -0.07552248    0.00023744   -0.03471879
     atom   24 type  2   force =     0.07548601    0.00069668   -0.03477710
     atom   25 type  1   force =     0.00007009   -0.00020481    0.14782016
     atom   26 type  1   force =    -0.00002710    0.00034289   -0.16800658
     atom   27 type  2   force =     0.00003484    0.00240283   -0.05906094
     atom   28 type  2   force =     0.00011307   -0.00132466    0.04061962
     atom   29 type  2   force =    -0.02166396    0.00009122    0.00330145
     atom   30 type  2   force =     0.02040975    0.00022199    0.00436094
     atom   31 type  1   force =     0.00003599    0.00073791    0.00049247
     atom   32 type  1   force =    -0.00015752    0.00036736   -0.00039671
     atom   33 type  2   force =    -0.00005033    0.00040203   -0.00035823
     atom   34 type  2   force =     0.00021153    0.00004868   -0.00002676
     atom   35 type  2   force =     0.00011168    0.00080234    0.00034703
     atom   36 type  2   force =    -0.00058875   -0.00004932   -0.00046974
     atom   37 type  1   force =     0.00026940   -0.00057040    0.00049630
     atom   38 type  1   force =    -0.00055693   -0.00051643    0.00012398
     atom   39 type  2   force =     0.00024041   -0.00039436    0.00091419
     atom   40 type  2   force =     0.00029279    0.00005730    0.00007658
     atom   41 type  2   force =     0.00098877   -0.00025601   -0.00044662
     atom   42 type  2   force =     0.00168430   -0.00048976    0.00248588
     atom   43 type  1   force =     0.00153853   -0.00043729   -0.00100447
     atom   44 type  1   force =     0.00023108    0.00054126   -0.00030554
     atom   45 type  2   force =     0.00004041   -0.00008058    0.10188757
     atom   46 type  2   force =     0.00032406   -0.00042718    0.00013807
     atom   47 type  2   force =    -0.07554296    0.00003420   -0.03470368
     atom   48 type  2   force =     0.07549416    0.00045542   -0.03480797
     atom   49 type  3   force =     0.00095295    0.00159542    0.00012254
     atom   50 type  3   force =    -0.00473055   -0.00150695   -0.00163542
     atom   51 type  4   force =     0.00072748    0.00069879   -0.00020738
     atom   52 type  5   force =     0.00068794   -0.00058069   -0.00013097
     atom   53 type  5   force =    -0.00033007    0.00017358    0.00104580

     Total force =     0.400974     Total SCF correction =     0.001115
  @ DRIVER MODE: Message from server: STATUS
  @ DRIVER MODE: Message from server: GETFORCE
  @ DRIVER MODE: Returning v,forces,stress,ensemble

     Writing output data file ./calc.save/
  @ DRIVER MODE: Message from server: EXIT
  @ DRIVE MODE: Exiting

     General routines

     Parallel routines

   This run was terminated on:  15:12:26  30Sep2021

   JOB DONE.