     Program PWSCF v.6.7GPU starts on 22Sep2021 at 23:30:58

     R & G space division:  proc/nbgrp/npool/nimage =       8
     Reading input from /storage/home/hcoda1/3/ntian30/research/carbon/CxH_vib/H2O_calc/ads_slab/CH2OHO_c/out_0004/pw.inp
Warning: card &CELL ignored
Warning: card   CELL_DYNAMICS='IPI', ignored
Warning: card / ignored

     Current dimensions of program PWSCF are:
     Max number of different atomic species (ntypx) = 10
     Max number of k-points (npk) =  40000
     Max angular momentum in pseudopotentials (lmaxx) =  3
     Presently no symmetry can be used with electric field

     Message from routine cell_base_init:
     DEPRECATED: use true lattice parameter, not A to a.u. conversion factor

     IMPORTANT: XC functional enforced from input :
     Exchange-correlation= BEEF-VDW
                           (   1   4  43  14   2   0   0)
     Any further DFT definition will be discarded
     Please, verify this is what you really want

  @ DRIVER MODE: Connecting to
 qe_1139763_2941011.sched-torque.pace.gatech.edufiut4r96_scratch
  using UNIX socket
  @ DRIVER MODE: Message from server: STATUS
  @ DRIVER MODE: Message from server: INIT
  @ DRIVER MODE: Receiving replica           0          -1
  @ DRIVER MODE: Receiving encoded integer          25
  @ DRIVER MODE:  SCF:  T  FORCE:  T  STRESS:  F  VC:  F  ENSEMBLE:  F
  @ DRIVER MODE:  SCF:  T  FORCE:  T  STRESS:  F  VC:  F  ENSEMBLE:  F

     Using Slab Decomposition

     bravais-lattice index     =            0
     lattice parameter (alat)  =       1.8897  a.u.
     unit-cell volume          =    6658.9804 (a.u.)^3
     number of atoms/cell      =           53
     number of atomic types    =            4
     number of electrons       =       397.00
     number of Kohn-Sham states=          208
     kinetic-energy cutoff     =      29.3995  Ry
     charge density cutoff     =     293.9946  Ry
     scf convergence threshold =      7.3E-08
     mixing beta               =       0.0500
     number of iterations used =            8  plain     mixing
     Exchange-correlation= BEEF-VDW
                           (   1   4  43  14   2   0   0)

     celldm(1)=   1.889726  celldm(2)=   0.000000  celldm(3)=   0.000000
     celldm(4)=   0.000000  celldm(5)=   0.000000  celldm(6)=   0.000000

     crystal axes: (cart. coord. in units of alat)
               a(1) = (   6.579727   0.000000   0.000000 )
               a(2) = (  -0.000775   5.961596   0.000000 )
               a(3) = (   0.000000   0.000000  25.155947 )

     reciprocal axes: (cart. coord. in units 2 pi/alat)
               b(1) = (  0.151982  0.000020  0.000000 )
               b(2) = (  0.000000  0.167740  0.000000 )
               b(3) = (  0.000000  0.000000  0.039752 )

     PseudoPot. # 1 for O  read from file:
     /storage/coda1/p-amedford6/0/shared/rich_project_chbe-medford/medford-share/data/pseudos_module/espresso/nninc/pbe/van/O.UPF
     MD5 check sum: 78c19812648e8988a0fe644b0f25305e
     Pseudo is Ultrasoft, Zval =  6.0
     Generated by new atomic code, or converted to UPF format
     Using radial grid of  737 points,  4 beta functions with:
                l(1) =   0
                l(2) =   0
                l(3) =   1
                l(4) =   1
     Q(r) pseudized with  8 coefficients,  rinner =    0.800   0.800   0.800

     PseudoPot. # 2 for Ti read from file:
     /storage/coda1/p-amedford6/0/shared/rich_project_chbe-medford/medford-share/data/pseudos_module/espresso/nninc/pbe/van/Ti.UPF
     MD5 check sum: 8e4df49b7f0d34bbd5052bf3f5ea0213
     Pseudo is Ultrasoft, Zval = 12.0
     Generated by new atomic code, or converted to UPF format
     Using radial grid of  851 points,  6 beta functions with:
                l(1) =   0
                l(2) =   0
                l(3) =   1
                l(4) =   1
                l(5) =   2
                l(6) =   2
     Q(r) pseudized with  8 coefficients,  rinner =    1.000   1.000   1.000
                                                       1.000   1.000

     PseudoPot. # 3 for C  read from file:
     /storage/coda1/p-amedford6/0/shared/rich_project_chbe-medford/medford-share/data/pseudos_module/espresso/nninc/pbe/van/C.UPF
     MD5 check sum: 1a69bf6b8db32088f5b2163dbdb77a27
     Pseudo is Ultrasoft, Zval =  4.0
     Generated by new atomic code, or converted to UPF format
     Using radial grid of  721 points,  4 beta functions with:
                l(1) =   0
                l(2) =   0
                l(3) =   1
                l(4) =   1
     Q(r) pseudized with  8 coefficients,  rinner =    0.800   0.800   0.800

     PseudoPot. # 4 for H  read from file:
     /storage/coda1/p-amedford6/0/shared/rich_project_chbe-medford/medford-share/data/pseudos_module/espresso/nninc/pbe/van/H.UPF
     MD5 check sum: b5ee9d7bfd3a09ee7748110bda690ff7
     Pseudo is Ultrasoft, Zval =  1.0
     Generated by new atomic code, or converted to UPF format
     Using radial grid of  615 points,  1 beta functions with:
                l(1) =   0
     Q(r) pseudized with  8 coefficients,  rinner =    0.800

     atomic species   valence    mass     pseudopotential
        O1             6.00    15.99900     O ( 1.00)
        Ti1           12.00    47.86700     Ti( 1.00)
        C1             4.00    12.01100     C ( 1.00)
        H1             1.00     1.00800     H ( 1.00)

     No symmetry found

   Cartesian axes

     site n.     atom                  positions (alat units)
         1           O1  tau(   1) = (   3.2904802   0.0005063   4.7018136  )
         2           O1  tau(   2) = (   3.2900926   2.9813045   4.7018136  )
         3           Ti1 tau(   3) = (   0.0004258   2.9801865   6.0000000  )
         4           Ti1 tau(   4) = (   0.0000382   5.9609847   6.0000000  )
         5           Ti1 tau(   5) = (   3.2906075   1.4906267   6.0002472  )
         6           Ti1 tau(   6) = (   3.2902200   4.4714249   6.0002472  )
         7           O1  tau(   7) = (   1.3043587   1.4918075   6.0039043  )
         8           O1  tau(   8) = (   1.3039711   4.4726057   6.0039043  )
         9           O1  tau(   9) = (   5.2767064   1.4903225   6.0039473  )
        10           O1  tau(  10) = (   5.2763189   4.4711207   6.0039473  )
        11           O1  tau(  11) = (   3.2906025   0.0005020   7.3038282  )
        12           O1  tau(  12) = (   3.2902150   2.9813002   7.3038282  )
        13           O1  tau(  13) = (   0.0006271   0.0005054   7.9858123  )
        14           O1  tau(  14) = (   0.0002396   2.9813036   7.9858123  )
        15           Ti1 tau(  15) = (   3.3202697   0.0919879   9.1698383  )
        16           Ti1 tau(  16) = (   3.3215697   3.0759731   9.1987478  )
        17           Ti1 tau(  17) = (   0.0419684   4.5271873   9.2680259  )
        18           Ti1 tau(  18) = (   0.0391189   1.6041453   9.3419098  )
        19           O1  tau(  19) = (   4.5942328   1.4918067   9.2879030  )
        20           O1  tau(  20) = (   4.5938453   4.4726049   9.2879030  )
        21           O1  tau(  21) = (   1.9868534   1.4903216   9.2879459  )
        22           O1  tau(  22) = (   1.9864658   4.4711199   9.2879459  )
        23           O1  tau(  23) = (   0.0125722   0.0097687  10.5830051  )
        24           O1  tau(  24) = (   0.0081120   2.9918398  10.5664780  )
        25           O1  tau(  25) = (   3.3077729   2.9680546  11.3050536  )
        26           O1  tau(  26) = (   3.3059260   0.0232323  11.3367354  )
        27           Ti1 tau(  27) = (   0.0233359   0.0627999  12.4784840  )
        28           Ti1 tau(  28) = (   3.3058864   4.6637881  12.6801991  )
        29           Ti1 tau(  29) = (   3.3037148   1.5793570  12.4293313  )
        30           Ti1 tau(  30) = (   0.0089448   3.0481173  12.7472709  )
        31           O1  tau(  31) = (   1.2933882   4.4692258  12.6303221  )
        32           O1  tau(  32) = (   1.2985301   1.4993897  12.6236677  )
        33           O1  tau(  33) = (   5.3274268   4.4793405  12.6275207  )
        34           O1  tau(  34) = (   5.3265499   1.4915365  12.6220616  )
        35           O1  tau(  35) = (   3.3295878   2.9786622  13.8932268  )
        36           O1  tau(  36) = (   3.3104420   5.9098017  13.9586718  )
        37           O1  tau(  37) = (   0.0385923   0.0024916  14.6531765  )
        38           O1  tau(  38) = (   0.0086518   2.9873893  14.7004014  )
        39           Ti1 tau(  39) = (   3.3201234   2.9526136  15.6695435  )
        40           Ti1 tau(  40) = (   3.4185286   5.9334276  16.2343674  )
        41           Ti1 tau(  41) = (   0.1049196   4.5923083  15.9423708  )
        42           Ti1 tau(  42) = (   0.0892020   1.3980244  15.8930203  )
        43           O1  tau(  43) = (   4.5900789   4.4270775  16.0984088  )
        44           O1  tau(  44) = (   4.5919070   1.5192920  16.0669747  )
        45           O1  tau(  45) = (   2.0372030   1.5514537  16.0349210  )
        46           O1  tau(  46) = (   2.0392294   4.4021701  16.0428288  )
        47           O1  tau(  47) = (   0.0638787   0.0130652  17.1658208  )
        48           O1  tau(  48) = (   6.5756481   2.9929514  17.4361268  )
        49           C1  tau(  49) = (   6.2652767   2.9703434  18.6584371  )
        50           H1  tau(  50) = (   6.1492679   3.9148029  19.1865895  )
        51           H1  tau(  51) = (   6.0998186   2.0156765  19.1535163  )
        52           O1  tau(  52) = (   3.1909063   0.0039016  18.0657888  )
        53           H1  tau(  53) = (   2.2823347   0.1153277  18.3895531  )

     number of k points=    10  Fermi-Dirac smearing, width (Ry)=  0.0073
                       cart. coord. in units 2pi/alat
        k(    1) = (   0.0000000   0.0000000   0.0000000), wk =   0.1250000
        k(    2) = (   0.0000000   0.0419351   0.0000000), wk =   0.2500000
        k(    3) = (   0.0000000  -0.0838702   0.0000000), wk =   0.1250000
        k(    4) = (   0.0379955   0.0000049   0.0000000), wk =   0.2500000
        k(    5) = (   0.0379955   0.0419400   0.0000000), wk =   0.2500000
        k(    6) = (   0.0379955  -0.0838652   0.0000000), wk =   0.2500000
        k(    7) = (   0.0379955  -0.0419301   0.0000000), wk =   0.2500000
        k(    8) = (  -0.0759910  -0.0000099   0.0000000), wk =   0.1250000
        k(    9) = (  -0.0759910   0.0419252   0.0000000), wk =   0.2500000
        k(   10) = (  -0.0759910  -0.0838800   0.0000000), wk =   0.1250000

     Initial potential from superposition of free atoms

     starting charge  380.99918, renormalised to  397.00000

     negative rho (up, down):  1.768E-02 0.000E+00

     %%%%%%%%%%%%%%%%%%%%%%%%%%%%%%%%%%%%%%%%%%%%%%%%%%%%%%%%%%%%%%%%%%%%%%%%
     %                                                                      %
     % You are using vdW-DF, which was implemented by the Thonhauser group. %
     % Please cite the following two papers that made this development      %
     % possible and the two reviews that describe the various versions:     %
     %                                                                      %
     %   T. Thonhauser et al., PRL 115, 136402 (2015).                      %
     %   T. Thonhauser et al., PRB 76, 125112 (2007).                       %
     %   K. Berland et al., Rep. Prog. Phys. 78, 066501 (2015).             %
     %   D.C. Langreth et al., J. Phys.: Condens. Matter 21, 084203 (2009). %
     %                                                                      %
     %                                                                      %
     % If you are calculating the stress with vdW-DF, please also cite:     %
     %                                                                      %
     %   R. Sabatini et al., J. Phys.: Condens. Matter 24, 424209 (2012).   %
     %                                                                      %
     %%%%%%%%%%%%%%%%%%%%%%%%%%%%%%%%%%%%%%%%%%%%%%%%%%%%%%%%%%%%%%%%%%%%%%%%

     Adding external electric field

     Computed dipole along edir(3) :
        Dipole               -8.4002 Ry au,        -21.3511 Debye
        Dipole field         -0.0159 Ry au,

        Potential amp.        1.4695 Ry
        Total length         46.3494 bohr

     Starting wfcs are  299 atomic wfcs
  @ DRIVER MODE: Message from server: STATUS
  @ DRIVER MODE: Message from server: POSDATA
  @ DRIVER MODE: Reading and sharing cell
  @ DRIVER MODE: Reading and sharing positions
  @ DRIVER MODE: Received positions

     Self-consistent Calculation

     iteration #  1     ecut=    29.40 Ry     beta= 0.05
     Davidson diagonalization with overlap
     c_bands:  1 eigenvalues not converged
     c_bands:  1 eigenvalues not converged
     c_bands:  1 eigenvalues not converged
     c_bands:  1 eigenvalues not converged
     ethr =  1.00E-05,  avg # of iterations = 18.2

[...]

     total energy              =   -2610.75033603 Ry
     estimated scf accuracy    <    3908.88431476 Ry

     iteration #  2     ecut=    29.40 Ry     beta= 0.05
     Davidson diagonalization with overlap
     ethr =  1.00E-02,  avg # of iterations = 23.4

[...]

     iteration # 65     ecut=    29.40 Ry     beta= 0.05
     Davidson diagonalization with overlap
     c_bands:  1 eigenvalues not converged
     ethr =  6.19E-09,  avg # of iterations = 15.3

[...]

     total energy              =   -2963.78477283 Ry
     estimated scf accuracy    <       0.00000020 Ry

     iteration # 77     ecut=    29.40 Ry     beta= 0.05
     Davidson diagonalization with overlap
     ethr =  4.84E-11,  avg # of iterations =  5.8

     negative rho (up, down):  1.717E-02 0.000E+00

     Adding external electric field

     Computed dipole along edir(3) :
        Dipole                0.8858 Ry au,          2.2514 Debye
        Dipole field          0.0017 Ry au,

        Potential amp.       -0.1549 Ry
        Total length         46.3494 bohr

     End of self-consistent calculation

          k = 0.0000 0.0000 0.0000 ( 18029 PWs)   bands (ev):

   -55.9294 -55.8882 -55.7863 -55.7088 -55.6748 -55.6679 -55.6586 -55.5999
   -55.5655 -55.5448 -55.5229 -55.4866 -55.4661 -55.3745 -54.7738 -54.7398
   -32.3815 -32.2486 -32.2233 -32.1872 -32.1858 -32.1363 -32.1248 -32.0879
   -32.0683 -32.0154 -32.0125 -32.0046 -32.0004 -31.9933 -31.9747 -31.9576
   -31.9410 -31.9300 -31.8877 -31.8843 -31.8709 -31.8548 -31.8520 -31.8367
   -31.8103 -31.8044 -31.7782 -31.7716 -31.7694 -31.7592 -31.7471 -31.7412
   -31.7359 -31.7249 -31.7012 -31.6884 -31.6830 -31.6582 -31.6388 -31.6214
   -31.5806 -31.5794 -31.1762 -31.1005 -31.0772 -30.9933 -30.9074 -30.7959
   -20.2048 -16.5712 -16.4247 -16.2530 -16.0625 -15.9682 -15.9065 -15.6923
   -15.6377 -15.5394 -15.4183 -15.3834 -15.3391 -15.3125 -15.2947 -15.2802
   -15.2636 -15.2447 -15.2117 -15.1905 -15.1846 -15.1408 -15.0721 -15.0260
   -15.0177 -14.9779 -14.9189 -14.8773 -14.8396 -14.8000 -14.6233 -13.2746
   -13.1608  -9.4685  -5.7798  -5.7246  -4.1620  -3.7942  -3.7670  -3.7372
    -3.6515  -3.6130  -3.5087  -3.3443  -3.1627  -3.0350  -2.9444  -2.9271
    -2.8884  -2.7755  -2.7248  -2.6920  -2.6502  -2.6203  -2.6019  -2.5596
    -2.5372  -2.4969  -2.4638  -2.4357  -2.3446  -2.3373  -2.2770  -2.2162
    -2.1835  -2.1747  -2.1692  -2.1463  -2.1108  -2.0564  -2.0210  -1.9863
    -1.9490  -1.8312  -1.8133  -1.7977  -1.7254  -1.4841  -1.3535  -1.3133
    -1.2594  -1.2168  -1.1937  -1.1691  -1.1635  -1.1442  -1.1116  -1.0629
    -0.9595  -0.9009  -0.8309  -0.8249  -0.8084  -0.7454  -0.6659  -0.5949
    -0.5566  -0.5264  -0.5026  -0.4275  -0.4269  -0.3531  -0.3225  -0.2506
    -0.1366  -0.0886  -0.0651  -0.0467  -0.0338   0.0197   0.0661   0.1341
     0.1534   0.1695   0.1981   0.2777   0.2873   0.3102   0.3286   0.4250
     0.4890   0.4974   0.5661   0.6578   0.6906   0.7736   0.9015   0.9776
     1.2237   1.2482   1.3335   1.4638   1.8096   1.8536   3.2861   3.3571
     3.3943   3.4951   3.5779   3.5974   3.6757   3.7353   3.8229   3.8671

[...]

          k = 0.0380-0.0419 0.0000 ( 17876 PWs)   bands (ev):

[...]

          k =-0.0760-0.0000 0.0000 ( 17886 PWs)   bands (ev):

[...]

          k =-0.0760-0.0839 0.0000 ( 17948 PWs)   bands (ev):

   -55.9204 -55.8970 -55.7853 -55.6955 -55.6879 -55.6654 -55.6528 -55.6055
   -55.5664 -55.5470 -55.5115 -55.4982 -55.4630 -55.3776 -54.7573 -54.7562
   -32.2174 -32.2065 -32.1868 -32.1807 -32.1587 -32.0589 -32.0471 -32.0451
   -32.0302 -32.0183 -32.0111 -32.0036 -32.0014 -31.9563 -31.9505 -31.9244
   -31.9066 -31.9039 -31.8983 -31.8847 -31.8825 -31.8765 -31.8724 -31.8672
   -31.8576 -31.8437 -31.8219 -31.8125 -31.8036 -31.7980 -31.7734 -31.7631
   -31.7515 -31.7308 -31.7272 -31.7256 -31.7218 -31.7200 -31.6816 -31.6616
   -31.6239 -31.5832 -31.0906 -31.0895 -30.9906 -30.9888 -30.9506 -30.9493
   -20.1990 -16.5375 -15.9358 -15.8814 -15.7312 -15.7046 -15.6609 -15.6063
   -15.5481 -15.5063 -15.4963 -15.4601 -15.4414 -15.4165 -15.3953 -15.3673
   -15.3417 -15.2952 -15.2876 -15.2408 -15.2314 -15.2117 -15.1856 -15.1537
   -15.0998 -15.0866 -15.0670 -15.0351 -15.0139 -14.9253 -14.7600 -13.2643
   -13.2623  -9.4704  -5.7665  -5.7103  -4.1257  -3.7875  -3.1725  -3.1003
    -2.9548  -2.8771  -2.8106  -2.7888  -2.7731  -2.7424  -2.6769  -2.6564
    -2.6016  -2.5969  -2.5884  -2.5782  -2.5642  -2.5213  -2.4919  -2.4770
    -2.4701  -2.4518  -2.4238  -2.4099  -2.3961  -2.3842  -2.3743  -2.3676
    -2.3154  -2.2527  -2.1716  -2.1238  -2.1056  -1.9814  -1.9638  -1.9038
    -1.8909  -1.8836  -1.8522  -1.8482  -1.7757  -1.7207  -1.5672  -1.5504
    -1.5103  -1.4488  -1.4166  -1.3300  -1.3138  -1.2817  -1.2330  -1.2184
    -1.1960  -1.1763  -1.0787  -0.9998  -0.9576  -0.9184  -0.8060  -0.7900
    -0.7748  -0.7110  -0.6891  -0.6796  -0.6717  -0.6073  -0.5454  -0.4972
    -0.4791  -0.4427  -0.4223  -0.3742  -0.3160  -0.2375  -0.1670  -0.0965
    -0.0666   0.0408   0.1177   0.1552   0.2693   0.3256   0.3554   0.3835
     0.4522   0.5078   0.5260   0.6100   0.6805   0.7003   0.7581   0.7911
     0.8304   0.8652   1.6199   1.6328   1.6645   1.6751   3.2495   3.7764
     3.7862   3.7999   3.8187   3.8430   3.8669   3.9534   4.0031   4.0058

     the Fermi energy is     3.2263 ev

!    total energy              =   -2963.78478035 Ry
     estimated scf accuracy    <       0.00000004 Ry
     smearing contrib. (-TS)   =      -0.01873863 Ry
     internal energy E=F+TS    =   -2963.76604172 Ry

     The total energy is F=E-TS. E is the sum of the following terms:
     one-electron contribution =  -24352.11184953 Ry
     hartree contribution      =   12266.17252510 Ry
     xc contribution           =    -489.27450628 Ry
     ewald contribution        =    9611.44630842 Ry
     electric field correction =       0.00148057 Ry

     convergence has been achieved in  77 iterations

     Forces acting on atoms (cartesian axes, Ry/au):

     atom    1 type  1   force =    -0.00007027    0.00012682    0.10167287
     atom    2 type  1   force =    -0.00006620    0.00015604    0.10134866
     atom    3 type  2   force =    -0.00029186   -0.00136955    0.10431180
     atom    4 type  2   force =    -0.00022809    0.00134926    0.11679234
     atom    5 type  2   force =    -0.00034227    0.00599621   -0.16906931
     atom    6 type  2   force =    -0.00007789   -0.00499512   -0.16913477
     atom    7 type  1   force =    -0.07473407    0.00067726   -0.03017413
     atom    8 type  1   force =    -0.07427356   -0.00133246   -0.03017572
     atom    9 type  1   force =     0.07440837    0.00121331   -0.03022155
     atom   10 type  1   force =     0.07408725   -0.00091487   -0.03024179
     atom   11 type  1   force =     0.00083387    0.00106120    0.04727731
     atom   12 type  1   force =     0.00077861    0.00082304    0.04928078
     atom   13 type  1   force =     0.00026428   -0.00562830   -0.03768511
     atom   14 type  1   force =     0.00053776    0.00416613   -0.03207624
     atom   15 type  2   force =    -0.00043642    0.00078647   -0.00018149
     atom   16 type  2   force =    -0.00038638   -0.00081346   -0.00018769
     atom   17 type  2   force =     0.00029368   -0.00003779    0.00050412
     atom   18 type  2   force =     0.00026715    0.00013633    0.00103192
     atom   19 type  1   force =    -0.00989729   -0.00202557    0.00041784
     atom   20 type  1   force =    -0.00988067    0.00493186    0.00133249
     atom   21 type  1   force =     0.01190294   -0.00463480    0.00142367
     atom   22 type  1   force =     0.01107679    0.00175002    0.00190525
     atom   23 type  1   force =    -0.00025034    0.00002895    0.00019414
     atom   24 type  1   force =    -0.00027075    0.00003452   -0.00039306
     atom   25 type  1   force =    -0.00036680   -0.00040996   -0.00038857
     atom   26 type  1   force =    -0.00021340   -0.00007054   -0.00008101
     atom   27 type  2   force =    -0.00030918   -0.00021773   -0.00003313
     atom   28 type  2   force =     0.00016159   -0.00021373    0.00054256
     atom   29 type  2   force =     0.00033636   -0.00043638   -0.00076079
     atom   30 type  2   force =    -0.00015715    0.00030463    0.00012082
     atom   31 type  1   force =     0.00002910    0.00057231    0.00026118
     atom   32 type  1   force =     0.00041052    0.00019351   -0.00005033
     atom   33 type  1   force =    -0.00032733    0.00031930    0.00062828
     atom   34 type  1   force =    -0.00090094    0.00055155    0.00014276
     atom   35 type  1   force =    -0.00046116   -0.00047490   -0.00080319
     atom   36 type  1   force =    -0.00019319   -0.00018606   -0.00003320
     atom   37 type  1   force =    -0.00014432    0.00039594    0.00036560
     atom   38 type  1   force =     0.00039729    0.00024474    0.00013631
     atom   39 type  2   force =    -0.00000504    0.00055044    0.00065465
     atom   40 type  2   force =    -0.00005476   -0.00070823    0.00033209
     atom   41 type  2   force =    -0.00013824    0.00014804    0.00052154
     atom   42 type  2   force =    -0.00033728   -0.00040801   -0.00014599
     atom   43 type  1   force =    -0.00007335    0.00003394   -0.00035361
     atom   44 type  1   force =    -0.00017185    0.00005450   -0.00015355
     atom   45 type  1   force =     0.00053000    0.00001522   -0.00004194
     atom   46 type  1   force =    -0.00008539   -0.00002214   -0.00034546
     atom   47 type  1   force =     0.00027918    0.00036416    0.00025994
     atom   48 type  1   force =    -0.00032016   -0.00422845    0.00049288
     atom   49 type  3   force =    -0.00018882    0.00366729   -0.00032346
     atom   50 type  4   force =    -0.00100292   -0.00028079    0.00145254
     atom   51 type  4   force =    -0.00003302   -0.00089029   -0.00075593
     atom   52 type  1   force =    -0.00076796    0.00030307    0.00122438
     atom   53 type  4   force =     0.00086356   -0.00065693   -0.00081771

     Total force =     0.368654     Total SCF correction =     0.000547
  @ DRIVER MODE: Message from server: STATUS
  @ DRIVER MODE: Message from server: GETFORCE
  @ DRIVER MODE: Returning v,forces,stress,ensemble

     Writing output data file ./calc.save/
  @ DRIVER MODE: Message from server: EXIT
  @ DRIVE MODE: Exiting

     General routines

     Parallel routines

   This run was terminated on:  23:56: 1  22Sep2021

   JOB DONE.