     Program PWSCF v.6.7GPU starts on 14Sep2021 at 19:28:41

     R & G space division:  proc/nbgrp/npool/nimage =      10
     Reading input from /storage/home/hcoda1/3/ntian30/research/carbon/CxH_vib/CH_calc/ads_slab/CHON2_d/out_0018/pw.inp
Warning: card &CELL ignored
Warning: card   CELL_DYNAMICS='IPI', ignored
Warning: card / ignored

     Current dimensions of program PWSCF are:
     Max number of different atomic species (ntypx) = 10
     Max number of k-points (npk) =  40000
     Max angular momentum in pseudopotentials (lmaxx) =  3
     Presently no symmetry can be used with electric field

     Message from routine cell_base_init:
     DEPRECATED: use true lattice parameter, not A to a.u. conversion factor

     IMPORTANT: XC functional enforced from input :
     Exchange-correlation= BEEF-VDW
                           (   1   4  43  14   2   0   0)
     Any further DFT definition will be discarded
     Please, verify this is what you really want

  @ DRIVER MODE: Connecting to
 qe_1139763_2840438.sched-torque.pace.gatech.edui2y8dzdo_scratch
  using UNIX socket
  @ DRIVER MODE: Message from server: STATUS
  @ DRIVER MODE: Message from server: INIT
  @ DRIVER MODE: Receiving replica           0          -1
  @ DRIVER MODE: Receiving encoded integer          25
  @ DRIVER MODE:  SCF:  T  FORCE:  T  STRESS:  F  VC:  F  ENSEMBLE:  F
  @ DRIVER MODE:  SCF:  T  FORCE:  T  STRESS:  F  VC:  F  ENSEMBLE:  F

     Using Slab Decomposition

     bravais-lattice index     =            0
     lattice parameter (alat)  =       1.8897  a.u.
     unit-cell volume          =    6658.9804 (a.u.)^3
     number of atoms/cell      =           52
     number of atomic types    =            5
     number of electrons       =       399.00
     number of Kohn-Sham states=          209
     kinetic-energy cutoff     =      29.3995  Ry
     charge density cutoff     =     293.9946  Ry
     scf convergence threshold =      7.3E-08
     mixing beta               =       0.0500
     number of iterations used =            8  plain     mixing
     Exchange-correlation= BEEF-VDW
                           (   1   4  43  14   2   0   0)

     celldm(1)=   1.889726  celldm(2)=   0.000000  celldm(3)=   0.000000
     celldm(4)=   0.000000  celldm(5)=   0.000000  celldm(6)=   0.000000

     crystal axes: (cart. coord. in units of alat)
               a(1) = (   6.579727   0.000000   0.000000 )
               a(2) = (  -0.000775   5.961596   0.000000 )
               a(3) = (   0.000000   0.000000  25.155947 )

     reciprocal axes: (cart. coord. in units 2 pi/alat)
               b(1) = (  0.151982  0.000020  0.000000 )
               b(2) = (  0.000000  0.167740  0.000000 )
               b(3) = (  0.000000  0.000000  0.039752 )

     PseudoPot. # 1 for O  read from file:
     /storage/coda1/p-amedford6/0/shared/rich_project_chbe-medford/medford-share/data/pseudos_module/espresso/nninc/pbe/van/O.UPF
     MD5 check sum: 78c19812648e8988a0fe644b0f25305e
     Pseudo is Ultrasoft, Zval =  6.0
     Generated by new atomic code, or converted to UPF format
     Using radial grid of  737 points,  4 beta functions with:
                l(1) =   0
                l(2) =   0
                l(3) =   1
                l(4) =   1
     Q(r) pseudized with  8 coefficients,  rinner =    0.800   0.800   0.800

     PseudoPot. # 2 for Ti read from file:
     /storage/coda1/p-amedford6/0/shared/rich_project_chbe-medford/medford-share/data/pseudos_module/espresso/nninc/pbe/van/Ti.UPF
     MD5 check sum: 8e4df49b7f0d34bbd5052bf3f5ea0213
     Pseudo is Ultrasoft, Zval = 12.0
     Generated by new atomic code, or converted to UPF format
     Using radial grid of  851 points,  6 beta functions with:
                l(1) =   0
                l(2) =   0
                l(3) =   1
                l(4) =   1
                l(5) =   2
                l(6) =   2
     Q(r) pseudized with  8 coefficients,  rinner =    1.000   1.000   1.000
                                                       1.000   1.000

     PseudoPot. # 3 for C  read from file:
     /storage/coda1/p-amedford6/0/shared/rich_project_chbe-medford/medford-share/data/pseudos_module/espresso/nninc/pbe/van/C.UPF
     MD5 check sum: 1a69bf6b8db32088f5b2163dbdb77a27
     Pseudo is Ultrasoft, Zval =  4.0
     Generated by new atomic code, or converted to UPF format
     Using radial grid of  721 points,  4 beta functions with:
                l(1) =   0
                l(2) =   0
                l(3) =   1
                l(4) =   1
     Q(r) pseudized with  8 coefficients,  rinner =    0.800   0.800   0.800

     PseudoPot. # 4 for H  read from file:
     /storage/coda1/p-amedford6/0/shared/rich_project_chbe-medford/medford-share/data/pseudos_module/espresso/nninc/pbe/van/H.UPF
     MD5 check sum: b5ee9d7bfd3a09ee7748110bda690ff7
     Pseudo is Ultrasoft, Zval =  1.0
     Generated by new atomic code, or converted to UPF format
     Using radial grid of  615 points,  1 beta functions with:
                l(1) =   0
     Q(r) pseudized with  8 coefficients,  rinner =    0.800

     PseudoPot. # 5 for N  read from file:
     /storage/coda1/p-amedford6/0/shared/rich_project_chbe-medford/medford-share/data/pseudos_module/espresso/nninc/pbe/van/N.UPF
     MD5 check sum: 90d10febe142ad51ac9d5be1deb811c4
     Pseudo is Ultrasoft, Zval =  5.0
     Generated by new atomic code, or converted to UPF format
     Using radial grid of  729 points,  4 beta functions with:
                l(1) =   0
                l(2) =   0
                l(3) =   1
                l(4) =   1
     Q(r) pseudized with  8 coefficients,  rinner =    0.800   0.800   0.800

     atomic species   valence    mass     pseudopotential
        O1             6.00    15.99900     O ( 1.00)
        Ti1           12.00    47.86700     Ti( 1.00)
        C1             4.00    12.01100     C ( 1.00)
        H1             1.00     1.00800     H ( 1.00)
        N1             5.00    14.00700     N ( 1.00)

     No symmetry found

   Cartesian axes

     site n.     atom                  positions (alat units)
         1           O1  tau(   1) = (   3.2904802   0.0005063   4.7018136  )
         2           O1  tau(   2) = (   3.2900926   2.9813045   4.7018136  )
         3           Ti1 tau(   3) = (   0.0004258   2.9801865   6.0000000  )
         4           Ti1 tau(   4) = (   0.0000382   5.9609847   6.0000000  )
         5           Ti1 tau(   5) = (   3.2906075   1.4906267   6.0002472  )
         6           Ti1 tau(   6) = (   3.2902200   4.4714249   6.0002472  )
         7           O1  tau(   7) = (   1.3043587   1.4918075   6.0039043  )
         8           O1  tau(   8) = (   1.3039711   4.4726057   6.0039043  )
         9           O1  tau(   9) = (   5.2767064   1.4903225   6.0039473  )
        10           O1  tau(  10) = (   5.2763189   4.4711207   6.0039473  )
        11           O1  tau(  11) = (   3.2906025   0.0005020   7.3038282  )
        12           O1  tau(  12) = (   3.2902150   2.9813002   7.3038282  )
        13           O1  tau(  13) = (   0.0006271   0.0005054   7.9858123  )
        14           O1  tau(  14) = (   0.0002396   2.9813036   7.9858123  )
        15           Ti1 tau(  15) = (   3.2818399   0.0632074   9.1536190  )
        16           Ti1 tau(  16) = (   3.2594741   3.0397892   9.1577678  )
        17           Ti1 tau(  17) = (   6.5510804   4.5344316   9.2678866  )
        18           O1  tau(  18) = (   4.5942328   1.4918067   9.2879030  )
        19           O1  tau(  19) = (   4.5938453   4.4726049   9.2879030  )
        20           O1  tau(  20) = (   1.9868534   1.4903216   9.2879459  )
        21           O1  tau(  21) = (   1.9864658   4.4711199   9.2879459  )
        22           Ti1 tau(  22) = (   6.5572888   1.6134915   9.3644180  )
        23           O1  tau(  23) = (   0.0036999   2.9964159  10.5720758  )
        24           O1  tau(  24) = (   0.0032988   0.0129995  10.6087427  )
        25           O1  tau(  25) = (   3.3025789   3.0011443  11.3496891  )
        26           O1  tau(  26) = (   3.3069272   0.0203573  11.3499924  )
        27           Ti1 tau(  27) = (   3.3485197   1.5170776  12.4945998  )
        28           Ti1 tau(  28) = (   0.0476823   0.0282983  12.5166062  )
        29           Ti1 tau(  29) = (   3.3474104   4.4962924  12.4903914  )
        30           O1  tau(  30) = (   1.2998870   1.5091839  12.6411902  )
        31           O1  tau(  31) = (   5.2998363   1.5142331  12.6477699  )
        32           O1  tau(  32) = (   1.2995728   4.4957929  12.6443136  )
        33           O1  tau(  33) = (   5.3001588   4.4888893  12.6515721  )
        34           Ti1 tau(  34) = (   0.0405098   3.0100001  12.8178096  )
        35           O1  tau(  35) = (   3.3017622   3.0020563  13.9311684  )
        36           O1  tau(  36) = (   3.3043745   0.0240830  13.9418183  )
        37           O1  tau(  37) = (   0.0425158   3.0055145  14.7122960  )
        38           O1  tau(  38) = (   0.0212564   0.0294349  14.7090242  )
        39           Ti1 tau(  39) = (   3.3143756   3.0090542  15.7253892  )
        40           Ti1 tau(  40) = (   3.3278308   0.0282705  15.7347533  )
        41           Ti1 tau(  41) = (   0.0474550   4.6028283  15.9859659  )
        42           O1  tau(  42) = (   4.5544755   4.4960427  16.0754871  )
        43           O1  tau(  43) = (   2.0560418   4.4875074  16.0954883  )
        44           O1  tau(  44) = (   4.5513302   1.5206081  16.0934294  )
        45           O1  tau(  45) = (   2.0557237   1.5274495  16.1011513  )
        46           Ti1 tau(  46) = (   0.0476892   1.4302431  16.0559646  )
        47           O1  tau(  47) = (   0.0145416   0.0172736  17.2235231  )
        48           O1  tau(  48) = (   6.5187403   2.9994048  17.3870116  )
        49           C1  tau(  49) = (   5.9068627   3.1321688  18.5844627  )
        50           H1  tau(  50) = (   5.7866629   4.0998533  19.0561414  )
        51           N1  tau(  51) = (   5.4444810   2.0886009  19.2066540  )
        52           N1  tau(  52) = (   5.0309896   1.1542324  19.7398597  )

     number of k points=    10  Fermi-Dirac smearing, width (Ry)=  0.0073
                       cart. coord. in units 2pi/alat
        k(    1) = (   0.0000000   0.0000000   0.0000000), wk =   0.1250000
        k(    2) = (   0.0000000   0.0419351   0.0000000), wk =   0.2500000
        k(    3) = (   0.0000000  -0.0838702   0.0000000), wk =   0.1250000
        k(    4) = (   0.0379955   0.0000049   0.0000000), wk =   0.2500000
        k(    5) = (   0.0379955   0.0419400   0.0000000), wk =   0.2500000
        k(    6) = (   0.0379955  -0.0838652   0.0000000), wk =   0.2500000
        k(    7) = (   0.0379955  -0.0419301   0.0000000), wk =   0.2500000
        k(    8) = (  -0.0759910  -0.0000099   0.0000000), wk =   0.1250000
        k(    9) = (  -0.0759910   0.0419252   0.0000000), wk =   0.2500000
        k(   10) = (  -0.0759910  -0.0838800   0.0000000), wk =   0.1250000

     Initial potential from superposition of free atoms

     starting charge  382.99918, renormalised to  399.00000

     negative rho (up, down):  1.729E-02 0.000E+00

     %%%%%%%%%%%%%%%%%%%%%%%%%%%%%%%%%%%%%%%%%%%%%%%%%%%%%%%%%%%%%%%%%%%%%%%%
     %                                                                      %
     % You are using vdW-DF, which was implemented by the Thonhauser group. %
     % Please cite the following two papers that made this development      %
     % possible and the two reviews that describe the various versions:     %
     %                                                                      %
     %   T. Thonhauser et al., PRL 115, 136402 (2015).                      %
     %   T. Thonhauser et al., PRB 76, 125112 (2007).                       %
     %   K. Berland et al., Rep. Prog. Phys. 78, 066501 (2015).             %
     %   D.C. Langreth et al., J. Phys.: Condens. Matter 21, 084203 (2009). %
     %                                                                      %
     %                                                                      %
     % If you are calculating the stress with vdW-DF, please also cite:     %
     %                                                                      %
     %   R. Sabatini et al., J. Phys.: Condens. Matter 24, 424209 (2012).   %
     %                                                                      %
     %%%%%%%%%%%%%%%%%%%%%%%%%%%%%%%%%%%%%%%%%%%%%%%%%%%%%%%%%%%%%%%%%%%%%%%%

     Adding external electric field

     Computed dipole along edir(3) :
        Dipole              -10.9264 Ry au,        -27.7721 Debye
        Dipole field         -0.0206 Ry au,

        Potential amp.        1.9114 Ry
        Total length         46.3494 bohr

     Starting wfcs are  301 atomic wfcs
  @ DRIVER MODE: Message from server: STATUS
  @ DRIVER MODE: Message from server: POSDATA
  @ DRIVER MODE: Reading and sharing cell
  @ DRIVER MODE: Reading and sharing positions
  @ DRIVER MODE: Received positions

     Self-consistent Calculation

     iteration #  1     ecut=    29.40 Ry     beta= 0.05
     Davidson diagonalization with overlap
     c_bands:  1 eigenvalues not converged
     c_bands:  3 eigenvalues not converged
     c_bands:  1 eigenvalues not converged
     c_bands:  2 eigenvalues not converged
     c_bands:  3 eigenvalues not converged
     c_bands:  2 eigenvalues not converged
     c_bands:  2 eigenvalues not converged
     c_bands:  4 eigenvalues not converged
     c_bands:  3 eigenvalues not converged
     ethr =  1.00E-05,  avg # of iterations = 19.6

[...]

     total energy              =   -2496.09837996 Ry
     estimated scf accuracy    <    5311.87789160 Ry

     iteration #  2     ecut=    29.40 Ry     beta= 0.05
     Davidson diagonalization with overlap
     ethr =  1.00E-02,  avg # of iterations = 22.7

[...]

     iteration # 73     ecut=    29.40 Ry     beta= 0.05
     Davidson diagonalization with overlap
     c_bands:  1 eigenvalues not converged
     ethr =  4.56E-11,  avg # of iterations = 13.5

[...]

     total energy              =   -2969.03736454 Ry
     estimated scf accuracy    <       0.00000012 Ry

     iteration # 75     ecut=    29.40 Ry     beta= 0.05
     Davidson diagonalization with overlap
     ethr =  3.07E-11,  avg # of iterations = 13.0

     negative rho (up, down):  1.694E-02 0.000E+00

     Adding external electric field

     Computed dipole along edir(3) :
        Dipole                0.4437 Ry au,          1.1278 Debye
        Dipole field          0.0008 Ry au,

        Potential amp.       -0.0776 Ry
        Total length         46.3494 bohr

     End of self-consistent calculation

          k = 0.0000 0.0000 0.0000 ( 18029 PWs)   bands (ev):

   -55.9418 -55.9279 -55.9049 -55.8917 -55.8300 -55.8094 -55.7854 -55.7692
   -55.7637 -55.7185 -55.7160 -55.6979 -55.6640 -55.5947 -54.9564 -54.9223
   -32.4922 -32.4103 -32.3267 -32.2981 -32.2659 -32.2419 -32.2346 -32.2126
   -32.1783 -32.1696 -32.1515 -32.1449 -32.1401 -32.1087 -32.1017 -32.0724
   -32.0716 -32.0673 -32.0634 -32.0325 -32.0270 -32.0069 -32.0064 -31.9902
   -31.9835 -31.9669 -31.9508 -31.9453 -31.9355 -31.9326 -31.9280 -31.9217
   -31.9207 -31.9143 -31.8788 -31.8762 -31.8468 -31.8431 -31.8178 -31.8039
   -31.7851 -31.7821 -31.3661 -31.2691 -31.2468 -31.1829 -31.0969 -30.9856
   -20.4961 -18.6595 -16.6869 -16.3965 -16.2475 -16.1040 -16.0692 -15.9517
   -15.7833 -15.6623 -15.6272 -15.5619 -15.5125 -15.5087 -15.4919 -15.4797
   -15.4650 -15.4557 -15.4351 -15.3777 -15.3704 -15.3466 -15.3264 -15.2888
   -15.2260 -15.1526 -15.1026 -15.0619 -15.0147 -14.9482 -14.9298 -13.4568
   -13.4509 -13.3386  -6.9101  -5.8768  -4.5881  -4.0407  -3.8724  -3.8670
    -3.8328  -3.7531  -3.6154  -3.5096  -3.4965  -3.3032  -3.1879  -3.1212
    -3.0931  -3.0777  -3.0694  -2.8822  -2.8794  -2.8183  -2.7697  -2.7580
    -2.7549  -2.7271  -2.7120  -2.6855  -2.6624  -2.6538  -2.6000  -2.4805
    -2.3596  -2.3467  -2.3265  -2.2443  -2.2362  -2.2238  -2.2191  -2.1946
    -2.1659  -2.1544  -2.1459  -2.0620  -1.9779  -1.8916  -1.8614  -1.7656
    -1.7281  -1.6420  -1.4571  -1.4100  -1.3587  -1.3452  -1.3335  -1.2932
    -1.2591  -1.2102  -1.1628  -1.1381  -1.0616  -0.9632  -0.9448  -0.8556
    -0.7978  -0.7539  -0.6872  -0.6686  -0.6603  -0.6458  -0.5248  -0.4219
    -0.4091  -0.3844  -0.2833  -0.2344  -0.2249  -0.1714  -0.1572  -0.1211
    -0.0725  -0.0174   0.0156   0.0216   0.0548   0.0643   0.1070   0.2255
     0.2480   0.2533   0.3385   0.3668   0.5278   0.5699   0.7014   0.7892
     0.9713   1.0682   1.1333   1.2390   1.6567   1.7160   2.6049   3.2437
     3.2735   3.3055   3.3430   3.3981   3.5061   3.6524   3.6820   3.7008
     3.7252

[...]

          k = 0.0380-0.0419 0.0000 ( 17876 PWs)   bands (ev):

[...]

          k =-0.0760-0.0000 0.0000 ( 17886 PWs)   bands (ev):

[...]

          k =-0.0760-0.0839 0.0000 ( 17948 PWs)   bands (ev):

   -55.9305 -55.9160 -55.9110 -55.9084 -55.8230 -55.7993 -55.7923 -55.7789
   -55.7567 -55.7232 -55.7157 -55.6832 -55.6788 -55.5970 -54.9399 -54.9387
   -32.2955 -32.2926 -32.2343 -32.2287 -32.2231 -32.2189 -32.2001 -32.1987
   -32.1921 -32.1554 -32.1315 -32.1264 -32.1245 -32.0825 -32.0713 -32.0687
   -32.0603 -32.0564 -32.0531 -32.0469 -32.0398 -32.0236 -32.0197 -32.0108
   -32.0071 -32.0016 -32.0005 -31.9991 -31.9819 -31.9528 -31.9422 -31.9402
   -31.9352 -31.9343 -31.9341 -31.9146 -31.9056 -31.8983 -31.8895 -31.8788
   -31.8256 -31.7912 -31.2601 -31.2588 -31.1796 -31.1787 -31.1404 -31.1394
   -20.4946 -18.6456 -16.1181 -16.0996 -15.9050 -15.8601 -15.8543 -15.8007
   -15.7267 -15.7080 -15.6634 -15.6600 -15.6061 -15.5942 -15.5864 -15.5353
   -15.4935 -15.4640 -15.4549 -15.4493 -15.3936 -15.3898 -15.3890 -15.3344
   -15.3196 -15.3046 -15.2752 -15.2710 -15.2044 -15.1786 -15.1029 -13.4589
   -13.4410 -13.4386  -6.8812  -5.8850  -4.5869  -3.5888  -3.4084  -3.3859
    -3.2873  -3.1432  -3.0783  -3.0761  -2.9944  -2.9197  -2.8919  -2.8735
    -2.8380  -2.7892  -2.7819  -2.7767  -2.7613  -2.7485  -2.7264  -2.7133
    -2.6816  -2.6621  -2.6272  -2.6018  -2.5838  -2.5673  -2.5590  -2.5217
    -2.5025  -2.4899  -2.4800  -2.4745  -2.4105  -2.2459  -2.1953  -2.1148
    -2.0892  -2.0806  -2.0356  -2.0339  -2.0071  -1.9940  -1.9777  -1.8720
    -1.7799  -1.6933  -1.6788  -1.6616  -1.6413  -1.6033  -1.4873  -1.4583
    -1.3824  -1.3615  -1.3465  -1.2456  -1.2230  -1.1564  -1.1514  -1.0697
    -1.0263  -1.0141  -0.9501  -0.9097  -0.8950  -0.8377  -0.8119  -0.7454
    -0.6920  -0.6724  -0.6084  -0.5893  -0.5666  -0.5128  -0.4702  -0.4548
    -0.3867  -0.2966  -0.2500  -0.0602   0.0677   0.0847   0.1027   0.1762
     0.2563   0.2952   0.3185   0.3531   0.4399   0.4990   0.5731   0.5904
     0.6136   0.6789   1.4280   1.4296   1.5190   1.5298   2.5245   3.4526
     3.4746   3.4984   3.5498   3.7028   3.7072   3.7253   3.7348   3.8243
     3.8643

     the Fermi energy is     3.2125 ev

!    total energy              =   -2969.03737445 Ry
     estimated scf accuracy    <       0.00000004 Ry
     smearing contrib. (-TS)   =      -0.02338805 Ry
     internal energy E=F+TS    =   -2969.01398639 Ry

     The total energy is F=E-TS. E is the sum of the following terms:
     one-electron contribution =  -23803.85641509 Ry
     hartree contribution      =   11990.34222957 Ry
     xc contribution           =    -490.84700402 Ry
     ewald contribution        =    9335.34683159 Ry
     electric field correction =       0.00037155 Ry

     convergence has been achieved in  75 iterations

     Forces acting on atoms (cartesian axes, Ry/au):

     atom    1 type  1   force =     0.00008604    0.00006342    0.10418668
     atom    2 type  1   force =     0.00010564    0.00002618    0.10421286
     atom    3 type  2   force =     0.00028579   -0.00170232    0.10527082
     atom    4 type  2   force =     0.00011827    0.00145155    0.11698853
     atom    5 type  2   force =     0.00012689    0.00057332   -0.18002928
     atom    6 type  2   force =    -0.00004660   -0.00014190   -0.18014337
     atom    7 type  1   force =    -0.06884183    0.00077998   -0.02950619
     atom    8 type  1   force =    -0.06850501   -0.00143656   -0.02954640
     atom    9 type  1   force =     0.06893402    0.00107301   -0.02956160
     atom   10 type  1   force =     0.06848779   -0.00091249   -0.02961860
     atom   11 type  1   force =    -0.00025604    0.00067246    0.04564110
     atom   12 type  1   force =    -0.00062094    0.00092617    0.04730175
     atom   13 type  1   force =    -0.00012145   -0.00649709   -0.03343627
     atom   14 type  1   force =    -0.00030774    0.00406082   -0.02749907
     atom   15 type  2   force =    -0.00008235   -0.00036915   -0.00000516
     atom   16 type  2   force =    -0.00016761   -0.00039713    0.00005027
     atom   17 type  2   force =    -0.00018216    0.00000369   -0.00008796
     atom   18 type  1   force =    -0.01863230   -0.00141976    0.00431919
     atom   19 type  1   force =    -0.01733137    0.00092841    0.00348600
     atom   20 type  1   force =     0.01932899    0.00093770    0.00437667
     atom   21 type  1   force =     0.01779932    0.00242071    0.00371223
     atom   22 type  2   force =    -0.00022489   -0.00008952   -0.00014930
     atom   23 type  1   force =    -0.00013490    0.00001152    0.00013447
     atom   24 type  1   force =     0.00016354   -0.00000898    0.00019985
     atom   25 type  1   force =     0.00000551    0.00010799   -0.00009554
     atom   26 type  1   force =    -0.00012884   -0.00014894   -0.00007955
     atom   27 type  2   force =     0.00004989    0.00000676   -0.00010494
     atom   28 type  2   force =    -0.00022456    0.00008902   -0.00016436
     atom   29 type  2   force =    -0.00000132    0.00003814   -0.00011040
     atom   30 type  1   force =    -0.00026258   -0.00017372   -0.00016576
     atom   31 type  1   force =     0.00035438   -0.00023255   -0.00019744
     atom   32 type  1   force =    -0.00004412   -0.00018002    0.00016348
     atom   33 type  1   force =    -0.00005558   -0.00005149   -0.00008801
     atom   34 type  2   force =    -0.00004800    0.00018456    0.00006880
     atom   35 type  1   force =     0.00008502   -0.00022040   -0.00019977
     atom   36 type  1   force =     0.00005202    0.00002822   -0.00005698
     atom   37 type  1   force =    -0.00002456    0.00009312   -0.00006670
     atom   38 type  1   force =    -0.00010745    0.00029367   -0.00012816
     atom   39 type  2   force =     0.00004021    0.00012466    0.00028876
     atom   40 type  2   force =     0.00006745   -0.00029162    0.00004943
     atom   41 type  2   force =    -0.00021900   -0.00030234    0.00009351
     atom   42 type  1   force =     0.00012291    0.00010915    0.00005226
     atom   43 type  1   force =    -0.00018478    0.00025146   -0.00021662
     atom   44 type  1   force =    -0.00021897    0.00003700   -0.00003388
     atom   45 type  1   force =    -0.00002045    0.00011726    0.00017140
     atom   46 type  2   force =     0.00006549   -0.00054169    0.00016309
     atom   47 type  1   force =    -0.00003244    0.00017503   -0.00040465
     atom   48 type  1   force =    -0.00021443    0.00109834    0.00100961
     atom   49 type  3   force =    -0.00118123    0.00312341    0.00342816
     atom   50 type  4   force =     0.00182189   -0.00386022   -0.00383977
     atom   51 type  5   force =    -0.00113758   -0.00128728    0.00056457
     atom   52 type  5   force =     0.00146005    0.00045844   -0.00039777

     Total force =     0.376109     Total SCF correction =     0.000620
  @ DRIVER MODE: Message from server: STATUS
  @ DRIVER MODE: Message from server: GETFORCE
  @ DRIVER MODE: Returning v,forces,stress,ensemble

     Writing output data file ./calc.save/
  @ DRIVER MODE: Message from server: EXIT
  @ DRIVE MODE: Exiting

     General routines

     Parallel routines

   This run was terminated on:  19:49:11  14Sep2021

   JOB DONE.