     Program PWSCF v.6.7GPU starts on  2Aug2021 at 14:17:38

     R & G space division:  proc/nbgrp/npool/nimage =      16
     Reading input from /storage/home/hcoda1/3/ntian30/research/carbon/02Aug_vib_paired/ads_slab/CH3NN_a/out_0007/pw.inp
Warning: card &CELL ignored
Warning: card   CELL_DYNAMICS='IPI', ignored
Warning: card / ignored

     Current dimensions of program PWSCF are:
     Max number of different atomic species (ntypx) = 10
     Max number of k-points (npk) =  40000
     Max angular momentum in pseudopotentials (lmaxx) =  3
     Presently no symmetry can be used with electric field

     Message from routine cell_base_init:
     DEPRECATED: use true lattice parameter, not A to a.u. conversion factor

     IMPORTANT: XC functional enforced from input :
     Exchange-correlation= BEEF-VDW
                           (   1   4  43  14   2   0   0)
     Any further DFT definition will be discarded
     Please, verify this is what you really want

  @ DRIVER MODE: Connecting to
 qe_1139763_2482546.sched-torque.pace.gatech.edun3zum0vl_scratch
  using UNIX socket
  @ DRIVER MODE: Message from server: STATUS
  @ DRIVER MODE: Message from server: INIT
  @ DRIVER MODE: Receiving replica           0          -1
  @ DRIVER MODE: Receiving encoded integer          25
  @ DRIVER MODE:  SCF:  T  FORCE:  T  STRESS:  F  VC:  F  ENSEMBLE:  F
  @ DRIVER MODE:  SCF:  T  FORCE:  T  STRESS:  F  VC:  F  ENSEMBLE:  F

     Using Slab Decomposition

     bravais-lattice index     =            0
     lattice parameter (alat)  =       1.8897  a.u.
     unit-cell volume          =    6658.9804 (a.u.)^3
     number of atoms/cell      =           53
     number of atomic types    =            5
     number of electrons       =       395.00
     number of Kohn-Sham states=          207
     kinetic-energy cutoff     =      29.3995  Ry
     charge density cutoff     =     293.9946  Ry
     scf convergence threshold =      7.3E-08
     mixing beta               =       0.0500
     number of iterations used =            8  plain     mixing
     Exchange-correlation= BEEF-VDW
                           (   1   4  43  14   2   0   0)

     celldm(1)=   1.889726  celldm(2)=   0.000000  celldm(3)=   0.000000
     celldm(4)=   0.000000  celldm(5)=   0.000000  celldm(6)=   0.000000

     crystal axes: (cart. coord. in units of alat)
               a(1) = (   6.579727   0.000000   0.000000 )
               a(2) = (  -0.000775   5.961596   0.000000 )
               a(3) = (   0.000000   0.000000  25.155947 )

     reciprocal axes: (cart. coord. in units 2 pi/alat)
               b(1) = (  0.151982  0.000020  0.000000 )
               b(2) = (  0.000000  0.167740  0.000000 )
               b(3) = (  0.000000  0.000000  0.039752 )

     PseudoPot. # 1 for Ti read from file:
     /storage/coda1/p-amedford6/0/shared/rich_project_chbe-medford/medford-share/data/pseudos_module/espresso/nninc/pbe/van/Ti.UPF
     MD5 check sum: 8e4df49b7f0d34bbd5052bf3f5ea0213
     Pseudo is Ultrasoft, Zval = 12.0
     Generated by new atomic code, or converted to UPF format
     Using radial grid of  851 points,  6 beta functions with:
                l(1) =   0
                l(2) =   0
                l(3) =   1
                l(4) =   1
                l(5) =   2
                l(6) =   2
     Q(r) pseudized with  8 coefficients,  rinner =    1.000   1.000   1.000
                                                       1.000   1.000

     PseudoPot. # 2 for O  read from file:
     /storage/coda1/p-amedford6/0/shared/rich_project_chbe-medford/medford-share/data/pseudos_module/espresso/nninc/pbe/van/O.UPF
     MD5 check sum: 78c19812648e8988a0fe644b0f25305e
     Pseudo is Ultrasoft, Zval =  6.0
     Generated by new atomic code, or converted to UPF format
     Using radial grid of  737 points,  4 beta functions with:
                l(1) =   0
                l(2) =   0
                l(3) =   1
                l(4) =   1
     Q(r) pseudized with  8 coefficients,  rinner =    0.800   0.800   0.800

     PseudoPot. # 3 for N  read from file:
     /storage/coda1/p-amedford6/0/shared/rich_project_chbe-medford/medford-share/data/pseudos_module/espresso/nninc/pbe/van/N.UPF
     MD5 check sum: 90d10febe142ad51ac9d5be1deb811c4
     Pseudo is Ultrasoft, Zval =  5.0
     Generated by new atomic code, or converted to UPF format
     Using radial grid of  729 points,  4 beta functions with:
                l(1) =   0
                l(2) =   0
                l(3) =   1
                l(4) =   1
     Q(r) pseudized with  8 coefficients,  rinner =    0.800   0.800   0.800

     PseudoPot. # 4 for C  read from file:
     /storage/coda1/p-amedford6/0/shared/rich_project_chbe-medford/medford-share/data/pseudos_module/espresso/nninc/pbe/van/C.UPF
     MD5 check sum: 1a69bf6b8db32088f5b2163dbdb77a27
     Pseudo is Ultrasoft, Zval =  4.0
     Generated by new atomic code, or converted to UPF format
     Using radial grid of  721 points,  4 beta functions with:
                l(1) =   0
                l(2) =   0
                l(3) =   1
                l(4) =   1
     Q(r) pseudized with  8 coefficients,  rinner =    0.800   0.800   0.800

     PseudoPot. # 5 for H  read from file:
     /storage/coda1/p-amedford6/0/shared/rich_project_chbe-medford/medford-share/data/pseudos_module/espresso/nninc/pbe/van/H.UPF
     MD5 check sum: b5ee9d7bfd3a09ee7748110bda690ff7
     Pseudo is Ultrasoft, Zval =  1.0
     Generated by new atomic code, or converted to UPF format
     Using radial grid of  615 points,  1 beta functions with:
                l(1) =   0
     Q(r) pseudized with  8 coefficients,  rinner =    0.800

     atomic species   valence    mass     pseudopotential
        Ti1           12.00    47.86700     Ti( 1.00)
        O1             6.00    15.99900     O ( 1.00)
        N1             5.00    14.00700     N ( 1.00)
        C1             4.00    12.01100     C ( 1.00)
        H1             1.00     1.00800     H ( 1.00)

     No symmetry found

   Cartesian axes

     site n.     atom                  positions (alat units)
         1           Ti1 tau(   1) = (   0.0004258   2.9801865   6.0000000  )
         2           Ti1 tau(   2) = (   3.2906075   1.4906267   6.0002472  )
         3           O1  tau(   3) = (   0.0006271   0.0005054   7.9858123  )
         4           O1  tau(   4) = (   3.2906025   0.0005020   7.3038282  )
         5           O1  tau(   5) = (   4.5942328   1.4918067   9.2879030  )
         6           O1  tau(   6) = (   1.9868534   1.4903216   9.2879459  )
         7           Ti1 tau(   7) = (   3.2907910   2.8959150   9.1758416  )
         8           Ti1 tau(   8) = (   0.0015273   1.4827037   9.2680791  )
         9           O1  tau(   9) = (   3.2935944   5.9504131  11.3331737  )
        10           O1  tau(  10) = (   0.0116148   5.9584955  10.6183126  )
        11           O1  tau(  11) = (   1.3139784   1.4900993  12.6222913  )
        12           O1  tau(  12) = (   5.2991156   1.4868386  12.6236412  )
        13           Ti1 tau(  13) = (   6.5257823   2.9641578  12.6501544  )
        14           Ti1 tau(  14) = (   3.2087869   1.4768241  12.4812772  )
        15           O1  tau(  15) = (   0.0069532   0.0155221  14.6013729  )
        16           O1  tau(  16) = (   3.2989757   5.9447163  13.9218705  )
        17           O1  tau(  17) = (   4.5399408   1.4684032  16.0509043  )
        18           O1  tau(  18) = (   2.0534050   1.4785924  16.0487376  )
        19           Ti1 tau(  19) = (   3.3071538   2.9600697  15.7031993  )
        20           Ti1 tau(  20) = (   0.0179100   1.3679571  15.8029155  )
        21           O1  tau(  21) = (   3.2904802   0.0005063   4.7018136  )
        22           O1  tau(  22) = (   0.0297737   0.0076327  17.1327444  )
        23           O1  tau(  23) = (   1.3043587   1.4918075   6.0039043  )
        24           O1  tau(  24) = (   5.2767064   1.4903225   6.0039473  )
        25           Ti1 tau(  25) = (   0.0000382   5.9609847   6.0000000  )
        26           Ti1 tau(  26) = (   3.2902200   4.4714249   6.0002472  )
        27           O1  tau(  27) = (   0.0002396   2.9813036   7.9858123  )
        28           O1  tau(  28) = (   3.2902150   2.9813002   7.3038282  )
        29           O1  tau(  29) = (   4.5938453   4.4726049   9.2879030  )
        30           O1  tau(  30) = (   1.9864658   4.4711199   9.2879459  )
        31           Ti1 tau(  31) = (   3.2891106   5.8743827   9.1763621  )
        32           Ti1 tau(  32) = (   0.0006254   4.4649316   9.2693709  )
        33           O1  tau(  33) = (   3.2925666   2.9731923  11.3325550  )
        34           O1  tau(  34) = (   0.0092240   2.9805883  10.6323155  )
        35           O1  tau(  35) = (   1.3076969   4.4692784  12.6256357  )
        36           O1  tau(  36) = (   5.2992390   4.4652990  12.6273021  )
        37           Ti1 tau(  37) = (   6.5214685   5.9362284  12.5385417  )
        38           Ti1 tau(  38) = (   3.2054519   4.4560432  12.4842663  )
        39           O1  tau(  39) = (   0.0022752   2.9713357  14.7092999  )
        40           O1  tau(  40) = (   3.3007181   2.9764241  13.9083417  )
        41           O1  tau(  41) = (   4.5485645   4.4411382  16.0917119  )
        42           O1  tau(  42) = (   2.0537992   4.4371030  16.0853891  )
        43           Ti1 tau(  43) = (   3.2976414   5.9412218  15.7196561  )
        44           Ti1 tau(  44) = (   0.0123595   4.4653852  16.1631357  )
        45           O1  tau(  45) = (   3.2900926   2.9813045   4.7018136  )
        46           O1  tau(  46) = (   1.3039711   4.4726057   6.0039043  )
        47           O1  tau(  47) = (   5.2763189   4.4711207   6.0039473  )
        48           N1  tau(  48) = (   0.6591532   2.9890904  22.3781942  )
        49           C1  tau(  49) = (   6.5548715   3.0365617  17.8347222  )
        50           H1  tau(  50) = (   6.0219261   3.7962297  18.4082231  )
        51           H1  tau(  51) = (   6.0207922   2.1139738  18.0322221  )
        52           H1  tau(  52) = (   0.9815245   2.9432023  18.2699478  )
        53           N1  tau(  53) = (   6.1995506   3.0156182  22.7499213  )

     number of k points=    10  Fermi-Dirac smearing, width (Ry)=  0.0073
                       cart. coord. in units 2pi/alat
        k(    1) = (   0.0000000   0.0000000   0.0000000), wk =   0.1250000
        k(    2) = (   0.0000000   0.0419351   0.0000000), wk =   0.2500000
        k(    3) = (   0.0000000  -0.0838702   0.0000000), wk =   0.1250000
        k(    4) = (   0.0379955   0.0000049   0.0000000), wk =   0.2500000
        k(    5) = (   0.0379955   0.0419400   0.0000000), wk =   0.2500000
        k(    6) = (   0.0379955  -0.0838652   0.0000000), wk =   0.2500000
        k(    7) = (   0.0379955  -0.0419301   0.0000000), wk =   0.2500000
        k(    8) = (  -0.0759910  -0.0000099   0.0000000), wk =   0.1250000
        k(    9) = (  -0.0759910   0.0419252   0.0000000), wk =   0.2500000
        k(   10) = (  -0.0759910  -0.0838800   0.0000000), wk =   0.1250000

     Initial potential from superposition of free atoms

     starting charge  378.99916, renormalised to  395.00000

     negative rho (up, down):  1.028E-02 0.000E+00

     %%%%%%%%%%%%%%%%%%%%%%%%%%%%%%%%%%%%%%%%%%%%%%%%%%%%%%%%%%%%%%%%%%%%%%%%
     %                                                                      %
     % You are using vdW-DF, which was implemented by the Thonhauser group. %
     % Please cite the following two papers that made this development      %
     % possible and the two reviews that describe the various versions:     %
     %                                                                      %
     %   T. Thonhauser et al., PRL 115, 136402 (2015).                      %
     %   T. Thonhauser et al., PRB 76, 125112 (2007).                       %
     %   K. Berland et al., Rep. Prog. Phys. 78, 066501 (2015).             %
     %   D.C. Langreth et al., J. Phys.: Condens. Matter 21, 084203 (2009). %
     %                                                                      %
     %                                                                      %
     % If you are calculating the stress with vdW-DF, please also cite:     %
     %                                                                      %
     %   R. Sabatini et al., J. Phys.: Condens. Matter 24, 424209 (2012).   %
     %                                                                      %
     %%%%%%%%%%%%%%%%%%%%%%%%%%%%%%%%%%%%%%%%%%%%%%%%%%%%%%%%%%%%%%%%%%%%%%%%

     Adding external electric field

     Computed dipole along edir(3) :
        Dipole              -11.4336 Ry au,        -29.0614 Debye
        Dipole field         -0.0216 Ry au,

        Potential amp.        2.0001 Ry
        Total length         46.3494 bohr

     Starting wfcs are  299 atomic wfcs
  @ DRIVER MODE: Message from server: STATUS
  @ DRIVER MODE: Message from server: POSDATA
  @ DRIVER MODE: Reading and sharing cell
  @ DRIVER MODE: Reading and sharing positions
  @ DRIVER MODE: Received positions

     Self-consistent Calculation

     iteration #  1     ecut=    29.40 Ry     beta= 0.05
     Davidson diagonalization with overlap
     c_bands:  1 eigenvalues not converged
     c_bands:  1 eigenvalues not converged
     c_bands:  1 eigenvalues not converged
     c_bands:  1 eigenvalues not converged
     c_bands:  2 eigenvalues not converged
     c_bands:  2 eigenvalues not converged
     c_bands:  1 eigenvalues not converged
     ethr =  1.00E-05,  avg # of iterations = 19.2

[...]

     total energy              =   -2597.27115700 Ry
     estimated scf accuracy    <    3830.69207288 Ry

     iteration #  2     ecut=    29.40 Ry     beta= 0.05
     Davidson diagonalization with overlap
     ethr =  1.00E-02,  avg # of iterations = 22.5

[...]

     iteration # 61     ecut=    29.40 Ry     beta= 0.05
     Davidson diagonalization with overlap
     c_bands:  1 eigenvalues not converged
     c_bands:  1 eigenvalues not converged
     c_bands:  1 eigenvalues not converged
     c_bands:  1 eigenvalues not converged
     c_bands:  2 eigenvalues not converged
     ethr =  1.04E-06,  avg # of iterations = 16.6

[...]

     total energy              =   -2939.19589785 Ry
     estimated scf accuracy    <       0.00000009 Ry

     iteration # 83     ecut=    29.40 Ry     beta= 0.05
     Davidson diagonalization with overlap
     ethr =  2.16E-11,  avg # of iterations =  9.6

     negative rho (up, down):  1.217E-02 0.000E+00

     Adding external electric field

     Computed dipole along edir(3) :
        Dipole                0.4038 Ry au,          1.0263 Debye
        Dipole field          0.0008 Ry au,

        Potential amp.       -0.0706 Ry
        Total length         46.3494 bohr

     End of self-consistent calculation

          k = 0.0000 0.0000 0.0000 ( 18029 PWs)   bands (ev):

   -56.0219 -56.0108 -55.9878 -55.9748 -55.9037 -55.8799 -55.8582 -55.8367
   -55.8276 -55.7941 -55.7936 -55.7603 -55.5801 -55.4553 -54.9987 -54.9646
   -32.5664 -32.5041 -32.3754 -32.3574 -32.3276 -32.3267 -32.3147 -32.2845
   -32.2638 -32.2401 -32.2340 -32.2215 -32.1918 -32.1741 -32.1628 -32.1511
   -32.1348 -32.1260 -32.1095 -32.0837 -32.0808 -32.0791 -32.0418 -32.0325
   -32.0300 -32.0250 -32.0155 -32.0116 -31.9964 -31.9948 -31.9889 -31.9684
   -31.9680 -31.9618 -31.9467 -31.9311 -31.9058 -31.8648 -31.7932 -31.7378
   -31.6719 -31.5599 -31.4058 -31.3174 -31.2950 -31.2225 -31.1360 -31.0250
   -20.6246 -16.7679 -16.4968 -16.2734 -16.1751 -16.1495 -16.0323 -15.8644
   -15.7402 -15.6959 -15.5957 -15.5807 -15.5573 -15.5269 -15.5150 -15.5043
   -15.4697 -15.4624 -15.4449 -15.4331 -15.3821 -15.3647 -15.3546 -15.2438
   -15.1976 -15.1560 -15.1393 -15.0760 -15.0275 -14.6419 -13.5013 -13.3849
    -9.0889  -5.7918  -4.1402  -3.9800  -3.9275  -3.8835  -3.8528  -3.7514
    -3.7481  -3.6370  -3.5729  -3.2672  -3.2087  -3.1928  -3.1750  -3.1470
    -2.9923  -2.9239  -2.8578  -2.8323  -2.8284  -2.7997  -2.7918  -2.7781
    -2.7415  -2.7022  -2.6869  -2.6357  -2.5746  -2.5094  -2.4979  -2.4376
    -2.4151  -2.3349  -2.3086  -2.2912  -2.2629  -2.2496  -2.2393  -2.2177
    -2.1971  -2.1772  -1.9916  -1.9501  -1.9026  -1.8107  -1.8067  -1.6284
    -1.5311  -1.4990  -1.4745  -1.4476  -1.4131  -1.3986  -1.3204  -1.2091
    -1.1768  -1.1392  -1.0765  -1.0256  -0.9952  -0.8953  -0.8721  -0.7835
    -0.7822  -0.7576  -0.7020  -0.6056  -0.5073  -0.4774  -0.4600  -0.4127
    -0.3777  -0.3135  -0.2962  -0.2358  -0.1696  -0.1586  -0.0831  -0.0567
    -0.0523  -0.0279  -0.0164   0.0272   0.0414   0.1631   0.1863   0.2721
     0.3166   0.4102   0.5332   0.6377   0.6742   0.7340   0.9488   1.0232
     1.1229   1.1669   1.2155   1.5946   1.6402   3.1176   3.2007   3.2489
     3.2563   3.3499   3.3635   3.5656   3.5923   3.6229   3.6614

[...]

          k = 0.0380-0.0419 0.0000 ( 17876 PWs)   bands (ev):

[...]

          k =-0.0760-0.0000 0.0000 ( 17886 PWs)   bands (ev):

[...]

          k =-0.0760-0.0839 0.0000 ( 17948 PWs)   bands (ev):

   -56.0056 -56.0041 -55.9933 -55.9922 -55.8958 -55.8715 -55.8660 -55.8450
   -55.8115 -55.8093 -55.7791 -55.7755 -55.5781 -55.4571 -54.9817 -54.9814
   -32.3702 -32.3691 -32.3198 -32.3189 -32.3007 -32.2996 -32.2847 -32.2762
   -32.2289 -32.2143 -32.2117 -32.2068 -32.1701 -32.1536 -32.1511 -32.1404
   -32.1325 -32.1251 -32.1235 -32.1234 -32.1170 -32.1134 -32.0954 -32.0883
   -32.0635 -32.0614 -32.0569 -32.0317 -32.0118 -32.0106 -32.0091 -32.0072
   -31.9931 -31.9911 -31.9884 -31.9833 -31.9438 -31.8496 -31.7953 -31.7406
   -31.7122 -31.6100 -31.3078 -31.3076 -31.2187 -31.2184 -31.1793 -31.1792
   -20.6245 -16.2026 -16.1820 -15.9791 -15.9361 -15.9305 -15.9256 -15.8225
   -15.7191 -15.7166 -15.7148 -15.6442 -15.6189 -15.6090 -15.5596 -15.5569
   -15.5459 -15.5344 -15.5288 -15.4829 -15.4757 -15.4583 -15.4495 -15.3845
   -15.3374 -15.3328 -15.3118 -15.1224 -15.0018 -14.9251 -13.4867 -13.4867
    -9.1019  -5.7950  -3.7550  -3.7507  -3.4939  -3.4697  -3.2378  -3.1818
    -3.1693  -3.0957  -2.9532  -2.9182  -2.9112  -2.8986  -2.8651  -2.8527
    -2.8371  -2.8294  -2.8174  -2.7911  -2.7675  -2.7347  -2.7293  -2.7051
    -2.6901  -2.6727  -2.6485  -2.6421  -2.6226  -2.5998  -2.5824  -2.5609
    -2.5507  -2.5271  -2.4819  -2.3627  -2.2554  -2.2179  -2.1578  -2.1498
    -2.1163  -2.0915  -2.0832  -2.0656  -2.0578  -2.0086  -1.8443  -1.7429
    -1.7263  -1.6901  -1.6418  -1.6202  -1.5699  -1.4313  -1.4048  -1.3786
    -1.3163  -1.3048  -1.2571  -1.2345  -1.2210  -1.1407  -1.1225  -1.0632
    -1.0008  -0.9819  -0.9781  -0.9218  -0.8621  -0.7917  -0.7815  -0.7387
    -0.7010  -0.6500  -0.6252  -0.5957  -0.5270  -0.4913  -0.3715  -0.3224
    -0.0956  -0.0442   0.0251   0.0719   0.1302   0.1777   0.1816   0.2967
     0.2991   0.3121   0.4119   0.4171   0.5060   0.5231   0.5460   0.7358
     1.2641   1.3870   1.3878   1.4597   1.4601   3.3928   3.4112   3.4403
     3.4821   3.6182   3.6275   3.6462   3.6476   3.7743   3.7946

     the Fermi energy is     3.1136 ev

!    total energy              =   -2939.19591158 Ry
     estimated scf accuracy    <       0.00000006 Ry
     smearing contrib. (-TS)   =      -0.02186289 Ry
     internal energy E=F+TS    =   -2939.17404869 Ry

     The total energy is F=E-TS. E is the sum of the following terms:
     one-electron contribution =  -23189.46039217 Ry
     hartree contribution      =   11679.99488122 Ry
     xc contribution           =    -484.90583036 Ry
     ewald contribution        =    9055.19698496 Ry
     electric field correction =       0.00030766 Ry

     convergence has been achieved in  83 iterations

     Forces acting on atoms (cartesian axes, Ry/au):

     atom    1 type  1   force =     0.00000263   -0.00019591    0.09686344
     atom    2 type  1   force =    -0.00001127   -0.00054995   -0.17525745
     atom    3 type  2   force =     0.00009366   -0.00001236   -0.02519473
     atom    4 type  2   force =    -0.00003089   -0.00141305    0.05280306
     atom    5 type  2   force =    -0.01239172   -0.00103458    0.00322477
     atom    6 type  2   force =     0.01388138   -0.00053451    0.00282952
     atom    7 type  1   force =     0.00059899    0.00044442   -0.01144399
     atom    8 type  1   force =     0.00025775    0.01540797    0.02922036
     atom    9 type  2   force =    -0.00019768    0.00077839    0.00003577
     atom   10 type  2   force =    -0.00284383    0.00140905   -0.01826072
     atom   11 type  2   force =     0.00079276    0.00001932   -0.00001880
     atom   12 type  2   force =    -0.00061657   -0.00016090   -0.00011157
     atom   13 type  1   force =     0.00060079   -0.00030689   -0.00003736
     atom   14 type  1   force =    -0.00038595    0.00028762   -0.00006120
     atom   15 type  2   force =     0.00003544   -0.00010335    0.00082899
     atom   16 type  2   force =    -0.00016068    0.00008216    0.00041515
     atom   17 type  2   force =     0.00013757   -0.00075009   -0.00031282
     atom   18 type  2   force =    -0.00019472   -0.00056215    0.00013417
     atom   19 type  1   force =     0.00007908   -0.00142411   -0.00021221
     atom   20 type  1   force =    -0.00006526    0.00025276   -0.00026821
     atom   21 type  2   force =     0.00002374    0.00005634    0.10328902
     atom   22 type  2   force =    -0.00022671    0.00044050    0.00009714
     atom   23 type  2   force =    -0.07155101   -0.00009140   -0.02768571
     atom   24 type  2   force =     0.07141581    0.00039550   -0.02774481
     atom   25 type  1   force =     0.00005436   -0.00026548    0.09665594
     atom   26 type  1   force =     0.00002867   -0.00012568   -0.17542190
     atom   27 type  2   force =     0.00012948   -0.00011768   -0.02393242
     atom   28 type  2   force =    -0.00000749   -0.00118544    0.05298723
     atom   29 type  2   force =    -0.01258452    0.00056014    0.00298307
     atom   30 type  2   force =     0.01393955    0.00101741    0.00261417
     atom   31 type  1   force =     0.00052632    0.00340199   -0.01251254
     atom   32 type  1   force =     0.00028707   -0.01699594    0.02990629
     atom   33 type  2   force =    -0.00024998   -0.00052198   -0.00052354
     atom   34 type  2   force =    -0.00265375    0.00030933   -0.02241913
     atom   35 type  2   force =    -0.00006749   -0.00016163    0.00001988
     atom   36 type  2   force =     0.00001397   -0.00001977    0.00005526
     atom   37 type  1   force =     0.00028601   -0.00038137   -0.00062034
     atom   38 type  1   force =    -0.00022029    0.00040877    0.00023312
     atom   39 type  2   force =     0.00011741   -0.00040426    0.00035556
     atom   40 type  2   force =     0.00032493   -0.00050618   -0.00005928
     atom   41 type  2   force =    -0.00064133    0.00033578   -0.00017616
     atom   42 type  2   force =     0.00033075    0.00021600   -0.00002753
     atom   43 type  1   force =    -0.00008005    0.00066424    0.00008828
     atom   44 type  1   force =     0.00021200   -0.00064745   -0.00023110
     atom   45 type  2   force =     0.00002088    0.00002634    0.10324053
     atom   46 type  2   force =    -0.07154505   -0.00000562   -0.02768028
     atom   47 type  2   force =     0.07139144    0.00040128   -0.02774067
     atom   48 type  3   force =    -0.00084378    0.00016845   -0.00038307
     atom   49 type  4   force =     0.01914567   -0.00009454   -0.00093140
     atom   50 type  5   force =    -0.00430085    0.00437888    0.00315647
     atom   51 type  5   force =    -0.00401293   -0.00481471    0.00174353
     atom   52 type  5   force =    -0.00952421    0.00166979   -0.00414998
     atom   53 type  3   force =     0.00067993    0.00025458   -0.00036178

     Total force =     0.369593     Total SCF correction =     0.000741
  @ DRIVER MODE: Message from server: STATUS
  @ DRIVER MODE: Message from server: GETFORCE
  @ DRIVER MODE: Returning v,forces,stress,ensemble

     Writing output data file ./calc.save/
  @ DRIVER MODE: Message from server: EXIT
  @ DRIVE MODE: Exiting

     General routines

     Parallel routines

   This run was terminated on:  14:57:44   2Aug2021

   JOB DONE.