     Program PWSCF v.6.7GPU starts on 24Aug2021 at 12:44:47

     R & G space division:  proc/nbgrp/npool/nimage =      72
     Reading input from /storage/home/hcoda1/3/ntian30/research/carbon/CH2_vib/ads_slab/CH2N_a/out_0011/pw.inp
Warning: card &CELL ignored
Warning: card   CELL_DYNAMICS='IPI', ignored
Warning: card / ignored

     Current dimensions of program PWSCF are:
     Max number of different atomic species (ntypx) = 10
     Max number of k-points (npk) =  40000
     Max angular momentum in pseudopotentials (lmaxx) =  3
     Presently no symmetry can be used with electric field

     Message from routine cell_base_init:
     DEPRECATED: use true lattice parameter, not A to a.u. conversion factor

     IMPORTANT: XC functional enforced from input :
     Exchange-correlation= BEEF-VDW
                           (   1   4  43  14   2   0   0)
     Any further DFT definition will be discarded
     Please, verify this is what you really want

  @ DRIVER MODE: Connecting to
 qe_1139763_2641441.sched-torque.pace.gatech.edupr8jh9l1_scratch
  using UNIX socket
  @ DRIVER MODE: Message from server: STATUS
  @ DRIVER MODE: Message from server: INIT
  @ DRIVER MODE: Receiving replica           0          -1
  @ DRIVER MODE: Receiving encoded integer          25
  @ DRIVER MODE:  SCF:  T  FORCE:  T  STRESS:  F  VC:  F  ENSEMBLE:  F
  @ DRIVER MODE:  SCF:  T  FORCE:  T  STRESS:  F  VC:  F  ENSEMBLE:  F

     Using Slab Decomposition

     bravais-lattice index     =            0
     lattice parameter (alat)  =       1.8897  a.u.
     unit-cell volume          =    6658.9804 (a.u.)^3
     number of atoms/cell      =           51
     number of atomic types    =            5
     number of electrons       =       389.00
     number of Kohn-Sham states=          204
     kinetic-energy cutoff     =      29.3995  Ry
     charge density cutoff     =     293.9946  Ry
     scf convergence threshold =      7.3E-08
     mixing beta               =       0.0500
     number of iterations used =            8  plain     mixing
     Exchange-correlation= BEEF-VDW
                           (   1   4  43  14   2   0   0)

     celldm(1)=   1.889726  celldm(2)=   0.000000  celldm(3)=   0.000000
     celldm(4)=   0.000000  celldm(5)=   0.000000  celldm(6)=   0.000000

     crystal axes: (cart. coord. in units of alat)
               a(1) = (   6.579727   0.000000   0.000000 )
               a(2) = (  -0.000775   5.961596   0.000000 )
               a(3) = (   0.000000   0.000000  25.155947 )

     reciprocal axes: (cart. coord. in units 2 pi/alat)
               b(1) = (  0.151982  0.000020  0.000000 )
               b(2) = (  0.000000  0.167740  0.000000 )
               b(3) = (  0.000000  0.000000  0.039752 )

     PseudoPot. # 1 for Ti read from file:
     /storage/coda1/p-amedford6/0/shared/rich_project_chbe-medford/medford-share/data/pseudos_module/espresso/nninc/pbe/van/Ti.UPF
     MD5 check sum: 8e4df49b7f0d34bbd5052bf3f5ea0213
     Pseudo is Ultrasoft, Zval = 12.0
     Generated by new atomic code, or converted to UPF format
     Using radial grid of  851 points,  6 beta functions with:
                l(1) =   0
                l(2) =   0
                l(3) =   1
                l(4) =   1
                l(5) =   2
                l(6) =   2
     Q(r) pseudized with  8 coefficients,  rinner =    1.000   1.000   1.000
                                                       1.000   1.000

     PseudoPot. # 2 for O  read from file:
     /storage/coda1/p-amedford6/0/shared/rich_project_chbe-medford/medford-share/data/pseudos_module/espresso/nninc/pbe/van/O.UPF
     MD5 check sum: 78c19812648e8988a0fe644b0f25305e
     Pseudo is Ultrasoft, Zval =  6.0
     Generated by new atomic code, or converted to UPF format
     Using radial grid of  737 points,  4 beta functions with:
                l(1) =   0
                l(2) =   0
                l(3) =   1
                l(4) =   1
     Q(r) pseudized with  8 coefficients,  rinner =    0.800   0.800   0.800

     PseudoPot. # 3 for N  read from file:
     /storage/coda1/p-amedford6/0/shared/rich_project_chbe-medford/medford-share/data/pseudos_module/espresso/nninc/pbe/van/N.UPF
     MD5 check sum: 90d10febe142ad51ac9d5be1deb811c4
     Pseudo is Ultrasoft, Zval =  5.0
     Generated by new atomic code, or converted to UPF format
     Using radial grid of  729 points,  4 beta functions with:
                l(1) =   0
                l(2) =   0
                l(3) =   1
                l(4) =   1
     Q(r) pseudized with  8 coefficients,  rinner =    0.800   0.800   0.800

     PseudoPot. # 4 for C  read from file:
     /storage/coda1/p-amedford6/0/shared/rich_project_chbe-medford/medford-share/data/pseudos_module/espresso/nninc/pbe/van/C.UPF
     MD5 check sum: 1a69bf6b8db32088f5b2163dbdb77a27
     Pseudo is Ultrasoft, Zval =  4.0
     Generated by new atomic code, or converted to UPF format
     Using radial grid of  721 points,  4 beta functions with:
                l(1) =   0
                l(2) =   0
                l(3) =   1
                l(4) =   1
     Q(r) pseudized with  8 coefficients,  rinner =    0.800   0.800   0.800

     PseudoPot. # 5 for H  read from file:
     /storage/coda1/p-amedford6/0/shared/rich_project_chbe-medford/medford-share/data/pseudos_module/espresso/nninc/pbe/van/H.UPF
     MD5 check sum: b5ee9d7bfd3a09ee7748110bda690ff7
     Pseudo is Ultrasoft, Zval =  1.0
     Generated by new atomic code, or converted to UPF format
     Using radial grid of  615 points,  1 beta functions with:
                l(1) =   0
     Q(r) pseudized with  8 coefficients,  rinner =    0.800

     atomic species   valence    mass     pseudopotential
        Ti1           12.00    47.86700     Ti( 1.00)
        O1             6.00    15.99900     O ( 1.00)
        N1             5.00    14.00700     N ( 1.00)
        C1             4.00    12.01100     C ( 1.00)
        H1             1.00     1.00800     H ( 1.00)

     No symmetry found

   Cartesian axes

     site n.     atom                  positions (alat units)
         1           Ti1 tau(   1) = (   0.0004258   2.9801865   6.0000000  )
         2           Ti1 tau(   2) = (   3.2906075   1.4906267   6.0002472  )
         3           O1  tau(   3) = (   0.0006271   0.0005054   7.9858123  )
         4           O1  tau(   4) = (   3.2906025   0.0005020   7.3038282  )
         5           O1  tau(   5) = (   4.5942328   1.4918067   9.2879030  )
         6           O1  tau(   6) = (   1.9868534   1.4903216   9.2879459  )
         7           Ti1 tau(   7) = (   3.2907910   2.8959150   9.1758416  )
         8           Ti1 tau(   8) = (   0.0015273   1.4827037   9.2680791  )
         9           O1  tau(   9) = (   3.3121109   0.0111249  11.3310253  )
        10           O1  tau(  10) = (   0.0116148   5.9584955  10.6183126  )
        11           O1  tau(  11) = (   1.3329579   1.5011098  12.6063046  )
        12           O1  tau(  12) = (   5.3158149   1.4916659  12.6245769  )
        13           Ti1 tau(  13) = (   6.5431557   2.9598450  12.6156978  )
        14           Ti1 tau(  14) = (   3.2273839   1.5049138  12.4779161  )
        15           O1  tau(  15) = (   0.0471551   0.0364395  14.6528705  )
        16           O1  tau(  16) = (   3.3160098   0.0207640  13.9215624  )
        17           O1  tau(  17) = (   4.5810600   1.5471256  16.0564497  )
        18           O1  tau(  18) = (   2.0947546   1.5446786  16.0656860  )
        19           Ti1 tau(  19) = (   3.3354243   3.0239694  15.7034691  )
        20           Ti1 tau(  20) = (   0.0419518   1.5622418  15.8401859  )
        21           O1  tau(  21) = (   3.2904802   0.0005063   4.7018136  )
        22           O1  tau(  22) = (   0.0415632   0.0558952  17.2248266  )
        23           O1  tau(  23) = (   1.3043587   1.4918075   6.0039043  )
        24           O1  tau(  24) = (   5.2767064   1.4903225   6.0039473  )
        25           Ti1 tau(  25) = (   0.0000382   5.9609847   6.0000000  )
        26           Ti1 tau(  26) = (   3.2902200   4.4714249   6.0002472  )
        27           O1  tau(  27) = (   0.0002396   2.9813036   7.9858123  )
        28           O1  tau(  28) = (   3.2902150   2.9813002   7.3038282  )
        29           O1  tau(  29) = (   4.5938453   4.4726049   9.2879030  )
        30           O1  tau(  30) = (   1.9864658   4.4711199   9.2879459  )
        31           Ti1 tau(  31) = (   3.2891106   5.8743827   9.1763621  )
        32           Ti1 tau(  32) = (   0.0006254   4.4649316   9.2693709  )
        33           O1  tau(  33) = (   3.3101407   2.9955762  11.3294870  )
        34           O1  tau(  34) = (   0.0092240   2.9805883  10.6323155  )
        35           O1  tau(  35) = (   1.3272401   4.4878838  12.6173354  )
        36           O1  tau(  36) = (   5.3164082   4.4812184  12.6342743  )
        37           Ti1 tau(  37) = (   6.5430856   5.9365306  12.5602028  )
        38           Ti1 tau(  38) = (   3.2246414   4.4845729  12.4831641  )
        39           O1  tau(  39) = (   0.0420920   2.9623338  14.6463429  )
        40           O1  tau(  40) = (   3.3182946   3.0055568  13.9055467  )
        41           O1  tau(  41) = (   4.5797692   4.5125808  16.0776662  )
        42           O1  tau(  42) = (   2.0972274   4.5146901  16.0918111  )
        43           Ti1 tau(  43) = (   3.3319946   0.0399457  15.7186693  )
        44           Ti1 tau(  44) = (   0.0407629   4.6953510  16.1098173  )
        45           O1  tau(  45) = (   3.2900926   2.9813045   4.7018136  )
        46           O1  tau(  46) = (   1.3039711   4.4726057   6.0039043  )
        47           O1  tau(  47) = (   5.2763189   4.4711207   6.0039473  )
        48           N1  tau(  48) = (   0.0554023   2.9932257  17.3910969  )
        49           C1  tau(  49) = (   0.1090839   2.9222626  18.6372186  )
        50           H1  tau(  50) = (   0.1225839   3.8204711  19.2773028  )
        51           H1  tau(  51) = (   0.1417253   1.9549180  19.1625725  )

     number of k points=    10  Fermi-Dirac smearing, width (Ry)=  0.0073
                       cart. coord. in units 2pi/alat
        k(    1) = (   0.0000000   0.0000000   0.0000000), wk =   0.1250000
        k(    2) = (   0.0000000   0.0419351   0.0000000), wk =   0.2500000
        k(    3) = (   0.0000000  -0.0838702   0.0000000), wk =   0.1250000
        k(    4) = (   0.0379955   0.0000049   0.0000000), wk =   0.2500000
        k(    5) = (   0.0379955   0.0419400   0.0000000), wk =   0.2500000
        k(    6) = (   0.0379955  -0.0838652   0.0000000), wk =   0.2500000
        k(    7) = (   0.0379955  -0.0419301   0.0000000), wk =   0.2500000
        k(    8) = (  -0.0759910  -0.0000099   0.0000000), wk =   0.1250000
        k(    9) = (  -0.0759910   0.0419252   0.0000000), wk =   0.2500000
        k(   10) = (  -0.0759910  -0.0838800   0.0000000), wk =   0.1250000

     Initial potential from superposition of free atoms

     starting charge  372.99918, renormalised to  389.00000

     negative rho (up, down):  1.814E-02 0.000E+00

     %%%%%%%%%%%%%%%%%%%%%%%%%%%%%%%%%%%%%%%%%%%%%%%%%%%%%%%%%%%%%%%%%%%%%%%%
     %                                                                      %
     % You are using vdW-DF, which was implemented by the Thonhauser group. %
     % Please cite the following two papers that made this development      %
     % possible and the two reviews that describe the various versions:     %
     %                                                                      %
     %   T. Thonhauser et al., PRL 115, 136402 (2015).                      %
     %   T. Thonhauser et al., PRB 76, 125112 (2007).                       %
     %   K. Berland et al., Rep. Prog. Phys. 78, 066501 (2015).             %
     %   D.C. Langreth et al., J. Phys.: Condens. Matter 21, 084203 (2009). %
     %                                                                      %
     %                                                                      %
     % If you are calculating the stress with vdW-DF, please also cite:     %
     %                                                                      %
     %   R. Sabatini et al., J. Phys.: Condens. Matter 24, 424209 (2012).   %
     %                                                                      %
     %%%%%%%%%%%%%%%%%%%%%%%%%%%%%%%%%%%%%%%%%%%%%%%%%%%%%%%%%%%%%%%%%%%%%%%%

     Adding external electric field

     Computed dipole along edir(3) :
        Dipole               -4.6824 Ry au,        -11.9014 Debye
        Dipole field         -0.0088 Ry au,

        Potential amp.        0.8191 Ry
        Total length         46.3494 bohr

     Starting wfcs are  294 atomic wfcs
  @ DRIVER MODE: Message from server: STATUS
  @ DRIVER MODE: Message from server: POSDATA
  @ DRIVER MODE: Reading and sharing cell
  @ DRIVER MODE: Reading and sharing positions
  @ DRIVER MODE: Received positions

     Self-consistent Calculation

     iteration #  1     ecut=    29.40 Ry     beta= 0.05
     Davidson diagonalization with overlap
     c_bands:  3 eigenvalues not converged
     c_bands:  1 eigenvalues not converged
     c_bands:  1 eigenvalues not converged
     c_bands:  3 eigenvalues not converged
     c_bands:  3 eigenvalues not converged
     c_bands:  2 eigenvalues not converged
     c_bands:  2 eigenvalues not converged
     ethr =  1.00E-05,  avg # of iterations = 19.8

[...]

     total energy              =   -2866.40922804 Ry
     estimated scf accuracy    <     587.76004569 Ry

     iteration #  2     ecut=    29.40 Ry     beta= 0.05
     Davidson diagonalization with overlap
     ethr =  1.00E-02,  avg # of iterations = 14.7

[...]

     iteration # 46     ecut=    29.40 Ry     beta= 0.05
     Davidson diagonalization with overlap
     c_bands:  1 eigenvalues not converged
     ethr =  2.87E-10,  avg # of iterations = 15.2

[...]

     total energy              =   -2917.92261001 Ry
     estimated scf accuracy    <       0.00000019 Ry

     iteration # 51     ecut=    29.40 Ry     beta= 0.05
     Davidson diagonalization with overlap
     ethr =  4.02E-11,  avg # of iterations =  9.0

     negative rho (up, down):  1.842E-02 0.000E+00

     Adding external electric field

     Computed dipole along edir(3) :
        Dipole                0.7604 Ry au,          1.9329 Debye
        Dipole field          0.0014 Ry au,

        Potential amp.       -0.1330 Ry
        Total length         46.3494 bohr

     End of self-consistent calculation

          k = 0.0000 0.0000 0.0000 ( 18029 PWs)   bands (ev):

   -55.9992 -55.9898 -55.9651 -55.9535 -55.8773 -55.8471 -55.8275 -55.8128
   -55.8080 -55.7740 -55.7717 -55.7381 -55.5274 -55.2543 -54.9763 -54.9423
   -32.5442 -32.4816 -32.3483 -32.3295 -32.3068 -32.3019 -32.2921 -32.2623
   -32.2417 -32.2168 -32.2101 -32.1883 -32.1700 -32.1511 -32.1430 -32.1297
   -32.1099 -32.1035 -32.0889 -32.0561 -32.0558 -32.0528 -32.0072 -32.0056
   -32.0045 -32.0023 -31.9959 -31.9884 -31.9740 -31.9621 -31.9552 -31.9472
   -31.9390 -31.9384 -31.9249 -31.9155 -31.8840 -31.7772 -31.7096 -31.5428
   -31.5090 -31.4670 -31.3835 -31.2952 -31.2727 -31.2002 -31.1137 -31.0027
   -16.7417 -16.4732 -16.2495 -16.1514 -16.1204 -16.0039 -15.8380 -15.7194
   -15.6686 -15.5708 -15.5569 -15.5349 -15.5014 -15.4748 -15.4716 -15.4426
   -15.4396 -15.4197 -15.4068 -15.3585 -15.3361 -15.3024 -15.2058 -15.1732
   -15.1331 -15.1062 -15.0650 -15.0548 -15.0086 -14.5691 -13.4788 -13.3624
    -7.5115  -4.3075  -4.1197  -4.0182  -3.9545  -3.9045  -3.8461  -3.6416
    -3.5500  -3.5302  -3.2293  -3.1831  -3.1655  -3.1532  -3.1148  -2.8991
    -2.8450  -2.8138  -2.7937  -2.7786  -2.7674  -2.7597  -2.7402  -2.7126
    -2.6002  -2.5481  -2.5404  -2.4174  -2.3896  -2.3338  -2.3110  -2.2638
    -2.2491  -2.2399  -2.2139  -2.2027  -2.1891  -2.1607  -2.0824  -1.9674
    -1.8162  -1.7971  -1.7616  -1.6563  -1.6061  -1.5449  -1.4556  -1.4394
    -1.4246  -1.3903  -1.3750  -1.3017  -1.1765  -1.1519  -1.1427  -1.0428
    -0.9957  -0.9765  -0.8801  -0.8445  -0.7736  -0.7630  -0.7513  -0.7137
    -0.5509  -0.4999  -0.4691  -0.4007  -0.3718  -0.3213  -0.3001  -0.2712
    -0.1879  -0.1376  -0.1157  -0.1074  -0.0609  -0.0241  -0.0077   0.0016
     0.0129   0.0265   0.1995   0.2727   0.2797   0.3586   0.3687   0.5294
     0.5897   0.6581   0.7655   0.9712   1.0457   1.1348   1.2381   1.4485
     1.6170   1.6626   3.1374   3.2209   3.2691   3.2784   3.3799   3.4157
     3.5904   3.5975   3.6110   3.6852

[...]

          k = 0.0380-0.0419 0.0000 ( 17876 PWs)   bands (ev):

[...]

          k =-0.0760-0.0000 0.0000 ( 17886 PWs)   bands (ev):

[...]

          k =-0.0760-0.0839 0.0000 ( 17948 PWs)   bands (ev):

   -55.9825 -55.9816 -55.9743 -55.9689 -55.8703 -55.8343 -55.8303 -55.8296
   -55.7916 -55.7900 -55.7558 -55.7542 -55.5264 -55.2552 -54.9593 -54.9592
   -32.3500 -32.3449 -32.2972 -32.2965 -32.2779 -32.2770 -32.2601 -32.2479
   -32.1998 -32.1937 -32.1875 -32.1810 -32.1443 -32.1255 -32.1210 -32.1193
   -32.1098 -32.1038 -32.1017 -32.1009 -32.0947 -32.0922 -32.0737 -32.0492
   -32.0457 -32.0356 -32.0256 -32.0119 -31.9905 -31.9901 -31.9874 -31.9859
   -31.9705 -31.9696 -31.9659 -31.9628 -31.8894 -31.7798 -31.7058 -31.6083
   -31.5106 -31.4878 -31.2855 -31.2854 -31.1963 -31.1962 -31.1570 -31.1570
   -16.1740 -16.1547 -15.9428 -15.9155 -15.9107 -15.8993 -15.7713 -15.7109
   -15.6938 -15.6918 -15.6139 -15.5921 -15.5708 -15.5437 -15.5310 -15.5190
   -15.5125 -15.5068 -15.4606 -15.4545 -15.4350 -15.4278 -15.3254 -15.3155
   -15.3114 -15.2566 -15.1821 -15.0544 -15.0220 -14.7351 -13.4642 -13.4641
    -7.5072  -4.2878  -3.7164  -3.4644  -3.4416  -3.1731  -3.1559  -3.1470
    -3.0870  -2.9143  -2.8984  -2.8753  -2.8545  -2.8258  -2.8240  -2.8026
    -2.8011  -2.7898  -2.7503  -2.7393  -2.7132  -2.6764  -2.6658  -2.6543
    -2.6465  -2.6219  -2.6115  -2.5698  -2.5404  -2.5332  -2.5184  -2.4951
    -2.3108  -2.2263  -2.2000  -2.1365  -2.1291  -2.0944  -2.0628  -2.0509
    -2.0358  -1.9845  -1.9112  -1.7323  -1.6992  -1.6818  -1.6353  -1.5956
    -1.5550  -1.4678  -1.4009  -1.3753  -1.3692  -1.3206  -1.2118  -1.1918
    -1.1763  -1.1029  -1.0717  -1.0478  -1.0086  -0.9930  -0.9592  -0.9539
    -0.8606  -0.8116  -0.7645  -0.7621  -0.7164  -0.6505  -0.6375  -0.6094
    -0.5011  -0.4821  -0.4285  -0.3815  -0.2804  -0.2104  -0.0156   0.0468
     0.0724   0.1306   0.2109   0.2932   0.3065   0.3200   0.3208   0.3679
     0.4368   0.5335   0.5430   0.5962   0.7010   1.3402   1.4095   1.4101
     1.4825   1.4825   3.4233   3.4324   3.4720   3.4938   3.6312   3.6456
     3.6686   3.6698   3.7289   3.8060

     the Fermi energy is     3.1350 ev

!    total energy              =   -2917.92270206 Ry
     estimated scf accuracy    <       0.00000005 Ry
     smearing contrib. (-TS)   =      -0.02181119 Ry
     internal energy E=F+TS    =   -2917.90089087 Ry

     The total energy is F=E-TS. E is the sum of the following terms:
     one-electron contribution =  -24780.19005757 Ry
     hartree contribution      =   12473.69806540 Ry
     xc contribution           =    -479.19303729 Ry
     ewald contribution        =    9867.78304730 Ry
     electric field correction =       0.00109128 Ry

     convergence has been achieved in  51 iterations

     Forces acting on atoms (cartesian axes, Ry/au):

     atom    1 type  1   force =     0.00017259   -0.00023631    0.09671628
     atom    2 type  1   force =     0.00007240   -0.00054130   -0.17539535
     atom    3 type  2   force =     0.00017942    0.00000577   -0.02478453
     atom    4 type  2   force =     0.00005643   -0.00133422    0.05291405
     atom    5 type  2   force =    -0.01178550    0.00012907    0.00258632
     atom    6 type  2   force =     0.01395173    0.00051495    0.00338829
     atom    7 type  1   force =     0.00129338    0.00071748   -0.01176806
     atom    8 type  1   force =    -0.00006017    0.00766781    0.02820456
     atom    9 type  2   force =    -0.00024338   -0.00023917   -0.00011050
     atom   10 type  2   force =    -0.00220953    0.00207243   -0.01527154
     atom   11 type  2   force =    -0.00000733   -0.00009774    0.00023446
     atom   12 type  2   force =    -0.00003558    0.00014035   -0.00005974
     atom   13 type  1   force =    -0.00104183   -0.00025510   -0.00005304
     atom   14 type  1   force =    -0.00023007   -0.00026638    0.00057533
     atom   15 type  2   force =    -0.00030631   -0.00005241   -0.00009244
     atom   16 type  2   force =     0.00025449    0.00007494   -0.00051444
     atom   17 type  2   force =     0.00014402    0.00010399   -0.00018635
     atom   18 type  2   force =    -0.00021725    0.00035124   -0.00049643
     atom   19 type  1   force =    -0.00062879    0.00010149   -0.00038913
     atom   20 type  1   force =     0.00013084   -0.00126741   -0.00038940
     atom   21 type  2   force =     0.00009038   -0.00005006    0.10327161
     atom   22 type  2   force =     0.00043543   -0.00025560   -0.00022078
     atom   23 type  2   force =    -0.07150363   -0.00015719   -0.02769092
     atom   24 type  2   force =     0.07149343    0.00033472   -0.02777647
     atom   25 type  1   force =     0.00018952   -0.00022262    0.09622184
     atom   26 type  1   force =     0.00011022   -0.00028643   -0.17553824
     atom   27 type  2   force =     0.00022211   -0.00011744   -0.02386732
     atom   28 type  2   force =     0.00008927   -0.00110088    0.05286054
     atom   29 type  2   force =    -0.01199026    0.00068167    0.00233789
     atom   30 type  2   force =     0.01402103    0.00103225    0.00318708
     atom   31 type  1   force =     0.00114776    0.00335301   -0.01208471
     atom   32 type  1   force =    -0.00024578   -0.00974850    0.02864213
     atom   33 type  2   force =    -0.00017848    0.00031390   -0.00008298
     atom   34 type  2   force =    -0.00172986    0.00175432   -0.02356887
     atom   35 type  2   force =    -0.00000846    0.00009097    0.00023189
     atom   36 type  2   force =     0.00055683    0.00012476    0.00021634
     atom   37 type  1   force =    -0.00097752   -0.00039250    0.00019073
     atom   38 type  1   force =     0.00023436   -0.00012103    0.00050531
     atom   39 type  2   force =    -0.00005718   -0.00054542   -0.00074327
     atom   40 type  2   force =    -0.00004498    0.00025426    0.00048318
     atom   41 type  2   force =    -0.00058438   -0.00049105   -0.00013710
     atom   42 type  2   force =    -0.00021016   -0.00077596   -0.00069586
     atom   43 type  1   force =    -0.00046813    0.00001146   -0.00007894
     atom   44 type  1   force =     0.00012518    0.00067865   -0.00007929
     atom   45 type  2   force =     0.00006843   -0.00006769    0.10328164
     atom   46 type  2   force =    -0.07150597   -0.00008381   -0.02770147
     atom   47 type  2   force =     0.07151717    0.00033649   -0.02778055
     atom   48 type  3   force =     0.00005307    0.00049802   -0.02386771
     atom   49 type  4   force =    -0.00035450   -0.00128863    0.03222494
     atom   50 type  5   force =     0.00028800   -0.00378154   -0.00401479
     atom   51 type  5   force =    -0.00027248    0.00243238   -0.00283419

     Total force =     0.370245     Total SCF correction =     0.000647
  @ DRIVER MODE: Message from server: STATUS
  @ DRIVER MODE: Message from server: GETFORCE
  @ DRIVER MODE: Returning v,forces,stress,ensemble

     Writing output data file ./calc.save/
  @ DRIVER MODE: Message from server: EXIT
  @ DRIVE MODE: Exiting

     General routines

     Parallel routines

   This run was terminated on:  13: 1:45  24Aug2021

   JOB DONE.