     Program PWSCF v.6.7GPU starts on 23Sep2021 at  2: 8: 7

     R & G space division:  proc/nbgrp/npool/nimage =      10
     Reading input from /storage/home/hcoda1/3/ntian30/research/carbon/CxH_vib/H2O_calc/ads_slab/CH3NHO_a/out_0032/pw.inp
Warning: card &CELL ignored
Warning: card   CELL_DYNAMICS='IPI', ignored
Warning: card / ignored

     Current dimensions of program PWSCF are:
     Max number of different atomic species (ntypx) = 10
     Max number of k-points (npk) =  40000
     Max angular momentum in pseudopotentials (lmaxx) =  3
     Presently no symmetry can be used with electric field

     Message from routine cell_base_init:
     DEPRECATED: use true lattice parameter, not A to a.u. conversion factor

     IMPORTANT: XC functional enforced from input :
     Exchange-correlation= BEEF-VDW
                           (   1   4  43  14   2   0   0)
     Any further DFT definition will be discarded
     Please, verify this is what you really want

  @ DRIVER MODE: Connecting to
 qe_1139763_2937319.sched-torque.pace.gatech.eduelbtjmb0_scratch
  using UNIX socket
  @ DRIVER MODE: Message from server: STATUS
  @ DRIVER MODE: Message from server: INIT
  @ DRIVER MODE: Receiving replica           0          -1
  @ DRIVER MODE: Receiving encoded integer          25
  @ DRIVER MODE:  SCF:  T  FORCE:  T  STRESS:  F  VC:  F  ENSEMBLE:  F
  @ DRIVER MODE:  SCF:  T  FORCE:  T  STRESS:  F  VC:  F  ENSEMBLE:  F

     Using Slab Decomposition

     bravais-lattice index     =            0
     lattice parameter (alat)  =       1.8897  a.u.
     unit-cell volume          =    6658.9804 (a.u.)^3
     number of atoms/cell      =           54
     number of atomic types    =            5
     number of electrons       =       397.00
     number of Kohn-Sham states=          208
     kinetic-energy cutoff     =      29.3995  Ry
     charge density cutoff     =     293.9946  Ry
     scf convergence threshold =      7.3E-08
     mixing beta               =       0.0500
     number of iterations used =            8  plain     mixing
     Exchange-correlation= BEEF-VDW
                           (   1   4  43  14   2   0   0)

     celldm(1)=   1.889726  celldm(2)=   0.000000  celldm(3)=   0.000000
     celldm(4)=   0.000000  celldm(5)=   0.000000  celldm(6)=   0.000000

     crystal axes: (cart. coord. in units of alat)
               a(1) = (   6.579727   0.000000   0.000000 )
               a(2) = (  -0.000775   5.961596   0.000000 )
               a(3) = (   0.000000   0.000000  25.155947 )

     reciprocal axes: (cart. coord. in units 2 pi/alat)
               b(1) = (  0.151982  0.000020  0.000000 )
               b(2) = (  0.000000  0.167740  0.000000 )
               b(3) = (  0.000000  0.000000  0.039752 )

     PseudoPot. # 1 for Ti read from file:
     /storage/coda1/p-amedford6/0/shared/rich_project_chbe-medford/medford-share/data/pseudos_module/espresso/nninc/pbe/van/Ti.UPF
     MD5 check sum: 8e4df49b7f0d34bbd5052bf3f5ea0213
     Pseudo is Ultrasoft, Zval = 12.0
     Generated by new atomic code, or converted to UPF format
     Using radial grid of  851 points,  6 beta functions with:
                l(1) =   0
                l(2) =   0
                l(3) =   1
                l(4) =   1
                l(5) =   2
                l(6) =   2
     Q(r) pseudized with  8 coefficients,  rinner =    1.000   1.000   1.000
                                                       1.000   1.000

     PseudoPot. # 2 for O  read from file:
     /storage/coda1/p-amedford6/0/shared/rich_project_chbe-medford/medford-share/data/pseudos_module/espresso/nninc/pbe/van/O.UPF
     MD5 check sum: 78c19812648e8988a0fe644b0f25305e
     Pseudo is Ultrasoft, Zval =  6.0
     Generated by new atomic code, or converted to UPF format
     Using radial grid of  737 points,  4 beta functions with:
                l(1) =   0
                l(2) =   0
                l(3) =   1
                l(4) =   1
     Q(r) pseudized with  8 coefficients,  rinner =    0.800   0.800   0.800

     PseudoPot. # 3 for N  read from file:
     /storage/coda1/p-amedford6/0/shared/rich_project_chbe-medford/medford-share/data/pseudos_module/espresso/nninc/pbe/van/N.UPF
     MD5 check sum: 90d10febe142ad51ac9d5be1deb811c4
     Pseudo is Ultrasoft, Zval =  5.0
     Generated by new atomic code, or converted to UPF format
     Using radial grid of  729 points,  4 beta functions with:
                l(1) =   0
                l(2) =   0
                l(3) =   1
                l(4) =   1
     Q(r) pseudized with  8 coefficients,  rinner =    0.800   0.800   0.800

     PseudoPot. # 4 for C  read from file:
     /storage/coda1/p-amedford6/0/shared/rich_project_chbe-medford/medford-share/data/pseudos_module/espresso/nninc/pbe/van/C.UPF
     MD5 check sum: 1a69bf6b8db32088f5b2163dbdb77a27
     Pseudo is Ultrasoft, Zval =  4.0
     Generated by new atomic code, or converted to UPF format
     Using radial grid of  721 points,  4 beta functions with:
                l(1) =   0
                l(2) =   0
                l(3) =   1
                l(4) =   1
     Q(r) pseudized with  8 coefficients,  rinner =    0.800   0.800   0.800

     PseudoPot. # 5 for H  read from file:
     /storage/coda1/p-amedford6/0/shared/rich_project_chbe-medford/medford-share/data/pseudos_module/espresso/nninc/pbe/van/H.UPF
     MD5 check sum: b5ee9d7bfd3a09ee7748110bda690ff7
     Pseudo is Ultrasoft, Zval =  1.0
     Generated by new atomic code, or converted to UPF format
     Using radial grid of  615 points,  1 beta functions with:
                l(1) =   0
     Q(r) pseudized with  8 coefficients,  rinner =    0.800

     atomic species   valence    mass     pseudopotential
        Ti1           12.00    47.86700     Ti( 1.00)
        O1             6.00    15.99900     O ( 1.00)
        N1             5.00    14.00700     N ( 1.00)
        C1             4.00    12.01100     C ( 1.00)
        H1             1.00     1.00800     H ( 1.00)

     No symmetry found

   Cartesian axes

     site n.     atom                  positions (alat units)
         1           Ti1 tau(   1) = (   0.0004258   2.9801865   6.0000000  )
         2           Ti1 tau(   2) = (   3.2906075   1.4906267   6.0002472  )
         3           O1  tau(   3) = (   0.0006271   0.0005054   7.9858123  )
         4           O1  tau(   4) = (   3.2906025   0.0005020   7.3038282  )
         5           O1  tau(   5) = (   4.5942328   1.4918067   9.2879030  )
         6           O1  tau(   6) = (   1.9868534   1.4903216   9.2879459  )
         7           Ti1 tau(   7) = (   3.2907910   2.8959150   9.1758416  )
         8           Ti1 tau(   8) = (   0.0015273   1.4827037   9.2680791  )
         9           O1  tau(   9) = (   3.2880966   5.9442215  11.2779904  )
        10           O1  tau(  10) = (   0.0116148   5.9584955  10.6183126  )
        11           O1  tau(  11) = (   1.2901275   1.4920942  12.6240107  )
        12           O1  tau(  12) = (   5.2966278   1.4852543  12.6143030  )
        13           Ti1 tau(  13) = (   0.0031916   3.1007002  12.7073671  )
        14           Ti1 tau(  14) = (   3.2978183   1.3116672  12.6600973  )
        15           O1  tau(  15) = (   6.5743189   0.0224225  14.6379036  )
        16           O1  tau(  16) = (   3.2931419   0.0435670  13.8892854  )
        17           O1  tau(  17) = (   4.5409235   1.5821231  16.0748620  )
        18           O1  tau(  18) = (   2.0417342   1.5698890  16.0900686  )
        19           Ti1 tau(  19) = (   3.2746960   3.0378214  15.6558348  )
        20           Ti1 tau(  20) = (   6.4705883   1.5381531  15.9030332  )
        21           O1  tau(  21) = (   3.2904802   0.0005063   4.7018136  )
        22           O1  tau(  22) = (   6.5584422   0.0457650  17.1906971  )
        23           O1  tau(  23) = (   1.3043587   1.4918075   6.0039043  )
        24           O1  tau(  24) = (   5.2767064   1.4903225   6.0039473  )
        25           Ti1 tau(  25) = (   0.0000382   5.9609847   6.0000000  )
        26           Ti1 tau(  26) = (   3.2902200   4.4714249   6.0002472  )
        27           O1  tau(  27) = (   0.0002396   2.9813036   7.9858123  )
        28           O1  tau(  28) = (   3.2902150   2.9813002   7.3038282  )
        29           O1  tau(  29) = (   4.5938453   4.4726049   9.2879030  )
        30           O1  tau(  30) = (   1.9864658   4.4711199   9.2879459  )
        31           Ti1 tau(  31) = (   3.2891106   5.8743827   9.1763621  )
        32           Ti1 tau(  32) = (   0.0006254   4.4649316   9.2693709  )
        33           O1  tau(  33) = (   3.2918970   3.0256722  11.2465752  )
        34           O1  tau(  34) = (   0.0092240   2.9805883  10.6323155  )
        35           O1  tau(  35) = (   1.2932338   4.4650182  12.6342030  )
        36           O1  tau(  36) = (   5.2897350   4.4662865  12.6224893  )
        37           Ti1 tau(  37) = (   0.0112454   0.1207271  12.6557084  )
        38           Ti1 tau(  38) = (   3.2993242   4.4067673  12.4119285  )
        39           O1  tau(  39) = (   6.5542949   2.9732608  14.6543823  )
        40           O1  tau(  40) = (   3.2957262   2.9928748  13.8751945  )
        41           O1  tau(  41) = (   4.5169628   4.4726675  16.1294972  )
        42           O1  tau(  42) = (   2.0179035   4.4711894  16.0655614  )
        43           Ti1 tau(  43) = (   3.1791666   0.0518155  16.3463265  )
        44           Ti1 tau(  44) = (   6.5235282   4.6410908  16.0777984  )
        45           O1  tau(  45) = (   3.2900926   2.9813045   4.7018136  )
        46           O1  tau(  46) = (   1.3039711   4.4726057   6.0039043  )
        47           O1  tau(  47) = (   5.2763189   4.4711207   6.0039473  )
        48           N1  tau(  48) = (   0.0679940   2.9882472  17.3287890  )
        49           C1  tau(  49) = (   0.3445104   2.8919884  18.7043053  )
        50           H1  tau(  50) = (   0.5935414   3.8503421  19.1719745  )
        51           H1  tau(  51) = (   6.0379261   2.4644003  19.2136804  )
        52           H1  tau(  52) = (   1.1315070   2.1426081  18.8955932  )
        53           O1  tau(  53) = (   3.2462511   0.0690349  18.1809703  )
        54           H1  tau(  54) = (   3.8186072   5.4079590  18.6400750  )

     number of k points=    10  Fermi-Dirac smearing, width (Ry)=  0.0073
                       cart. coord. in units 2pi/alat
        k(    1) = (   0.0000000   0.0000000   0.0000000), wk =   0.1250000
        k(    2) = (   0.0000000   0.0419351   0.0000000), wk =   0.2500000
        k(    3) = (   0.0000000  -0.0838702   0.0000000), wk =   0.1250000
        k(    4) = (   0.0379955   0.0000049   0.0000000), wk =   0.2500000
        k(    5) = (   0.0379955   0.0419400   0.0000000), wk =   0.2500000
        k(    6) = (   0.0379955  -0.0838652   0.0000000), wk =   0.2500000
        k(    7) = (   0.0379955  -0.0419301   0.0000000), wk =   0.2500000
        k(    8) = (  -0.0759910  -0.0000099   0.0000000), wk =   0.1250000
        k(    9) = (  -0.0759910   0.0419252   0.0000000), wk =   0.2500000
        k(   10) = (  -0.0759910  -0.0838800   0.0000000), wk =   0.1250000

     Initial potential from superposition of free atoms

     starting charge  380.99916, renormalised to  397.00000

     negative rho (up, down):  1.676E-02 0.000E+00

     %%%%%%%%%%%%%%%%%%%%%%%%%%%%%%%%%%%%%%%%%%%%%%%%%%%%%%%%%%%%%%%%%%%%%%%%
     %                                                                      %
     % You are using vdW-DF, which was implemented by the Thonhauser group. %
     % Please cite the following two papers that made this development      %
     % possible and the two reviews that describe the various versions:     %
     %                                                                      %
     %   T. Thonhauser et al., PRL 115, 136402 (2015).                      %
     %   T. Thonhauser et al., PRB 76, 125112 (2007).                       %
     %   K. Berland et al., Rep. Prog. Phys. 78, 066501 (2015).             %
     %   D.C. Langreth et al., J. Phys.: Condens. Matter 21, 084203 (2009). %
     %                                                                      %
     %                                                                      %
     % If you are calculating the stress with vdW-DF, please also cite:     %
     %                                                                      %
     %   R. Sabatini et al., J. Phys.: Condens. Matter 24, 424209 (2012).   %
     %                                                                      %
     %%%%%%%%%%%%%%%%%%%%%%%%%%%%%%%%%%%%%%%%%%%%%%%%%%%%%%%%%%%%%%%%%%%%%%%%

     Adding external electric field

     Computed dipole along edir(3) :
        Dipole               -8.2921 Ry au,        -21.0764 Debye
        Dipole field         -0.0156 Ry au,

        Potential amp.        1.4506 Ry
        Total length         46.3494 bohr

     Starting wfcs are  300 atomic wfcs
  @ DRIVER MODE: Message from server: STATUS
  @ DRIVER MODE: Message from server: POSDATA
  @ DRIVER MODE: Reading and sharing cell
  @ DRIVER MODE: Reading and sharing positions
  @ DRIVER MODE: Received positions

     Self-consistent Calculation

     iteration #  1     ecut=    29.40 Ry     beta= 0.05
     Davidson diagonalization with overlap
     c_bands:  1 eigenvalues not converged
     c_bands:  1 eigenvalues not converged
     c_bands:  1 eigenvalues not converged
     c_bands:  3 eigenvalues not converged
     c_bands:  2 eigenvalues not converged
     c_bands:  1 eigenvalues not converged
     c_bands:  1 eigenvalues not converged
     ethr =  1.00E-05,  avg # of iterations = 19.2

[...]

     total energy              =   -2606.42886005 Ry
     estimated scf accuracy    <    3820.87989898 Ry

     iteration #  2     ecut=    29.40 Ry     beta= 0.05
     Davidson diagonalization with overlap
     ethr =  1.00E-02,  avg # of iterations = 23.4

[...]

     iteration # 59     ecut=    29.40 Ry     beta= 0.05
     Davidson diagonalization with overlap
     c_bands:  1 eigenvalues not converged
     ethr =  1.36E-07,  avg # of iterations =  6.5

[...]

     total energy              =   -2952.64741554 Ry
     estimated scf accuracy    <       0.00000015 Ry

     iteration # 79     ecut=    29.40 Ry     beta= 0.05
     Davidson diagonalization with overlap
     ethr =  3.83E-11,  avg # of iterations =  5.8

     negative rho (up, down):  1.696E-02 0.000E+00

     Adding external electric field

     Computed dipole along edir(3) :
        Dipole                0.3612 Ry au,          0.9180 Debye
        Dipole field          0.0007 Ry au,

        Potential amp.       -0.0632 Ry
        Total length         46.3494 bohr

     End of self-consistent calculation

          k = 0.0000 0.0000 0.0000 ( 18029 PWs)   bands (ev):

   -56.8762 -56.8426 -55.9464 -55.9108 -55.7360 -55.6713 -55.5512 -55.4278
   -55.3939 -55.3139 -55.3119 -55.2412 -55.2194 -55.1158 -55.0477 -54.9198
   -33.2949 -33.1465 -33.1184 -33.0559 -32.9657 -32.9220 -32.4276 -32.2113
   -32.1666 -32.1464 -32.0909 -32.0825 -32.0570 -31.9699 -31.9484 -31.9062
   -31.8924 -31.8739 -31.8335 -31.8056 -31.7968 -31.7941 -31.7815 -31.7748
   -31.7503 -31.7306 -31.6658 -31.6319 -31.5913 -31.5828 -31.5516 -31.5290
   -31.5167 -31.5087 -31.4752 -31.4663 -31.4402 -31.4308 -31.4088 -31.3945
   -31.3564 -31.3063 -31.2990 -31.2833 -31.2513 -31.1917 -31.1563 -31.1031
   -16.9790 -16.4963 -16.4173 -16.1924 -16.0699 -16.0644 -16.0187 -15.9575
   -15.7835 -15.7300 -15.6898 -15.6263 -15.4752 -15.3647 -15.2678 -15.0719
   -15.0376 -15.0052 -15.0023 -14.9897 -14.9589 -14.9467 -14.8711 -14.8203
   -14.7895 -14.7073 -14.7001 -14.5395 -14.3103 -14.2877 -13.9253 -13.8183
   -13.7970  -8.0343  -4.5547  -4.1111  -3.8856  -3.7104  -3.5609  -3.4948
    -3.4630  -3.3948  -3.3814  -3.2438  -3.2359  -3.2293  -3.2230  -3.1386
    -3.0741  -3.0158  -2.9267  -2.9112  -2.8207  -2.7702  -2.6110  -2.5764
    -2.4888  -2.4103  -2.4047  -2.3382  -2.3190  -2.2776  -2.2422  -2.2109
    -2.1816  -2.1385  -2.0840  -2.0739  -1.9791  -1.9726  -1.8906  -1.8753
    -1.8688  -1.7472  -1.7086  -1.6491  -1.5092  -1.4877  -1.4704  -1.4392
    -1.4011  -1.3407  -1.2358  -1.1786  -1.1491  -1.0955  -1.0257  -0.9692
    -0.9490  -0.8753  -0.8482  -0.7739  -0.7305  -0.7148  -0.6949  -0.6694
    -0.5319  -0.4496  -0.4148  -0.3621  -0.3474  -0.3083  -0.2824  -0.2285
    -0.1699  -0.1458  -0.0494  -0.0472   0.0882   0.1560   0.1595   0.2579
     0.3027   0.3091   0.3643   0.4347   0.4461   0.5099   0.5290   0.5880
     0.5935   0.6363   0.7196   0.7969   0.8399   0.8698   0.9103   0.9308
     1.0435   1.0676   1.1308   1.1872   1.4975   1.5699   2.1782   2.4183
     2.5902   2.8676   3.0631   3.3626   3.4043   3.4224   3.4226   3.7333

[...]

          k = 0.0380-0.0419 0.0000 ( 17876 PWs)   bands (ev):

[...]

          k =-0.0760-0.0000 0.0000 ( 17886 PWs)   bands (ev):

[...]

          k =-0.0760-0.0839 0.0000 ( 17948 PWs)   bands (ev):

   -56.8601 -56.8586 -55.9344 -55.9226 -55.7312 -55.6760 -55.5504 -55.4114
   -55.4102 -55.3145 -55.3073 -55.2453 -55.2180 -55.1143 -55.0492 -54.9211
   -33.1330 -33.1314 -33.1129 -33.1114 -33.0100 -33.0088 -32.2527 -32.2424
   -32.1290 -32.1248 -32.1169 -32.1159 -32.0294 -31.9888 -31.9630 -31.9493
   -31.9016 -31.9001 -31.8361 -31.7931 -31.7730 -31.7638 -31.7629 -31.6870
   -31.6369 -31.6316 -31.6301 -31.6054 -31.5950 -31.5915 -31.5906 -31.5845
   -31.5360 -31.5280 -31.5114 -31.4856 -31.4808 -31.4652 -31.4354 -31.4108
   -31.3943 -31.3592 -31.3085 -31.2932 -31.2602 -31.2571 -31.1587 -31.1408
   -16.4867 -16.3367 -16.3349 -16.2923 -16.2909 -16.0272 -16.0228 -15.7748
   -15.7457 -15.5701 -15.4582 -15.4360 -15.3944 -15.3538 -15.2766 -15.2257
   -15.2127 -15.1841 -15.1581 -15.0853 -15.0510 -14.9505 -14.9150 -14.8529
   -14.8184 -14.7450 -14.7046 -14.6764 -14.4808 -14.4210 -13.9230 -13.9221
   -13.8204  -8.0331  -4.1149  -3.4772  -3.4138  -3.4094  -3.3741  -3.3670
    -3.2915  -3.1626  -3.1592  -3.0427  -2.9586  -2.9316  -2.9019  -2.8479
    -2.8341  -2.7382  -2.6883  -2.6834  -2.6682  -2.6338  -2.6026  -2.5955
    -2.5379  -2.4115  -2.3666  -2.3296  -2.2892  -2.2206  -2.1905  -2.1826
    -2.1498  -2.1104  -2.0922  -2.0632  -2.0507  -2.0440  -2.0334  -1.9472
    -1.7994  -1.7724  -1.6793  -1.6763  -1.6660  -1.6265  -1.5969  -1.5829
    -1.5626  -1.5288  -1.4522  -1.4264  -1.3622  -1.2257  -1.2138  -1.1790
    -1.1253  -1.0225  -1.0077  -0.9113  -0.8940  -0.8840  -0.8199  -0.7974
    -0.7810  -0.7188  -0.6815  -0.5609  -0.4894  -0.4811  -0.4631  -0.4536
    -0.4037  -0.3561  -0.2835  -0.2797  -0.2631  -0.1550  -0.0593   0.0348
     0.0421   0.1099   0.1252   0.1811   0.3372   0.3485   0.3901   0.4528
     0.5683   0.6590   0.7133   0.8130   0.8462   0.9516   0.9703   0.9755
     0.9947   1.0036   1.0470   1.1030   1.1665   1.4799   1.9768   3.0110
     3.0142   3.0725   3.0781   3.3893   3.3915   3.5036   3.5086   3.8289

     the Fermi energy is     2.0752 ev

!    total energy              =   -2952.64742749 Ry
     estimated scf accuracy    <       0.00000003 Ry
     smearing contrib. (-TS)   =      -0.01068248 Ry
     internal energy E=F+TS    =   -2952.63674501 Ry

     The total energy is F=E-TS. E is the sum of the following terms:
     one-electron contribution =  -24061.23441644 Ry
     hartree contribution      =   12121.06701703 Ry
     xc contribution           =    -487.78235428 Ry
     ewald contribution        =    9475.31276251 Ry
     electric field correction =       0.00024618 Ry

     convergence has been achieved in  79 iterations

     Forces acting on atoms (cartesian axes, Ry/au):

     atom    1 type  1   force =     0.00005926   -0.00036337    0.12633892
     atom    2 type  1   force =    -0.00006201    0.00039696   -0.15472753
     atom    3 type  2   force =     0.00003706    0.00023050   -0.06866856
     atom    4 type  2   force =     0.00004277    0.00001241    0.01723260
     atom    5 type  2   force =    -0.00541645   -0.00183103   -0.01283399
     atom    6 type  2   force =     0.00699904   -0.00106978   -0.01373524
     atom    7 type  1   force =    -0.00029761   -0.00640749    0.05891328
     atom    8 type  1   force =     0.00058190    0.00675373    0.10094217
     atom    9 type  2   force =     0.00031771    0.00037911    0.00014777
     atom   10 type  2   force =    -0.00198444    0.00132398   -0.06336314
     atom   11 type  2   force =    -0.00014091   -0.00065140    0.00024360
     atom   12 type  2   force =    -0.00039152   -0.00039874    0.00006205
     atom   13 type  1   force =     0.00056911   -0.00074959    0.00029256
     atom   14 type  1   force =    -0.00003512   -0.00050015    0.00117059
     atom   15 type  2   force =     0.00001071   -0.00000511    0.00024549
     atom   16 type  2   force =     0.00005756   -0.00022344   -0.00071768
     atom   17 type  2   force =    -0.00039521   -0.00040899   -0.00067575
     atom   18 type  2   force =    -0.00039075   -0.00062480   -0.00042657
     atom   19 type  1   force =     0.00144354    0.00035364   -0.00080568
     atom   20 type  1   force =    -0.00090017    0.00085781   -0.00066246
     atom   21 type  2   force =     0.00009556    0.00014958    0.09784443
     atom   22 type  2   force =     0.00003698   -0.00006518   -0.00035536
     atom   23 type  2   force =    -0.08272277    0.00003606   -0.03315329
     atom   24 type  2   force =     0.08269126    0.00046587   -0.03321562
     atom   25 type  1   force =     0.00005955   -0.00040226    0.12671558
     atom   26 type  1   force =    -0.00004527   -0.00140885   -0.15488543
     atom   27 type  2   force =     0.00012017   -0.00036898   -0.06707271
     atom   28 type  2   force =     0.00007167    0.00177226    0.01244343
     atom   29 type  2   force =    -0.00383981    0.00476614   -0.01597785
     atom   30 type  2   force =     0.00536777    0.00500532   -0.01690645
     atom   31 type  1   force =    -0.00028873    0.00188156    0.04200593
     atom   32 type  1   force =     0.00075197   -0.00886712    0.10187272
     atom   33 type  2   force =    -0.00004792   -0.00035725   -0.00057156
     atom   34 type  2   force =    -0.00187804    0.00205814   -0.07568222
     atom   35 type  2   force =     0.00015481   -0.00012740   -0.00046537
     atom   36 type  2   force =    -0.00032402    0.00006905   -0.00019021
     atom   37 type  1   force =     0.00046672    0.00054751    0.00038089
     atom   38 type  1   force =    -0.00034624   -0.00078119   -0.00037886
     atom   39 type  2   force =     0.00004629   -0.00048711    0.00059423
     atom   40 type  2   force =    -0.00010008   -0.00056864   -0.00047136
     atom   41 type  2   force =     0.00050661   -0.00053873   -0.00088253
     atom   42 type  2   force =    -0.00123953    0.00042465    0.00020656
     atom   43 type  1   force =     0.00133816   -0.00076163   -0.00019822
     atom   44 type  1   force =    -0.00133171   -0.00061712   -0.00011032
     atom   45 type  2   force =     0.00008401   -0.00002740    0.09771452
     atom   46 type  2   force =    -0.08275745    0.00001586   -0.03316340
     atom   47 type  2   force =     0.08272002    0.00043003   -0.03321062
     atom   48 type  3   force =     0.00033286   -0.00080413   -0.00065500
     atom   49 type  4   force =    -0.00060793   -0.00045910   -0.00054004
     atom   50 type  5   force =    -0.00013610   -0.00007587    0.00070983
     atom   51 type  5   force =     0.00051540    0.00011786   -0.00021661
     atom   52 type  5   force =    -0.00061590    0.00071192    0.00018648
     atom   53 type  2   force =    -0.00750250    0.00788368   -0.00694243
     atom   54 type  5   force =     0.00831972   -0.00669181    0.00559846

     Total force =     0.421491     Total SCF correction =     0.000430
  @ DRIVER MODE: Message from server: STATUS
  @ DRIVER MODE: Message from server: GETFORCE
  @ DRIVER MODE: Returning v,forces,stress,ensemble

     Writing output data file ./calc.save/
  @ DRIVER MODE: Message from server: EXIT
  @ DRIVE MODE: Exiting

     General routines

     Parallel routines

   This run was terminated on:   2:28:44  23Sep2021

   JOB DONE.