     Program PWSCF v.6.7GPU starts on 23Aug2021 at 13: 4:15

     R & G space division:  proc/nbgrp/npool/nimage =       6
     Reading input from /storage/home/hcoda1/3/ntian30/research/carbon/CH2_vib/ads_slab/CH2N2_b/out_0001/pw.inp
Warning: card &CELL ignored
Warning: card   CELL_DYNAMICS='IPI', ignored
Warning: card / ignored

     Current dimensions of program PWSCF are:
     Max number of different atomic species (ntypx) = 10
     Max number of k-points (npk) =  40000
     Max angular momentum in pseudopotentials (lmaxx) =  3
     Presently no symmetry can be used with electric field

     Message from routine cell_base_init:
     DEPRECATED: use true lattice parameter, not A to a.u. conversion factor

     IMPORTANT: XC functional enforced from input :
     Exchange-correlation= BEEF-VDW
                           (   1   4  43  14   2   0   0)
     Any further DFT definition will be discarded
     Please, verify this is what you really want

  @ DRIVER MODE: Connecting to
 qe_1139763_2632805.sched-torque.pace.gatech.eduhjtw5kks_scratch
  using UNIX socket
  @ DRIVER MODE: Message from server: STATUS
  @ DRIVER MODE: Message from server: INIT
  @ DRIVER MODE: Receiving replica           0          -1
  @ DRIVER MODE: Receiving encoded integer          25
  @ DRIVER MODE:  SCF:  T  FORCE:  T  STRESS:  F  VC:  F  ENSEMBLE:  F
  @ DRIVER MODE:  SCF:  T  FORCE:  T  STRESS:  F  VC:  F  ENSEMBLE:  F

     Using Slab Decomposition

     bravais-lattice index     =            0
     lattice parameter (alat)  =       1.8897  a.u.
     unit-cell volume          =    6658.9804 (a.u.)^3
     number of atoms/cell      =           52
     number of atomic types    =            5
     number of electrons       =       394.00
     number of Kohn-Sham states=          207
     kinetic-energy cutoff     =      29.3995  Ry
     charge density cutoff     =     293.9946  Ry
     scf convergence threshold =      7.3E-08
     mixing beta               =       0.0500
     number of iterations used =            8  plain     mixing
     Exchange-correlation= BEEF-VDW
                           (   1   4  43  14   2   0   0)

     celldm(1)=   1.889726  celldm(2)=   0.000000  celldm(3)=   0.000000
     celldm(4)=   0.000000  celldm(5)=   0.000000  celldm(6)=   0.000000

     crystal axes: (cart. coord. in units of alat)
               a(1) = (   6.579727   0.000000   0.000000 )
               a(2) = (  -0.000775   5.961596   0.000000 )
               a(3) = (   0.000000   0.000000  25.155947 )

     reciprocal axes: (cart. coord. in units 2 pi/alat)
               b(1) = (  0.151982  0.000020  0.000000 )
               b(2) = (  0.000000  0.167740  0.000000 )
               b(3) = (  0.000000  0.000000  0.039752 )

     PseudoPot. # 1 for Ti read from file:
     /storage/coda1/p-amedford6/0/shared/rich_project_chbe-medford/medford-share/data/pseudos_module/espresso/nninc/pbe/van/Ti.UPF
     MD5 check sum: 8e4df49b7f0d34bbd5052bf3f5ea0213
     Pseudo is Ultrasoft, Zval = 12.0
     Generated by new atomic code, or converted to UPF format
     Using radial grid of  851 points,  6 beta functions with:
                l(1) =   0
                l(2) =   0
                l(3) =   1
                l(4) =   1
                l(5) =   2
                l(6) =   2
     Q(r) pseudized with  8 coefficients,  rinner =    1.000   1.000   1.000
                                                       1.000   1.000

     PseudoPot. # 2 for O  read from file:
     /storage/coda1/p-amedford6/0/shared/rich_project_chbe-medford/medford-share/data/pseudos_module/espresso/nninc/pbe/van/O.UPF
     MD5 check sum: 78c19812648e8988a0fe644b0f25305e
     Pseudo is Ultrasoft, Zval =  6.0
     Generated by new atomic code, or converted to UPF format
     Using radial grid of  737 points,  4 beta functions with:
                l(1) =   0
                l(2) =   0
                l(3) =   1
                l(4) =   1
     Q(r) pseudized with  8 coefficients,  rinner =    0.800   0.800   0.800

     PseudoPot. # 3 for N  read from file:
     /storage/coda1/p-amedford6/0/shared/rich_project_chbe-medford/medford-share/data/pseudos_module/espresso/nninc/pbe/van/N.UPF
     MD5 check sum: 90d10febe142ad51ac9d5be1deb811c4
     Pseudo is Ultrasoft, Zval =  5.0
     Generated by new atomic code, or converted to UPF format
     Using radial grid of  729 points,  4 beta functions with:
                l(1) =   0
                l(2) =   0
                l(3) =   1
                l(4) =   1
     Q(r) pseudized with  8 coefficients,  rinner =    0.800   0.800   0.800

     PseudoPot. # 4 for C  read from file:
     /storage/coda1/p-amedford6/0/shared/rich_project_chbe-medford/medford-share/data/pseudos_module/espresso/nninc/pbe/van/C.UPF
     MD5 check sum: 1a69bf6b8db32088f5b2163dbdb77a27
     Pseudo is Ultrasoft, Zval =  4.0
     Generated by new atomic code, or converted to UPF format
     Using radial grid of  721 points,  4 beta functions with:
                l(1) =   0
                l(2) =   0
                l(3) =   1
                l(4) =   1
     Q(r) pseudized with  8 coefficients,  rinner =    0.800   0.800   0.800

     PseudoPot. # 5 for H  read from file:
     /storage/coda1/p-amedford6/0/shared/rich_project_chbe-medford/medford-share/data/pseudos_module/espresso/nninc/pbe/van/H.UPF
     MD5 check sum: b5ee9d7bfd3a09ee7748110bda690ff7
     Pseudo is Ultrasoft, Zval =  1.0
     Generated by new atomic code, or converted to UPF format
     Using radial grid of  615 points,  1 beta functions with:
                l(1) =   0
     Q(r) pseudized with  8 coefficients,  rinner =    0.800

     atomic species   valence    mass     pseudopotential
        Ti1           12.00    47.86700     Ti( 1.00)
        O1             6.00    15.99900     O ( 1.00)
        N1             5.00    14.00700     N ( 1.00)
        C1             4.00    12.01100     C ( 1.00)
        H1             1.00     1.00800     H ( 1.00)

     No symmetry found

   Cartesian axes

     site n.     atom                  positions (alat units)
         1           Ti1 tau(   1) = (   0.0004258   2.9801865   6.0000000  )
         2           Ti1 tau(   2) = (   3.2906075   1.4906267   6.0002472  )
         3           O1  tau(   3) = (   0.0006271   0.0005054   7.9858123  )
         4           O1  tau(   4) = (   3.2906025   0.0005020   7.3038282  )
         5           O1  tau(   5) = (   4.5942328   1.4918067   9.2879030  )
         6           O1  tau(   6) = (   1.9868534   1.4903216   9.2879459  )
         7           Ti1 tau(   7) = (   3.2907910   2.8959150   9.1758416  )
         8           Ti1 tau(   8) = (   0.0015273   1.4827037   9.2680791  )
         9           O1  tau(   9) = (   3.2944872   5.9444814  11.3088555  )
        10           O1  tau(  10) = (   0.0116148   5.9584955  10.6183126  )
        11           O1  tau(  11) = (   1.2913257   1.4757505  12.6225222  )
        12           O1  tau(  12) = (   5.2743172   1.4729811  12.6021195  )
        13           Ti1 tau(  13) = (   0.0890023   2.9564894  12.7220187  )
        14           Ti1 tau(  14) = (   3.4221593   1.4702301  12.4648352  )
        15           O1  tau(  15) = (   0.0068176   5.9411714  14.5947238  )
        16           O1  tau(  16) = (   3.2944910   5.9492763  13.8828731  )
        17           O1  tau(  17) = (   4.5250581   1.4982466  16.0456249  )
        18           O1  tau(  18) = (   2.0665045   1.4881935  16.0281199  )
        19           Ti1 tau(  19) = (   3.2778778   2.9684174  15.6871799  )
        20           Ti1 tau(  20) = (   6.5490154   1.5309925  16.0314916  )
        21           O1  tau(  21) = (   3.2904802   0.0005063   4.7018136  )
        22           O1  tau(  22) = (   0.0123181   0.0076990  17.1679072  )
        23           O1  tau(  23) = (   1.3043587   1.4918075   6.0039043  )
        24           O1  tau(  24) = (   5.2767064   1.4903225   6.0039473  )
        25           Ti1 tau(  25) = (   0.0000382   5.9609847   6.0000000  )
        26           Ti1 tau(  26) = (   3.2902200   4.4714249   6.0002472  )
        27           O1  tau(  27) = (   0.0002396   2.9813036   7.9858123  )
        28           O1  tau(  28) = (   3.2902150   2.9813002   7.3038282  )
        29           O1  tau(  29) = (   4.5938453   4.4726049   9.2879030  )
        30           O1  tau(  30) = (   1.9864658   4.4711199   9.2879459  )
        31           Ti1 tau(  31) = (   3.2891106   5.8743827   9.1763621  )
        32           Ti1 tau(  32) = (   0.0006254   4.4649316   9.2693709  )
        33           O1  tau(  33) = (   3.2980042   2.9668427  11.3079272  )
        34           O1  tau(  34) = (   0.0092240   2.9805883  10.6323155  )
        35           O1  tau(  35) = (   1.2899229   4.4488879  12.6271902  )
        36           O1  tau(  36) = (   5.2743549   4.4545148  12.6090941  )
        37           Ti1 tau(  37) = (   0.1039690   5.9375691  12.6739196  )
        38           Ti1 tau(  38) = (   3.4213609   4.4493060  12.4702176  )
        39           O1  tau(  39) = (   6.5648181   2.9459624  14.6378081  )
        40           O1  tau(  40) = (   3.2943236   2.9658899  13.8785053  )
        41           O1  tau(  41) = (   4.5287159   4.4634493  16.0515226  )
        42           O1  tau(  42) = (   2.0597896   4.4749507  16.0164256  )
        43           Ti1 tau(  43) = (   3.2714021   5.9517381  15.6902239  )
        44           Ti1 tau(  44) = (   6.5616293   4.5902425  16.0297769  )
        45           O1  tau(  45) = (   3.2900926   2.9813045   4.7018136  )
        46           O1  tau(  46) = (   1.3039711   4.4726057   6.0039043  )
        47           O1  tau(  47) = (   5.2763189   4.4711207   6.0039473  )
        48           N1  tau(  48) = (   0.6359789   3.0609845  18.5091170  )
        49           N1  tau(  49) = (   0.0956274   2.9759187  17.3381616  )
        50           C1  tau(  50) = (   0.0579326   3.2697647  19.6266723  )
        51           H1  tau(  51) = (   5.5568954   3.3836083  19.7010695  )
        52           H1  tau(  52) = (   0.6727643   3.3288843  20.5134281  )

     number of k points=    10  Fermi-Dirac smearing, width (Ry)=  0.0073
                       cart. coord. in units 2pi/alat
        k(    1) = (   0.0000000   0.0000000   0.0000000), wk =   0.1250000
        k(    2) = (   0.0000000   0.0419351   0.0000000), wk =   0.2500000
        k(    3) = (   0.0000000  -0.0838702   0.0000000), wk =   0.1250000
        k(    4) = (   0.0379955   0.0000049   0.0000000), wk =   0.2500000
        k(    5) = (   0.0379955   0.0419400   0.0000000), wk =   0.2500000
        k(    6) = (   0.0379955  -0.0838652   0.0000000), wk =   0.2500000
        k(    7) = (   0.0379955  -0.0419301   0.0000000), wk =   0.2500000
        k(    8) = (  -0.0759910  -0.0000099   0.0000000), wk =   0.1250000
        k(    9) = (  -0.0759910   0.0419252   0.0000000), wk =   0.2500000
        k(   10) = (  -0.0759910  -0.0838800   0.0000000), wk =   0.1250000

     Initial potential from superposition of free atoms

     starting charge  377.99917, renormalised to  394.00000

     negative rho (up, down):  1.508E-02 0.000E+00

     %%%%%%%%%%%%%%%%%%%%%%%%%%%%%%%%%%%%%%%%%%%%%%%%%%%%%%%%%%%%%%%%%%%%%%%%
     %                                                                      %
     % You are using vdW-DF, which was implemented by the Thonhauser group. %
     % Please cite the following two papers that made this development      %
     % possible and the two reviews that describe the various versions:     %
     %                                                                      %
     %   T. Thonhauser et al., PRL 115, 136402 (2015).                      %
     %   T. Thonhauser et al., PRB 76, 125112 (2007).                       %
     %   K. Berland et al., Rep. Prog. Phys. 78, 066501 (2015).             %
     %   D.C. Langreth et al., J. Phys.: Condens. Matter 21, 084203 (2009). %
     %                                                                      %
     %                                                                      %
     % If you are calculating the stress with vdW-DF, please also cite:     %
     %                                                                      %
     %   R. Sabatini et al., J. Phys.: Condens. Matter 24, 424209 (2012).   %
     %                                                                      %
     %%%%%%%%%%%%%%%%%%%%%%%%%%%%%%%%%%%%%%%%%%%%%%%%%%%%%%%%%%%%%%%%%%%%%%%%

     Adding external electric field

     Computed dipole along edir(3) :
        Dipole               -7.6437 Ry au,        -19.4284 Debye
        Dipole field         -0.0144 Ry au,

        Potential amp.        1.3372 Ry
        Total length         46.3494 bohr

     Starting wfcs are  298 atomic wfcs
  @ DRIVER MODE: Message from server: STATUS
  @ DRIVER MODE: Message from server: POSDATA
  @ DRIVER MODE: Reading and sharing cell
  @ DRIVER MODE: Reading and sharing positions
  @ DRIVER MODE: Received positions

     Self-consistent Calculation

     iteration #  1     ecut=    29.40 Ry     beta= 0.05
     Davidson diagonalization with overlap
     c_bands:  1 eigenvalues not converged
     c_bands:  1 eigenvalues not converged
     c_bands:  1 eigenvalues not converged
     c_bands:  1 eigenvalues not converged
     c_bands:  1 eigenvalues not converged
     c_bands:  1 eigenvalues not converged
     ethr =  1.00E-05,  avg # of iterations = 18.6

[...]

     total energy              =   -2699.59601960 Ry
     estimated scf accuracy    <    2638.22520225 Ry

[...]

     iteration #  3     ecut=    29.40 Ry     beta= 0.05
     Davidson diagonalization with overlap
     ethr =  1.00E-02,  avg # of iterations = 15.5

[...]

     iteration # 43     ecut=    29.40 Ry     beta= 0.05
     Davidson diagonalization with overlap
     c_bands:  1 eigenvalues not converged
     ethr =  2.48E-06,  avg # of iterations =  9.2

[...]

     total energy              =   -2937.89146865 Ry
     estimated scf accuracy    <       0.00000031 Ry

     iteration # 77     ecut=    29.40 Ry     beta= 0.05
     Davidson diagonalization with overlap
     ethr =  2.34E-11,  avg # of iterations =  6.1

     negative rho (up, down):  1.608E-02 0.000E+00

     Adding external electric field

     Computed dipole along edir(3) :
        Dipole                0.5348 Ry au,          1.3592 Debye
        Dipole field          0.0010 Ry au,

        Potential amp.       -0.0935 Ry
        Total length         46.3494 bohr

     End of self-consistent calculation

          k = 0.0000 0.0000 0.0000 ( 18029 PWs)   bands (ev):

   -56.3005 -56.2666 -55.8900 -55.8814 -55.8540 -55.8475 -55.8190 -55.7853
   -55.6772 -55.6645 -55.6374 -55.6278 -55.1505 -55.1389 -55.1165 -55.0607
   -32.7567 -32.5927 -32.5654 -32.4593 -32.4313 -32.3802 -32.3660 -32.3464
   -32.3055 -32.1882 -32.1757 -32.1404 -32.1390 -32.1129 -32.0966 -32.0722
   -32.0561 -32.0505 -32.0485 -32.0216 -32.0205 -32.0191 -32.0118 -31.9974
   -31.9948 -31.9814 -31.9709 -31.9293 -31.9117 -31.9032 -31.8390 -31.8254
   -31.8136 -31.7980 -31.7832 -31.7416 -31.6647 -31.5523 -31.4772 -31.4539
   -31.3926 -31.3695 -31.3486 -31.3161 -31.2839 -31.2619 -31.1888 -31.1729
   -17.8080 -16.6769 -16.5232 -16.2426 -16.0236 -15.9943 -15.8579 -15.8221
   -15.7934 -15.7638 -15.6434 -15.6051 -15.5720 -15.4522 -15.4149 -15.3986
   -15.3847 -15.3569 -15.3543 -15.2711 -15.2534 -15.2363 -15.1849 -15.0794
   -15.0550 -15.0111 -14.8674 -14.8594 -14.7541 -14.5035 -13.6514 -13.5374
   -12.0059  -6.6422  -4.6517  -4.1429  -4.1353  -4.0110  -3.8588  -3.7764
    -3.5969  -3.5512  -3.4607  -3.2310  -3.1626  -3.1362  -3.0687  -3.0614
    -3.0280  -2.9365  -2.8674  -2.8335  -2.8131  -2.7925  -2.7377  -2.6573
    -2.6161  -2.5809  -2.5534  -2.5332  -2.4199  -2.3723  -2.3520  -2.3263
    -2.2712  -2.2534  -2.2295  -2.2223  -2.1886  -2.1756  -2.0979  -2.0698
    -1.9402  -1.8682  -1.7455  -1.7296  -1.6664  -1.6371  -1.6212  -1.4167
    -1.3964  -1.3243  -1.2847  -1.2282  -1.2064  -1.1639  -1.0964  -1.0536
    -0.9633  -0.9256  -0.9020  -0.8678  -0.8413  -0.8104  -0.7917  -0.7349
    -0.6881  -0.5097  -0.4743  -0.4407  -0.3348  -0.3268  -0.2927  -0.2582
    -0.2509  -0.1928  -0.1801  -0.1676  -0.1110  -0.0995  -0.0128   0.0543
     0.0597   0.1035   0.1773   0.2430   0.2786   0.4002   0.4475   0.5153
     0.6149   0.6212   0.6810   0.8329   0.8425   0.8676   0.8713   1.0833
     1.3248   1.4334   1.4753   1.5456   2.7836   2.9196   3.0281   3.2219
     3.3385   3.3599   3.5276   3.6635   3.7059   3.7675   3.7758

[...]

          k = 0.0380-0.0419 0.0000 ( 17876 PWs)   bands (ev):

[...]

          k =-0.0760-0.0000 0.0000 ( 17886 PWs)   bands (ev):

[...]

          k =-0.0760-0.0839 0.0000 ( 17948 PWs)   bands (ev):

   -56.2836 -56.2833 -55.8743 -55.8696 -55.8668 -55.8618 -55.8031 -55.8013
   -55.6669 -55.6522 -55.6476 -55.6400 -55.1348 -55.1335 -55.1334 -55.0647
   -32.5784 -32.5780 -32.5725 -32.5723 -32.4109 -32.4105 -32.2381 -32.2343
   -32.1719 -32.1663 -32.1450 -32.1428 -32.1299 -32.1271 -32.0879 -32.0841
   -32.0565 -32.0507 -32.0443 -32.0420 -32.0316 -32.0304 -32.0162 -32.0151
   -32.0137 -32.0007 -31.9771 -31.9681 -31.9463 -31.9352 -31.8827 -31.8759
   -31.8728 -31.8468 -31.8118 -31.8077 -31.5541 -31.4668 -31.4667 -31.4084
   -31.3659 -31.3658 -31.3615 -31.3440 -31.3268 -31.3268 -31.2700 -31.2455
   -17.8023 -16.0408 -16.0384 -16.0283 -16.0219 -15.9058 -15.9036 -15.7500
   -15.7482 -15.7169 -15.7113 -15.5728 -15.5491 -15.5051 -15.5042 -15.4638
   -15.4539 -15.3931 -15.3900 -15.3730 -15.3666 -15.3579 -15.3532 -15.3130
   -15.2721 -15.0295 -14.9583 -14.8948 -14.7780 -14.6956 -13.6399 -13.6399
   -12.0101  -6.6365  -4.5925  -4.1316  -3.3320  -3.3275  -3.1597  -3.1399
    -3.0914  -3.0883  -3.0560  -2.9605  -2.9598  -2.8478  -2.8235  -2.7833
    -2.7788  -2.7642  -2.7616  -2.7315  -2.7251  -2.7037  -2.6970  -2.6397
    -2.6252  -2.6194  -2.6138  -2.5476  -2.5055  -2.4770  -2.4436  -2.4087
    -2.3825  -2.2788  -2.2734  -2.2457  -2.2264  -2.1581  -2.1544  -2.1046
    -2.0693  -2.0042  -1.9947  -1.7868  -1.7320  -1.7223  -1.6808  -1.5875
    -1.5651  -1.4190  -1.3874  -1.3321  -1.3237  -1.2646  -1.2500  -1.2364
    -1.1497  -1.1381  -1.1327  -1.0624  -1.0527  -0.9948  -0.9561  -0.9249
    -0.8362  -0.8210  -0.7854  -0.7814  -0.7693  -0.7065  -0.6606  -0.5856
    -0.5352  -0.5230  -0.4022  -0.3555  -0.3011  -0.2279  -0.1861  -0.0881
    -0.0314  -0.0216   0.1873   0.1988   0.2363   0.3275   0.4440   0.4499
     0.4889   0.5780   0.6016   0.6247   0.6398   0.8426   0.9170   1.2507
     1.2518   1.2920   1.2925   1.5088   2.7436   3.4437   3.4445   3.4686
     3.4692   3.5975   3.6214   3.6589   3.6688   3.7558   3.7602

     the Fermi energy is     2.8694 ev

!    total energy              =   -2937.89147769 Ry
     estimated scf accuracy    <       0.00000002 Ry
     smearing contrib. (-TS)   =      -0.01406163 Ry
     internal energy E=F+TS    =   -2937.87741607 Ry

     The total energy is F=E-TS. E is the sum of the following terms:
     one-electron contribution =  -24294.34341438 Ry
     hartree contribution      =   12233.56588185 Ry
     xc contribution           =    -484.32496035 Ry
     ewald contribution        =    9607.22453717 Ry
     electric field correction =       0.00053965 Ry

     convergence has been achieved in  77 iterations

     Forces acting on atoms (cartesian axes, Ry/au):

     atom    1 type  1   force =     0.00011228   -0.00019557    0.10729388
     atom    2 type  1   force =    -0.00012174   -0.00062999   -0.16936234
     atom    3 type  2   force =    -0.00015997    0.00000542   -0.04172778
     atom    4 type  2   force =     0.00005535   -0.00094197    0.04216821
     atom    5 type  2   force =    -0.01492093    0.00021282   -0.00295019
     atom    6 type  2   force =     0.01655299    0.00102843   -0.00392892
     atom    7 type  1   force =    -0.00113278   -0.00211671    0.00213076
     atom    8 type  1   force =     0.00130977    0.00453003    0.07527658
     atom    9 type  2   force =     0.00004938    0.00011255    0.00065497
     atom   10 type  2   force =    -0.00131175    0.00009493   -0.04685274
     atom   11 type  2   force =    -0.00048923    0.00032132    0.00034359
     atom   12 type  2   force =    -0.00005121    0.00050649    0.00024595
     atom   13 type  1   force =     0.00044468   -0.00040719    0.00009266
     atom   14 type  1   force =    -0.00015194   -0.00011098   -0.00036785
     atom   15 type  2   force =    -0.00030915   -0.00022920    0.00078387
     atom   16 type  2   force =     0.00018293    0.00023906    0.00016095
     atom   17 type  2   force =     0.00009346    0.00051128    0.00045530
     atom   18 type  2   force =    -0.00045254    0.00002805   -0.00010169
     atom   19 type  1   force =     0.00024560    0.00073614   -0.00069866
     atom   20 type  1   force =     0.00019283   -0.00047718   -0.00103884
     atom   21 type  2   force =     0.00006966    0.00003688    0.10164798
     atom   22 type  2   force =    -0.00043403    0.00041114    0.00040936
     atom   23 type  2   force =    -0.07415843   -0.00003495   -0.02979890
     atom   24 type  2   force =     0.07411242    0.00041803   -0.02980268
     atom   25 type  1   force =     0.00025615   -0.00034801    0.10678716
     atom   26 type  1   force =    -0.00002979   -0.00037462   -0.16944837
     atom   27 type  2   force =    -0.00004193   -0.00028950   -0.04067220
     atom   28 type  2   force =     0.00010998   -0.00074301    0.04214153
     atom   29 type  2   force =    -0.01522396    0.00063085   -0.00323958
     atom   30 type  2   force =     0.01678590    0.00100550   -0.00421275
     atom   31 type  1   force =    -0.00133969    0.00039709    0.00187438
     atom   32 type  1   force =     0.00130334   -0.00711093    0.07591148
     atom   33 type  2   force =    -0.00004116    0.00016932    0.00038381
     atom   34 type  2   force =    -0.00145421   -0.00008242   -0.05516564
     atom   35 type  2   force =    -0.00001145    0.00005191    0.00022525
     atom   36 type  2   force =    -0.00001001    0.00021622   -0.00004565
     atom   37 type  1   force =     0.00020842    0.00028739   -0.00019940
     atom   38 type  1   force =     0.00010714    0.00022348   -0.00061184
     atom   39 type  2   force =    -0.00017202   -0.00007927    0.00000749
     atom   40 type  2   force =     0.00006496    0.00026867    0.00045954
     atom   41 type  2   force =    -0.00039114    0.00021787   -0.00027757
     atom   42 type  2   force =     0.00008131    0.00013214    0.00043823
     atom   43 type  1   force =    -0.00008515    0.00066226   -0.00014251
     atom   44 type  1   force =    -0.00021298    0.00060946   -0.00108096
     atom   45 type  2   force =     0.00006118   -0.00000005    0.10165921
     atom   46 type  2   force =    -0.07414552    0.00001386   -0.02976952
     atom   47 type  2   force =     0.07410042    0.00044477   -0.02978983
     atom   48 type  3   force =     0.00962448   -0.00045030   -0.00436112
     atom   49 type  3   force =    -0.00227462   -0.00027450   -0.00328368
     atom   50 type  4   force =    -0.00614470    0.00007766    0.00739423
     atom   51 type  5   force =    -0.00034533    0.00058046    0.00069678
     atom   52 type  5   force =    -0.00050728   -0.00028516   -0.00071190

     Total force =     0.389256     Total SCF correction =     0.000652
  @ DRIVER MODE: Message from server: STATUS
  @ DRIVER MODE: Message from server: GETFORCE
  @ DRIVER MODE: Returning v,forces,stress,ensemble

     Writing output data file ./calc.save/
  @ DRIVER MODE: Message from server: EXIT
  @ DRIVE MODE: Exiting

     General routines

     Parallel routines

   This run was terminated on:  13:34:20  23Aug2021

   JOB DONE.