     Program PWSCF v.6.7GPU starts on  9Sep2021 at  3:24:54

     R & G space division:  proc/nbgrp/npool/nimage =      10
     Reading input from /storage/home/hcoda1/3/ntian30/research/carbon/CxH_vib/CH3_calc/ads_slab/CH3NHNH2_a/out_0017/pw.inp
Warning: card &CELL ignored
Warning: card   CELL_DYNAMICS='IPI', ignored
Warning: card / ignored

     Current dimensions of program PWSCF are:
     Max number of different atomic species (ntypx) = 10
     Max number of k-points (npk) =  40000
     Max angular momentum in pseudopotentials (lmaxx) =  3
     Presently no symmetry can be used with electric field

     Message from routine cell_base_init:
     DEPRECATED: use true lattice parameter, not A to a.u. conversion factor

     IMPORTANT: XC functional enforced from input :
     Exchange-correlation= BEEF-VDW
                           (   1   4  43  14   2   0   0)
     Any further DFT definition will be discarded
     Please, verify this is what you really want

  @ DRIVER MODE: Connecting to
 qe_1139763_2767398.sched-torque.pace.gatech.edu7cfo2uh6_scratch
  using UNIX socket
  @ DRIVER MODE: Message from server: STATUS
  @ DRIVER MODE: Message from server: INIT
  @ DRIVER MODE: Receiving replica           0          -1
  @ DRIVER MODE: Receiving encoded integer          25
  @ DRIVER MODE:  SCF:  T  FORCE:  T  STRESS:  F  VC:  F  ENSEMBLE:  F
  @ DRIVER MODE:  SCF:  T  FORCE:  T  STRESS:  F  VC:  F  ENSEMBLE:  F

     Using Slab Decomposition

     bravais-lattice index     =            0
     lattice parameter (alat)  =       1.8897  a.u.
     unit-cell volume          =    6658.9804 (a.u.)^3
     number of atoms/cell      =           56
     number of atomic types    =            5
     number of electrons       =       398.00
     number of Kohn-Sham states=          209
     kinetic-energy cutoff     =      29.3995  Ry
     charge density cutoff     =     293.9946  Ry
     scf convergence threshold =      7.3E-08
     mixing beta               =       0.0500
     number of iterations used =            8  plain     mixing
     Exchange-correlation= BEEF-VDW
                           (   1   4  43  14   2   0   0)

     celldm(1)=   1.889726  celldm(2)=   0.000000  celldm(3)=   0.000000
     celldm(4)=   0.000000  celldm(5)=   0.000000  celldm(6)=   0.000000

     crystal axes: (cart. coord. in units of alat)
               a(1) = (   6.579727   0.000000   0.000000 )
               a(2) = (  -0.000775   5.961596   0.000000 )
               a(3) = (   0.000000   0.000000  25.155947 )

     reciprocal axes: (cart. coord. in units 2 pi/alat)
               b(1) = (  0.151982  0.000020  0.000000 )
               b(2) = (  0.000000  0.167740  0.000000 )
               b(3) = (  0.000000  0.000000  0.039752 )

     PseudoPot. # 1 for Ti read from file:
     /storage/coda1/p-amedford6/0/shared/rich_project_chbe-medford/medford-share/data/pseudos_module/espresso/nninc/pbe/van/Ti.UPF
     MD5 check sum: 8e4df49b7f0d34bbd5052bf3f5ea0213
     Pseudo is Ultrasoft, Zval = 12.0
     Generated by new atomic code, or converted to UPF format
     Using radial grid of  851 points,  6 beta functions with:
                l(1) =   0
                l(2) =   0
                l(3) =   1
                l(4) =   1
                l(5) =   2
                l(6) =   2
     Q(r) pseudized with  8 coefficients,  rinner =    1.000   1.000   1.000
                                                       1.000   1.000

     PseudoPot. # 2 for O  read from file:
     /storage/coda1/p-amedford6/0/shared/rich_project_chbe-medford/medford-share/data/pseudos_module/espresso/nninc/pbe/van/O.UPF
     MD5 check sum: 78c19812648e8988a0fe644b0f25305e
     Pseudo is Ultrasoft, Zval =  6.0
     Generated by new atomic code, or converted to UPF format
     Using radial grid of  737 points,  4 beta functions with:
                l(1) =   0
                l(2) =   0
                l(3) =   1
                l(4) =   1
     Q(r) pseudized with  8 coefficients,  rinner =    0.800   0.800   0.800

     PseudoPot. # 3 for N  read from file:
     /storage/coda1/p-amedford6/0/shared/rich_project_chbe-medford/medford-share/data/pseudos_module/espresso/nninc/pbe/van/N.UPF
     MD5 check sum: 90d10febe142ad51ac9d5be1deb811c4
     Pseudo is Ultrasoft, Zval =  5.0
     Generated by new atomic code, or converted to UPF format
     Using radial grid of  729 points,  4 beta functions with:
                l(1) =   0
                l(2) =   0
                l(3) =   1
                l(4) =   1
     Q(r) pseudized with  8 coefficients,  rinner =    0.800   0.800   0.800

     PseudoPot. # 4 for C  read from file:
     /storage/coda1/p-amedford6/0/shared/rich_project_chbe-medford/medford-share/data/pseudos_module/espresso/nninc/pbe/van/C.UPF
     MD5 check sum: 1a69bf6b8db32088f5b2163dbdb77a27
     Pseudo is Ultrasoft, Zval =  4.0
     Generated by new atomic code, or converted to UPF format
     Using radial grid of  721 points,  4 beta functions with:
                l(1) =   0
                l(2) =   0
                l(3) =   1
                l(4) =   1
     Q(r) pseudized with  8 coefficients,  rinner =    0.800   0.800   0.800

     PseudoPot. # 5 for H  read from file:
     /storage/coda1/p-amedford6/0/shared/rich_project_chbe-medford/medford-share/data/pseudos_module/espresso/nninc/pbe/van/H.UPF
     MD5 check sum: b5ee9d7bfd3a09ee7748110bda690ff7
     Pseudo is Ultrasoft, Zval =  1.0
     Generated by new atomic code, or converted to UPF format
     Using radial grid of  615 points,  1 beta functions with:
                l(1) =   0
     Q(r) pseudized with  8 coefficients,  rinner =    0.800

     atomic species   valence    mass     pseudopotential
        Ti1           12.00    47.86700     Ti( 1.00)
        O1             6.00    15.99900     O ( 1.00)
        N1             5.00    14.00700     N ( 1.00)
        C1             4.00    12.01100     C ( 1.00)
        H1             1.00     1.00800     H ( 1.00)

     No symmetry found

   Cartesian axes

     site n.     atom                  positions (alat units)
         1           Ti1 tau(   1) = (   0.0004258   2.9801865   6.0000000  )
         2           Ti1 tau(   2) = (   3.2906075   1.4906267   6.0002472  )
         3           O1  tau(   3) = (   0.0006271   0.0005054   7.9858123  )
         4           O1  tau(   4) = (   3.2906025   0.0005020   7.3038282  )
         5           O1  tau(   5) = (   4.5942328   1.4918067   9.2879030  )
         6           O1  tau(   6) = (   1.9868534   1.4903216   9.2879459  )
         7           Ti1 tau(   7) = (   3.2907910   2.8959150   9.1758416  )
         8           Ti1 tau(   8) = (   0.0015273   1.4827037   9.2680791  )
         9           O1  tau(   9) = (   3.2714441   0.0289406  11.3813764  )
        10           O1  tau(  10) = (   0.0116148   5.9584955  10.6183126  )
        11           O1  tau(  11) = (   1.2692032   1.5162281  12.7122965  )
        12           O1  tau(  12) = (   5.2779133   1.5159715  12.6811497  )
        13           Ti1 tau(  13) = (   6.5579218   3.0031650  12.5037829  )
        14           Ti1 tau(  14) = (   3.2791490   1.5128154  12.5375672  )
        15           O1  tau(  15) = (   6.5208524   5.8954130  14.6845636  )
        16           O1  tau(  16) = (   3.2849572   0.0099931  14.0031570  )
        17           O1  tau(  17) = (   4.4884262   1.5607690  16.1641467  )
        18           O1  tau(  18) = (   1.9729656   1.5430890  16.0903287  )
        19           Ti1 tau(  19) = (   3.2372663   3.0309179  15.7728032  )
        20           Ti1 tau(  20) = (   6.5553692   1.3539605  15.8053163  )
        21           O1  tau(  21) = (   3.2904802   0.0005063   4.7018136  )
        22           O1  tau(  22) = (   6.5123495   0.2165906  17.2215032  )
        23           O1  tau(  23) = (   1.3043587   1.4918075   6.0039043  )
        24           O1  tau(  24) = (   5.2767064   1.4903225   6.0039473  )
        25           Ti1 tau(  25) = (   0.0000382   5.9609847   6.0000000  )
        26           Ti1 tau(  26) = (   3.2902200   4.4714249   6.0002472  )
        27           O1  tau(  27) = (   0.0002396   2.9813036   7.9858123  )
        28           O1  tau(  28) = (   3.2902150   2.9813002   7.3038282  )
        29           O1  tau(  29) = (   4.5938453   4.4726049   9.2879030  )
        30           O1  tau(  30) = (   1.9864658   4.4711199   9.2879459  )
        31           Ti1 tau(  31) = (   3.2891106   5.8743827   9.1763621  )
        32           Ti1 tau(  32) = (   0.0006254   4.4649316   9.2693709  )
        33           O1  tau(  33) = (   3.2699379   2.9911670  11.3762017  )
        34           O1  tau(  34) = (   0.0092240   2.9805883  10.6323155  )
        35           O1  tau(  35) = (   1.2730946   4.4825978  12.6662957  )
        36           O1  tau(  36) = (   5.2742290   4.4829497  12.6320226  )
        37           Ti1 tau(  37) = (   6.5783117   0.0079037  12.5026730  )
        38           Ti1 tau(  38) = (   3.2784283   4.4905194  12.5286134  )
        39           O1  tau(  39) = (   6.5033290   3.0824797  14.9867588  )
        40           O1  tau(  40) = (   3.2824109   3.0350539  13.9807796  )
        41           O1  tau(  41) = (   4.4804250   4.5097483  16.2808085  )
        42           O1  tau(  42) = (   1.9642025   4.5165872  16.2225063  )
        43           Ti1 tau(  43) = (   3.2609991   0.0502580  15.7998297  )
        44           Ti1 tau(  44) = (   6.5501253   4.5826093  16.0954727  )
        45           O1  tau(  45) = (   3.2900926   2.9813045   4.7018136  )
        46           O1  tau(  46) = (   1.3039711   4.4726057   6.0039043  )
        47           O1  tau(  47) = (   5.2763189   4.4711207   6.0039473  )
        48           N1  tau(  48) = (   0.8845045   3.2634721  19.1145209  )
        49           N1  tau(  49) = (   6.3504243   3.3997271  18.1887592  )
        50           C1  tau(  50) = (   1.2927081   4.5631590  19.6329350  )
        51           H1  tau(  51) = (   0.4658632   5.1229972  20.1056819  )
        52           H1  tau(  52) = (   2.0600825   4.3818216  20.3958833  )
        53           H1  tau(  53) = (   1.7018904   5.1738364  18.8453250  )
        54           H1  tau(  54) = (   0.5628611   2.6866381  19.8888112  )
        55           H1  tau(  55) = (   5.6051421   3.9827062  18.5884547  )
        56           H1  tau(  56) = (   5.9567982   2.4624696  18.0937858  )

     number of k points=    10  Fermi-Dirac smearing, width (Ry)=  0.0073
                       cart. coord. in units 2pi/alat
        k(    1) = (   0.0000000   0.0000000   0.0000000), wk =   0.1250000
        k(    2) = (   0.0000000   0.0419351   0.0000000), wk =   0.2500000
        k(    3) = (   0.0000000  -0.0838702   0.0000000), wk =   0.1250000
        k(    4) = (   0.0379955   0.0000049   0.0000000), wk =   0.2500000
        k(    5) = (   0.0379955   0.0419400   0.0000000), wk =   0.2500000
        k(    6) = (   0.0379955  -0.0838652   0.0000000), wk =   0.2500000
        k(    7) = (   0.0379955  -0.0419301   0.0000000), wk =   0.2500000
        k(    8) = (  -0.0759910  -0.0000099   0.0000000), wk =   0.1250000
        k(    9) = (  -0.0759910   0.0419252   0.0000000), wk =   0.2500000
        k(   10) = (  -0.0759910  -0.0838800   0.0000000), wk =   0.1250000

     Initial potential from superposition of free atoms

     starting charge  381.99914, renormalised to  398.00000

     negative rho (up, down):  1.416E-02 0.000E+00

     %%%%%%%%%%%%%%%%%%%%%%%%%%%%%%%%%%%%%%%%%%%%%%%%%%%%%%%%%%%%%%%%%%%%%%%%
     %                                                                      %
     % You are using vdW-DF, which was implemented by the Thonhauser group. %
     % Please cite the following two papers that made this development      %
     % possible and the two reviews that describe the various versions:     %
     %                                                                      %
     %   T. Thonhauser et al., PRL 115, 136402 (2015).                      %
     %   T. Thonhauser et al., PRB 76, 125112 (2007).                       %
     %   K. Berland et al., Rep. Prog. Phys. 78, 066501 (2015).             %
     %   D.C. Langreth et al., J. Phys.: Condens. Matter 21, 084203 (2009). %
     %                                                                      %
     %                                                                      %
     % If you are calculating the stress with vdW-DF, please also cite:     %
     %                                                                      %
     %   R. Sabatini et al., J. Phys.: Condens. Matter 24, 424209 (2012).   %
     %                                                                      %
     %%%%%%%%%%%%%%%%%%%%%%%%%%%%%%%%%%%%%%%%%%%%%%%%%%%%%%%%%%%%%%%%%%%%%%%%

     Adding external electric field

     Computed dipole along edir(3) :
        Dipole              -11.7139 Ry au,        -29.7737 Debye
        Dipole field         -0.0221 Ry au,

        Potential amp.        2.0492 Ry
        Total length         46.3494 bohr

     Starting wfcs are  302 atomic wfcs
  @ DRIVER MODE: Message from server: STATUS
  @ DRIVER MODE: Message from server: POSDATA
  @ DRIVER MODE: Reading and sharing cell
  @ DRIVER MODE: Reading and sharing positions
  @ DRIVER MODE: Received positions

     Self-consistent Calculation

     iteration #  1     ecut=    29.40 Ry     beta= 0.05
     Davidson diagonalization with overlap
     c_bands:  3 eigenvalues not converged
     c_bands:  1 eigenvalues not converged
     c_bands:  1 eigenvalues not converged
     c_bands:  4 eigenvalues not converged
     c_bands:  1 eigenvalues not converged
     c_bands:  4 eigenvalues not converged
     c_bands:  5 eigenvalues not converged
     c_bands:  2 eigenvalues not converged
     ethr =  1.00E-05,  avg # of iterations = 21.9

[...]

     total energy              =   -2424.60040420 Ry
     estimated scf accuracy    <    5829.80231946 Ry

     iteration #  2     ecut=    29.40 Ry     beta= 0.05
     Davidson diagonalization with overlap
     ethr =  1.00E-02,  avg # of iterations = 23.1

[...]

     iteration # 58     ecut=    29.40 Ry     beta= 0.05
     Davidson diagonalization with overlap
     c_bands:  3 eigenvalues not converged
     ethr =  7.54E-10,  avg # of iterations = 14.1

[...]

     total energy              =   -2942.84371252 Ry
     estimated scf accuracy    <       0.00000010 Ry

     iteration # 67     ecut=    29.40 Ry     beta= 0.05
     Davidson diagonalization with overlap
     ethr =  2.58E-11,  avg # of iterations =  2.0

     negative rho (up, down):  1.512E-02 0.000E+00

     Adding external electric field

     Computed dipole along edir(3) :
        Dipole                1.4937 Ry au,          3.7965 Debye
        Dipole field          0.0028 Ry au,

        Potential amp.       -0.2613 Ry
        Total length         46.3494 bohr

     End of self-consistent calculation

          k = 0.0000 0.0000 0.0000 ( 18029 PWs)   bands (ev):

   -55.2030 -55.1659 -55.1551 -55.1264 -55.1210 -55.0841 -55.0812 -55.0463
   -55.0271 -55.0141 -54.9927 -54.9878 -54.9542 -54.8574 -54.1874 -54.1533
   -31.7693 -31.6531 -31.6481 -31.5692 -31.5164 -31.5153 -31.5124 -31.4939
   -31.4441 -31.4405 -31.4127 -31.4105 -31.4002 -31.3833 -31.3702 -31.3645
   -31.3575 -31.3477 -31.3404 -31.3235 -31.3078 -31.3050 -31.2731 -31.2695
   -31.2588 -31.2579 -31.2393 -31.2298 -31.2124 -31.2116 -31.2073 -31.1867
   -31.1865 -31.1831 -31.1764 -31.1738 -31.1405 -31.1307 -31.1161 -31.0992
   -31.0707 -31.0513 -30.5970 -30.5023 -30.4803 -30.4132 -30.3264 -30.2156
   -17.9708 -16.0367 -15.7744 -15.6290 -15.5168 -15.4055 -15.2860 -15.2552
   -15.1354 -15.0593 -14.9254 -14.8991 -14.8769 -14.8531 -14.8412 -14.8285
   -14.7529 -14.7463 -14.7303 -14.7021 -14.7002 -14.6550 -14.6452 -14.6059
   -14.5809 -14.5597 -14.4549 -14.3667 -14.2929 -14.0760 -13.4489 -12.6904
   -12.5728  -9.7052  -6.6017  -6.0940  -4.5925  -3.3752  -3.2415  -3.2266
    -3.1394  -3.1103  -3.0976  -3.0070  -2.9533  -2.7936  -2.6518  -2.6250
    -2.4943  -2.4193  -2.4030  -2.3785  -2.2487  -2.2135  -2.1625  -2.1235
    -2.0645  -2.0340  -2.0100  -1.9943  -1.9633  -1.9541  -1.9290  -1.8402
    -1.7803  -1.6870  -1.6698  -1.6027  -1.5942  -1.5620  -1.5409  -1.4958
    -1.4855  -1.4354  -1.4284  -1.4158  -1.3960  -1.2670  -1.2244  -1.1147
    -1.0534  -0.9658  -0.8450  -0.8049  -0.7908  -0.7003  -0.6914  -0.6594
    -0.5830  -0.5796  -0.5490  -0.4409  -0.3759  -0.3123  -0.2534  -0.2271
    -0.1939  -0.1164  -0.0256   0.0106   0.0273   0.0505   0.1505   0.1856
     0.2413   0.3081   0.3196   0.3329   0.4131   0.4536   0.5289   0.5656
     0.5832   0.6718   0.6985   0.7261   0.7266   0.7644   0.7786   0.8183
     0.8671   0.8939   0.9803   1.0445   1.1013   1.3459   1.3985   1.4046
     1.7307   1.7386   1.8350   2.0184   2.4115   2.4599   3.8934   3.9622
     4.0379   4.0429   4.0654   4.1292   4.3670   4.3902   4.3991   4.4013
     4.4279

[...]

          k = 0.0380-0.0419 0.0000 ( 17876 PWs)   bands (ev):

[...]

          k =-0.0760-0.0000 0.0000 ( 17886 PWs)   bands (ev):

[...]

          k =-0.0760-0.0839 0.0000 ( 17948 PWs)   bands (ev):

   -55.1892 -55.1795 -55.1383 -55.1378 -55.1250 -55.0798 -55.0667 -55.0607
   -55.0184 -55.0112 -55.0081 -54.9713 -54.9708 -54.8586 -54.1704 -54.1701
   -31.5775 -31.5765 -31.5697 -31.4849 -31.4634 -31.4630 -31.4600 -31.4294
   -31.4292 -31.4138 -31.4030 -31.4014 -31.3927 -31.3671 -31.3577 -31.3447
   -31.3438 -31.3400 -31.3367 -31.3311 -31.3292 -31.3232 -31.2841 -31.2809
   -31.2806 -31.2793 -31.2615 -31.2601 -31.2580 -31.2576 -31.2528 -31.2443
   -31.2414 -31.2244 -31.2210 -31.2051 -31.2043 -31.2015 -31.1520 -31.1517
   -31.1272 -31.0751 -30.4931 -30.4928 -30.4096 -30.4093 -30.3700 -30.3698
   -17.9676 -15.5617 -15.4317 -15.4026 -15.2461 -15.2100 -15.1767 -15.1634
   -15.0424 -15.0052 -14.9806 -14.9711 -14.9535 -14.9131 -14.9075 -14.9005
   -14.8300 -14.8108 -14.8065 -14.7842 -14.7260 -14.7171 -14.7132 -14.7056
   -14.6551 -14.6514 -14.5709 -14.5607 -14.5575 -14.3774 -13.4523 -12.6743
   -12.6743  -9.7213  -6.5855  -6.0937  -4.5714  -3.2054  -2.9780  -2.6940
    -2.6897  -2.6612  -2.4600  -2.3974  -2.3667  -2.3614  -2.2638  -2.2272
    -2.2028  -2.1993  -2.1335  -2.1191  -2.0884  -2.0583  -2.0422  -2.0282
    -2.0125  -1.9985  -1.9731  -1.9355  -1.9275  -1.9192  -1.8878  -1.8657
    -1.8428  -1.8204  -1.8070  -1.7885  -1.7625  -1.7400  -1.6032  -1.5716
    -1.5014  -1.4576  -1.4149  -1.4105  -1.3388  -1.3024  -1.2523  -1.2401
    -1.2230  -1.0830  -1.0251  -0.9740  -0.9541  -0.9431  -0.8141  -0.7999
    -0.7267  -0.7093  -0.6929  -0.6166  -0.5674  -0.5291  -0.5154  -0.4222
    -0.4066  -0.3405  -0.2382  -0.2156  -0.2017  -0.1611  -0.1580  -0.1107
    -0.1037  -0.0196   0.0247   0.0597   0.0706   0.1063   0.2993   0.3152
     0.3253   0.4784   0.4945   0.6356   0.6793   0.7457   0.8046   0.8435
     0.9052   0.9424   1.0545   1.0854   1.1002   1.1082   1.1699   1.1818
     1.2446   1.2553   2.1911   2.1917   2.2798   2.2800   4.0394   4.1468
     4.1544   4.1960   4.3159   4.3463   4.4084   4.4357   4.4778   4.4806
     4.5403

     the Fermi energy is     3.9568 ev

!    total energy              =   -2942.84373453 Ry
     estimated scf accuracy    <       0.00000007 Ry
     smearing contrib. (-TS)   =      -0.03707707 Ry
     internal energy E=F+TS    =   -2942.80665746 Ry

     The total energy is F=E-TS. E is the sum of the following terms:
     one-electron contribution =  -23368.33168900 Ry
     hartree contribution      =   11778.32889330 Ry
     xc contribution           =    -487.74164727 Ry
     ewald contribution        =    9134.93357523 Ry
     electric field correction =       0.00421028 Ry

     convergence has been achieved in  67 iterations

     Forces acting on atoms (cartesian axes, Ry/au):

     atom    1 type  1   force =     0.00017314   -0.00033131    0.09329226
     atom    2 type  1   force =    -0.00006342   -0.00041875   -0.17824652
     atom    3 type  2   force =     0.00002777   -0.00032223   -0.02003569
     atom    4 type  2   force =     0.00002220   -0.00183201    0.05923752
     atom    5 type  2   force =    -0.01046237   -0.00026551    0.00864460
     atom    6 type  2   force =     0.01147794    0.00040441    0.00645549
     atom    7 type  1   force =    -0.00100687    0.00213134   -0.01398416
     atom    8 type  1   force =     0.00081561   -0.00094084   -0.00574778
     atom    9 type  2   force =    -0.00009888    0.00012709   -0.00001720
     atom   10 type  2   force =    -0.00185339    0.00411438    0.00027200
     atom   11 type  2   force =    -0.00006108   -0.00064640    0.00029022
     atom   12 type  2   force =    -0.00001578   -0.00041561    0.00054568
     atom   13 type  1   force =     0.00004511    0.00009479    0.00032318
     atom   14 type  1   force =    -0.00037528    0.00000281    0.00007094
     atom   15 type  2   force =     0.00052234    0.00022750   -0.00032894
     atom   16 type  2   force =     0.00032151   -0.00035081   -0.00005803
     atom   17 type  2   force =    -0.00060831   -0.00002726   -0.00003608
     atom   18 type  2   force =     0.00054958   -0.00019558    0.00002838
     atom   19 type  1   force =     0.00000228   -0.00054983    0.00020104
     atom   20 type  1   force =     0.00067218    0.00009918    0.00096357
     atom   21 type  2   force =     0.00012522   -0.00012779    0.10400132
     atom   22 type  2   force =    -0.00038131    0.00020353   -0.00037133
     atom   23 type  2   force =    -0.07027011   -0.00021765   -0.02686192
     atom   24 type  2   force =     0.07026204    0.00021734   -0.02688354
     atom   25 type  1   force =     0.00007985   -0.00032511    0.09260675
     atom   26 type  1   force =    -0.00003507   -0.00059452   -0.17835819
     atom   27 type  2   force =     0.00013111   -0.00016613   -0.01909176
     atom   28 type  2   force =     0.00005227   -0.00163262    0.05859902
     atom   29 type  2   force =    -0.01106427   -0.00055979    0.00932178
     atom   30 type  2   force =     0.01198507   -0.00002312    0.00721249
     atom   31 type  1   force =    -0.00092959    0.00647158   -0.01505291
     atom   32 type  1   force =     0.00085556    0.00101267   -0.00589045
     atom   33 type  2   force =     0.00017650   -0.00057209   -0.00005103
     atom   34 type  2   force =    -0.00185681   -0.00052292   -0.00049011
     atom   35 type  2   force =    -0.00044643    0.00006719   -0.00042782
     atom   36 type  2   force =     0.00034700   -0.00011392    0.00018818
     atom   37 type  1   force =    -0.00051494   -0.00025245    0.00020444
     atom   38 type  1   force =    -0.00004530   -0.00015218   -0.00009213
     atom   39 type  2   force =     0.00030107   -0.00059304   -0.00001084
     atom   40 type  2   force =    -0.00060204   -0.00051391    0.00026689
     atom   41 type  2   force =    -0.00024386   -0.00073234   -0.00069266
     atom   42 type  2   force =     0.00046930   -0.00010121   -0.00009506
     atom   43 type  1   force =     0.00025627   -0.00019485   -0.00022715
     atom   44 type  1   force =     0.00049181    0.00007184    0.00079805
     atom   45 type  2   force =     0.00013579   -0.00014188    0.10395862
     atom   46 type  2   force =    -0.07027127   -0.00016237   -0.02683280
     atom   47 type  2   force =     0.07024202    0.00025944   -0.02689002
     atom   48 type  3   force =    -0.00018315    0.00034535   -0.00421818
     atom   49 type  3   force =    -0.00045187   -0.00211110   -0.00046803
     atom   50 type  4   force =     0.00044336   -0.00432500    0.02120529
     atom   51 type  5   force =     0.00190344   -0.00008758   -0.00258931
     atom   52 type  5   force =    -0.00408198    0.00115757   -0.00635894
     atom   53 type  5   force =     0.00365688    0.00446715   -0.00890557
     atom   54 type  5   force =     0.00042985   -0.00079044    0.00104833
     atom   55 type  5   force =     0.00011046   -0.00045911   -0.00001812
     atom   56 type  5   force =    -0.00116113    0.00029409   -0.00040376

     Total force =     0.367222     Total SCF correction =     0.000404
  @ DRIVER MODE: Message from server: STATUS
  @ DRIVER MODE: Message from server: GETFORCE
  @ DRIVER MODE: Returning v,forces,stress,ensemble

     Writing output data file ./calc.save/
  @ DRIVER MODE: Message from server: EXIT
  @ DRIVE MODE: Exiting

     General routines

     Parallel routines

   This run was terminated on:   3:43:37   9Sep2021

   JOB DONE.