     Program PWSCF v.6.7GPU starts on  3Aug2021 at  2:41:25

     R & G space division:  proc/nbgrp/npool/nimage =      16
     Reading input from /storage/home/hcoda1/3/ntian30/research/carbon/02Aug_vib_paired/ads_slab/CH3NNH3_a/out_0053/pw.inp
Warning: card &CELL ignored
Warning: card   CELL_DYNAMICS='IPI', ignored
Warning: card / ignored

     Current dimensions of program PWSCF are:
     Max number of different atomic species (ntypx) = 10
     Max number of k-points (npk) =  40000
     Max angular momentum in pseudopotentials (lmaxx) =  3
     Presently no symmetry can be used with electric field

     Message from routine cell_base_init:
     DEPRECATED: use true lattice parameter, not A to a.u. conversion factor

     IMPORTANT: XC functional enforced from input :
     Exchange-correlation= BEEF-VDW
                           (   1   4  43  14   2   0   0)
     Any further DFT definition will be discarded
     Please, verify this is what you really want

  @ DRIVER MODE: Connecting to
 qe_1139763_2482544.sched-torque.pace.gatech.edu1_0c8q6m_scratch
  using UNIX socket
  @ DRIVER MODE: Message from server: STATUS
  @ DRIVER MODE: Message from server: INIT
  @ DRIVER MODE: Receiving replica           0          -1
  @ DRIVER MODE: Receiving encoded integer          25
  @ DRIVER MODE:  SCF:  T  FORCE:  T  STRESS:  F  VC:  F  ENSEMBLE:  F
  @ DRIVER MODE:  SCF:  T  FORCE:  T  STRESS:  F  VC:  F  ENSEMBLE:  F

     Using Slab Decomposition

     bravais-lattice index     =            0
     lattice parameter (alat)  =       1.8897  a.u.
     unit-cell volume          =    6658.9804 (a.u.)^3
     number of atoms/cell      =           56
     number of atomic types    =            5
     number of electrons       =       398.00
     number of Kohn-Sham states=          209
     kinetic-energy cutoff     =      29.3995  Ry
     charge density cutoff     =     293.9946  Ry
     scf convergence threshold =      7.3E-08
     mixing beta               =       0.0500
     number of iterations used =            8  plain     mixing
     Exchange-correlation= BEEF-VDW
                           (   1   4  43  14   2   0   0)

     celldm(1)=   1.889726  celldm(2)=   0.000000  celldm(3)=   0.000000
     celldm(4)=   0.000000  celldm(5)=   0.000000  celldm(6)=   0.000000

     crystal axes: (cart. coord. in units of alat)
               a(1) = (   6.579727   0.000000   0.000000 )
               a(2) = (  -0.000775   5.961596   0.000000 )
               a(3) = (   0.000000   0.000000  25.155947 )

     reciprocal axes: (cart. coord. in units 2 pi/alat)
               b(1) = (  0.151982  0.000020  0.000000 )
               b(2) = (  0.000000  0.167740  0.000000 )
               b(3) = (  0.000000  0.000000  0.039752 )

     PseudoPot. # 1 for Ti read from file:
     /storage/coda1/p-amedford6/0/shared/rich_project_chbe-medford/medford-share/data/pseudos_module/espresso/nninc/pbe/van/Ti.UPF
     MD5 check sum: 8e4df49b7f0d34bbd5052bf3f5ea0213
     Pseudo is Ultrasoft, Zval = 12.0
     Generated by new atomic code, or converted to UPF format
     Using radial grid of  851 points,  6 beta functions with:
                l(1) =   0
                l(2) =   0
                l(3) =   1
                l(4) =   1
                l(5) =   2
                l(6) =   2
     Q(r) pseudized with  8 coefficients,  rinner =    1.000   1.000   1.000
                                                       1.000   1.000

     PseudoPot. # 2 for O  read from file:
     /storage/coda1/p-amedford6/0/shared/rich_project_chbe-medford/medford-share/data/pseudos_module/espresso/nninc/pbe/van/O.UPF
     MD5 check sum: 78c19812648e8988a0fe644b0f25305e
     Pseudo is Ultrasoft, Zval =  6.0
     Generated by new atomic code, or converted to UPF format
     Using radial grid of  737 points,  4 beta functions with:
                l(1) =   0
                l(2) =   0
                l(3) =   1
                l(4) =   1
     Q(r) pseudized with  8 coefficients,  rinner =    0.800   0.800   0.800

     PseudoPot. # 3 for N  read from file:
     /storage/coda1/p-amedford6/0/shared/rich_project_chbe-medford/medford-share/data/pseudos_module/espresso/nninc/pbe/van/N.UPF
     MD5 check sum: 90d10febe142ad51ac9d5be1deb811c4
     Pseudo is Ultrasoft, Zval =  5.0
     Generated by new atomic code, or converted to UPF format
     Using radial grid of  729 points,  4 beta functions with:
                l(1) =   0
                l(2) =   0
                l(3) =   1
                l(4) =   1
     Q(r) pseudized with  8 coefficients,  rinner =    0.800   0.800   0.800

     PseudoPot. # 4 for C  read from file:
     /storage/coda1/p-amedford6/0/shared/rich_project_chbe-medford/medford-share/data/pseudos_module/espresso/nninc/pbe/van/C.UPF
     MD5 check sum: 1a69bf6b8db32088f5b2163dbdb77a27
     Pseudo is Ultrasoft, Zval =  4.0
     Generated by new atomic code, or converted to UPF format
     Using radial grid of  721 points,  4 beta functions with:
                l(1) =   0
                l(2) =   0
                l(3) =   1
                l(4) =   1
     Q(r) pseudized with  8 coefficients,  rinner =    0.800   0.800   0.800

     PseudoPot. # 5 for H  read from file:
     /storage/coda1/p-amedford6/0/shared/rich_project_chbe-medford/medford-share/data/pseudos_module/espresso/nninc/pbe/van/H.UPF
     MD5 check sum: b5ee9d7bfd3a09ee7748110bda690ff7
     Pseudo is Ultrasoft, Zval =  1.0
     Generated by new atomic code, or converted to UPF format
     Using radial grid of  615 points,  1 beta functions with:
                l(1) =   0
     Q(r) pseudized with  8 coefficients,  rinner =    0.800

     atomic species   valence    mass     pseudopotential
        Ti1           12.00    47.86700     Ti( 1.00)
        O1             6.00    15.99900     O ( 1.00)
        N1             5.00    14.00700     N ( 1.00)
        C1             4.00    12.01100     C ( 1.00)
        H1             1.00     1.00800     H ( 1.00)

     No symmetry found

   Cartesian axes

     site n.     atom                  positions (alat units)
         1           Ti1 tau(   1) = (   0.0004258   2.9801865   6.0000000  )
         2           Ti1 tau(   2) = (   3.2906075   1.4906267   6.0002472  )
         3           O1  tau(   3) = (   0.0006271   0.0005054   7.9858123  )
         4           O1  tau(   4) = (   3.2906025   0.0005020   7.3038282  )
         5           O1  tau(   5) = (   4.5942328   1.4918067   9.2879030  )
         6           O1  tau(   6) = (   1.9868534   1.4903216   9.2879459  )
         7           Ti1 tau(   7) = (   3.2907910   2.8959150   9.1758416  )
         8           Ti1 tau(   8) = (   0.0015273   1.4827037   9.2680791  )
         9           O1  tau(   9) = (   3.2727297   5.9424138  11.2974721  )
        10           O1  tau(  10) = (   0.0116148   5.9584955  10.6183126  )
        11           O1  tau(  11) = (   1.3027692   1.4721713  12.6242268  )
        12           O1  tau(  12) = (   5.2784376   1.4723552  12.6258992  )
        13           Ti1 tau(  13) = (   6.4570204   2.9507206  12.7630554  )
        14           Ti1 tau(  14) = (   3.1467966   1.4649636  12.4688949  )
        15           O1  tau(  15) = (   6.5600513   5.9133837  14.5918744  )
        16           O1  tau(  16) = (   3.2766225   5.9390981  13.8789110  )
        17           O1  tau(  17) = (   4.4915826   1.4834571  16.0540230  )
        18           O1  tau(  18) = (   2.0416982   1.4849982  16.0411193  )
        19           Ti1 tau(  19) = (   3.2679172   2.9642910  15.6858091  )
        20           Ti1 tau(  20) = (   6.5495220   1.5641796  16.1095294  )
        21           O1  tau(  21) = (   3.2904802   0.0005063   4.7018136  )
        22           O1  tau(  22) = (   6.5606002   0.0080969  17.2010096  )
        23           O1  tau(  23) = (   1.3043587   1.4918075   6.0039043  )
        24           O1  tau(  24) = (   5.2767064   1.4903225   6.0039473  )
        25           Ti1 tau(  25) = (   0.0000382   5.9609847   6.0000000  )
        26           Ti1 tau(  26) = (   3.2902200   4.4714249   6.0002472  )
        27           O1  tau(  27) = (   0.0002396   2.9813036   7.9858123  )
        28           O1  tau(  28) = (   3.2902150   2.9813002   7.3038282  )
        29           O1  tau(  29) = (   4.5938453   4.4726049   9.2879030  )
        30           O1  tau(  30) = (   1.9864658   4.4711199   9.2879459  )
        31           Ti1 tau(  31) = (   3.2891106   5.8743827   9.1763621  )
        32           Ti1 tau(  32) = (   0.0006254   4.4649316   9.2693709  )
        33           O1  tau(  33) = (   3.2718307   2.9587034  11.2961003  )
        34           O1  tau(  34) = (   0.0092240   2.9805883  10.6323155  )
        35           O1  tau(  35) = (   1.3028232   4.4416136  12.6207192  )
        36           O1  tau(  36) = (   5.2777600   4.4366566  12.6238879  )
        37           Ti1 tau(  37) = (   6.4830488   5.9304874  12.7660964  )
        38           Ti1 tau(  38) = (   3.1463657   4.4448748  12.4639736  )
        39           O1  tau(  39) = (   6.5417323   2.9404903  14.6589984  )
        40           O1  tau(  40) = (   3.2789452   2.9619718  13.8791424  )
        41           O1  tau(  41) = (   4.4971312   4.4676043  16.0556370  )
        42           O1  tau(  42) = (   2.0400509   4.4648231  16.0515753  )
        43           Ti1 tau(  43) = (   3.2598176   5.9476019  15.6881950  )
        44           Ti1 tau(  44) = (   6.5485469   4.5424454  16.1156095  )
        45           O1  tau(  45) = (   3.2900926   2.9813045   4.7018136  )
        46           O1  tau(  46) = (   1.3039711   4.4726057   6.0039043  )
        47           O1  tau(  47) = (   5.2763189   4.4711207   6.0039473  )
        48           N1  tau(  48) = (   0.0016189   2.9795595  17.3279962  )
        49           C1  tau(  49) = (   0.1681806   3.0735589  18.7581663  )
        50           H1  tau(  50) = (   6.0068595   3.7517258  19.1994632  )
        51           H1  tau(  51) = (   0.0766375   2.0971904  19.2409400  )
        52           H1  tau(  52) = (   1.1565538   3.4901639  19.0026035  )
        53           N1  tau(  53) = (   4.7601180   1.8141088  21.6614004  )
        54           H1  tau(  54) = (   4.4666586   2.7830198  21.5980365  )
        55           H1  tau(  55) = (   4.1231612   1.2775871  21.0809158  )
        56           H1  tau(  56) = (   4.6015807   1.5257772  22.6108530  )

     number of k points=    10  Fermi-Dirac smearing, width (Ry)=  0.0073
                       cart. coord. in units 2pi/alat
        k(    1) = (   0.0000000   0.0000000   0.0000000), wk =   0.1250000
        k(    2) = (   0.0000000   0.0419351   0.0000000), wk =   0.2500000
        k(    3) = (   0.0000000  -0.0838702   0.0000000), wk =   0.1250000
        k(    4) = (   0.0379955   0.0000049   0.0000000), wk =   0.2500000
        k(    5) = (   0.0379955   0.0419400   0.0000000), wk =   0.2500000
        k(    6) = (   0.0379955  -0.0838652   0.0000000), wk =   0.2500000
        k(    7) = (   0.0379955  -0.0419301   0.0000000), wk =   0.2500000
        k(    8) = (  -0.0759910  -0.0000099   0.0000000), wk =   0.1250000
        k(    9) = (  -0.0759910   0.0419252   0.0000000), wk =   0.2500000
        k(   10) = (  -0.0759910  -0.0838800   0.0000000), wk =   0.1250000

     Initial potential from superposition of free atoms

     starting charge  381.99914, renormalised to  398.00000

     negative rho (up, down):  9.496E-03 0.000E+00

     %%%%%%%%%%%%%%%%%%%%%%%%%%%%%%%%%%%%%%%%%%%%%%%%%%%%%%%%%%%%%%%%%%%%%%%%
     %                                                                      %
     % You are using vdW-DF, which was implemented by the Thonhauser group. %
     % Please cite the following two papers that made this development      %
     % possible and the two reviews that describe the various versions:     %
     %                                                                      %
     %   T. Thonhauser et al., PRL 115, 136402 (2015).                      %
     %   T. Thonhauser et al., PRB 76, 125112 (2007).                       %
     %   K. Berland et al., Rep. Prog. Phys. 78, 066501 (2015).             %
     %   D.C. Langreth et al., J. Phys.: Condens. Matter 21, 084203 (2009). %
     %                                                                      %
     %                                                                      %
     % If you are calculating the stress with vdW-DF, please also cite:     %
     %                                                                      %
     %   R. Sabatini et al., J. Phys.: Condens. Matter 24, 424209 (2012).   %
     %                                                                      %
     %%%%%%%%%%%%%%%%%%%%%%%%%%%%%%%%%%%%%%%%%%%%%%%%%%%%%%%%%%%%%%%%%%%%%%%%

     Adding external electric field

     Computed dipole along edir(3) :
        Dipole              -11.3708 Ry au,        -28.9017 Debye
        Dipole field         -0.0215 Ry au,

        Potential amp.        1.9892 Ry
        Total length         46.3494 bohr

     Starting wfcs are  302 atomic wfcs
  @ DRIVER MODE: Message from server: STATUS
  @ DRIVER MODE: Message from server: POSDATA
  @ DRIVER MODE: Reading and sharing cell
  @ DRIVER MODE: Reading and sharing positions
  @ DRIVER MODE: Received positions

     Self-consistent Calculation

     iteration #  1     ecut=    29.40 Ry     beta= 0.05
     Davidson diagonalization with overlap
     c_bands:  1 eigenvalues not converged
     c_bands:  1 eigenvalues not converged
     c_bands:  2 eigenvalues not converged
     c_bands:  1 eigenvalues not converged
     c_bands:  1 eigenvalues not converged
     c_bands:  1 eigenvalues not converged
     c_bands:  1 eigenvalues not converged
     c_bands:  2 eigenvalues not converged
     c_bands:  2 eigenvalues not converged
     ethr =  1.00E-05,  avg # of iterations = 19.6

[...]

     total energy              =   -2520.76424169 Ry
     estimated scf accuracy    <    4706.04404090 Ry

     iteration #  2     ecut=    29.40 Ry     beta= 0.05
     Davidson diagonalization with overlap
     ethr =  1.00E-02,  avg # of iterations = 22.0

[...]

     iteration # 44     ecut=    29.40 Ry     beta= 0.05
     Davidson diagonalization with overlap
     c_bands:  1 eigenvalues not converged
     c_bands:  1 eigenvalues not converged
     ethr =  3.47E-07,  avg # of iterations = 11.4

[...]

     total energy              =   -2942.90663421 Ry
     estimated scf accuracy    <       0.00000010 Ry

     iteration # 72     ecut=    29.40 Ry     beta= 0.05
     Davidson diagonalization with overlap
     ethr =  2.46E-11,  avg # of iterations =  6.0

     negative rho (up, down):  1.098E-02 0.000E+00

     Adding external electric field

     Computed dipole along edir(3) :
        Dipole                0.4523 Ry au,          1.1498 Debye
        Dipole field          0.0009 Ry au,

        Potential amp.       -0.0791 Ry
        Total length         46.3494 bohr

     End of self-consistent calculation

          k = 0.0000 0.0000 0.0000 ( 18029 PWs)   bands (ev):

   -56.6140 -56.5804 -55.7335 -55.7249 -55.6981 -55.6926 -55.5877 -55.5519
   -55.3710 -55.3357 -55.2788 -55.2725 -55.2449 -55.1705 -54.7336 -54.6203
   -33.0419 -32.8886 -32.8605 -32.7902 -32.6991 -32.6679 -32.2081 -32.1974
   -32.1307 -32.0198 -31.9748 -31.9468 -31.9327 -31.9079 -31.8753 -31.8727
   -31.8685 -31.8620 -31.8389 -31.8357 -31.8241 -31.7959 -31.7707 -31.7571
   -31.7439 -31.7239 -31.7161 -31.6928 -31.6711 -31.6173 -31.6025 -31.5931
   -31.5147 -31.5098 -31.4898 -31.4479 -31.4377 -31.4063 -31.3993 -31.3750
   -31.3537 -31.2954 -31.2351 -30.9747 -30.9621 -30.8798 -30.8403 -30.7494
   -16.7780 -16.3438 -16.1140 -15.9765 -15.9090 -15.8546 -15.8093 -15.6884
   -15.6154 -15.6089 -15.5685 -15.5381 -15.4676 -15.3268 -15.2286 -15.1752
   -15.1309 -15.0099 -14.9497 -14.9171 -14.9125 -14.8780 -14.8585 -14.6624
   -14.6380 -14.5354 -14.5257 -14.3999 -14.1775 -13.7772 -13.7575 -13.6671
   -12.7975  -7.4937  -4.3437  -3.8405  -3.8388  -3.7741  -3.6015  -3.5146
    -3.4071  -3.3941  -3.3132  -3.1948  -3.1488  -3.1011  -2.9852  -2.9851
    -2.8357  -2.7956  -2.7897  -2.7859  -2.7408  -2.6775  -2.6617  -2.6229
    -2.6174  -2.6080  -2.4573  -2.3572  -2.2900  -2.2685  -2.2581  -2.2223
    -2.1442  -2.1241  -2.1093  -2.1057  -2.0053  -1.8564  -1.8549  -1.8239
    -1.7804  -1.7786  -1.7408  -1.7262  -1.5906  -1.5169  -1.4140  -1.3967
    -1.3582  -1.2940  -1.2876  -1.1897  -1.1153  -1.0527  -1.0271  -0.9181
    -0.8757  -0.8532  -0.7636  -0.7015  -0.6618  -0.6443  -0.6274  -0.5237
    -0.5035  -0.4926  -0.4078  -0.3961  -0.3388  -0.2573  -0.2377  -0.2316
    -0.1434  -0.1382  -0.0461  -0.0042   0.0376   0.0826   0.1784   0.1967
     0.2996   0.3351   0.3565   0.4762   0.4892   0.5521   0.6194   0.6869
     0.7182   0.7429   0.7721   0.7938   0.8670   0.9819   0.9869   1.0885
     1.1279   1.2958   1.3347   1.3771   1.6225   1.6487   2.3194   2.6606
     2.8206   3.1191   3.3098   3.4209   3.6359   3.6511   3.6564   3.8340
     3.8799

[...]

          k = 0.0380-0.0419 0.0000 ( 17876 PWs)   bands (ev):

[...]

          k =-0.0760-0.0000 0.0000 ( 17886 PWs)   bands (ev):

[...]

          k =-0.0760-0.0839 0.0000 ( 17948 PWs)   bands (ev):

   -56.5973 -56.5970 -55.7175 -55.7123 -55.7098 -55.7091 -55.5724 -55.5670
   -55.3562 -55.3504 -55.2694 -55.2618 -55.2618 -55.1734 -54.7308 -54.6231
   -32.8744 -32.8742 -32.8588 -32.8586 -32.7433 -32.7430 -32.0377 -32.0351
   -32.0217 -32.0156 -31.9654 -31.9642 -31.9220 -31.9206 -31.9193 -31.9182
   -31.9074 -31.9047 -31.9033 -31.9010 -31.8246 -31.8201 -31.7737 -31.7684
   -31.7075 -31.7002 -31.6392 -31.6324 -31.6061 -31.6061 -31.5990 -31.5552
   -31.5531 -31.5252 -31.4901 -31.4873 -31.4873 -31.4482 -31.4482 -31.4432
   -31.4163 -31.3770 -31.1139 -30.9945 -30.9618 -30.9299 -30.8428 -30.8080
   -16.1263 -16.1242 -16.0921 -16.0918 -15.8221 -15.8184 -15.7743 -15.7725
   -15.5998 -15.5939 -15.3873 -15.3771 -15.3712 -15.3671 -15.2430 -15.2341
   -15.1708 -15.1600 -15.0709 -15.0674 -15.0044 -14.9982 -14.9604 -14.9407
   -14.6241 -14.6165 -14.4889 -14.4802 -14.3274 -13.7706 -13.7706 -13.7567
   -12.8140  -7.4837  -3.8423  -3.7868  -3.2259  -3.2253  -3.1599  -3.1586
    -3.0377  -3.0330  -2.9563  -2.9558  -2.8565  -2.8523  -2.7563  -2.7127
    -2.7105  -2.7078  -2.6950  -2.6524  -2.5569  -2.5566  -2.5418  -2.5267
    -2.4711  -2.4690  -2.4546  -2.3821  -2.3685  -2.3327  -2.2934  -2.1868
    -2.1732  -2.1567  -2.1308  -2.0707  -2.0561  -2.0447  -1.9971  -1.9728
    -1.8949  -1.8283  -1.7871  -1.6672  -1.6637  -1.6539  -1.6418  -1.4867
    -1.4509  -1.4196  -1.4099  -1.4039  -1.3595  -1.2614  -1.2535  -1.1190
    -1.1164  -1.0467  -0.9648  -0.9416  -0.9195  -0.7852  -0.7448  -0.7040
    -0.6989  -0.6739  -0.6482  -0.6286  -0.6011  -0.4495  -0.4302  -0.3959
    -0.3652  -0.3571  -0.3159  -0.2476  -0.1678  -0.0869  -0.0857  -0.0194
     0.0327   0.0946   0.1826   0.1950   0.1990   0.4818   0.5620   0.6492
     0.7283   0.7921   0.8579   0.8826   0.9431   0.9822   1.1223   1.1251
     1.1438   1.1442   1.2042   1.2126   1.3598   1.6447   2.2060   3.2337
     3.2340   3.3011   3.3015   3.6252   3.6307   3.7397   3.7487   3.8587
     3.8641

     the Fermi energy is     2.4986 ev

!    total energy              =   -2942.90665114 Ry
     estimated scf accuracy    <       0.00000002 Ry
     smearing contrib. (-TS)   =      -0.00477650 Ry
     internal energy E=F+TS    =   -2942.90187464 Ry

     The total energy is F=E-TS. E is the sum of the following terms:
     one-electron contribution =  -23225.70994860 Ry
     hartree contribution      =   11703.14146176 Ry
     xc contribution           =    -487.47671266 Ry
     ewald contribution        =    9067.14293872 Ry
     electric field correction =       0.00038614 Ry

     convergence has been achieved in  72 iterations

     Forces acting on atoms (cartesian axes, Ry/au):

     atom    1 type  1   force =     0.00000841   -0.00043961    0.12431999
     atom    2 type  1   force =    -0.00005802   -0.00054780   -0.16064542
     atom    3 type  2   force =     0.00016447   -0.00030151   -0.06836768
     atom    4 type  2   force =    -0.00005170   -0.00038459    0.02752696
     atom    5 type  2   force =    -0.01678253    0.00112740   -0.00833154
     atom    6 type  2   force =     0.01783347    0.00162737   -0.01022258
     atom    7 type  1   force =     0.00039960   -0.00408377    0.02180707
     atom    8 type  1   force =     0.00020225   -0.00219550    0.11167442
     atom    9 type  2   force =     0.00010295    0.00018603   -0.00030824
     atom   10 type  2   force =    -0.00319809    0.00010923   -0.07306456
     atom   11 type  2   force =    -0.00034482    0.00033159   -0.00007618
     atom   12 type  2   force =     0.00014909    0.00045281   -0.00003297
     atom   13 type  1   force =     0.00013199   -0.00024803   -0.00002164
     atom   14 type  1   force =    -0.00016053    0.00003323   -0.00031611
     atom   15 type  2   force =    -0.00004622   -0.00024465    0.00019432
     atom   16 type  2   force =     0.00032899    0.00076781    0.00000612
     atom   17 type  2   force =     0.00019341    0.00031010   -0.00027317
     atom   18 type  2   force =    -0.00020220    0.00021313    0.00012587
     atom   19 type  1   force =     0.00049546   -0.00009273   -0.00022632
     atom   20 type  1   force =     0.00026027   -0.00037536   -0.00048358
     atom   21 type  2   force =     0.00010039    0.00008115    0.09967662
     atom   22 type  2   force =     0.00008056    0.00095126    0.00047634
     atom   23 type  2   force =    -0.07915876    0.00008570   -0.03244070
     atom   24 type  2   force =     0.07906555    0.00051296   -0.03243765
     atom   25 type  1   force =     0.00002737   -0.00041399    0.12383692
     atom   26 type  1   force =    -0.00003604   -0.00041971   -0.16076737
     atom   27 type  2   force =     0.00028771   -0.00046796   -0.06735922
     atom   28 type  2   force =    -0.00005503   -0.00020568    0.02726291
     atom   29 type  2   force =    -0.01731204    0.00074039   -0.00825693
     atom   30 type  2   force =     0.01828034    0.00113843   -0.01009406
     atom   31 type  1   force =     0.00033894   -0.00100069    0.02127674
     atom   32 type  1   force =     0.00021512   -0.00027262    0.11222739
     atom   33 type  2   force =     0.00011967    0.00051139   -0.00007499
     atom   34 type  2   force =    -0.00294501   -0.00065443   -0.07291943
     atom   35 type  2   force =    -0.00024865    0.00027332   -0.00010201
     atom   36 type  2   force =     0.00010613    0.00013660   -0.00003672
     atom   37 type  1   force =     0.00013742   -0.00015619    0.00023813
     atom   38 type  1   force =     0.00006917    0.00005102    0.00031549
     atom   39 type  2   force =     0.00021300    0.00037323   -0.00015274
     atom   40 type  2   force =     0.00010045    0.00034472    0.00015077
     atom   41 type  2   force =    -0.00015887    0.00033261    0.00017769
     atom   42 type  2   force =    -0.00003004    0.00059974   -0.00000605
     atom   43 type  1   force =     0.00059420    0.00052929    0.00048504
     atom   44 type  1   force =     0.00014964    0.00032856   -0.00039608
     atom   45 type  2   force =     0.00010361    0.00005006    0.09969789
     atom   46 type  2   force =    -0.07916796    0.00012842   -0.03244270
     atom   47 type  2   force =     0.07907039    0.00056194   -0.03243087
     atom   48 type  3   force =     0.00043017    0.00030428   -0.00025510
     atom   49 type  4   force =     0.00072847   -0.00037793    0.00177956
     atom   50 type  5   force =     0.00055596   -0.00036330   -0.00036540
     atom   51 type  5   force =    -0.00022472    0.00035087   -0.00011459
     atom   52 type  5   force =    -0.00071104   -0.00059111    0.00023694
     atom   53 type  3   force =     0.00225286    0.00375477   -0.01433547
     atom   54 type  5   force =     0.00003706    0.00066951   -0.00101977
     atom   55 type  5   force =     0.00056806    0.00069546   -0.00052678
     atom   56 type  5   force =    -0.00301032   -0.00482721    0.01541142

     Total force =     0.425517     Total SCF correction =     0.000428
  @ DRIVER MODE: Message from server: STATUS
  @ DRIVER MODE: Message from server: GETFORCE
  @ DRIVER MODE: Returning v,forces,stress,ensemble

     Writing output data file ./calc.save/
  @ DRIVER MODE: Message from server: EXIT
  @ DRIVE MODE: Exiting

     General routines

     Parallel routines

   This run was terminated on:   2:57:19   3Aug2021

   JOB DONE.