     Program PWSCF v.6.7GPU starts on 15Sep2021 at 19:34:40

     R & G space division:  proc/nbgrp/npool/nimage =      10
     Reading input from /storage/home/hcoda1/3/ntian30/research/carbon/CxH_vib/H2O_calc/ads_slab/CH2H2O_a/out_0013/pw.inp
Warning: card &CELL ignored
Warning: card   CELL_DYNAMICS='IPI', ignored
Warning: card / ignored

     Current dimensions of program PWSCF are:
     Max number of different atomic species (ntypx) = 10
     Max number of k-points (npk) =  40000
     Max angular momentum in pseudopotentials (lmaxx) =  3
     Presently no symmetry can be used with electric field

     Message from routine cell_base_init:
     DEPRECATED: use true lattice parameter, not A to a.u. conversion factor

     IMPORTANT: XC functional enforced from input :
     Exchange-correlation= BEEF-VDW
                           (   1   4  43  14   2   0   0)
     Any further DFT definition will be discarded
     Please, verify this is what you really want

  @ DRIVER MODE: Connecting to
 qe_1139763_2852604.sched-torque.pace.gatech.eduqztccexi_scratch
  using UNIX socket
  @ DRIVER MODE: Message from server: STATUS
  @ DRIVER MODE: Message from server: INIT
  @ DRIVER MODE: Receiving replica           0          -1
  @ DRIVER MODE: Receiving encoded integer          25
  @ DRIVER MODE:  SCF:  T  FORCE:  T  STRESS:  F  VC:  F  ENSEMBLE:  F
  @ DRIVER MODE:  SCF:  T  FORCE:  T  STRESS:  F  VC:  F  ENSEMBLE:  F

     Using Slab Decomposition

     bravais-lattice index     =            0
     lattice parameter (alat)  =       1.8897  a.u.
     unit-cell volume          =    6658.9804 (a.u.)^3
     number of atoms/cell      =           53
     number of atomic types    =            4
     number of electrons       =       392.00
     number of Kohn-Sham states=          206
     kinetic-energy cutoff     =      29.3995  Ry
     charge density cutoff     =     293.9946  Ry
     scf convergence threshold =      7.3E-08
     mixing beta               =       0.0500
     number of iterations used =            8  plain     mixing
     Exchange-correlation= BEEF-VDW
                           (   1   4  43  14   2   0   0)

     celldm(1)=   1.889726  celldm(2)=   0.000000  celldm(3)=   0.000000
     celldm(4)=   0.000000  celldm(5)=   0.000000  celldm(6)=   0.000000

     crystal axes: (cart. coord. in units of alat)
               a(1) = (   6.579727   0.000000   0.000000 )
               a(2) = (  -0.000775   5.961596   0.000000 )
               a(3) = (   0.000000   0.000000  25.155947 )

     reciprocal axes: (cart. coord. in units 2 pi/alat)
               b(1) = (  0.151982  0.000020  0.000000 )
               b(2) = (  0.000000  0.167740  0.000000 )
               b(3) = (  0.000000  0.000000  0.039752 )

     PseudoPot. # 1 for Ti read from file:
     /storage/coda1/p-amedford6/0/shared/rich_project_chbe-medford/medford-share/data/pseudos_module/espresso/nninc/pbe/van/Ti.UPF
     MD5 check sum: 8e4df49b7f0d34bbd5052bf3f5ea0213
     Pseudo is Ultrasoft, Zval = 12.0
     Generated by new atomic code, or converted to UPF format
     Using radial grid of  851 points,  6 beta functions with:
                l(1) =   0
                l(2) =   0
                l(3) =   1
                l(4) =   1
                l(5) =   2
                l(6) =   2
     Q(r) pseudized with  8 coefficients,  rinner =    1.000   1.000   1.000
                                                       1.000   1.000

     PseudoPot. # 2 for O  read from file:
     /storage/coda1/p-amedford6/0/shared/rich_project_chbe-medford/medford-share/data/pseudos_module/espresso/nninc/pbe/van/O.UPF
     MD5 check sum: 78c19812648e8988a0fe644b0f25305e
     Pseudo is Ultrasoft, Zval =  6.0
     Generated by new atomic code, or converted to UPF format
     Using radial grid of  737 points,  4 beta functions with:
                l(1) =   0
                l(2) =   0
                l(3) =   1
                l(4) =   1
     Q(r) pseudized with  8 coefficients,  rinner =    0.800   0.800   0.800

     PseudoPot. # 3 for C  read from file:
     /storage/coda1/p-amedford6/0/shared/rich_project_chbe-medford/medford-share/data/pseudos_module/espresso/nninc/pbe/van/C.UPF
     MD5 check sum: 1a69bf6b8db32088f5b2163dbdb77a27
     Pseudo is Ultrasoft, Zval =  4.0
     Generated by new atomic code, or converted to UPF format
     Using radial grid of  721 points,  4 beta functions with:
                l(1) =   0
                l(2) =   0
                l(3) =   1
                l(4) =   1
     Q(r) pseudized with  8 coefficients,  rinner =    0.800   0.800   0.800

     PseudoPot. # 4 for H  read from file:
     /storage/coda1/p-amedford6/0/shared/rich_project_chbe-medford/medford-share/data/pseudos_module/espresso/nninc/pbe/van/H.UPF
     MD5 check sum: b5ee9d7bfd3a09ee7748110bda690ff7
     Pseudo is Ultrasoft, Zval =  1.0
     Generated by new atomic code, or converted to UPF format
     Using radial grid of  615 points,  1 beta functions with:
                l(1) =   0
     Q(r) pseudized with  8 coefficients,  rinner =    0.800

     atomic species   valence    mass     pseudopotential
        Ti1           12.00    47.86700     Ti( 1.00)
        O1             6.00    15.99900     O ( 1.00)
        C1             4.00    12.01100     C ( 1.00)
        H1             1.00     1.00800     H ( 1.00)

     No symmetry found

   Cartesian axes

     site n.     atom                  positions (alat units)
         1           Ti1 tau(   1) = (   0.0004258   2.9801865   6.0000000  )
         2           Ti1 tau(   2) = (   3.2906075   1.4906267   6.0002472  )
         3           O1  tau(   3) = (   0.0006271   0.0005054   7.9858123  )
         4           O1  tau(   4) = (   3.2906025   0.0005020   7.3038282  )
         5           O1  tau(   5) = (   4.5942328   1.4918067   9.2879030  )
         6           O1  tau(   6) = (   1.9868534   1.4903216   9.2879459  )
         7           Ti1 tau(   7) = (   3.2791254   2.8632543   9.1696858  )
         8           Ti1 tau(   8) = (   6.5716288   1.4291880   9.3745659  )
         9           O1  tau(   9) = (   3.2719631   5.9564768  11.3413791  )
        10           O1  tau(  10) = (   6.5766582   5.9454684  10.5603319  )
        11           O1  tau(  11) = (   1.2606928   1.4857163  12.6338655  )
        12           O1  tau(  12) = (   5.2561023   1.4877827  12.6114660  )
        13           Ti1 tau(  13) = (   0.0646731   2.9540699  12.8218634  )
        14           Ti1 tau(  14) = (   3.3836270   1.4660460  12.4955168  )
        15           O1  tau(  15) = (   6.5457659   5.9184216  14.5915085  )
        16           O1  tau(  16) = (   3.2744135   0.0171945  13.9516778  )
        17           O1  tau(  17) = (   4.5159629   1.5536209  16.0418326  )
        18           O1  tau(  18) = (   1.9981799   1.5541948  16.0447984  )
        19           Ti1 tau(  19) = (   3.2528476   3.0136947  15.6822407  )
        20           Ti1 tau(  20) = (   6.5571992   1.6159626  16.1493948  )
        21           O1  tau(  21) = (   3.2904802   0.0005063   4.7018136  )
        22           O1  tau(  22) = (   6.5499432   0.0285508  17.2403840  )
        23           O1  tau(  23) = (   1.3043587   1.4918075   6.0039043  )
        24           O1  tau(  24) = (   5.2767064   1.4903225   6.0039473  )
        25           Ti1 tau(  25) = (   0.0000382   5.9609847   6.0000000  )
        26           Ti1 tau(  26) = (   3.2902200   4.4714249   6.0002472  )
        27           O1  tau(  27) = (   0.0002396   2.9813036   7.9858123  )
        28           O1  tau(  28) = (   3.2902150   2.9813002   7.3038282  )
        29           O1  tau(  29) = (   4.5938453   4.4726049   9.2879030  )
        30           O1  tau(  30) = (   1.9864658   4.4711199   9.2879459  )
        31           Ti1 tau(  31) = (   3.2865685   5.8444178   9.1628351  )
        32           Ti1 tau(  32) = (   6.5743218   4.4049426   9.3738558  )
        33           O1  tau(  33) = (   3.2769956   2.9705820  11.3381082  )
        34           O1  tau(  34) = (   6.5775985   2.9640992  10.5572898  )
        35           O1  tau(  35) = (   1.2629977   4.4457513  12.6272354  )
        36           O1  tau(  36) = (   5.2537740   4.4534837  12.6036699  )
        37           Ti1 tau(  37) = (   0.0534783   5.9329931  12.7718795  )
        38           Ti1 tau(  38) = (   3.3808541   4.4548706  12.4760825  )
        39           O1  tau(  39) = (   6.5578179   2.9671967  14.6759119  )
        40           O1  tau(  40) = (   3.2646438   2.9894133  13.8927730  )
        41           O1  tau(  41) = (   4.5094683   4.4833613  16.0328582  )
        42           O1  tau(  42) = (   2.0033084   4.4836886  16.0339364  )
        43           Ti1 tau(  43) = (   3.2772676   0.0291193  15.7865657  )
        44           Ti1 tau(  44) = (   6.5620481   4.6241259  16.1080240  )
        45           O1  tau(  45) = (   3.2900926   2.9813045   4.7018136  )
        46           O1  tau(  46) = (   1.3039711   4.4726057   6.0039043  )
        47           O1  tau(  47) = (   5.2763189   4.4711207   6.0039473  )
        48           C1  tau(  48) = (   6.5362552   2.9989010  17.5868729  )
        49           H1  tau(  49) = (   0.8535040   3.1223538  18.1993289  )
        50           H1  tau(  50) = (   5.6140823   3.1149880  18.1772116  )
        51           O1  tau(  51) = (   3.2614802   0.0224742  18.1496266  )
        52           H1  tau(  52) = (   4.0528939   5.9570843  18.7024920  )
        53           H1  tau(  53) = (   2.4635753   0.0005096  18.6943540  )

     number of k points=    10  Fermi-Dirac smearing, width (Ry)=  0.0073
                       cart. coord. in units 2pi/alat
        k(    1) = (   0.0000000   0.0000000   0.0000000), wk =   0.1250000
        k(    2) = (   0.0000000   0.0419351   0.0000000), wk =   0.2500000
        k(    3) = (   0.0000000  -0.0838702   0.0000000), wk =   0.1250000
        k(    4) = (   0.0379955   0.0000049   0.0000000), wk =   0.2500000
        k(    5) = (   0.0379955   0.0419400   0.0000000), wk =   0.2500000
        k(    6) = (   0.0379955  -0.0838652   0.0000000), wk =   0.2500000
        k(    7) = (   0.0379955  -0.0419301   0.0000000), wk =   0.2500000
        k(    8) = (  -0.0759910  -0.0000099   0.0000000), wk =   0.1250000
        k(    9) = (  -0.0759910   0.0419252   0.0000000), wk =   0.2500000
        k(   10) = (  -0.0759910  -0.0838800   0.0000000), wk =   0.1250000

     Initial potential from superposition of free atoms

     starting charge  375.99917, renormalised to  392.00000

     negative rho (up, down):  1.851E-02 0.000E+00

     %%%%%%%%%%%%%%%%%%%%%%%%%%%%%%%%%%%%%%%%%%%%%%%%%%%%%%%%%%%%%%%%%%%%%%%%
     %                                                                      %
     % You are using vdW-DF, which was implemented by the Thonhauser group. %
     % Please cite the following two papers that made this development      %
     % possible and the two reviews that describe the various versions:     %
     %                                                                      %
     %   T. Thonhauser et al., PRL 115, 136402 (2015).                      %
     %   T. Thonhauser et al., PRB 76, 125112 (2007).                       %
     %   K. Berland et al., Rep. Prog. Phys. 78, 066501 (2015).             %
     %   D.C. Langreth et al., J. Phys.: Condens. Matter 21, 084203 (2009). %
     %                                                                      %
     %                                                                      %
     % If you are calculating the stress with vdW-DF, please also cite:     %
     %                                                                      %
     %   R. Sabatini et al., J. Phys.: Condens. Matter 24, 424209 (2012).   %
     %                                                                      %
     %%%%%%%%%%%%%%%%%%%%%%%%%%%%%%%%%%%%%%%%%%%%%%%%%%%%%%%%%%%%%%%%%%%%%%%%

     Adding external electric field

     Computed dipole along edir(3) :
        Dipole               -5.1805 Ry au,        -13.1674 Debye
        Dipole field         -0.0098 Ry au,

        Potential amp.        0.9062 Ry
        Total length         46.3494 bohr

     Starting wfcs are  296 atomic wfcs
  @ DRIVER MODE: Message from server: STATUS
  @ DRIVER MODE: Message from server: POSDATA
  @ DRIVER MODE: Reading and sharing cell
  @ DRIVER MODE: Reading and sharing positions
  @ DRIVER MODE: Received positions

     Self-consistent Calculation

     iteration #  1     ecut=    29.40 Ry     beta= 0.05
     Davidson diagonalization with overlap
     c_bands:  5 eigenvalues not converged
     c_bands:  3 eigenvalues not converged
     c_bands:  3 eigenvalues not converged
     c_bands:  4 eigenvalues not converged
     c_bands:  2 eigenvalues not converged
     c_bands:  3 eigenvalues not converged
     c_bands:  3 eigenvalues not converged
     c_bands:  1 eigenvalues not converged
     ethr =  1.00E-05,  avg # of iterations = 19.5

[...]

     total energy              =   -2834.08549104 Ry
     estimated scf accuracy    <    1089.51520829 Ry

     iteration #  2     ecut=    29.40 Ry     beta= 0.05
     Davidson diagonalization with overlap
     ethr =  1.00E-02,  avg # of iterations = 15.9

[...]

     iteration # 42     ecut=    29.40 Ry     beta= 0.05
     Davidson diagonalization with overlap
     c_bands:  1 eigenvalues not converged
     ethr =  1.12E-07,  avg # of iterations =  8.7

[...]

     total energy              =   -2932.56443086 Ry
     estimated scf accuracy    <       0.00000009 Ry

     iteration # 60     ecut=    29.40 Ry     beta= 0.05
     Davidson diagonalization with overlap
     ethr =  2.27E-11,  avg # of iterations =  4.5

     negative rho (up, down):  1.822E-02 0.000E+00

     Adding external electric field

     Computed dipole along edir(3) :
        Dipole                0.8995 Ry au,          2.2862 Debye
        Dipole field          0.0017 Ry au,

        Potential amp.       -0.1573 Ry
        Total length         46.3494 bohr

     End of self-consistent calculation

          k = 0.0000 0.0000 0.0000 ( 18029 PWs)   bands (ev):

   -56.1854 -56.1513 -55.8908 -55.8417 -55.8038 -55.6989 -55.5900 -55.5628
   -55.5288 -55.5090 -55.4925 -55.4567 -55.1248 -54.9930 -54.9697 -54.9358
   -32.6133 -32.4365 -32.4076 -32.3821 -32.3746 -32.2905 -32.2832 -32.2400
   -32.1770 -32.1103 -32.1039 -32.0686 -32.0576 -32.0550 -32.0482 -32.0231
   -31.9986 -31.9973 -31.9664 -31.8948 -31.8710 -31.8398 -31.8222 -31.8099
   -31.8074 -31.7792 -31.7491 -31.7323 -31.7249 -31.7217 -31.6797 -31.6718
   -31.6713 -31.6648 -31.6503 -31.5961 -31.5732 -31.4210 -31.3725 -31.3695
   -31.3229 -31.2962 -31.2724 -31.1880 -31.1680 -31.1031 -31.0378 -30.9910
   -19.2285 -16.5194 -16.3499 -16.1137 -15.9793 -15.8977 -15.7375 -15.5569
   -15.5480 -15.4592 -15.4362 -15.3597 -15.3510 -15.3166 -15.3042 -15.2963
   -15.2813 -15.2577 -15.2119 -15.2006 -15.2001 -15.1515 -15.0967 -15.0034
   -14.9914 -14.9436 -14.8258 -14.8186 -14.7841 -14.6378 -13.4638 -13.3501
    -8.0448  -7.2704  -3.9969  -3.9297  -3.8117  -3.7196  -3.6947  -3.5799
    -3.3402  -3.2705  -3.0130  -2.9814  -2.9386  -2.8930  -2.8783  -2.7981
    -2.7045  -2.6904  -2.6625  -2.6373  -2.6020  -2.5947  -2.5314  -2.5197
    -2.4993  -2.4938  -2.4296  -2.4151  -2.3729  -2.2365  -2.1864  -2.1613
    -2.1490  -2.1096  -2.0744  -2.0123  -1.9895  -1.9615  -1.9028  -1.7531
    -1.7304  -1.6497  -1.6217  -1.5500  -1.4606  -1.4470  -1.2998  -1.2815
    -1.2461  -1.2351  -1.2076  -1.1552  -1.1352  -1.0285  -0.8978  -0.8181
    -0.7860  -0.7649  -0.7512  -0.7044  -0.6678  -0.6145  -0.6064  -0.5631
    -0.4873  -0.4785  -0.4034  -0.2181  -0.2045  -0.1934  -0.1762  -0.1336
    -0.1050  -0.0824  -0.0392   0.0057   0.0304   0.0890   0.0990   0.1305
     0.1481   0.2254   0.2752   0.3297   0.3356   0.4488   0.5596   0.6255
     0.6399   0.6704   0.7711   0.7827   0.9891   1.0073   1.0577   1.2694
     1.3149   1.6432   1.7149   2.1707   3.0835   3.2588   3.4622   3.5603
     3.5804   3.6754   3.6883   3.8201   3.8775   3.9252

[...]

          k = 0.0380-0.0419 0.0000 ( 17876 PWs)   bands (ev):

[...]

          k =-0.0760-0.0000 0.0000 ( 17886 PWs)   bands (ev):

[...]

          k =-0.0760-0.0839 0.0000 ( 17948 PWs)   bands (ev):

   -56.1713 -56.1652 -55.8891 -55.8291 -55.8162 -55.7003 -55.5861 -55.5467
   -55.5446 -55.5127 -55.4784 -55.4709 -55.1226 -54.9951 -54.9527 -54.9527
   -32.4333 -32.4282 -32.4253 -32.4179 -32.3297 -32.3246 -32.1964 -32.1838
   -32.1694 -32.1582 -32.1064 -32.0917 -32.0527 -32.0327 -32.0288 -32.0170
   -31.9987 -31.9025 -31.9024 -31.8769 -31.8763 -31.8399 -31.8177 -31.8079
   -31.8047 -31.7979 -31.7907 -31.7881 -31.7591 -31.7573 -31.7551 -31.7395
   -31.6937 -31.6866 -31.6834 -31.6765 -31.4830 -31.4196 -31.3764 -31.2953
   -31.2853 -31.2853 -31.2790 -31.1839 -31.1836 -31.1457 -31.1455 -31.0508
   -19.2278 -16.0089 -15.8989 -15.7461 -15.7061 -15.6627 -15.6623 -15.6319
   -15.5983 -15.5628 -15.5564 -15.4664 -15.4350 -15.4212 -15.4093 -15.3443
   -15.3385 -15.3337 -15.3301 -15.2692 -15.2625 -15.1485 -15.1406 -15.0608
   -15.0503 -15.0207 -14.9986 -14.9553 -14.9488 -14.7885 -13.4525 -13.4524
    -8.0493  -7.2635  -3.9172  -3.3094  -3.0911  -2.9699  -2.9311  -2.8054
    -2.7940  -2.7878  -2.7803  -2.7669  -2.7286  -2.6736  -2.6530  -2.6418
    -2.6163  -2.6031  -2.5757  -2.5675  -2.5404  -2.5387  -2.5330  -2.5288
    -2.5104  -2.4926  -2.4363  -2.4281  -2.4119  -2.3822  -2.3030  -2.2879
    -2.1971  -2.1090  -2.0786  -2.0772  -2.0164  -1.9815  -1.8996  -1.8911
    -1.8745  -1.8693  -1.8055  -1.6114  -1.5569  -1.5517  -1.5146  -1.4797
    -1.3188  -1.2806  -1.2180  -1.1777  -1.1466  -1.1326  -1.0583  -1.0474
    -1.0219  -0.9682  -0.9637  -0.9565  -0.9407  -0.8597  -0.8424  -0.8164
    -0.7420  -0.7008  -0.6845  -0.6588  -0.6282  -0.5751  -0.4908  -0.4678
    -0.4552  -0.4408  -0.3121  -0.2742  -0.2437  -0.2069  -0.1581   0.1067
     0.1164   0.2023   0.2992   0.3932   0.4337   0.5351   0.5532   0.5598
     0.6861   0.6992   0.7047   0.7137   0.8141   0.8209   0.8593   1.4429
     1.4452   1.4976   1.4989   2.4403   3.6070   3.6142   3.6254   3.6306
     3.6535   3.6835   3.7030   3.7344   4.0250   4.0427

     the Fermi energy is     2.7907 ev

!    total energy              =   -2932.56449676 Ry
     estimated scf accuracy    <       0.00000006 Ry
     smearing contrib. (-TS)   =      -0.00166928 Ry
     internal energy E=F+TS    =   -2932.56282748 Ry

     The total energy is F=E-TS. E is the sum of the following terms:
     one-electron contribution =  -24523.04208925 Ry
     hartree contribution      =   12349.11216845 Ry
     xc contribution           =    -482.73914578 Ry
     ewald contribution        =    9724.10471236 Ry
     electric field correction =       0.00152674 Ry

     convergence has been achieved in  60 iterations

     Forces acting on atoms (cartesian axes, Ry/au):

     atom    1 type  1   force =     0.00030522   -0.00016487    0.14554473
     atom    2 type  1   force =     0.00005232    0.00071780   -0.16923435
     atom    3 type  2   force =     0.00003678    0.00234976   -0.06023787
     atom    4 type  2   force =    -0.00017380   -0.00141996    0.03902692
     atom    5 type  2   force =    -0.02194469   -0.00032153    0.00358777
     atom    6 type  2   force =     0.01963456   -0.00081225    0.00220208
     atom    7 type  1   force =     0.00013328   -0.00000090    0.00040075
     atom    8 type  1   force =     0.00006909    0.00008847    0.00107219
     atom    9 type  2   force =    -0.00007637   -0.00028592    0.00032177
     atom   10 type  2   force =     0.00010273    0.00014868   -0.00060896
     atom   11 type  2   force =     0.00007459    0.00002198    0.00100307
     atom   12 type  2   force =     0.00071458    0.00010104    0.00105583
     atom   13 type  1   force =    -0.00072730   -0.00015439   -0.00044957
     atom   14 type  1   force =     0.00038013   -0.00103951    0.00001443
     atom   15 type  2   force =     0.00020537   -0.00016216    0.00096560
     atom   16 type  2   force =    -0.00005901   -0.00028119    0.00144005
     atom   17 type  2   force =     0.00005101   -0.00057971    0.00016215
     atom   18 type  2   force =    -0.00012960   -0.00066645    0.00027792
     atom   19 type  1   force =     0.00085053   -0.00065185   -0.00028417
     atom   20 type  1   force =    -0.00038697    0.00036465   -0.00023354
     atom   21 type  2   force =     0.00012669   -0.00008158    0.10215557
     atom   22 type  2   force =     0.00018261    0.00002436   -0.00004266
     atom   23 type  2   force =    -0.07476228    0.00031987   -0.03451738
     atom   24 type  2   force =     0.07483594    0.00076611   -0.03458673
     atom   25 type  1   force =     0.00009220   -0.00007737    0.14713086
     atom   26 type  1   force =     0.00001105   -0.00210108   -0.16941078
     atom   27 type  2   force =     0.00001497    0.00192889   -0.05939488
     atom   28 type  2   force =    -0.00028763   -0.00139859    0.03991360
     atom   29 type  2   force =    -0.02158817    0.00107203    0.00380869
     atom   30 type  2   force =     0.02033708   -0.00011393    0.00242525
     atom   31 type  1   force =     0.00013517    0.00017630    0.00129594
     atom   32 type  1   force =     0.00006575   -0.00024043    0.00116539
     atom   33 type  2   force =    -0.00010382   -0.00006442   -0.00057586
     atom   34 type  2   force =     0.00010554    0.00009939   -0.00067130
     atom   35 type  2   force =     0.00027098   -0.00037947    0.00076676
     atom   36 type  2   force =     0.00034637   -0.00045542    0.00083737
     atom   37 type  1   force =    -0.00058888   -0.00014627   -0.00053815
     atom   38 type  1   force =     0.00048782    0.00060519   -0.00032559
     atom   39 type  2   force =     0.00028541   -0.00001776   -0.00023551
     atom   40 type  2   force =    -0.00009604   -0.00014031    0.00178029
     atom   41 type  2   force =     0.00003245    0.00050906    0.00026785
     atom   42 type  2   force =    -0.00016306    0.00050434    0.00042806
     atom   43 type  1   force =     0.00047592    0.00056564   -0.00017949
     atom   44 type  1   force =    -0.00043290    0.00021168   -0.00009931
     atom   45 type  2   force =     0.00011834   -0.00010358    0.10208147
     atom   46 type  2   force =    -0.07475124   -0.00001917   -0.03448550
     atom   47 type  2   force =     0.07483995    0.00043946   -0.03458237
     atom   48 type  3   force =    -0.00809414    0.00058779    0.00451146
     atom   49 type  4   force =    -0.00056868   -0.00009295    0.00013467
     atom   50 type  4   force =     0.00934791   -0.00102105   -0.00500847
     atom   51 type  2   force =     0.00022336    0.00101069   -0.00088198
     atom   52 type  4   force =     0.00057229    0.00018009    0.00037697
     atom   53 type  4   force =    -0.00058345    0.00020081    0.00042896

     Total force =     0.400606     Total SCF correction =     0.000738
  @ DRIVER MODE: Message from server: STATUS
  @ DRIVER MODE: Message from server: GETFORCE
  @ DRIVER MODE: Returning v,forces,stress,ensemble

     Writing output data file ./calc.save/
  @ DRIVER MODE: Message from server: EXIT
  @ DRIVE MODE: Exiting

     General routines

     Parallel routines

   This run was terminated on:  19:50:52  15Sep2021

   JOB DONE.