     Program PWSCF v.6.7GPU starts on 23Sep2021 at  7:17:42

     R & G space division:  proc/nbgrp/npool/nimage =      10
     Reading input from /storage/home/hcoda1/3/ntian30/research/carbon/CxH_vib/H2O_calc/ads_slab/CHNHNHH2O_b/out_0045/pw.inp
Warning: card &CELL ignored
Warning: card   CELL_DYNAMICS='IPI', ignored
Warning: card / ignored

     Current dimensions of program PWSCF are:
     Max number of different atomic species (ntypx) = 10
     Max number of k-points (npk) =  40000
     Max angular momentum in pseudopotentials (lmaxx) =  3
     Presently no symmetry can be used with electric field

     Message from routine cell_base_init:
     DEPRECATED: use true lattice parameter, not A to a.u. conversion factor

     IMPORTANT: XC functional enforced from input :
     Exchange-correlation= BEEF-VDW
                           (   1   4  43  14   2   0   0)
     Any further DFT definition will be discarded
     Please, verify this is what you really want

  @ DRIVER MODE: Connecting to
 qe_1139763_2937311.sched-torque.pace.gatech.eduulkid4il_scratch
  using UNIX socket
  @ DRIVER MODE: Message from server: STATUS
  @ DRIVER MODE: Message from server: INIT
  @ DRIVER MODE: Receiving replica           0          -1
  @ DRIVER MODE: Receiving encoded integer          25
  @ DRIVER MODE:  SCF:  T  FORCE:  T  STRESS:  F  VC:  F  ENSEMBLE:  F
  @ DRIVER MODE:  SCF:  T  FORCE:  T  STRESS:  F  VC:  F  ENSEMBLE:  F

     Using Slab Decomposition

     bravais-lattice index     =            0
     lattice parameter (alat)  =       1.8897  a.u.
     unit-cell volume          =    6658.9804 (a.u.)^3
     number of atoms/cell      =           56
     number of atomic types    =            5
     number of electrons       =       403.00
     number of Kohn-Sham states=          211
     kinetic-energy cutoff     =      29.3995  Ry
     charge density cutoff     =     293.9946  Ry
     scf convergence threshold =      7.3E-08
     mixing beta               =       0.0500
     number of iterations used =            8  plain     mixing
     Exchange-correlation= BEEF-VDW
                           (   1   4  43  14   2   0   0)

     celldm(1)=   1.889726  celldm(2)=   0.000000  celldm(3)=   0.000000
     celldm(4)=   0.000000  celldm(5)=   0.000000  celldm(6)=   0.000000

     crystal axes: (cart. coord. in units of alat)
               a(1) = (   6.579727   0.000000   0.000000 )
               a(2) = (  -0.000775   5.961596   0.000000 )
               a(3) = (   0.000000   0.000000  25.155947 )

     reciprocal axes: (cart. coord. in units 2 pi/alat)
               b(1) = (  0.151982  0.000020  0.000000 )
               b(2) = (  0.000000  0.167740  0.000000 )
               b(3) = (  0.000000  0.000000  0.039752 )

     PseudoPot. # 1 for Ti read from file:
     /storage/coda1/p-amedford6/0/shared/rich_project_chbe-medford/medford-share/data/pseudos_module/espresso/nninc/pbe/van/Ti.UPF
     MD5 check sum: 8e4df49b7f0d34bbd5052bf3f5ea0213
     Pseudo is Ultrasoft, Zval = 12.0
     Generated by new atomic code, or converted to UPF format
     Using radial grid of  851 points,  6 beta functions with:
                l(1) =   0
                l(2) =   0
                l(3) =   1
                l(4) =   1
                l(5) =   2
                l(6) =   2
     Q(r) pseudized with  8 coefficients,  rinner =    1.000   1.000   1.000
                                                       1.000   1.000

     PseudoPot. # 2 for O  read from file:
     /storage/coda1/p-amedford6/0/shared/rich_project_chbe-medford/medford-share/data/pseudos_module/espresso/nninc/pbe/van/O.UPF
     MD5 check sum: 78c19812648e8988a0fe644b0f25305e
     Pseudo is Ultrasoft, Zval =  6.0
     Generated by new atomic code, or converted to UPF format
     Using radial grid of  737 points,  4 beta functions with:
                l(1) =   0
                l(2) =   0
                l(3) =   1
                l(4) =   1
     Q(r) pseudized with  8 coefficients,  rinner =    0.800   0.800   0.800

     PseudoPot. # 3 for N  read from file:
     /storage/coda1/p-amedford6/0/shared/rich_project_chbe-medford/medford-share/data/pseudos_module/espresso/nninc/pbe/van/N.UPF
     MD5 check sum: 90d10febe142ad51ac9d5be1deb811c4
     Pseudo is Ultrasoft, Zval =  5.0
     Generated by new atomic code, or converted to UPF format
     Using radial grid of  729 points,  4 beta functions with:
                l(1) =   0
                l(2) =   0
                l(3) =   1
                l(4) =   1
     Q(r) pseudized with  8 coefficients,  rinner =    0.800   0.800   0.800

     PseudoPot. # 4 for C  read from file:
     /storage/coda1/p-amedford6/0/shared/rich_project_chbe-medford/medford-share/data/pseudos_module/espresso/nninc/pbe/van/C.UPF
     MD5 check sum: 1a69bf6b8db32088f5b2163dbdb77a27
     Pseudo is Ultrasoft, Zval =  4.0
     Generated by new atomic code, or converted to UPF format
     Using radial grid of  721 points,  4 beta functions with:
                l(1) =   0
                l(2) =   0
                l(3) =   1
                l(4) =   1
     Q(r) pseudized with  8 coefficients,  rinner =    0.800   0.800   0.800

     PseudoPot. # 5 for H  read from file:
     /storage/coda1/p-amedford6/0/shared/rich_project_chbe-medford/medford-share/data/pseudos_module/espresso/nninc/pbe/van/H.UPF
     MD5 check sum: b5ee9d7bfd3a09ee7748110bda690ff7
     Pseudo is Ultrasoft, Zval =  1.0
     Generated by new atomic code, or converted to UPF format
     Using radial grid of  615 points,  1 beta functions with:
                l(1) =   0
     Q(r) pseudized with  8 coefficients,  rinner =    0.800

     atomic species   valence    mass     pseudopotential
        Ti1           12.00    47.86700     Ti( 1.00)
        O1             6.00    15.99900     O ( 1.00)
        N1             5.00    14.00700     N ( 1.00)
        C1             4.00    12.01100     C ( 1.00)
        H1             1.00     1.00800     H ( 1.00)

     No symmetry found

   Cartesian axes

     site n.     atom                  positions (alat units)
         1           Ti1 tau(   1) = (   0.0004258   2.9801865   6.0000000  )
         2           Ti1 tau(   2) = (   3.2906075   1.4906267   6.0002472  )
         3           O1  tau(   3) = (   0.0006271   0.0005054   7.9858123  )
         4           O1  tau(   4) = (   3.2906025   0.0005020   7.3038282  )
         5           O1  tau(   5) = (   4.5942328   1.4918067   9.2879030  )
         6           O1  tau(   6) = (   1.9868534   1.4903216   9.2879459  )
         7           Ti1 tau(   7) = (   3.2907910   2.8959150   9.1758416  )
         8           Ti1 tau(   8) = (   0.0015273   1.4827037   9.2680791  )
         9           O1  tau(   9) = (   3.2780774   5.9605562  11.3537357  )
        10           O1  tau(  10) = (   0.0116148   5.9584955  10.6183126  )
        11           O1  tau(  11) = (   1.2922713   1.4781662  12.6511241  )
        12           O1  tau(  12) = (   5.2965393   1.5043564  12.6031353  )
        13           Ti1 tau(  13) = (   6.5273184   3.0207086  12.5807821  )
        14           Ti1 tau(  14) = (   3.2344070   1.4559942  12.5004267  )
        15           O1  tau(  15) = (   6.4759410   0.0295824  14.6525783  )
        16           O1  tau(  16) = (   3.3604338   0.0238249  13.9383540  )
        17           O1  tau(  17) = (   4.5324113   1.5808541  16.1066768  )
        18           O1  tau(  18) = (   1.9684897   1.4712893  15.8817925  )
        19           Ti1 tau(  19) = (   3.2566353   3.0739815  15.8599551  )
        20           Ti1 tau(  20) = (   6.5466614   1.5318677  15.7800735  )
        21           O1  tau(  21) = (   3.2904802   0.0005063   4.7018136  )
        22           O1  tau(  22) = (   6.5744325   0.0155309  17.2227980  )
        23           O1  tau(  23) = (   1.3043587   1.4918075   6.0039043  )
        24           O1  tau(  24) = (   5.2767064   1.4903225   6.0039473  )
        25           Ti1 tau(  25) = (   0.0000382   5.9609847   6.0000000  )
        26           Ti1 tau(  26) = (   3.2902200   4.4714249   6.0002472  )
        27           O1  tau(  27) = (   0.0002396   2.9813036   7.9858123  )
        28           O1  tau(  28) = (   3.2902150   2.9813002   7.3038282  )
        29           O1  tau(  29) = (   4.5938453   4.4726049   9.2879030  )
        30           O1  tau(  30) = (   1.9864658   4.4711199   9.2879459  )
        31           Ti1 tau(  31) = (   3.2891106   5.8743827   9.1763621  )
        32           Ti1 tau(  32) = (   0.0006254   4.4649316   9.2693709  )
        33           O1  tau(  33) = (   3.2727763   2.9788165  11.3438337  )
        34           O1  tau(  34) = (   0.0092240   2.9805883  10.6323155  )
        35           O1  tau(  35) = (   1.2865780   4.4896361  12.6556599  )
        36           O1  tau(  36) = (   5.2967437   4.4749066  12.6066920  )
        37           Ti1 tau(  37) = (   6.5467059   0.0356701  12.5108493  )
        38           Ti1 tau(  38) = (   3.2305653   4.4019604  12.5605372  )
        39           O1  tau(  39) = (   6.5199767   2.9846217  14.6905747  )
        40           O1  tau(  40) = (   3.2851694   3.0254550  13.9321539  )
        41           O1  tau(  41) = (   4.5310495   4.4602642  16.1636806  )
        42           O1  tau(  42) = (   1.9842988   4.5744318  15.9411167  )
        43           Ti1 tau(  43) = (   3.2691225   0.1036042  15.7405456  )
        44           Ti1 tau(  44) = (   6.5697781   4.6877429  16.0360384  )
        45           O1  tau(  45) = (   3.2900926   2.9813045   4.7018136  )
        46           O1  tau(  46) = (   1.3039711   4.4726057   6.0039043  )
        47           O1  tau(  47) = (   5.2763189   4.4711207   6.0039473  )
        48           N1  tau(  48) = (   1.2792381   2.8578196  18.3696018  )
        49           N1  tau(  49) = (   0.1888888   2.9646215  17.5057353  )
        50           C1  tau(  50) = (   2.5352320   2.9081513  18.0382144  )
        51           H1  tau(  51) = (   3.1442446   2.7411670  18.9317345  )
        52           H1  tau(  52) = (   1.0014291   2.6635404  19.3302151  )
        53           H1  tau(  53) = (   5.9397212   2.8571719  18.0851170  )
        54           O1  tau(  54) = (   3.2630597   0.0341043  18.2348460  )
        55           H1  tau(  55) = (   4.0455299   5.4098958  18.2485053  )
        56           H1  tau(  56) = (   2.4923979   5.4091459  18.3156537  )

     number of k points=    10  Fermi-Dirac smearing, width (Ry)=  0.0073
                       cart. coord. in units 2pi/alat
        k(    1) = (   0.0000000   0.0000000   0.0000000), wk =   0.1250000
        k(    2) = (   0.0000000   0.0419351   0.0000000), wk =   0.2500000
        k(    3) = (   0.0000000  -0.0838702   0.0000000), wk =   0.1250000
        k(    4) = (   0.0379955   0.0000049   0.0000000), wk =   0.2500000
        k(    5) = (   0.0379955   0.0419400   0.0000000), wk =   0.2500000
        k(    6) = (   0.0379955  -0.0838652   0.0000000), wk =   0.2500000
        k(    7) = (   0.0379955  -0.0419301   0.0000000), wk =   0.2500000
        k(    8) = (  -0.0759910  -0.0000099   0.0000000), wk =   0.1250000
        k(    9) = (  -0.0759910   0.0419252   0.0000000), wk =   0.2500000
        k(   10) = (  -0.0759910  -0.0838800   0.0000000), wk =   0.1250000

     Initial potential from superposition of free atoms

     starting charge  386.99914, renormalised to  403.00000

     negative rho (up, down):  1.738E-02 0.000E+00

     %%%%%%%%%%%%%%%%%%%%%%%%%%%%%%%%%%%%%%%%%%%%%%%%%%%%%%%%%%%%%%%%%%%%%%%%
     %                                                                      %
     % You are using vdW-DF, which was implemented by the Thonhauser group. %
     % Please cite the following two papers that made this development      %
     % possible and the two reviews that describe the various versions:     %
     %                                                                      %
     %   T. Thonhauser et al., PRL 115, 136402 (2015).                      %
     %   T. Thonhauser et al., PRB 76, 125112 (2007).                       %
     %   K. Berland et al., Rep. Prog. Phys. 78, 066501 (2015).             %
     %   D.C. Langreth et al., J. Phys.: Condens. Matter 21, 084203 (2009). %
     %                                                                      %
     %                                                                      %
     % If you are calculating the stress with vdW-DF, please also cite:     %
     %                                                                      %
     %   R. Sabatini et al., J. Phys.: Condens. Matter 24, 424209 (2012).   %
     %                                                                      %
     %%%%%%%%%%%%%%%%%%%%%%%%%%%%%%%%%%%%%%%%%%%%%%%%%%%%%%%%%%%%%%%%%%%%%%%%

     Adding external electric field

     Computed dipole along edir(3) :
        Dipole              -12.3463 Ry au,        -31.3811 Debye
        Dipole field         -0.0233 Ry au,

        Potential amp.        2.1598 Ry
        Total length         46.3494 bohr

     Starting wfcs are  305 atomic wfcs
  @ DRIVER MODE: Message from server: STATUS
  @ DRIVER MODE: Message from server: POSDATA
  @ DRIVER MODE: Reading and sharing cell
  @ DRIVER MODE: Reading and sharing positions
  @ DRIVER MODE: Received positions

     Self-consistent Calculation

     iteration #  1     ecut=    29.40 Ry     beta= 0.05
     Davidson diagonalization with overlap
     c_bands:  5 eigenvalues not converged
     c_bands:  3 eigenvalues not converged
     c_bands:  3 eigenvalues not converged
     c_bands:  1 eigenvalues not converged
     c_bands:  2 eigenvalues not converged
     c_bands:  2 eigenvalues not converged
     c_bands:  5 eigenvalues not converged
     c_bands:  2 eigenvalues not converged
     c_bands:  4 eigenvalues not converged
     ethr =  1.00E-05,  avg # of iterations = 29.3

[...]

     total energy              =   -2358.73937717 Ry
     estimated scf accuracy    <    6971.30901550 Ry

     iteration #  2     ecut=    29.40 Ry     beta= 0.05
     Davidson diagonalization with overlap
     ethr =  1.00E-02,  avg # of iterations = 26.1

[...]

     iteration # 87     ecut=    29.40 Ry     beta= 0.05
     Davidson diagonalization with overlap
     c_bands:  1 eigenvalues not converged
     c_bands:  1 eigenvalues not converged
     ethr =  4.11E-10,  avg # of iterations = 13.5

[...]

     total energy              =   -2973.94006788 Ry
     estimated scf accuracy    <       0.00000021 Ry

     iteration # 92     ecut=    29.40 Ry     beta= 0.05
     Davidson diagonalization with overlap
     ethr =  5.13E-11,  avg # of iterations =  7.9

     negative rho (up, down):  1.725E-02 0.000E+00

     Adding external electric field

     Computed dipole along edir(3) :
        Dipole                1.3973 Ry au,          3.5517 Debye
        Dipole field          0.0026 Ry au,

        Potential amp.       -0.2444 Ry
        Total length         46.3494 bohr

     End of self-consistent calculation

          k = 0.0000 0.0000 0.0000 ( 18029 PWs)   bands (ev):

   -55.3199 -55.2859 -55.2106 -55.1863 -55.1676 -55.1561 -55.1408 -55.1189
   -55.1069 -55.1048 -55.0978 -55.0633 -54.9925 -54.8340 -54.3004 -54.2664
   -31.8042 -31.7316 -31.6574 -31.6505 -31.6406 -31.6119 -31.5875 -31.5651
   -31.5202 -31.5014 -31.4723 -31.4644 -31.4559 -31.4412 -31.4260 -31.4218
   -31.3986 -31.3806 -31.3772 -31.3654 -31.3358 -31.3335 -31.3293 -31.3263
   -31.3234 -31.3195 -31.3155 -31.2975 -31.2893 -31.2795 -31.2728 -31.2725
   -31.2623 -31.2609 -31.2523 -31.2486 -31.2405 -31.2152 -31.2104 -31.0904
   -31.0754 -31.0495 -30.7072 -30.6192 -30.5968 -30.5242 -30.4378 -30.3265
   -18.8518 -18.6517 -15.9782 -15.7945 -15.6135 -15.4743 -15.3923 -15.1608
   -15.1024 -15.0639 -14.9827 -14.9603 -14.8594 -14.8408 -14.8394 -14.8207
   -14.8179 -14.7627 -14.7475 -14.7431 -14.6946 -14.6878 -14.6625 -14.6470
   -14.5948 -14.5158 -14.5072 -14.4608 -14.4155 -14.3690 -14.0226 -13.4147
   -12.8010 -12.6845  -8.8044  -7.2722  -6.5641  -4.3233  -3.7937  -3.3614
    -3.2852  -3.2497  -3.2247  -3.0891  -2.9724  -2.8740  -2.7563  -2.6729
    -2.5851  -2.4807  -2.4243  -2.3787  -2.3181  -2.2581  -2.2318  -2.1462
    -2.1265  -2.1067  -2.0847  -2.0583  -2.0290  -1.9928  -1.8691  -1.8585
    -1.7767  -1.7201  -1.6805  -1.6638  -1.6397  -1.6342  -1.6021  -1.5814
    -1.5727  -1.5611  -1.5592  -1.5240  -1.3854  -1.3610  -1.3327  -1.3105
    -1.1639  -1.0263  -0.9377  -0.9350  -0.8254  -0.7608  -0.7576  -0.7192
    -0.7035  -0.6010  -0.5158  -0.4789  -0.4546  -0.3742  -0.3171  -0.2630
    -0.2114  -0.1756  -0.1096  -0.0856  -0.0689  -0.0520   0.0173   0.0796
     0.1408   0.2259   0.2694   0.2938   0.3848   0.3989   0.4220   0.4869
     0.5188   0.5637   0.5991   0.6284   0.6519   0.6823   0.7075   0.7507
     0.7888   0.9145   0.9329   0.9613   0.9823   1.1568   1.2065   1.3088
     1.3394   1.4408   1.4834   1.6624   1.7237   1.8029   1.9156   2.2938
     2.3396   3.7892   3.9006   3.9347   3.9596   3.9989   4.0503   4.2569
     4.3299   4.3713   4.4283

[...]

          k = 0.0380-0.0419 0.0000 ( 17876 PWs)   bands (ev):

[...]

          k =-0.0760-0.0000 0.0000 ( 17886 PWs)   bands (ev):

[...]

          k =-0.0760-0.0839 0.0000 ( 17948 PWs)   bands (ev):

   -55.3031 -55.3026 -55.2011 -55.1829 -55.1763 -55.1447 -55.1307 -55.1239
   -55.1231 -55.1084 -55.0846 -55.0766 -54.9907 -54.8356 -54.2834 -54.2833
   -31.6196 -31.6193 -31.5975 -31.5972 -31.5658 -31.5338 -31.5029 -31.4902
   -31.4833 -31.4680 -31.4494 -31.4444 -31.4401 -31.4308 -31.4257 -31.4239
   -31.4225 -31.4222 -31.4170 -31.4013 -31.3904 -31.3764 -31.3656 -31.3634
   -31.3584 -31.3539 -31.3447 -31.3321 -31.3262 -31.3248 -31.3094 -31.3003
   -31.2972 -31.2962 -31.2945 -31.2919 -31.2617 -31.2338 -31.2199 -31.1464
   -31.0927 -31.0784 -30.6095 -30.6095 -30.5201 -30.5200 -30.4811 -30.4810
   -18.8395 -18.6596 -15.3556 -15.3206 -15.2825 -15.2552 -15.2392 -15.1183
   -15.1049 -15.0692 -15.0275 -15.0144 -14.9841 -14.9554 -14.9065 -14.8980
   -14.8637 -14.8441 -14.8049 -14.7785 -14.7592 -14.7548 -14.7381 -14.7165
   -14.6729 -14.6511 -14.6386 -14.6343 -14.5824 -14.4881 -14.2076 -13.4373
   -12.7863 -12.7862  -8.8002  -7.1976  -6.5651  -4.5328  -3.5734  -2.8759
    -2.6701  -2.6312  -2.5799  -2.4886  -2.4415  -2.3196  -2.3131  -2.2905
    -2.2450  -2.2320  -2.1913  -2.1511  -2.1450  -2.1172  -2.1047  -2.0602
    -2.0488  -2.0459  -2.0316  -1.9978  -1.9923  -1.9717  -1.9475  -1.9443
    -1.9344  -1.9179  -1.8848  -1.8778  -1.8507  -1.8318  -1.6800  -1.6065
    -1.5634  -1.4860  -1.4629  -1.4461  -1.4270  -1.3923  -1.3721  -1.3466
    -1.3182  -1.1721  -1.0295  -0.9969  -0.9720  -0.8735  -0.8585  -0.8390
    -0.7920  -0.7507  -0.7151  -0.6562  -0.6480  -0.6015  -0.5808  -0.4606
    -0.4232  -0.3234  -0.2884  -0.2866  -0.2688  -0.2544  -0.2373  -0.2114
    -0.1619  -0.0905  -0.0751  -0.0262  -0.0025   0.0001   0.0131   0.1589
     0.2299   0.2503   0.3528   0.3828   0.5575   0.7214   0.7334   0.8014
     0.8643   0.9194   0.9531   0.9930   1.0032   1.0690   1.0938   1.1982
     1.2086   1.2575   1.2623   1.3411   1.3538   2.0874   2.0891   2.1595
     2.1597   4.1530   4.1685   4.1971   4.2601   4.3035   4.3151   4.3526
     4.3563   4.4592   4.4757

     the Fermi energy is     3.8074 ev

!    total energy              =   -2973.94007084 Ry
     estimated scf accuracy    <       0.00000006 Ry
     smearing contrib. (-TS)   =      -0.02072323 Ry
     internal energy E=F+TS    =   -2973.91934761 Ry

     The total energy is F=E-TS. E is the sum of the following terms:
     one-electron contribution =  -24338.91850525 Ry
     hartree contribution      =   12267.16525556 Ry
     xc contribution           =    -494.11240934 Ry
     ewald contribution        =    9591.94262666 Ry
     electric field correction =       0.00368475 Ry

     convergence has been achieved in  92 iterations

     Forces acting on atoms (cartesian axes, Ry/au):

     atom    1 type  1   force =     0.00001749   -0.00010062    0.09507724
     atom    2 type  1   force =     0.00017980   -0.00068428   -0.17565209
     atom    3 type  2   force =     0.00008880   -0.00004811   -0.02295110
     atom    4 type  2   force =     0.00002156   -0.00143558    0.05289374
     atom    5 type  2   force =    -0.01001207   -0.00031039    0.00380310
     atom    6 type  2   force =     0.01113546    0.00020537    0.00205685
     atom    7 type  1   force =    -0.00020808    0.00177302   -0.00588298
     atom    8 type  1   force =     0.00080639    0.01008423    0.01604527
     atom    9 type  2   force =    -0.00015866    0.00086951    0.00031782
     atom   10 type  2   force =    -0.00227053    0.00217716   -0.01801811
     atom   11 type  2   force =     0.00023092   -0.00003406    0.00007082
     atom   12 type  2   force =    -0.00034105   -0.00018806    0.00055118
     atom   13 type  1   force =    -0.00002527    0.00126015    0.00019141
     atom   14 type  1   force =    -0.00011826    0.00009204    0.00000144
     atom   15 type  2   force =     0.00011184    0.00021225   -0.00004065
     atom   16 type  2   force =    -0.00036658    0.00043222   -0.00025595
     atom   17 type  2   force =    -0.00017830   -0.00018161   -0.00004501
     atom   18 type  2   force =    -0.00002731    0.00003259    0.00043162
     atom   19 type  1   force =    -0.00057574    0.00023799   -0.00032798
     atom   20 type  1   force =    -0.00030256   -0.00017545    0.00018387
     atom   21 type  2   force =     0.00009026   -0.00008285    0.10321572
     atom   22 type  2   force =     0.00042238   -0.00003556    0.00045598
     atom   23 type  2   force =    -0.07160359   -0.00016758   -0.02757516
     atom   24 type  2   force =     0.07156097    0.00024691   -0.02762128
     atom   25 type  1   force =     0.00024171   -0.00039587    0.09516680
     atom   26 type  1   force =    -0.00004539   -0.00020286   -0.17582453
     atom   27 type  2   force =     0.00012390   -0.00012495   -0.02197786
     atom   28 type  2   force =     0.00001572   -0.00139892    0.05322603
     atom   29 type  2   force =    -0.01035580   -0.00022715    0.00364584
     atom   30 type  2   force =     0.01139351    0.00042540    0.00191442
     atom   31 type  1   force =    -0.00030011    0.00266003   -0.00008481
     atom   32 type  1   force =     0.00067265   -0.01114640    0.01692598
     atom   33 type  2   force =     0.00037442   -0.00027452   -0.00000712
     atom   34 type  2   force =    -0.00033724    0.00143919   -0.01894989
     atom   35 type  2   force =    -0.00001729   -0.00035267   -0.00017504
     atom   36 type  2   force =     0.00000897   -0.00024486    0.00042810
     atom   37 type  1   force =    -0.00006043   -0.00121852    0.00034591
     atom   38 type  1   force =    -0.00039403    0.00090057    0.00006790
     atom   39 type  2   force =     0.00009815    0.00008592    0.00006570
     atom   40 type  2   force =    -0.00048583   -0.00060051    0.00000466
     atom   41 type  2   force =     0.00022991   -0.00018227    0.00039459
     atom   42 type  2   force =    -0.00019390   -0.00036042   -0.00021885
     atom   43 type  1   force =    -0.00020834   -0.00014199    0.00058581
     atom   44 type  1   force =     0.00012142   -0.00024696    0.00024009
     atom   45 type  2   force =     0.00010032   -0.00010455    0.10323570
     atom   46 type  2   force =    -0.07158782   -0.00017110   -0.02756372
     atom   47 type  2   force =     0.07158886    0.00024174   -0.02757651
     atom   48 type  3   force =     0.00011871   -0.00051286    0.00025092
     atom   49 type  3   force =     0.00011777    0.00010976   -0.00010201
     atom   50 type  4   force =     0.00037209   -0.00023897    0.00047804
     atom   51 type  5   force =    -0.00016867   -0.00053854   -0.00020865
     atom   52 type  5   force =    -0.00003044   -0.00103681   -0.00079202
     atom   53 type  5   force =     0.00018085   -0.00044802   -0.00058616
     atom   54 type  2   force =     0.00886966   -0.00656042    0.00024807
     atom   55 type  5   force =    -0.00784582    0.00706046   -0.00047506
     atom   56 type  5   force =    -0.00107541   -0.00037225    0.00039190

     Total force =     0.365540     Total SCF correction =     0.000826
  @ DRIVER MODE: Message from server: STATUS
  @ DRIVER MODE: Message from server: GETFORCE
  @ DRIVER MODE: Returning v,forces,stress,ensemble

     Writing output data file ./calc.save/
  @ DRIVER MODE: Message from server: EXIT
  @ DRIVE MODE: Exiting

     General routines

     Parallel routines

   This run was terminated on:   7:43:35  23Sep2021

   JOB DONE.