     Program PWSCF v.6.7GPU starts on 22Sep2021 at 22:14:27

     R & G space division:  proc/nbgrp/npool/nimage =      10
     Reading input from /storage/home/hcoda1/3/ntian30/research/carbon/CxH_vib/H2O_calc/ads_slab/CHNNHHHO_a/out_0018/pw.inp
Warning: card &CELL ignored
Warning: card   CELL_DYNAMICS='IPI', ignored
Warning: card / ignored

     Current dimensions of program PWSCF are:
     Max number of different atomic species (ntypx) = 10
     Max number of k-points (npk) =  40000
     Max angular momentum in pseudopotentials (lmaxx) =  3
     Presently no symmetry can be used with electric field

     Message from routine cell_base_init:
     DEPRECATED: use true lattice parameter, not A to a.u. conversion factor

     IMPORTANT: XC functional enforced from input :
     Exchange-correlation= BEEF-VDW
                           (   1   4  43  14   2   0   0)
     Any further DFT definition will be discarded
     Please, verify this is what you really want

  @ DRIVER MODE: Connecting to
 qe_1139763_2937315.sched-torque.pace.gatech.edubf1spf03_scratch
  using UNIX socket
  @ DRIVER MODE: Message from server: STATUS
  @ DRIVER MODE: Message from server: INIT
  @ DRIVER MODE: Receiving replica           0          -1
  @ DRIVER MODE: Receiving encoded integer          25
  @ DRIVER MODE:  SCF:  T  FORCE:  T  STRESS:  F  VC:  F  ENSEMBLE:  F
  @ DRIVER MODE:  SCF:  T  FORCE:  T  STRESS:  F  VC:  F  ENSEMBLE:  F

     Using Slab Decomposition

     bravais-lattice index     =            0
     lattice parameter (alat)  =       1.8897  a.u.
     unit-cell volume          =    6658.9804 (a.u.)^3
     number of atoms/cell      =           55
     number of atomic types    =            5
     number of electrons       =       402.00
     number of Kohn-Sham states=          211
     kinetic-energy cutoff     =      29.3995  Ry
     charge density cutoff     =     293.9946  Ry
     scf convergence threshold =      7.3E-08
     mixing beta               =       0.0500
     number of iterations used =            8  plain     mixing
     Exchange-correlation= BEEF-VDW
                           (   1   4  43  14   2   0   0)

     celldm(1)=   1.889726  celldm(2)=   0.000000  celldm(3)=   0.000000
     celldm(4)=   0.000000  celldm(5)=   0.000000  celldm(6)=   0.000000

     crystal axes: (cart. coord. in units of alat)
               a(1) = (   6.579727   0.000000   0.000000 )
               a(2) = (  -0.000775   5.961596   0.000000 )
               a(3) = (   0.000000   0.000000  25.155947 )

     reciprocal axes: (cart. coord. in units 2 pi/alat)
               b(1) = (  0.151982  0.000020  0.000000 )
               b(2) = (  0.000000  0.167740  0.000000 )
               b(3) = (  0.000000  0.000000  0.039752 )

     PseudoPot. # 1 for Ti read from file:
     /storage/coda1/p-amedford6/0/shared/rich_project_chbe-medford/medford-share/data/pseudos_module/espresso/nninc/pbe/van/Ti.UPF
     MD5 check sum: 8e4df49b7f0d34bbd5052bf3f5ea0213
     Pseudo is Ultrasoft, Zval = 12.0
     Generated by new atomic code, or converted to UPF format
     Using radial grid of  851 points,  6 beta functions with:
                l(1) =   0
                l(2) =   0
                l(3) =   1
                l(4) =   1
                l(5) =   2
                l(6) =   2
     Q(r) pseudized with  8 coefficients,  rinner =    1.000   1.000   1.000
                                                       1.000   1.000

     PseudoPot. # 2 for O  read from file:
     /storage/coda1/p-amedford6/0/shared/rich_project_chbe-medford/medford-share/data/pseudos_module/espresso/nninc/pbe/van/O.UPF
     MD5 check sum: 78c19812648e8988a0fe644b0f25305e
     Pseudo is Ultrasoft, Zval =  6.0
     Generated by new atomic code, or converted to UPF format
     Using radial grid of  737 points,  4 beta functions with:
                l(1) =   0
                l(2) =   0
                l(3) =   1
                l(4) =   1
     Q(r) pseudized with  8 coefficients,  rinner =    0.800   0.800   0.800

     PseudoPot. # 3 for N  read from file:
     /storage/coda1/p-amedford6/0/shared/rich_project_chbe-medford/medford-share/data/pseudos_module/espresso/nninc/pbe/van/N.UPF
     MD5 check sum: 90d10febe142ad51ac9d5be1deb811c4
     Pseudo is Ultrasoft, Zval =  5.0
     Generated by new atomic code, or converted to UPF format
     Using radial grid of  729 points,  4 beta functions with:
                l(1) =   0
                l(2) =   0
                l(3) =   1
                l(4) =   1
     Q(r) pseudized with  8 coefficients,  rinner =    0.800   0.800   0.800

     PseudoPot. # 4 for C  read from file:
     /storage/coda1/p-amedford6/0/shared/rich_project_chbe-medford/medford-share/data/pseudos_module/espresso/nninc/pbe/van/C.UPF
     MD5 check sum: 1a69bf6b8db32088f5b2163dbdb77a27
     Pseudo is Ultrasoft, Zval =  4.0
     Generated by new atomic code, or converted to UPF format
     Using radial grid of  721 points,  4 beta functions with:
                l(1) =   0
                l(2) =   0
                l(3) =   1
                l(4) =   1
     Q(r) pseudized with  8 coefficients,  rinner =    0.800   0.800   0.800

     PseudoPot. # 5 for H  read from file:
     /storage/coda1/p-amedford6/0/shared/rich_project_chbe-medford/medford-share/data/pseudos_module/espresso/nninc/pbe/van/H.UPF
     MD5 check sum: b5ee9d7bfd3a09ee7748110bda690ff7
     Pseudo is Ultrasoft, Zval =  1.0
     Generated by new atomic code, or converted to UPF format
     Using radial grid of  615 points,  1 beta functions with:
                l(1) =   0
     Q(r) pseudized with  8 coefficients,  rinner =    0.800

     atomic species   valence    mass     pseudopotential
        Ti1           12.00    47.86700     Ti( 1.00)
        O1             6.00    15.99900     O ( 1.00)
        N1             5.00    14.00700     N ( 1.00)
        C1             4.00    12.01100     C ( 1.00)
        H1             1.00     1.00800     H ( 1.00)

     No symmetry found

   Cartesian axes

     site n.     atom                  positions (alat units)
         1           Ti1 tau(   1) = (   0.0004258   2.9801865   6.0000000  )
         2           Ti1 tau(   2) = (   3.2906075   1.4906267   6.0002472  )
         3           O1  tau(   3) = (   0.0006271   0.0005054   7.9858123  )
         4           O1  tau(   4) = (   3.2906025   0.0005020   7.3038282  )
         5           O1  tau(   5) = (   4.5942328   1.4918067   9.2879030  )
         6           O1  tau(   6) = (   1.9868534   1.4903216   9.2879459  )
         7           Ti1 tau(   7) = (   3.2907910   2.8959150   9.1758416  )
         8           Ti1 tau(   8) = (   0.0015273   1.4827037   9.2680791  )
         9           O1  tau(   9) = (   3.3019041   5.9340972  11.2780832  )
        10           O1  tau(  10) = (   0.0116148   5.9584955  10.6183126  )
        11           O1  tau(  11) = (   1.2869077   1.4717189  12.6473688  )
        12           O1  tau(  12) = (   5.3188397   1.4655789  12.6430575  )
        13           Ti1 tau(  13) = (   0.0521173   3.0639968  12.7333969  )
        14           Ti1 tau(  14) = (   3.2906581   1.3001642  12.6471297  )
        15           O1  tau(  15) = (   0.0021475   5.9326859  14.6872502  )
        16           O1  tau(  16) = (   3.3040199   0.0265785  13.8678754  )
        17           O1  tau(  17) = (   4.6240569   1.6264218  16.1080407  )
        18           O1  tau(  18) = (   2.0715169   1.5429601  15.9546445  )
        19           Ti1 tau(  19) = (   3.3363059   2.9874148  15.6109769  )
        20           Ti1 tau(  20) = (   0.0492893   1.4028208  15.7974426  )
        21           O1  tau(  21) = (   3.2904802   0.0005063   4.7018136  )
        22           O1  tau(  22) = (   0.0944532   0.0627470  17.1934044  )
        23           O1  tau(  23) = (   1.3043587   1.4918075   6.0039043  )
        24           O1  tau(  24) = (   5.2767064   1.4903225   6.0039473  )
        25           Ti1 tau(  25) = (   0.0000382   5.9609847   6.0000000  )
        26           Ti1 tau(  26) = (   3.2902200   4.4714249   6.0002472  )
        27           O1  tau(  27) = (   0.0002396   2.9813036   7.9858123  )
        28           O1  tau(  28) = (   3.2902150   2.9813002   7.3038282  )
        29           O1  tau(  29) = (   4.5938453   4.4726049   9.2879030  )
        30           O1  tau(  30) = (   1.9864658   4.4711199   9.2879459  )
        31           Ti1 tau(  31) = (   3.2891106   5.8743827   9.1763621  )
        32           Ti1 tau(  32) = (   0.0006254   4.4649316   9.2693709  )
        33           O1  tau(  33) = (   3.3033179   3.0104581  11.2528581  )
        34           O1  tau(  34) = (   0.0092240   2.9805883  10.6323155  )
        35           O1  tau(  35) = (   1.3074756   4.4469578  12.6382572  )
        36           O1  tau(  36) = (   5.3202433   4.4545580  12.6357595  )
        37           Ti1 tau(  37) = (   6.5572640   0.0741000  12.5519234  )
        38           Ti1 tau(  38) = (   3.3179412   4.3950854  12.4030220  )
        39           O1  tau(  39) = (   0.0383827   2.9948909  14.7437145  )
        40           O1  tau(  40) = (   3.3238341   2.9662938  13.8354460  )
        41           O1  tau(  41) = (   4.5722604   4.5101538  15.9256862  )
        42           O1  tau(  42) = (   2.0839069   4.4665637  16.0501180  )
        43           Ti1 tau(  43) = (   3.2507700   5.9423238  16.2547716  )
        44           Ti1 tau(  44) = (   6.5063516   4.5631136  16.2071476  )
        45           O1  tau(  45) = (   3.2900926   2.9813045   4.7018136  )
        46           O1  tau(  46) = (   1.3039711   4.4726057   6.0039043  )
        47           O1  tau(  47) = (   5.2763189   4.4711207   6.0039473  )
        48           N1  tau(  48) = (   0.4124544   2.9287237  17.8391456  )
        49           C1  tau(  49) = (   1.3780350   3.0145335  18.6736463  )
        50           H1  tau(  50) = (   2.3027514   2.5668077  18.2979847  )
        51           N1  tau(  51) = (   5.7762606   3.6115528  18.1636368  )
        52           H1  tau(  52) = (   5.8537390   4.1179332  19.0469945  )
        53           H1  tau(  53) = (   5.0130290   2.9392956  18.1702355  )
        54           O1  tau(  54) = (   3.2882145   0.0116813  18.0866318  )
        55           H1  tau(  55) = (   2.5950809   5.5738040  18.6371346  )

     number of k points=    10  Fermi-Dirac smearing, width (Ry)=  0.0073
                       cart. coord. in units 2pi/alat
        k(    1) = (   0.0000000   0.0000000   0.0000000), wk =   0.1250000
        k(    2) = (   0.0000000   0.0419351   0.0000000), wk =   0.2500000
        k(    3) = (   0.0000000  -0.0838702   0.0000000), wk =   0.1250000
        k(    4) = (   0.0379955   0.0000049   0.0000000), wk =   0.2500000
        k(    5) = (   0.0379955   0.0419400   0.0000000), wk =   0.2500000
        k(    6) = (   0.0379955  -0.0838652   0.0000000), wk =   0.2500000
        k(    7) = (   0.0379955  -0.0419301   0.0000000), wk =   0.2500000
        k(    8) = (  -0.0759910  -0.0000099   0.0000000), wk =   0.1250000
        k(    9) = (  -0.0759910   0.0419252   0.0000000), wk =   0.2500000
        k(   10) = (  -0.0759910  -0.0838800   0.0000000), wk =   0.1250000

     Initial potential from superposition of free atoms

     starting charge  385.99915, renormalised to  402.00000

     negative rho (up, down):  1.703E-02 0.000E+00

     %%%%%%%%%%%%%%%%%%%%%%%%%%%%%%%%%%%%%%%%%%%%%%%%%%%%%%%%%%%%%%%%%%%%%%%%
     %                                                                      %
     % You are using vdW-DF, which was implemented by the Thonhauser group. %
     % Please cite the following two papers that made this development      %
     % possible and the two reviews that describe the various versions:     %
     %                                                                      %
     %   T. Thonhauser et al., PRL 115, 136402 (2015).                      %
     %   T. Thonhauser et al., PRB 76, 125112 (2007).                       %
     %   K. Berland et al., Rep. Prog. Phys. 78, 066501 (2015).             %
     %   D.C. Langreth et al., J. Phys.: Condens. Matter 21, 084203 (2009). %
     %                                                                      %
     %                                                                      %
     % If you are calculating the stress with vdW-DF, please also cite:     %
     %                                                                      %
     %   R. Sabatini et al., J. Phys.: Condens. Matter 24, 424209 (2012).   %
     %                                                                      %
     %%%%%%%%%%%%%%%%%%%%%%%%%%%%%%%%%%%%%%%%%%%%%%%%%%%%%%%%%%%%%%%%%%%%%%%%

     Adding external electric field

     Computed dipole along edir(3) :
        Dipole              -11.1551 Ry au,        -28.3536 Debye
        Dipole field         -0.0211 Ry au,

        Potential amp.        1.9514 Ry
        Total length         46.3494 bohr

     Starting wfcs are  304 atomic wfcs
  @ DRIVER MODE: Message from server: STATUS
  @ DRIVER MODE: Message from server: POSDATA
  @ DRIVER MODE: Reading and sharing cell
  @ DRIVER MODE: Reading and sharing positions
  @ DRIVER MODE: Received positions

     Self-consistent Calculation

     iteration #  1     ecut=    29.40 Ry     beta= 0.05
     Davidson diagonalization with overlap
     c_bands:  2 eigenvalues not converged
     c_bands:  3 eigenvalues not converged
     c_bands:  1 eigenvalues not converged
     c_bands:  5 eigenvalues not converged
     c_bands:  1 eigenvalues not converged
     c_bands:  5 eigenvalues not converged
     c_bands:  3 eigenvalues not converged
     ethr =  1.00E-05,  avg # of iterations = 27.6

[...]

     total energy              =   -2400.31441135 Ry
     estimated scf accuracy    <    6416.20603361 Ry

     iteration #  2     ecut=    29.40 Ry     beta= 0.05
     Davidson diagonalization with overlap
     ethr =  1.00E-02,  avg # of iterations = 25.0

[...]

     iteration # 51     ecut=    29.40 Ry     beta= 0.05
     Davidson diagonalization with overlap
     c_bands:  2 eigenvalues not converged
     c_bands:  1 eigenvalues not converged
     c_bands:  1 eigenvalues not converged
     ethr =  2.60E-06,  avg # of iterations = 11.4

[...]

     total energy              =   -2972.60996352 Ry
     estimated scf accuracy    <       0.00000020 Ry

     iteration # 82     ecut=    29.40 Ry     beta= 0.05
     Davidson diagonalization with overlap
     ethr =  2.39E-11,  avg # of iterations =  6.2

     negative rho (up, down):  1.637E-02 0.000E+00

     Adding external electric field

     Computed dipole along edir(3) :
        Dipole                0.2244 Ry au,          0.5703 Debye
        Dipole field          0.0004 Ry au,

        Potential amp.       -0.0393 Ry
        Total length         46.3494 bohr

     End of self-consistent calculation

          k = 0.0000 0.0000 0.0000 ( 18029 PWs)   bands (ev):

   -56.4618 -56.4281 -56.0063 -55.9704 -55.7550 -55.7005 -55.6441 -55.6390
   -55.6024 -55.5159 -55.5071 -55.4486 -55.4075 -55.2806 -55.2068 -55.1729
   -32.9084 -32.7532 -32.7259 -32.6217 -32.5329 -32.5294 -32.4878 -32.2383
   -32.2240 -32.2020 -32.1553 -32.1502 -32.1264 -32.1049 -32.0267 -32.0135
   -31.9901 -31.9762 -31.9599 -31.9212 -31.9196 -31.9082 -31.9029 -31.8832
   -31.8628 -31.8613 -31.8597 -31.8043 -31.7896 -31.7691 -31.7451 -31.7238
   -31.7085 -31.6959 -31.6796 -31.6744 -31.6430 -31.6020 -31.5970 -31.5780
   -31.5455 -31.5418 -31.5181 -31.5122 -31.4887 -31.4211 -31.3368 -31.2247
   -17.9119 -16.7343 -16.4776 -16.3994 -16.2017 -16.0100 -15.9164 -15.9037
   -15.8804 -15.7630 -15.7591 -15.6087 -15.5286 -15.4723 -15.4108 -15.4026
   -15.3320 -15.3134 -15.2520 -15.2249 -15.2122 -15.1888 -15.1394 -15.0750
   -15.0640 -15.0360 -14.8528 -14.8252 -14.8115 -14.6280 -14.5328 -13.7042
   -13.5925 -13.2186  -7.8476  -6.1806  -4.2736  -4.2507  -4.1446  -3.9303
    -3.7317  -3.6709  -3.5812  -3.4305  -3.4022  -3.1583  -3.1427  -3.1003
    -3.0126  -2.9965  -2.9603  -2.8986  -2.8402  -2.8215  -2.7646  -2.6836
    -2.6789  -2.6709  -2.6406  -2.6177  -2.5142  -2.4765  -2.4135  -2.3714
    -2.3462  -2.3350  -2.2955  -2.2408  -2.2134  -2.1613  -2.1441  -2.0657
    -2.0353  -1.9465  -1.8870  -1.8686  -1.8168  -1.7545  -1.7509  -1.6976
    -1.5653  -1.4547  -1.3871  -1.3485  -1.2926  -1.2368  -1.2083  -1.1525
    -1.0875  -1.0657  -1.0418  -1.0045  -0.9437  -0.9143  -0.8657  -0.8144
    -0.7385  -0.6718  -0.6236  -0.6052  -0.4960  -0.4317  -0.3953  -0.3772
    -0.3408  -0.2903  -0.2313  -0.1926  -0.1822  -0.1604  -0.0991   0.0252
     0.0351   0.0942   0.1491   0.1823   0.1956   0.2120   0.2725   0.3399
     0.4140   0.4576   0.4703   0.5278   0.5911   0.6299   0.7449   0.8177
     0.8388   0.8841   0.9572   1.0312   1.0520   1.3580   1.3706   1.4015
     2.5206   2.7730   2.9038   3.0823   3.2041   3.3379   3.6547   3.6738
     3.6858   3.7021   3.7617

[...]

          k = 0.0380-0.0419 0.0000 ( 17876 PWs)   bands (ev):

[...]

          k =-0.0760-0.0000 0.0000 ( 17886 PWs)   bands (ev):

[...]

          k =-0.0760-0.0839 0.0000 ( 17948 PWs)   bands (ev):

   -56.4451 -56.4446 -55.9946 -55.9819 -55.7490 -55.7063 -55.6375 -55.6355
   -55.6108 -55.5137 -55.5085 -55.4469 -55.4094 -55.2822 -55.1904 -55.1892
   -32.7390 -32.7385 -32.7247 -32.7245 -32.5743 -32.5734 -32.3166 -32.3056
   -32.1865 -32.1803 -32.1722 -32.1705 -32.0568 -32.0244 -31.9780 -31.9708
   -31.9626 -31.9550 -31.9490 -31.9378 -31.9328 -31.9249 -31.9095 -31.8728
   -31.8617 -31.8583 -31.8532 -31.8387 -31.8189 -31.7970 -31.7813 -31.7729
   -31.7271 -31.7100 -31.6994 -31.6834 -31.6488 -31.6328 -31.6283 -31.6013
   -31.5478 -31.5315 -31.5306 -31.4928 -31.4177 -31.4163 -31.3796 -31.3786
   -17.9026 -16.4587 -16.1401 -16.1291 -16.0113 -16.0057 -15.8569 -15.8334
   -15.8151 -15.7425 -15.6798 -15.6566 -15.5107 -15.4976 -15.4617 -15.4264
   -15.3987 -15.3595 -15.3555 -15.3314 -15.3011 -15.2354 -15.2132 -15.1886
   -15.1778 -15.1031 -14.9229 -14.9011 -14.8946 -14.8197 -14.6828 -13.6962
   -13.6952 -13.2298  -7.8115  -6.1104  -4.3956  -4.0921  -3.3112  -3.2470
    -3.1734  -3.1469  -3.1288  -3.0546  -3.0388  -2.9239  -2.8943  -2.8552
    -2.8296  -2.8194  -2.8002  -2.7487  -2.7285  -2.6810  -2.6655  -2.6642
    -2.6314  -2.5927  -2.5735  -2.5500  -2.5387  -2.4691  -2.4395  -2.3961
    -2.3767  -2.3661  -2.3208  -2.2618  -2.2445  -2.1860  -2.1736  -2.1386
    -2.1017  -2.0424  -2.0062  -1.9610  -1.8640  -1.8461  -1.7742  -1.6562
    -1.6353  -1.5525  -1.5223  -1.5010  -1.4794  -1.4002  -1.3708  -1.3368
    -1.2473  -1.2201  -1.2135  -1.1884  -1.1558  -1.1312  -1.0743  -1.0125
    -0.9151  -0.8508  -0.8406  -0.8201  -0.7828  -0.7559  -0.7159  -0.6229
    -0.6018  -0.5662  -0.5567  -0.5159  -0.4018  -0.3777  -0.2261  -0.1913
    -0.0995  -0.0722  -0.0529  -0.0122   0.1093   0.1378   0.1884   0.2090
     0.2675   0.3130   0.3607   0.4513   0.5535   0.5676   0.6985   0.7265
     0.7460   0.8190   0.9494   0.9938   1.2118   1.2168   1.2184   1.2203
     2.5002   3.3257   3.3281   3.3613   3.3736   3.5762   3.5963   3.7214
     3.8062   3.8153   3.8168

     the Fermi energy is     2.6999 ev

!    total energy              =   -2972.60997092 Ry
     estimated scf accuracy    <       0.00000007 Ry
     smearing contrib. (-TS)   =      -0.01178208 Ry
     internal energy E=F+TS    =   -2972.59818884 Ry

     The total energy is F=E-TS. E is the sum of the following terms:
     one-electron contribution =  -24036.12537803 Ry
     hartree contribution      =   12109.47597011 Ry
     xc contribution           =    -493.07803030 Ry
     ewald contribution        =    9447.12915437 Ry
     electric field correction =       0.00009501 Ry

     convergence has been achieved in  82 iterations

     Forces acting on atoms (cartesian axes, Ry/au):

     atom    1 type  1   force =    -0.00003457   -0.00046227    0.10833383
     atom    2 type  1   force =     0.00001974    0.00008990   -0.16410067
     atom    3 type  2   force =     0.00013230    0.00046886   -0.04111285
     atom    4 type  2   force =     0.00009374   -0.00056965    0.03221977
     atom    5 type  2   force =    -0.00381712   -0.00332684   -0.00772590
     atom    6 type  2   force =     0.00587702   -0.00273479   -0.00755106
     atom    7 type  1   force =     0.00017031   -0.00552614    0.03621900
     atom    8 type  1   force =     0.00012921    0.02545076    0.06339801
     atom    9 type  2   force =     0.00013903    0.00041051    0.00023623
     atom   10 type  2   force =    -0.00195332    0.00076562   -0.03762030
     atom   11 type  2   force =     0.00011871   -0.00014505   -0.00013569
     atom   12 type  2   force =    -0.00075532    0.00021482   -0.00014264
     atom   13 type  1   force =     0.00044906    0.00045329    0.00064675
     atom   14 type  1   force =    -0.00056477   -0.00027915    0.00000427
     atom   15 type  2   force =    -0.00013565   -0.00002789    0.00088715
     atom   16 type  2   force =    -0.00012546    0.00029040   -0.00005320
     atom   17 type  2   force =    -0.00107648    0.00046992    0.00004225
     atom   18 type  2   force =     0.00063522   -0.00004970   -0.00023297
     atom   19 type  1   force =     0.00027722   -0.00082657   -0.00018646
     atom   20 type  1   force =    -0.00044403    0.00005089   -0.00034147
     atom   21 type  2   force =     0.00009581    0.00018775    0.10012879
     atom   22 type  2   force =    -0.00010692   -0.00036274    0.00044945
     atom   23 type  2   force =    -0.07739649    0.00001713   -0.03030890
     atom   24 type  2   force =     0.07738892    0.00043442   -0.03034966
     atom   25 type  1   force =    -0.00000651   -0.00032176    0.10851977
     atom   26 type  1   force =    -0.00003921   -0.00111030   -0.16413686
     atom   27 type  2   force =     0.00011674   -0.00017644   -0.03912659
     atom   28 type  2   force =     0.00011640    0.00117948    0.02843892
     atom   29 type  2   force =    -0.00231740    0.00467758   -0.01045768
     atom   30 type  2   force =     0.00439363    0.00495961   -0.01041750
     atom   31 type  1   force =     0.00005605    0.00318904    0.01904448
     atom   32 type  1   force =     0.00036565   -0.02766938    0.06513852
     atom   33 type  2   force =    -0.00003377   -0.00077728   -0.00029139
     atom   34 type  2   force =    -0.00062608    0.00085905   -0.05553988
     atom   35 type  2   force =    -0.00035407   -0.00024463   -0.00023301
     atom   36 type  2   force =    -0.00006461   -0.00005000   -0.00015893
     atom   37 type  1   force =     0.00029816   -0.00052792   -0.00009574
     atom   38 type  1   force =    -0.00036908   -0.00013886    0.00012345
     atom   39 type  2   force =    -0.00016620    0.00033403   -0.00001716
     atom   40 type  2   force =    -0.00016462   -0.00027232   -0.00015838
     atom   41 type  2   force =    -0.00028811    0.00019296    0.00004329
     atom   42 type  2   force =    -0.00046600    0.00001687    0.00015753
     atom   43 type  1   force =     0.00027533    0.00034780   -0.00028807
     atom   44 type  1   force =    -0.00043887    0.00030622   -0.00087118
     atom   45 type  2   force =     0.00010292    0.00001629    0.09994491
     atom   46 type  2   force =    -0.07742728   -0.00001410   -0.03031933
     atom   47 type  2   force =     0.07744579    0.00041583   -0.03035688
     atom   48 type  3   force =     0.00086064   -0.00055292    0.00014550
     atom   49 type  4   force =    -0.00400432    0.00164328    0.00157608
     atom   50 type  5   force =     0.00250825   -0.00162985   -0.00255055
     atom   51 type  3   force =     0.00109263   -0.00057214   -0.00006769
     atom   52 type  5   force =     0.00026721    0.00023556   -0.00033647
     atom   53 type  5   force =     0.00018450    0.00065270   -0.00000248
     atom   54 type  2   force =     0.00077506    0.00071847   -0.00116988
     atom   55 type  5   force =    -0.00120901   -0.00068034    0.00075948

     Total force =     0.382814     Total SCF correction =     0.000720
  @ DRIVER MODE: Message from server: STATUS
  @ DRIVER MODE: Message from server: GETFORCE
  @ DRIVER MODE: Returning v,forces,stress,ensemble

     Writing output data file ./calc.save/
  @ DRIVER MODE: Message from server: EXIT
  @ DRIVE MODE: Exiting

     General routines

     Parallel routines

   This run was terminated on:  22:35:10  22Sep2021

   JOB DONE.