     Program PWSCF v.6.7GPU starts on 23Sep2021 at  5:50:49

     R & G space division:  proc/nbgrp/npool/nimage =      10
     Reading input from /storage/home/hcoda1/3/ntian30/research/carbon/CxH_vib/H2O_calc/ads_slab/CHNHNHH2O_b/out_0041/pw.inp
Warning: card &CELL ignored
Warning: card   CELL_DYNAMICS='IPI', ignored
Warning: card / ignored

     Current dimensions of program PWSCF are:
     Max number of different atomic species (ntypx) = 10
     Max number of k-points (npk) =  40000
     Max angular momentum in pseudopotentials (lmaxx) =  3
     Presently no symmetry can be used with electric field

     Message from routine cell_base_init:
     DEPRECATED: use true lattice parameter, not A to a.u. conversion factor

     IMPORTANT: XC functional enforced from input :
     Exchange-correlation= BEEF-VDW
                           (   1   4  43  14   2   0   0)
     Any further DFT definition will be discarded
     Please, verify this is what you really want

  @ DRIVER MODE: Connecting to
 qe_1139763_2937311.sched-torque.pace.gatech.educr1im02g_scratch
  using UNIX socket
  @ DRIVER MODE: Message from server: STATUS
  @ DRIVER MODE: Message from server: INIT
  @ DRIVER MODE: Receiving replica           0          -1
  @ DRIVER MODE: Receiving encoded integer          25
  @ DRIVER MODE:  SCF:  T  FORCE:  T  STRESS:  F  VC:  F  ENSEMBLE:  F
  @ DRIVER MODE:  SCF:  T  FORCE:  T  STRESS:  F  VC:  F  ENSEMBLE:  F

     Using Slab Decomposition

     bravais-lattice index     =            0
     lattice parameter (alat)  =       1.8897  a.u.
     unit-cell volume          =    6658.9804 (a.u.)^3
     number of atoms/cell      =           56
     number of atomic types    =            5
     number of electrons       =       403.00
     number of Kohn-Sham states=          211
     kinetic-energy cutoff     =      29.3995  Ry
     charge density cutoff     =     293.9946  Ry
     scf convergence threshold =      7.3E-08
     mixing beta               =       0.0500
     number of iterations used =            8  plain     mixing
     Exchange-correlation= BEEF-VDW
                           (   1   4  43  14   2   0   0)

     celldm(1)=   1.889726  celldm(2)=   0.000000  celldm(3)=   0.000000
     celldm(4)=   0.000000  celldm(5)=   0.000000  celldm(6)=   0.000000

     crystal axes: (cart. coord. in units of alat)
               a(1) = (   6.579727   0.000000   0.000000 )
               a(2) = (  -0.000775   5.961596   0.000000 )
               a(3) = (   0.000000   0.000000  25.155947 )

     reciprocal axes: (cart. coord. in units 2 pi/alat)
               b(1) = (  0.151982  0.000020  0.000000 )
               b(2) = (  0.000000  0.167740  0.000000 )
               b(3) = (  0.000000  0.000000  0.039752 )

     PseudoPot. # 1 for Ti read from file:
     /storage/coda1/p-amedford6/0/shared/rich_project_chbe-medford/medford-share/data/pseudos_module/espresso/nninc/pbe/van/Ti.UPF
     MD5 check sum: 8e4df49b7f0d34bbd5052bf3f5ea0213
     Pseudo is Ultrasoft, Zval = 12.0
     Generated by new atomic code, or converted to UPF format
     Using radial grid of  851 points,  6 beta functions with:
                l(1) =   0
                l(2) =   0
                l(3) =   1
                l(4) =   1
                l(5) =   2
                l(6) =   2
     Q(r) pseudized with  8 coefficients,  rinner =    1.000   1.000   1.000
                                                       1.000   1.000

     PseudoPot. # 2 for O  read from file:
     /storage/coda1/p-amedford6/0/shared/rich_project_chbe-medford/medford-share/data/pseudos_module/espresso/nninc/pbe/van/O.UPF
     MD5 check sum: 78c19812648e8988a0fe644b0f25305e
     Pseudo is Ultrasoft, Zval =  6.0
     Generated by new atomic code, or converted to UPF format
     Using radial grid of  737 points,  4 beta functions with:
                l(1) =   0
                l(2) =   0
                l(3) =   1
                l(4) =   1
     Q(r) pseudized with  8 coefficients,  rinner =    0.800   0.800   0.800

     PseudoPot. # 3 for N  read from file:
     /storage/coda1/p-amedford6/0/shared/rich_project_chbe-medford/medford-share/data/pseudos_module/espresso/nninc/pbe/van/N.UPF
     MD5 check sum: 90d10febe142ad51ac9d5be1deb811c4
     Pseudo is Ultrasoft, Zval =  5.0
     Generated by new atomic code, or converted to UPF format
     Using radial grid of  729 points,  4 beta functions with:
                l(1) =   0
                l(2) =   0
                l(3) =   1
                l(4) =   1
     Q(r) pseudized with  8 coefficients,  rinner =    0.800   0.800   0.800

     PseudoPot. # 4 for C  read from file:
     /storage/coda1/p-amedford6/0/shared/rich_project_chbe-medford/medford-share/data/pseudos_module/espresso/nninc/pbe/van/C.UPF
     MD5 check sum: 1a69bf6b8db32088f5b2163dbdb77a27
     Pseudo is Ultrasoft, Zval =  4.0
     Generated by new atomic code, or converted to UPF format
     Using radial grid of  721 points,  4 beta functions with:
                l(1) =   0
                l(2) =   0
                l(3) =   1
                l(4) =   1
     Q(r) pseudized with  8 coefficients,  rinner =    0.800   0.800   0.800

     PseudoPot. # 5 for H  read from file:
     /storage/coda1/p-amedford6/0/shared/rich_project_chbe-medford/medford-share/data/pseudos_module/espresso/nninc/pbe/van/H.UPF
     MD5 check sum: b5ee9d7bfd3a09ee7748110bda690ff7
     Pseudo is Ultrasoft, Zval =  1.0
     Generated by new atomic code, or converted to UPF format
     Using radial grid of  615 points,  1 beta functions with:
                l(1) =   0
     Q(r) pseudized with  8 coefficients,  rinner =    0.800

     atomic species   valence    mass     pseudopotential
        Ti1           12.00    47.86700     Ti( 1.00)
        O1             6.00    15.99900     O ( 1.00)
        N1             5.00    14.00700     N ( 1.00)
        C1             4.00    12.01100     C ( 1.00)
        H1             1.00     1.00800     H ( 1.00)

     No symmetry found

   Cartesian axes

     site n.     atom                  positions (alat units)
         1           Ti1 tau(   1) = (   0.0004258   2.9801865   6.0000000  )
         2           Ti1 tau(   2) = (   3.2906075   1.4906267   6.0002472  )
         3           O1  tau(   3) = (   0.0006271   0.0005054   7.9858123  )
         4           O1  tau(   4) = (   3.2906025   0.0005020   7.3038282  )
         5           O1  tau(   5) = (   4.5942328   1.4918067   9.2879030  )
         6           O1  tau(   6) = (   1.9868534   1.4903216   9.2879459  )
         7           Ti1 tau(   7) = (   3.2907910   2.8959150   9.1758416  )
         8           Ti1 tau(   8) = (   0.0015273   1.4827037   9.2680791  )
         9           O1  tau(   9) = (   3.2780774   5.9605562  11.3537357  )
        10           O1  tau(  10) = (   0.0116148   5.9584955  10.6183126  )
        11           O1  tau(  11) = (   1.2922713   1.4781662  12.6511241  )
        12           O1  tau(  12) = (   5.2965393   1.5043564  12.6031353  )
        13           Ti1 tau(  13) = (   6.5273184   3.0207086  12.5807821  )
        14           Ti1 tau(  14) = (   3.2344070   1.4559942  12.5004267  )
        15           O1  tau(  15) = (   6.4759410   0.0295824  14.6525783  )
        16           O1  tau(  16) = (   3.3604338   0.0238249  13.9383540  )
        17           O1  tau(  17) = (   4.5324113   1.5808541  16.1066768  )
        18           O1  tau(  18) = (   1.9684897   1.4712893  15.8817925  )
        19           Ti1 tau(  19) = (   3.2566353   3.0739815  15.8599551  )
        20           Ti1 tau(  20) = (   6.5466614   1.5318677  15.7800735  )
        21           O1  tau(  21) = (   3.2904802   0.0005063   4.7018136  )
        22           O1  tau(  22) = (   6.5744325   0.0155309  17.2227980  )
        23           O1  tau(  23) = (   1.3043587   1.4918075   6.0039043  )
        24           O1  tau(  24) = (   5.2767064   1.4903225   6.0039473  )
        25           Ti1 tau(  25) = (   0.0000382   5.9609847   6.0000000  )
        26           Ti1 tau(  26) = (   3.2902200   4.4714249   6.0002472  )
        27           O1  tau(  27) = (   0.0002396   2.9813036   7.9858123  )
        28           O1  tau(  28) = (   3.2902150   2.9813002   7.3038282  )
        29           O1  tau(  29) = (   4.5938453   4.4726049   9.2879030  )
        30           O1  tau(  30) = (   1.9864658   4.4711199   9.2879459  )
        31           Ti1 tau(  31) = (   3.2891106   5.8743827   9.1763621  )
        32           Ti1 tau(  32) = (   0.0006254   4.4649316   9.2693709  )
        33           O1  tau(  33) = (   3.2727763   2.9788165  11.3438337  )
        34           O1  tau(  34) = (   0.0092240   2.9805883  10.6323155  )
        35           O1  tau(  35) = (   1.2865780   4.4896361  12.6556599  )
        36           O1  tau(  36) = (   5.2967437   4.4749066  12.6066920  )
        37           Ti1 tau(  37) = (   6.5467059   0.0356701  12.5108493  )
        38           Ti1 tau(  38) = (   3.2305653   4.4019604  12.5605372  )
        39           O1  tau(  39) = (   6.5199767   2.9846217  14.6905747  )
        40           O1  tau(  40) = (   3.2851694   3.0254550  13.9321539  )
        41           O1  tau(  41) = (   4.5310495   4.4602642  16.1636806  )
        42           O1  tau(  42) = (   1.9842988   4.5744318  15.9411167  )
        43           Ti1 tau(  43) = (   3.2691225   0.1036042  15.7405456  )
        44           Ti1 tau(  44) = (   6.5697781   4.6877429  16.0360384  )
        45           O1  tau(  45) = (   3.2900926   2.9813045   4.7018136  )
        46           O1  tau(  46) = (   1.3039711   4.4726057   6.0039043  )
        47           O1  tau(  47) = (   5.2763189   4.4711207   6.0039473  )
        48           N1  tau(  48) = (   1.2792381   2.8578196  18.3696018  )
        49           N1  tau(  49) = (   0.1888888   2.9646215  17.5057353  )
        50           C1  tau(  50) = (   2.5352320   2.9081513  18.0382144  )
        51           H1  tau(  51) = (   3.1442446   2.7411670  18.9317345  )
        52           H1  tau(  52) = (   1.0014291   2.6635404  19.3302151  )
        53           H1  tau(  53) = (   5.9397212   2.8571719  18.0851170  )
        54           O1  tau(  54) = (   3.2630597   0.0341043  18.2248460  )
        55           H1  tau(  55) = (   4.0455299   5.4198958  18.2485053  )
        56           H1  tau(  56) = (   2.4923979   5.4091459  18.3156537  )

     number of k points=    10  Fermi-Dirac smearing, width (Ry)=  0.0073
                       cart. coord. in units 2pi/alat
        k(    1) = (   0.0000000   0.0000000   0.0000000), wk =   0.1250000
        k(    2) = (   0.0000000   0.0419351   0.0000000), wk =   0.2500000
        k(    3) = (   0.0000000  -0.0838702   0.0000000), wk =   0.1250000
        k(    4) = (   0.0379955   0.0000049   0.0000000), wk =   0.2500000
        k(    5) = (   0.0379955   0.0419400   0.0000000), wk =   0.2500000
        k(    6) = (   0.0379955  -0.0838652   0.0000000), wk =   0.2500000
        k(    7) = (   0.0379955  -0.0419301   0.0000000), wk =   0.2500000
        k(    8) = (  -0.0759910  -0.0000099   0.0000000), wk =   0.1250000
        k(    9) = (  -0.0759910   0.0419252   0.0000000), wk =   0.2500000
        k(   10) = (  -0.0759910  -0.0838800   0.0000000), wk =   0.1250000

     Initial potential from superposition of free atoms

     starting charge  386.99914, renormalised to  403.00000

     negative rho (up, down):  1.739E-02 0.000E+00

     %%%%%%%%%%%%%%%%%%%%%%%%%%%%%%%%%%%%%%%%%%%%%%%%%%%%%%%%%%%%%%%%%%%%%%%%
     %                                                                      %
     % You are using vdW-DF, which was implemented by the Thonhauser group. %
     % Please cite the following two papers that made this development      %
     % possible and the two reviews that describe the various versions:     %
     %                                                                      %
     %   T. Thonhauser et al., PRL 115, 136402 (2015).                      %
     %   T. Thonhauser et al., PRB 76, 125112 (2007).                       %
     %   K. Berland et al., Rep. Prog. Phys. 78, 066501 (2015).             %
     %   D.C. Langreth et al., J. Phys.: Condens. Matter 21, 084203 (2009). %
     %                                                                      %
     %                                                                      %
     % If you are calculating the stress with vdW-DF, please also cite:     %
     %                                                                      %
     %   R. Sabatini et al., J. Phys.: Condens. Matter 24, 424209 (2012).   %
     %                                                                      %
     %%%%%%%%%%%%%%%%%%%%%%%%%%%%%%%%%%%%%%%%%%%%%%%%%%%%%%%%%%%%%%%%%%%%%%%%

     Adding external electric field

     Computed dipole along edir(3) :
        Dipole              -12.3416 Ry au,        -31.3692 Debye
        Dipole field         -0.0233 Ry au,

        Potential amp.        2.1590 Ry
        Total length         46.3494 bohr

     Starting wfcs are  305 atomic wfcs
  @ DRIVER MODE: Message from server: STATUS
  @ DRIVER MODE: Message from server: POSDATA
  @ DRIVER MODE: Reading and sharing cell
  @ DRIVER MODE: Reading and sharing positions
  @ DRIVER MODE: Received positions

     Self-consistent Calculation

     iteration #  1     ecut=    29.40 Ry     beta= 0.05
     Davidson diagonalization with overlap
     c_bands:  5 eigenvalues not converged
     c_bands:  3 eigenvalues not converged
     c_bands:  3 eigenvalues not converged
     c_bands:  1 eigenvalues not converged
     c_bands:  2 eigenvalues not converged
     c_bands:  2 eigenvalues not converged
     c_bands:  5 eigenvalues not converged
     c_bands:  2 eigenvalues not converged
     c_bands:  4 eigenvalues not converged
     ethr =  1.00E-05,  avg # of iterations = 29.3

[...]

     total energy              =   -2358.71835245 Ry
     estimated scf accuracy    <    6971.19048074 Ry

     iteration #  2     ecut=    29.40 Ry     beta= 0.05
     Davidson diagonalization with overlap
     ethr =  1.00E-02,  avg # of iterations = 27.0

[...]

     iteration # 69     ecut=    29.40 Ry     beta= 0.05
     Davidson diagonalization with overlap
     c_bands:  1 eigenvalues not converged
     c_bands:  1 eigenvalues not converged
     ethr =  5.49E-11,  avg # of iterations = 16.3

[...]

     total energy              =   -2973.94011164 Ry
     estimated scf accuracy    <       0.00000010 Ry

     iteration # 73     ecut=    29.40 Ry     beta= 0.05
     Davidson diagonalization with overlap
     ethr =  2.36E-11,  avg # of iterations =  7.2

     negative rho (up, down):  1.725E-02 0.000E+00

     Adding external electric field

     Computed dipole along edir(3) :
        Dipole                1.4077 Ry au,          3.5780 Debye
        Dipole field          0.0027 Ry au,

        Potential amp.       -0.2463 Ry
        Total length         46.3494 bohr

     End of self-consistent calculation

          k = 0.0000 0.0000 0.0000 ( 18029 PWs)   bands (ev):

   -55.3142 -55.2801 -55.2050 -55.1796 -55.1620 -55.1505 -55.1351 -55.1133
   -55.1012 -55.0991 -55.0924 -55.0578 -54.9877 -54.8301 -54.2948 -54.2608
   -31.7984 -31.7259 -31.6512 -31.6449 -31.6349 -31.6062 -31.5820 -31.5595
   -31.5135 -31.4971 -31.4666 -31.4587 -31.4498 -31.4351 -31.4202 -31.4162
   -31.3930 -31.3750 -31.3715 -31.3598 -31.3298 -31.3278 -31.3237 -31.3207
   -31.3178 -31.3140 -31.3100 -31.2918 -31.2839 -31.2739 -31.2670 -31.2664
   -31.2568 -31.2553 -31.2468 -31.2429 -31.2359 -31.2102 -31.2049 -31.0864
   -31.0711 -31.0455 -30.7017 -30.6136 -30.5912 -30.5187 -30.4322 -30.3209
   -18.8863 -18.6544 -15.9725 -15.7887 -15.6076 -15.4687 -15.3866 -15.1549
   -15.0969 -15.0583 -14.9772 -14.9542 -14.8537 -14.8348 -14.8333 -14.8151
   -14.8121 -14.7572 -14.7423 -14.7376 -14.6892 -14.6823 -14.6569 -14.6414
   -14.5887 -14.5103 -14.5015 -14.4552 -14.4099 -14.3634 -14.0195 -13.4152
   -12.7955 -12.6791  -8.8059  -7.2729  -6.6200  -4.3242  -3.7951  -3.3563
    -3.2797  -3.2440  -3.2191  -3.0847  -2.9683  -2.8775  -2.7526  -2.6694
    -2.5796  -2.4750  -2.4207  -2.3730  -2.3123  -2.2522  -2.2266  -2.1407
    -2.1207  -2.1013  -2.0792  -2.0533  -2.0240  -1.9882  -1.8643  -1.8531
    -1.7708  -1.7159  -1.6803  -1.6582  -1.6349  -1.6286  -1.5966  -1.5756
    -1.5675  -1.5563  -1.5552  -1.5202  -1.3799  -1.3575  -1.3275  -1.3066
    -1.1586  -1.0207  -0.9318  -0.9294  -0.8201  -0.7549  -0.7520  -0.7135
    -0.6979  -0.5965  -0.5102  -0.4742  -0.4489  -0.3712  -0.3138  -0.2578
    -0.2061  -0.1713  -0.1038  -0.0798  -0.0632  -0.0464   0.0219   0.0851
     0.1463   0.2318   0.2751   0.2996   0.3909   0.4045   0.4275   0.4923
     0.5244   0.5696   0.6047   0.6340   0.6575   0.6878   0.7131   0.7563
     0.7937   0.9200   0.9380   0.9667   0.9878   1.1623   1.2115   1.3129
     1.3449   1.4430   1.4882   1.6679   1.7291   1.8085   1.9210   2.2993
     2.3451   3.7948   3.9063   3.9403   3.9653   4.0045   4.0558   4.2626
     4.3353   4.3768   4.4349

[...]

          k = 0.0380-0.0419 0.0000 ( 17876 PWs)   bands (ev):

[...]

          k =-0.0760-0.0000 0.0000 ( 17886 PWs)   bands (ev):

[...]

          k =-0.0760-0.0839 0.0000 ( 17948 PWs)   bands (ev):

   -55.2974 -55.2968 -55.1955 -55.1762 -55.1706 -55.1390 -55.1251 -55.1182
   -55.1175 -55.1027 -55.0792 -55.0712 -54.9860 -54.8318 -54.2778 -54.2777
   -31.6138 -31.6134 -31.5919 -31.5915 -31.5601 -31.5273 -31.4964 -31.4839
   -31.4776 -31.4624 -31.4437 -31.4386 -31.4345 -31.4252 -31.4201 -31.4191
   -31.4168 -31.4165 -31.4115 -31.3955 -31.3843 -31.3708 -31.3599 -31.3578
   -31.3527 -31.3482 -31.3391 -31.3265 -31.3206 -31.3191 -31.3040 -31.2948
   -31.2915 -31.2908 -31.2891 -31.2863 -31.2563 -31.2292 -31.2151 -31.1424
   -31.0888 -31.0741 -30.6039 -30.6039 -30.5145 -30.5144 -30.4755 -30.4754
   -18.8759 -18.6605 -15.3503 -15.3141 -15.2768 -15.2496 -15.2338 -15.1125
   -15.0988 -15.0634 -15.0217 -15.0085 -14.9782 -14.9496 -14.9008 -14.8920
   -14.8581 -14.8385 -14.7994 -14.7726 -14.7536 -14.7493 -14.7325 -14.7109
   -14.6673 -14.6455 -14.6330 -14.6287 -14.5768 -14.4829 -14.2052 -13.4378
   -12.7809 -12.7808  -8.8017  -7.1982  -6.6210  -4.5333  -3.5740  -2.8888
    -2.6674  -2.6259  -2.5726  -2.4831  -2.4360  -2.3143  -2.3078  -2.2848
    -2.2395  -2.2264  -2.1861  -2.1454  -2.1400  -2.1116  -2.0996  -2.0546
    -2.0440  -2.0404  -2.0265  -1.9953  -1.9868  -1.9666  -1.9433  -1.9394
    -1.9287  -1.9124  -1.8794  -1.8722  -1.8450  -1.8261  -1.6772  -1.5999
    -1.5581  -1.4802  -1.4573  -1.4403  -1.4215  -1.3868  -1.3665  -1.3409
    -1.3128  -1.1673  -1.0302  -0.9913  -0.9673  -0.8683  -0.8530  -0.8340
    -0.7867  -0.7451  -0.7100  -0.6525  -0.6425  -0.5971  -0.5752  -0.4557
    -0.4174  -0.3186  -0.2828  -0.2811  -0.2637  -0.2486  -0.2321  -0.2059
    -0.1564  -0.0849  -0.0694  -0.0204   0.0030   0.0056   0.0188   0.1641
     0.2356   0.2558   0.3572   0.3881   0.5629   0.7273   0.7390   0.8069
     0.8698   0.9241   0.9587   0.9987   1.0087   1.0742   1.0991   1.2032
     1.2140   1.2628   1.2670   1.3437   1.3592   2.0929   2.0946   2.1650
     2.1652   4.1588   4.1734   4.2027   4.2656   4.3091   4.3207   4.3583
     4.3620   4.4650   4.4800

     the Fermi energy is     3.8130 ev

!    total energy              =   -2973.94012649 Ry
     estimated scf accuracy    <       0.00000002 Ry
     smearing contrib. (-TS)   =      -0.02072652 Ry
     internal energy E=F+TS    =   -2973.91939998 Ry

     The total energy is F=E-TS. E is the sum of the following terms:
     one-electron contribution =  -24342.22643988 Ry
     hartree contribution      =   12268.87629087 Ry
     xc contribution           =    -494.11802767 Ry
     ewald contribution        =    9593.54503725 Ry
     electric field correction =       0.00373945 Ry

     convergence has been achieved in  73 iterations

     Forces acting on atoms (cartesian axes, Ry/au):

     atom    1 type  1   force =     0.00002517   -0.00010363    0.09506455
     atom    2 type  1   force =     0.00017791   -0.00068948   -0.17564950
     atom    3 type  2   force =     0.00008895   -0.00004805   -0.02294756
     atom    4 type  2   force =     0.00002277   -0.00143368    0.05290382
     atom    5 type  2   force =    -0.01000495   -0.00031487    0.00381438
     atom    6 type  2   force =     0.01112894    0.00020294    0.00206871
     atom    7 type  1   force =    -0.00020883    0.00178291   -0.00588902
     atom    8 type  1   force =     0.00080831    0.01008059    0.01604678
     atom    9 type  2   force =    -0.00015642    0.00086834    0.00030833
     atom   10 type  2   force =    -0.00227235    0.00217774   -0.01800037
     atom   11 type  2   force =     0.00022215   -0.00002898    0.00008283
     atom   12 type  2   force =    -0.00033286   -0.00018259    0.00056506
     atom   13 type  1   force =    -0.00002594    0.00125690    0.00015761
     atom   14 type  1   force =    -0.00011388    0.00001435    0.00004777
     atom   15 type  2   force =     0.00011646    0.00022549    0.00005081
     atom   16 type  2   force =    -0.00036018    0.00040995   -0.00052991
     atom   17 type  2   force =    -0.00004770   -0.00009998   -0.00007676
     atom   18 type  2   force =    -0.00014532    0.00014111    0.00037508
     atom   19 type  1   force =    -0.00049445    0.00041702   -0.00044871
     atom   20 type  1   force =    -0.00026707   -0.00015189   -0.00000271
     atom   21 type  2   force =     0.00009143   -0.00008449    0.10317639
     atom   22 type  2   force =     0.00038240    0.00006662    0.00074124
     atom   23 type  2   force =    -0.07159303   -0.00016716   -0.02757237
     atom   24 type  2   force =     0.07155206    0.00024806   -0.02762061
     atom   25 type  1   force =     0.00023853   -0.00039005    0.09516766
     atom   26 type  1   force =    -0.00004116   -0.00020535   -0.17579772
     atom   27 type  2   force =     0.00012273   -0.00012177   -0.02197315
     atom   28 type  2   force =     0.00001484   -0.00139731    0.05323456
     atom   29 type  2   force =    -0.01034954   -0.00022798    0.00365639
     atom   30 type  2   force =     0.01138688    0.00042260    0.00192506
     atom   31 type  1   force =    -0.00030017    0.00266410   -0.00008410
     atom   32 type  1   force =     0.00067170   -0.01114436    0.01692113
     atom   33 type  2   force =     0.00037212   -0.00027214   -0.00000289
     atom   34 type  2   force =    -0.00033853    0.00144224   -0.01893293
     atom   35 type  2   force =    -0.00002334   -0.00035859   -0.00016412
     atom   36 type  2   force =     0.00001698   -0.00024991    0.00043814
     atom   37 type  1   force =    -0.00004920   -0.00122407    0.00031279
     atom   38 type  1   force =    -0.00038917    0.00096310    0.00010259
     atom   39 type  2   force =     0.00010367    0.00006148    0.00014975
     atom   40 type  2   force =    -0.00048279   -0.00059655    0.00002033
     atom   41 type  2   force =     0.00039659   -0.00041551    0.00009624
     atom   42 type  2   force =    -0.00037962   -0.00054659   -0.00036706
     atom   43 type  1   force =    -0.00027571   -0.00027278    0.00077695
     atom   44 type  1   force =     0.00006720   -0.00035456   -0.00001802
     atom   45 type  2   force =     0.00010023   -0.00010196    0.10319170
     atom   46 type  2   force =    -0.07157921   -0.00016991   -0.02756416
     atom   47 type  2   force =     0.07158125    0.00024343   -0.02757630
     atom   48 type  3   force =     0.00001726   -0.00048258    0.00029700
     atom   49 type  3   force =     0.00014241    0.00010888    0.00001809
     atom   50 type  4   force =     0.00041677   -0.00020824    0.00042673
     atom   51 type  5   force =    -0.00013938   -0.00052685   -0.00016520
     atom   52 type  5   force =    -0.00005400   -0.00103894   -0.00081155
     atom   53 type  5   force =     0.00017034   -0.00042138   -0.00061374
     atom   54 type  2   force =    -0.00114852   -0.00033264    0.00100310
     atom   55 type  5   force =     0.00005422    0.00018984   -0.00030392
     atom   56 type  5   force =     0.00108302    0.00037715   -0.00002915

     Total force =     0.365177     Total SCF correction =     0.000301
  @ DRIVER MODE: Message from server: STATUS
  @ DRIVER MODE: Message from server: GETFORCE
  @ DRIVER MODE: Returning v,forces,stress,ensemble

     Writing output data file ./calc.save/
  @ DRIVER MODE: Message from server: EXIT
  @ DRIVE MODE: Exiting

     General routines

     Parallel routines

   This run was terminated on:   6:12:37  23Sep2021

   JOB DONE.