     Program PWSCF v.6.7GPU starts on  8Sep2021 at 23:23:53

     R & G space division:  proc/nbgrp/npool/nimage =      10
     Reading input from /storage/home/hcoda1/3/ntian30/research/carbon/CxH_vib/CH2_calc/ads_slab/CH2O_a/out_0005/pw.inp
Warning: card &CELL ignored
Warning: card   CELL_DYNAMICS='IPI', ignored
Warning: card / ignored

     Current dimensions of program PWSCF are:
     Max number of different atomic species (ntypx) = 10
     Max number of k-points (npk) =  40000
     Max angular momentum in pseudopotentials (lmaxx) =  3
     Presently no symmetry can be used with electric field

     Message from routine cell_base_init:
     DEPRECATED: use true lattice parameter, not A to a.u. conversion factor

     IMPORTANT: XC functional enforced from input :
     Exchange-correlation= BEEF-VDW
                           (   1   4  43  14   2   0   0)
     Any further DFT definition will be discarded
     Please, verify this is what you really want

  @ DRIVER MODE: Connecting to
 qe_1139763_2767394.sched-torque.pace.gatech.edu98jnnu8o_scratch
  using UNIX socket
  @ DRIVER MODE: Message from server: STATUS
  @ DRIVER MODE: Message from server: INIT
  @ DRIVER MODE: Receiving replica           0          -1
  @ DRIVER MODE: Receiving encoded integer          25
  @ DRIVER MODE:  SCF:  T  FORCE:  T  STRESS:  F  VC:  F  ENSEMBLE:  F
  @ DRIVER MODE:  SCF:  T  FORCE:  T  STRESS:  F  VC:  F  ENSEMBLE:  F

     Using Slab Decomposition

     bravais-lattice index     =            0
     lattice parameter (alat)  =       1.8897  a.u.
     unit-cell volume          =    6658.9804 (a.u.)^3
     number of atoms/cell      =           51
     number of atomic types    =            4
     number of electrons       =       390.00
     number of Kohn-Sham states=          205
     kinetic-energy cutoff     =      29.3995  Ry
     charge density cutoff     =     293.9946  Ry
     scf convergence threshold =      7.3E-08
     mixing beta               =       0.0500
     number of iterations used =            8  plain     mixing
     Exchange-correlation= BEEF-VDW
                           (   1   4  43  14   2   0   0)

     celldm(1)=   1.889726  celldm(2)=   0.000000  celldm(3)=   0.000000
     celldm(4)=   0.000000  celldm(5)=   0.000000  celldm(6)=   0.000000

     crystal axes: (cart. coord. in units of alat)
               a(1) = (   6.579727   0.000000   0.000000 )
               a(2) = (  -0.000775   5.961596   0.000000 )
               a(3) = (   0.000000   0.000000  25.155947 )

     reciprocal axes: (cart. coord. in units 2 pi/alat)
               b(1) = (  0.151982  0.000020  0.000000 )
               b(2) = (  0.000000  0.167740  0.000000 )
               b(3) = (  0.000000  0.000000  0.039752 )

     PseudoPot. # 1 for O  read from file:
     /storage/coda1/p-amedford6/0/shared/rich_project_chbe-medford/medford-share/data/pseudos_module/espresso/nninc/pbe/van/O.UPF
     MD5 check sum: 78c19812648e8988a0fe644b0f25305e
     Pseudo is Ultrasoft, Zval =  6.0
     Generated by new atomic code, or converted to UPF format
     Using radial grid of  737 points,  4 beta functions with:
                l(1) =   0
                l(2) =   0
                l(3) =   1
                l(4) =   1
     Q(r) pseudized with  8 coefficients,  rinner =    0.800   0.800   0.800

     PseudoPot. # 2 for Ti read from file:
     /storage/coda1/p-amedford6/0/shared/rich_project_chbe-medford/medford-share/data/pseudos_module/espresso/nninc/pbe/van/Ti.UPF
     MD5 check sum: 8e4df49b7f0d34bbd5052bf3f5ea0213
     Pseudo is Ultrasoft, Zval = 12.0
     Generated by new atomic code, or converted to UPF format
     Using radial grid of  851 points,  6 beta functions with:
                l(1) =   0
                l(2) =   0
                l(3) =   1
                l(4) =   1
                l(5) =   2
                l(6) =   2
     Q(r) pseudized with  8 coefficients,  rinner =    1.000   1.000   1.000
                                                       1.000   1.000

     PseudoPot. # 3 for C  read from file:
     /storage/coda1/p-amedford6/0/shared/rich_project_chbe-medford/medford-share/data/pseudos_module/espresso/nninc/pbe/van/C.UPF
     MD5 check sum: 1a69bf6b8db32088f5b2163dbdb77a27
     Pseudo is Ultrasoft, Zval =  4.0
     Generated by new atomic code, or converted to UPF format
     Using radial grid of  721 points,  4 beta functions with:
                l(1) =   0
                l(2) =   0
                l(3) =   1
                l(4) =   1
     Q(r) pseudized with  8 coefficients,  rinner =    0.800   0.800   0.800

     PseudoPot. # 4 for H  read from file:
     /storage/coda1/p-amedford6/0/shared/rich_project_chbe-medford/medford-share/data/pseudos_module/espresso/nninc/pbe/van/H.UPF
     MD5 check sum: b5ee9d7bfd3a09ee7748110bda690ff7
     Pseudo is Ultrasoft, Zval =  1.0
     Generated by new atomic code, or converted to UPF format
     Using radial grid of  615 points,  1 beta functions with:
                l(1) =   0
     Q(r) pseudized with  8 coefficients,  rinner =    0.800

     atomic species   valence    mass     pseudopotential
        O1             6.00    15.99900     O ( 1.00)
        Ti1           12.00    47.86700     Ti( 1.00)
        C1             4.00    12.01100     C ( 1.00)
        H1             1.00     1.00800     H ( 1.00)

     No symmetry found

   Cartesian axes

     site n.     atom                  positions (alat units)
         1           O1  tau(   1) = (   3.2904802   0.0005063   4.7018136  )
         2           O1  tau(   2) = (   3.2900926   2.9813045   4.7018136  )
         3           Ti1 tau(   3) = (   0.0004258   2.9801865   6.0000000  )
         4           Ti1 tau(   4) = (   0.0000382   5.9609847   6.0000000  )
         5           Ti1 tau(   5) = (   3.2906075   1.4906267   6.0002472  )
         6           Ti1 tau(   6) = (   3.2902200   4.4714249   6.0002472  )
         7           O1  tau(   7) = (   1.3043587   1.4918075   6.0039043  )
         8           O1  tau(   8) = (   1.3039711   4.4726057   6.0039043  )
         9           O1  tau(   9) = (   5.2767064   1.4903225   6.0039473  )
        10           O1  tau(  10) = (   5.2763189   4.4711207   6.0039473  )
        11           O1  tau(  11) = (   3.2906025   0.0005020   7.3038282  )
        12           O1  tau(  12) = (   3.2902150   2.9813002   7.3038282  )
        13           O1  tau(  13) = (   0.0006271   0.0005054   7.9858123  )
        14           O1  tau(  14) = (   0.0002396   2.9813036   7.9858123  )
        15           Ti1 tau(  15) = (   3.3042095   0.0533388   9.1528587  )
        16           Ti1 tau(  16) = (   3.3174724   3.0316863   9.1560957  )
        17           Ti1 tau(  17) = (   0.0293802   4.5322946   9.2552644  )
        18           Ti1 tau(  18) = (   0.0259946   1.6073196   9.3627105  )
        19           O1  tau(  19) = (   4.5942328   1.4918067   9.2879030  )
        20           O1  tau(  20) = (   4.5938453   4.4726049   9.2879030  )
        21           O1  tau(  21) = (   1.9868534   1.4903216   9.2879459  )
        22           O1  tau(  22) = (   1.9864658   4.4711199   9.2879459  )
        23           O1  tau(  23) = (   0.0064038   0.0081980  10.6024552  )
        24           O1  tau(  24) = (   0.0073862   2.9894728  10.5866593  )
        25           O1  tau(  25) = (   3.3023414   2.9953748  11.3432802  )
        26           O1  tau(  26) = (   3.3032852   0.0099373  11.3464837  )
        27           Ti1 tau(  27) = (   0.0309755   0.0166663  12.4994564  )
        28           Ti1 tau(  28) = (   3.3310982   4.4887825  12.4897803  )
        29           Ti1 tau(  29) = (   3.3310371   1.5113328  12.4846922  )
        30           Ti1 tau(  30) = (   0.0327574   2.9992265  12.7695683  )
        31           O1  tau(  31) = (   1.3002707   4.4821552  12.6388042  )
        32           O1  tau(  32) = (   1.3007223   1.5002113  12.6333963  )
        33           O1  tau(  33) = (   5.2991570   4.4805309  12.6421864  )
        34           O1  tau(  34) = (   5.3000174   1.5011411  12.6364809  )
        35           O1  tau(  35) = (   3.3018339   2.9879062  13.9210104  )
        36           O1  tau(  36) = (   3.3040464   0.0111531  13.9455706  )
        37           O1  tau(  37) = (   0.0204374   0.0165334  14.6791819  )
        38           O1  tau(  38) = (   0.0263865   2.9938028  14.7196832  )
        39           Ti1 tau(  39) = (   3.3100843   2.9899001  15.7147585  )
        40           Ti1 tau(  40) = (   3.3190225   0.0114617  15.7368552  )
        41           Ti1 tau(  41) = (   0.0307220   4.5758675  15.9389875  )
        42           Ti1 tau(  42) = (   0.0306600   1.3860070  15.9976826  )
        43           O1  tau(  43) = (   4.5579467   4.4706051  16.0879179  )
        44           O1  tau(  44) = (   4.5582295   1.5117582  16.0998906  )
        45           O1  tau(  45) = (   2.0559277   1.5139458  16.1062704  )
        46           O1  tau(  46) = (   2.0563840   4.4680477  16.0963298  )
        47           O1  tau(  47) = (   0.0152972   0.0023678  17.1988758  )
        48           O1  tau(  48) = (   6.5645367   3.0020129  17.4148639  )
        49           C1  tau(  49) = (   6.3846989   3.0744571  18.6868163  )
        50           H1  tau(  50) = (   6.3100824   4.0552778  19.1474226  )
        51           H1  tau(  51) = (   6.3122094   2.1591535  19.2648898  )

     number of k points=    10  Fermi-Dirac smearing, width (Ry)=  0.0073
                       cart. coord. in units 2pi/alat
        k(    1) = (   0.0000000   0.0000000   0.0000000), wk =   0.1250000
        k(    2) = (   0.0000000   0.0419351   0.0000000), wk =   0.2500000
        k(    3) = (   0.0000000  -0.0838702   0.0000000), wk =   0.1250000
        k(    4) = (   0.0379955   0.0000049   0.0000000), wk =   0.2500000
        k(    5) = (   0.0379955   0.0419400   0.0000000), wk =   0.2500000
        k(    6) = (   0.0379955  -0.0838652   0.0000000), wk =   0.2500000
        k(    7) = (   0.0379955  -0.0419301   0.0000000), wk =   0.2500000
        k(    8) = (  -0.0759910  -0.0000099   0.0000000), wk =   0.1250000
        k(    9) = (  -0.0759910   0.0419252   0.0000000), wk =   0.2500000
        k(   10) = (  -0.0759910  -0.0838800   0.0000000), wk =   0.1250000

     Initial potential from superposition of free atoms

     starting charge  373.99919, renormalised to  390.00000

     negative rho (up, down):  1.843E-02 0.000E+00

     %%%%%%%%%%%%%%%%%%%%%%%%%%%%%%%%%%%%%%%%%%%%%%%%%%%%%%%%%%%%%%%%%%%%%%%%
     %                                                                      %
     % You are using vdW-DF, which was implemented by the Thonhauser group. %
     % Please cite the following two papers that made this development      %
     % possible and the two reviews that describe the various versions:     %
     %                                                                      %
     %   T. Thonhauser et al., PRL 115, 136402 (2015).                      %
     %   T. Thonhauser et al., PRB 76, 125112 (2007).                       %
     %   K. Berland et al., Rep. Prog. Phys. 78, 066501 (2015).             %
     %   D.C. Langreth et al., J. Phys.: Condens. Matter 21, 084203 (2009). %
     %                                                                      %
     %                                                                      %
     % If you are calculating the stress with vdW-DF, please also cite:     %
     %                                                                      %
     %   R. Sabatini et al., J. Phys.: Condens. Matter 24, 424209 (2012).   %
     %                                                                      %
     %%%%%%%%%%%%%%%%%%%%%%%%%%%%%%%%%%%%%%%%%%%%%%%%%%%%%%%%%%%%%%%%%%%%%%%%

     Adding external electric field

     Computed dipole along edir(3) :
        Dipole               -5.1804 Ry au,        -13.1673 Debye
        Dipole field         -0.0098 Ry au,

        Potential amp.        0.9062 Ry
        Total length         46.3494 bohr

     Starting wfcs are  294 atomic wfcs
  @ DRIVER MODE: Message from server: STATUS
  @ DRIVER MODE: Message from server: POSDATA
  @ DRIVER MODE: Reading and sharing cell
  @ DRIVER MODE: Reading and sharing positions
  @ DRIVER MODE: Received positions

     Self-consistent Calculation

     iteration #  1     ecut=    29.40 Ry     beta= 0.05
     Davidson diagonalization with overlap
     c_bands:  3 eigenvalues not converged
     c_bands:  3 eigenvalues not converged
     c_bands:  1 eigenvalues not converged
     c_bands:  1 eigenvalues not converged
     c_bands:  2 eigenvalues not converged
     c_bands:  3 eigenvalues not converged
     c_bands:  3 eigenvalues not converged
     c_bands:  1 eigenvalues not converged
     ethr =  1.00E-05,  avg # of iterations = 21.7

[...]

     total energy              =   -2822.16895027 Ry
     estimated scf accuracy    <    1190.99595961 Ry

     iteration #  2     ecut=    29.40 Ry     beta= 0.05
     Davidson diagonalization with overlap
     ethr =  1.00E-02,  avg # of iterations = 16.6

[...]

     iteration # 95     ecut=    29.40 Ry     beta= 0.05
     Davidson diagonalization with overlap
     ethr =  2.32E-11,  avg # of iterations =  1.7

[...]

     total energy              =   -2930.16707262 Ry
     estimated scf accuracy    <       0.00000010 Ry

     iteration # 96     ecut=    29.40 Ry     beta= 0.05
     Davidson diagonalization with overlap
     c_bands:  1 eigenvalues not converged
     ethr =  2.32E-11,  avg # of iterations = 13.2

     negative rho (up, down):  1.726E-02 0.000E+00

     Adding external electric field

     Computed dipole along edir(3) :
        Dipole                0.9201 Ry au,          2.3386 Debye
        Dipole field          0.0017 Ry au,

        Potential amp.       -0.1610 Ry
        Total length         46.3494 bohr

     End of self-consistent calculation

          k = 0.0000 0.0000 0.0000 ( 18029 PWs)   bands (ev):

   -55.8322 -55.8213 -55.7960 -55.7850 -55.7217 -55.7077 -55.6835 -55.6160
   -55.6134 -55.6016 -55.5829 -55.5682 -55.5206 -55.5138 -54.8604 -54.8263
   -32.3900 -32.3051 -32.1996 -32.1670 -32.1376 -32.1343 -32.1274 -32.1102
   -32.0812 -32.0656 -32.0603 -32.0357 -32.0050 -32.0022 -31.9908 -31.9692
   -31.9539 -31.9491 -31.9416 -31.9269 -31.8991 -31.8978 -31.8954 -31.8855
   -31.8666 -31.8565 -31.8553 -31.8315 -31.8279 -31.8261 -31.8022 -31.7755
   -31.7551 -31.7461 -31.7433 -31.7405 -31.7309 -31.7085 -31.7044 -31.7005
   -31.6939 -31.6760 -31.2705 -31.1725 -31.1503 -31.0872 -31.0012 -30.8899
   -19.7120 -16.6014 -16.3076 -16.1540 -16.0296 -15.9794 -15.8610 -15.7055
   -15.6235 -15.5477 -15.4988 -15.4522 -15.4135 -15.4122 -15.3801 -15.3663
   -15.3626 -15.3610 -15.2867 -15.2811 -15.2481 -15.2313 -15.2201 -15.1322
   -15.0604 -15.0073 -14.9632 -14.9059 -14.8526 -14.8154 -13.3607 -13.2422
    -9.2926  -5.4892  -5.4642  -3.9521  -3.7767  -3.7362  -3.7086  -3.6657
    -3.4751  -3.4414  -3.4051  -3.1221  -3.0311  -2.9989  -2.9892  -2.9747
    -2.8266  -2.7886  -2.6773  -2.6702  -2.6629  -2.6537  -2.6349  -2.6004
    -2.5912  -2.5454  -2.5144  -2.3962  -2.3779  -2.2651  -2.2463  -2.2272
    -2.1662  -2.1432  -2.1132  -2.0994  -2.0714  -2.0640  -2.0618  -2.0172
    -1.9184  -1.8270  -1.7650  -1.6780  -1.6411  -1.5531  -1.3833  -1.3217
    -1.2821  -1.2460  -1.1958  -1.1780  -1.1421  -1.1152  -1.1039  -1.0828
    -0.9919  -0.8766  -0.8703  -0.7719  -0.7098  -0.6756  -0.6602  -0.5889
    -0.5707  -0.5607  -0.4543  -0.3219  -0.3142  -0.3101  -0.1919  -0.1610
    -0.1348  -0.0891  -0.0697  -0.0285   0.0021   0.0631   0.0975   0.1102
     0.1529   0.1737   0.1943   0.3033   0.3596   0.3679   0.4174   0.4544
     0.6460   0.6655   0.7945   0.8659   1.0666   1.1646   1.2220   1.3326
     1.7524   1.8107   3.3323   3.3651   3.3883   3.4455   3.4804   3.5257
     3.5770   3.7779   3.7920   3.8020   3.8231

[...]

          k = 0.0380-0.0419 0.0000 ( 17876 PWs)   bands (ev):

[...]

          k =-0.0760-0.0000 0.0000 ( 17886 PWs)   bands (ev):

[...]

          k =-0.0760-0.0839 0.0000 ( 17948 PWs)   bands (ev):

   -55.8203 -55.8078 -55.8035 -55.8025 -55.7125 -55.7043 -55.6927 -55.6192
   -55.6097 -55.5866 -55.5838 -55.5776 -55.5258 -55.5168 -54.8439 -54.8427
   -32.1919 -32.1909 -32.1284 -32.1149 -32.1130 -32.1065 -32.0935 -32.0736
   -32.0714 -32.0454 -32.0350 -32.0220 -32.0051 -31.9682 -31.9575 -31.9502
   -31.9477 -31.9446 -31.9367 -31.9335 -31.9159 -31.9108 -31.9094 -31.9083
   -31.9046 -31.9036 -31.8881 -31.8606 -31.8454 -31.8415 -31.8402 -31.8177
   -31.8134 -31.7962 -31.7912 -31.7835 -31.7746 -31.7705 -31.7494 -31.7402
   -31.7108 -31.7053 -31.1637 -31.1622 -31.0839 -31.0830 -31.0448 -31.0437
   -19.7034 -16.0301 -16.0035 -15.8877 -15.7715 -15.7613 -15.7179 -15.6762
   -15.6179 -15.5684 -15.5651 -15.5122 -15.4944 -15.4923 -15.4438 -15.4127
   -15.3706 -15.3628 -15.3536 -15.3479 -15.2988 -15.2938 -15.2512 -15.2228
   -15.2174 -15.1833 -15.1782 -15.1098 -15.0390 -15.0296 -13.3445 -13.3424
    -9.2936  -5.4645  -5.4463  -3.5014  -3.3189  -3.2887  -3.1244  -2.9928
    -2.9829  -2.9245  -2.8393  -2.8037  -2.7593  -2.7069  -2.7012  -2.6844
    -2.6705  -2.6590  -2.6487  -2.6402  -2.5933  -2.5797  -2.5346  -2.4863
    -2.4845  -2.4732  -2.4661  -2.4274  -2.4109  -2.3990  -2.3925  -2.3829
    -2.2999  -2.2254  -2.1639  -2.0840  -2.0286  -2.0075  -1.9917  -1.9540
    -1.9211  -1.9017  -1.8849  -1.7528  -1.7365  -1.5846  -1.5714  -1.5513
    -1.5342  -1.4868  -1.4684  -1.3419  -1.2861  -1.2787  -1.2051  -1.1766
    -1.1591  -1.1023  -1.0861  -1.0046  -0.9614  -0.9219  -0.8658  -0.8072
    -0.7971  -0.7284  -0.7189  -0.6325  -0.6066  -0.5971  -0.5933  -0.5250
    -0.4915  -0.4050  -0.3964  -0.3751  -0.2603  -0.2025  -0.1850  -0.0067
     0.1652   0.1731   0.1947   0.2924   0.3254   0.3679   0.4351   0.4371
     0.5234   0.5733   0.6631   0.6833   0.6932   0.7745   1.5234   1.5244
     1.6157   1.6259   3.2850   3.5539   3.5926   3.5934   3.6537   3.8059
     3.8088   3.8256   3.8357   3.9681   3.9881

     the Fermi energy is     3.3173 ev

!    total energy              =   -2930.16707677 Ry
     estimated scf accuracy    <       0.00000004 Ry
     smearing contrib. (-TS)   =      -0.03330551 Ry
     internal energy E=F+TS    =   -2930.13377126 Ry

     The total energy is F=E-TS. E is the sum of the following terms:
     one-electron contribution =  -24706.30985515 Ry
     hartree contribution      =   12438.52121284 Ry
     xc contribution           =    -481.26211639 Ry
     ewald contribution        =    9818.91538997 Ry
     electric field correction =       0.00159747 Ry

     convergence has been achieved in  96 iterations

     Forces acting on atoms (cartesian axes, Ry/au):

     atom    1 type  1   force =    -0.00009901    0.00004010    0.10428597
     atom    2 type  1   force =    -0.00009121    0.00005038    0.10433719
     atom    3 type  2   force =    -0.00026190   -0.00201295    0.10304770
     atom    4 type  2   force =    -0.00013635    0.00161795    0.11351451
     atom    5 type  2   force =    -0.00036086    0.00048720   -0.18060952
     atom    6 type  2   force =    -0.00019138   -0.00002163   -0.18100382
     atom    7 type  1   force =    -0.06887538    0.00059689   -0.02906587
     atom    8 type  1   force =    -0.06839580   -0.00116224   -0.02909909
     atom    9 type  1   force =     0.06851216    0.00108689   -0.02913876
     atom   10 type  1   force =     0.06812476   -0.00075781   -0.02917865
     atom   11 type  1   force =     0.00041425    0.00043866    0.04544887
     atom   12 type  1   force =     0.00057421    0.00075891    0.04656271
     atom   13 type  1   force =     0.00030100   -0.00543362   -0.03228533
     atom   14 type  1   force =     0.00034002    0.00324746   -0.02496646
     atom   15 type  2   force =     0.00002007    0.00033826    0.00053393
     atom   16 type  2   force =     0.00007644   -0.00033091    0.00080613
     atom   17 type  2   force =    -0.00020571   -0.00110050    0.00027131
     atom   18 type  2   force =    -0.00023700    0.00076736   -0.00047829
     atom   19 type  1   force =    -0.01757882    0.00012505    0.00384637
     atom   20 type  1   force =    -0.01641523    0.00134032    0.00292543
     atom   21 type  1   force =     0.01894697   -0.00112634    0.00432686
     atom   22 type  1   force =     0.01760731    0.00110068    0.00323647
     atom   23 type  1   force =     0.00009196    0.00019344   -0.00073407
     atom   24 type  1   force =    -0.00008587   -0.00017918   -0.00054158
     atom   25 type  1   force =     0.00003819   -0.00061758    0.00021007
     atom   26 type  1   force =    -0.00019046    0.00041743    0.00005487
     atom   27 type  2   force =     0.00002488    0.00074714    0.00065757
     atom   28 type  2   force =     0.00000830   -0.00020008   -0.00006896
     atom   29 type  2   force =     0.00007547   -0.00018268    0.00029276
     atom   30 type  2   force =    -0.00020554   -0.00024373    0.00091244
     atom   31 type  1   force =    -0.00011457   -0.00017113   -0.00000654
     atom   32 type  1   force =     0.00030885    0.00033243    0.00013222
     atom   33 type  1   force =     0.00011099   -0.00011911    0.00000675
     atom   34 type  1   force =    -0.00058673    0.00021680    0.00013535
     atom   35 type  1   force =    -0.00004867   -0.00011717   -0.00035640
     atom   36 type  1   force =    -0.00000058    0.00025299   -0.00056385
     atom   37 type  1   force =    -0.00014279   -0.00030385   -0.00113882
     atom   38 type  1   force =    -0.00013681    0.00059710   -0.00171426
     atom   39 type  2   force =    -0.00029847    0.00068769    0.00054464
     atom   40 type  2   force =    -0.00030805   -0.00041252    0.00034699
     atom   41 type  2   force =    -0.00005229   -0.00058422    0.00087964
     atom   42 type  2   force =    -0.00004153    0.00054373    0.00087037
     atom   43 type  1   force =     0.00003132    0.00030951    0.00002932
     atom   44 type  1   force =    -0.00067399    0.00004775   -0.00019405
     atom   45 type  1   force =     0.00048663    0.00003863    0.00002844
     atom   46 type  1   force =    -0.00045815    0.00029257    0.00012484
     atom   47 type  1   force =    -0.00036387   -0.00004714    0.00036584
     atom   48 type  1   force =    -0.00261703    0.00114199    0.01935144
     atom   49 type  3   force =     0.00271534    0.00012938   -0.01498048
     atom   50 type  4   force =     0.00021019   -0.00127652   -0.00065448
     atom   51 type  4   force =     0.00015474   -0.00154384   -0.00130770

     Total force =     0.375089     Total SCF correction =     0.000744
  @ DRIVER MODE: Message from server: STATUS
  @ DRIVER MODE: Message from server: GETFORCE
  @ DRIVER MODE: Returning v,forces,stress,ensemble

     Writing output data file ./calc.save/
  @ DRIVER MODE: Message from server: EXIT
  @ DRIVE MODE: Exiting

     General routines

     Parallel routines

   This run was terminated on:  23:47:14   8Sep2021

   JOB DONE.